# vtk DataFile Version 3.0
vtk output
ASCII
DATASET UNSTRUCTURED_GRID
POINTS       496 double 
  0.00000000E+00  3.00000000E+02  0.00000000E+00
  0.00000000E+00  2.80000000E+02  0.00000000E+00
  0.00000000E+00  2.60000000E+02  0.00000000E+00
  0.00000000E+00  2.40000000E+02  0.00000000E+00
  0.00000000E+00  2.20000000E+02  0.00000000E+00
  0.00000000E+00  2.00000000E+02  0.00000000E+00
  0.00000000E+00  1.80000000E+02  0.00000000E+00
  0.00000000E+00  1.60000000E+02  0.00000000E+00
  0.00000000E+00  1.40000000E+02  0.00000000E+00
  0.00000000E+00  1.20000000E+02  0.00000000E+00
  0.00000000E+00  1.00000000E+02  0.00000000E+00
  0.00000000E+00  8.00000000E+01  0.00000000E+00
  0.00000000E+00  6.00000000E+01  0.00000000E+00
  0.00000000E+00  4.00000000E+01  0.00000000E+00
  0.00000000E+00  2.00000000E+01  0.00000000E+00
  0.00000000E+00  4.99600361E-14  0.00000000E+00
  2.00000000E+01  3.00000000E+02  0.00000000E+00
  2.00000000E+01  2.80000000E+02  0.00000000E+00
  2.00000000E+01  2.60000000E+02  0.00000000E+00
  2.00000000E+01  2.40000000E+02  0.00000000E+00
  2.00000000E+01  2.20000000E+02  0.00000000E+00
  2.00000000E+01  2.00000000E+02  0.00000000E+00
  2.00000000E+01  1.80000000E+02  0.00000000E+00
  2.00000000E+01  1.60000000E+02  0.00000000E+00
  2.00000000E+01  1.40000000E+02  0.00000000E+00
  2.00000000E+01  1.20000000E+02  0.00000000E+00
  2.00000000E+01  1.00000000E+02  0.00000000E+00
  2.00000000E+01  8.00000000E+01  0.00000000E+00
  2.00000000E+01  6.00000000E+01  0.00000000E+00
  2.00000000E+01  4.00000000E+01  0.00000000E+00
  2.00000000E+01  2.00000000E+01  0.00000000E+00
  2.00000000E+01  4.99600361E-14  0.00000000E+00
  4.00000000E+01  3.00000000E+02  0.00000000E+00
  4.00000000E+01  2.80000000E+02  0.00000000E+00
  4.00000000E+01  2.60000000E+02  0.00000000E+00
  4.00000000E+01  2.40000000E+02  0.00000000E+00
  4.00000000E+01  2.20000000E+02  0.00000000E+00
  4.00000000E+01  2.00000000E+02  0.00000000E+00
  4.00000000E+01  1.80000000E+02  0.00000000E+00
  4.00000000E+01  1.60000000E+02  0.00000000E+00
  4.00000000E+01  1.40000000E+02  0.00000000E+00
  4.00000000E+01  1.20000000E+02  0.00000000E+00
  4.00000000E+01  1.00000000E+02  0.00000000E+00
  4.00000000E+01  8.00000000E+01  0.00000000E+00
  4.00000000E+01  6.00000000E+01  0.00000000E+00
  4.00000000E+01  4.00000000E+01  0.00000000E+00
  4.00000000E+01  2.00000000E+01  0.00000000E+00
  4.00000000E+01  4.99600361E-14  0.00000000E+00
  6.00000000E+01  3.00000000E+02  0.00000000E+00
  6.00000000E+01  2.80000000E+02  0.00000000E+00
  6.00000000E+01  2.60000000E+02  0.00000000E+00
  6.00000000E+01  2.40000000E+02  0.00000000E+00
  6.00000000E+01  2.20000000E+02  0.00000000E+00
  6.00000000E+01  2.00000000E+02  0.00000000E+00
  6.00000000E+01  1.80000000E+02  0.00000000E+00
  6.00000000E+01  1.60000000E+02  0.00000000E+00
  6.00000000E+01  1.40000000E+02  0.00000000E+00
  6.00000000E+01  1.20000000E+02  0.00000000E+00
  6.00000000E+01  1.00000000E+02  0.00000000E+00
  6.00000000E+01  8.00000000E+01  0.00000000E+00
  6.00000000E+01  6.00000000E+01  0.00000000E+00
  6.00000000E+01  4.00000000E+01  0.00000000E+00
  6.00000000E+01  2.00000000E+01  0.00000000E+00
  6.00000000E+01  4.99600361E-14  0.00000000E+00
  8.00000000E+01  3.00000000E+02  0.00000000E+00
  8.00000000E+01  2.80000000E+02  0.00000000E+00
  8.00000000E+01  2.60000000E+02  0.00000000E+00
  8.00000000E+01  2.40000000E+02  0.00000000E+00
  8.00000000E+01  2.20000000E+02  0.00000000E+00
  8.00000000E+01  2.00000000E+02  0.00000000E+00
  8.00000000E+01  1.80000000E+02  0.00000000E+00
  8.00000000E+01  1.60000000E+02  0.00000000E+00
  8.00000000E+01  1.40000000E+02  0.00000000E+00
  8.00000000E+01  1.20000000E+02  0.00000000E+00
  8.00000000E+01  1.00000000E+02  0.00000000E+00
  8.00000000E+01  8.00000000E+01  0.00000000E+00
  8.00000000E+01  6.00000000E+01  0.00000000E+00
  8.00000000E+01  4.00000000E+01  0.00000000E+00
  8.00000000E+01  2.00000000E+01  0.00000000E+00
  8.00000000E+01  4.99600361E-14  0.00000000E+00
  1.00000000E+02  3.00000000E+02  0.00000000E+00
  1.00000000E+02  2.80000000E+02  0.00000000E+00
  1.00000000E+02  2.60000000E+02  0.00000000E+00
  1.00000000E+02  2.40000000E+02  0.00000000E+00
  1.00000000E+02  2.20000000E+02  0.00000000E+00
  1.00000000E+02  2.00000000E+02  0.00000000E+00
  1.00000000E+02  1.80000000E+02  0.00000000E+00
  1.00000000E+02  1.60000000E+02  0.00000000E+00
  1.00000000E+02  1.40000000E+02  0.00000000E+00
  1.00000000E+02  1.20000000E+02  0.00000000E+00
  1.00000000E+02  1.00000000E+02  0.00000000E+00
  1.00000000E+02  8.00000000E+01  0.00000000E+00
  1.00000000E+02  6.00000000E+01  0.00000000E+00
  1.00000000E+02  4.00000000E+01  0.00000000E+00
  1.00000000E+02  2.00000000E+01  0.00000000E+00
  1.00000000E+02  4.99600361E-14  0.00000000E+00
  1.20000000E+02  3.00000000E+02  0.00000000E+00
  1.20000000E+02  2.80000000E+02  0.00000000E+00
  1.20000000E+02  2.60000000E+02  0.00000000E+00
  1.20000000E+02  2.40000000E+02  0.00000000E+00
  1.20000000E+02  2.20000000E+02  0.00000000E+00
  1.20000000E+02  2.00000000E+02  0.00000000E+00
  1.20000000E+02  1.80000000E+02  0.00000000E+00
  1.20000000E+02  1.60000000E+02  0.00000000E+00
  1.20000000E+02  1.40000000E+02  0.00000000E+00
  1.20000000E+02  1.20000000E+02  0.00000000E+00
  1.20000000E+02  1.00000000E+02  0.00000000E+00
  1.20000000E+02  8.00000000E+01  0.00000000E+00
  1.20000000E+02  6.00000000E+01  0.00000000E+00
  1.20000000E+02  4.00000000E+01  0.00000000E+00
  1.20000000E+02  2.00000000E+01  0.00000000E+00
  1.20000000E+02  4.99600361E-14  0.00000000E+00
  1.40000000E+02  3.00000000E+02  0.00000000E+00
  1.40000000E+02  2.80000000E+02  0.00000000E+00
  1.40000000E+02  2.60000000E+02  0.00000000E+00
  1.40000000E+02  2.40000000E+02  0.00000000E+00
  1.40000000E+02  2.20000000E+02  0.00000000E+00
  1.40000000E+02  2.00000000E+02  0.00000000E+00
  1.40000000E+02  1.80000000E+02  0.00000000E+00
  1.40000000E+02  1.60000000E+02  0.00000000E+00
  1.40000000E+02  1.40000000E+02  0.00000000E+00
  1.40000000E+02  1.20000000E+02  0.00000000E+00
  1.40000000E+02  1.00000000E+02  0.00000000E+00
  1.40000000E+02  8.00000000E+01  0.00000000E+00
  1.40000000E+02  6.00000000E+01  0.00000000E+00
  1.40000000E+02  4.00000000E+01  0.00000000E+00
  1.40000000E+02  2.00000000E+01  0.00000000E+00
  1.40000000E+02  4.99600361E-14  0.00000000E+00
  1.60000000E+02  3.00000000E+02  0.00000000E+00
  1.60000000E+02  2.80000000E+02  0.00000000E+00
  1.60000000E+02  2.60000000E+02  0.00000000E+00
  1.60000000E+02  2.40000000E+02  0.00000000E+00
  1.60000000E+02  2.20000000E+02  0.00000000E+00
  1.60000000E+02  2.00000000E+02  0.00000000E+00
  1.60000000E+02  1.80000000E+02  0.00000000E+00
  1.60000000E+02  1.60000000E+02  0.00000000E+00
  1.60000000E+02  1.40000000E+02  0.00000000E+00
  1.60000000E+02  1.20000000E+02  0.00000000E+00
  1.60000000E+02  1.00000000E+02  0.00000000E+00
  1.60000000E+02  8.00000000E+01  0.00000000E+00
  1.60000000E+02  6.00000000E+01  0.00000000E+00
  1.60000000E+02  4.00000000E+01  0.00000000E+00
  1.60000000E+02  2.00000000E+01  0.00000000E+00
  1.60000000E+02  4.99600361E-14  0.00000000E+00
  1.80000000E+02  3.00000000E+02  0.00000000E+00
  1.80000000E+02  2.80000000E+02  0.00000000E+00
  1.80000000E+02  2.60000000E+02  0.00000000E+00
  1.80000000E+02  2.40000000E+02  0.00000000E+00
  1.80000000E+02  2.20000000E+02  0.00000000E+00
  1.80000000E+02  2.00000000E+02  0.00000000E+00
  1.80000000E+02  1.80000000E+02  0.00000000E+00
  1.80000000E+02  1.60000000E+02  0.00000000E+00
  1.80000000E+02  1.40000000E+02  0.00000000E+00
  1.80000000E+02  1.20000000E+02  0.00000000E+00
  1.80000000E+02  1.00000000E+02  0.00000000E+00
  1.80000000E+02  8.00000000E+01  0.00000000E+00
  1.80000000E+02  6.00000000E+01  0.00000000E+00
  1.80000000E+02  4.00000000E+01  0.00000000E+00
  1.80000000E+02  2.00000000E+01  0.00000000E+00
  1.80000000E+02  4.99600361E-14  0.00000000E+00
  2.00000000E+02  3.00000000E+02  0.00000000E+00
  2.00000000E+02  2.80000000E+02  0.00000000E+00
  2.00000000E+02  2.60000000E+02  0.00000000E+00
  2.00000000E+02  2.40000000E+02  0.00000000E+00
  2.00000000E+02  2.20000000E+02  0.00000000E+00
  2.00000000E+02  2.00000000E+02  0.00000000E+00
  2.00000000E+02  1.80000000E+02  0.00000000E+00
  2.00000000E+02  1.60000000E+02  0.00000000E+00
  2.00000000E+02  1.40000000E+02  0.00000000E+00
  2.00000000E+02  1.20000000E+02  0.00000000E+00
  2.00000000E+02  1.00000000E+02  0.00000000E+00
  2.00000000E+02  8.00000000E+01  0.00000000E+00
  2.00000000E+02  6.00000000E+01  0.00000000E+00
  2.00000000E+02  4.00000000E+01  0.00000000E+00
  2.00000000E+02  2.00000000E+01  0.00000000E+00
  2.00000000E+02  4.99600361E-14  0.00000000E+00
  2.20000000E+02  3.00000000E+02  0.00000000E+00
  2.20000000E+02  2.80000000E+02  0.00000000E+00
  2.20000000E+02  2.60000000E+02  0.00000000E+00
  2.20000000E+02  2.40000000E+02  0.00000000E+00
  2.20000000E+02  2.20000000E+02  0.00000000E+00
  2.20000000E+02  2.00000000E+02  0.00000000E+00
  2.20000000E+02  1.80000000E+02  0.00000000E+00
  2.20000000E+02  1.60000000E+02  0.00000000E+00
  2.20000000E+02  1.40000000E+02  0.00000000E+00
  2.20000000E+02  1.20000000E+02  0.00000000E+00
  2.20000000E+02  1.00000000E+02  0.00000000E+00
  2.20000000E+02  8.00000000E+01  0.00000000E+00
  2.20000000E+02  6.00000000E+01  0.00000000E+00
  2.20000000E+02  4.00000000E+01  0.00000000E+00
  2.20000000E+02  2.00000000E+01  0.00000000E+00
  2.20000000E+02  4.99600361E-14  0.00000000E+00
  2.40000000E+02  3.00000000E+02  0.00000000E+00
  2.40000000E+02  2.80000000E+02  0.00000000E+00
  2.40000000E+02  2.60000000E+02  0.00000000E+00
  2.40000000E+02  2.40000000E+02  0.00000000E+00
  2.40000000E+02  2.20000000E+02  0.00000000E+00
  2.40000000E+02  2.00000000E+02  0.00000000E+00
  2.40000000E+02  1.80000000E+02  0.00000000E+00
  2.40000000E+02  1.60000000E+02  0.00000000E+00
  2.40000000E+02  1.40000000E+02  0.00000000E+00
  2.40000000E+02  1.20000000E+02  0.00000000E+00
  2.40000000E+02  1.00000000E+02  0.00000000E+00
  2.40000000E+02  8.00000000E+01  0.00000000E+00
  2.40000000E+02  6.00000000E+01  0.00000000E+00
  2.40000000E+02  4.00000000E+01  0.00000000E+00
  2.40000000E+02  2.00000000E+01  0.00000000E+00
  2.40000000E+02  4.99600361E-14  0.00000000E+00
  2.60000000E+02  3.00000000E+02  0.00000000E+00
  2.60000000E+02  2.80000000E+02  0.00000000E+00
  2.60000000E+02  2.60000000E+02  0.00000000E+00
  2.60000000E+02  2.40000000E+02  0.00000000E+00
  2.60000000E+02  2.20000000E+02  0.00000000E+00
  2.60000000E+02  2.00000000E+02  0.00000000E+00
  2.60000000E+02  1.80000000E+02  0.00000000E+00
  2.60000000E+02  1.60000000E+02  0.00000000E+00
  2.60000000E+02  1.40000000E+02  0.00000000E+00
  2.60000000E+02  1.20000000E+02  0.00000000E+00
  2.60000000E+02  1.00000000E+02  0.00000000E+00
  2.60000000E+02  8.00000000E+01  0.00000000E+00
  2.60000000E+02  6.00000000E+01  0.00000000E+00
  2.60000000E+02  4.00000000E+01  0.00000000E+00
  2.60000000E+02  2.00000000E+01  0.00000000E+00
  2.60000000E+02  4.99600361E-14  0.00000000E+00
  2.80000000E+02  3.00000000E+02  0.00000000E+00
  2.80000000E+02  2.80000000E+02  0.00000000E+00
  2.80000000E+02  2.60000000E+02  0.00000000E+00
  2.80000000E+02  2.40000000E+02  0.00000000E+00
  2.80000000E+02  2.20000000E+02  0.00000000E+00
  2.80000000E+02  2.00000000E+02  0.00000000E+00
  2.80000000E+02  1.80000000E+02  0.00000000E+00
  2.80000000E+02  1.60000000E+02  0.00000000E+00
  2.80000000E+02  1.40000000E+02  0.00000000E+00
  2.80000000E+02  1.20000000E+02  0.00000000E+00
  2.80000000E+02  1.00000000E+02  0.00000000E+00
  2.80000000E+02  8.00000000E+01  0.00000000E+00
  2.80000000E+02  6.00000000E+01  0.00000000E+00
  2.80000000E+02  4.00000000E+01  0.00000000E+00
  2.80000000E+02  2.00000000E+01  0.00000000E+00
  2.80000000E+02  4.99600361E-14  0.00000000E+00
  3.00000000E+02  3.00000000E+02  0.00000000E+00
  3.00000000E+02  2.80000000E+02  0.00000000E+00
  3.00000000E+02  2.60000000E+02  0.00000000E+00
  3.00000000E+02  2.40000000E+02  0.00000000E+00
  3.00000000E+02  2.20000000E+02  0.00000000E+00
  3.00000000E+02  2.00000000E+02  0.00000000E+00
  3.00000000E+02  1.80000000E+02  0.00000000E+00
  3.00000000E+02  1.60000000E+02  0.00000000E+00
  3.00000000E+02  1.40000000E+02  0.00000000E+00
  3.00000000E+02  1.20000000E+02  0.00000000E+00
  3.00000000E+02  1.00000000E+02  0.00000000E+00
  3.00000000E+02  8.00000000E+01  0.00000000E+00
  3.00000000E+02  6.00000000E+01  0.00000000E+00
  3.00000000E+02  4.00000000E+01  0.00000000E+00
  3.00000000E+02  2.00000000E+01  0.00000000E+00
  3.00000000E+02  4.99600361E-14  0.00000000E+00
  3.20000000E+02  3.00000000E+02  0.00000000E+00
  3.20000000E+02  2.80000000E+02  0.00000000E+00
  3.20000000E+02  2.60000000E+02  0.00000000E+00
  3.20000000E+02  2.40000000E+02  0.00000000E+00
  3.20000000E+02  2.20000000E+02  0.00000000E+00
  3.20000000E+02  2.00000000E+02  0.00000000E+00
  3.20000000E+02  1.80000000E+02  0.00000000E+00
  3.20000000E+02  1.60000000E+02  0.00000000E+00
  3.20000000E+02  1.40000000E+02  0.00000000E+00
  3.20000000E+02  1.20000000E+02  0.00000000E+00
  3.20000000E+02  1.00000000E+02  0.00000000E+00
  3.20000000E+02  8.00000000E+01  0.00000000E+00
  3.20000000E+02  6.00000000E+01  0.00000000E+00
  3.20000000E+02  4.00000000E+01  0.00000000E+00
  3.20000000E+02  2.00000000E+01  0.00000000E+00
  3.20000000E+02  4.99600361E-14  0.00000000E+00
  3.40000000E+02  3.00000000E+02  0.00000000E+00
  3.40000000E+02  2.80000000E+02  0.00000000E+00
  3.40000000E+02  2.60000000E+02  0.00000000E+00
  3.40000000E+02  2.40000000E+02  0.00000000E+00
  3.40000000E+02  2.20000000E+02  0.00000000E+00
  3.40000000E+02  2.00000000E+02  0.00000000E+00
  3.40000000E+02  1.80000000E+02  0.00000000E+00
  3.40000000E+02  1.60000000E+02  0.00000000E+00
  3.40000000E+02  1.40000000E+02  0.00000000E+00
  3.40000000E+02  1.20000000E+02  0.00000000E+00
  3.40000000E+02  1.00000000E+02  0.00000000E+00
  3.40000000E+02  8.00000000E+01  0.00000000E+00
  3.40000000E+02  6.00000000E+01  0.00000000E+00
  3.40000000E+02  4.00000000E+01  0.00000000E+00
  3.40000000E+02  2.00000000E+01  0.00000000E+00
  3.40000000E+02  4.99600361E-14  0.00000000E+00
  3.60000000E+02  3.00000000E+02  0.00000000E+00
  3.60000000E+02  2.80000000E+02  0.00000000E+00
  3.60000000E+02  2.60000000E+02  0.00000000E+00
  3.60000000E+02  2.40000000E+02  0.00000000E+00
  3.60000000E+02  2.20000000E+02  0.00000000E+00
  3.60000000E+02  2.00000000E+02  0.00000000E+00
  3.60000000E+02  1.80000000E+02  0.00000000E+00
  3.60000000E+02  1.60000000E+02  0.00000000E+00
  3.60000000E+02  1.40000000E+02  0.00000000E+00
  3.60000000E+02  1.20000000E+02  0.00000000E+00
  3.60000000E+02  1.00000000E+02  0.00000000E+00
  3.60000000E+02  8.00000000E+01  0.00000000E+00
  3.60000000E+02  6.00000000E+01  0.00000000E+00
  3.60000000E+02  4.00000000E+01  0.00000000E+00
  3.60000000E+02  2.00000000E+01  0.00000000E+00
  3.60000000E+02  4.99600361E-14  0.00000000E+00
  3.80000000E+02  3.00000000E+02  0.00000000E+00
  3.80000000E+02  2.80000000E+02  0.00000000E+00
  3.80000000E+02  2.60000000E+02  0.00000000E+00
  3.80000000E+02  2.40000000E+02  0.00000000E+00
  3.80000000E+02  2.20000000E+02  0.00000000E+00
  3.80000000E+02  2.00000000E+02  0.00000000E+00
  3.80000000E+02  1.80000000E+02  0.00000000E+00
  3.80000000E+02  1.60000000E+02  0.00000000E+00
  3.80000000E+02  1.40000000E+02  0.00000000E+00
  3.80000000E+02  1.20000000E+02  0.00000000E+00
  3.80000000E+02  1.00000000E+02  0.00000000E+00
  3.80000000E+02  8.00000000E+01  0.00000000E+00
  3.80000000E+02  6.00000000E+01  0.00000000E+00
  3.80000000E+02  4.00000000E+01  0.00000000E+00
  3.80000000E+02  2.00000000E+01  0.00000000E+00
  3.80000000E+02  4.99600361E-14  0.00000000E+00
  4.00000000E+02  3.00000000E+02  0.00000000E+00
  4.00000000E+02  2.80000000E+02  0.00000000E+00
  4.00000000E+02  2.60000000E+02  0.00000000E+00
  4.00000000E+02  2.40000000E+02  0.00000000E+00
  4.00000000E+02  2.20000000E+02  0.00000000E+00
  4.00000000E+02  2.00000000E+02  0.00000000E+00
  4.00000000E+02  1.80000000E+02  0.00000000E+00
  4.00000000E+02  1.60000000E+02  0.00000000E+00
  4.00000000E+02  1.40000000E+02  0.00000000E+00
  4.00000000E+02  1.20000000E+02  0.00000000E+00
  4.00000000E+02  1.00000000E+02  0.00000000E+00
  4.00000000E+02  8.00000000E+01  0.00000000E+00
  4.00000000E+02  6.00000000E+01  0.00000000E+00
  4.00000000E+02  4.00000000E+01  0.00000000E+00
  4.00000000E+02  2.00000000E+01  0.00000000E+00
  4.00000000E+02  4.99600361E-14  0.00000000E+00
  4.20000000E+02  3.00000000E+02  0.00000000E+00
  4.20000000E+02  2.80000000E+02  0.00000000E+00
  4.20000000E+02  2.60000000E+02  0.00000000E+00
  4.20000000E+02  2.40000000E+02  0.00000000E+00
  4.20000000E+02  2.20000000E+02  0.00000000E+00
  4.20000000E+02  2.00000000E+02  0.00000000E+00
  4.20000000E+02  1.80000000E+02  0.00000000E+00
  4.20000000E+02  1.60000000E+02  0.00000000E+00
  4.20000000E+02  1.40000000E+02  0.00000000E+00
  4.20000000E+02  1.20000000E+02  0.00000000E+00
  4.20000000E+02  1.00000000E+02  0.00000000E+00
  4.20000000E+02  8.00000000E+01  0.00000000E+00
  4.20000000E+02  6.00000000E+01  0.00000000E+00
  4.20000000E+02  4.00000000E+01  0.00000000E+00
  4.20000000E+02  2.00000000E+01  0.00000000E+00
  4.20000000E+02  4.99600361E-14  0.00000000E+00
  4.40000000E+02  3.00000000E+02  0.00000000E+00
  4.40000000E+02  2.80000000E+02  0.00000000E+00
  4.40000000E+02  2.60000000E+02  0.00000000E+00
  4.40000000E+02  2.40000000E+02  0.00000000E+00
  4.40000000E+02  2.20000000E+02  0.00000000E+00
  4.40000000E+02  2.00000000E+02  0.00000000E+00
  4.40000000E+02  1.80000000E+02  0.00000000E+00
  4.40000000E+02  1.60000000E+02  0.00000000E+00
  4.40000000E+02  1.40000000E+02  0.00000000E+00
  4.40000000E+02  1.20000000E+02  0.00000000E+00
  4.40000000E+02  1.00000000E+02  0.00000000E+00
  4.40000000E+02  8.00000000E+01  0.00000000E+00
  4.40000000E+02  6.00000000E+01  0.00000000E+00
  4.40000000E+02  4.00000000E+01  0.00000000E+00
  4.40000000E+02  2.00000000E+01  0.00000000E+00
  4.40000000E+02  4.99600361E-14  0.00000000E+00
  4.60000000E+02  3.00000000E+02  0.00000000E+00
  4.60000000E+02  2.80000000E+02  0.00000000E+00
  4.60000000E+02  2.60000000E+02  0.00000000E+00
  4.60000000E+02  2.40000000E+02  0.00000000E+00
  4.60000000E+02  2.20000000E+02  0.00000000E+00
  4.60000000E+02  2.00000000E+02  0.00000000E+00
  4.60000000E+02  1.80000000E+02  0.00000000E+00
  4.60000000E+02  1.60000000E+02  0.00000000E+00
  4.60000000E+02  1.40000000E+02  0.00000000E+00
  4.60000000E+02  1.20000000E+02  0.00000000E+00
  4.60000000E+02  1.00000000E+02  0.00000000E+00
  4.60000000E+02  8.00000000E+01  0.00000000E+00
  4.60000000E+02  6.00000000E+01  0.00000000E+00
  4.60000000E+02  4.00000000E+01  0.00000000E+00
  4.60000000E+02  2.00000000E+01  0.00000000E+00
  4.60000000E+02  4.99600361E-14  0.00000000E+00
  4.80000000E+02  3.00000000E+02  0.00000000E+00
  4.80000000E+02  2.80000000E+02  0.00000000E+00
  4.80000000E+02  2.60000000E+02  0.00000000E+00
  4.80000000E+02  2.40000000E+02  0.00000000E+00
  4.80000000E+02  2.20000000E+02  0.00000000E+00
  4.80000000E+02  2.00000000E+02  0.00000000E+00
  4.80000000E+02  1.80000000E+02  0.00000000E+00
  4.80000000E+02  1.60000000E+02  0.00000000E+00
  4.80000000E+02  1.40000000E+02  0.00000000E+00
  4.80000000E+02  1.20000000E+02  0.00000000E+00
  4.80000000E+02  1.00000000E+02  0.00000000E+00
  4.80000000E+02  8.00000000E+01  0.00000000E+00
  4.80000000E+02  6.00000000E+01  0.00000000E+00
  4.80000000E+02  4.00000000E+01  0.00000000E+00
  4.80000000E+02  2.00000000E+01  0.00000000E+00
  4.80000000E+02  4.99600361E-14  0.00000000E+00
  5.00000000E+02  3.00000000E+02  0.00000000E+00
  5.00000000E+02  2.80000000E+02  0.00000000E+00
  5.00000000E+02  2.60000000E+02  0.00000000E+00
  5.00000000E+02  2.40000000E+02  0.00000000E+00
  5.00000000E+02  2.20000000E+02  0.00000000E+00
  5.00000000E+02  2.00000000E+02  0.00000000E+00
  5.00000000E+02  1.80000000E+02  0.00000000E+00
  5.00000000E+02  1.60000000E+02  0.00000000E+00
  5.00000000E+02  1.40000000E+02  0.00000000E+00
  5.00000000E+02  1.20000000E+02  0.00000000E+00
  5.00000000E+02  1.00000000E+02  0.00000000E+00
  5.00000000E+02  8.00000000E+01  0.00000000E+00
  5.00000000E+02  6.00000000E+01  0.00000000E+00
  5.00000000E+02  4.00000000E+01  0.00000000E+00
  5.00000000E+02  2.00000000E+01  0.00000000E+00
  5.00000000E+02  4.99600361E-14  0.00000000E+00
  5.20000000E+02  3.00000000E+02  0.00000000E+00
  5.20000000E+02  2.80000000E+02  0.00000000E+00
  5.20000000E+02  2.60000000E+02  0.00000000E+00
  5.20000000E+02  2.40000000E+02  0.00000000E+00
  5.20000000E+02  2.20000000E+02  0.00000000E+00
  5.20000000E+02  2.00000000E+02  0.00000000E+00
  5.20000000E+02  1.80000000E+02  0.00000000E+00
  5.20000000E+02  1.60000000E+02  0.00000000E+00
  5.20000000E+02  1.40000000E+02  0.00000000E+00
  5.20000000E+02  1.20000000E+02  0.00000000E+00
  5.20000000E+02  1.00000000E+02  0.00000000E+00
  5.20000000E+02  8.00000000E+01  0.00000000E+00
  5.20000000E+02  6.00000000E+01  0.00000000E+00
  5.20000000E+02  4.00000000E+01  0.00000000E+00
  5.20000000E+02  2.00000000E+01  0.00000000E+00
  5.20000000E+02  4.99600361E-14  0.00000000E+00
  5.40000000E+02  3.00000000E+02  0.00000000E+00
  5.40000000E+02  2.80000000E+02  0.00000000E+00
  5.40000000E+02  2.60000000E+02  0.00000000E+00
  5.40000000E+02  2.40000000E+02  0.00000000E+00
  5.40000000E+02  2.20000000E+02  0.00000000E+00
  5.40000000E+02  2.00000000E+02  0.00000000E+00
  5.40000000E+02  1.80000000E+02  0.00000000E+00
  5.40000000E+02  1.60000000E+02  0.00000000E+00
  5.40000000E+02  1.40000000E+02  0.00000000E+00
  5.40000000E+02  1.20000000E+02  0.00000000E+00
  5.40000000E+02  1.00000000E+02  0.00000000E+00
  5.40000000E+02  8.00000000E+01  0.00000000E+00
  5.40000000E+02  6.00000000E+01  0.00000000E+00
  5.40000000E+02  4.00000000E+01  0.00000000E+00
  5.40000000E+02  2.00000000E+01  0.00000000E+00
  5.40000000E+02  4.99600361E-14  0.00000000E+00
  5.60000000E+02  3.00000000E+02  0.00000000E+00
  5.60000000E+02  2.80000000E+02  0.00000000E+00
  5.60000000E+02  2.60000000E+02  0.00000000E+00
  5.60000000E+02  2.40000000E+02  0.00000000E+00
  5.60000000E+02  2.20000000E+02  0.00000000E+00
  5.60000000E+02  2.00000000E+02  0.00000000E+00
  5.60000000E+02  1.80000000E+02  0.00000000E+00
  5.60000000E+02  1.60000000E+02  0.00000000E+00
  5.60000000E+02  1.40000000E+02  0.00000000E+00
  5.60000000E+02  1.20000000E+02  0.00000000E+00
  5.60000000E+02  1.00000000E+02  0.00000000E+00
  5.60000000E+02  8.00000000E+01  0.00000000E+00
  5.60000000E+02  6.00000000E+01  0.00000000E+00
  5.60000000E+02  4.00000000E+01  0.00000000E+00
  5.60000000E+02  2.00000000E+01  0.00000000E+00
  5.60000000E+02  4.99600361E-14  0.00000000E+00
  5.80000000E+02  3.00000000E+02  0.00000000E+00
  5.80000000E+02  2.80000000E+02  0.00000000E+00
  5.80000000E+02  2.60000000E+02  0.00000000E+00
  5.80000000E+02  2.40000000E+02  0.00000000E+00
  5.80000000E+02  2.20000000E+02  0.00000000E+00
  5.80000000E+02  2.00000000E+02  0.00000000E+00
  5.80000000E+02  1.80000000E+02  0.00000000E+00
  5.80000000E+02  1.60000000E+02  0.00000000E+00
  5.80000000E+02  1.40000000E+02  0.00000000E+00
  5.80000000E+02  1.20000000E+02  0.00000000E+00
  5.80000000E+02  1.00000000E+02  0.00000000E+00
  5.80000000E+02  8.00000000E+01  0.00000000E+00
  5.80000000E+02  6.00000000E+01  0.00000000E+00
  5.80000000E+02  4.00000000E+01  0.00000000E+00
  5.80000000E+02  2.00000000E+01  0.00000000E+00
  5.80000000E+02  4.99600361E-14  0.00000000E+00
  6.00000000E+02  3.00000000E+02  0.00000000E+00
  6.00000000E+02  2.80000000E+02  0.00000000E+00
  6.00000000E+02  2.60000000E+02  0.00000000E+00
  6.00000000E+02  2.40000000E+02  0.00000000E+00
  6.00000000E+02  2.20000000E+02  0.00000000E+00
  6.00000000E+02  2.00000000E+02  0.00000000E+00
  6.00000000E+02  1.80000000E+02  0.00000000E+00
  6.00000000E+02  1.60000000E+02  0.00000000E+00
  6.00000000E+02  1.40000000E+02  0.00000000E+00
  6.00000000E+02  1.20000000E+02  0.00000000E+00
  6.00000000E+02  1.00000000E+02  0.00000000E+00
  6.00000000E+02  8.00000000E+01  0.00000000E+00
  6.00000000E+02  6.00000000E+01  0.00000000E+00
  6.00000000E+02  4.00000000E+01  0.00000000E+00
  6.00000000E+02  2.00000000E+01  0.00000000E+00
  6.00000000E+02  4.99600361E-14  0.00000000E+00
CELLS       450      2250
         4           0           1          17          16
         4           1           2          18          17
         4           2           3          19          18
         4           3           4          20          19
         4           4           5          21          20
         4           5           6          22          21
         4           6           7          23          22
         4           7           8          24          23
         4           8           9          25          24
         4           9          10          26          25
         4          10          11          27          26
         4          11          12          28          27
         4          12          13          29          28
         4          13          14          30          29
         4          14          15          31          30
         4          16          17          33          32
         4          17          18          34          33
         4          18          19          35          34
         4          19          20          36          35
         4          20          21          37          36
         4          21          22          38          37
         4          22          23          39          38
         4          23          24          40          39
         4          24          25          41          40
         4          25          26          42          41
         4          26          27          43          42
         4          27          28          44          43
         4          28          29          45          44
         4          29          30          46          45
         4          30          31          47          46
         4          32          33          49          48
         4          33          34          50          49
         4          34          35          51          50
         4          35          36          52          51
         4          36          37          53          52
         4          37          38          54          53
         4          38          39          55          54
         4          39          40          56          55
         4          40          41          57          56
         4          41          42          58          57
         4          42          43          59          58
         4          43          44          60          59
         4          44          45          61          60
         4          45          46          62          61
         4          46          47          63          62
         4          48          49          65          64
         4          49          50          66          65
         4          50          51          67          66
         4          51          52          68          67
         4          52          53          69          68
         4          53          54          70          69
         4          54          55          71          70
         4          55          56          72          71
         4          56          57          73          72
         4          57          58          74          73
         4          58          59          75          74
         4          59          60          76          75
         4          60          61          77          76
         4          61          62          78          77
         4          62          63          79          78
         4          64          65          81          80
         4          65          66          82          81
         4          66          67          83          82
         4          67          68          84          83
         4          68          69          85          84
         4          69          70          86          85
         4          70          71          87          86
         4          71          72          88          87
         4          72          73          89          88
         4          73          74          90          89
         4          74          75          91          90
         4          75          76          92          91
         4          76          77          93          92
         4          77          78          94          93
         4          78          79          95          94
         4          80          81          97          96
         4          81          82          98          97
         4          82          83          99          98
         4          83          84         100          99
         4          84          85         101         100
         4          85          86         102         101
         4          86          87         103         102
         4          87          88         104         103
         4          88          89         105         104
         4          89          90         106         105
         4          90          91         107         106
         4          91          92         108         107
         4          92          93         109         108
         4          93          94         110         109
         4          94          95         111         110
         4          96          97         113         112
         4          97          98         114         113
         4          98          99         115         114
         4          99         100         116         115
         4         100         101         117         116
         4         101         102         118         117
         4         102         103         119         118
         4         103         104         120         119
         4         104         105         121         120
         4         105         106         122         121
         4         106         107         123         122
         4         107         108         124         123
         4         108         109         125         124
         4         109         110         126         125
         4         110         111         127         126
         4         112         113         129         128
         4         113         114         130         129
         4         114         115         131         130
         4         115         116         132         131
         4         116         117         133         132
         4         117         118         134         133
         4         118         119         135         134
         4         119         120         136         135
         4         120         121         137         136
         4         121         122         138         137
         4         122         123         139         138
         4         123         124         140         139
         4         124         125         141         140
         4         125         126         142         141
         4         126         127         143         142
         4         128         129         145         144
         4         129         130         146         145
         4         130         131         147         146
         4         131         132         148         147
         4         132         133         149         148
         4         133         134         150         149
         4         134         135         151         150
         4         135         136         152         151
         4         136         137         153         152
         4         137         138         154         153
         4         138         139         155         154
         4         139         140         156         155
         4         140         141         157         156
         4         141         142         158         157
         4         142         143         159         158
         4         144         145         161         160
         4         145         146         162         161
         4         146         147         163         162
         4         147         148         164         163
         4         148         149         165         164
         4         149         150         166         165
         4         150         151         167         166
         4         151         152         168         167
         4         152         153         169         168
         4         153         154         170         169
         4         154         155         171         170
         4         155         156         172         171
         4         156         157         173         172
         4         157         158         174         173
         4         158         159         175         174
         4         160         161         177         176
         4         161         162         178         177
         4         162         163         179         178
         4         163         164         180         179
         4         164         165         181         180
         4         165         166         182         181
         4         166         167         183         182
         4         167         168         184         183
         4         168         169         185         184
         4         169         170         186         185
         4         170         171         187         186
         4         171         172         188         187
         4         172         173         189         188
         4         173         174         190         189
         4         174         175         191         190
         4         176         177         193         192
         4         177         178         194         193
         4         178         179         195         194
         4         179         180         196         195
         4         180         181         197         196
         4         181         182         198         197
         4         182         183         199         198
         4         183         184         200         199
         4         184         185         201         200
         4         185         186         202         201
         4         186         187         203         202
         4         187         188         204         203
         4         188         189         205         204
         4         189         190         206         205
         4         190         191         207         206
         4         192         193         209         208
         4         193         194         210         209
         4         194         195         211         210
         4         195         196         212         211
         4         196         197         213         212
         4         197         198         214         213
         4         198         199         215         214
         4         199         200         216         215
         4         200         201         217         216
         4         201         202         218         217
         4         202         203         219         218
         4         203         204         220         219
         4         204         205         221         220
         4         205         206         222         221
         4         206         207         223         222
         4         208         209         225         224
         4         209         210         226         225
         4         210         211         227         226
         4         211         212         228         227
         4         212         213         229         228
         4         213         214         230         229
         4         214         215         231         230
         4         215         216         232         231
         4         216         217         233         232
         4         217         218         234         233
         4         218         219         235         234
         4         219         220         236         235
         4         220         221         237         236
         4         221         222         238         237
         4         222         223         239         238
         4         224         225         241         240
         4         225         226         242         241
         4         226         227         243         242
         4         227         228         244         243
         4         228         229         245         244
         4         229         230         246         245
         4         230         231         247         246
         4         231         232         248         247
         4         232         233         249         248
         4         233         234         250         249
         4         234         235         251         250
         4         235         236         252         251
         4         236         237         253         252
         4         237         238         254         253
         4         238         239         255         254
         4         240         241         257         256
         4         241         242         258         257
         4         242         243         259         258
         4         243         244         260         259
         4         244         245         261         260
         4         245         246         262         261
         4         246         247         263         262
         4         247         248         264         263
         4         248         249         265         264
         4         249         250         266         265
         4         250         251         267         266
         4         251         252         268         267
         4         252         253         269         268
         4         253         254         270         269
         4         254         255         271         270
         4         256         257         273         272
         4         257         258         274         273
         4         258         259         275         274
         4         259         260         276         275
         4         260         261         277         276
         4         261         262         278         277
         4         262         263         279         278
         4         263         264         280         279
         4         264         265         281         280
         4         265         266         282         281
         4         266         267         283         282
         4         267         268         284         283
         4         268         269         285         284
         4         269         270         286         285
         4         270         271         287         286
         4         272         273         289         288
         4         273         274         290         289
         4         274         275         291         290
         4         275         276         292         291
         4         276         277         293         292
         4         277         278         294         293
         4         278         279         295         294
         4         279         280         296         295
         4         280         281         297         296
         4         281         282         298         297
         4         282         283         299         298
         4         283         284         300         299
         4         284         285         301         300
         4         285         286         302         301
         4         286         287         303         302
         4         288         289         305         304
         4         289         290         306         305
         4         290         291         307         306
         4         291         292         308         307
         4         292         293         309         308
         4         293         294         310         309
         4         294         295         311         310
         4         295         296         312         311
         4         296         297         313         312
         4         297         298         314         313
         4         298         299         315         314
         4         299         300         316         315
         4         300         301         317         316
         4         301         302         318         317
         4         302         303         319         318
         4         304         305         321         320
         4         305         306         322         321
         4         306         307         323         322
         4         307         308         324         323
         4         308         309         325         324
         4         309         310         326         325
         4         310         311         327         326
         4         311         312         328         327
         4         312         313         329         328
         4         313         314         330         329
         4         314         315         331         330
         4         315         316         332         331
         4         316         317         333         332
         4         317         318         334         333
         4         318         319         335         334
         4         320         321         337         336
         4         321         322         338         337
         4         322         323         339         338
         4         323         324         340         339
         4         324         325         341         340
         4         325         326         342         341
         4         326         327         343         342
         4         327         328         344         343
         4         328         329         345         344
         4         329         330         346         345
         4         330         331         347         346
         4         331         332         348         347
         4         332         333         349         348
         4         333         334         350         349
         4         334         335         351         350
         4         336         337         353         352
         4         337         338         354         353
         4         338         339         355         354
         4         339         340         356         355
         4         340         341         357         356
         4         341         342         358         357
         4         342         343         359         358
         4         343         344         360         359
         4         344         345         361         360
         4         345         346         362         361
         4         346         347         363         362
         4         347         348         364         363
         4         348         349         365         364
         4         349         350         366         365
         4         350         351         367         366
         4         352         353         369         368
         4         353         354         370         369
         4         354         355         371         370
         4         355         356         372         371
         4         356         357         373         372
         4         357         358         374         373
         4         358         359         375         374
         4         359         360         376         375
         4         360         361         377         376
         4         361         362         378         377
         4         362         363         379         378
         4         363         364         380         379
         4         364         365         381         380
         4         365         366         382         381
         4         366         367         383         382
         4         368         369         385         384
         4         369         370         386         385
         4         370         371         387         386
         4         371         372         388         387
         4         372         373         389         388
         4         373         374         390         389
         4         374         375         391         390
         4         375         376         392         391
         4         376         377         393         392
         4         377         378         394         393
         4         378         379         395         394
         4         379         380         396         395
         4         380         381         397         396
         4         381         382         398         397
         4         382         383         399         398
         4         384         385         401         400
         4         385         386         402         401
         4         386         387         403         402
         4         387         388         404         403
         4         388         389         405         404
         4         389         390         406         405
         4         390         391         407         406
         4         391         392         408         407
         4         392         393         409         408
         4         393         394         410         409
         4         394         395         411         410
         4         395         396         412         411
         4         396         397         413         412
         4         397         398         414         413
         4         398         399         415         414
         4         400         401         417         416
         4         401         402         418         417
         4         402         403         419         418
         4         403         404         420         419
         4         404         405         421         420
         4         405         406         422         421
         4         406         407         423         422
         4         407         408         424         423
         4         408         409         425         424
         4         409         410         426         425
         4         410         411         427         426
         4         411         412         428         427
         4         412         413         429         428
         4         413         414         430         429
         4         414         415         431         430
         4         416         417         433         432
         4         417         418         434         433
         4         418         419         435         434
         4         419         420         436         435
         4         420         421         437         436
         4         421         422         438         437
         4         422         423         439         438
         4         423         424         440         439
         4         424         425         441         440
         4         425         426         442         441
         4         426         427         443         442
         4         427         428         444         443
         4         428         429         445         444
         4         429         430         446         445
         4         430         431         447         446
         4         432         433         449         448
         4         433         434         450         449
         4         434         435         451         450
         4         435         436         452         451
         4         436         437         453         452
         4         437         438         454         453
         4         438         439         455         454
         4         439         440         456         455
         4         440         441         457         456
         4         441         442         458         457
         4         442         443         459         458
         4         443         444         460         459
         4         444         445         461         460
         4         445         446         462         461
         4         446         447         463         462
         4         448         449         465         464
         4         449         450         466         465
         4         450         451         467         466
         4         451         452         468         467
         4         452         453         469         468
         4         453         454         470         469
         4         454         455         471         470
         4         455         456         472         471
         4         456         457         473         472
         4         457         458         474         473
         4         458         459         475         474
         4         459         460         476         475
         4         460         461         477         476
         4         461         462         478         477
         4         462         463         479         478
         4         464         465         481         480
         4         465         466         482         481
         4         466         467         483         482
         4         467         468         484         483
         4         468         469         485         484
         4         469         470         486         485
         4         470         471         487         486
         4         471         472         488         487
         4         472         473         489         488
         4         473         474         490         489
         4         474         475         491         490
         4         475         476         492         491
         4         476         477         493         492
         4         477         478         494         493
         4         478         479         495         494
CELL_TYPES        450
9
9
9
9
9
9
9
9
9
9
9
9
9
9
9
9
9
9
9
9
9
9
9
9
9
9
9
9
9
9
9
9
9
9
9
9
9
9
9
9
9
9
9
9
9
9
9
9
9
9
9
9
9
9
9
9
9
9
9
9
9
9
9
9
9
9
9
9
9
9
9
9
9
9
9
9
9
9
9
9
9
9
9
9
9
9
9
9
9
9
9
9
9
9
9
9
9
9
9
9
9
9
9
9
9
9
9
9
9
9
9
9
9
9
9
9
9
9
9
9
9
9
9
9
9
9
9
9
9
9
9
9
9
9
9
9
9
9
9
9
9
9
9
9
9
9
9
9
9
9
9
9
9
9
9
9
9
9
9
9
9
9
9
9
9
9
9
9
9
9
9
9
9
9
9
9
9
9
9
9
9
9
9
9
9
9
9
9
9
9
9
9
9
9
9
9
9
9
9
9
9
9
9
9
9
9
9
9
9
9
9
9
9
9
9
9
9
9
9
9
9
9
9
9
9
9
9
9
9
9
9
9
9
9
9
9
9
9
9
9
9
9
9
9
9
9
9
9
9
9
9
9
9
9
9
9
9
9
9
9
9
9
9
9
9
9
9
9
9
9
9
9
9
9
9
9
9
9
9
9
9
9
9
9
9
9
9
9
9
9
9
9
9
9
9
9
9
9
9
9
9
9
9
9
9
9
9
9
9
9
9
9
9
9
9
9
9
9
9
9
9
9
9
9
9
9
9
9
9
9
9
9
9
9
9
9
9
9
9
9
9
9
9
9
9
9
9
9
9
9
9
9
9
9
9
9
9
9
9
9
9
9
9
9
9
9
9
9
9
9
9
9
9
9
9
9
9
9
9
9
9
9
9
9
9
9
9
9
9
9
9
9
9
9
9
9
9
9
9
9
9
9
9
9
9
9
9
9
9
9
9
9
9
9
9
9
9
9
9
9
9
9
9
9
9
9
9
9
9
9
9
9
9
9
9
9
9
9
9
9
9
9
9
9
9
9
9
9
9
9
POINT_DATA       496
SCALARS p double 
LOOKUP_TABLE default
   85000000.0000000     
   85000000.0000000     
   85000000.0000000     
   85000000.0000000     
   85000000.0000000     
   85000000.0000000     
   85000000.0000000     
   85000000.0000000     
   85000000.0000000     
   85000000.0000000     
   85000000.0000000     
   85000000.0000000     
   85000000.0000000     
   85000000.0000000     
   85000000.0000000     
   85000000.0000000     
   82202243.6307948     
   82201667.3941148     
   82201545.5558132     
   82202476.7605941     
   82204310.8405034     
   82206771.4962875     
   82209613.3897461     
   82212627.9342106     
   82215641.2221929     
   82218505.8657001     
   82221091.6979125     
   82223277.5582000     
   82224946.6128920     
   82225991.5224903     
   82226341.8300922     
   82226130.0854518     
   79413582.4502504     
   79413918.1853006     
   79415417.1862174     
   79418337.9071517     
   79422518.5787419     
   79427620.3969213     
   79433275.3254619     
   79439155.1688279     
   79444979.2009097     
   79450507.1860202     
   79455527.6073451     
   79459847.0873193     
   79463286.4807947     
   79465692.1798003     
   79466989.5697192     
   79467331.8838925     
   76647929.4167006     
   76649197.9655918     
   76652702.0136195     
   76658055.7977695     
   76664846.4457893     
   76672628.1868937     
   76680969.3056313     
   76689483.4791457     
   76697839.7043338     
   76705754.6533236     
   76712979.7286215     
   76719288.8979546     
   76724472.4878453     
   76728343.4728300     
   76730761.1784458     
   76731626.2463469     
   73916184.8295346     
   73918327.7432455     
   73923747.7195848     
   73931458.0759976     
   73940727.2572092     
   73950963.1870029     
   73961670.5517315     
   73972435.7491713     
   73982914.5819390     
   73992817.1060664     
   74001890.1405904     
   74009900.6117646     
   74016621.8927854     
   74021822.7909117     
   74025247.9031457     
   74026562.2075282     
   71227443.6053715     
   71230262.9440496     
   71237232.7064392     
   71246869.2446616     
   71258149.9353564     
   71270334.4849325     
   71282867.1913770     
   71295320.5944056     
   71307358.6555843     
   71318707.7035361     
   71329130.6503119     
   71338402.7977050     
   71346287.6800045     
   71352508.2938475     
   71356703.3456453     
   71358353.0646804     
   68588400.8597240     
   68591661.3730006     
   68599654.0368950     
   68610561.3144843     
   68623144.1613813     
   68636547.2034048     
   68650170.3527324     
   68663585.0153689     
   68676476.5731657     
   68688601.3711093     
   68699751.0617228     
   68709719.8292816     
   68718270.4060706     
   68725093.3728965     
   68729752.0260397     
   68731604.5810741     
   66003165.6539091     
   66006612.9213517     
   66015029.2885092     
   66026430.4944777     
   66039461.8188616     
   66053207.4657953     
   66067052.2466115     
   66080583.2676665     
   66093518.9553207     
   66105655.1990887     
   66116821.1738059     
   66126839.2256266     
   66135483.8887645     
   66142434.8789226     
   66147218.6419465     
   66149133.9258448     
   63473177.4721035     
   63476558.3738637     
   63484786.2144775     
   63495868.3079890     
   63508440.2275656     
   63521590.9136769     
   63534727.8264246     
   63547475.2319088     
   63559597.2866148     
   63570938.0799176     
   63581372.0356895     
   63590759.2119453     
   63598900.7403475     
   63605490.0528201     
   63610056.0921712     
   63611895.9279694     
   60997278.7846031     
   61000357.9944440     
   61007818.5887284     
   61017800.2970306     
   61029028.9097060     
   61040664.1401551     
   61052177.0332056     
   61063253.2005014     
   61073716.6846707     
   61083468.8911914     
   61092437.3723322     
   61100529.8365445     
   61107589.3467737     
   61113347.2730310     
   61117371.3620852     
   61119007.4675904     
   58571922.9730170     
   58574496.0926159     
   58580680.3418177     
   58588865.6888645     
   58597955.0366637     
   58607239.1644875     
   58616292.0442244     
   58624884.9618021     
   58632916.5296602     
   58640354.9907207     
   58647189.0845258     
   58653383.9648921     
   58658839.0744454     
   58663345.4581793     
   58666540.7782166     
   58667861.3109037     
   56191492.3862916     
   56193395.4326458     
   56197890.2225790     
   56203708.2969695     
   56209999.2911446     
   56216235.2118623     
   56222127.0407167     
   56227553.6791706     
   56232502.0416055     
   56237016.3158242     
   56241154.0480167     
   56244946.6913781     
   56248362.5011394     
   56251270.1173384     
   56253401.8334797     
   56254316.3797863     
   53848695.9141699     
   53849811.2008029     
   53852316.3730237     
   53855347.8345316     
   53858352.0014725     
   53861019.4622508     
   53863224.4755444     
   53864971.0329441     
   53866345.6132114     
   53867475.9583382     
   53868494.7340106     
   53869506.7736972     
   53870558.7024710     
   53871610.0536060     
   53872505.4934166     
   53872948.4165507     
   51535014.6652156     
   51535273.3104341     
   51535609.8890008     
   51535601.0400162     
   51535019.6815853     
   51533798.1956472     
   51531991.0127086     
   51529738.7340262     
   51527234.9275382     
   51524695.9698620     
   51522333.8025933     
   51520331.2213933     
   51518819.2977015     
   51517856.7149425     
   51517411.1499622     
   51517343.3067891     
   49241166.2294046     
   49240547.7050566     
   49238658.3801464     
   49235524.0937352     
   49231254.1313490     
   49226031.4766377     
   49220097.5586739     
   49213734.2780600     
   49207245.1987443     
   49200937.0883523     
   49195102.4898518     
   49190003.7106766     
   49185858.5093818     
   49182827.8236039     
   49181006.0901361     
   49180415.0277684     
   46957561.8017822     
   46956091.0485140     
   46952034.1852325     
   46945851.3590214     
   46937979.6497965     
   46928847.6354944     
   46918880.5326694     
   46908499.1038989     
   46898114.7509752     
   46888122.5914590     
   46878893.8475803     
   46870768.5598963     
   46864049.4671635     
   46858997.8561633     
   46855832.2635415     
   46854731.0861146     
   44674735.2732473     
   44672477.9547450     
   44666416.5267445     
   44657409.9439939     
   44646198.1671243     
   44633437.7818909     
   44619725.1649220     
   44605610.5910945     
   44591606.0543661     
   44578189.0564778     
   44565804.2004849     
   44554864.1079496     
   44545750.9589883     
   44538819.8287929     
   44534404.9545038     
   44532830.1025572     
   42383728.5540879     
   42380785.0127145     
   42372971.8612064     
   42361494.3800393     
   42347356.6926992     
   42331414.9297513     
   42314415.6679775     
   42297023.0792757     
   42279837.7785719     
   42263409.9657793     
   42248249.1035219     
   42234832.0630630     
   42223611.4124195     
   42215025.3165839     
   42209510.3693944     
   42207518.5782139     
   40076422.3551063     
   40072920.7805553     
   40063681.4976158     
   40050190.3845204     
   40033665.9709594     
   40015126.6011093     
   39995441.1869391     
   39975366.9109702     
   39955577.0016704     
   39936681.4480183     
   39919243.2341079     
   39903792.3752189     
   39890839.7431201     
   39880892.3922693     
   39874471.8431580     
   39872136.5465768     
   37745806.0603412     
   37741895.3075936     
   37731609.8723620     
   37716640.8873670     
   37698363.3180272     
   37677913.7057211     
   37656250.1966784     
   37634198.0876457     
   37612484.1272764     
   37591762.6959938     
   37572636.7557390     
   37555676.1591093     
   37541435.5766827     
   37530473.9605973     
   37523377.1102348     
   37520784.5387698     
   35386183.9955512     
   35382026.4022919     
   35371110.4903478     
   35355251.0575611     
   35335916.0824358     
   35314311.8651005     
   35291449.2812226     
   35268194.2895993     
   35245306.1186555     
   35223466.5567317     
   35203303.5490643     
   35185411.9679943     
   35170374.0505535     
   35158781.6094794     
   35151261.6952640     
   35148506.8883129     
   32993318.2688831     
   32989082.7350694     
   32977969.3956608     
   32961831.8815813     
   32942164.9393143     
   32920194.0639798     
   32896944.8987179     
   32873295.6386028     
   32850016.2497753     
   32827798.3418636     
   32807279.2163342     
   32789063.1830160     
   32773742.8227622     
   32761922.4829977     
   32754245.8408765     
   32751428.7572140     
   30564510.4719089     
   30560365.9791493     
   30549488.1369284     
   30533683.9174883     
   30514408.2680171     
   30492855.5393723     
   30470028.7727771     
   30446790.6467971     
   30423900.6690727     
   30402043.0252008     
   30381848.8906213     
   30363916.3965274     
   30348831.0042741     
   30337188.7463275     
   30329624.4391493     
   30326846.3113365     
   28098625.9846615     
   28094735.6460250     
   28084509.6127560     
   28069624.2142910     
   28051430.1963015     
   28031043.1706591     
   28009408.9765169     
   27987349.3217905     
   27965593.7009604     
   27944802.7080375     
   27925586.6471320     
   27908522.4484811     
   27894171.4948945     
   27883100.9456809     
   27875911.1456069     
   27873271.1821026     
   25596065.5793748     
   25592581.2018782     
   25583391.0088888     
   25569960.0815286     
   25553475.5349071     
   25534932.3439013     
   25515189.6450244     
   25495006.4572738     
   25475065.0472443     
   25455987.6135937     
   25438349.7920184     
   25422693.2874259     
   25409539.6871892     
   25399407.9888777     
   25392839.2295048     
   25390431.7179562     
   23058689.6651597     
   23055746.6234009     
   23047928.3218795     
   23036413.3737174     
   23022174.7389327     
   23006054.3675246     
   22988802.6655310     
   22971098.8508279     
   22953563.0021784     
   22936765.0172644     
   22921232.5919818     
   22907459.1859469     
   22895912.8074898     
   22887047.6369232     
   22881322.7562965     
   22879234.5445989     
   20489701.1719855     
   20487412.9646497     
   20481236.5812691     
   20471997.9422267     
   20460421.0812414     
   20447177.1047918     
   20432894.8528102     
   20418160.7410462     
   20403518.5978351     
   20389471.4930795     
   20376485.2019214     
   20364992.1872437     
   20355395.4968275     
   20348072.4082844     
   20343382.3925726     
   20341690.5630129     
   17893494.3404661     
   17891945.0184405     
   17887588.0831458     
   17880850.0359823     
   17872200.2415450     
   17862140.9224555     
   17851174.4147613     
   17839782.4640342     
   17828416.3640594     
   17817494.6801494     
   17807404.4883515     
   17798503.2660601     
   17791118.9322076     
   17785547.0785748     
   17782040.3144898     
   17780809.5762555     
   15275481.3061548     
   15274708.4255588     
   15272204.6562098     
   15268004.6485802     
   15262370.1947271     
   15255652.1843405     
   15248221.9237356     
   15240438.6137455     
   15232638.1735404     
   15225131.1233929     
   15218204.0573097     
   15212121.4384078     
   15207124.9999383     
   15203425.8021450     
   15201189.0921326     
   15200465.3256938     
   12641919.4961025     
   12641865.1767406     
   12640972.2167815     
   12639101.6616961     
   12636388.3943588     
   12633040.8552118     
   12629274.7118898     
   12625294.1949649     
   12621287.2921150     
   12617426.1803267     
   12613869.3981686     
   12610764.0482445     
   12608246.3771306     
   12606438.2139184     
   12605426.6752992     
   12605237.0155590     
   10000000.0000000     
   10000000.0000000     
   10000000.0000000     
   10000000.0000000     
   10000000.0000000     
   10000000.0000000     
   10000000.0000000     
   10000000.0000000     
   10000000.0000000     
   10000000.0000000     
   10000000.0000000     
   10000000.0000000     
   10000000.0000000     
  10000000.00000000     
   10000000.0000000     
   10000000.0000000     
VECTORS u double 
    0.00000E+00         0.16112E-01         0.00000E+00
    0.00000E+00         0.15209E-01         0.00000E+00
    0.00000E+00         0.14149E-01         0.00000E+00
    0.00000E+00         0.13080E-01         0.00000E+00
    0.00000E+00         0.12048E-01         0.00000E+00
    0.00000E+00         0.11046E-01         0.00000E+00
    0.00000E+00         0.10065E-01         0.00000E+00
    0.00000E+00         0.90965E-02         0.00000E+00
    0.00000E+00         0.81314E-02         0.00000E+00
    0.00000E+00         0.71577E-02         0.00000E+00
    0.00000E+00         0.61621E-02         0.00000E+00
    0.00000E+00         0.51277E-02         0.00000E+00
    0.00000E+00         0.40337E-02         0.00000E+00
    0.00000E+00         0.28515E-02         0.00000E+00
    0.00000E+00         0.15386E-02         0.00000E+00
    0.00000E+00         0.00000E+00         0.00000E+00
    0.40959E-02         0.15602E-01         0.00000E+00
    0.33310E-02         0.14784E-01         0.00000E+00
    0.27978E-02         0.13830E-01         0.00000E+00
    0.25052E-02         0.12839E-01         0.00000E+00
    0.22881E-02         0.11852E-01         0.00000E+00
    0.21077E-02         0.10880E-01         0.00000E+00
    0.19483E-02         0.99222E-02         0.00000E+00
    0.18005E-02         0.89730E-02         0.00000E+00
    0.16575E-02         0.80240E-02         0.00000E+00
    0.15131E-02         0.70645E-02         0.00000E+00
    0.13612E-02         0.60816E-02         0.00000E+00
    0.11947E-02         0.50588E-02         0.00000E+00
    0.10037E-02         0.39756E-02         0.00000E+00
    0.77260E-03         0.28038E-02         0.00000E+00
    0.47143E-03         0.15014E-02         0.00000E+00
    0.00000E+00         0.00000E+00         0.00000E+00
    0.73541E-02         0.14578E-01         0.00000E+00
    0.62248E-02         0.13816E-01         0.00000E+00
    0.54072E-02         0.13013E-01         0.00000E+00
    0.48283E-02         0.12166E-01         0.00000E+00
    0.43889E-02         0.11286E-01         0.00000E+00
    0.40242E-02         0.10395E-01         0.00000E+00
    0.37032E-02         0.95029E-02         0.00000E+00
    0.34066E-02         0.86082E-02         0.00000E+00
    0.31203E-02         0.77064E-02         0.00000E+00
    0.28320E-02         0.67888E-02         0.00000E+00
    0.25297E-02         0.58439E-02         0.00000E+00
    0.21992E-02         0.48566E-02         0.00000E+00
    0.18223E-02         0.38073E-02         0.00000E+00
    0.13708E-02         0.26704E-02         0.00000E+00
    0.79386E-03         0.14117E-02         0.00000E+00
    0.00000E+00         0.00000E+00         0.00000E+00
    0.10260E-01         0.13145E-01         0.00000E+00
    0.88709E-02         0.12531E-01         0.00000E+00
    0.78008E-02         0.11866E-01         0.00000E+00
    0.69745E-02         0.11154E-01         0.00000E+00
    0.63171E-02         0.10404E-01         0.00000E+00
    0.57672E-02         0.96257E-02         0.00000E+00
    0.52830E-02         0.88297E-02         0.00000E+00
    0.48369E-02         0.80190E-02         0.00000E+00
    0.44075E-02         0.71919E-02         0.00000E+00
    0.39768E-02         0.63421E-02         0.00000E+00
    0.35269E-02         0.54601E-02         0.00000E+00
    0.30381E-02         0.45328E-02         0.00000E+00
    0.24853E-02         0.35434E-02         0.00000E+00
    0.18332E-02         0.24715E-02         0.00000E+00
    0.10295E-02         0.12953E-02         0.00000E+00
    0.00000E+00         0.00000E+00         0.00000E+00
    0.12900E-01         0.11443E-01         0.00000E+00
    0.11274E-01         0.10971E-01         0.00000E+00
    0.99777E-02         0.10448E-01         0.00000E+00
    0.89340E-02         0.98763E-02         0.00000E+00
    0.80759E-02         0.92622E-02         0.00000E+00
    0.73465E-02         0.86123E-02         0.00000E+00
    0.67016E-02         0.79334E-02         0.00000E+00
    0.61072E-02         0.72294E-02         0.00000E+00
    0.55366E-02         0.65000E-02         0.00000E+00
    0.49665E-02         0.57413E-02         0.00000E+00
    0.43742E-02         0.49458E-02         0.00000E+00
    0.37354E-02         0.41031E-02         0.00000E+00
    0.30211E-02         0.32002E-02         0.00000E+00
    0.21944E-02         0.22228E-02         0.00000E+00
    0.12071E-02         0.11580E-02         0.00000E+00
    0.00000E+00         0.00000E+00         0.00000E+00
    0.15263E-01         0.95174E-02         0.00000E+00
    0.13436E-01         0.91861E-02         0.00000E+00
    0.11941E-01         0.88067E-02         0.00000E+00
    0.10705E-01         0.83796E-02         0.00000E+00
    0.96652E-02         0.79076E-02         0.00000E+00
    0.87679E-02         0.73953E-02         0.00000E+00
    0.79686E-02         0.68473E-02         0.00000E+00
    0.72306E-02         0.62666E-02         0.00000E+00
    0.65231E-02         0.56537E-02         0.00000E+00
    0.58188E-02         0.50061E-02         0.00000E+00
    0.50914E-02         0.43186E-02         0.00000E+00
    0.43136E-02         0.35835E-02         0.00000E+00
    0.34547E-02         0.27917E-02         0.00000E+00
    0.24786E-02         0.19340E-02         0.00000E+00
    0.13430E-02         0.10037E-02         0.00000E+00
    0.00000E+00         0.00000E+00         0.00000E+00
    0.17351E-01         0.74139E-02         0.00000E+00
    0.15360E-01         0.72213E-02         0.00000E+00
    0.13694E-01         0.69860E-02         0.00000E+00
    0.12289E-01         0.67050E-02         0.00000E+00
    0.11087E-01         0.63790E-02         0.00000E+00
    0.10035E-01         0.60106E-02         0.00000E+00
    0.90917E-02         0.56028E-02         0.00000E+00
    0.82177E-02         0.51578E-02         0.00000E+00
    0.73803E-02         0.46764E-02         0.00000E+00
    0.65494E-02         0.41570E-02         0.00000E+00
    0.56964E-02         0.35962E-02         0.00000E+00
    0.47922E-02         0.29890E-02         0.00000E+00
    0.38057E-02         0.23294E-02         0.00000E+00
    0.27033E-02         0.16123E-02         0.00000E+00
    0.14477E-02         0.83513E-03         0.00000E+00
    0.00000E+00         0.00000E+00         0.00000E+00
    0.19172E-01         0.51705E-02         0.00000E+00
    0.17049E-01         0.51151E-02         0.00000E+00
    0.15241E-01         0.50226E-02         0.00000E+00
    0.13690E-01         0.48879E-02         0.00000E+00
    0.12343E-01         0.47100E-02         0.00000E+00
    0.11153E-01         0.44896E-02         0.00000E+00
    0.10077E-01         0.42286E-02         0.00000E+00
    0.90775E-02         0.39287E-02         0.00000E+00
    0.81195E-02         0.35905E-02         0.00000E+00
    0.71718E-02         0.32133E-02         0.00000E+00
    0.62042E-02         0.27950E-02         0.00000E+00
    0.51870E-02         0.23326E-02         0.00000E+00
    0.40899E-02         0.18230E-02         0.00000E+00
    0.28812E-02         0.12637E-02         0.00000E+00
    0.15286E-02         0.65473E-03         0.00000E+00
    0.00000E+00         0.00000E+00         0.00000E+00
    0.20739E-01         0.28188E-02         0.00000E+00
    0.18511E-01         0.28989E-02         0.00000E+00
    0.16584E-01         0.29476E-02         0.00000E+00
    0.14909E-01         0.29585E-02         0.00000E+00
    0.13438E-01         0.29292E-02         0.00000E+00
    0.12125E-01         0.28595E-02         0.00000E+00
    0.10931E-01         0.27502E-02         0.00000E+00
    0.98177E-02         0.26023E-02         0.00000E+00
    0.87505E-02         0.24166E-02         0.00000E+00
    0.76973E-02         0.21927E-02         0.00000E+00
    0.66275E-02         0.19297E-02         0.00000E+00
    0.55111E-02         0.16262E-02         0.00000E+00
    0.43190E-02         0.12808E-02         0.00000E+00
    0.30218E-02         0.89305E-03         0.00000E+00
    0.15911E-02         0.46458E-03         0.00000E+00
    0.00000E+00         0.00000E+00         0.00000E+00
    0.22063E-01         0.38439E-03         0.00000E+00
    0.19753E-01         0.59851E-03         0.00000E+00
    0.17731E-01         0.78658E-03         0.00000E+00
    0.15952E-01         0.94192E-03         0.00000E+00
    0.14374E-01         0.10613E-02         0.00000E+00
    0.12956E-01         0.11437E-02         0.00000E+00
    0.11658E-01         0.11893E-02         0.00000E+00
    0.10445E-01         0.11987E-02         0.00000E+00
    0.92813E-02         0.11725E-02         0.00000E+00
    0.81353E-02         0.11108E-02         0.00000E+00
    0.69762E-02         0.10134E-02         0.00000E+00
    0.57746E-02         0.87988E-03         0.00000E+00
    0.45024E-02         0.71008E-03         0.00000E+00
    0.31323E-02         0.50482E-03         0.00000E+00
    0.16391E-02         0.26652E-03         0.00000E+00
    0.00000E+00         0.00000E+00         0.00000E+00
    0.23156E-01        -0.21120E-02         0.00000E+00
    0.20784E-01        -0.17652E-02         0.00000E+00
    0.18685E-01        -0.14393E-02         0.00000E+00
    0.16822E-01        -0.11409E-02         0.00000E+00
    0.15156E-01        -0.87331E-03         0.00000E+00
    0.13649E-01        -0.63802E-03         0.00000E+00
    0.12263E-01        -0.43528E-03         0.00000E+00
    0.10965E-01        -0.26478E-03         0.00000E+00
    0.97185E-02        -0.12606E-03         0.00000E+00
    0.84932E-02        -0.18780E-04         0.00000E+00
    0.72584E-02         0.57276E-04         0.00000E+00
    0.59854E-02         0.10235E-03         0.00000E+00
    0.46470E-02         0.11704E-03         0.00000E+00
    0.32181E-02         0.10275E-03         0.00000E+00
    0.16756E-02         0.62223E-04         0.00000E+00
    0.00000E+00         0.00000E+00         0.00000E+00
    0.24030E-01        -0.46536E-02         0.00000E+00
    0.21612E-01        -0.41753E-02         0.00000E+00
    0.19454E-01        -0.37131E-02         0.00000E+00
    0.17524E-01        -0.32728E-02         0.00000E+00
    0.15787E-01        -0.28576E-02         0.00000E+00
    0.14208E-01        -0.24691E-02         0.00000E+00
    0.12751E-01        -0.21078E-02         0.00000E+00
    0.11382E-01        -0.17735E-02         0.00000E+00
    0.10068E-01        -0.14659E-02         0.00000E+00
    0.87771E-02        -0.11846E-02         0.00000E+00
    0.74805E-02        -0.92911E-03         0.00000E+00
    0.61496E-02        -0.69890E-03         0.00000E+00
    0.47583E-02        -0.49303E-03         0.00000E+00
    0.32830E-02        -0.30989E-03         0.00000E+00
    0.17027E-02        -0.14687E-03         0.00000E+00
    0.00000E+00         0.00000E+00         0.00000E+00
    0.24694E-01        -0.72270E-02         0.00000E+00
    0.22242E-01        -0.66180E-02         0.00000E+00
    0.20041E-01        -0.60207E-02         0.00000E+00
    0.18062E-01        -0.54397E-02         0.00000E+00
    0.16271E-01        -0.48776E-02         0.00000E+00
    0.14636E-01        -0.43359E-02         0.00000E+00
    0.13123E-01        -0.38150E-02         0.00000E+00
    0.11700E-01        -0.33151E-02         0.00000E+00
    0.10333E-01        -0.28358E-02         0.00000E+00
    0.89916E-02        -0.23768E-02         0.00000E+00
    0.76470E-02        -0.19376E-02         0.00000E+00
    0.62716E-02        -0.15175E-02         0.00000E+00
    0.48402E-02        -0.11155E-02         0.00000E+00
    0.33301E-02        -0.73028E-03         0.00000E+00
    0.17220E-02        -0.35950E-03         0.00000E+00
    0.00000E+00         0.00000E+00         0.00000E+00
    0.25155E-01        -0.98212E-02         0.00000E+00
    0.22682E-01        -0.90823E-02         0.00000E+00
    0.20452E-01        -0.83508E-02         0.00000E+00
    0.18438E-01        -0.76299E-02         0.00000E+00
    0.16610E-01        -0.69215E-02         0.00000E+00
    0.14936E-01        -0.62266E-02         0.00000E+00
    0.13384E-01        -0.55458E-02         0.00000E+00
    0.11922E-01        -0.48790E-02         0.00000E+00
    0.10517E-01        -0.42262E-02         0.00000E+00
    0.91401E-02        -0.35871E-02         0.00000E+00
    0.77616E-02        -0.29611E-02         0.00000E+00
    0.63549E-02        -0.23479E-02         0.00000E+00
    0.48954E-02        -0.17465E-02         0.00000E+00
    0.33614E-02        -0.11560E-02         0.00000E+00
    0.17345E-02        -0.57453E-03         0.00000E+00
    0.00000E+00         0.00000E+00         0.00000E+00
    0.25419E-01        -0.12427E-01         0.00000E+00
    0.22936E-01        -0.11559E-01         0.00000E+00
    0.20690E-01        -0.10694E-01         0.00000E+00
    0.18656E-01        -0.98337E-02         0.00000E+00
    0.16807E-01        -0.89793E-02         0.00000E+00
    0.15110E-01        -0.81315E-02         0.00000E+00
    0.13536E-01        -0.72904E-02         0.00000E+00
    0.12050E-01        -0.64562E-02         0.00000E+00
    0.10623E-01        -0.56288E-02         0.00000E+00
    0.92250E-02        -0.48080E-02         0.00000E+00
    0.78265E-02        -0.39936E-02         0.00000E+00
    0.64015E-02        -0.31853E-02         0.00000E+00
    0.49258E-02        -0.23826E-02         0.00000E+00
    0.33783E-02        -0.15848E-02         0.00000E+00
    0.17410E-02        -0.79099E-03         0.00000E+00
    0.00000E+00         0.00000E+00         0.00000E+00
    0.25490E-01        -0.15037E-01         0.00000E+00
    0.23006E-01        -0.14040E-01         0.00000E+00
    0.20756E-01        -0.13042E-01         0.00000E+00
    0.18718E-01        -0.12042E-01         0.00000E+00
    0.16863E-01        -0.11042E-01         0.00000E+00
    0.15160E-01        -0.10042E-01         0.00000E+00
    0.13578E-01        -0.90404E-02         0.00000E+00
    0.12086E-01        -0.80385E-02         0.00000E+00
    0.10652E-01        -0.70360E-02         0.00000E+00
    0.92475E-02        -0.60330E-02         0.00000E+00
    0.78431E-02        -0.50295E-02         0.00000E+00
    0.64127E-02        -0.40254E-02         0.00000E+00
    0.49324E-02        -0.30205E-02         0.00000E+00
    0.33814E-02        -0.20147E-02         0.00000E+00
    0.17418E-02        -0.10079E-02         0.00000E+00
    0.00000E+00         0.00000E+00         0.00000E+00
    0.25370E-01        -0.17644E-01         0.00000E+00
    0.22893E-01        -0.16518E-01         0.00000E+00
    0.20652E-01        -0.15386E-01         0.00000E+00
    0.18623E-01        -0.14248E-01         0.00000E+00
    0.16778E-01        -0.13103E-01         0.00000E+00
    0.15085E-01        -0.11949E-01         0.00000E+00
    0.13513E-01        -0.10788E-01         0.00000E+00
    0.12030E-01        -0.96182E-02         0.00000E+00
    0.10605E-01        -0.84410E-02         0.00000E+00
    0.92083E-02        -0.72561E-02         0.00000E+00
    0.78118E-02        -0.60637E-02         0.00000E+00
    0.63888E-02        -0.48640E-02         0.00000E+00
    0.49156E-02        -0.36573E-02         0.00000E+00
    0.33710E-02        -0.24439E-02         0.00000E+00
    0.17371E-02        -0.12245E-02         0.00000E+00
    0.00000E+00         0.00000E+00         0.00000E+00
    0.25056E-01        -0.20241E-01         0.00000E+00
    0.22596E-01        -0.18985E-01         0.00000E+00
    0.20377E-01        -0.17720E-01         0.00000E+00
    0.18373E-01        -0.16443E-01         0.00000E+00
    0.16553E-01        -0.15152E-01         0.00000E+00
    0.14886E-01        -0.13845E-01         0.00000E+00
    0.13339E-01        -0.12524E-01         0.00000E+00
    0.11881E-01        -0.11188E-01         0.00000E+00
    0.10481E-01        -0.98366E-02         0.00000E+00
    0.91070E-02        -0.84708E-02         0.00000E+00
    0.77322E-02        -0.70908E-02         0.00000E+00
    0.63296E-02        -0.56971E-02         0.00000E+00
    0.48749E-02        -0.42900E-02         0.00000E+00
    0.33467E-02        -0.28705E-02         0.00000E+00
    0.17266E-02        -0.14399E-02         0.00000E+00
    0.00000E+00         0.00000E+00         0.00000E+00
    0.24546E-01        -0.22819E-01         0.00000E+00
    0.22114E-01        -0.21433E-01         0.00000E+00
    0.19930E-01        -0.20034E-01         0.00000E+00
    0.17964E-01        -0.18618E-01         0.00000E+00
    0.16186E-01        -0.17181E-01         0.00000E+00
    0.14561E-01        -0.15722E-01         0.00000E+00
    0.13056E-01        -0.14242E-01         0.00000E+00
    0.11639E-01        -0.12739E-01         0.00000E+00
    0.10278E-01        -0.11216E-01         0.00000E+00
    0.89423E-02        -0.96709E-02         0.00000E+00
    0.76031E-02        -0.81056E-02         0.00000E+00
    0.62336E-02        -0.65202E-02         0.00000E+00
    0.48093E-02        -0.49155E-02         0.00000E+00
    0.33078E-02        -0.32925E-02         0.00000E+00
    0.17099E-02        -0.16531E-02         0.00000E+00
    0.00000E+00         0.00000E+00         0.00000E+00
    0.23835E-01        -0.25369E-01         0.00000E+00
    0.21442E-01        -0.23853E-01         0.00000E+00
    0.19307E-01        -0.22320E-01         0.00000E+00
    0.17396E-01        -0.20763E-01         0.00000E+00
    0.15676E-01        -0.19180E-01         0.00000E+00
    0.14109E-01        -0.17569E-01         0.00000E+00
    0.12663E-01        -0.15930E-01         0.00000E+00
    0.11303E-01        -0.14263E-01         0.00000E+00
    0.99958E-02        -0.12570E-01         0.00000E+00
    0.87121E-02        -0.10849E-01         0.00000E+00
    0.74222E-02        -0.91019E-02         0.00000E+00
    0.60990E-02        -0.73288E-02         0.00000E+00
    0.47170E-02        -0.55303E-02         0.00000E+00
    0.32530E-02        -0.37077E-02         0.00000E+00
    0.16864E-02        -0.18631E-02         0.00000E+00
    0.00000E+00         0.00000E+00         0.00000E+00
    0.22915E-01        -0.27880E-01         0.00000E+00
    0.20576E-01        -0.26234E-01         0.00000E+00
    0.18505E-01        -0.24565E-01         0.00000E+00
    0.16666E-01        -0.22867E-01         0.00000E+00
    0.15020E-01        -0.21138E-01         0.00000E+00
    0.13529E-01        -0.19375E-01         0.00000E+00
    0.12157E-01        -0.17579E-01         0.00000E+00
    0.10868E-01        -0.15750E-01         0.00000E+00
    0.96309E-02        -0.13889E-01         0.00000E+00
    0.84134E-02        -0.11997E-01         0.00000E+00
    0.71866E-02        -0.10073E-01         0.00000E+00
    0.59226E-02        -0.81173E-02         0.00000E+00
    0.45953E-02        -0.61306E-02         0.00000E+00
    0.31801E-02        -0.41137E-02         0.00000E+00
    0.16548E-02        -0.20689E-02         0.00000E+00
    0.00000E+00         0.00000E+00         0.00000E+00
    0.21779E-01        -0.30338E-01         0.00000E+00
    0.19508E-01        -0.28561E-01         0.00000E+00
    0.17520E-01        -0.26756E-01         0.00000E+00
    0.15771E-01        -0.24917E-01         0.00000E+00
    0.14217E-01        -0.23040E-01         0.00000E+00
    0.12818E-01        -0.21126E-01         0.00000E+00
    0.11536E-01        -0.19175E-01         0.00000E+00
    0.10334E-01        -0.17187E-01         0.00000E+00
    0.91797E-02        -0.15164E-01         0.00000E+00
    0.80422E-02        -0.13105E-01         0.00000E+00
    0.68918E-02        -0.11010E-01         0.00000E+00
    0.57003E-02        -0.88796E-02         0.00000E+00
    0.44407E-02        -0.67119E-02         0.00000E+00
    0.30867E-02        -0.45078E-02         0.00000E+00
    0.16139E-02        -0.22692E-02         0.00000E+00
    0.00000E+00         0.00000E+00         0.00000E+00
    0.20415E-01        -0.32726E-01         0.00000E+00
    0.18233E-01        -0.30817E-01         0.00000E+00
    0.16348E-01        -0.28876E-01         0.00000E+00
    0.14707E-01        -0.26894E-01         0.00000E+00
    0.13264E-01        -0.24871E-01         0.00000E+00
    0.11973E-01        -0.22807E-01         0.00000E+00
    0.10796E-01        -0.20703E-01         0.00000E+00
    0.96950E-02        -0.18560E-01         0.00000E+00
    0.86377E-02        -0.16380E-01         0.00000E+00
    0.75931E-02        -0.14162E-01         0.00000E+00
    0.65323E-02        -0.11906E-01         0.00000E+00
    0.54266E-02        -0.96085E-02         0.00000E+00
    0.42481E-02        -0.72691E-02         0.00000E+00
    0.29689E-02        -0.48868E-02         0.00000E+00
    0.15615E-02        -0.24625E-02         0.00000E+00
    0.00000E+00         0.00000E+00         0.00000E+00
    0.18813E-01        -0.35024E-01         0.00000E+00
    0.16744E-01        -0.32984E-01         0.00000E+00
    0.14983E-01        -0.30904E-01         0.00000E+00
    0.13472E-01        -0.28779E-01         0.00000E+00
    0.12158E-01        -0.26609E-01         0.00000E+00
    0.10993E-01        -0.24397E-01         0.00000E+00
    0.99344E-02        -0.22144E-01         0.00000E+00
    0.89473E-02        -0.19852E-01         0.00000E+00
    0.79989E-02        -0.17523E-01         0.00000E+00
    0.70595E-02        -0.15156E-01         0.00000E+00
    0.61007E-02        -0.12748E-01         0.00000E+00
    0.50943E-02        -0.10296E-01         0.00000E+00
    0.40113E-02        -0.77964E-02         0.00000E+00
    0.28218E-02        -0.52471E-02         0.00000E+00
    0.14950E-02        -0.26473E-02         0.00000E+00
    0.00000E+00         0.00000E+00         0.00000E+00
    0.16962E-01        -0.37207E-01         0.00000E+00
    0.15032E-01        -0.35034E-01         0.00000E+00
    0.13422E-01        -0.32815E-01         0.00000E+00
    0.12064E-01        -0.30547E-01         0.00000E+00
    0.10898E-01        -0.28231E-01         0.00000E+00
    0.98730E-02        -0.25873E-01         0.00000E+00
    0.89472E-02        -0.23476E-01         0.00000E+00
    0.80852E-02        -0.21044E-01         0.00000E+00
    0.72564E-02        -0.18576E-01         0.00000E+00
    0.64330E-02        -0.16070E-01         0.00000E+00
    0.55880E-02        -0.13524E-01         0.00000E+00
    0.46939E-02        -0.10931E-01         0.00000E+00
    0.37217E-02        -0.82868E-02         0.00000E+00
    0.26390E-02        -0.55847E-02         0.00000E+00
    0.14108E-02        -0.28219E-02         0.00000E+00
    0.00000E+00         0.00000E+00         0.00000E+00
    0.14850E-01        -0.39245E-01         0.00000E+00
    0.13092E-01        -0.36939E-01         0.00000E+00
    0.11663E-01        -0.34580E-01         0.00000E+00
    0.10482E-01        -0.32167E-01         0.00000E+00
    0.94826E-02        -0.29708E-01         0.00000E+00
    0.86121E-02        -0.27209E-01         0.00000E+00
    0.78294E-02        -0.24677E-01         0.00000E+00
    0.71018E-02        -0.22113E-01         0.00000E+00
    0.64014E-02        -0.19518E-01         0.00000E+00
    0.57031E-02        -0.16890E-01         0.00000E+00
    0.49825E-02        -0.14221E-01         0.00000E+00
    0.42139E-02        -0.11505E-01         0.00000E+00
    0.33682E-02        -0.87328E-02         0.00000E+00
    0.24116E-02        -0.58948E-02         0.00000E+00
    0.13039E-02        -0.29843E-02         0.00000E+00
    0.00000E+00         0.00000E+00         0.00000E+00
    0.12465E-01        -0.41099E-01         0.00000E+00
    0.10920E-01        -0.38660E-01         0.00000E+00
    0.97057E-02        -0.36160E-01         0.00000E+00
    0.87269E-02        -0.33604E-01         0.00000E+00
    0.79112E-02        -0.31005E-01         0.00000E+00
    0.72066E-02        -0.28374E-01         0.00000E+00
    0.65754E-02        -0.25717E-01         0.00000E+00
    0.59888E-02        -0.23036E-01         0.00000E+00
    0.54232E-02        -0.20331E-01         0.00000E+00
    0.48574E-02        -0.17596E-01         0.00000E+00
    0.42703E-02        -0.14824E-01         0.00000E+00
    0.36392E-02        -0.12005E-01         0.00000E+00
    0.29367E-02        -0.91254E-02         0.00000E+00
    0.21280E-02        -0.61721E-02         0.00000E+00
    0.11677E-02        -0.31323E-02         0.00000E+00
    0.00000E+00         0.00000E+00         0.00000E+00
    0.97946E-02        -0.42724E-01         0.00000E+00
    0.85138E-02        -0.40151E-01         0.00000E+00
    0.75535E-02        -0.37508E-01         0.00000E+00
    0.68013E-02        -0.34813E-01         0.00000E+00
    0.61831E-02        -0.32083E-01         0.00000E+00
    0.56521E-02        -0.29333E-01         0.00000E+00
    0.51773E-02        -0.26567E-01         0.00000E+00
    0.47358E-02        -0.23788E-01         0.00000E+00
    0.43093E-02        -0.20991E-01         0.00000E+00
    0.38812E-02        -0.18170E-01         0.00000E+00
    0.34350E-02        -0.15316E-01         0.00000E+00
    0.29520E-02        -0.12416E-01         0.00000E+00
    0.24087E-02        -0.94541E-02         0.00000E+00
    0.17719E-02        -0.64100E-02         0.00000E+00
    0.99219E-03        -0.32635E-02         0.00000E+00
    0.00000E+00         0.00000E+00         0.00000E+00
    0.68290E-02        -0.44057E-01         0.00000E+00
    0.58788E-02        -0.41349E-01         0.00000E+00
    0.52143E-02        -0.38566E-01         0.00000E+00
    0.47079E-02        -0.35741E-01         0.00000E+00
    0.42950E-02        -0.32899E-01         0.00000E+00
    0.39413E-02        -0.30051E-01         0.00000E+00
    0.36249E-02        -0.27201E-01         0.00000E+00
    0.33303E-02        -0.24345E-01         0.00000E+00
    0.30452E-02        -0.21480E-01         0.00000E+00
    0.27582E-02        -0.18596E-01         0.00000E+00
    0.24581E-02        -0.15683E-01         0.00000E+00
    0.21315E-02        -0.12726E-01         0.00000E+00
    0.17612E-02        -0.97061E-02         0.00000E+00
    0.13207E-02        -0.65997E-02         0.00000E+00
    0.76226E-03        -0.33742E-02         0.00000E+00
    0.00000E+00         0.00000E+00         0.00000E+00
    0.35594E-02        -0.45008E-01         0.00000E+00
    0.30320E-02        -0.42166E-01         0.00000E+00
    0.26979E-02        -0.39255E-01         0.00000E+00
    0.24448E-02        -0.36331E-01         0.00000E+00
    0.22390E-02        -0.33410E-01         0.00000E+00
    0.20626E-02        -0.30498E-01         0.00000E+00
    0.19046E-02        -0.27592E-01         0.00000E+00
    0.17573E-02        -0.24689E-01         0.00000E+00
    0.16146E-02        -0.21781E-01         0.00000E+00
    0.14706E-02        -0.18858E-01         0.00000E+00
    0.13197E-02        -0.15909E-01         0.00000E+00
    0.11551E-02        -0.12918E-01         0.00000E+00
    0.96753E-03        -0.98664E-02         0.00000E+00
    0.74221E-03        -0.67266E-02         0.00000E+00
    0.45103E-03        -0.34592E-02         0.00000E+00
    0.00000E+00         0.00000E+00         0.00000E+00
    0.00000E+00        -0.45417E-01         0.00000E+00
    0.00000E+00        -0.42468E-01         0.00000E+00
    0.00000E+00        -0.39497E-01         0.00000E+00
    0.00000E+00        -0.36534E-01         0.00000E+00
    0.00000E+00        -0.33585E-01         0.00000E+00
    0.00000E+00        -0.30649E-01         0.00000E+00
    0.00000E+00        -0.27724E-01         0.00000E+00
    0.00000E+00        -0.24805E-01         0.00000E+00
    0.00000E+00        -0.21882E-01         0.00000E+00
    0.00000E+00        -0.18947E-01         0.00000E+00
    0.00000E+00        -0.15986E-01         0.00000E+00
    0.00000E+00        -0.12984E-01         0.00000E+00
    0.00000E+00        -0.99217E-02         0.00000E+00
    0.00000E+00        -0.67718E-02         0.00000E+00
    0.00000E+00        -0.34944E-02         0.00000E+00
    0.00000E+00         0.00000E+00         0.00000E+00
CELL_DATA        450
VECTORS vDarcy double 
    0.20062E-07        -0.20658E-11         0.00000E+00
    0.20056E-07        -0.43660E-12         0.00000E+00
    0.20046E-07         0.33358E-11         0.00000E+00
    0.20032E-07         0.65687E-11         0.00000E+00
    0.20013E-07         0.88112E-11         0.00000E+00
    0.19991E-07         0.10175E-10         0.00000E+00
    0.19967E-07         0.10791E-10         0.00000E+00
    0.19943E-07         0.10786E-10         0.00000E+00
    0.19920E-07         0.10252E-10         0.00000E+00
    0.19898E-07         0.92536E-11         0.00000E+00
    0.19879E-07         0.78215E-11         0.00000E+00
    0.19864E-07         0.59717E-11         0.00000E+00
    0.19852E-07         0.37382E-11         0.00000E+00
    0.19845E-07         0.12531E-11         0.00000E+00
    0.19841E-07        -0.75733E-12         0.00000E+00
    0.19979E-07        -0.86168E-12         0.00000E+00
    0.19966E-07         0.49332E-11         0.00000E+00
    0.19949E-07         0.13795E-10         0.00000E+00
    0.19930E-07         0.21537E-10         0.00000E+00
    0.19909E-07         0.27074E-10         0.00000E+00
    0.19886E-07         0.30415E-10         0.00000E+00
    0.19863E-07         0.31834E-10         0.00000E+00
    0.19841E-07         0.31626E-10         0.00000E+00
    0.19819E-07         0.30031E-10         0.00000E+00
    0.19799E-07         0.27215E-10         0.00000E+00
    0.19780E-07         0.23273E-10         0.00000E+00
    0.19765E-07         0.18274E-10         0.00000E+00
    0.19752E-07         0.12343E-10         0.00000E+00
    0.19741E-07         0.58931E-11         0.00000E+00
    0.19734E-07         0.46694E-12         0.00000E+00
    0.19808E-07         0.57460E-11         0.00000E+00
    0.19794E-07         0.17916E-10         0.00000E+00
    0.19775E-07         0.29626E-10         0.00000E+00
    0.19753E-07         0.39276E-10         0.00000E+00
    0.19731E-07         0.46114E-10         0.00000E+00
    0.19710E-07         0.50089E-10         0.00000E+00
    0.19688E-07         0.51507E-10         0.00000E+00
    0.19667E-07         0.50737E-10         0.00000E+00
    0.19648E-07         0.48094E-10         0.00000E+00
    0.19630E-07         0.43806E-10         0.00000E+00
    0.19613E-07         0.38018E-10         0.00000E+00
    0.19598E-07         0.30841E-10         0.00000E+00
    0.19585E-07         0.22448E-10         0.00000E+00
    0.19574E-07         0.13285E-10         0.00000E+00
    0.19566E-07         0.43173E-11         0.00000E+00
    0.19559E-07         0.12215E-10         0.00000E+00
    0.19546E-07         0.31947E-10         0.00000E+00
    0.19528E-07         0.46762E-10         0.00000E+00
    0.19508E-07         0.57477E-10         0.00000E+00
    0.19487E-07         0.64475E-10         0.00000E+00
    0.19468E-07         0.68156E-10         0.00000E+00
    0.19449E-07         0.68974E-10         0.00000E+00
    0.19432E-07         0.67378E-10         0.00000E+00
    0.19415E-07         0.63732E-10         0.00000E+00
    0.19400E-07         0.58292E-10         0.00000E+00
    0.19385E-07         0.51212E-10         0.00000E+00
    0.19372E-07         0.42572E-10         0.00000E+00
    0.19361E-07         0.32439E-10         0.00000E+00
    0.19351E-07         0.20891E-10         0.00000E+00
    0.19344E-07         0.77919E-11         0.00000E+00
    0.19245E-07         0.17761E-10         0.00000E+00
    0.19235E-07         0.44341E-10         0.00000E+00
    0.19220E-07         0.62074E-10         0.00000E+00
    0.19204E-07         0.73527E-10         0.00000E+00
    0.19187E-07         0.80211E-10         0.00000E+00
    0.19172E-07         0.83134E-10         0.00000E+00
    0.19157E-07         0.83049E-10         0.00000E+00
    0.19144E-07         0.80532E-10         0.00000E+00
    0.19132E-07         0.76000E-10         0.00000E+00
    0.19120E-07         0.69716E-10         0.00000E+00
    0.19109E-07         0.61797E-10         0.00000E+00
    0.19099E-07         0.52223E-10         0.00000E+00
    0.19090E-07         0.40834E-10         0.00000E+00
    0.19083E-07         0.27242E-10         0.00000E+00
    0.19078E-07         0.10596E-10         0.00000E+00
    0.18884E-07         0.21754E-10         0.00000E+00
    0.18877E-07         0.53532E-10         0.00000E+00
    0.18867E-07         0.73493E-10         0.00000E+00
    0.18856E-07         0.85361E-10         0.00000E+00
    0.18845E-07         0.91519E-10         0.00000E+00
    0.18835E-07         0.93543E-10         0.00000E+00
    0.18826E-07         0.92506E-10         0.00000E+00
    0.18818E-07         0.89142E-10         0.00000E+00
    0.18811E-07         0.83930E-10         0.00000E+00
    0.18804E-07         0.77127E-10         0.00000E+00
    0.18798E-07         0.68786E-10         0.00000E+00
    0.18792E-07         0.58753E-10         0.00000E+00
    0.18786E-07         0.46626E-10         0.00000E+00
    0.18781E-07         0.31647E-10         0.00000E+00
    0.18778E-07         0.12518E-10         0.00000E+00
    0.18494E-07         0.23994E-10         0.00000E+00
    0.18490E-07         0.58690E-10         0.00000E+00
    0.18485E-07         0.79784E-10         0.00000E+00
    0.18481E-07         0.91598E-10         0.00000E+00
    0.18476E-07         0.97078E-10         0.00000E+00
    0.18473E-07         0.98212E-10         0.00000E+00
    0.18470E-07         0.96337E-10         0.00000E+00
    0.18468E-07         0.92332E-10         0.00000E+00
    0.18467E-07         0.86727E-10         0.00000E+00
    0.18466E-07         0.79768E-10         0.00000E+00
    0.18464E-07         0.71440E-10         0.00000E+00
    0.18463E-07         0.61458E-10         0.00000E+00
    0.18461E-07         0.49228E-10         0.00000E+00
    0.18460E-07         0.33746E-10         0.00000E+00
    0.18458E-07         0.13465E-10         0.00000E+00
    0.18094E-07         0.24417E-10         0.00000E+00
    0.18094E-07         0.59513E-10         0.00000E+00
    0.18094E-07         0.80387E-10         0.00000E+00
    0.18096E-07         0.91535E-10         0.00000E+00
    0.18098E-07         0.96152E-10         0.00000E+00
    0.18102E-07         0.96451E-10         0.00000E+00
    0.18106E-07         0.93931E-10         0.00000E+00
    0.18111E-07         0.89562E-10         0.00000E+00
    0.18115E-07         0.83907E-10         0.00000E+00
    0.18120E-07         0.77194E-10         0.00000E+00
    0.18124E-07         0.69348E-10         0.00000E+00
    0.18127E-07         0.59986E-10         0.00000E+00
    0.18130E-07         0.48384E-10         0.00000E+00
    0.18131E-07         0.33409E-10         0.00000E+00
    0.18132E-07         0.13418E-10         0.00000E+00
    0.17703E-07         0.23093E-10         0.00000E+00
    0.17706E-07         0.56080E-10         0.00000E+00
    0.17711E-07         0.75291E-10         0.00000E+00
    0.17719E-07         0.85068E-10         0.00000E+00
    0.17728E-07         0.88585E-10         0.00000E+00
    0.17739E-07         0.88094E-10         0.00000E+00
    0.17749E-07         0.85137E-10         0.00000E+00
    0.17760E-07         0.80708E-10         0.00000E+00
    0.17771E-07         0.75371E-10         0.00000E+00
    0.17781E-07         0.69327E-10         0.00000E+00
    0.17790E-07         0.62454E-10         0.00000E+00
    0.17798E-07         0.54311E-10         0.00000E+00
    0.17805E-07         0.44113E-10         0.00000E+00
    0.17809E-07         0.30689E-10         0.00000E+00
    0.17811E-07         0.12418E-10         0.00000E+00
    0.17337E-07         0.20200E-10         0.00000E+00
    0.17343E-07         0.48761E-10         0.00000E+00
    0.17353E-07         0.64919E-10         0.00000E+00
    0.17366E-07         0.72602E-10         0.00000E+00
    0.17382E-07         0.74748E-10         0.00000E+00
    0.17398E-07         0.73481E-10         0.00000E+00
    0.17415E-07         0.70274E-10         0.00000E+00
    0.17432E-07         0.66077E-10         0.00000E+00
    0.17448E-07         0.61414E-10         0.00000E+00
    0.17463E-07         0.56453E-10         0.00000E+00
    0.17477E-07         0.51038E-10         0.00000E+00
    0.17489E-07         0.44704E-10         0.00000E+00
    0.17499E-07         0.36665E-10         0.00000E+00
    0.17506E-07         0.25788E-10         0.00000E+00
    0.17510E-07         0.10561E-10         0.00000E+00
    0.17012E-07         0.15992E-10         0.00000E+00
    0.17020E-07         0.38152E-10         0.00000E+00
    0.17034E-07         0.50027E-10         0.00000E+00
    0.17051E-07         0.54945E-10         0.00000E+00
    0.17072E-07         0.55442E-10         0.00000E+00
    0.17093E-07         0.53385E-10         0.00000E+00
    0.17115E-07         0.50078E-10         0.00000E+00
    0.17137E-07         0.46363E-10         0.00000E+00
    0.17158E-07         0.42693E-10         0.00000E+00
    0.17178E-07         0.39188E-10         0.00000E+00
    0.17195E-07         0.35671E-10         0.00000E+00
    0.17211E-07         0.31683E-10         0.00000E+00
    0.17223E-07         0.26479E-10         0.00000E+00
    0.17233E-07         0.19025E-10         0.00000E+00
    0.17238E-07         0.79822E-11         0.00000E+00
    0.16739E-07         0.10781E-10         0.00000E+00
    0.16748E-07         0.25002E-10         0.00000E+00
    0.16765E-07         0.31607E-10         0.00000E+00
    0.16786E-07         0.33198E-10         0.00000E+00
    0.16810E-07         0.31798E-10         0.00000E+00
    0.16836E-07         0.28916E-10         0.00000E+00
    0.16861E-07         0.25617E-10         0.00000E+00
    0.16887E-07         0.22580E-10         0.00000E+00
    0.16911E-07         0.20157E-10         0.00000E+00
    0.16934E-07         0.18414E-10         0.00000E+00
    0.16955E-07         0.17157E-10         0.00000E+00
    0.16973E-07         0.15954E-10         0.00000E+00
    0.16988E-07         0.14137E-10         0.00000E+00
    0.16999E-07         0.10809E-10         0.00000E+00
    0.17005E-07         0.48471E-11         0.00000E+00
    0.16526E-07         0.49060E-11         0.00000E+00
    0.16537E-07         0.10147E-10         0.00000E+00
    0.16555E-07         0.10793E-10         0.00000E+00
    0.16579E-07         0.86509E-11         0.00000E+00
    0.16605E-07         0.51629E-11         0.00000E+00
    0.16633E-07         0.14204E-11         0.00000E+00
    0.16661E-07        -0.18056E-11         0.00000E+00
    0.16689E-07        -0.40317E-11         0.00000E+00
    0.16716E-07        -0.50292E-11         0.00000E+00
    0.16741E-07        -0.47962E-11         0.00000E+00
    0.16763E-07        -0.35364E-11         0.00000E+00
    0.16783E-07        -0.16423E-11         0.00000E+00
    0.16799E-07         0.31691E-12         0.00000E+00
    0.16811E-07         0.16061E-11         0.00000E+00
    0.16818E-07         0.13391E-11         0.00000E+00
    0.16380E-07        -0.12847E-11         0.00000E+00
    0.16391E-07        -0.55430E-11         0.00000E+00
    0.16410E-07        -0.11220E-10         0.00000E+00
    0.16435E-07        -0.17318E-10         0.00000E+00
    0.16462E-07        -0.23004E-10         0.00000E+00
    0.16491E-07        -0.27633E-10         0.00000E+00
    0.16520E-07        -0.30754E-10         0.00000E+00
    0.16549E-07        -0.32101E-10         0.00000E+00
    0.16576E-07        -0.31580E-10         0.00000E+00
    0.16602E-07        -0.29259E-10         0.00000E+00
    0.16625E-07        -0.25348E-10         0.00000E+00
    0.16645E-07        -0.20193E-10         0.00000E+00
    0.16662E-07        -0.14254E-10         0.00000E+00
    0.16674E-07        -0.80930E-11         0.00000E+00
    0.16681E-07        -0.23519E-11         0.00000E+00
    0.16303E-07        -0.74564E-11         0.00000E+00
    0.16314E-07        -0.21221E-10         0.00000E+00
    0.16332E-07        -0.33252E-10         0.00000E+00
    0.16356E-07        -0.43332E-10         0.00000E+00
    0.16383E-07        -0.51230E-10         0.00000E+00
    0.16411E-07        -0.56748E-10         0.00000E+00
    0.16440E-07        -0.59759E-10         0.00000E+00
    0.16468E-07        -0.60218E-10         0.00000E+00
    0.16495E-07        -0.58173E-10         0.00000E+00
    0.16520E-07        -0.53758E-10         0.00000E+00
    0.16543E-07        -0.47194E-10         0.00000E+00
    0.16563E-07        -0.38772E-10         0.00000E+00
    0.16579E-07        -0.28844E-10         0.00000E+00
    0.16591E-07        -0.17799E-10         0.00000E+00
    0.16598E-07        -0.60392E-11         0.00000E+00
    0.16293E-07        -0.13302E-10         0.00000E+00
    0.16303E-07        -0.36102E-10         0.00000E+00
    0.16320E-07        -0.54196E-10         0.00000E+00
    0.16342E-07        -0.68090E-10         0.00000E+00
    0.16367E-07        -0.78113E-10         0.00000E+00
    0.16394E-07        -0.84490E-10         0.00000E+00
    0.16420E-07        -0.87403E-10         0.00000E+00
    0.16447E-07        -0.87021E-10         0.00000E+00
    0.16472E-07        -0.83526E-10         0.00000E+00
    0.16495E-07        -0.77119E-10         0.00000E+00
    0.16517E-07        -0.68027E-10         0.00000E+00
    0.16535E-07        -0.56491E-10         0.00000E+00
    0.16551E-07        -0.42756E-10         0.00000E+00
    0.16562E-07        -0.27048E-10         0.00000E+00
    0.16568E-07        -0.95484E-11         0.00000E+00
    0.16347E-07        -0.18552E-10         0.00000E+00
    0.16355E-07        -0.49491E-10         0.00000E+00
    0.16371E-07        -0.73069E-10         0.00000E+00
    0.16390E-07        -0.90425E-10         0.00000E+00
    0.16412E-07        -0.10239E-09         0.00000E+00
    0.16435E-07        -0.10956E-09         0.00000E+00
    0.16459E-07        -0.11239E-09         0.00000E+00
    0.16482E-07        -0.11126E-09         0.00000E+00
    0.16504E-07        -0.10647E-09         0.00000E+00
    0.16525E-07        -0.98266E-10         0.00000E+00
    0.16544E-07        -0.86892E-10         0.00000E+00
    0.16561E-07        -0.72539E-10         0.00000E+00
    0.16574E-07        -0.55357E-10         0.00000E+00
    0.16584E-07        -0.35424E-10         0.00000E+00
    0.16590E-07        -0.12724E-10         0.00000E+00
    0.16458E-07        -0.22984E-10         0.00000E+00
    0.16465E-07        -0.60811E-10         0.00000E+00
    0.16478E-07        -0.89043E-10         0.00000E+00
    0.16494E-07        -0.10935E-09         0.00000E+00
    0.16512E-07        -0.12297E-09         0.00000E+00
    0.16531E-07        -0.13083E-09         0.00000E+00
    0.16551E-07        -0.13362E-09         0.00000E+00
    0.16570E-07        -0.13187E-09         0.00000E+00
    0.16588E-07        -0.12598E-09         0.00000E+00
    0.16605E-07        -0.11627E-09         0.00000E+00
    0.16621E-07        -0.10296E-09         0.00000E+00
    0.16635E-07        -0.86220E-10         0.00000E+00
    0.16646E-07        -0.66105E-10         0.00000E+00
    0.16654E-07        -0.42572E-10         0.00000E+00
    0.16659E-07        -0.15434E-10         0.00000E+00
    0.16619E-07        -0.26426E-10         0.00000E+00
    0.16625E-07        -0.69610E-10         0.00000E+00
    0.16634E-07        -0.10147E-09         0.00000E+00
    0.16646E-07        -0.12408E-09         0.00000E+00
    0.16660E-07        -0.13901E-09         0.00000E+00
    0.16674E-07        -0.14743E-09         0.00000E+00
    0.16689E-07        -0.15021E-09         0.00000E+00
    0.16703E-07        -0.14799E-09         0.00000E+00
    0.16717E-07        -0.14127E-09         0.00000E+00
    0.16730E-07        -0.13039E-09         0.00000E+00
    0.16741E-07        -0.11558E-09         0.00000E+00
    0.16752E-07        -0.96973E-10         0.00000E+00
    0.16760E-07        -0.74564E-10         0.00000E+00
    0.16766E-07        -0.48206E-10         0.00000E+00
    0.16770E-07        -0.17574E-10         0.00000E+00
    0.16821E-07        -0.28757E-10         0.00000E+00
    0.16825E-07        -0.75567E-10         0.00000E+00
    0.16831E-07        -0.10988E-09         0.00000E+00
    0.16838E-07        -0.13407E-09         0.00000E+00
    0.16847E-07        -0.14991E-09         0.00000E+00
    0.16856E-07        -0.15873E-09         0.00000E+00
    0.16865E-07        -0.16152E-09         0.00000E+00
    0.16874E-07        -0.15901E-09         0.00000E+00
    0.16883E-07        -0.15174E-09         0.00000E+00
    0.16891E-07        -0.14007E-09         0.00000E+00
    0.16898E-07        -0.12426E-09         0.00000E+00
    0.16905E-07        -0.10439E-09         0.00000E+00
    0.16910E-07        -0.80416E-10         0.00000E+00
    0.16914E-07        -0.52117E-10         0.00000E+00
    0.16917E-07        -0.19067E-10         0.00000E+00
    0.17053E-07        -0.29906E-10         0.00000E+00
    0.17054E-07        -0.78497E-10         0.00000E+00
    0.17057E-07        -0.11402E-09         0.00000E+00
    0.17060E-07        -0.13899E-09         0.00000E+00
    0.17063E-07        -0.15529E-09         0.00000E+00
    0.17066E-07        -0.16434E-09         0.00000E+00
    0.17070E-07        -0.16717E-09         0.00000E+00
    0.17073E-07        -0.16455E-09         0.00000E+00
    0.17077E-07        -0.15704E-09         0.00000E+00
    0.17080E-07        -0.14501E-09         0.00000E+00
    0.17083E-07        -0.12871E-09         0.00000E+00
    0.17086E-07        -0.10822E-09         0.00000E+00
    0.17088E-07        -0.83463E-10         0.00000E+00
    0.17090E-07        -0.54175E-10         0.00000E+00
    0.17091E-07        -0.19864E-10         0.00000E+00
    0.17303E-07        -0.29851E-10         0.00000E+00
    0.17303E-07        -0.78339E-10         0.00000E+00
    0.17302E-07        -0.11379E-09         0.00000E+00
    0.17300E-07        -0.13874E-09         0.00000E+00
    0.17298E-07        -0.15507E-09         0.00000E+00
    0.17296E-07        -0.16417E-09         0.00000E+00
    0.17294E-07        -0.16707E-09         0.00000E+00
    0.17292E-07        -0.16452E-09         0.00000E+00
    0.17290E-07        -0.15707E-09         0.00000E+00
    0.17289E-07        -0.14510E-09         0.00000E+00
    0.17287E-07        -0.12883E-09         0.00000E+00
    0.17286E-07        -0.10837E-09         0.00000E+00
    0.17285E-07        -0.83626E-10         0.00000E+00
    0.17285E-07        -0.54323E-10         0.00000E+00
    0.17284E-07        -0.19943E-10         0.00000E+00
    0.17561E-07        -0.28613E-10         0.00000E+00
    0.17559E-07        -0.75157E-10         0.00000E+00
    0.17555E-07        -0.10930E-09         0.00000E+00
    0.17549E-07        -0.13346E-09         0.00000E+00
    0.17542E-07        -0.14939E-09         0.00000E+00
    0.17535E-07        -0.15838E-09         0.00000E+00
    0.17528E-07        -0.16137E-09         0.00000E+00
    0.17521E-07        -0.15906E-09         0.00000E+00
    0.17514E-07        -0.15196E-09         0.00000E+00
    0.17507E-07        -0.14042E-09         0.00000E+00
    0.17502E-07        -0.12470E-09         0.00000E+00
    0.17497E-07        -0.10490E-09         0.00000E+00
    0.17493E-07        -0.80939E-10         0.00000E+00
    0.17490E-07        -0.52579E-10         0.00000E+00
    0.17489E-07        -0.19309E-10         0.00000E+00
    0.17817E-07        -0.26254E-10         0.00000E+00
    0.17813E-07        -0.69127E-10         0.00000E+00
    0.17806E-07        -0.10082E-09         0.00000E+00
    0.17796E-07        -0.12349E-09         0.00000E+00
    0.17785E-07        -0.13864E-09         0.00000E+00
    0.17773E-07        -0.14736E-09         0.00000E+00
    0.17761E-07        -0.15046E-09         0.00000E+00
    0.17749E-07        -0.14852E-09         0.00000E+00
    0.17738E-07        -0.14202E-09         0.00000E+00
    0.17727E-07        -0.13129E-09         0.00000E+00
    0.17717E-07        -0.11657E-09         0.00000E+00
    0.17709E-07        -0.97994E-10         0.00000E+00
    0.17702E-07        -0.75544E-10         0.00000E+00
    0.17697E-07        -0.49024E-10         0.00000E+00
    0.17695E-07        -0.17985E-10         0.00000E+00
    0.18058E-07        -0.22874E-10         0.00000E+00
    0.18054E-07        -0.60537E-10         0.00000E+00
    0.18044E-07        -0.88798E-10         0.00000E+00
    0.18031E-07        -0.10937E-09         0.00000E+00
    0.18016E-07        -0.12341E-09         0.00000E+00
    0.18000E-07        -0.13172E-09         0.00000E+00
    0.17984E-07        -0.13491E-09         0.00000E+00
    0.17968E-07        -0.13347E-09         0.00000E+00
    0.17953E-07        -0.12777E-09         0.00000E+00
    0.17938E-07        -0.11815E-09         0.00000E+00
    0.17925E-07        -0.10483E-09         0.00000E+00
    0.17914E-07        -0.87987E-10         0.00000E+00
    0.17905E-07        -0.67675E-10         0.00000E+00
    0.17898E-07        -0.43797E-10         0.00000E+00
    0.17895E-07        -0.16017E-10         0.00000E+00
    0.18277E-07        -0.18611E-10         0.00000E+00
    0.18271E-07        -0.49796E-10         0.00000E+00
    0.18260E-07        -0.73855E-10         0.00000E+00
    0.18244E-07        -0.91880E-10         0.00000E+00
    0.18227E-07        -0.10452E-09         0.00000E+00
    0.18208E-07        -0.11226E-09         0.00000E+00
    0.18189E-07        -0.11549E-09         0.00000E+00
    0.18169E-07        -0.11457E-09         0.00000E+00
    0.18151E-07        -0.10983E-09         0.00000E+00
    0.18133E-07        -0.10156E-09         0.00000E+00
    0.18118E-07        -0.89983E-10         0.00000E+00
    0.18104E-07        -0.75304E-10         0.00000E+00
    0.18092E-07        -0.57660E-10         0.00000E+00
    0.18084E-07        -0.37098E-10         0.00000E+00
    0.18080E-07        -0.13465E-10         0.00000E+00
    0.18465E-07        -0.13648E-10         0.00000E+00
    0.18458E-07        -0.37469E-10         0.00000E+00
    0.18446E-07        -0.56840E-10         0.00000E+00
    0.18429E-07        -0.71971E-10         0.00000E+00
    0.18410E-07        -0.82929E-10         0.00000E+00
    0.18389E-07        -0.89863E-10         0.00000E+00
    0.18367E-07        -0.92995E-10         0.00000E+00
    0.18346E-07        -0.92585E-10         0.00000E+00
    0.18325E-07        -0.88893E-10         0.00000E+00
    0.18305E-07        -0.82163E-10         0.00000E+00
    0.18287E-07        -0.72619E-10         0.00000E+00
    0.18271E-07        -0.60470E-10         0.00000E+00
    0.18258E-07        -0.45923E-10         0.00000E+00
    0.18249E-07        -0.29193E-10         0.00000E+00
    0.18244E-07        -0.10409E-10         0.00000E+00
    0.18614E-07        -0.82564E-11         0.00000E+00
    0.18608E-07        -0.24398E-10         0.00000E+00
    0.18596E-07        -0.38904E-10         0.00000E+00
    0.18579E-07        -0.50814E-10         0.00000E+00
    0.18559E-07        -0.59692E-10         0.00000E+00
    0.18537E-07        -0.65462E-10         0.00000E+00
    0.18514E-07        -0.68241E-10         0.00000E+00
    0.18490E-07        -0.68217E-10         0.00000E+00
    0.18467E-07        -0.65597E-10         0.00000E+00
    0.18446E-07        -0.60579E-10         0.00000E+00
    0.18426E-07        -0.53345E-10         0.00000E+00
    0.18409E-07        -0.44081E-10         0.00000E+00
    0.18395E-07        -0.33012E-10         0.00000E+00
    0.18386E-07        -0.20453E-10         0.00000E+00
    0.18381E-07        -0.69606E-11         0.00000E+00
    0.18718E-07        -0.29401E-11         0.00000E+00
    0.18715E-07        -0.12076E-10         0.00000E+00
    0.18705E-07        -0.21587E-10         0.00000E+00
    0.18689E-07        -0.29689E-10         0.00000E+00
    0.18670E-07        -0.35805E-10         0.00000E+00
    0.18648E-07        -0.39833E-10         0.00000E+00
    0.18623E-07        -0.41857E-10         0.00000E+00
    0.18599E-07        -0.42017E-10         0.00000E+00
    0.18574E-07        -0.40458E-10         0.00000E+00
    0.18551E-07        -0.37314E-10         0.00000E+00
    0.18530E-07        -0.32705E-10         0.00000E+00
    0.18512E-07        -0.26749E-10         0.00000E+00
    0.18498E-07        -0.19607E-10         0.00000E+00
    0.18489E-07        -0.11566E-10         0.00000E+00
    0.18485E-07        -0.32526E-11         0.00000E+00
    0.18774E-07        -0.19301E-12         0.00000E+00
    0.18777E-07        -0.31739E-11         0.00000E+00
    0.18772E-07        -0.66502E-11         0.00000E+00
    0.18759E-07        -0.96481E-11         0.00000E+00
    0.18741E-07        -0.11905E-10         0.00000E+00
    0.18718E-07        -0.13396E-10         0.00000E+00
    0.18693E-07        -0.14161E-10         0.00000E+00
    0.18667E-07        -0.14256E-10         0.00000E+00
    0.18641E-07        -0.13739E-10         0.00000E+00
    0.18616E-07        -0.12657E-10         0.00000E+00
    0.18594E-07        -0.11052E-10         0.00000E+00
    0.18576E-07        -0.89612E-11         0.00000E+00
    0.18562E-07        -0.64364E-11         0.00000E+00
    0.18554E-07        -0.36011E-11         0.00000E+00
    0.18553E-07        -0.67529E-12         0.00000E+00
POINT_DATA        496
VECTORS vDarcyNodal double 
    0.20059E-07         0.00000E+00         0.00000E+00
    0.20059E-07         0.00000E+00         0.00000E+00
    0.20053E-07         0.00000E+00         0.00000E+00
    0.20041E-07         0.00000E+00         0.00000E+00
    0.20024E-07         0.00000E+00         0.00000E+00
    0.20003E-07         0.00000E+00         0.00000E+00
    0.19979E-07         0.00000E+00         0.00000E+00
    0.19955E-07         0.00000E+00         0.00000E+00
    0.19931E-07         0.00000E+00         0.00000E+00
    0.19909E-07         0.00000E+00         0.00000E+00
    0.19888E-07         0.00000E+00         0.00000E+00
    0.19871E-07         0.00000E+00         0.00000E+00
    0.19857E-07        -0.66636E-22         0.00000E+00
    0.19847E-07        -0.74450E-26         0.00000E+00
    0.19842E-07         0.66629E-22         0.00000E+00
    0.19842E-07         0.00000E+00         0.00000E+00
    0.20021E-07        -0.41303E-11         0.00000E+00
    0.20017E-07        -0.25017E-11         0.00000E+00
    0.20006E-07         0.28989E-11         0.00000E+00
    0.19991E-07         0.99034E-11         0.00000E+00
    0.19972E-07         0.15378E-10         0.00000E+00
    0.19950E-07         0.18984E-10         0.00000E+00
    0.19927E-07         0.20964E-10         0.00000E+00
    0.19904E-07         0.21575E-10         0.00000E+00
    0.19880E-07         0.21036E-10         0.00000E+00
    0.19859E-07         0.19504E-10         0.00000E+00
    0.19839E-07         0.17074E-10         0.00000E+00
    0.19821E-07         0.13792E-10         0.00000E+00
    0.19807E-07         0.97090E-11         0.00000E+00
    0.19796E-07         0.49909E-11         0.00000E+00
    0.19789E-07         0.49571E-12         0.00000E+00
    0.19787E-07        -0.15146E-11         0.00000E+00
    0.19897E-07         0.24054E-11         0.00000E+00
    0.19888E-07         0.65715E-11         0.00000E+00
    0.19872E-07         0.15828E-10         0.00000E+00
    0.19852E-07         0.25427E-10         0.00000E+00
    0.19831E-07         0.33231E-10         0.00000E+00
    0.19809E-07         0.38503E-10         0.00000E+00
    0.19787E-07         0.41283E-10         0.00000E+00
    0.19765E-07         0.41883E-10         0.00000E+00
    0.19743E-07         0.40619E-10         0.00000E+00
    0.19723E-07         0.37740E-10         0.00000E+00
    0.19705E-07         0.33413E-10         0.00000E+00
    0.19688E-07         0.27755E-10         0.00000E+00
    0.19674E-07         0.20907E-10         0.00000E+00
    0.19662E-07         0.13244E-10         0.00000E+00
    0.19653E-07         0.58640E-11         0.00000E+00
    0.19648E-07         0.24482E-11         0.00000E+00
    0.19686E-07         0.90855E-11         0.00000E+00
    0.19678E-07         0.17089E-10         0.00000E+00
    0.19661E-07         0.31712E-10         0.00000E+00
    0.19641E-07         0.43472E-10         0.00000E+00
    0.19620E-07         0.52156E-10         0.00000E+00
    0.19599E-07         0.57698E-10         0.00000E+00
    0.19579E-07         0.60312E-10         0.00000E+00
    0.19559E-07         0.60359E-10         0.00000E+00
    0.19540E-07         0.58209E-10         0.00000E+00
    0.19523E-07         0.54158E-10         0.00000E+00
    0.19507E-07         0.48409E-10         0.00000E+00
    0.19492E-07         0.41104E-10         0.00000E+00
    0.19478E-07         0.32381E-10         0.00000E+00
    0.19467E-07         0.22488E-10         0.00000E+00
    0.19458E-07         0.11738E-10         0.00000E+00
    0.19454E-07         0.61862E-11         0.00000E+00
    0.19405E-07         0.15343E-10         0.00000E+00
    0.19398E-07         0.27072E-10         0.00000E+00
    0.19383E-07         0.46995E-10         0.00000E+00
    0.19365E-07         0.60764E-10         0.00000E+00
    0.19346E-07         0.69794E-10         0.00000E+00
    0.19328E-07         0.74931E-10         0.00000E+00
    0.19311E-07         0.76816E-10         0.00000E+00
    0.19295E-07         0.75991E-10         0.00000E+00
    0.19280E-07         0.72899E-10         0.00000E+00
    0.19266E-07         0.67865E-10         0.00000E+00
    0.19253E-07         0.61093E-10         0.00000E+00
    0.19241E-07         0.52679E-10         0.00000E+00
    0.19230E-07         0.42629E-10         0.00000E+00
    0.19221E-07         0.30841E-10         0.00000E+00
    0.19213E-07         0.16944E-10         0.00000E+00
    0.19210E-07         0.93974E-11         0.00000E+00
    0.19067E-07         0.20179E-10         0.00000E+00
    0.19061E-07         0.35029E-10         0.00000E+00
    0.19050E-07         0.59418E-10         0.00000E+00
    0.19037E-07         0.74835E-10         0.00000E+00
    0.19023E-07         0.83943E-10         0.00000E+00
    0.19009E-07         0.88413E-10         0.00000E+00
    0.18997E-07         0.89366E-10         0.00000E+00
    0.18986E-07         0.87589E-10         0.00000E+00
    0.18976E-07         0.83632E-10         0.00000E+00
    0.18966E-07         0.77851E-10         0.00000E+00
    0.18958E-07         0.70419E-10         0.00000E+00
    0.18949E-07         0.61340E-10         0.00000E+00
    0.18942E-07         0.50427E-10         0.00000E+00
    0.18935E-07         0.37234E-10         0.00000E+00
    0.18929E-07         0.20893E-10         0.00000E+00
    0.18927E-07         0.11794E-10         0.00000E+00
    0.18690E-07         0.23329E-10         0.00000E+00
    0.18687E-07         0.40256E-10         0.00000E+00
    0.18680E-07         0.67606E-10         0.00000E+00
    0.18672E-07         0.84017E-10         0.00000E+00
    0.18664E-07         0.92936E-10         0.00000E+00
    0.18657E-07         0.96648E-10         0.00000E+00
    0.18651E-07         0.96682E-10         0.00000E+00
    0.18645E-07         0.94058E-10         0.00000E+00
    0.18641E-07         0.89440E-10         0.00000E+00
    0.18637E-07         0.83207E-10         0.00000E+00
    0.18633E-07         0.75494E-10         0.00000E+00
    0.18629E-07         0.66199E-10         0.00000E+00
    0.18625E-07         0.54951E-10         0.00000E+00
    0.18622E-07         0.41038E-10         0.00000E+00
    0.18619E-07         0.23272E-10         0.00000E+00
    0.18618E-07         0.13242E-10         0.00000E+00
    0.18294E-07         0.24658E-10         0.00000E+00
    0.18293E-07         0.42427E-10         0.00000E+00
    0.18291E-07         0.70868E-10         0.00000E+00
    0.18289E-07         0.87364E-10         0.00000E+00
    0.18288E-07         0.95740E-10         0.00000E+00
    0.18287E-07         0.98642E-10         0.00000E+00
    0.18288E-07         0.97868E-10         0.00000E+00
    0.18289E-07         0.94611E-10         0.00000E+00
    0.18290E-07         0.89620E-10         0.00000E+00
    0.18292E-07         0.83289E-10         0.00000E+00
    0.18294E-07         0.75714E-10         0.00000E+00
    0.18295E-07         0.66699E-10         0.00000E+00
    0.18295E-07         0.55735E-10         0.00000E+00
    0.18296E-07         0.41936E-10         0.00000E+00
    0.18295E-07         0.23939E-10         0.00000E+00
    0.18295E-07         0.13688E-10         0.00000E+00
    0.17898E-07         0.24176E-10         0.00000E+00
    0.17898E-07         0.41503E-10         0.00000E+00
    0.17901E-07         0.69033E-10         0.00000E+00
    0.17905E-07         0.84558E-10         0.00000E+00
    0.17910E-07         0.91947E-10         0.00000E+00
    0.17917E-07         0.93961E-10         0.00000E+00
    0.17924E-07         0.92514E-10         0.00000E+00
    0.17932E-07         0.88882E-10         0.00000E+00
    0.17939E-07         0.83850E-10         0.00000E+00
    0.17947E-07         0.77813E-10         0.00000E+00
    0.17954E-07         0.70829E-10         0.00000E+00
    0.17960E-07         0.62634E-10         0.00000E+00
    0.17965E-07         0.52635E-10         0.00000E+00
    0.17969E-07         0.39858E-10         0.00000E+00
    0.17971E-07         0.22888E-10         0.00000E+00
    0.17972E-07         0.13147E-10         0.00000E+00
    0.17518E-07         0.22012E-10         0.00000E+00
    0.17521E-07         0.37671E-10         0.00000E+00
    0.17527E-07         0.62339E-10         0.00000E+00
    0.17537E-07         0.75802E-10         0.00000E+00
    0.17548E-07         0.81708E-10         0.00000E+00
    0.17561E-07         0.82719E-10         0.00000E+00
    0.17575E-07         0.80718E-10         0.00000E+00
    0.17589E-07         0.76964E-10         0.00000E+00
    0.17603E-07         0.72230E-10         0.00000E+00
    0.17616E-07         0.66886E-10         0.00000E+00
    0.17628E-07         0.60954E-10         0.00000E+00
    0.17639E-07         0.54132E-10         0.00000E+00
    0.17648E-07         0.45790E-10         0.00000E+00
    0.17655E-07         0.34945E-10         0.00000E+00
    0.17660E-07         0.20220E-10         0.00000E+00
    0.17661E-07         0.11689E-10         0.00000E+00
    0.17172E-07         0.18389E-10         0.00000E+00
    0.17176E-07         0.31291E-10         0.00000E+00
    0.17186E-07         0.51343E-10         0.00000E+00
    0.17200E-07         0.61721E-10         0.00000E+00
    0.17217E-07         0.65644E-10         0.00000E+00
    0.17236E-07         0.65511E-10         0.00000E+00
    0.17255E-07         0.63039E-10         0.00000E+00
    0.17275E-07         0.59389E-10         0.00000E+00
    0.17294E-07         0.55262E-10         0.00000E+00
    0.17312E-07         0.50983E-10         0.00000E+00
    0.17329E-07         0.46539E-10         0.00000E+00
    0.17344E-07         0.41613E-10         0.00000E+00
    0.17356E-07         0.35581E-10         0.00000E+00
    0.17366E-07         0.27508E-10         0.00000E+00
    0.17373E-07         0.16129E-10         0.00000E+00
    0.17375E-07         0.94330E-11         0.00000E+00
    0.16872E-07         0.13596E-10         0.00000E+00
    0.16877E-07         0.22854E-10         0.00000E+00
    0.16890E-07         0.36838E-10         0.00000E+00
    0.16908E-07         0.43253E-10         0.00000E+00
    0.16929E-07         0.44745E-10         0.00000E+00
    0.16952E-07         0.43318E-10         0.00000E+00
    0.16976E-07         0.40426E-10         0.00000E+00
    0.17000E-07         0.37055E-10         0.00000E+00
    0.17024E-07         0.33796E-10         0.00000E+00
    0.17046E-07         0.30900E-10         0.00000E+00
    0.17066E-07         0.28322E-10         0.00000E+00
    0.17084E-07         0.25743E-10         0.00000E+00
    0.17100E-07         0.22582E-10         0.00000E+00
    0.17112E-07         0.17996E-10         0.00000E+00
    0.17120E-07         0.10878E-10         0.00000E+00
    0.17123E-07         0.65317E-11         0.00000E+00
    0.16629E-07         0.79659E-11         0.00000E+00
    0.16635E-07         0.12929E-10         0.00000E+00
    0.16650E-07         0.19772E-10         0.00000E+00
    0.16670E-07         0.21554E-10         0.00000E+00
    0.16694E-07         0.20253E-10         0.00000E+00
    0.16721E-07         0.17399E-10         0.00000E+00
    0.16748E-07         0.14111E-10         0.00000E+00
    0.16775E-07         0.11145E-10         0.00000E+00
    0.16801E-07         0.89444E-11         0.00000E+00
    0.16826E-07         0.76737E-11         0.00000E+00
    0.16849E-07         0.72512E-11         0.00000E+00
    0.16869E-07         0.73694E-11         0.00000E+00
    0.16887E-07         0.75097E-11         0.00000E+00
    0.16900E-07         0.69509E-11         0.00000E+00
    0.16909E-07         0.47785E-11         0.00000E+00
    0.16913E-07         0.31628E-11         0.00000E+00
    0.16450E-07         0.18469E-11         0.00000E+00
    0.16456E-07         0.21251E-11         0.00000E+00
    0.16472E-07         0.11701E-11         0.00000E+00
    0.16494E-07        -0.21071E-11         0.00000E+00
    0.16519E-07        -0.64364E-11         0.00000E+00
    0.16547E-07        -0.10813E-10         0.00000E+00
    0.16576E-07        -0.14492E-10         0.00000E+00
    0.16605E-07        -0.16979E-10         0.00000E+00
    0.16633E-07        -0.18002E-10         0.00000E+00
    0.16659E-07        -0.17497E-10         0.00000E+00
    0.16683E-07        -0.15582E-10         0.00000E+00
    0.16705E-07        -0.12546E-10         0.00000E+00
    0.16723E-07        -0.88335E-11         0.00000E+00
    0.16738E-07        -0.50268E-11         0.00000E+00
    0.16748E-07        -0.18327E-11         0.00000E+00
    0.16751E-07        -0.48437E-12         0.00000E+00
    0.16339E-07        -0.44155E-11         0.00000E+00
    0.16345E-07        -0.89514E-11         0.00000E+00
    0.16360E-07        -0.17931E-10         0.00000E+00
    0.16382E-07        -0.26428E-10         0.00000E+00
    0.16408E-07        -0.33882E-10         0.00000E+00
    0.16436E-07        -0.39821E-10         0.00000E+00
    0.16465E-07        -0.43892E-10         0.00000E+00
    0.16494E-07        -0.45873E-10         0.00000E+00
    0.16522E-07        -0.45676E-10         0.00000E+00
    0.16549E-07        -0.43339E-10         0.00000E+00
    0.16573E-07        -0.39023E-10         0.00000E+00
    0.16595E-07        -0.32993E-10         0.00000E+00
    0.16613E-07        -0.25612E-10         0.00000E+00
    0.16628E-07        -0.17319E-10         0.00000E+00
    0.16638E-07        -0.86115E-11         0.00000E+00
    0.16641E-07        -0.42191E-11         0.00000E+00
    0.16295E-07        -0.10497E-10         0.00000E+00
    0.16301E-07        -0.19725E-10         0.00000E+00
    0.16316E-07        -0.36540E-10         0.00000E+00
    0.16337E-07        -0.50153E-10         0.00000E+00
    0.16361E-07        -0.60677E-10         0.00000E+00
    0.16388E-07        -0.68154E-10         0.00000E+00
    0.16416E-07        -0.72613E-10         0.00000E+00
    0.16444E-07        -0.74102E-10         0.00000E+00
    0.16471E-07        -0.72713E-10         0.00000E+00
    0.16496E-07        -0.68589E-10         0.00000E+00
    0.16519E-07        -0.61927E-10         0.00000E+00
    0.16540E-07        -0.52971E-10         0.00000E+00
    0.16558E-07        -0.42003E-10         0.00000E+00
    0.16572E-07        -0.29323E-10         0.00000E+00
    0.16581E-07        -0.15226E-10         0.00000E+00
    0.16585E-07        -0.78590E-11         0.00000E+00
    0.16317E-07        -0.16106E-10         0.00000E+00
    0.16322E-07        -0.29677E-10         0.00000E+00
    0.16336E-07        -0.53756E-10         0.00000E+00
    0.16355E-07        -0.72130E-10         0.00000E+00
    0.16377E-07        -0.85523E-10         0.00000E+00
    0.16402E-07        -0.94445E-10         0.00000E+00
    0.16427E-07        -0.99278E-10         0.00000E+00
    0.16452E-07        -0.10032E-09         0.00000E+00
    0.16477E-07        -0.97832E-10         0.00000E+00
    0.16500E-07        -0.92054E-10         0.00000E+00
    0.16521E-07        -0.83217E-10         0.00000E+00
    0.16540E-07        -0.71545E-10         0.00000E+00
    0.16556E-07        -0.57242E-10         0.00000E+00
    0.16569E-07        -0.40480E-10         0.00000E+00
    0.16577E-07        -0.21370E-10         0.00000E+00
    0.16580E-07        -0.11238E-10         0.00000E+00
    0.16400E-07        -0.20997E-10         0.00000E+00
    0.16405E-07        -0.38365E-10         0.00000E+00
    0.16416E-07        -0.68803E-10         0.00000E+00
    0.16432E-07        -0.91361E-10         0.00000E+00
    0.16452E-07        -0.10729E-09         0.00000E+00
    0.16473E-07        -0.11749E-09         0.00000E+00
    0.16494E-07        -0.12267E-09         0.00000E+00
    0.16516E-07        -0.12334E-09         0.00000E+00
    0.16536E-07        -0.11990E-09         0.00000E+00
    0.16556E-07        -0.11268E-09         0.00000E+00
    0.16574E-07        -0.10194E-09         0.00000E+00
    0.16591E-07        -0.87884E-10         0.00000E+00
    0.16605E-07        -0.70653E-10         0.00000E+00
    0.16615E-07        -0.50300E-10         0.00000E+00
    0.16623E-07        -0.26778E-10         0.00000E+00
    0.16625E-07        -0.14210E-10         0.00000E+00
    0.16537E-07        -0.24970E-10         0.00000E+00
    0.16541E-07        -0.45429E-10         0.00000E+00
    0.16550E-07        -0.81050E-10         0.00000E+00
    0.16563E-07        -0.10703E-09         0.00000E+00
    0.16578E-07        -0.12503E-09         0.00000E+00
    0.16594E-07        -0.13631E-09         0.00000E+00
    0.16611E-07        -0.14178E-09         0.00000E+00
    0.16628E-07        -0.14216E-09         0.00000E+00
    0.16645E-07        -0.13796E-09         0.00000E+00
    0.16660E-07        -0.12958E-09         0.00000E+00
    0.16675E-07        -0.11729E-09         0.00000E+00
    0.16688E-07        -0.10130E-09         0.00000E+00
    0.16699E-07        -0.81671E-10         0.00000E+00
    0.16707E-07        -0.58376E-10         0.00000E+00
    0.16713E-07        -0.31228E-10         0.00000E+00
    0.16715E-07        -0.16658E-10         0.00000E+00
    0.16719E-07        -0.27881E-10         0.00000E+00
    0.16722E-07        -0.50605E-10         0.00000E+00
    0.16728E-07        -0.90027E-10         0.00000E+00
    0.16737E-07        -0.11852E-09         0.00000E+00
    0.16748E-07        -0.13806E-09         0.00000E+00
    0.16759E-07        -0.15014E-09         0.00000E+00
    0.16771E-07        -0.15586E-09         0.00000E+00
    0.16783E-07        -0.15604E-09         0.00000E+00
    0.16794E-07        -0.15130E-09         0.00000E+00
    0.16805E-07        -0.14208E-09         0.00000E+00
    0.16815E-07        -0.12867E-09         0.00000E+00
    0.16824E-07        -0.11125E-09         0.00000E+00
    0.16832E-07        -0.89865E-10         0.00000E+00
    0.16838E-07        -0.64393E-10         0.00000E+00
    0.16842E-07        -0.34551E-10         0.00000E+00
    0.16844E-07        -0.18490E-10         0.00000E+00
    0.16936E-07        -0.29632E-10         0.00000E+00
    0.16938E-07        -0.53718E-10         0.00000E+00
    0.16941E-07        -0.95424E-10         0.00000E+00
    0.16946E-07        -0.12543E-09         0.00000E+00
    0.16952E-07        -0.14591E-09         0.00000E+00
    0.16958E-07        -0.15849E-09         0.00000E+00
    0.16964E-07        -0.16438E-09         0.00000E+00
    0.16971E-07        -0.16448E-09         0.00000E+00
    0.16977E-07        -0.15944E-09         0.00000E+00
    0.16983E-07        -0.14973E-09         0.00000E+00
    0.16988E-07        -0.13566E-09         0.00000E+00
    0.16993E-07        -0.11739E-09         0.00000E+00
    0.16997E-07        -0.94940E-10         0.00000E+00
    0.17001E-07        -0.68139E-10         0.00000E+00
    0.17003E-07        -0.36632E-10         0.00000E+00
    0.17004E-07        -0.19643E-10         0.00000E+00
    0.17178E-07        -0.30179E-10         0.00000E+00
    0.17178E-07        -0.54684E-10         0.00000E+00
    0.17179E-07        -0.97092E-10         0.00000E+00
    0.17180E-07        -0.12757E-09         0.00000E+00
    0.17180E-07        -0.14837E-09         0.00000E+00
    0.17181E-07        -0.16114E-09         0.00000E+00
    0.17182E-07        -0.16713E-09         0.00000E+00
    0.17182E-07        -0.16724E-09         0.00000E+00
    0.17183E-07        -0.16215E-09         0.00000E+00
    0.17184E-07        -0.15232E-09         0.00000E+00
    0.17185E-07        -0.13806E-09         0.00000E+00
    0.17186E-07        -0.11954E-09         0.00000E+00
    0.17186E-07        -0.96742E-10         0.00000E+00
    0.17187E-07        -0.69498E-10         0.00000E+00
    0.17187E-07        -0.37406E-10         0.00000E+00
    0.17188E-07        -0.20084E-10         0.00000E+00
    0.17433E-07        -0.29522E-10         0.00000E+00
    0.17432E-07        -0.53506E-10         0.00000E+00
    0.17430E-07        -0.95040E-10         0.00000E+00
    0.17427E-07        -0.12496E-09         0.00000E+00
    0.17423E-07        -0.14545E-09         0.00000E+00
    0.17418E-07        -0.15811E-09         0.00000E+00
    0.17413E-07        -0.16412E-09         0.00000E+00
    0.17409E-07        -0.16436E-09         0.00000E+00
    0.17404E-07        -0.15945E-09         0.00000E+00
    0.17400E-07        -0.14985E-09         0.00000E+00
    0.17396E-07        -0.13587E-09         0.00000E+00
    0.17393E-07        -0.11767E-09         0.00000E+00
    0.17390E-07        -0.95253E-10         0.00000E+00
    0.17388E-07        -0.68451E-10         0.00000E+00
    0.17387E-07        -0.36861E-10         0.00000E+00
    0.17386E-07        -0.19803E-10         0.00000E+00
    0.17690E-07        -0.27703E-10         0.00000E+00
    0.17689E-07        -0.50264E-10         0.00000E+00
    0.17684E-07        -0.89421E-10         0.00000E+00
    0.17677E-07        -0.11780E-09         0.00000E+00
    0.17668E-07        -0.13741E-09         0.00000E+00
    0.17659E-07        -0.14967E-09         0.00000E+00
    0.17649E-07        -0.15564E-09         0.00000E+00
    0.17640E-07        -0.15608E-09         0.00000E+00
    0.17630E-07        -0.15157E-09         0.00000E+00
    0.17621E-07        -0.14253E-09         0.00000E+00
    0.17613E-07        -0.12926E-09         0.00000E+00
    0.17606E-07        -0.11193E-09         0.00000E+00
    0.17600E-07        -0.90582E-10         0.00000E+00
    0.17595E-07        -0.65068E-10         0.00000E+00
    0.17592E-07        -0.35028E-10         0.00000E+00
    0.17591E-07        -0.18815E-10         0.00000E+00
    0.17939E-07        -0.24805E-10         0.00000E+00
    0.17937E-07        -0.45117E-10         0.00000E+00
    0.17930E-07        -0.80530E-10         0.00000E+00
    0.17920E-07        -0.10651E-09         0.00000E+00
    0.17907E-07        -0.12472E-09         0.00000E+00
    0.17894E-07        -0.13633E-09         0.00000E+00
    0.17879E-07        -0.14218E-09         0.00000E+00
    0.17865E-07        -0.14290E-09         0.00000E+00
    0.17852E-07        -0.13898E-09         0.00000E+00
    0.17839E-07        -0.13078E-09         0.00000E+00
    0.17827E-07        -0.11860E-09         0.00000E+00
    0.17816E-07        -0.10263E-09         0.00000E+00
    0.17807E-07        -0.82956E-10         0.00000E+00
    0.17800E-07        -0.59500E-10         0.00000E+00
    0.17795E-07        -0.31982E-10         0.00000E+00
    0.17794E-07        -0.17156E-10         0.00000E+00
    0.18170E-07        -0.20944E-10         0.00000E+00
    0.18167E-07        -0.38295E-10         0.00000E+00
    0.18158E-07        -0.68806E-10         0.00000E+00
    0.18145E-07        -0.91666E-10         0.00000E+00
    0.18130E-07        -0.10807E-09         0.00000E+00
    0.18113E-07        -0.11881E-09         0.00000E+00
    0.18095E-07        -0.12446E-09         0.00000E+00
    0.18077E-07        -0.12548E-09         0.00000E+00
    0.18060E-07        -0.12226E-09         0.00000E+00
    0.18043E-07        -0.11514E-09         0.00000E+00
    0.18028E-07        -0.10437E-09         0.00000E+00
    0.18015E-07        -0.90184E-10         0.00000E+00
    0.18003E-07        -0.72706E-10         0.00000E+00
    0.17994E-07        -0.51973E-10         0.00000E+00
    0.17988E-07        -0.27833E-10         0.00000E+00
    0.17986E-07        -0.14878E-10         0.00000E+00
    0.18373E-07        -0.16279E-10         0.00000E+00
    0.18370E-07        -0.30113E-10         0.00000E+00
    0.18360E-07        -0.54846E-10         0.00000E+00
    0.18346E-07        -0.74071E-10         0.00000E+00
    0.18328E-07        -0.88334E-10         0.00000E+00
    0.18309E-07        -0.97974E-10         0.00000E+00
    0.18288E-07        -0.10329E-09         0.00000E+00
    0.18268E-07        -0.10458E-09         0.00000E+00
    0.18247E-07        -0.10214E-09         0.00000E+00
    0.18228E-07        -0.96257E-10         0.00000E+00
    0.18210E-07        -0.87169E-10         0.00000E+00
    0.18194E-07        -0.75105E-10         0.00000E+00
    0.18180E-07        -0.60259E-10         0.00000E+00
    0.18170E-07        -0.42787E-10         0.00000E+00
    0.18163E-07        -0.22731E-10         0.00000E+00
    0.18161E-07        -0.12053E-10         0.00000E+00
    0.18542E-07        -0.11019E-10         0.00000E+00
    0.18538E-07        -0.21005E-10         0.00000E+00
    0.18528E-07        -0.39465E-10         0.00000E+00
    0.18513E-07        -0.54743E-10         0.00000E+00
    0.18495E-07        -0.66568E-10         0.00000E+00
    0.18474E-07        -0.74821E-10         0.00000E+00
    0.18452E-07        -0.79572E-10         0.00000E+00
    0.18429E-07        -0.81003E-10         0.00000E+00
    0.18407E-07        -0.79337E-10         0.00000E+00
    0.18385E-07        -0.74802E-10         0.00000E+00
    0.18365E-07        -0.67615E-10         0.00000E+00
    0.18347E-07        -0.57986E-10         0.00000E+00
    0.18332E-07        -0.46135E-10         0.00000E+00
    0.18321E-07        -0.32330E-10         0.00000E+00
    0.18313E-07        -0.16872E-10         0.00000E+00
    0.18311E-07        -0.87666E-11         0.00000E+00
    0.18669E-07        -0.54949E-11         0.00000E+00
    0.18665E-07        -0.11650E-10         0.00000E+00
    0.18657E-07        -0.23839E-10         0.00000E+00
    0.18643E-07        -0.34978E-10         0.00000E+00
    0.18625E-07        -0.43941E-10         0.00000E+00
    0.18604E-07        -0.50336E-10         0.00000E+00
    0.18581E-07        -0.54133E-10         0.00000E+00
    0.18556E-07        -0.55457E-10         0.00000E+00
    0.18532E-07        -0.54480E-10         0.00000E+00
    0.18509E-07        -0.51376E-10         0.00000E+00
    0.18487E-07        -0.46310E-10         0.00000E+00
    0.18468E-07        -0.39441E-10         0.00000E+00
    0.18453E-07        -0.30959E-10         0.00000E+00
    0.18441E-07        -0.21135E-10         0.00000E+00
    0.18434E-07        -0.10542E-10         0.00000E+00
    0.18431E-07        -0.51548E-11         0.00000E+00
    0.18748E-07        -0.38607E-12         0.00000E+00
    0.18748E-07        -0.33673E-11         0.00000E+00
    0.18744E-07        -0.98251E-11         0.00000E+00
    0.18733E-07        -0.16300E-10         0.00000E+00
    0.18716E-07        -0.21556E-10         0.00000E+00
    0.18695E-07        -0.25304E-10         0.00000E+00
    0.18671E-07        -0.27559E-10         0.00000E+00
    0.18645E-07        -0.28419E-10         0.00000E+00
    0.18620E-07        -0.27997E-10         0.00000E+00
    0.18595E-07        -0.26398E-10         0.00000E+00
    0.18572E-07        -0.23711E-10         0.00000E+00
    0.18552E-07        -0.20015E-10         0.00000E+00
    0.18536E-07        -0.15399E-10         0.00000E+00
    0.18525E-07        -0.10038E-10         0.00000E+00
    0.18519E-07        -0.42767E-11         0.00000E+00
    0.18517E-07        -0.13507E-11         0.00000E+00
    0.18775E-07         0.00000E+00         0.00000E+00
    0.18777E-07         0.00000E+00         0.00000E+00
    0.18776E-07        -0.53804E-22         0.00000E+00
    0.18767E-07         0.10587E-25         0.00000E+00
    0.18751E-07         0.57955E-22         0.00000E+00
    0.18730E-07         0.00000E+00         0.00000E+00
    0.18706E-07         0.00000E+00         0.00000E+00
    0.18680E-07        -0.53845E-22         0.00000E+00
    0.18653E-07        -0.53845E-22         0.00000E+00
    0.18628E-07         0.53856E-22         0.00000E+00
    0.18604E-07         0.57999E-22         0.00000E+00
    0.18584E-07        -0.58010E-22         0.00000E+00
    0.18568E-07        -0.41387E-23         0.00000E+00
    0.18557E-07         0.58017E-22         0.00000E+00
    0.18552E-07         0.82889E-23         0.00000E+00
    0.18552E-07         0.00000E+00         0.00000E+00
CELL_DATA        450
TENSORS stressef double 
    0.44864E+08        -0.11570E+06         0.00000E+00
   -0.11570E+06         0.23886E+08         0.00000E+00
    0.00000E+00         0.00000E+00         0.17283E+08
 
    0.42319E+08        -0.47326E+06         0.00000E+00
   -0.47326E+06         0.23076E+08         0.00000E+00
    0.00000E+00         0.00000E+00         0.13591E+08
 
    0.37816E+08        -0.65220E+06         0.00000E+00
   -0.65220E+06         0.22005E+08         0.00000E+00
    0.00000E+00         0.00000E+00         0.11964E+08
 
    0.34438E+08        -0.53747E+06         0.00000E+00
   -0.53747E+06         0.20915E+08         0.00000E+00
    0.00000E+00         0.00000E+00         0.11071E+08
 
    0.31781E+08        -0.44346E+06         0.00000E+00
   -0.44346E+06         0.19977E+08         0.00000E+00
    0.00000E+00         0.00000E+00         0.10352E+08
 
    0.29515E+08        -0.36317E+06         0.00000E+00
   -0.36317E+06         0.19193E+08         0.00000E+00
    0.00000E+00         0.00000E+00         0.97414E+07
 
    0.27483E+08        -0.28846E+06         0.00000E+00
   -0.28846E+06         0.18555E+08         0.00000E+00
    0.00000E+00         0.00000E+00         0.92076E+07
 
    0.25588E+08        -0.21429E+06         0.00000E+00
   -0.21429E+06         0.18061E+08         0.00000E+00
    0.00000E+00         0.00000E+00         0.87298E+07
 
    0.23750E+08        -0.13711E+06         0.00000E+00
   -0.13711E+06         0.17717E+08         0.00000E+00
    0.00000E+00         0.00000E+00         0.82934E+07
 
    0.21898E+08        -0.53353E+05         0.00000E+00
   -0.53353E+05         0.17532E+08         0.00000E+00
    0.00000E+00         0.00000E+00         0.78860E+07
 
    0.19956E+08         0.41711E+05         0.00000E+00
    0.41711E+05         0.17524E+08         0.00000E+00
    0.00000E+00         0.00000E+00         0.74961E+07
 
    0.17828E+08         0.15588E+06         0.00000E+00
    0.15588E+06         0.17725E+08         0.00000E+00
    0.00000E+00         0.00000E+00         0.71105E+07
 
    0.15371E+08         0.30548E+06         0.00000E+00
    0.30548E+06         0.18188E+08         0.00000E+00
    0.00000E+00         0.00000E+00         0.67118E+07
 
    0.12336E+08         0.52709E+06         0.00000E+00
    0.52709E+06         0.19021E+08         0.00000E+00
    0.00000E+00         0.00000E+00         0.62713E+07
 
    0.80043E+07         0.10583E+07         0.00000E+00
    0.10583E+07         0.20526E+08         0.00000E+00
    0.00000E+00         0.00000E+00         0.57061E+07
 
    0.41889E+08        -0.22471E+06         0.00000E+00
   -0.22471E+06         0.20323E+08         0.00000E+00
    0.00000E+00         0.00000E+00         0.12838E+08
 
    0.38625E+08        -0.10587E+07         0.00000E+00
   -0.10587E+07         0.20361E+08         0.00000E+00
    0.00000E+00         0.00000E+00         0.11797E+08
 
    0.35049E+08        -0.15076E+07         0.00000E+00
   -0.15076E+07         0.19965E+08         0.00000E+00
    0.00000E+00         0.00000E+00         0.11003E+08
 
    0.31790E+08        -0.14206E+07         0.00000E+00
   -0.14206E+07         0.19327E+08         0.00000E+00
    0.00000E+00         0.00000E+00         0.10223E+08
 
    0.29139E+08        -0.12319E+07         0.00000E+00
   -0.12319E+07         0.18633E+08         0.00000E+00
    0.00000E+00         0.00000E+00         0.95543E+07
 
    0.26871E+08        -0.10318E+07         0.00000E+00
   -0.10318E+07         0.17992E+08         0.00000E+00
    0.00000E+00         0.00000E+00         0.89725E+07
 
    0.24843E+08        -0.82791E+06         0.00000E+00
   -0.82791E+06         0.17447E+08         0.00000E+00
    0.00000E+00         0.00000E+00         0.84578E+07
 
    0.22955E+08        -0.61663E+06         0.00000E+00
   -0.61663E+06         0.17018E+08         0.00000E+00
    0.00000E+00         0.00000E+00         0.79946E+07
 
    0.21131E+08        -0.39165E+06         0.00000E+00
   -0.39165E+06         0.16721E+08         0.00000E+00
    0.00000E+00         0.00000E+00         0.75705E+07
 
    0.19301E+08        -0.14422E+06         0.00000E+00
   -0.14422E+06         0.16573E+08         0.00000E+00
    0.00000E+00         0.00000E+00         0.71748E+07
 
    0.17391E+08         0.13900E+06         0.00000E+00
    0.13900E+06         0.16596E+08         0.00000E+00
    0.00000E+00         0.00000E+00         0.67975E+07
 
    0.15316E+08         0.48117E+06         0.00000E+00
    0.48117E+06         0.16824E+08         0.00000E+00
    0.00000E+00         0.00000E+00         0.64279E+07
 
    0.12961E+08         0.92856E+06         0.00000E+00
    0.92856E+06         0.17309E+08         0.00000E+00
    0.00000E+00         0.00000E+00         0.60538E+07
 
    0.10146E+08         0.15968E+07         0.00000E+00
    0.15968E+07         0.18144E+08         0.00000E+00
    0.00000E+00         0.00000E+00         0.56579E+07
 
    0.68295E+07         0.28656E+07         0.00000E+00
    0.28656E+07         0.19459E+08         0.00000E+00
    0.00000E+00         0.00000E+00         0.52577E+07
 
    0.38321E+08        -0.48629E+06         0.00000E+00
   -0.48629E+06         0.17963E+08         0.00000E+00
    0.00000E+00         0.00000E+00         0.11257E+08
 
    0.35143E+08        -0.13262E+07         0.00000E+00
   -0.13262E+07         0.17730E+08         0.00000E+00
    0.00000E+00         0.00000E+00         0.10575E+08
 
    0.32042E+08        -0.18369E+07         0.00000E+00
   -0.18369E+07         0.17511E+08         0.00000E+00
    0.00000E+00         0.00000E+00         0.99106E+07
 
    0.29133E+08        -0.19410E+07         0.00000E+00
   -0.19410E+07         0.17219E+08         0.00000E+00
    0.00000E+00         0.00000E+00         0.92705E+07
 
    0.26574E+08        -0.17962E+07         0.00000E+00
   -0.17962E+07         0.16811E+08         0.00000E+00
    0.00000E+00         0.00000E+00         0.86770E+07
 
    0.24342E+08        -0.15544E+07         0.00000E+00
   -0.15544E+07         0.16375E+08         0.00000E+00
    0.00000E+00         0.00000E+00         0.81433E+07
 
    0.22337E+08        -0.12666E+07         0.00000E+00
   -0.12666E+07         0.15976E+08         0.00000E+00
    0.00000E+00         0.00000E+00         0.76625E+07
 
    0.20473E+08        -0.94569E+06         0.00000E+00
   -0.94569E+06         0.15655E+08         0.00000E+00
    0.00000E+00         0.00000E+00         0.72255E+07
 
    0.18680E+08        -0.59043E+06         0.00000E+00
   -0.59043E+06         0.15440E+08         0.00000E+00
    0.00000E+00         0.00000E+00         0.68238E+07
 
    0.16892E+08        -0.19087E+06         0.00000E+00
   -0.19087E+06         0.15356E+08         0.00000E+00
    0.00000E+00         0.00000E+00         0.64494E+07
 
    0.15046E+08         0.27227E+06         0.00000E+00
    0.27227E+06         0.15429E+08         0.00000E+00
    0.00000E+00         0.00000E+00         0.60949E+07
 
    0.13075E+08         0.83400E+06         0.00000E+00
    0.83400E+06         0.15691E+08         0.00000E+00
    0.00000E+00         0.00000E+00         0.57532E+07
 
    0.10905E+08         0.15616E+07         0.00000E+00
    0.15616E+07         0.16186E+08         0.00000E+00
    0.00000E+00         0.00000E+00         0.54182E+07
 
    0.84943E+07         0.25965E+07         0.00000E+00
    0.25965E+07         0.16961E+08         0.00000E+00
    0.00000E+00         0.00000E+00         0.50911E+07
 
    0.59308E+07         0.41608E+07         0.00000E+00
    0.41608E+07         0.17979E+08         0.00000E+00
    0.00000E+00         0.00000E+00         0.47819E+07
 
    0.34549E+08        -0.60255E+06         0.00000E+00
   -0.60255E+06         0.15251E+08         0.00000E+00
    0.00000E+00         0.00000E+00         0.99600E+07
 
    0.31703E+08        -0.14914E+07         0.00000E+00
   -0.14914E+07         0.15170E+08         0.00000E+00
    0.00000E+00         0.00000E+00         0.93746E+07
 
    0.28970E+08        -0.20143E+07         0.00000E+00
   -0.20143E+07         0.15059E+08         0.00000E+00
    0.00000E+00         0.00000E+00         0.88059E+07
 
    0.26386E+08        -0.22041E+07         0.00000E+00
   -0.22041E+07         0.14913E+08         0.00000E+00
    0.00000E+00         0.00000E+00         0.82598E+07
 
    0.24019E+08        -0.21348E+07         0.00000E+00
   -0.21348E+07         0.14707E+08         0.00000E+00
    0.00000E+00         0.00000E+00         0.77451E+07
 
    0.21883E+08        -0.19026E+07         0.00000E+00
   -0.19026E+07         0.14459E+08         0.00000E+00
    0.00000E+00         0.00000E+00         0.72683E+07
 
    0.19939E+08        -0.15729E+07         0.00000E+00
   -0.15729E+07         0.14215E+08         0.00000E+00
    0.00000E+00         0.00000E+00         0.68307E+07
 
    0.18126E+08        -0.11736E+07         0.00000E+00
   -0.11736E+07         0.14017E+08         0.00000E+00
    0.00000E+00         0.00000E+00         0.64285E+07
 
    0.16386E+08        -0.71120E+06         0.00000E+00
   -0.71120E+06         0.13899E+08         0.00000E+00
    0.00000E+00         0.00000E+00         0.60569E+07
 
    0.14666E+08        -0.17782E+06         0.00000E+00
   -0.17782E+06         0.13889E+08         0.00000E+00
    0.00000E+00         0.00000E+00         0.57110E+07
 
    0.12916E+08         0.44767E+06         0.00000E+00
    0.44767E+06         0.14015E+08         0.00000E+00
    0.00000E+00         0.00000E+00         0.53862E+07
 
    0.11091E+08         0.12046E+07         0.00000E+00
    0.12046E+07         0.14303E+08         0.00000E+00
    0.00000E+00         0.00000E+00         0.50788E+07
 
    0.91609E+07         0.21618E+07         0.00000E+00
    0.21618E+07         0.14779E+08         0.00000E+00
    0.00000E+00         0.00000E+00         0.47880E+07
 
    0.71434E+07         0.34245E+07         0.00000E+00
    0.34245E+07         0.15441E+08         0.00000E+00
    0.00000E+00         0.00000E+00         0.45170E+07
 
    0.51411E+07         0.51172E+07         0.00000E+00
    0.51172E+07         0.16235E+08         0.00000E+00
    0.00000E+00         0.00000E+00         0.42752E+07
 
    0.30717E+08        -0.62855E+06         0.00000E+00
   -0.62855E+06         0.12574E+08         0.00000E+00
    0.00000E+00         0.00000E+00         0.86583E+07
 
    0.28283E+08        -0.15465E+07         0.00000E+00
   -0.15465E+07         0.12573E+08         0.00000E+00
    0.00000E+00         0.00000E+00         0.81712E+07
 
    0.25898E+08        -0.20913E+07         0.00000E+00
   -0.20913E+07         0.12559E+08         0.00000E+00
    0.00000E+00         0.00000E+00         0.76912E+07
 
    0.23608E+08        -0.23238E+07         0.00000E+00
   -0.23238E+07         0.12520E+08         0.00000E+00
    0.00000E+00         0.00000E+00         0.72256E+07
 
    0.21458E+08        -0.23033E+07         0.00000E+00
   -0.23033E+07         0.12447E+08         0.00000E+00
    0.00000E+00         0.00000E+00         0.67810E+07
 
    0.19469E+08        -0.20934E+07         0.00000E+00
   -0.20934E+07         0.12344E+08         0.00000E+00
    0.00000E+00         0.00000E+00         0.63625E+07
 
    0.17626E+08        -0.17467E+07         0.00000E+00
   -0.17467E+07         0.12235E+08         0.00000E+00
    0.00000E+00         0.00000E+00         0.59721E+07
 
    0.15895E+08        -0.12946E+07         0.00000E+00
   -0.12946E+07         0.12153E+08         0.00000E+00
    0.00000E+00         0.00000E+00         0.56097E+07
 
    0.14237E+08        -0.74847E+06         0.00000E+00
   -0.74847E+06         0.12129E+08         0.00000E+00
    0.00000E+00         0.00000E+00         0.52733E+07
 
    0.12612E+08        -0.10399E+06         0.00000E+00
   -0.10399E+06         0.12190E+08         0.00000E+00
    0.00000E+00         0.00000E+00         0.49604E+07
 
    0.10984E+08         0.65782E+06         0.00000E+00
    0.65782E+06         0.12361E+08         0.00000E+00
    0.00000E+00         0.00000E+00         0.46690E+07
 
    0.93304E+07         0.15726E+07         0.00000E+00
    0.15726E+07         0.12660E+08         0.00000E+00
    0.00000E+00         0.00000E+00         0.43981E+07
 
    0.76476E+07         0.26947E+07         0.00000E+00
    0.26947E+07         0.13095E+08         0.00000E+00
    0.00000E+00         0.00000E+00         0.41486E+07
 
    0.59723E+07         0.40943E+07         0.00000E+00
    0.40943E+07         0.13650E+08         0.00000E+00
    0.00000E+00         0.00000E+00         0.39246E+07
 
    0.43957E+07         0.58398E+07         0.00000E+00
    0.58398E+07         0.14272E+08         0.00000E+00
    0.00000E+00         0.00000E+00         0.37335E+07
 
    0.26923E+08        -0.61047E+06         0.00000E+00
   -0.61047E+06         0.99233E+07         0.00000E+00
    0.00000E+00         0.00000E+00         0.73692E+07
 
    0.24896E+08        -0.15241E+07         0.00000E+00
   -0.15241E+07         0.99699E+07         0.00000E+00
    0.00000E+00         0.00000E+00         0.69731E+07
 
    0.22844E+08        -0.20822E+07         0.00000E+00
   -0.20822E+07         0.10026E+08         0.00000E+00
    0.00000E+00         0.00000E+00         0.65741E+07
 
    0.20834E+08        -0.23414E+07         0.00000E+00
   -0.23414E+07         0.10071E+08         0.00000E+00
    0.00000E+00         0.00000E+00         0.61811E+07
 
    0.18910E+08        -0.23516E+07         0.00000E+00
   -0.23516E+07         0.10094E+08         0.00000E+00
    0.00000E+00         0.00000E+00         0.58008E+07
 
    0.17092E+08        -0.21600E+07         0.00000E+00
   -0.21600E+07         0.10098E+08         0.00000E+00
    0.00000E+00         0.00000E+00         0.54381E+07
 
    0.15383E+08        -0.18066E+07         0.00000E+00
   -0.18066E+07         0.10096E+08         0.00000E+00
    0.00000E+00         0.00000E+00         0.50958E+07
 
    0.13766E+08        -0.13191E+07         0.00000E+00
   -0.13191E+07         0.10110E+08         0.00000E+00
    0.00000E+00         0.00000E+00         0.47753E+07
 
    0.12217E+08        -0.71010E+06         0.00000E+00
   -0.71010E+06         0.10165E+08         0.00000E+00
    0.00000E+00         0.00000E+00         0.44764E+07
 
    0.10710E+08         0.21430E+05         0.00000E+00
    0.21430E+05         0.10284E+08         0.00000E+00
    0.00000E+00         0.00000E+00         0.41988E+07
 
    0.92241E+07         0.88978E+06         0.00000E+00
    0.88978E+06         0.10486E+08         0.00000E+00
    0.00000E+00         0.00000E+00         0.39420E+07
 
    0.77511E+07         0.19219E+07         0.00000E+00
    0.19219E+07         0.10782E+08         0.00000E+00
    0.00000E+00         0.00000E+00         0.37067E+07
 
    0.63015E+07         0.31555E+07         0.00000E+00
    0.31555E+07         0.11172E+08         0.00000E+00
    0.00000E+00         0.00000E+00         0.34947E+07
 
    0.49155E+07         0.46336E+07         0.00000E+00
    0.46336E+07         0.11634E+08         0.00000E+00
    0.00000E+00         0.00000E+00         0.33099E+07
 
    0.36685E+07         0.63914E+07         0.00000E+00
    0.63914E+07         0.12122E+08         0.00000E+00
    0.00000E+00         0.00000E+00         0.31582E+07
 
    0.23223E+08        -0.57308E+06         0.00000E+00
   -0.57308E+06         0.73170E+07         0.00000E+00
    0.00000E+00         0.00000E+00         0.61080E+07
 
    0.21563E+08        -0.14533E+07         0.00000E+00
   -0.14533E+07         0.73885E+07         0.00000E+00
    0.00000E+00         0.00000E+00         0.57904E+07
 
    0.19827E+08        -0.20099E+07         0.00000E+00
   -0.20099E+07         0.74896E+07         0.00000E+00
    0.00000E+00         0.00000E+00         0.54634E+07
 
    0.18087E+08        -0.22836E+07         0.00000E+00
   -0.22836E+07         0.75927E+07         0.00000E+00
    0.00000E+00         0.00000E+00         0.51359E+07
 
    0.16388E+08        -0.23131E+07         0.00000E+00
   -0.23131E+07         0.76850E+07         0.00000E+00
    0.00000E+00         0.00000E+00         0.48146E+07
 
    0.14758E+08        -0.21343E+07         0.00000E+00
   -0.21343E+07         0.77649E+07         0.00000E+00
    0.00000E+00         0.00000E+00         0.45046E+07
 
    0.13206E+08        -0.17779E+07         0.00000E+00
   -0.17779E+07         0.78404E+07         0.00000E+00
    0.00000E+00         0.00000E+00         0.42092E+07
 
    0.11726E+08        -0.12663E+07         0.00000E+00
   -0.12663E+07         0.79264E+07         0.00000E+00
    0.00000E+00         0.00000E+00         0.39305E+07
 
    0.10308E+08        -0.61177E+06         0.00000E+00
   -0.61177E+06         0.80407E+07         0.00000E+00
    0.00000E+00         0.00000E+00         0.36697E+07
 
    0.89375E+07         0.18433E+06         0.00000E+00
    0.18433E+06         0.82006E+07         0.00000E+00
    0.00000E+00         0.00000E+00         0.34276E+07
 
    0.76058E+07         0.11306E+07         0.00000E+00
    0.11306E+07         0.84195E+07         0.00000E+00
    0.00000E+00         0.00000E+00         0.32051E+07
 
    0.63134E+07         0.22446E+07         0.00000E+00
    0.22446E+07         0.87034E+07         0.00000E+00
    0.00000E+00         0.00000E+00         0.30034E+07
 
    0.50772E+07         0.35493E+07         0.00000E+00
    0.35493E+07         0.90471E+07         0.00000E+00
    0.00000E+00         0.00000E+00         0.28249E+07
 
    0.39348E+07         0.50678E+07         0.00000E+00
    0.50678E+07         0.94303E+07         0.00000E+00
    0.00000E+00         0.00000E+00         0.26730E+07
 
    0.29470E+07         0.68149E+07         0.00000E+00
    0.68149E+07         0.98156E+07         0.00000E+00
    0.00000E+00         0.00000E+00         0.25525E+07
 
    0.19646E+08        -0.52755E+06         0.00000E+00
   -0.52755E+06         0.47614E+07         0.00000E+00
    0.00000E+00         0.00000E+00         0.48815E+07
 
    0.18308E+08        -0.13565E+07         0.00000E+00
   -0.13565E+07         0.48442E+07         0.00000E+00
    0.00000E+00         0.00000E+00         0.46304E+07
 
    0.16862E+08        -0.18974E+07         0.00000E+00
   -0.18974E+07         0.49693E+07         0.00000E+00
    0.00000E+00         0.00000E+00         0.43662E+07
 
    0.15378E+08        -0.21744E+07         0.00000E+00
   -0.21744E+07         0.51076E+07         0.00000E+00
    0.00000E+00         0.00000E+00         0.40971E+07
 
    0.13904E+08        -0.22146E+07         0.00000E+00
   -0.22146E+07         0.52439E+07         0.00000E+00
    0.00000E+00         0.00000E+00         0.38296E+07
 
    0.12470E+08        -0.20440E+07         0.00000E+00
   -0.20440E+07         0.53736E+07         0.00000E+00
    0.00000E+00         0.00000E+00         0.35686E+07
 
    0.11088E+08        -0.16860E+07         0.00000E+00
   -0.16860E+07         0.55006E+07         0.00000E+00
    0.00000E+00         0.00000E+00         0.33178E+07
 
    0.97640E+07        -0.11583E+07         0.00000E+00
   -0.11583E+07         0.56341E+07         0.00000E+00
    0.00000E+00         0.00000E+00         0.30796E+07
 
    0.84940E+07        -0.47194E+06         0.00000E+00
   -0.47194E+06         0.57865E+07         0.00000E+00
    0.00000E+00         0.00000E+00         0.28561E+07
 
    0.72738E+07         0.36948E+06         0.00000E+00
    0.36948E+06         0.59698E+07         0.00000E+00
    0.00000E+00         0.00000E+00         0.26487E+07
 
    0.61021E+07         0.13695E+07         0.00000E+00
    0.13695E+07         0.61925E+07         0.00000E+00
    0.00000E+00         0.00000E+00         0.24589E+07
 
    0.49855E+07         0.25369E+07         0.00000E+00
    0.25369E+07         0.64571E+07         0.00000E+00
    0.00000E+00         0.00000E+00         0.22885E+07
 
    0.39424E+07         0.38831E+07         0.00000E+00
    0.38831E+07         0.67566E+07         0.00000E+00
    0.00000E+00         0.00000E+00         0.21398E+07
 
    0.30061E+07         0.54174E+07         0.00000E+00
    0.54174E+07         0.70732E+07         0.00000E+00
    0.00000E+00         0.00000E+00         0.20159E+07
 
    0.22251E+07         0.71407E+07         0.00000E+00
    0.71407E+07         0.73771E+07         0.00000E+00
    0.00000E+00         0.00000E+00         0.19204E+07
 
    0.16205E+08        -0.47989E+06         0.00000E+00
   -0.47989E+06         0.22584E+07         0.00000E+00
    0.00000E+00         0.00000E+00         0.36926E+07
 
    0.15142E+08        -0.12489E+07         0.00000E+00
   -0.12489E+07         0.23431E+07         0.00000E+00
    0.00000E+00         0.00000E+00         0.34971E+07
 
    0.13959E+08        -0.17640E+07         0.00000E+00
   -0.17640E+07         0.24764E+07         0.00000E+00
    0.00000E+00         0.00000E+00         0.32870E+07
 
    0.12718E+08        -0.20356E+07         0.00000E+00
   -0.20356E+07         0.26303E+07         0.00000E+00
    0.00000E+00         0.00000E+00         0.30696E+07
 
    0.11464E+08        -0.20795E+07         0.00000E+00
   -0.20795E+07         0.27889E+07         0.00000E+00
    0.00000E+00         0.00000E+00         0.28506E+07
 
    0.10228E+08        -0.19135E+07         0.00000E+00
   -0.19135E+07         0.29454E+07         0.00000E+00
    0.00000E+00         0.00000E+00         0.26347E+07
 
    0.90277E+07        -0.15544E+07         0.00000E+00
   -0.15544E+07         0.31004E+07         0.00000E+00
    0.00000E+00         0.00000E+00         0.24256E+07
 
    0.78708E+07        -0.10162E+07         0.00000E+00
   -0.10162E+07         0.32595E+07         0.00000E+00
    0.00000E+00         0.00000E+00         0.22261E+07
 
    0.67607E+07        -0.30880E+06         0.00000E+00
   -0.30880E+06         0.34304E+07         0.00000E+00
    0.00000E+00         0.00000E+00         0.20382E+07
 
    0.56990E+07         0.56258E+06         0.00000E+00
    0.56258E+06         0.36207E+07         0.00000E+00
    0.00000E+00         0.00000E+00         0.18639E+07
 
    0.46895E+07         0.15971E+07         0.00000E+00
    0.15971E+07         0.38356E+07         0.00000E+00
    0.00000E+00         0.00000E+00         0.17050E+07
 
    0.37418E+07         0.27968E+07         0.00000E+00
    0.27968E+07         0.40751E+07         0.00000E+00
    0.00000E+00         0.00000E+00         0.15634E+07
 
    0.28739E+07         0.41640E+07         0.00000E+00
    0.41640E+07         0.43321E+07         0.00000E+00
    0.00000E+00         0.00000E+00         0.14412E+07
 
    0.21140E+07         0.56980E+07         0.00000E+00
    0.56980E+07         0.45916E+07         0.00000E+00
    0.00000E+00         0.00000E+00         0.13411E+07
 
    0.15002E+07         0.73909E+07         0.00000E+00
    0.73909E+07         0.48302E+07         0.00000E+00
    0.00000E+00         0.00000E+00         0.12661E+07
 
    0.12898E+08        -0.43389E+06         0.00000E+00
   -0.43389E+06        -0.19392E+06         0.00000E+00
    0.00000E+00         0.00000E+00         0.25407E+07
 
    0.12072E+08        -0.11412E+07         0.00000E+00
   -0.11412E+07        -0.11363E+06         0.00000E+00
    0.00000E+00         0.00000E+00         0.23917E+07
 
    0.11124E+08        -0.16252E+07         0.00000E+00
   -0.16252E+07         0.15809E+05         0.00000E+00
    0.00000E+00         0.00000E+00         0.22280E+07
 
    0.10110E+08        -0.18852E+07         0.00000E+00
   -0.18852E+07         0.16940E+06         0.00000E+00
    0.00000E+00         0.00000E+00         0.20559E+07
 
    0.90706E+07        -0.19279E+07         0.00000E+00
   -0.19279E+07         0.33173E+06         0.00000E+00
    0.00000E+00         0.00000E+00         0.18805E+07
 
    0.80342E+07        -0.17635E+07         0.00000E+00
   -0.17635E+07         0.49524E+06         0.00000E+00
    0.00000E+00         0.00000E+00         0.17059E+07
 
    0.70194E+07        -0.14037E+07         0.00000E+00
   -0.14037E+07         0.65840E+06         0.00000E+00
    0.00000E+00         0.00000E+00         0.15356E+07
 
    0.60372E+07        -0.85909E+06         0.00000E+00
   -0.85909E+06         0.82373E+06         0.00000E+00
    0.00000E+00         0.00000E+00         0.13722E+07
 
    0.50944E+07        -0.13871E+06         0.00000E+00
   -0.13871E+06         0.99579E+06         0.00000E+00
    0.00000E+00         0.00000E+00         0.12180E+07
 
    0.41960E+07         0.75106E+06         0.00000E+00
    0.75106E+06         0.11791E+07         0.00000E+00
    0.00000E+00         0.00000E+00         0.10750E+07
 
    0.33485E+07         0.18059E+07         0.00000E+00
    0.18059E+07         0.13762E+07         0.00000E+00
    0.00000E+00         0.00000E+00         0.94495E+06
 
    0.25626E+07         0.30227E+07         0.00000E+00
    0.30227E+07         0.15858E+07         0.00000E+00
    0.00000E+00         0.00000E+00         0.82969E+06
 
    0.18545E+07         0.43970E+07         0.00000E+00
    0.43970E+07         0.18015E+07         0.00000E+00
    0.00000E+00         0.00000E+00         0.73121E+06
 
    0.12476E+07         0.59214E+07         0.00000E+00
    0.59214E+07         0.20109E+07         0.00000E+00
    0.00000E+00         0.00000E+00         0.65170E+06
 
    0.77135E+06         0.75816E+07         0.00000E+00
    0.75816E+07         0.21961E+07         0.00000E+00
    0.00000E+00         0.00000E+00         0.59350E+06
 
    0.97165E+07        -0.39217E+06         0.00000E+00
   -0.39217E+06        -0.25996E+07         0.00000E+00
    0.00000E+00         0.00000E+00         0.14234E+07
 
    0.90935E+07        -0.10412E+07         0.00000E+00
   -0.10412E+07        -0.25286E+07         0.00000E+00
    0.00000E+00         0.00000E+00         0.13130E+07
 
    0.83579E+07        -0.14930E+07         0.00000E+00
   -0.14930E+07        -0.24122E+07         0.00000E+00
    0.00000E+00         0.00000E+00         0.11891E+07
 
    0.75560E+07        -0.17384E+07         0.00000E+00
   -0.17384E+07        -0.22716E+07         0.00000E+00
    0.00000E+00         0.00000E+00         0.10569E+07
 
    0.67229E+07        -0.17766E+07         0.00000E+00
   -0.17766E+07        -0.21204E+07         0.00000E+00
    0.00000E+00         0.00000E+00         0.92049E+06
 
    0.58842E+07        -0.16119E+07         0.00000E+00
   -0.16119E+07        -0.19663E+07         0.00000E+00
    0.00000E+00         0.00000E+00         0.78358E+06
 
    0.50574E+07        -0.12513E+07         0.00000E+00
   -0.12513E+07        -0.18117E+07         0.00000E+00
    0.00000E+00         0.00000E+00         0.64914E+06
 
    0.42543E+07        -0.70325E+06         0.00000E+00
   -0.70325E+06        -0.16562E+07         0.00000E+00
    0.00000E+00         0.00000E+00         0.51961E+06
 
    0.34828E+07         0.24413E+05         0.00000E+00
    0.24413E+05        -0.14974E+07         0.00000E+00
    0.00000E+00         0.00000E+00         0.39710E+06
 
    0.27499E+07         0.92433E+06         0.00000E+00
    0.92433E+06        -0.13329E+07         0.00000E+00
    0.00000E+00         0.00000E+00         0.28341E+06
 
    0.20630E+07         0.19897E+07         0.00000E+00
    0.19897E+07        -0.11618E+07         0.00000E+00
    0.00000E+00         0.00000E+00         0.18023E+06
 
    0.14321E+07         0.32133E+07         0.00000E+00
    0.32133E+07        -0.98601E+06         0.00000E+00
    0.00000E+00         0.00000E+00         0.89222E+05
 
    0.87143E+06         0.45864E+07         0.00000E+00
    0.45864E+07        -0.81105E+06         0.00000E+00
    0.00000E+00         0.00000E+00         0.12077E+05
 
    0.39939E+06         0.60963E+07         0.00000E+00
    0.60963E+07        -0.64660E+06         0.00000E+00
    0.00000E+00         0.00000E+00        -0.49441E+05
 
    0.38575E+05         0.77249E+07         0.00000E+00
    0.77249E+07        -0.50619E+06         0.00000E+00
    0.00000E+00         0.00000E+00        -0.93523E+05
 
    0.66462E+07        -0.35668E+06         0.00000E+00
   -0.35668E+06        -0.49647E+07         0.00000E+00
    0.00000E+00         0.00000E+00         0.33629E+06
 
    0.61980E+07        -0.95468E+06         0.00000E+00
   -0.95468E+06        -0.49066E+07         0.00000E+00
    0.00000E+00         0.00000E+00         0.25827E+06
 
    0.56541E+07        -0.13766E+07         0.00000E+00
   -0.13766E+07        -0.48102E+07         0.00000E+00
    0.00000E+00         0.00000E+00         0.16878E+06
 
    0.50511E+07        -0.16070E+07         0.00000E+00
   -0.16070E+07        -0.46923E+07         0.00000E+00
    0.00000E+00         0.00000E+00         0.71748E+05
 
    0.44171E+07        -0.16391E+07         0.00000E+00
   -0.16391E+07        -0.45642E+07         0.00000E+00
    0.00000E+00         0.00000E+00        -0.29409E+05
 
    0.37734E+07        -0.14727E+07         0.00000E+00
   -0.14727E+07        -0.44323E+07         0.00000E+00
    0.00000E+00         0.00000E+00        -0.13179E+06
 
    0.31350E+07        -0.11116E+07         0.00000E+00
   -0.11116E+07        -0.42997E+07         0.00000E+00
    0.00000E+00         0.00000E+00        -0.23294E+06
 
    0.25128E+07        -0.56190E+06         0.00000E+00
   -0.56190E+06        -0.41668E+07         0.00000E+00
    0.00000E+00         0.00000E+00        -0.33080E+06
 
    0.19149E+07         0.16921E+06         0.00000E+00
    0.16921E+06        -0.40328E+07         0.00000E+00
    0.00000E+00         0.00000E+00        -0.42357E+06
 
    0.13480E+07         0.10738E+07         0.00000E+00
    0.10738E+07        -0.38965E+07         0.00000E+00
    0.00000E+00         0.00000E+00        -0.50970E+06
 
    0.81937E+06         0.21432E+07         0.00000E+00
    0.21432E+07        -0.37581E+07         0.00000E+00
    0.00000E+00         0.00000E+00        -0.58774E+06
 
    0.33784E+06         0.33676E+07         0.00000E+00
    0.33676E+07        -0.36194E+07         0.00000E+00
    0.00000E+00         0.00000E+00        -0.65631E+06
 
   -0.85286E+05         0.47348E+07         0.00000E+00
    0.47348E+07        -0.34849E+07         0.00000E+00
    0.00000E+00         0.00000E+00        -0.71404E+06
 
   -0.43593E+06         0.62290E+07         0.00000E+00
    0.62290E+07        -0.33619E+07         0.00000E+00
    0.00000E+00         0.00000E+00        -0.75956E+06
 
   -0.69759E+06         0.78293E+07         0.00000E+00
    0.78293E+07        -0.32601E+07         0.00000E+00
    0.00000E+00         0.00000E+00        -0.79153E+06
 
    0.36666E+07        -0.32885E+06         0.00000E+00
   -0.32885E+06        -0.72971E+07         0.00000E+00
    0.00000E+00         0.00000E+00        -0.72609E+06
 
    0.33716E+07        -0.88595E+06         0.00000E+00
   -0.88595E+06        -0.72545E+07         0.00000E+00
    0.00000E+00         0.00000E+00        -0.77658E+06
 
    0.30035E+07        -0.12830E+07         0.00000E+00
   -0.12830E+07        -0.71831E+07         0.00000E+00
    0.00000E+00         0.00000E+00        -0.83594E+06
 
    0.25884E+07        -0.14998E+07         0.00000E+00
   -0.14998E+07        -0.70951E+07         0.00000E+00
    0.00000E+00         0.00000E+00        -0.90134E+06
 
    0.21470E+07        -0.15258E+07         0.00000E+00
   -0.15258E+07        -0.69986E+07         0.00000E+00
    0.00000E+00         0.00000E+00        -0.97033E+06
 
    0.16951E+07        -0.13573E+07         0.00000E+00
   -0.13573E+07        -0.68988E+07         0.00000E+00
    0.00000E+00         0.00000E+00        -0.10407E+07
 
    0.12445E+07        -0.99571E+06         0.00000E+00
   -0.99571E+06        -0.67982E+07         0.00000E+00
    0.00000E+00         0.00000E+00        -0.11107E+07
 
    0.80392E+06        -0.44542E+06         0.00000E+00
   -0.44542E+06        -0.66977E+07         0.00000E+00
    0.00000E+00         0.00000E+00        -0.11788E+07
 
    0.38011E+06         0.28681E+06         0.00000E+00
    0.28681E+06        -0.65971E+07         0.00000E+00
    0.00000E+00         0.00000E+00        -0.12434E+07
 
   -0.21037E+05         0.11927E+07         0.00000E+00
    0.11927E+07        -0.64962E+07         0.00000E+00
    0.00000E+00         0.00000E+00        -0.13034E+07
 
   -0.39352E+06         0.22625E+07         0.00000E+00
    0.22625E+07        -0.63954E+07         0.00000E+00
    0.00000E+00         0.00000E+00        -0.13578E+07
 
   -0.73042E+06         0.34844E+07         0.00000E+00
    0.34844E+07        -0.62963E+07         0.00000E+00
    0.00000E+00         0.00000E+00        -0.14053E+07
 
   -0.10234E+07         0.48442E+07         0.00000E+00
    0.48442E+07        -0.62022E+07         0.00000E+00
    0.00000E+00         0.00000E+00        -0.14451E+07
 
   -0.12624E+07         0.63239E+07         0.00000E+00
    0.63239E+07        -0.61182E+07         0.00000E+00
    0.00000E+00         0.00000E+00        -0.14761E+07
 
   -0.14363E+07         0.79010E+07         0.00000E+00
    0.79010E+07        -0.60508E+07         0.00000E+00
    0.00000E+00         0.00000E+00        -0.14974E+07
 
    0.75447E+06        -0.30967E+06         0.00000E+00
   -0.30967E+06        -0.96054E+07         0.00000E+00
    0.00000E+00         0.00000E+00        -0.17702E+07
 
    0.59733E+06        -0.83803E+06         0.00000E+00
   -0.83803E+06        -0.95799E+07         0.00000E+00
    0.00000E+00         0.00000E+00        -0.17965E+07
 
    0.39339E+06        -0.12169E+07         0.00000E+00
   -0.12169E+07        -0.95370E+07         0.00000E+00
    0.00000E+00         0.00000E+00        -0.18287E+07
 
    0.15816E+06        -0.14233E+07         0.00000E+00
   -0.14233E+07        -0.94836E+07         0.00000E+00
    0.00000E+00         0.00000E+00        -0.18651E+07
 
   -0.95753E+05        -0.14442E+07         0.00000E+00
   -0.14442E+07        -0.94248E+07         0.00000E+00
    0.00000E+00         0.00000E+00        -0.19041E+07
 
   -0.35845E+06        -0.12738E+07         0.00000E+00
   -0.12738E+07        -0.93637E+07         0.00000E+00
    0.00000E+00         0.00000E+00        -0.19444E+07
 
   -0.62231E+06        -0.91166E+06         0.00000E+00
   -0.91166E+06        -0.93020E+07         0.00000E+00
    0.00000E+00         0.00000E+00        -0.19849E+07
 
   -0.88146E+06        -0.36138E+06         0.00000E+00
   -0.36138E+06        -0.92406E+07         0.00000E+00
    0.00000E+00         0.00000E+00        -0.20244E+07
 
   -0.11312E+07         0.37074E+06         0.00000E+00
    0.37074E+06        -0.91794E+07         0.00000E+00
    0.00000E+00         0.00000E+00        -0.20621E+07
 
   -0.13672E+07         0.12762E+07         0.00000E+00
    0.12762E+07        -0.91187E+07         0.00000E+00
    0.00000E+00         0.00000E+00        -0.20972E+07
 
   -0.15854E+07         0.23445E+07         0.00000E+00
    0.23445E+07        -0.90589E+07         0.00000E+00
    0.00000E+00         0.00000E+00        -0.21289E+07
 
   -0.17811E+07         0.35628E+07         0.00000E+00
    0.35628E+07        -0.90012E+07         0.00000E+00
    0.00000E+00         0.00000E+00        -0.21565E+07
 
   -0.19491E+07         0.49156E+07         0.00000E+00
    0.49156E+07        -0.89476E+07         0.00000E+00
    0.00000E+00         0.00000E+00        -0.21793E+07
 
   -0.20831E+07         0.63838E+07         0.00000E+00
    0.63838E+07        -0.89011E+07         0.00000E+00
    0.00000E+00         0.00000E+00        -0.21968E+07
 
   -0.21768E+07         0.79439E+07         0.00000E+00
    0.79439E+07        -0.88653E+07         0.00000E+00
    0.00000E+00         0.00000E+00        -0.22084E+07
 
   -0.21159E+07        -0.29975E+06         0.00000E+00
   -0.29975E+06        -0.11899E+08         0.00000E+00
    0.00000E+00         0.00000E+00        -0.28030E+07
 
   -0.21440E+07        -0.81279E+06         0.00000E+00
   -0.81279E+06        -0.11891E+08         0.00000E+00
    0.00000E+00         0.00000E+00        -0.28071E+07
 
   -0.21907E+07        -0.11815E+07         0.00000E+00
   -0.11815E+07        -0.11879E+08         0.00000E+00
    0.00000E+00         0.00000E+00        -0.28139E+07
 
   -0.22510E+07        -0.13818E+07         0.00000E+00
   -0.13818E+07        -0.11863E+08         0.00000E+00
    0.00000E+00         0.00000E+00        -0.28227E+07
 
   -0.23207E+07        -0.13993E+07         0.00000E+00
   -0.13993E+07        -0.11845E+08         0.00000E+00
    0.00000E+00         0.00000E+00        -0.28331E+07
 
   -0.23960E+07        -0.12274E+07         0.00000E+00
   -0.12274E+07        -0.11826E+08         0.00000E+00
    0.00000E+00         0.00000E+00        -0.28444E+07
 
   -0.24740E+07        -0.86481E+06         0.00000E+00
   -0.86481E+06        -0.11807E+08         0.00000E+00
    0.00000E+00         0.00000E+00        -0.28563E+07
 
   -0.25521E+07        -0.31471E+06         0.00000E+00
   -0.31471E+06        -0.11789E+08         0.00000E+00
    0.00000E+00         0.00000E+00        -0.28682E+07
 
   -0.26280E+07         0.41678E+06         0.00000E+00
    0.41678E+06        -0.11770E+08         0.00000E+00
    0.00000E+00         0.00000E+00        -0.28797E+07
 
   -0.26996E+07         0.13211E+07         0.00000E+00
    0.13211E+07        -0.11753E+08         0.00000E+00
    0.00000E+00         0.00000E+00        -0.28905E+07
 
   -0.27649E+07         0.23873E+07         0.00000E+00
    0.23873E+07        -0.11736E+08         0.00000E+00
    0.00000E+00         0.00000E+00        -0.29002E+07
 
   -0.28216E+07         0.36023E+07         0.00000E+00
    0.36023E+07        -0.11720E+08         0.00000E+00
    0.00000E+00         0.00000E+00        -0.29084E+07
 
   -0.28675E+07         0.49499E+07         0.00000E+00
    0.49499E+07        -0.11707E+08         0.00000E+00
    0.00000E+00         0.00000E+00        -0.29150E+07
 
   -0.29004E+07         0.64105E+07         0.00000E+00
    0.64105E+07        -0.11697E+08         0.00000E+00
    0.00000E+00         0.00000E+00        -0.29195E+07
 
   -0.29179E+07         0.79605E+07         0.00000E+00
    0.79605E+07        -0.11692E+08         0.00000E+00
    0.00000E+00         0.00000E+00        -0.29219E+07
 
   -0.49712E+07        -0.29934E+06         0.00000E+00
   -0.29934E+06        -0.14187E+08         0.00000E+00
    0.00000E+00         0.00000E+00        -0.38316E+07
 
   -0.48727E+07        -0.81107E+06         0.00000E+00
   -0.81107E+06        -0.14198E+08         0.00000E+00
    0.00000E+00         0.00000E+00        -0.38140E+07
 
   -0.47642E+07        -0.11782E+07         0.00000E+00
   -0.11782E+07        -0.14215E+08         0.00000E+00
    0.00000E+00         0.00000E+00        -0.37959E+07
 
   -0.46512E+07        -0.13770E+07         0.00000E+00
   -0.13770E+07        -0.14237E+08         0.00000E+00
    0.00000E+00         0.00000E+00        -0.37777E+07
 
   -0.45378E+07        -0.13934E+07         0.00000E+00
   -0.13934E+07        -0.14261E+08         0.00000E+00
    0.00000E+00         0.00000E+00        -0.37598E+07
 
   -0.44265E+07        -0.12206E+07         0.00000E+00
   -0.12206E+07        -0.14286E+08         0.00000E+00
    0.00000E+00         0.00000E+00        -0.37426E+07
 
   -0.43192E+07        -0.85772E+06         0.00000E+00
   -0.85772E+06        -0.14311E+08         0.00000E+00
    0.00000E+00         0.00000E+00        -0.37261E+07
 
   -0.42165E+07        -0.30782E+06         0.00000E+00
   -0.30782E+06        -0.14337E+08         0.00000E+00
    0.00000E+00         0.00000E+00        -0.37106E+07
 
   -0.41190E+07         0.42290E+06         0.00000E+00
    0.42290E+06        -0.14362E+08         0.00000E+00
    0.00000E+00         0.00000E+00        -0.36962E+07
 
   -0.40266E+07         0.13258E+07         0.00000E+00
    0.13258E+07        -0.14388E+08         0.00000E+00
    0.00000E+00         0.00000E+00        -0.36829E+07
 
   -0.39396E+07         0.23901E+07         0.00000E+00
    0.23901E+07        -0.14414E+08         0.00000E+00
    0.00000E+00         0.00000E+00        -0.36708E+07
 
   -0.38582E+07         0.36027E+07         0.00000E+00
    0.36027E+07        -0.14441E+08         0.00000E+00
    0.00000E+00         0.00000E+00        -0.36599E+07
 
   -0.37833E+07         0.49474E+07         0.00000E+00
    0.49474E+07        -0.14469E+08         0.00000E+00
    0.00000E+00         0.00000E+00        -0.36504E+07
 
   -0.37161E+07         0.64049E+07         0.00000E+00
    0.64049E+07        -0.14495E+08         0.00000E+00
    0.00000E+00         0.00000E+00        -0.36422E+07
 
   -0.36586E+07         0.79519E+07         0.00000E+00
    0.79519E+07        -0.14519E+08         0.00000E+00
    0.00000E+00         0.00000E+00        -0.36355E+07
 
   -0.78376E+07        -0.30835E+06         0.00000E+00
   -0.30835E+06        -0.16478E+08         0.00000E+00
    0.00000E+00         0.00000E+00        -0.48632E+07
 
   -0.76090E+07        -0.83275E+06         0.00000E+00
   -0.83275E+06        -0.16507E+08         0.00000E+00
    0.00000E+00         0.00000E+00        -0.48231E+07
 
   -0.73427E+07        -0.12070E+07         0.00000E+00
   -0.12070E+07        -0.16554E+08         0.00000E+00
    0.00000E+00         0.00000E+00        -0.47794E+07
 
   -0.70547E+07        -0.14091E+07         0.00000E+00
   -0.14091E+07        -0.16613E+08         0.00000E+00
    0.00000E+00         0.00000E+00        -0.47335E+07
 
   -0.67572E+07        -0.14264E+07         0.00000E+00
   -0.14264E+07        -0.16677E+08         0.00000E+00
    0.00000E+00         0.00000E+00        -0.46869E+07
 
   -0.64589E+07        -0.12535E+07         0.00000E+00
   -0.12535E+07        -0.16744E+08         0.00000E+00
    0.00000E+00         0.00000E+00        -0.46405E+07
 
   -0.61661E+07        -0.89034E+06         0.00000E+00
   -0.89034E+06        -0.16811E+08         0.00000E+00
    0.00000E+00         0.00000E+00        -0.45955E+07
 
   -0.58830E+07        -0.34062E+06         0.00000E+00
   -0.34062E+06        -0.16879E+08         0.00000E+00
    0.00000E+00         0.00000E+00        -0.45523E+07
 
   -0.56123E+07         0.38918E+06         0.00000E+00
    0.38918E+06        -0.16946E+08         0.00000E+00
    0.00000E+00         0.00000E+00        -0.45117E+07
 
   -0.53562E+07         0.12905E+07         0.00000E+00
    0.12905E+07        -0.17014E+08         0.00000E+00
    0.00000E+00         0.00000E+00        -0.44741E+07
 
   -0.51169E+07         0.23529E+07         0.00000E+00
    0.23529E+07        -0.17083E+08         0.00000E+00
    0.00000E+00         0.00000E+00        -0.44400E+07
 
   -0.48971E+07         0.35639E+07         0.00000E+00
    0.35639E+07        -0.17152E+08         0.00000E+00
    0.00000E+00         0.00000E+00        -0.44098E+07
 
   -0.47005E+07         0.49081E+07         0.00000E+00
    0.49081E+07        -0.17219E+08         0.00000E+00
    0.00000E+00         0.00000E+00        -0.43839E+07
 
   -0.45321E+07         0.63669E+07         0.00000E+00
    0.63669E+07        -0.17282E+08         0.00000E+00
    0.00000E+00         0.00000E+00        -0.43627E+07
 
   -0.43979E+07         0.79178E+07         0.00000E+00
    0.79178E+07        -0.17336E+08         0.00000E+00
    0.00000E+00         0.00000E+00        -0.43468E+07
 
   -0.10741E+08        -0.32640E+06         0.00000E+00
   -0.32640E+06        -0.18782E+08         0.00000E+00
    0.00000E+00         0.00000E+00        -0.59045E+07
 
   -0.10372E+08        -0.87678E+06         0.00000E+00
   -0.87678E+06        -0.18826E+08         0.00000E+00
    0.00000E+00         0.00000E+00        -0.58397E+07
 
   -0.99409E+07        -0.12662E+07         0.00000E+00
   -0.12662E+07        -0.18901E+08         0.00000E+00
    0.00000E+00         0.00000E+00        -0.57684E+07
 
   -0.94729E+07        -0.14759E+07         0.00000E+00
   -0.14759E+07        -0.18993E+08         0.00000E+00
    0.00000E+00         0.00000E+00        -0.56933E+07
 
   -0.89880E+07        -0.14960E+07         0.00000E+00
   -0.14960E+07        -0.19094E+08         0.00000E+00
    0.00000E+00         0.00000E+00        -0.56165E+07
 
   -0.85011E+07        -0.13234E+07         0.00000E+00
   -0.13234E+07        -0.19199E+08         0.00000E+00
    0.00000E+00         0.00000E+00        -0.55400E+07
 
   -0.80226E+07        -0.95997E+06         0.00000E+00
   -0.95997E+06        -0.19304E+08         0.00000E+00
    0.00000E+00         0.00000E+00        -0.54652E+07
 
   -0.75592E+07        -0.41058E+06         0.00000E+00
   -0.41058E+06        -0.19409E+08         0.00000E+00
    0.00000E+00         0.00000E+00        -0.53936E+07
 
   -0.71158E+07         0.31783E+06         0.00000E+00
    0.31783E+06        -0.19515E+08         0.00000E+00
    0.00000E+00         0.00000E+00        -0.53261E+07
 
   -0.66961E+07         0.12169E+07         0.00000E+00
    0.12169E+07        -0.19622E+08         0.00000E+00
    0.00000E+00         0.00000E+00        -0.52635E+07
 
   -0.63039E+07         0.22769E+07         0.00000E+00
    0.22769E+07        -0.19730E+08         0.00000E+00
    0.00000E+00         0.00000E+00        -0.52068E+07
 
   -0.59440E+07         0.34864E+07         0.00000E+00
    0.34864E+07        -0.19839E+08         0.00000E+00
    0.00000E+00         0.00000E+00        -0.51567E+07
 
   -0.56232E+07         0.48317E+07         0.00000E+00
    0.48317E+07        -0.19946E+08         0.00000E+00
    0.00000E+00         0.00000E+00        -0.51138E+07
 
   -0.53499E+07         0.62956E+07         0.00000E+00
    0.62956E+07        -0.20045E+08         0.00000E+00
    0.00000E+00         0.00000E+00        -0.50791E+07
 
   -0.51344E+07         0.78569E+07         0.00000E+00
    0.78569E+07        -0.20132E+08         0.00000E+00
    0.00000E+00         0.00000E+00        -0.50532E+07
 
   -0.13704E+08        -0.35282E+06         0.00000E+00
   -0.35282E+06        -0.21104E+08         0.00000E+00
    0.00000E+00         0.00000E+00        -0.69616E+07
 
   -0.13180E+08        -0.94125E+06         0.00000E+00
   -0.94125E+06        -0.21164E+08         0.00000E+00
    0.00000E+00         0.00000E+00        -0.68687E+07
 
   -0.12572E+08        -0.13529E+07         0.00000E+00
   -0.13529E+07        -0.21262E+08         0.00000E+00
    0.00000E+00         0.00000E+00        -0.67668E+07
 
   -0.11915E+08        -0.15734E+07         0.00000E+00
   -0.15734E+07        -0.21383E+08         0.00000E+00
    0.00000E+00         0.00000E+00        -0.66597E+07
 
   -0.11238E+08        -0.15972E+07         0.00000E+00
   -0.15972E+07        -0.21515E+08         0.00000E+00
    0.00000E+00         0.00000E+00        -0.65506E+07
 
   -0.10560E+08        -0.14250E+07         0.00000E+00
   -0.14250E+07        -0.21649E+08         0.00000E+00
    0.00000E+00         0.00000E+00        -0.64419E+07
 
   -0.98956E+07        -0.10612E+07         0.00000E+00
   -0.10612E+07        -0.21784E+08         0.00000E+00
    0.00000E+00         0.00000E+00        -0.63360E+07
 
   -0.92527E+07        -0.51262E+06         0.00000E+00
   -0.51262E+06        -0.21920E+08         0.00000E+00
    0.00000E+00         0.00000E+00        -0.62346E+07
 
   -0.86373E+07         0.21321E+06         0.00000E+00
    0.21321E+06        -0.22057E+08         0.00000E+00
    0.00000E+00         0.00000E+00        -0.61390E+07
 
   -0.80541E+07         0.11083E+07         0.00000E+00
    0.11083E+07        -0.22198E+08         0.00000E+00
    0.00000E+00         0.00000E+00        -0.60505E+07
 
   -0.75079E+07         0.21640E+07         0.00000E+00
    0.21640E+07        -0.22343E+08         0.00000E+00
    0.00000E+00         0.00000E+00        -0.59701E+07
 
   -0.70054E+07         0.33711E+07         0.00000E+00
    0.33711E+07        -0.22490E+08         0.00000E+00
    0.00000E+00         0.00000E+00        -0.58990E+07
 
   -0.65557E+07         0.47178E+07         0.00000E+00
    0.47178E+07        -0.22635E+08         0.00000E+00
    0.00000E+00         0.00000E+00        -0.58382E+07
 
   -0.61713E+07         0.61893E+07         0.00000E+00
    0.61893E+07        -0.22773E+08         0.00000E+00
    0.00000E+00         0.00000E+00        -0.57889E+07
 
   -0.58671E+07         0.77665E+07         0.00000E+00
    0.77665E+07        -0.22894E+08         0.00000E+00
    0.00000E+00         0.00000E+00        -0.57522E+07
 
   -0.16747E+08        -0.38668E+06         0.00000E+00
   -0.38668E+06        -0.23453E+08         0.00000E+00
    0.00000E+00         0.00000E+00        -0.80401E+07
 
   -0.16046E+08        -0.10234E+07         0.00000E+00
   -0.10234E+07        -0.23524E+08         0.00000E+00
    0.00000E+00         0.00000E+00        -0.79142E+07
 
   -0.15245E+08        -0.14623E+07         0.00000E+00
   -0.14623E+07        -0.23642E+08         0.00000E+00
    0.00000E+00         0.00000E+00        -0.77775E+07
 
   -0.14390E+08        -0.16954E+07         0.00000E+00
   -0.16954E+07        -0.23785E+08         0.00000E+00
    0.00000E+00         0.00000E+00        -0.76349E+07
 
   -0.13514E+08        -0.17228E+07         0.00000E+00
   -0.17228E+07        -0.23937E+08         0.00000E+00
    0.00000E+00         0.00000E+00        -0.74903E+07
 
   -0.12643E+08        -0.15502E+07         0.00000E+00
   -0.15502E+07        -0.24093E+08         0.00000E+00
    0.00000E+00         0.00000E+00        -0.73471E+07
 
   -0.11792E+08        -0.11859E+07         0.00000E+00
   -0.11859E+07        -0.24248E+08         0.00000E+00
    0.00000E+00         0.00000E+00        -0.72079E+07
 
   -0.10970E+08        -0.63909E+06         0.00000E+00
   -0.63909E+06        -0.24404E+08         0.00000E+00
    0.00000E+00         0.00000E+00        -0.70749E+07
 
   -0.10185E+08         0.81913E+05         0.00000E+00
    0.81913E+05        -0.24564E+08         0.00000E+00
    0.00000E+00         0.00000E+00        -0.69497E+07
 
   -0.94387E+07         0.96966E+06         0.00000E+00
    0.96966E+06        -0.24731E+08         0.00000E+00
    0.00000E+00         0.00000E+00        -0.68338E+07
 
   -0.87373E+07         0.20175E+07         0.00000E+00
    0.20175E+07        -0.24906E+08         0.00000E+00
    0.00000E+00         0.00000E+00        -0.67286E+07
 
   -0.80882E+07         0.32188E+07         0.00000E+00
    0.32188E+07        -0.25088E+08         0.00000E+00
    0.00000E+00         0.00000E+00        -0.66352E+07
 
   -0.75032E+07         0.45652E+07         0.00000E+00
    0.45652E+07        -0.25272E+08         0.00000E+00
    0.00000E+00         0.00000E+00        -0.65551E+07
 
   -0.69984E+07         0.60453E+07         0.00000E+00
    0.60453E+07        -0.25451E+08         0.00000E+00
    0.00000E+00         0.00000E+00        -0.64898E+07
 
   -0.65946E+07         0.76426E+07         0.00000E+00
    0.76426E+07        -0.25610E+08         0.00000E+00
    0.00000E+00         0.00000E+00        -0.64408E+07
 
   -0.19889E+08        -0.42682E+06         0.00000E+00
   -0.42682E+06        -0.25832E+08         0.00000E+00
    0.00000E+00         0.00000E+00        -0.91441E+07
 
   -0.18984E+08        -0.11196E+07         0.00000E+00
   -0.11196E+07        -0.25913E+08         0.00000E+00
    0.00000E+00         0.00000E+00        -0.89792E+07
 
   -0.17969E+08        -0.15885E+07         0.00000E+00
   -0.15885E+07        -0.26043E+08         0.00000E+00
    0.00000E+00         0.00000E+00        -0.88025E+07
 
   -0.16900E+08        -0.18334E+07         0.00000E+00
   -0.18334E+07        -0.26199E+08         0.00000E+00
    0.00000E+00         0.00000E+00        -0.86198E+07
 
   -0.15818E+08        -0.18624E+07         0.00000E+00
   -0.18624E+07        -0.26362E+08         0.00000E+00
    0.00000E+00         0.00000E+00        -0.84360E+07
 
   -0.14751E+08        -0.16878E+07         0.00000E+00
   -0.16878E+07        -0.26524E+08         0.00000E+00
    0.00000E+00         0.00000E+00        -0.82551E+07
 
   -0.13715E+08        -0.13228E+07         0.00000E+00
   -0.13228E+07        -0.26686E+08         0.00000E+00
    0.00000E+00         0.00000E+00        -0.80802E+07
 
   -0.12719E+08        -0.77952E+06         0.00000E+00
   -0.77952E+06        -0.26849E+08         0.00000E+00
    0.00000E+00         0.00000E+00        -0.79136E+07
 
   -0.11766E+08        -0.67177E+05         0.00000E+00
   -0.67177E+05        -0.27020E+08         0.00000E+00
    0.00000E+00         0.00000E+00        -0.77572E+07
 
   -0.10859E+08         0.80780E+06         0.00000E+00
    0.80780E+06        -0.27203E+08         0.00000E+00
    0.00000E+00         0.00000E+00        -0.76124E+07
 
   -0.10001E+08         0.18414E+07         0.00000E+00
    0.18414E+07        -0.27402E+08         0.00000E+00
    0.00000E+00         0.00000E+00        -0.74806E+07
 
   -0.92010E+07         0.30307E+07         0.00000E+00
    0.30307E+07        -0.27616E+08         0.00000E+00
    0.00000E+00         0.00000E+00        -0.73634E+07
 
   -0.84718E+07         0.43723E+07         0.00000E+00
    0.43723E+07        -0.27839E+08         0.00000E+00
    0.00000E+00         0.00000E+00        -0.72622E+07
 
   -0.78344E+07         0.58593E+07         0.00000E+00
    0.58593E+07        -0.28061E+08         0.00000E+00
    0.00000E+00         0.00000E+00        -0.71791E+07
 
   -0.73157E+07         0.74793E+07         0.00000E+00
    0.74793E+07        -0.28264E+08         0.00000E+00
    0.00000E+00         0.00000E+00        -0.71160E+07
 
   -0.23141E+08        -0.47188E+06         0.00000E+00
   -0.47188E+06        -0.28244E+08         0.00000E+00
    0.00000E+00         0.00000E+00        -0.10277E+08
 
   -0.21998E+08        -0.12254E+07         0.00000E+00
   -0.12254E+07        -0.28331E+08         0.00000E+00
    0.00000E+00         0.00000E+00        -0.10066E+08
 
   -0.20745E+08        -0.17235E+07         0.00000E+00
   -0.17235E+07        -0.28468E+08         0.00000E+00
    0.00000E+00         0.00000E+00        -0.98425E+07
 
   -0.19447E+08        -0.19765E+07         0.00000E+00
   -0.19765E+07        -0.28624E+08         0.00000E+00
    0.00000E+00         0.00000E+00        -0.96143E+07
 
   -0.18152E+08        -0.20028E+07         0.00000E+00
   -0.20028E+07        -0.28782E+08         0.00000E+00
    0.00000E+00         0.00000E+00        -0.93869E+07
 
   -0.16889E+08        -0.18234E+07         0.00000E+00
   -0.18234E+07        -0.28936E+08         0.00000E+00
    0.00000E+00         0.00000E+00        -0.91650E+07
 
   -0.15672E+08        -0.14575E+07         0.00000E+00
   -0.14575E+07        -0.29087E+08         0.00000E+00
    0.00000E+00         0.00000E+00        -0.89517E+07
 
   -0.14506E+08        -0.92066E+06         0.00000E+00
   -0.92066E+06        -0.29241E+08         0.00000E+00
    0.00000E+00         0.00000E+00        -0.87494E+07
 
   -0.13392E+08        -0.22282E+06         0.00000E+00
   -0.22282E+06        -0.29408E+08         0.00000E+00
    0.00000E+00         0.00000E+00        -0.85599E+07
 
   -0.12326E+08         0.63110E+06         0.00000E+00
    0.63110E+06        -0.29596E+08         0.00000E+00
    0.00000E+00         0.00000E+00        -0.83845E+07
 
   -0.11312E+08         0.16406E+07         0.00000E+00
    0.16406E+07        -0.29811E+08         0.00000E+00
    0.00000E+00         0.00000E+00        -0.82246E+07
 
   -0.10355E+08         0.28082E+07         0.00000E+00
    0.28082E+07        -0.30053E+08         0.00000E+00
    0.00000E+00         0.00000E+00        -0.80815E+07
 
   -0.94701E+07         0.41365E+07         0.00000E+00
    0.41365E+07        -0.30316E+08         0.00000E+00
    0.00000E+00         0.00000E+00        -0.79572E+07
 
   -0.86836E+07         0.56255E+07         0.00000E+00
    0.56255E+07        -0.30586E+08         0.00000E+00
    0.00000E+00         0.00000E+00        -0.78539E+07
 
   -0.80295E+07         0.72686E+07         0.00000E+00
    0.72686E+07        -0.30841E+08         0.00000E+00
    0.00000E+00         0.00000E+00        -0.77741E+07
 
   -0.26512E+08        -0.52030E+06         0.00000E+00
   -0.52030E+06        -0.30693E+08         0.00000E+00
    0.00000E+00         0.00000E+00        -0.11441E+08
 
   -0.25091E+08        -0.13352E+07         0.00000E+00
   -0.13352E+07        -0.30781E+08         0.00000E+00
    0.00000E+00         0.00000E+00        -0.11174E+08
 
   -0.23570E+08        -0.18571E+07         0.00000E+00
   -0.18571E+07        -0.30914E+08         0.00000E+00
    0.00000E+00         0.00000E+00        -0.10897E+08
 
   -0.22027E+08        -0.21103E+07         0.00000E+00
   -0.21103E+07        -0.31057E+08         0.00000E+00
    0.00000E+00         0.00000E+00        -0.10617E+08
 
   -0.20513E+08        -0.21270E+07         0.00000E+00
   -0.21270E+07        -0.31192E+08         0.00000E+00
    0.00000E+00         0.00000E+00        -0.10341E+08
 
   -0.19056E+08        -0.19388E+07         0.00000E+00
   -0.19388E+07        -0.31316E+08         0.00000E+00
    0.00000E+00         0.00000E+00        -0.10074E+08
 
   -0.17665E+08        -0.15723E+07         0.00000E+00
   -0.15723E+07        -0.31436E+08         0.00000E+00
    0.00000E+00         0.00000E+00        -0.98201E+07
 
   -0.16339E+08        -0.10464E+07         0.00000E+00
   -0.10464E+07        -0.31562E+08         0.00000E+00
    0.00000E+00         0.00000E+00        -0.95802E+07
 
   -0.15071E+08        -0.37155E+06         0.00000E+00
   -0.37155E+06        -0.31709E+08         0.00000E+00
    0.00000E+00         0.00000E+00        -0.93560E+07
 
   -0.13854E+08         0.44963E+06         0.00000E+00
    0.44963E+06        -0.31889E+08         0.00000E+00
    0.00000E+00         0.00000E+00        -0.91484E+07
 
   -0.12683E+08         0.14212E+07         0.00000E+00
    0.14212E+07        -0.32110E+08         0.00000E+00
    0.00000E+00         0.00000E+00        -0.89586E+07
 
   -0.11563E+08         0.25523E+07         0.00000E+00
    0.25523E+07        -0.32376E+08         0.00000E+00
    0.00000E+00         0.00000E+00        -0.87877E+07
 
   -0.10509E+08         0.38542E+07         0.00000E+00
    0.38542E+07        -0.32679E+08         0.00000E+00
    0.00000E+00         0.00000E+00        -0.86376E+07
 
   -0.95523E+07         0.53360E+07         0.00000E+00
    0.53360E+07        -0.33004E+08         0.00000E+00
    0.00000E+00         0.00000E+00        -0.85112E+07
 
   -0.87357E+07         0.69995E+07         0.00000E+00
    0.69995E+07        -0.33322E+08         0.00000E+00
    0.00000E+00         0.00000E+00        -0.84116E+07
 
   -0.30004E+08        -0.57033E+06         0.00000E+00
   -0.57033E+06        -0.33177E+08         0.00000E+00
    0.00000E+00         0.00000E+00        -0.12636E+08
 
   -0.28257E+08        -0.14419E+07         0.00000E+00
   -0.14419E+07        -0.33262E+08         0.00000E+00
    0.00000E+00         0.00000E+00        -0.12304E+08
 
   -0.26436E+08        -0.19759E+07         0.00000E+00
   -0.19759E+07        -0.33378E+08         0.00000E+00
    0.00000E+00         0.00000E+00        -0.11963E+08
 
   -0.24631E+08        -0.22164E+07         0.00000E+00
   -0.22164E+07        -0.33489E+08         0.00000E+00
    0.00000E+00         0.00000E+00        -0.11624E+08
 
   -0.22895E+08        -0.22134E+07         0.00000E+00
   -0.22134E+07        -0.33578E+08         0.00000E+00
    0.00000E+00         0.00000E+00        -0.11295E+08
 
   -0.21250E+08        -0.20120E+07         0.00000E+00
   -0.20120E+07        -0.33648E+08         0.00000E+00
    0.00000E+00         0.00000E+00        -0.10980E+08
 
   -0.19698E+08        -0.16464E+07         0.00000E+00
   -0.16464E+07        -0.33712E+08         0.00000E+00
    0.00000E+00         0.00000E+00        -0.10682E+08
 
   -0.18226E+08        -0.11384E+07         0.00000E+00
   -0.11384E+07        -0.33789E+08         0.00000E+00
    0.00000E+00         0.00000E+00        -0.10403E+08
 
   -0.16817E+08        -0.49802E+06         0.00000E+00
   -0.49802E+06        -0.33898E+08         0.00000E+00
    0.00000E+00         0.00000E+00        -0.10143E+08
 
   -0.15456E+08         0.27495E+06         0.00000E+00
    0.27495E+06        -0.34054E+08         0.00000E+00
    0.00000E+00         0.00000E+00        -0.99022E+07
 
   -0.14132E+08         0.11900E+07         0.00000E+00
    0.11900E+07        -0.34272E+08         0.00000E+00
    0.00000E+00         0.00000E+00        -0.96809E+07
 
   -0.12843E+08         0.22642E+07         0.00000E+00
    0.22642E+07        -0.34556E+08         0.00000E+00
    0.00000E+00         0.00000E+00        -0.94799E+07
 
   -0.11605E+08         0.35201E+07         0.00000E+00
    0.35201E+07        -0.34902E+08         0.00000E+00
    0.00000E+00         0.00000E+00        -0.93013E+07
 
   -0.10450E+08         0.49797E+07         0.00000E+00
    0.49797E+07        -0.35290E+08         0.00000E+00
    0.00000E+00         0.00000E+00        -0.91481E+07
 
   -0.94349E+07         0.66572E+07         0.00000E+00
    0.66572E+07        -0.35687E+08         0.00000E+00
    0.00000E+00         0.00000E+00        -0.90244E+07
 
   -0.33616E+08        -0.61995E+06         0.00000E+00
   -0.61995E+06        -0.35696E+08         0.00000E+00
    0.00000E+00         0.00000E+00        -0.13862E+08
 
   -0.31482E+08        -0.15361E+07         0.00000E+00
   -0.15361E+07        -0.35770E+08         0.00000E+00
    0.00000E+00         0.00000E+00        -0.13450E+08
 
   -0.29323E+08        -0.20620E+07         0.00000E+00
   -0.20620E+07        -0.35854E+08         0.00000E+00
    0.00000E+00         0.00000E+00        -0.13035E+08
 
   -0.27242E+08        -0.22703E+07         0.00000E+00
   -0.22703E+07        -0.35907E+08         0.00000E+00
    0.00000E+00         0.00000E+00        -0.12630E+08
 
   -0.25288E+08        -0.22354E+07         0.00000E+00
   -0.22354E+07        -0.35920E+08         0.00000E+00
    0.00000E+00         0.00000E+00        -0.12242E+08
 
   -0.23471E+08        -0.20175E+07         0.00000E+00
   -0.20175E+07        -0.35907E+08         0.00000E+00
    0.00000E+00         0.00000E+00        -0.11876E+08
 
   -0.21776E+08        -0.16570E+07         0.00000E+00
   -0.16570E+07        -0.35890E+08         0.00000E+00
    0.00000E+00         0.00000E+00        -0.11533E+08
 
   -0.20177E+08        -0.11770E+07         0.00000E+00
   -0.11770E+07        -0.35896E+08         0.00000E+00
    0.00000E+00         0.00000E+00        -0.11215E+08
 
   -0.18645E+08        -0.58598E+06         0.00000E+00
   -0.58598E+06        -0.35947E+08         0.00000E+00
    0.00000E+00         0.00000E+00        -0.10918E+08
 
   -0.17154E+08         0.11966E+06         0.00000E+00
    0.11966E+06        -0.36066E+08         0.00000E+00
    0.00000E+00         0.00000E+00        -0.10644E+08
 
   -0.15682E+08         0.95479E+06         0.00000E+00
    0.95479E+06        -0.36268E+08         0.00000E+00
    0.00000E+00         0.00000E+00        -0.10390E+08
 
   -0.14220E+08         0.19455E+07         0.00000E+00
    0.19455E+07        -0.36565E+08         0.00000E+00
    0.00000E+00         0.00000E+00        -0.10157E+08
 
   -0.12778E+08         0.31278E+07         0.00000E+00
    0.31278E+07        -0.36955E+08         0.00000E+00
    0.00000E+00         0.00000E+00        -0.99467E+07
 
   -0.11391E+08         0.45420E+07         0.00000E+00
    0.45420E+07        -0.37419E+08         0.00000E+00
    0.00000E+00         0.00000E+00        -0.97620E+07
 
   -0.10129E+08         0.62212E+07         0.00000E+00
    0.62212E+07        -0.37914E+08         0.00000E+00
    0.00000E+00         0.00000E+00        -0.96087E+07
 
   -0.37335E+08        -0.66661E+06         0.00000E+00
   -0.66661E+06        -0.38248E+08         0.00000E+00
    0.00000E+00         0.00000E+00        -0.15116E+08
 
   -0.34740E+08        -0.16039E+07         0.00000E+00
   -0.16039E+07        -0.38301E+08         0.00000E+00
    0.00000E+00         0.00000E+00        -0.14608E+08
 
   -0.32204E+08        -0.20887E+07         0.00000E+00
   -0.20887E+07        -0.38325E+08         0.00000E+00
    0.00000E+00         0.00000E+00        -0.14106E+08
 
   -0.29842E+08        -0.22392E+07         0.00000E+00
   -0.22392E+07        -0.38284E+08         0.00000E+00
    0.00000E+00         0.00000E+00        -0.13625E+08
 
   -0.27686E+08        -0.21609E+07         0.00000E+00
   -0.21609E+07        -0.38184E+08         0.00000E+00
    0.00000E+00         0.00000E+00        -0.13174E+08
 
   -0.25720E+08        -0.19274E+07         0.00000E+00
   -0.19274E+07        -0.38056E+08         0.00000E+00
    0.00000E+00         0.00000E+00        -0.12755E+08
 
   -0.23908E+08        -0.15814E+07         0.00000E+00
   -0.15814E+07        -0.37934E+08         0.00000E+00
    0.00000E+00         0.00000E+00        -0.12368E+08
 
   -0.22205E+08        -0.11437E+07         0.00000E+00
   -0.11437E+07        -0.37848E+08         0.00000E+00
    0.00000E+00         0.00000E+00        -0.12011E+08
 
   -0.20571E+08        -0.61999E+06         0.00000E+00
   -0.61999E+06        -0.37827E+08         0.00000E+00
    0.00000E+00         0.00000E+00        -0.11680E+08
 
   -0.18967E+08        -0.34086E+04         0.00000E+00
   -0.34086E+04        -0.37894E+08         0.00000E+00
    0.00000E+00         0.00000E+00        -0.11372E+08
 
   -0.17359E+08         0.72503E+06         0.00000E+00
    0.72503E+06        -0.38069E+08         0.00000E+00
    0.00000E+00         0.00000E+00        -0.11086E+08
 
   -0.15724E+08         0.15992E+07         0.00000E+00
    0.15992E+07        -0.38371E+08         0.00000E+00
    0.00000E+00         0.00000E+00        -0.10819E+08
 
   -0.14059E+08         0.26703E+07         0.00000E+00
    0.26703E+07        -0.38806E+08         0.00000E+00
    0.00000E+00         0.00000E+00        -0.10573E+08
 
   -0.12398E+08         0.40038E+07         0.00000E+00
    0.40038E+07        -0.39359E+08         0.00000E+00
    0.00000E+00         0.00000E+00        -0.10351E+08
 
   -0.10825E+08         0.56637E+07         0.00000E+00
    0.56637E+07        -0.39980E+08         0.00000E+00
    0.00000E+00         0.00000E+00        -0.10161E+08
 
   -0.41139E+08        -0.70643E+06         0.00000E+00
   -0.70643E+06        -0.40826E+08         0.00000E+00
    0.00000E+00         0.00000E+00        -0.16393E+08
 
   -0.37987E+08        -0.16209E+07         0.00000E+00
   -0.16209E+07        -0.40838E+08         0.00000E+00
    0.00000E+00         0.00000E+00        -0.15765E+08
 
   -0.35040E+08        -0.20147E+07         0.00000E+00
   -0.20147E+07        -0.40760E+08         0.00000E+00
    0.00000E+00         0.00000E+00        -0.15160E+08
 
   -0.32408E+08        -0.20792E+07         0.00000E+00
   -0.20792E+07        -0.40572E+08         0.00000E+00
    0.00000E+00         0.00000E+00        -0.14596E+08
 
   -0.30083E+08        -0.19539E+07         0.00000E+00
   -0.19539E+07        -0.40316E+08         0.00000E+00
    0.00000E+00         0.00000E+00        -0.14080E+08
 
   -0.28003E+08        -0.17158E+07         0.00000E+00
   -0.17158E+07        -0.40044E+08         0.00000E+00
    0.00000E+00         0.00000E+00        -0.13610E+08
 
   -0.26104E+08        -0.14012E+07         0.00000E+00
   -0.14012E+07        -0.39798E+08         0.00000E+00
    0.00000E+00         0.00000E+00        -0.13181E+08
 
   -0.24325E+08        -0.10248E+07         0.00000E+00
   -0.10248E+07        -0.39610E+08         0.00000E+00
    0.00000E+00         0.00000E+00        -0.12787E+08
 
   -0.22613E+08        -0.58827E+06         0.00000E+00
   -0.58827E+06        -0.39507E+08         0.00000E+00
    0.00000E+00         0.00000E+00        -0.12424E+08
 
   -0.20916E+08        -0.82808E+05         0.00000E+00
   -0.82808E+05        -0.39512E+08         0.00000E+00
    0.00000E+00         0.00000E+00        -0.12086E+08
 
   -0.19190E+08         0.51171E+06         0.00000E+00
    0.51171E+06        -0.39650E+08         0.00000E+00
    0.00000E+00         0.00000E+00        -0.11768E+08
 
   -0.17391E+08         0.12321E+07         0.00000E+00
    0.12321E+07        -0.39945E+08         0.00000E+00
    0.00000E+00         0.00000E+00        -0.11467E+08
 
   -0.15492E+08         0.21426E+07         0.00000E+00
    0.21426E+07        -0.40420E+08         0.00000E+00
    0.00000E+00         0.00000E+00        -0.11182E+08
 
   -0.13508E+08         0.33416E+07         0.00000E+00
    0.33416E+07        -0.41075E+08         0.00000E+00
    0.00000E+00         0.00000E+00        -0.10916E+08
 
   -0.11534E+08         0.49450E+07         0.00000E+00
    0.49450E+07        -0.41858E+08         0.00000E+00
    0.00000E+00         0.00000E+00        -0.10678E+08
 
   -0.44984E+08        -0.73078E+06         0.00000E+00
   -0.73078E+06        -0.43422E+08         0.00000E+00
    0.00000E+00         0.00000E+00        -0.17681E+08
 
   -0.41149E+08        -0.15378E+07         0.00000E+00
   -0.15378E+07        -0.43351E+08         0.00000E+00
    0.00000E+00         0.00000E+00        -0.16900E+08
 
   -0.37783E+08        -0.17725E+07         0.00000E+00
   -0.17725E+07        -0.43088E+08         0.00000E+00
    0.00000E+00         0.00000E+00        -0.16174E+08
 
   -0.34933E+08        -0.17376E+07         0.00000E+00
   -0.17376E+07        -0.42684E+08         0.00000E+00
    0.00000E+00         0.00000E+00        -0.15523E+08
 
   -0.32490E+08        -0.15836E+07         0.00000E+00
   -0.15836E+07        -0.42236E+08         0.00000E+00
    0.00000E+00         0.00000E+00        -0.14945E+08
 
   -0.30337E+08        -0.13668E+07         0.00000E+00
   -0.13668E+07        -0.41806E+08         0.00000E+00
    0.00000E+00         0.00000E+00        -0.14429E+08
 
   -0.28383E+08        -0.11088E+07         0.00000E+00
   -0.11088E+07        -0.41433E+08         0.00000E+00
    0.00000E+00         0.00000E+00        -0.13963E+08
 
   -0.26554E+08        -0.81597E+06         0.00000E+00
   -0.81597E+06        -0.41143E+08         0.00000E+00
    0.00000E+00         0.00000E+00        -0.13539E+08
 
   -0.24786E+08        -0.48645E+06         0.00000E+00
   -0.48645E+06        -0.40958E+08         0.00000E+00
    0.00000E+00         0.00000E+00        -0.13149E+08
 
   -0.23022E+08        -0.11150E+06         0.00000E+00
   -0.11150E+06        -0.40901E+08         0.00000E+00
    0.00000E+00         0.00000E+00        -0.12784E+08
 
   -0.21202E+08         0.32624E+06         0.00000E+00
    0.32624E+06        -0.40993E+08         0.00000E+00
    0.00000E+00         0.00000E+00        -0.12439E+08
 
   -0.19263E+08         0.85900E+06         0.00000E+00
    0.85900E+06        -0.41267E+08         0.00000E+00
    0.00000E+00         0.00000E+00        -0.12106E+08
 
   -0.17136E+08         0.15493E+07         0.00000E+00
    0.15493E+07        -0.41763E+08         0.00000E+00
    0.00000E+00         0.00000E+00        -0.11780E+08
 
   -0.14782E+08         0.25294E+07         0.00000E+00
    0.25294E+07        -0.42525E+08         0.00000E+00
    0.00000E+00         0.00000E+00        -0.11461E+08
 
   -0.12281E+08         0.40065E+07         0.00000E+00
    0.40065E+07        -0.43519E+08         0.00000E+00
    0.00000E+00         0.00000E+00        -0.11160E+08
 
   -0.48775E+08        -0.70951E+06         0.00000E+00
   -0.70951E+06        -0.46013E+08         0.00000E+00
    0.00000E+00         0.00000E+00        -0.18958E+08
 
   -0.44114E+08        -0.12370E+07         0.00000E+00
   -0.12370E+07        -0.45725E+08         0.00000E+00
    0.00000E+00         0.00000E+00        -0.17968E+08
 
   -0.40410E+08        -0.12674E+07         0.00000E+00
   -0.12674E+07        -0.45138E+08         0.00000E+00
    0.00000E+00         0.00000E+00        -0.17110E+08
 
   -0.37438E+08        -0.11762E+07         0.00000E+00
   -0.11762E+07        -0.44475E+08         0.00000E+00
    0.00000E+00         0.00000E+00        -0.16383E+08
 
   -0.34936E+08        -0.10418E+07         0.00000E+00
   -0.10418E+07        -0.43836E+08         0.00000E+00
    0.00000E+00         0.00000E+00        -0.15754E+08
 
   -0.32747E+08        -0.88551E+06         0.00000E+00
   -0.88551E+06        -0.43263E+08         0.00000E+00
    0.00000E+00         0.00000E+00        -0.15202E+08
 
   -0.30764E+08        -0.71372E+06         0.00000E+00
   -0.71372E+06        -0.42782E+08         0.00000E+00
    0.00000E+00         0.00000E+00        -0.14709E+08
 
   -0.28906E+08        -0.52667E+06         0.00000E+00
   -0.52667E+06        -0.42409E+08         0.00000E+00
    0.00000E+00         0.00000E+00        -0.14263E+08
 
   -0.27104E+08        -0.32123E+06         0.00000E+00
   -0.32123E+06        -0.42158E+08         0.00000E+00
    0.00000E+00         0.00000E+00        -0.13852E+08
 
   -0.25295E+08        -0.90971E+05         0.00000E+00
   -0.90971E+05        -0.42048E+08         0.00000E+00
    0.00000E+00         0.00000E+00        -0.13468E+08
 
   -0.23411E+08         0.17550E+06         0.00000E+00
    0.17550E+06        -0.42098E+08         0.00000E+00
    0.00000E+00         0.00000E+00        -0.13102E+08
 
   -0.21372E+08         0.49919E+06         0.00000E+00
    0.49919E+06        -0.42342E+08         0.00000E+00
    0.00000E+00         0.00000E+00        -0.12743E+08
 
   -0.19069E+08         0.92296E+06         0.00000E+00
    0.92296E+06        -0.42830E+08         0.00000E+00
    0.00000E+00         0.00000E+00        -0.12380E+08
 
   -0.16334E+08         0.15548E+07         0.00000E+00
    0.15548E+07        -0.43649E+08         0.00000E+00
    0.00000E+00         0.00000E+00        -0.11997E+08
 
   -0.13127E+08         0.27503E+07         0.00000E+00
    0.27503E+07        -0.44923E+08         0.00000E+00
    0.00000E+00         0.00000E+00        -0.11610E+08
 
   -0.52256E+08        -0.44540E+06         0.00000E+00
   -0.44540E+06        -0.48356E+08         0.00000E+00
    0.00000E+00         0.00000E+00        -0.20122E+08
 
   -0.46801E+08        -0.51074E+06         0.00000E+00
   -0.51074E+06        -0.47539E+08         0.00000E+00
    0.00000E+00         0.00000E+00        -0.18868E+08
 
   -0.42994E+08        -0.46818E+06         0.00000E+00
   -0.46818E+06        -0.46625E+08         0.00000E+00
    0.00000E+00         0.00000E+00        -0.17924E+08
 
   -0.39984E+08        -0.41889E+06         0.00000E+00
   -0.41889E+06        -0.45767E+08         0.00000E+00
    0.00000E+00         0.00000E+00        -0.17150E+08
 
   -0.37463E+08        -0.36442E+06         0.00000E+00
   -0.36442E+06        -0.45003E+08         0.00000E+00
    0.00000E+00         0.00000E+00        -0.16493E+08
 
   -0.35261E+08        -0.30691E+06         0.00000E+00
   -0.30691E+06        -0.44344E+08         0.00000E+00
    0.00000E+00         0.00000E+00        -0.15921E+08
 
   -0.33265E+08        -0.24633E+06         0.00000E+00
   -0.24633E+06        -0.43800E+08         0.00000E+00
    0.00000E+00         0.00000E+00        -0.15413E+08
 
   -0.31392E+08        -0.18187E+06         0.00000E+00
   -0.18187E+06        -0.43379E+08         0.00000E+00
    0.00000E+00         0.00000E+00        -0.14954E+08
 
   -0.29573E+08        -0.11204E+06         0.00000E+00
   -0.11204E+06        -0.43091E+08         0.00000E+00
    0.00000E+00         0.00000E+00        -0.14533E+08
 
   -0.27741E+08        -0.34478E+05         0.00000E+00
   -0.34478E+05        -0.42949E+08         0.00000E+00
    0.00000E+00         0.00000E+00        -0.14138E+08
 
   -0.25824E+08         0.54731E+05         0.00000E+00
    0.54731E+05        -0.42973E+08         0.00000E+00
    0.00000E+00         0.00000E+00        -0.13759E+08
 
   -0.23733E+08         0.16258E+06         0.00000E+00
    0.16258E+06        -0.43193E+08         0.00000E+00
    0.00000E+00         0.00000E+00        -0.13385E+08
 
   -0.21334E+08         0.30415E+06         0.00000E+00
    0.30415E+06        -0.43661E+08         0.00000E+00
    0.00000E+00         0.00000E+00        -0.12999E+08
 
   -0.18391E+08         0.51357E+06         0.00000E+00
    0.51357E+06        -0.44480E+08         0.00000E+00
    0.00000E+00         0.00000E+00        -0.12574E+08
 
   -0.14231E+08         0.10135E+07         0.00000E+00
    0.10135E+07        -0.45932E+08         0.00000E+00
    0.00000E+00         0.00000E+00        -0.12033E+08
 
TENSORS stresstot double 
   -0.38737E+08        -0.11570E+06         0.00000E+00
   -0.11570E+06        -0.59715E+08         0.00000E+00
    0.00000E+00         0.00000E+00        -0.66318E+08
 
   -0.41282E+08        -0.47326E+06         0.00000E+00
   -0.47326E+06        -0.60525E+08         0.00000E+00
    0.00000E+00         0.00000E+00        -0.70009E+08
 
   -0.45785E+08        -0.65220E+06         0.00000E+00
   -0.65220E+06        -0.61596E+08         0.00000E+00
    0.00000E+00         0.00000E+00        -0.71637E+08
 
   -0.49164E+08        -0.53747E+06         0.00000E+00
   -0.53747E+06        -0.62687E+08         0.00000E+00
    0.00000E+00         0.00000E+00        -0.72531E+08
 
   -0.51821E+08        -0.44346E+06         0.00000E+00
   -0.44346E+06        -0.63626E+08         0.00000E+00
    0.00000E+00         0.00000E+00        -0.73251E+08
 
   -0.54089E+08        -0.36317E+06         0.00000E+00
   -0.36317E+06        -0.64412E+08         0.00000E+00
    0.00000E+00         0.00000E+00        -0.73863E+08
 
   -0.56122E+08        -0.28846E+06         0.00000E+00
   -0.28846E+06        -0.65051E+08         0.00000E+00
    0.00000E+00         0.00000E+00        -0.74398E+08
 
   -0.58019E+08        -0.21429E+06         0.00000E+00
   -0.21429E+06        -0.65546E+08         0.00000E+00
    0.00000E+00         0.00000E+00        -0.74877E+08
 
   -0.59859E+08        -0.13711E+06         0.00000E+00
   -0.13711E+06        -0.65892E+08         0.00000E+00
    0.00000E+00         0.00000E+00        -0.75315E+08
 
   -0.61712E+08        -0.53353E+05         0.00000E+00
   -0.53353E+05        -0.66078E+08         0.00000E+00
    0.00000E+00         0.00000E+00        -0.75724E+08
 
   -0.63655E+08         0.41711E+05         0.00000E+00
    0.41711E+05        -0.66087E+08         0.00000E+00
    0.00000E+00         0.00000E+00        -0.76115E+08
 
   -0.65784E+08         0.15588E+06         0.00000E+00
    0.15588E+06        -0.65887E+08         0.00000E+00
    0.00000E+00         0.00000E+00        -0.76502E+08
 
   -0.68241E+08         0.30548E+06         0.00000E+00
    0.30548E+06        -0.65425E+08         0.00000E+00
    0.00000E+00         0.00000E+00        -0.76901E+08
 
   -0.71277E+08         0.52709E+06         0.00000E+00
    0.52709E+06        -0.64592E+08         0.00000E+00
    0.00000E+00         0.00000E+00        -0.77342E+08
 
   -0.75609E+08         0.10583E+07         0.00000E+00
    0.10583E+07        -0.63087E+08         0.00000E+00
    0.00000E+00         0.00000E+00        -0.77907E+08
 
   -0.38919E+08        -0.22471E+06         0.00000E+00
   -0.22471E+06        -0.60485E+08         0.00000E+00
    0.00000E+00         0.00000E+00        -0.67970E+08
 
   -0.42183E+08        -0.10587E+07         0.00000E+00
   -0.10587E+07        -0.60447E+08         0.00000E+00
    0.00000E+00         0.00000E+00        -0.69011E+08
 
   -0.45760E+08        -0.15076E+07         0.00000E+00
   -0.15076E+07        -0.60845E+08         0.00000E+00
    0.00000E+00         0.00000E+00        -0.69807E+08
 
   -0.49022E+08        -0.14206E+07         0.00000E+00
   -0.14206E+07        -0.61485E+08         0.00000E+00
    0.00000E+00         0.00000E+00        -0.70589E+08
 
   -0.51677E+08        -0.12319E+07         0.00000E+00
   -0.12319E+07        -0.62182E+08         0.00000E+00
    0.00000E+00         0.00000E+00        -0.71261E+08
 
   -0.53949E+08        -0.10318E+07         0.00000E+00
   -0.10318E+07        -0.62827E+08         0.00000E+00
    0.00000E+00         0.00000E+00        -0.71847E+08
 
   -0.55981E+08        -0.82791E+06         0.00000E+00
   -0.82791E+06        -0.63377E+08         0.00000E+00
    0.00000E+00         0.00000E+00        -0.72366E+08
 
   -0.57873E+08        -0.61663E+06         0.00000E+00
   -0.61663E+06        -0.63810E+08         0.00000E+00
    0.00000E+00         0.00000E+00        -0.72834E+08
 
   -0.59701E+08        -0.39165E+06         0.00000E+00
   -0.39165E+06        -0.64112E+08         0.00000E+00
    0.00000E+00         0.00000E+00        -0.73262E+08
 
   -0.61536E+08        -0.14422E+06         0.00000E+00
   -0.14422E+06        -0.64263E+08         0.00000E+00
    0.00000E+00         0.00000E+00        -0.73662E+08
 
   -0.63449E+08         0.13900E+06         0.00000E+00
    0.13900E+06        -0.64243E+08         0.00000E+00
    0.00000E+00         0.00000E+00        -0.74042E+08
 
   -0.65527E+08         0.48117E+06         0.00000E+00
    0.48117E+06        -0.64019E+08         0.00000E+00
    0.00000E+00         0.00000E+00        -0.74415E+08
 
   -0.67884E+08         0.92856E+06         0.00000E+00
    0.92856E+06        -0.63536E+08         0.00000E+00
    0.00000E+00         0.00000E+00        -0.74791E+08
 
   -0.70700E+08         0.15968E+07         0.00000E+00
    0.15968E+07        -0.62703E+08         0.00000E+00
    0.00000E+00         0.00000E+00        -0.75188E+08
 
   -0.74017E+08         0.28656E+07         0.00000E+00
    0.28656E+07        -0.61388E+08         0.00000E+00
    0.00000E+00         0.00000E+00        -0.75589E+08
 
   -0.39711E+08        -0.48629E+06         0.00000E+00
   -0.48629E+06        -0.60069E+08         0.00000E+00
    0.00000E+00         0.00000E+00        -0.66775E+08
 
   -0.42889E+08        -0.13262E+07         0.00000E+00
   -0.13262E+07        -0.60303E+08         0.00000E+00
    0.00000E+00         0.00000E+00        -0.67458E+08
 
   -0.45994E+08        -0.18369E+07         0.00000E+00
   -0.18369E+07        -0.60526E+08         0.00000E+00
    0.00000E+00         0.00000E+00        -0.68126E+08
 
   -0.48908E+08        -0.19410E+07         0.00000E+00
   -0.19410E+07        -0.60822E+08         0.00000E+00
    0.00000E+00         0.00000E+00        -0.68770E+08
 
   -0.51473E+08        -0.17962E+07         0.00000E+00
   -0.17962E+07        -0.61236E+08         0.00000E+00
    0.00000E+00         0.00000E+00        -0.69370E+08
 
   -0.53712E+08        -0.15544E+07         0.00000E+00
   -0.15544E+07        -0.61679E+08         0.00000E+00
    0.00000E+00         0.00000E+00        -0.69910E+08
 
   -0.55724E+08        -0.12666E+07         0.00000E+00
   -0.12666E+07        -0.62085E+08         0.00000E+00
    0.00000E+00         0.00000E+00        -0.70398E+08
 
   -0.57595E+08        -0.94569E+06         0.00000E+00
   -0.94569E+06        -0.62413E+08         0.00000E+00
    0.00000E+00         0.00000E+00        -0.70842E+08
 
   -0.59395E+08        -0.59043E+06         0.00000E+00
   -0.59043E+06        -0.62635E+08         0.00000E+00
    0.00000E+00         0.00000E+00        -0.71251E+08
 
   -0.61190E+08        -0.19087E+06         0.00000E+00
   -0.19087E+06        -0.62726E+08         0.00000E+00
    0.00000E+00         0.00000E+00        -0.71632E+08
 
   -0.63041E+08         0.27227E+06         0.00000E+00
    0.27227E+06        -0.62658E+08         0.00000E+00
    0.00000E+00         0.00000E+00        -0.71992E+08
 
   -0.65017E+08         0.83400E+06         0.00000E+00
    0.83400E+06        -0.62400E+08         0.00000E+00
    0.00000E+00         0.00000E+00        -0.72339E+08
 
   -0.67191E+08         0.15616E+07         0.00000E+00
    0.15616E+07        -0.61909E+08         0.00000E+00
    0.00000E+00         0.00000E+00        -0.72677E+08
 
   -0.69604E+08         0.25965E+07         0.00000E+00
    0.25965E+07        -0.61137E+08         0.00000E+00
    0.00000E+00         0.00000E+00        -0.73007E+08
 
   -0.72168E+08         0.41608E+07         0.00000E+00
    0.41608E+07        -0.60121E+08         0.00000E+00
    0.00000E+00         0.00000E+00        -0.73317E+08
 
   -0.40734E+08        -0.60255E+06         0.00000E+00
   -0.60255E+06        -0.60032E+08         0.00000E+00
    0.00000E+00         0.00000E+00        -0.65323E+08
 
   -0.43583E+08        -0.14914E+07         0.00000E+00
   -0.14914E+07        -0.60116E+08         0.00000E+00
    0.00000E+00         0.00000E+00        -0.65911E+08
 
   -0.46321E+08        -0.20143E+07         0.00000E+00
   -0.20143E+07        -0.60232E+08         0.00000E+00
    0.00000E+00         0.00000E+00        -0.66486E+08
 
   -0.48912E+08        -0.22041E+07         0.00000E+00
   -0.22041E+07        -0.60386E+08         0.00000E+00
    0.00000E+00         0.00000E+00        -0.67039E+08
 
   -0.51288E+08        -0.21348E+07         0.00000E+00
   -0.21348E+07        -0.60600E+08         0.00000E+00
    0.00000E+00         0.00000E+00        -0.67562E+08
 
   -0.53433E+08        -0.19026E+07         0.00000E+00
   -0.19026E+07        -0.60858E+08         0.00000E+00
    0.00000E+00         0.00000E+00        -0.68048E+08
 
   -0.55387E+08        -0.15729E+07         0.00000E+00
   -0.15729E+07        -0.61112E+08         0.00000E+00
    0.00000E+00         0.00000E+00        -0.68495E+08
 
   -0.57210E+08        -0.11736E+07         0.00000E+00
   -0.11736E+07        -0.61319E+08         0.00000E+00
    0.00000E+00         0.00000E+00        -0.68907E+08
 
   -0.58959E+08        -0.71120E+06         0.00000E+00
   -0.71120E+06        -0.61446E+08         0.00000E+00
    0.00000E+00         0.00000E+00        -0.69288E+08
 
   -0.60687E+08        -0.17782E+06         0.00000E+00
   -0.17782E+06        -0.61465E+08         0.00000E+00
    0.00000E+00         0.00000E+00        -0.69642E+08
 
   -0.62445E+08         0.44767E+06         0.00000E+00
    0.44767E+06        -0.61346E+08         0.00000E+00
    0.00000E+00         0.00000E+00        -0.69975E+08
 
   -0.64277E+08         0.12046E+07         0.00000E+00
    0.12046E+07        -0.61064E+08         0.00000E+00
    0.00000E+00         0.00000E+00        -0.70289E+08
 
   -0.66212E+08         0.21618E+07         0.00000E+00
    0.21618E+07        -0.60594E+08         0.00000E+00
    0.00000E+00         0.00000E+00        -0.70585E+08
 
   -0.68233E+08         0.34245E+07         0.00000E+00
    0.34245E+07        -0.59935E+08         0.00000E+00
    0.00000E+00         0.00000E+00        -0.70860E+08
 
   -0.70237E+08         0.51172E+07         0.00000E+00
    0.51172E+07        -0.59143E+08         0.00000E+00
    0.00000E+00         0.00000E+00        -0.71103E+08
 
   -0.41856E+08        -0.62855E+06         0.00000E+00
   -0.62855E+06        -0.59999E+08         0.00000E+00
    0.00000E+00         0.00000E+00        -0.63915E+08
 
   -0.44294E+08        -0.15465E+07         0.00000E+00
   -0.15465E+07        -0.60005E+08         0.00000E+00
    0.00000E+00         0.00000E+00        -0.64406E+08
 
   -0.46687E+08        -0.20913E+07         0.00000E+00
   -0.20913E+07        -0.60026E+08         0.00000E+00
    0.00000E+00         0.00000E+00        -0.64894E+08
 
   -0.48987E+08        -0.23238E+07         0.00000E+00
   -0.23238E+07        -0.60074E+08         0.00000E+00
    0.00000E+00         0.00000E+00        -0.65369E+08
 
   -0.51147E+08        -0.23033E+07         0.00000E+00
   -0.23033E+07        -0.60158E+08         0.00000E+00
    0.00000E+00         0.00000E+00        -0.65824E+08
 
   -0.53148E+08        -0.20934E+07         0.00000E+00
   -0.20934E+07        -0.60273E+08         0.00000E+00
    0.00000E+00         0.00000E+00        -0.66254E+08
 
   -0.55002E+08        -0.17467E+07         0.00000E+00
   -0.17467E+07        -0.60393E+08         0.00000E+00
    0.00000E+00         0.00000E+00        -0.66656E+08
 
   -0.56744E+08        -0.12946E+07         0.00000E+00
   -0.12946E+07        -0.60486E+08         0.00000E+00
    0.00000E+00         0.00000E+00        -0.67030E+08
 
   -0.58413E+08        -0.74847E+06         0.00000E+00
   -0.74847E+06        -0.60521E+08         0.00000E+00
    0.00000E+00         0.00000E+00        -0.67377E+08
 
   -0.60049E+08        -0.10399E+06         0.00000E+00
   -0.10399E+06        -0.60471E+08         0.00000E+00
    0.00000E+00         0.00000E+00        -0.67700E+08
 
   -0.61685E+08         0.65782E+06         0.00000E+00
    0.65782E+06        -0.60309E+08         0.00000E+00
    0.00000E+00         0.00000E+00        -0.68001E+08
 
   -0.63347E+08         0.15726E+07         0.00000E+00
    0.15726E+07        -0.60018E+08         0.00000E+00
    0.00000E+00         0.00000E+00        -0.68280E+08
 
   -0.65037E+08         0.26947E+07         0.00000E+00
    0.26947E+07        -0.59589E+08         0.00000E+00
    0.00000E+00         0.00000E+00        -0.68536E+08
 
   -0.66717E+08         0.40943E+07         0.00000E+00
    0.40943E+07        -0.59039E+08         0.00000E+00
    0.00000E+00         0.00000E+00        -0.68765E+08
 
   -0.68296E+08         0.58398E+07         0.00000E+00
    0.58398E+07        -0.58420E+08         0.00000E+00
    0.00000E+00         0.00000E+00        -0.68958E+08
 
   -0.42987E+08        -0.61047E+06         0.00000E+00
   -0.61047E+06        -0.59986E+08         0.00000E+00
    0.00000E+00         0.00000E+00        -0.62540E+08
 
   -0.45019E+08        -0.15241E+07         0.00000E+00
   -0.15241E+07        -0.59945E+08         0.00000E+00
    0.00000E+00         0.00000E+00        -0.62942E+08
 
   -0.47079E+08        -0.20822E+07         0.00000E+00
   -0.20822E+07        -0.59897E+08         0.00000E+00
    0.00000E+00         0.00000E+00        -0.63350E+08
 
   -0.49100E+08        -0.23414E+07         0.00000E+00
   -0.23414E+07        -0.59864E+08         0.00000E+00
    0.00000E+00         0.00000E+00        -0.63754E+08
 
   -0.51037E+08        -0.23516E+07         0.00000E+00
   -0.23516E+07        -0.59853E+08         0.00000E+00
    0.00000E+00         0.00000E+00        -0.64146E+08
 
   -0.52867E+08        -0.21600E+07         0.00000E+00
   -0.21600E+07        -0.59862E+08         0.00000E+00
    0.00000E+00         0.00000E+00        -0.64522E+08
 
   -0.54590E+08        -0.18066E+07         0.00000E+00
   -0.18066E+07        -0.59877E+08         0.00000E+00
    0.00000E+00         0.00000E+00        -0.64877E+08
 
   -0.56219E+08        -0.13191E+07         0.00000E+00
   -0.13191E+07        -0.59876E+08         0.00000E+00
    0.00000E+00         0.00000E+00        -0.65210E+08
 
   -0.57781E+08        -0.71010E+06         0.00000E+00
   -0.71010E+06        -0.59833E+08         0.00000E+00
    0.00000E+00         0.00000E+00        -0.65521E+08
 
   -0.59299E+08         0.21430E+05         0.00000E+00
    0.21430E+05        -0.59725E+08         0.00000E+00
    0.00000E+00         0.00000E+00        -0.65810E+08
 
   -0.60795E+08         0.88978E+06         0.00000E+00
    0.88978E+06        -0.59533E+08         0.00000E+00
    0.00000E+00         0.00000E+00        -0.66077E+08
 
   -0.62277E+08         0.19219E+07         0.00000E+00
    0.19219E+07        -0.59246E+08         0.00000E+00
    0.00000E+00         0.00000E+00        -0.66321E+08
 
   -0.63734E+08         0.31555E+07         0.00000E+00
    0.31555E+07        -0.58864E+08         0.00000E+00
    0.00000E+00         0.00000E+00        -0.66541E+08
 
   -0.65125E+08         0.46336E+07         0.00000E+00
    0.46336E+07        -0.58407E+08         0.00000E+00
    0.00000E+00         0.00000E+00        -0.66731E+08
 
   -0.66376E+08         0.63914E+07         0.00000E+00
    0.63914E+07        -0.57922E+08         0.00000E+00
    0.00000E+00         0.00000E+00        -0.66886E+08
 
   -0.44075E+08        -0.57308E+06         0.00000E+00
   -0.57308E+06        -0.59980E+08         0.00000E+00
    0.00000E+00         0.00000E+00        -0.61189E+08
 
   -0.45740E+08        -0.14533E+07         0.00000E+00
   -0.14533E+07        -0.59915E+08         0.00000E+00
    0.00000E+00         0.00000E+00        -0.61513E+08
 
   -0.47486E+08        -0.20099E+07         0.00000E+00
   -0.20099E+07        -0.59823E+08         0.00000E+00
    0.00000E+00         0.00000E+00        -0.61850E+08
 
   -0.49238E+08        -0.22836E+07         0.00000E+00
   -0.22836E+07        -0.59732E+08         0.00000E+00
    0.00000E+00         0.00000E+00        -0.62189E+08
 
   -0.50950E+08        -0.23131E+07         0.00000E+00
   -0.23131E+07        -0.59653E+08         0.00000E+00
    0.00000E+00         0.00000E+00        -0.62523E+08
 
   -0.52594E+08        -0.21343E+07         0.00000E+00
   -0.21343E+07        -0.59587E+08         0.00000E+00
    0.00000E+00         0.00000E+00        -0.62847E+08
 
   -0.54160E+08        -0.17779E+07         0.00000E+00
   -0.17779E+07        -0.59525E+08         0.00000E+00
    0.00000E+00         0.00000E+00        -0.63156E+08
 
   -0.55652E+08        -0.12663E+07         0.00000E+00
   -0.12663E+07        -0.59452E+08         0.00000E+00
    0.00000E+00         0.00000E+00        -0.63448E+08
 
   -0.57083E+08        -0.61177E+06         0.00000E+00
   -0.61177E+06        -0.59350E+08         0.00000E+00
    0.00000E+00         0.00000E+00        -0.63721E+08
 
   -0.58465E+08         0.18433E+06         0.00000E+00
    0.18433E+06        -0.59202E+08         0.00000E+00
    0.00000E+00         0.00000E+00        -0.63975E+08
 
   -0.59807E+08         0.11306E+07         0.00000E+00
    0.11306E+07        -0.58994E+08         0.00000E+00
    0.00000E+00         0.00000E+00        -0.64208E+08
 
   -0.61109E+08         0.22446E+07         0.00000E+00
    0.22446E+07        -0.58719E+08         0.00000E+00
    0.00000E+00         0.00000E+00        -0.64419E+08
 
   -0.62353E+08         0.35493E+07         0.00000E+00
    0.35493E+07        -0.58383E+08         0.00000E+00
    0.00000E+00         0.00000E+00        -0.64605E+08
 
   -0.63501E+08         0.50678E+07         0.00000E+00
    0.50678E+07        -0.58006E+08         0.00000E+00
    0.00000E+00         0.00000E+00        -0.64763E+08
 
   -0.64492E+08         0.68149E+07         0.00000E+00
    0.68149E+07        -0.57624E+08         0.00000E+00
    0.00000E+00         0.00000E+00        -0.64887E+08
 
   -0.45094E+08        -0.52755E+06         0.00000E+00
   -0.52755E+06        -0.59978E+08         0.00000E+00
    0.00000E+00         0.00000E+00        -0.59858E+08
 
   -0.46438E+08        -0.13565E+07         0.00000E+00
   -0.13565E+07        -0.59902E+08         0.00000E+00
    0.00000E+00         0.00000E+00        -0.60115E+08
 
   -0.47894E+08        -0.18974E+07         0.00000E+00
   -0.18974E+07        -0.59786E+08         0.00000E+00
    0.00000E+00         0.00000E+00        -0.60389E+08
 
   -0.49390E+08        -0.21744E+07         0.00000E+00
   -0.21744E+07        -0.59660E+08         0.00000E+00
    0.00000E+00         0.00000E+00        -0.60670E+08
 
   -0.50876E+08        -0.22146E+07         0.00000E+00
   -0.22146E+07        -0.59537E+08         0.00000E+00
    0.00000E+00         0.00000E+00        -0.60951E+08
 
   -0.52325E+08        -0.20440E+07         0.00000E+00
   -0.20440E+07        -0.59421E+08         0.00000E+00
    0.00000E+00         0.00000E+00        -0.61226E+08
 
   -0.53719E+08        -0.16860E+07         0.00000E+00
   -0.16860E+07        -0.59307E+08         0.00000E+00
    0.00000E+00         0.00000E+00        -0.61490E+08
 
   -0.55056E+08        -0.11583E+07         0.00000E+00
   -0.11583E+07        -0.59186E+08         0.00000E+00
    0.00000E+00         0.00000E+00        -0.61741E+08
 
   -0.56338E+08        -0.47194E+06         0.00000E+00
   -0.47194E+06        -0.59046E+08         0.00000E+00
    0.00000E+00         0.00000E+00        -0.61976E+08
 
   -0.57570E+08         0.36948E+06         0.00000E+00
    0.36948E+06        -0.58874E+08         0.00000E+00
    0.00000E+00         0.00000E+00        -0.62195E+08
 
   -0.58752E+08         0.13695E+07         0.00000E+00
    0.13695E+07        -0.58661E+08         0.00000E+00
    0.00000E+00         0.00000E+00        -0.62395E+08
 
   -0.59878E+08         0.25369E+07         0.00000E+00
    0.25369E+07        -0.58406E+08         0.00000E+00
    0.00000E+00         0.00000E+00        -0.62574E+08
 
   -0.60928E+08         0.38831E+07         0.00000E+00
    0.38831E+07        -0.58114E+08         0.00000E+00
    0.00000E+00         0.00000E+00        -0.62731E+08
 
   -0.61870E+08         0.54174E+07         0.00000E+00
    0.54174E+07        -0.57803E+08         0.00000E+00
    0.00000E+00         0.00000E+00        -0.62860E+08
 
   -0.62654E+08         0.71407E+07         0.00000E+00
    0.71407E+07        -0.57502E+08         0.00000E+00
    0.00000E+00         0.00000E+00        -0.62959E+08
 
   -0.46032E+08        -0.47989E+06         0.00000E+00
   -0.47989E+06        -0.59978E+08         0.00000E+00
    0.00000E+00         0.00000E+00        -0.58544E+08
 
   -0.47100E+08        -0.12489E+07         0.00000E+00
   -0.12489E+07        -0.59899E+08         0.00000E+00
    0.00000E+00         0.00000E+00        -0.58745E+08
 
   -0.48293E+08        -0.17640E+07         0.00000E+00
   -0.17640E+07        -0.59775E+08         0.00000E+00
    0.00000E+00         0.00000E+00        -0.58965E+08
 
   -0.49545E+08        -0.20356E+07         0.00000E+00
   -0.20356E+07        -0.59632E+08         0.00000E+00
    0.00000E+00         0.00000E+00        -0.59193E+08
 
   -0.50811E+08        -0.20795E+07         0.00000E+00
   -0.20795E+07        -0.59486E+08         0.00000E+00
    0.00000E+00         0.00000E+00        -0.59424E+08
 
   -0.52059E+08        -0.19135E+07         0.00000E+00
   -0.19135E+07        -0.59342E+08         0.00000E+00
    0.00000E+00         0.00000E+00        -0.59653E+08
 
   -0.53272E+08        -0.15544E+07         0.00000E+00
   -0.15544E+07        -0.59199E+08         0.00000E+00
    0.00000E+00         0.00000E+00        -0.59874E+08
 
   -0.54440E+08        -0.10162E+07         0.00000E+00
   -0.10162E+07        -0.59052E+08         0.00000E+00
    0.00000E+00         0.00000E+00        -0.60085E+08
 
   -0.55561E+08        -0.30880E+06         0.00000E+00
   -0.30880E+06        -0.58892E+08         0.00000E+00
    0.00000E+00         0.00000E+00        -0.60284E+08
 
   -0.56633E+08         0.56258E+06         0.00000E+00
    0.56258E+06        -0.58711E+08         0.00000E+00
    0.00000E+00         0.00000E+00        -0.60468E+08
 
   -0.57652E+08         0.15971E+07         0.00000E+00
    0.15971E+07        -0.58506E+08         0.00000E+00
    0.00000E+00         0.00000E+00        -0.60636E+08
 
   -0.58608E+08         0.27968E+07         0.00000E+00
    0.27968E+07        -0.58274E+08         0.00000E+00
    0.00000E+00         0.00000E+00        -0.60786E+08
 
   -0.59482E+08         0.41640E+07         0.00000E+00
    0.41640E+07        -0.58024E+08         0.00000E+00
    0.00000E+00         0.00000E+00        -0.60915E+08
 
   -0.60248E+08         0.56980E+07         0.00000E+00
    0.56980E+07        -0.57770E+08         0.00000E+00
    0.00000E+00         0.00000E+00        -0.61020E+08
 
   -0.60864E+08         0.73909E+07         0.00000E+00
    0.73909E+07        -0.57534E+08         0.00000E+00
    0.00000E+00         0.00000E+00        -0.61099E+08
 
   -0.46888E+08        -0.43389E+06         0.00000E+00
   -0.43389E+06        -0.59980E+08         0.00000E+00
    0.00000E+00         0.00000E+00        -0.57245E+08
 
   -0.47719E+08        -0.11412E+07         0.00000E+00
   -0.11412E+07        -0.59904E+08         0.00000E+00
    0.00000E+00         0.00000E+00        -0.57399E+08
 
   -0.48674E+08        -0.16252E+07         0.00000E+00
   -0.16252E+07        -0.59783E+08         0.00000E+00
    0.00000E+00         0.00000E+00        -0.57571E+08
 
   -0.49698E+08        -0.18852E+07         0.00000E+00
   -0.18852E+07        -0.59639E+08         0.00000E+00
    0.00000E+00         0.00000E+00        -0.57752E+08
 
   -0.50748E+08        -0.19279E+07         0.00000E+00
   -0.19279E+07        -0.59487E+08         0.00000E+00
    0.00000E+00         0.00000E+00        -0.57938E+08
 
   -0.51795E+08        -0.17635E+07         0.00000E+00
   -0.17635E+07        -0.59334E+08         0.00000E+00
    0.00000E+00         0.00000E+00        -0.58123E+08
 
   -0.52820E+08        -0.14037E+07         0.00000E+00
   -0.14037E+07        -0.59181E+08         0.00000E+00
    0.00000E+00         0.00000E+00        -0.58304E+08
 
   -0.53811E+08        -0.85909E+06         0.00000E+00
   -0.85909E+06        -0.59025E+08         0.00000E+00
    0.00000E+00         0.00000E+00        -0.58477E+08
 
   -0.54763E+08        -0.13871E+06         0.00000E+00
   -0.13871E+06        -0.58862E+08         0.00000E+00
    0.00000E+00         0.00000E+00        -0.58640E+08
 
   -0.55670E+08         0.75106E+06         0.00000E+00
    0.75106E+06        -0.58687E+08         0.00000E+00
    0.00000E+00         0.00000E+00        -0.58791E+08
 
   -0.56525E+08         0.18059E+07         0.00000E+00
    0.18059E+07        -0.58497E+08         0.00000E+00
    0.00000E+00         0.00000E+00        -0.58928E+08
 
   -0.57317E+08         0.30227E+07         0.00000E+00
    0.30227E+07        -0.58294E+08         0.00000E+00
    0.00000E+00         0.00000E+00        -0.59050E+08
 
   -0.58031E+08         0.43970E+07         0.00000E+00
    0.43970E+07        -0.58084E+08         0.00000E+00
    0.00000E+00         0.00000E+00        -0.59155E+08
 
   -0.58643E+08         0.59214E+07         0.00000E+00
    0.59214E+07        -0.57879E+08         0.00000E+00
    0.00000E+00         0.00000E+00        -0.59238E+08
 
   -0.59121E+08         0.75816E+07         0.00000E+00
    0.75816E+07        -0.57697E+08         0.00000E+00
    0.00000E+00         0.00000E+00        -0.59299E+08
 
   -0.47666E+08        -0.39217E+06         0.00000E+00
   -0.39217E+06        -0.59982E+08         0.00000E+00
    0.00000E+00         0.00000E+00        -0.55959E+08
 
   -0.48293E+08        -0.10412E+07         0.00000E+00
   -0.10412E+07        -0.59915E+08         0.00000E+00
    0.00000E+00         0.00000E+00        -0.56074E+08
 
   -0.49035E+08        -0.14930E+07         0.00000E+00
   -0.14930E+07        -0.59805E+08         0.00000E+00
    0.00000E+00         0.00000E+00        -0.56204E+08
 
   -0.49844E+08        -0.17384E+07         0.00000E+00
   -0.17384E+07        -0.59672E+08         0.00000E+00
    0.00000E+00         0.00000E+00        -0.56343E+08
 
   -0.50685E+08        -0.17766E+07         0.00000E+00
   -0.17766E+07        -0.59528E+08         0.00000E+00
    0.00000E+00         0.00000E+00        -0.56487E+08
 
   -0.51531E+08        -0.16119E+07         0.00000E+00
   -0.16119E+07        -0.59382E+08         0.00000E+00
    0.00000E+00         0.00000E+00        -0.56632E+08
 
   -0.52365E+08        -0.12513E+07         0.00000E+00
   -0.12513E+07        -0.59234E+08         0.00000E+00
    0.00000E+00         0.00000E+00        -0.56774E+08
 
   -0.53175E+08        -0.70325E+06         0.00000E+00
   -0.70325E+06        -0.59086E+08         0.00000E+00
    0.00000E+00         0.00000E+00        -0.56910E+08
 
   -0.53953E+08         0.24413E+05         0.00000E+00
    0.24413E+05        -0.58933E+08         0.00000E+00
    0.00000E+00         0.00000E+00        -0.57039E+08
 
   -0.54692E+08         0.92433E+06         0.00000E+00
    0.92433E+06        -0.58774E+08         0.00000E+00
    0.00000E+00         0.00000E+00        -0.57158E+08
 
   -0.55384E+08         0.19897E+07         0.00000E+00
    0.19897E+07        -0.58608E+08         0.00000E+00
    0.00000E+00         0.00000E+00        -0.57266E+08
 
   -0.56019E+08         0.32133E+07         0.00000E+00
    0.32133E+07        -0.58437E+08         0.00000E+00
    0.00000E+00         0.00000E+00        -0.57362E+08
 
   -0.56584E+08         0.45864E+07         0.00000E+00
    0.45864E+07        -0.58267E+08         0.00000E+00
    0.00000E+00         0.00000E+00        -0.57443E+08
 
   -0.57059E+08         0.60963E+07         0.00000E+00
    0.60963E+07        -0.58105E+08         0.00000E+00
    0.00000E+00         0.00000E+00        -0.57508E+08
 
   -0.57422E+08         0.77249E+07         0.00000E+00
    0.77249E+07        -0.57967E+08         0.00000E+00
    0.00000E+00         0.00000E+00        -0.57554E+08
 
   -0.48375E+08        -0.35668E+06         0.00000E+00
   -0.35668E+06        -0.59986E+08         0.00000E+00
    0.00000E+00         0.00000E+00        -0.54685E+08
 
   -0.48825E+08        -0.95468E+06         0.00000E+00
   -0.95468E+06        -0.59930E+08         0.00000E+00
    0.00000E+00         0.00000E+00        -0.54765E+08
 
   -0.49373E+08        -0.13766E+07         0.00000E+00
   -0.13766E+07        -0.59838E+08         0.00000E+00
    0.00000E+00         0.00000E+00        -0.54859E+08
 
   -0.49981E+08        -0.16070E+07         0.00000E+00
   -0.16070E+07        -0.59724E+08         0.00000E+00
    0.00000E+00         0.00000E+00        -0.54960E+08
 
   -0.50619E+08        -0.16391E+07         0.00000E+00
   -0.16391E+07        -0.59601E+08         0.00000E+00
    0.00000E+00         0.00000E+00        -0.55066E+08
 
   -0.51267E+08        -0.14727E+07         0.00000E+00
   -0.14727E+07        -0.59473E+08         0.00000E+00
    0.00000E+00         0.00000E+00        -0.55172E+08
 
   -0.51909E+08        -0.11116E+07         0.00000E+00
   -0.11116E+07        -0.59344E+08         0.00000E+00
    0.00000E+00         0.00000E+00        -0.55277E+08
 
   -0.52535E+08        -0.56190E+06         0.00000E+00
   -0.56190E+06        -0.59215E+08         0.00000E+00
    0.00000E+00         0.00000E+00        -0.55379E+08
 
   -0.53136E+08         0.16921E+06         0.00000E+00
    0.16921E+06        -0.59084E+08         0.00000E+00
    0.00000E+00         0.00000E+00        -0.55474E+08
 
   -0.53706E+08         0.10738E+07         0.00000E+00
    0.10738E+07        -0.58950E+08         0.00000E+00
    0.00000E+00         0.00000E+00        -0.55563E+08
 
   -0.54237E+08         0.21432E+07         0.00000E+00
    0.21432E+07        -0.58814E+08         0.00000E+00
    0.00000E+00         0.00000E+00        -0.55644E+08
 
   -0.54721E+08         0.33676E+07         0.00000E+00
    0.33676E+07        -0.58678E+08         0.00000E+00
    0.00000E+00         0.00000E+00        -0.55715E+08
 
   -0.55146E+08         0.47348E+07         0.00000E+00
    0.47348E+07        -0.58545E+08         0.00000E+00
    0.00000E+00         0.00000E+00        -0.55774E+08
 
   -0.55498E+08         0.62290E+07         0.00000E+00
    0.62290E+07        -0.58424E+08         0.00000E+00
    0.00000E+00         0.00000E+00        -0.55822E+08
 
   -0.55761E+08         0.78293E+07         0.00000E+00
    0.78293E+07        -0.58323E+08         0.00000E+00
    0.00000E+00         0.00000E+00        -0.55855E+08
 
   -0.49026E+08        -0.32885E+06         0.00000E+00
   -0.32885E+06        -0.59989E+08         0.00000E+00
    0.00000E+00         0.00000E+00        -0.53418E+08
 
   -0.49322E+08        -0.88595E+06         0.00000E+00
   -0.88595E+06        -0.59948E+08         0.00000E+00
    0.00000E+00         0.00000E+00        -0.53470E+08
 
   -0.49691E+08        -0.12830E+07         0.00000E+00
   -0.12830E+07        -0.59878E+08         0.00000E+00
    0.00000E+00         0.00000E+00        -0.53531E+08
 
   -0.50108E+08        -0.14998E+07         0.00000E+00
   -0.14998E+07        -0.59791E+08         0.00000E+00
    0.00000E+00         0.00000E+00        -0.53597E+08
 
   -0.50550E+08        -0.15258E+07         0.00000E+00
   -0.15258E+07        -0.59696E+08         0.00000E+00
    0.00000E+00         0.00000E+00        -0.53667E+08
 
   -0.51002E+08        -0.13573E+07         0.00000E+00
   -0.13573E+07        -0.59596E+08         0.00000E+00
    0.00000E+00         0.00000E+00        -0.53738E+08
 
   -0.51453E+08        -0.99571E+06         0.00000E+00
   -0.99571E+06        -0.59496E+08         0.00000E+00
    0.00000E+00         0.00000E+00        -0.53808E+08
 
   -0.51893E+08        -0.44542E+06         0.00000E+00
   -0.44542E+06        -0.59395E+08         0.00000E+00
    0.00000E+00         0.00000E+00        -0.53876E+08
 
   -0.52316E+08         0.28681E+06         0.00000E+00
    0.28681E+06        -0.59294E+08         0.00000E+00
    0.00000E+00         0.00000E+00        -0.53940E+08
 
   -0.52717E+08         0.11927E+07         0.00000E+00
    0.11927E+07        -0.59192E+08         0.00000E+00
    0.00000E+00         0.00000E+00        -0.53999E+08
 
   -0.53089E+08         0.22625E+07         0.00000E+00
    0.22625E+07        -0.59091E+08         0.00000E+00
    0.00000E+00         0.00000E+00        -0.54053E+08
 
   -0.53425E+08         0.34844E+07         0.00000E+00
    0.34844E+07        -0.58991E+08         0.00000E+00
    0.00000E+00         0.00000E+00        -0.54100E+08
 
   -0.53718E+08         0.48442E+07         0.00000E+00
    0.48442E+07        -0.58897E+08         0.00000E+00
    0.00000E+00         0.00000E+00        -0.54140E+08
 
   -0.53957E+08         0.63239E+07         0.00000E+00
    0.63239E+07        -0.58813E+08         0.00000E+00
    0.00000E+00         0.00000E+00        -0.54171E+08
 
   -0.54131E+08         0.79010E+07         0.00000E+00
    0.79010E+07        -0.58746E+08         0.00000E+00
    0.00000E+00         0.00000E+00        -0.54192E+08
 
   -0.49634E+08        -0.30967E+06         0.00000E+00
   -0.30967E+06        -0.59993E+08         0.00000E+00
    0.00000E+00         0.00000E+00        -0.52158E+08
 
   -0.49790E+08        -0.83803E+06         0.00000E+00
   -0.83803E+06        -0.59967E+08         0.00000E+00
    0.00000E+00         0.00000E+00        -0.52184E+08
 
   -0.49993E+08        -0.12169E+07         0.00000E+00
   -0.12169E+07        -0.59923E+08         0.00000E+00
    0.00000E+00         0.00000E+00        -0.52215E+08
 
   -0.50226E+08        -0.14233E+07         0.00000E+00
   -0.14233E+07        -0.59868E+08         0.00000E+00
    0.00000E+00         0.00000E+00        -0.52249E+08
 
   -0.50477E+08        -0.14442E+07         0.00000E+00
   -0.14442E+07        -0.59806E+08         0.00000E+00
    0.00000E+00         0.00000E+00        -0.52286E+08
 
   -0.50736E+08        -0.12738E+07         0.00000E+00
   -0.12738E+07        -0.59742E+08         0.00000E+00
    0.00000E+00         0.00000E+00        -0.52322E+08
 
   -0.50996E+08        -0.91166E+06         0.00000E+00
   -0.91166E+06        -0.59676E+08         0.00000E+00
    0.00000E+00         0.00000E+00        -0.52359E+08
 
   -0.51251E+08        -0.36138E+06         0.00000E+00
   -0.36138E+06        -0.59610E+08         0.00000E+00
    0.00000E+00         0.00000E+00        -0.52394E+08
 
   -0.51496E+08         0.37074E+06         0.00000E+00
    0.37074E+06        -0.59544E+08         0.00000E+00
    0.00000E+00         0.00000E+00        -0.52427E+08
 
   -0.51728E+08         0.12762E+07         0.00000E+00
    0.12762E+07        -0.59479E+08         0.00000E+00
    0.00000E+00         0.00000E+00        -0.52458E+08
 
   -0.51942E+08         0.23445E+07         0.00000E+00
    0.23445E+07        -0.59416E+08         0.00000E+00
    0.00000E+00         0.00000E+00        -0.52486E+08
 
   -0.52135E+08         0.35628E+07         0.00000E+00
    0.35628E+07        -0.59355E+08         0.00000E+00
    0.00000E+00         0.00000E+00        -0.52510E+08
 
   -0.52300E+08         0.49156E+07         0.00000E+00
    0.49156E+07        -0.59299E+08         0.00000E+00
    0.00000E+00         0.00000E+00        -0.52531E+08
 
   -0.52433E+08         0.63838E+07         0.00000E+00
    0.63838E+07        -0.59251E+08         0.00000E+00
    0.00000E+00         0.00000E+00        -0.52547E+08
 
   -0.52526E+08         0.79439E+07         0.00000E+00
    0.79439E+07        -0.59214E+08         0.00000E+00
    0.00000E+00         0.00000E+00        -0.52557E+08
 
   -0.50215E+08        -0.29975E+06         0.00000E+00
   -0.29975E+06        -0.59998E+08         0.00000E+00
    0.00000E+00         0.00000E+00        -0.50902E+08
 
   -0.50241E+08        -0.81279E+06         0.00000E+00
   -0.81279E+06        -0.59988E+08         0.00000E+00
    0.00000E+00         0.00000E+00        -0.50904E+08
 
   -0.50284E+08        -0.11815E+07         0.00000E+00
   -0.11815E+07        -0.59972E+08         0.00000E+00
    0.00000E+00         0.00000E+00        -0.50907E+08
 
   -0.50339E+08        -0.13818E+07         0.00000E+00
   -0.13818E+07        -0.59950E+08         0.00000E+00
    0.00000E+00         0.00000E+00        -0.50910E+08
 
   -0.50402E+08        -0.13993E+07         0.00000E+00
   -0.13993E+07        -0.59926E+08         0.00000E+00
    0.00000E+00         0.00000E+00        -0.50914E+08
 
   -0.50469E+08        -0.12274E+07         0.00000E+00
   -0.12274E+07        -0.59900E+08         0.00000E+00
    0.00000E+00         0.00000E+00        -0.50918E+08
 
   -0.50539E+08        -0.86481E+06         0.00000E+00
   -0.86481E+06        -0.59873E+08         0.00000E+00
    0.00000E+00         0.00000E+00        -0.50922E+08
 
   -0.50609E+08        -0.31471E+06         0.00000E+00
   -0.31471E+06        -0.59846E+08         0.00000E+00
    0.00000E+00         0.00000E+00        -0.50925E+08
 
   -0.50677E+08         0.41678E+06         0.00000E+00
    0.41678E+06        -0.59819E+08         0.00000E+00
    0.00000E+00         0.00000E+00        -0.50928E+08
 
   -0.50740E+08         0.13211E+07         0.00000E+00
    0.13211E+07        -0.59794E+08         0.00000E+00
    0.00000E+00         0.00000E+00        -0.50931E+08
 
   -0.50799E+08         0.23873E+07         0.00000E+00
    0.23873E+07        -0.59770E+08         0.00000E+00
    0.00000E+00         0.00000E+00        -0.50934E+08
 
   -0.50849E+08         0.36023E+07         0.00000E+00
    0.36023E+07        -0.59748E+08         0.00000E+00
    0.00000E+00         0.00000E+00        -0.50936E+08
 
   -0.50890E+08         0.49499E+07         0.00000E+00
    0.49499E+07        -0.59730E+08         0.00000E+00
    0.00000E+00         0.00000E+00        -0.50938E+08
 
   -0.50920E+08         0.64105E+07         0.00000E+00
    0.64105E+07        -0.59717E+08         0.00000E+00
    0.00000E+00         0.00000E+00        -0.50939E+08
 
   -0.50936E+08         0.79605E+07         0.00000E+00
    0.79605E+07        -0.59710E+08         0.00000E+00
    0.00000E+00         0.00000E+00        -0.50940E+08
 
   -0.50786E+08        -0.29934E+06         0.00000E+00
   -0.29934E+06        -0.60002E+08         0.00000E+00
    0.00000E+00         0.00000E+00        -0.49647E+08
 
   -0.50684E+08        -0.81107E+06         0.00000E+00
   -0.81107E+06        -0.60009E+08         0.00000E+00
    0.00000E+00         0.00000E+00        -0.49626E+08
 
   -0.50570E+08        -0.11782E+07         0.00000E+00
   -0.11782E+07        -0.60021E+08         0.00000E+00
    0.00000E+00         0.00000E+00        -0.49601E+08
 
   -0.50448E+08        -0.13770E+07         0.00000E+00
   -0.13770E+07        -0.60034E+08         0.00000E+00
    0.00000E+00         0.00000E+00        -0.49575E+08
 
   -0.50324E+08        -0.13934E+07         0.00000E+00
   -0.13934E+07        -0.60048E+08         0.00000E+00
    0.00000E+00         0.00000E+00        -0.49546E+08
 
   -0.50202E+08        -0.12206E+07         0.00000E+00
   -0.12206E+07        -0.60061E+08         0.00000E+00
    0.00000E+00         0.00000E+00        -0.49518E+08
 
   -0.50082E+08        -0.85772E+06         0.00000E+00
   -0.85772E+06        -0.60075E+08         0.00000E+00
    0.00000E+00         0.00000E+00        -0.49489E+08
 
   -0.49967E+08        -0.30782E+06         0.00000E+00
   -0.30782E+06        -0.60088E+08         0.00000E+00
    0.00000E+00         0.00000E+00        -0.49462E+08
 
   -0.49858E+08         0.42290E+06         0.00000E+00
    0.42290E+06        -0.60101E+08         0.00000E+00
    0.00000E+00         0.00000E+00        -0.49435E+08
 
   -0.49754E+08         0.13258E+07         0.00000E+00
    0.13258E+07        -0.60116E+08         0.00000E+00
    0.00000E+00         0.00000E+00        -0.49411E+08
 
   -0.49657E+08         0.23901E+07         0.00000E+00
    0.23901E+07        -0.60132E+08         0.00000E+00
    0.00000E+00         0.00000E+00        -0.49388E+08
 
   -0.49567E+08         0.36027E+07         0.00000E+00
    0.36027E+07        -0.60150E+08         0.00000E+00
    0.00000E+00         0.00000E+00        -0.49369E+08
 
   -0.49485E+08         0.49474E+07         0.00000E+00
    0.49474E+07        -0.60170E+08         0.00000E+00
    0.00000E+00         0.00000E+00        -0.49352E+08
 
   -0.49413E+08         0.64049E+07         0.00000E+00
    0.64049E+07        -0.60192E+08         0.00000E+00
    0.00000E+00         0.00000E+00        -0.49339E+08
 
   -0.49353E+08         0.79519E+07         0.00000E+00
    0.79519E+07        -0.60213E+08         0.00000E+00
    0.00000E+00         0.00000E+00        -0.49330E+08
 
   -0.51366E+08        -0.30835E+06         0.00000E+00
   -0.30835E+06        -0.60006E+08         0.00000E+00
    0.00000E+00         0.00000E+00        -0.48391E+08
 
   -0.51132E+08        -0.83275E+06         0.00000E+00
   -0.83275E+06        -0.60030E+08         0.00000E+00
    0.00000E+00         0.00000E+00        -0.48346E+08
 
   -0.50857E+08        -0.12070E+07         0.00000E+00
   -0.12070E+07        -0.60069E+08         0.00000E+00
    0.00000E+00         0.00000E+00        -0.48294E+08
 
   -0.50558E+08        -0.14091E+07         0.00000E+00
   -0.14091E+07        -0.60116E+08         0.00000E+00
    0.00000E+00         0.00000E+00        -0.48237E+08
 
   -0.50247E+08        -0.14264E+07         0.00000E+00
   -0.14264E+07        -0.60167E+08         0.00000E+00
    0.00000E+00         0.00000E+00        -0.48176E+08
 
   -0.49934E+08        -0.12535E+07         0.00000E+00
   -0.12535E+07        -0.60219E+08         0.00000E+00
    0.00000E+00         0.00000E+00        -0.48115E+08
 
   -0.49625E+08        -0.89034E+06         0.00000E+00
   -0.89034E+06        -0.60270E+08         0.00000E+00
    0.00000E+00         0.00000E+00        -0.48055E+08
 
   -0.49326E+08        -0.34062E+06         0.00000E+00
   -0.34062E+06        -0.60322E+08         0.00000E+00
    0.00000E+00         0.00000E+00        -0.47996E+08
 
   -0.49041E+08         0.38918E+06         0.00000E+00
    0.38918E+06        -0.60374E+08         0.00000E+00
    0.00000E+00         0.00000E+00        -0.47940E+08
 
   -0.48770E+08         0.12905E+07         0.00000E+00
    0.12905E+07        -0.60428E+08         0.00000E+00
    0.00000E+00         0.00000E+00        -0.47888E+08
 
   -0.48518E+08         0.23529E+07         0.00000E+00
    0.23529E+07        -0.60484E+08         0.00000E+00
    0.00000E+00         0.00000E+00        -0.47841E+08
 
   -0.48287E+08         0.35639E+07         0.00000E+00
    0.35639E+07        -0.60542E+08         0.00000E+00
    0.00000E+00         0.00000E+00        -0.47800E+08
 
   -0.48081E+08         0.49081E+07         0.00000E+00
    0.49081E+07        -0.60600E+08         0.00000E+00
    0.00000E+00         0.00000E+00        -0.47765E+08
 
   -0.47907E+08         0.63669E+07         0.00000E+00
    0.63669E+07        -0.60656E+08         0.00000E+00
    0.00000E+00         0.00000E+00        -0.47737E+08
 
   -0.47769E+08         0.79178E+07         0.00000E+00
    0.79178E+07        -0.60707E+08         0.00000E+00
    0.00000E+00         0.00000E+00        -0.47718E+08
 
   -0.51969E+08        -0.32640E+06         0.00000E+00
   -0.32640E+06        -0.60010E+08         0.00000E+00
    0.00000E+00         0.00000E+00        -0.47133E+08
 
   -0.51595E+08        -0.87678E+06         0.00000E+00
   -0.87678E+06        -0.60049E+08         0.00000E+00
    0.00000E+00         0.00000E+00        -0.47062E+08
 
   -0.51153E+08        -0.12662E+07         0.00000E+00
   -0.12662E+07        -0.60113E+08         0.00000E+00
    0.00000E+00         0.00000E+00        -0.46981E+08
 
   -0.50671E+08        -0.14759E+07         0.00000E+00
   -0.14759E+07        -0.60192E+08         0.00000E+00
    0.00000E+00         0.00000E+00        -0.46891E+08
 
   -0.50170E+08        -0.14960E+07         0.00000E+00
   -0.14960E+07        -0.60276E+08         0.00000E+00
    0.00000E+00         0.00000E+00        -0.46798E+08
 
   -0.49665E+08        -0.13234E+07         0.00000E+00
   -0.13234E+07        -0.60363E+08         0.00000E+00
    0.00000E+00         0.00000E+00        -0.46704E+08
 
   -0.49168E+08        -0.95997E+06         0.00000E+00
   -0.95997E+06        -0.60449E+08         0.00000E+00
    0.00000E+00         0.00000E+00        -0.46611E+08
 
   -0.48686E+08        -0.41058E+06         0.00000E+00
   -0.41058E+06        -0.60536E+08         0.00000E+00
    0.00000E+00         0.00000E+00        -0.46521E+08
 
   -0.48225E+08         0.31783E+06         0.00000E+00
    0.31783E+06        -0.60623E+08         0.00000E+00
    0.00000E+00         0.00000E+00        -0.46435E+08
 
   -0.47788E+08         0.12169E+07         0.00000E+00
    0.12169E+07        -0.60714E+08         0.00000E+00
    0.00000E+00         0.00000E+00        -0.46355E+08
 
   -0.47380E+08         0.22769E+07         0.00000E+00
    0.22769E+07        -0.60807E+08         0.00000E+00
    0.00000E+00         0.00000E+00        -0.46283E+08
 
   -0.47007E+08         0.34864E+07         0.00000E+00
    0.34864E+07        -0.60902E+08         0.00000E+00
    0.00000E+00         0.00000E+00        -0.46220E+08
 
   -0.46676E+08         0.48317E+07         0.00000E+00
    0.48317E+07        -0.60998E+08         0.00000E+00
    0.00000E+00         0.00000E+00        -0.46166E+08
 
   -0.46395E+08         0.62956E+07         0.00000E+00
    0.62956E+07        -0.61090E+08         0.00000E+00
    0.00000E+00         0.00000E+00        -0.46124E+08
 
   -0.46175E+08         0.78569E+07         0.00000E+00
    0.78569E+07        -0.61172E+08         0.00000E+00
    0.00000E+00         0.00000E+00        -0.46094E+08
 
   -0.52613E+08        -0.35282E+06         0.00000E+00
   -0.35282E+06        -0.60014E+08         0.00000E+00
    0.00000E+00         0.00000E+00        -0.45871E+08
 
   -0.52082E+08        -0.94125E+06         0.00000E+00
   -0.94125E+06        -0.60066E+08         0.00000E+00
    0.00000E+00         0.00000E+00        -0.45771E+08
 
   -0.51462E+08        -0.13529E+07         0.00000E+00
   -0.13529E+07        -0.60153E+08         0.00000E+00
    0.00000E+00         0.00000E+00        -0.45657E+08
 
   -0.50790E+08        -0.15734E+07         0.00000E+00
   -0.15734E+07        -0.60258E+08         0.00000E+00
    0.00000E+00         0.00000E+00        -0.45534E+08
 
   -0.50095E+08        -0.15972E+07         0.00000E+00
   -0.15972E+07        -0.60371E+08         0.00000E+00
    0.00000E+00         0.00000E+00        -0.45407E+08
 
   -0.49397E+08        -0.14250E+07         0.00000E+00
   -0.14250E+07        -0.60485E+08         0.00000E+00
    0.00000E+00         0.00000E+00        -0.45278E+08
 
   -0.48711E+08        -0.10612E+07         0.00000E+00
   -0.10612E+07        -0.60600E+08         0.00000E+00
    0.00000E+00         0.00000E+00        -0.45151E+08
 
   -0.48047E+08        -0.51262E+06         0.00000E+00
   -0.51262E+06        -0.60715E+08         0.00000E+00
    0.00000E+00         0.00000E+00        -0.45029E+08
 
   -0.47411E+08         0.21321E+06         0.00000E+00
    0.21321E+06        -0.60832E+08         0.00000E+00
    0.00000E+00         0.00000E+00        -0.44913E+08
 
   -0.46809E+08         0.11083E+07         0.00000E+00
    0.11083E+07        -0.60953E+08         0.00000E+00
    0.00000E+00         0.00000E+00        -0.44806E+08
 
   -0.46246E+08         0.21640E+07         0.00000E+00
    0.21640E+07        -0.61080E+08         0.00000E+00
    0.00000E+00         0.00000E+00        -0.44708E+08
 
   -0.45728E+08         0.33711E+07         0.00000E+00
    0.33711E+07        -0.61213E+08         0.00000E+00
    0.00000E+00         0.00000E+00        -0.44622E+08
 
   -0.45267E+08         0.47178E+07         0.00000E+00
    0.47178E+07        -0.61346E+08         0.00000E+00
    0.00000E+00         0.00000E+00        -0.44549E+08
 
   -0.44874E+08         0.61893E+07         0.00000E+00
    0.61893E+07        -0.61476E+08         0.00000E+00
    0.00000E+00         0.00000E+00        -0.44491E+08
 
   -0.44565E+08         0.77665E+07         0.00000E+00
    0.77665E+07        -0.61592E+08         0.00000E+00
    0.00000E+00         0.00000E+00        -0.44450E+08
 
   -0.53311E+08        -0.38668E+06         0.00000E+00
   -0.38668E+06        -0.60017E+08         0.00000E+00
    0.00000E+00         0.00000E+00        -0.44604E+08
 
   -0.52603E+08        -0.10234E+07         0.00000E+00
   -0.10234E+07        -0.60081E+08         0.00000E+00
    0.00000E+00         0.00000E+00        -0.44471E+08
 
   -0.51789E+08        -0.14623E+07         0.00000E+00
   -0.14623E+07        -0.60186E+08         0.00000E+00
    0.00000E+00         0.00000E+00        -0.44321E+08
 
   -0.50916E+08        -0.16954E+07         0.00000E+00
   -0.16954E+07        -0.60311E+08         0.00000E+00
    0.00000E+00         0.00000E+00        -0.44161E+08
 
   -0.50021E+08        -0.17228E+07         0.00000E+00
   -0.17228E+07        -0.60444E+08         0.00000E+00
    0.00000E+00         0.00000E+00        -0.43997E+08
 
   -0.49128E+08        -0.15502E+07         0.00000E+00
   -0.15502E+07        -0.60578E+08         0.00000E+00
    0.00000E+00         0.00000E+00        -0.43832E+08
 
   -0.48254E+08        -0.11859E+07         0.00000E+00
   -0.11859E+07        -0.60710E+08         0.00000E+00
    0.00000E+00         0.00000E+00        -0.43670E+08
 
   -0.47410E+08        -0.63909E+06         0.00000E+00
   -0.63909E+06        -0.60844E+08         0.00000E+00
    0.00000E+00         0.00000E+00        -0.43515E+08
 
   -0.46603E+08         0.81913E+05         0.00000E+00
    0.81913E+05        -0.60982E+08         0.00000E+00
    0.00000E+00         0.00000E+00        -0.43368E+08
 
   -0.45836E+08         0.96966E+06         0.00000E+00
    0.96966E+06        -0.61128E+08         0.00000E+00
    0.00000E+00         0.00000E+00        -0.43232E+08
 
   -0.45117E+08         0.20175E+07         0.00000E+00
    0.20175E+07        -0.61285E+08         0.00000E+00
    0.00000E+00         0.00000E+00        -0.43108E+08
 
   -0.44451E+08         0.32188E+07         0.00000E+00
    0.32188E+07        -0.61451E+08         0.00000E+00
    0.00000E+00         0.00000E+00        -0.42998E+08
 
   -0.43853E+08         0.45652E+07         0.00000E+00
    0.45652E+07        -0.61623E+08         0.00000E+00
    0.00000E+00         0.00000E+00        -0.42905E+08
 
   -0.43339E+08         0.60453E+07         0.00000E+00
    0.60453E+07        -0.61792E+08         0.00000E+00
    0.00000E+00         0.00000E+00        -0.42831E+08
 
   -0.42931E+08         0.76426E+07         0.00000E+00
    0.76426E+07        -0.61946E+08         0.00000E+00
    0.00000E+00         0.00000E+00        -0.42777E+08
 
   -0.54076E+08        -0.42682E+06         0.00000E+00
   -0.42682E+06        -0.60019E+08         0.00000E+00
    0.00000E+00         0.00000E+00        -0.43332E+08
 
   -0.53164E+08        -0.11196E+07         0.00000E+00
   -0.11196E+07        -0.60093E+08         0.00000E+00
    0.00000E+00         0.00000E+00        -0.43159E+08
 
   -0.52135E+08        -0.15885E+07         0.00000E+00
   -0.15885E+07        -0.60210E+08         0.00000E+00
    0.00000E+00         0.00000E+00        -0.42969E+08
 
   -0.51049E+08        -0.18334E+07         0.00000E+00
   -0.18334E+07        -0.60347E+08         0.00000E+00
    0.00000E+00         0.00000E+00        -0.42769E+08
 
   -0.49947E+08        -0.18624E+07         0.00000E+00
   -0.18624E+07        -0.60490E+08         0.00000E+00
    0.00000E+00         0.00000E+00        -0.42564E+08
 
   -0.48857E+08        -0.16878E+07         0.00000E+00
   -0.16878E+07        -0.60630E+08         0.00000E+00
    0.00000E+00         0.00000E+00        -0.42361E+08
 
   -0.47798E+08        -0.13228E+07         0.00000E+00
   -0.13228E+07        -0.60768E+08         0.00000E+00
    0.00000E+00         0.00000E+00        -0.42163E+08
 
   -0.46778E+08        -0.77952E+06         0.00000E+00
   -0.77952E+06        -0.60908E+08         0.00000E+00
    0.00000E+00         0.00000E+00        -0.41973E+08
 
   -0.45803E+08        -0.67177E+05         0.00000E+00
   -0.67177E+05        -0.61056E+08         0.00000E+00
    0.00000E+00         0.00000E+00        -0.41794E+08
 
   -0.44875E+08         0.80780E+06         0.00000E+00
    0.80780E+06        -0.61218E+08         0.00000E+00
    0.00000E+00         0.00000E+00        -0.41628E+08
 
   -0.43998E+08         0.18414E+07         0.00000E+00
    0.18414E+07        -0.61398E+08         0.00000E+00
    0.00000E+00         0.00000E+00        -0.41477E+08
 
   -0.43181E+08         0.30307E+07         0.00000E+00
    0.30307E+07        -0.61596E+08         0.00000E+00
    0.00000E+00         0.00000E+00        -0.41343E+08
 
   -0.42438E+08         0.43723E+07         0.00000E+00
    0.43723E+07        -0.61806E+08         0.00000E+00
    0.00000E+00         0.00000E+00        -0.41228E+08
 
   -0.41791E+08         0.58593E+07         0.00000E+00
    0.58593E+07        -0.62018E+08         0.00000E+00
    0.00000E+00         0.00000E+00        -0.41136E+08
 
   -0.41267E+08         0.74793E+07         0.00000E+00
    0.74793E+07        -0.62216E+08         0.00000E+00
    0.00000E+00         0.00000E+00        -0.41067E+08
 
   -0.54918E+08        -0.47188E+06         0.00000E+00
   -0.47188E+06        -0.60021E+08         0.00000E+00
    0.00000E+00         0.00000E+00        -0.42054E+08
 
   -0.53767E+08        -0.12254E+07         0.00000E+00
   -0.12254E+07        -0.60100E+08         0.00000E+00
    0.00000E+00         0.00000E+00        -0.41835E+08
 
   -0.52501E+08        -0.17235E+07         0.00000E+00
   -0.17235E+07        -0.60223E+08         0.00000E+00
    0.00000E+00         0.00000E+00        -0.41598E+08
 
   -0.51185E+08        -0.19765E+07         0.00000E+00
   -0.19765E+07        -0.60362E+08         0.00000E+00
    0.00000E+00         0.00000E+00        -0.41352E+08
 
   -0.49870E+08        -0.20028E+07         0.00000E+00
   -0.20028E+07        -0.60500E+08         0.00000E+00
    0.00000E+00         0.00000E+00        -0.41104E+08
 
   -0.48584E+08        -0.18234E+07         0.00000E+00
   -0.18234E+07        -0.60631E+08         0.00000E+00
    0.00000E+00         0.00000E+00        -0.40860E+08
 
   -0.47344E+08        -0.14575E+07         0.00000E+00
   -0.14575E+07        -0.60758E+08         0.00000E+00
    0.00000E+00         0.00000E+00        -0.40623E+08
 
   -0.46155E+08        -0.92066E+06         0.00000E+00
   -0.92066E+06        -0.60889E+08         0.00000E+00
    0.00000E+00         0.00000E+00        -0.40398E+08
 
   -0.45017E+08        -0.22282E+06         0.00000E+00
   -0.22282E+06        -0.61034E+08         0.00000E+00
    0.00000E+00         0.00000E+00        -0.40186E+08
 
   -0.43931E+08         0.63110E+06         0.00000E+00
    0.63110E+06        -0.61201E+08         0.00000E+00
    0.00000E+00         0.00000E+00        -0.39989E+08
 
   -0.42897E+08         0.16406E+07         0.00000E+00
    0.16406E+07        -0.61397E+08         0.00000E+00
    0.00000E+00         0.00000E+00        -0.39810E+08
 
   -0.41923E+08         0.28082E+07         0.00000E+00
    0.28082E+07        -0.61622E+08         0.00000E+00
    0.00000E+00         0.00000E+00        -0.39650E+08
 
   -0.41026E+08         0.41365E+07         0.00000E+00
    0.41365E+07        -0.61871E+08         0.00000E+00
    0.00000E+00         0.00000E+00        -0.39513E+08
 
   -0.40229E+08         0.56255E+07         0.00000E+00
    0.56255E+07        -0.62131E+08         0.00000E+00
    0.00000E+00         0.00000E+00        -0.39400E+08
 
   -0.39570E+08         0.72686E+07         0.00000E+00
    0.72686E+07        -0.62382E+08         0.00000E+00
    0.00000E+00         0.00000E+00        -0.39315E+08
 
   -0.55841E+08        -0.52030E+06         0.00000E+00
   -0.52030E+06        -0.60022E+08         0.00000E+00
    0.00000E+00         0.00000E+00        -0.40770E+08
 
   -0.54413E+08        -0.13352E+07         0.00000E+00
   -0.13352E+07        -0.60103E+08         0.00000E+00
    0.00000E+00         0.00000E+00        -0.40497E+08
 
   -0.52880E+08        -0.18571E+07         0.00000E+00
   -0.18571E+07        -0.60223E+08         0.00000E+00
    0.00000E+00         0.00000E+00        -0.40206E+08
 
   -0.51320E+08        -0.21103E+07         0.00000E+00
   -0.21103E+07        -0.60349E+08         0.00000E+00
    0.00000E+00         0.00000E+00        -0.39909E+08
 
   -0.49786E+08        -0.21270E+07         0.00000E+00
   -0.21270E+07        -0.60464E+08         0.00000E+00
    0.00000E+00         0.00000E+00        -0.39613E+08
 
   -0.48306E+08        -0.19388E+07         0.00000E+00
   -0.19388E+07        -0.60567E+08         0.00000E+00
    0.00000E+00         0.00000E+00        -0.39325E+08
 
   -0.46893E+08        -0.15723E+07         0.00000E+00
   -0.15723E+07        -0.60664E+08         0.00000E+00
    0.00000E+00         0.00000E+00        -0.39048E+08
 
   -0.45545E+08        -0.10464E+07         0.00000E+00
   -0.10464E+07        -0.60768E+08         0.00000E+00
    0.00000E+00         0.00000E+00        -0.38786E+08
 
   -0.44255E+08        -0.37155E+06         0.00000E+00
   -0.37155E+06        -0.60893E+08         0.00000E+00
    0.00000E+00         0.00000E+00        -0.38540E+08
 
   -0.43017E+08         0.44963E+06         0.00000E+00
    0.44963E+06        -0.61052E+08         0.00000E+00
    0.00000E+00         0.00000E+00        -0.38312E+08
 
   -0.41828E+08         0.14212E+07         0.00000E+00
    0.14212E+07        -0.61255E+08         0.00000E+00
    0.00000E+00         0.00000E+00        -0.38104E+08
 
   -0.40691E+08         0.25523E+07         0.00000E+00
    0.25523E+07        -0.61505E+08         0.00000E+00
    0.00000E+00         0.00000E+00        -0.37917E+08
 
   -0.39625E+08         0.38542E+07         0.00000E+00
    0.38542E+07        -0.61795E+08         0.00000E+00
    0.00000E+00         0.00000E+00        -0.37753E+08
 
   -0.38659E+08         0.53360E+07         0.00000E+00
    0.53360E+07        -0.62110E+08         0.00000E+00
    0.00000E+00         0.00000E+00        -0.37618E+08
 
   -0.37837E+08         0.69995E+07         0.00000E+00
    0.69995E+07        -0.62423E+08         0.00000E+00
    0.00000E+00         0.00000E+00        -0.37513E+08
 
   -0.56850E+08        -0.57033E+06         0.00000E+00
   -0.57033E+06        -0.60023E+08         0.00000E+00
    0.00000E+00         0.00000E+00        -0.39482E+08
 
   -0.55095E+08        -0.14419E+07         0.00000E+00
   -0.14419E+07        -0.60101E+08         0.00000E+00
    0.00000E+00         0.00000E+00        -0.39142E+08
 
   -0.53263E+08        -0.19759E+07         0.00000E+00
   -0.19759E+07        -0.60205E+08         0.00000E+00
    0.00000E+00         0.00000E+00        -0.38790E+08
 
   -0.51442E+08        -0.22164E+07         0.00000E+00
   -0.22164E+07        -0.60300E+08         0.00000E+00
    0.00000E+00         0.00000E+00        -0.38435E+08
 
   -0.49687E+08        -0.22134E+07         0.00000E+00
   -0.22134E+07        -0.60371E+08         0.00000E+00
    0.00000E+00         0.00000E+00        -0.38087E+08
 
   -0.48023E+08        -0.20120E+07         0.00000E+00
   -0.20120E+07        -0.60421E+08         0.00000E+00
    0.00000E+00         0.00000E+00        -0.37752E+08
 
   -0.46449E+08        -0.16464E+07         0.00000E+00
   -0.16464E+07        -0.60464E+08         0.00000E+00
    0.00000E+00         0.00000E+00        -0.37434E+08
 
   -0.44956E+08        -0.11384E+07         0.00000E+00
   -0.11384E+07        -0.60520E+08         0.00000E+00
    0.00000E+00         0.00000E+00        -0.37134E+08
 
   -0.43528E+08        -0.49802E+06         0.00000E+00
   -0.49802E+06        -0.60608E+08         0.00000E+00
    0.00000E+00         0.00000E+00        -0.36853E+08
 
   -0.42148E+08         0.27495E+06         0.00000E+00
    0.27495E+06        -0.60746E+08         0.00000E+00
    0.00000E+00         0.00000E+00        -0.36593E+08
 
   -0.40806E+08         0.11900E+07         0.00000E+00
    0.11900E+07        -0.60946E+08         0.00000E+00
    0.00000E+00         0.00000E+00        -0.36355E+08
 
   -0.39502E+08         0.22642E+07         0.00000E+00
    0.22642E+07        -0.61215E+08         0.00000E+00
    0.00000E+00         0.00000E+00        -0.36139E+08
 
   -0.38251E+08         0.35201E+07         0.00000E+00
    0.35201E+07        -0.61549E+08         0.00000E+00
    0.00000E+00         0.00000E+00        -0.35948E+08
 
   -0.37088E+08         0.49797E+07         0.00000E+00
    0.49797E+07        -0.61928E+08         0.00000E+00
    0.00000E+00         0.00000E+00        -0.35786E+08
 
   -0.36068E+08         0.66572E+07         0.00000E+00
    0.66572E+07        -0.62320E+08         0.00000E+00
    0.00000E+00         0.00000E+00        -0.35657E+08
 
   -0.57942E+08        -0.61995E+06         0.00000E+00
   -0.61995E+06        -0.60022E+08         0.00000E+00
    0.00000E+00         0.00000E+00        -0.38188E+08
 
   -0.55802E+08        -0.15361E+07         0.00000E+00
   -0.15361E+07        -0.60090E+08         0.00000E+00
    0.00000E+00         0.00000E+00        -0.37770E+08
 
   -0.53632E+08        -0.20620E+07         0.00000E+00
   -0.20620E+07        -0.60163E+08         0.00000E+00
    0.00000E+00         0.00000E+00        -0.37345E+08
 
   -0.51538E+08        -0.22703E+07         0.00000E+00
   -0.22703E+07        -0.60202E+08         0.00000E+00
    0.00000E+00         0.00000E+00        -0.36925E+08
 
   -0.49568E+08        -0.22354E+07         0.00000E+00
   -0.22354E+07        -0.60199E+08         0.00000E+00
    0.00000E+00         0.00000E+00        -0.36521E+08
 
   -0.47733E+08        -0.20175E+07         0.00000E+00
   -0.20175E+07        -0.60168E+08         0.00000E+00
    0.00000E+00         0.00000E+00        -0.36137E+08
 
   -0.46019E+08        -0.16570E+07         0.00000E+00
   -0.16570E+07        -0.60133E+08         0.00000E+00
    0.00000E+00         0.00000E+00        -0.35776E+08
 
   -0.44401E+08        -0.11770E+07         0.00000E+00
   -0.11770E+07        -0.60119E+08         0.00000E+00
    0.00000E+00         0.00000E+00        -0.35438E+08
 
   -0.42850E+08        -0.58598E+06         0.00000E+00
   -0.58598E+06        -0.60152E+08         0.00000E+00
    0.00000E+00         0.00000E+00        -0.35124E+08
 
   -0.41342E+08         0.11966E+06         0.00000E+00
    0.11966E+06        -0.60254E+08         0.00000E+00
    0.00000E+00         0.00000E+00        -0.34832E+08
 
   -0.39855E+08         0.95479E+06         0.00000E+00
    0.95479E+06        -0.60441E+08         0.00000E+00
    0.00000E+00         0.00000E+00        -0.34563E+08
 
   -0.38379E+08         0.19455E+07         0.00000E+00
    0.19455E+07        -0.60724E+08         0.00000E+00
    0.00000E+00         0.00000E+00        -0.34316E+08
 
   -0.36926E+08         0.31278E+07         0.00000E+00
    0.31278E+07        -0.61103E+08         0.00000E+00
    0.00000E+00         0.00000E+00        -0.34095E+08
 
   -0.35531E+08         0.45420E+07         0.00000E+00
    0.45420E+07        -0.61559E+08         0.00000E+00
    0.00000E+00         0.00000E+00        -0.33902E+08
 
   -0.34265E+08         0.62212E+07         0.00000E+00
    0.62212E+07        -0.62050E+08         0.00000E+00
    0.00000E+00         0.00000E+00        -0.33745E+08
 
   -0.59108E+08        -0.66661E+06         0.00000E+00
   -0.66661E+06        -0.60020E+08         0.00000E+00
    0.00000E+00         0.00000E+00        -0.36889E+08
 
   -0.56508E+08        -0.16039E+07         0.00000E+00
   -0.16039E+07        -0.60069E+08         0.00000E+00
    0.00000E+00         0.00000E+00        -0.36376E+08
 
   -0.53964E+08        -0.20887E+07         0.00000E+00
   -0.20887E+07        -0.60085E+08         0.00000E+00
    0.00000E+00         0.00000E+00        -0.35865E+08
 
   -0.51589E+08        -0.22392E+07         0.00000E+00
   -0.22392E+07        -0.60031E+08         0.00000E+00
    0.00000E+00         0.00000E+00        -0.35373E+08
 
   -0.49420E+08        -0.21609E+07         0.00000E+00
   -0.21609E+07        -0.59918E+08         0.00000E+00
    0.00000E+00         0.00000E+00        -0.34908E+08
 
   -0.47439E+08        -0.19274E+07         0.00000E+00
   -0.19274E+07        -0.59774E+08         0.00000E+00
    0.00000E+00         0.00000E+00        -0.34474E+08
 
   -0.45610E+08        -0.15814E+07         0.00000E+00
   -0.15814E+07        -0.59636E+08         0.00000E+00
    0.00000E+00         0.00000E+00        -0.34071E+08
 
   -0.43892E+08        -0.11437E+07         0.00000E+00
   -0.11437E+07        -0.59535E+08         0.00000E+00
    0.00000E+00         0.00000E+00        -0.33697E+08
 
   -0.42242E+08        -0.61999E+06         0.00000E+00
   -0.61999E+06        -0.59498E+08         0.00000E+00
    0.00000E+00         0.00000E+00        -0.33350E+08
 
   -0.40623E+08        -0.34086E+04         0.00000E+00
   -0.34086E+04        -0.59550E+08         0.00000E+00
    0.00000E+00         0.00000E+00        -0.33028E+08
 
   -0.39001E+08         0.72503E+06         0.00000E+00
    0.72503E+06        -0.59712E+08         0.00000E+00
    0.00000E+00         0.00000E+00        -0.32728E+08
 
   -0.37355E+08         0.15992E+07         0.00000E+00
    0.15992E+07        -0.60002E+08         0.00000E+00
    0.00000E+00         0.00000E+00        -0.32450E+08
 
   -0.35681E+08         0.26703E+07         0.00000E+00
    0.26703E+07        -0.60428E+08         0.00000E+00
    0.00000E+00         0.00000E+00        -0.32195E+08
 
   -0.34013E+08         0.40038E+07         0.00000E+00
    0.40038E+07        -0.60974E+08         0.00000E+00
    0.00000E+00         0.00000E+00        -0.31966E+08
 
   -0.32437E+08         0.56637E+07         0.00000E+00
    0.56637E+07        -0.61591E+08         0.00000E+00
    0.00000E+00         0.00000E+00        -0.31772E+08
 
   -0.60329E+08        -0.70643E+06         0.00000E+00
   -0.70643E+06        -0.60017E+08         0.00000E+00
    0.00000E+00         0.00000E+00        -0.35584E+08
 
   -0.57174E+08        -0.16209E+07         0.00000E+00
   -0.16209E+07        -0.60026E+08         0.00000E+00
    0.00000E+00         0.00000E+00        -0.34952E+08
 
   -0.54220E+08        -0.20147E+07         0.00000E+00
   -0.20147E+07        -0.59941E+08         0.00000E+00
    0.00000E+00         0.00000E+00        -0.34340E+08
 
   -0.51580E+08        -0.20792E+07         0.00000E+00
   -0.20792E+07        -0.59743E+08         0.00000E+00
    0.00000E+00         0.00000E+00        -0.33767E+08
 
   -0.49243E+08        -0.19539E+07         0.00000E+00
   -0.19539E+07        -0.59477E+08         0.00000E+00
    0.00000E+00         0.00000E+00        -0.33240E+08
 
   -0.47152E+08        -0.17158E+07         0.00000E+00
   -0.17158E+07        -0.59193E+08         0.00000E+00
    0.00000E+00         0.00000E+00        -0.32758E+08
 
   -0.45240E+08        -0.14012E+07         0.00000E+00
   -0.14012E+07        -0.58934E+08         0.00000E+00
    0.00000E+00         0.00000E+00        -0.32316E+08
 
   -0.43448E+08        -0.10248E+07         0.00000E+00
   -0.10248E+07        -0.58733E+08         0.00000E+00
    0.00000E+00         0.00000E+00        -0.31910E+08
 
   -0.41722E+08        -0.58827E+06         0.00000E+00
   -0.58827E+06        -0.58617E+08         0.00000E+00
    0.00000E+00         0.00000E+00        -0.31534E+08
 
   -0.40014E+08        -0.82808E+05         0.00000E+00
   -0.82808E+05        -0.58610E+08         0.00000E+00
    0.00000E+00         0.00000E+00        -0.31183E+08
 
   -0.38277E+08         0.51171E+06         0.00000E+00
    0.51171E+06        -0.58736E+08         0.00000E+00
    0.00000E+00         0.00000E+00        -0.30855E+08
 
   -0.36468E+08         0.12321E+07         0.00000E+00
    0.12321E+07        -0.59022E+08         0.00000E+00
    0.00000E+00         0.00000E+00        -0.30545E+08
 
   -0.34562E+08         0.21426E+07         0.00000E+00
    0.21426E+07        -0.59490E+08         0.00000E+00
    0.00000E+00         0.00000E+00        -0.30252E+08
 
   -0.32573E+08         0.33416E+07         0.00000E+00
    0.33416E+07        -0.60139E+08         0.00000E+00
    0.00000E+00         0.00000E+00        -0.29981E+08
 
   -0.30596E+08         0.49450E+07         0.00000E+00
    0.49450E+07        -0.60920E+08         0.00000E+00
    0.00000E+00         0.00000E+00        -0.29740E+08
 
   -0.61568E+08        -0.73078E+06         0.00000E+00
   -0.73078E+06        -0.60006E+08         0.00000E+00
    0.00000E+00         0.00000E+00        -0.34265E+08
 
   -0.57731E+08        -0.15378E+07         0.00000E+00
   -0.15378E+07        -0.59932E+08         0.00000E+00
    0.00000E+00         0.00000E+00        -0.33482E+08
 
   -0.54360E+08        -0.17725E+07         0.00000E+00
   -0.17725E+07        -0.59665E+08         0.00000E+00
    0.00000E+00         0.00000E+00        -0.32751E+08
 
   -0.51504E+08        -0.17376E+07         0.00000E+00
   -0.17376E+07        -0.59255E+08         0.00000E+00
    0.00000E+00         0.00000E+00        -0.32094E+08
 
   -0.49053E+08        -0.15836E+07         0.00000E+00
   -0.15836E+07        -0.58799E+08         0.00000E+00
    0.00000E+00         0.00000E+00        -0.31508E+08
 
   -0.46891E+08        -0.13668E+07         0.00000E+00
   -0.13668E+07        -0.58360E+08         0.00000E+00
    0.00000E+00         0.00000E+00        -0.30983E+08
 
   -0.44928E+08        -0.11088E+07         0.00000E+00
   -0.11088E+07        -0.57978E+08         0.00000E+00
    0.00000E+00         0.00000E+00        -0.30508E+08
 
   -0.43089E+08        -0.81597E+06         0.00000E+00
   -0.81597E+06        -0.57678E+08         0.00000E+00
    0.00000E+00         0.00000E+00        -0.30075E+08
 
   -0.41312E+08        -0.48645E+06         0.00000E+00
   -0.48645E+06        -0.57484E+08         0.00000E+00
    0.00000E+00         0.00000E+00        -0.29675E+08
 
   -0.39539E+08        -0.11150E+06         0.00000E+00
   -0.11150E+06        -0.57418E+08         0.00000E+00
    0.00000E+00         0.00000E+00        -0.29301E+08
 
   -0.37711E+08         0.32624E+06         0.00000E+00
    0.32624E+06        -0.57502E+08         0.00000E+00
    0.00000E+00         0.00000E+00        -0.28948E+08
 
   -0.35765E+08         0.85900E+06         0.00000E+00
    0.85900E+06        -0.57770E+08         0.00000E+00
    0.00000E+00         0.00000E+00        -0.28608E+08
 
   -0.33633E+08         0.15493E+07         0.00000E+00
    0.15493E+07        -0.58260E+08         0.00000E+00
    0.00000E+00         0.00000E+00        -0.28277E+08
 
   -0.31275E+08         0.25294E+07         0.00000E+00
    0.25294E+07        -0.59018E+08         0.00000E+00
    0.00000E+00         0.00000E+00        -0.27954E+08
 
   -0.28772E+08         0.40065E+07         0.00000E+00
    0.40065E+07        -0.60010E+08         0.00000E+00
    0.00000E+00         0.00000E+00        -0.27651E+08
 
   -0.62734E+08        -0.70951E+06         0.00000E+00
   -0.70951E+06        -0.59972E+08         0.00000E+00
    0.00000E+00         0.00000E+00        -0.32916E+08
 
   -0.58071E+08        -0.12370E+07         0.00000E+00
   -0.12370E+07        -0.59683E+08         0.00000E+00
    0.00000E+00         0.00000E+00        -0.31925E+08
 
   -0.54365E+08        -0.12674E+07         0.00000E+00
   -0.12674E+07        -0.59093E+08         0.00000E+00
    0.00000E+00         0.00000E+00        -0.31065E+08
 
   -0.51390E+08        -0.11762E+07         0.00000E+00
   -0.11762E+07        -0.58427E+08         0.00000E+00
    0.00000E+00         0.00000E+00        -0.30334E+08
 
   -0.48883E+08        -0.10418E+07         0.00000E+00
   -0.10418E+07        -0.57783E+08         0.00000E+00
    0.00000E+00         0.00000E+00        -0.29701E+08
 
   -0.46689E+08        -0.88551E+06         0.00000E+00
   -0.88551E+06        -0.57205E+08         0.00000E+00
    0.00000E+00         0.00000E+00        -0.29144E+08
 
   -0.44700E+08        -0.71372E+06         0.00000E+00
   -0.71372E+06        -0.56718E+08         0.00000E+00
    0.00000E+00         0.00000E+00        -0.28645E+08
 
   -0.42835E+08        -0.52667E+06         0.00000E+00
   -0.52667E+06        -0.56339E+08         0.00000E+00
    0.00000E+00         0.00000E+00        -0.28193E+08
 
   -0.41028E+08        -0.32123E+06         0.00000E+00
   -0.32123E+06        -0.56083E+08         0.00000E+00
    0.00000E+00         0.00000E+00        -0.27777E+08
 
   -0.39214E+08        -0.90971E+05         0.00000E+00
   -0.90971E+05        -0.55966E+08         0.00000E+00
    0.00000E+00         0.00000E+00        -0.27387E+08
 
   -0.37325E+08         0.17550E+06         0.00000E+00
    0.17550E+06        -0.56012E+08         0.00000E+00
    0.00000E+00         0.00000E+00        -0.27016E+08
 
   -0.35281E+08         0.49919E+06         0.00000E+00
    0.49919E+06        -0.56252E+08         0.00000E+00
    0.00000E+00         0.00000E+00        -0.26652E+08
 
   -0.32976E+08         0.92296E+06         0.00000E+00
    0.92296E+06        -0.56736E+08         0.00000E+00
    0.00000E+00         0.00000E+00        -0.26286E+08
 
   -0.30238E+08         0.15548E+07         0.00000E+00
    0.15548E+07        -0.57554E+08         0.00000E+00
    0.00000E+00         0.00000E+00        -0.25901E+08
 
   -0.27030E+08         0.27503E+07         0.00000E+00
    0.27503E+07        -0.58826E+08         0.00000E+00
    0.00000E+00         0.00000E+00        -0.25513E+08
 
   -0.63577E+08        -0.44540E+06         0.00000E+00
   -0.44540E+06        -0.59677E+08         0.00000E+00
    0.00000E+00         0.00000E+00        -0.31443E+08
 
   -0.58122E+08        -0.51074E+06         0.00000E+00
   -0.51074E+06        -0.58860E+08         0.00000E+00
    0.00000E+00         0.00000E+00        -0.30189E+08
 
   -0.54314E+08        -0.46818E+06         0.00000E+00
   -0.46818E+06        -0.57945E+08         0.00000E+00
    0.00000E+00         0.00000E+00        -0.29244E+08
 
   -0.51303E+08        -0.41889E+06         0.00000E+00
   -0.41889E+06        -0.57086E+08         0.00000E+00
    0.00000E+00         0.00000E+00        -0.28469E+08
 
   -0.48781E+08        -0.36442E+06         0.00000E+00
   -0.36442E+06        -0.56320E+08         0.00000E+00
    0.00000E+00         0.00000E+00        -0.27811E+08
 
   -0.46576E+08        -0.30691E+06         0.00000E+00
   -0.30691E+06        -0.55659E+08         0.00000E+00
    0.00000E+00         0.00000E+00        -0.27237E+08
 
   -0.44579E+08        -0.24633E+06         0.00000E+00
   -0.24633E+06        -0.55114E+08         0.00000E+00
    0.00000E+00         0.00000E+00        -0.26727E+08
 
   -0.42704E+08        -0.18187E+06         0.00000E+00
   -0.18187E+06        -0.54690E+08         0.00000E+00
    0.00000E+00         0.00000E+00        -0.26266E+08
 
   -0.40883E+08        -0.11204E+06         0.00000E+00
   -0.11204E+06        -0.54400E+08         0.00000E+00
    0.00000E+00         0.00000E+00        -0.25842E+08
 
   -0.39049E+08        -0.34478E+05         0.00000E+00
   -0.34478E+05        -0.54257E+08         0.00000E+00
    0.00000E+00         0.00000E+00        -0.25446E+08
 
   -0.37131E+08         0.54731E+05         0.00000E+00
    0.54731E+05        -0.54279E+08         0.00000E+00
    0.00000E+00         0.00000E+00        -0.25066E+08
 
   -0.35038E+08         0.16258E+06         0.00000E+00
    0.16258E+06        -0.54498E+08         0.00000E+00
    0.00000E+00         0.00000E+00        -0.24690E+08
 
   -0.32638E+08         0.30415E+06         0.00000E+00
    0.30415E+06        -0.54965E+08         0.00000E+00
    0.00000E+00         0.00000E+00        -0.24303E+08
 
   -0.29694E+08         0.51357E+06         0.00000E+00
    0.51357E+06        -0.55783E+08         0.00000E+00
    0.00000E+00         0.00000E+00        -0.23877E+08
 
   -0.25534E+08         0.10135E+07         0.00000E+00
    0.10135E+07        -0.57234E+08         0.00000E+00
    0.00000E+00         0.00000E+00        -0.23335E+08
 
SCALARS stressS double 
LOOKUP_TABLE default
  -54923312.9367094     
  -57272012.8351046     
  -59672601.7198756     
  -61460570.3880049     
  -62899562.5513216     
  -64121204.3069320     
  -65190367.1918626     
  -66147419.3674953     
  -67021782.8981043     
  -67837880.4275280     
  -68618988.7519682     
  -69391053.6391424     
  -70189126.1525588     
  -71070390.2407978     
  -72200991.1282655     
  -55791215.9576112     
  -57213756.0325801     
  -58803950.5701857     
  -60365176.0753339     
  -61706605.6292297     
  -62874225.4505591     
  -63907999.4218047     
  -64838907.1290902     
  -65691484.3313168     
  -66486841.1200023     
  -67244956.3975060     
  -67987013.9300528     
  -68737374.8729594     
  -69530451.8529037     
  -70331352.6830194     
  -55517929.7522397     
  -56883356.8229814     
  -58214969.0189892     
  -59499905.4996947     
  -60692859.6480773     
  -61766934.4089272     
  -62735737.1427480     
  -63616777.0707366     
  -64427075.5062074     
  -65182307.9497509     
  -65897145.2422688     
  -66585316.6041719     
  -67259044.6651481     
  -67915763.1326688     
  -68535436.4350857     
  -55362821.0205527     
  -56536801.5241111     
  -57679630.2144969     
  -58779117.3228267     
  -59817002.3143321     
  -60779864.7368596     
  -61664814.0958022     
  -62478703.5306258     
  -63230953.0508316     
  -63931310.8895992     
  -64588671.3492848     
  -65209950.6834296     
  -65796819.6443041     
  -66342643.2419153     
  -66828064.0140136     
  -55256547.2916457     
  -56234971.1852222     
  -57202359.3519353     
  -58143087.8679330     
  -59042991.4319364     
  -59891537.1771054     
  -60683821.1983365     
  -61420073.0145079     
  -62103869.4623740     
  -62739780.1039280     
  -63331802.0982102     
  -63881696.6367893     
  -64387204.2033276     
  -64839967.5854413     
  -65224734.9915347     
  -55171060.2149235     
  -55968415.2613437     
  -56775445.4396491     
  -57572537.8511452     
  -58345423.1252587     
  -59083791.4749751     
  -59781287.7205453     
  -60435112.2692594     
  -61044922.3334073     
  -61611472.8407613     
  -62135184.1518432     
  -62614822.3496205     
  -63046212.5896177     
  -63421287.2371507     
  -63727721.7564795     
  -55081533.4709582     
  -55722511.9308960     
  -56386201.6983547     
  -57053172.5522049     
  -57708824.3866683     
  -58342531.2124886     
  -58946981.3778945     
  -59517580.1446479     
  -60051653.1734119     
  -60547461.5392189     
  -61003167.6854572     
  -61415838.2771962     
  -61780606.3541544     
  -62090108.8764317     
  -62334381.7595138     
  -54976789.9506130     
  -55484995.7986371     
  -56023183.2157427     
  -56573328.4218463     
  -57121428.1684752     
  -57656889.6866964     
  -58171944.6483249     
  -58661045.5754947     
  -59120202.9462634     
  -59546251.1040838     
  -59936089.5501216     
  -60285978.9561413     
  -60590972.4820940     
  -60844575.4240961     
  -61038704.2777216     
  -54851666.3642337     
  -55248166.5823075     
  -55677484.6725448     
  -56123608.3707174     
  -56573717.7433581     
  -57017790.2692152     
  -57448136.2184272     
  -57858898.4154041     
  -58245516.5069801     
  -58604166.6464161     
  -58931207.3513465     
  -59222679.9951434     
  -59473921.9373691     
  -59679346.1718578     
  -59832427.4765577     
  -54704558.2900710     
  -55007483.5114383     
  -55342733.7529641     
  -55696575.6804571     
  -56057772.0746118     
  -56417306.0847273     
  -56768037.0014504     
  -57104312.2342470     
  -57421553.6511559     
  -57715835.7419266     
  -57983480.9444834     
  -58220705.5988941     
  -58423353.4588669     
  -58586750.4053936     
  -58705702.1190388     
  -54536059.1519532     
  -54760623.9074701     
  -55014494.6556697     
  -55286375.6203291     
  -55566873.4885392     
  -55848303.7862451     
  -56124441.8774816     
  -56390236.4780046     
  -56641502.7938415     
  -56874613.2862036     
  -57086206.7175443     
  -57272939.1423841     
  -57431301.1787303     
  -57557522.4547625     
  -57647576.3454717     
  -54348272.1967953     
  -54506817.4555862     
  -54689764.1098538     
  -54888355.6302071     
  -55095218.5587876     
  -55304232.5645800     
  -55510359.0372113     
  -55709440.1757288     
  -55897982.4156147     
  -56072939.0604290     
  -56231508.1485976     
  -56370962.3510039     
  -56488527.0938265     
  -56581320.3161089     
  -56646362.1481398     
  -54144384.9478529     
  -54246410.2128247     
  -54366589.5540533     
  -54498766.6217189     
  -54637700.5364052     
  -54778990.9633448     
  -54918971.8026945     
  -55054582.4167721     
  -55183226.8612530     
  -55302632.3534821     
  -55410718.5701037     
  -55505489.2861293     
  -55584956.9810996     
  -55647109.0236083     
  -55689920.8879379     
  -53928370.4676467     
  -53980558.0895296     
  -54043792.0240562     
  -54114538.6516511     
  -54189750.6331696     
  -54266840.9035715     
  -54343632.4822912     
  -54418291.4867512     
  -54489251.1208432     
  -54555134.3909878     
  -54614683.0753237     
  -54666700.0520561     
  -54710011.3573861     
  -54743453.1545313     
  -54765887.1449552     
  -53704749.0567244     
  -53710993.8996152     
  -53720755.9188936     
  -53733110.1187264     
  -53747218.9039390     
  -53762348.8449254     
  -53777869.4062511     
  -53793240.1936437     
  -53807992.1566132     
  -53821707.1537539     
  -53833999.4841241     
  -53844502.4342570     
  -53852862.5023382     
  -53858743.6237221     
  -53861843.3668156     
  -53478381.0365803     
  -53439833.0056852     
  -53397255.8562146     
  -53352286.7302957     
  -53306275.5781116     
  -53260337.4463892     
  -53215393.9111536     
  -53172209.4901715     
  -53131426.0182580     
  -53093595.7628632     
  -53059212.6788525     
  -53028740.6382884     
  -53002637.5817896     
  -52981375.1335729     
  -52965454.1278714     
  -53254276.1556280     
  -53169396.3805946     
  -53073298.2066316     
  -52970109.8791790     
  -52863315.4131314     
  -52755833.6954194     
  -52650097.2353633     
  -52548135.3311789     
  -52451661.4347826     
  -52362160.9484934     
  -52280973.7868455     
  -52209365.6486568     
  -52148582.7688376     
  -52099886.6283674     
  -52064567.3931557     
  -53037412.0904615     
  -52902037.0140810     
  -52748960.1574533     
  -52584717.1140874     
  -52414849.6727101     
  -52244001.3687628     
  -52076029.4144805     
  -51914135.7267716     
  -51761011.9707962     
  -51618988.5091832     
  -51490174.9556455     
  -51376580.1849237     
  -51280201.5289782     
  -51203075.9994594     
  -51147290.3270417     
  -52832557.6479590     
  -52639958.6468794     
  -52424211.1936034     
  -52194178.4861828     
  -51957371.0485545     
  -51720046.6241705     
  -51487353.6367882     
  -51263516.6280786     
  -51052050.5028489     
  -50855984.0517827     
  -50678071.4594310     
  -50520971.9161615     
  -50387380.8583127     
  -50280101.1610571     
  -50202048.5941027     
  -52644097.5654294     
  -52385015.5111380     
  -52098700.3488523     
  -51796290.6298837     
  -51487175.4237132     
  -51179085.1451304     
  -50878270.2646333     
  -50589756.8970938     
  -50317651.9074380     
  -50065463.6951753     
  -49836405.3776696     
  -49633651.1347410     
  -49460521.7758716     
  -49320582.0582909     
  -49217640.5058239     
  -52475855.6026090     
  -52138477.5442521     
  -51771486.2960156     
  -51388304.3427794     
  -51000120.1473981     
  -50615957.5065430     
  -50242905.1483175     
  -49886474.5136648     
  -49551032.6596353     
  -49240254.8560369     
  -48957549.0809040     
  -48706413.4801352     
  -48490694.7976167     
  -48314722.1189618     
  -48183300.5354978     
  -52330910.0309729     
  -51900735.0184734     
  -51440673.5473473     
  -50966549.2677655     
  -50491290.9260807     
  -50024976.8506380     
  -49575157.8485540     
  -49147378.9927503     
  -48745799.6564117     
  -48373825.6326428     
  -48034692.2451322     
  -47731954.9556417     
  -47469848.0569304     
  -47253473.5948395     
  -47088790.4745194     
  -52211388.0321569     
  -51670893.7195264     
  -51102890.8380129     
  -50525897.8104134     
  -49954538.6820896     
  -49399591.7140651     
  -48868509.2027914     
  -48366219.7365439     
  -47896024.8205617     
  -47460465.7771910     
  -47062102.9893310     
  -46704176.1215359     
  -46391107.1181871     
  -46128780.5956588     
  -45924541.0789672     
  -52118205.9760220     
  -51446163.0224567     
  -50752494.2502949     
  -50058974.8407967     
  -49381836.6970995     
  -48731953.2304753     
  -48115799.2578257     
  -47536748.2897399     
  -46996364.8392790     
  -46495544.5829234     
  -46035499.7865368     
  -45618627.5674580     
  -45249224.7031654     
  -44933951.6097570     
  -44681873.1797048     
  -52050676.3022934     
  -51220826.9733451     
  -50380271.3205161     
  -49554964.5388609     
  -48762409.7336088     
  -48012406.5348925     
  -47309015.2133569     
  -46652724.3959039     
  -46042242.9111964     
  -45475860.4390068     
  -44952575.4795864     
  -44473166.5890190     
  -44041281.4069895     
  -43664246.8412779     
  -43353342.6803608     
  -52005762.1277098     
  -50984325.1230558     
  -49971195.4075905     
  -48997801.7193768     
  -48081648.0819267     
  -47229013.1343338     
  -46439189.2506018     
  -45708008.9065894     
  -45030082.7029885     
  -44400070.7294685     
  -43813677.9787881     
  -43268947.3575814     
  -42767795.2847323     
  -42317877.8553670     
  -41933273.7289195     
  -51976424.1754580     
  -50717171.6154029     
  -49500347.8825419     
  -48363567.5679470     
  -47320059.9566233     
  -46367436.5132984     
  -45496565.8639283     
  -44696790.8435598     
  -43957553.2859727     
  -43269042.9479337     
  -42622647.0583173     
  -42011757.6668373     
  -41434732.2420440     
  -40897715.3650692     
  -40418743.6257930     
  -51946400.8775269     
  -50381470.2365237     
  -48925288.8403791     
  -47617542.1701707     
  -46453502.2448019     
  -45411625.4794043     
  -44471237.8865256     
  -43613978.9193244     
  -42823723.3723401     
  -42085934.5571274     
  -41387044.8777033     
  -40714317.1353603     
  -40056369.6952941     
  -39415658.8926451     
  -38811003.9750086     
  -51873875.8451543     
  -49893032.2125435     
  -48174260.8773242     
  -46716942.5057559     
  -45455626.8747884     
  -44345788.7505734     
  -43354326.1970473     
  -42455739.4261657     
  -41629049.4254099     
  -40855648.4693382     
  -40117487.7341427     
  -39395095.9566725     
  -38665850.8295292     
  -37897610.6086919     
  -37123293.9315825     
  -51565815.4831090     
  -49056887.2479312     
  -47167562.0318951     
  -45619378.9016049     
  -44303659.2864966     
  -43157442.2108072     
  -42139566.4369416     
  -41220093.2556956     
  -40375155.5289151     
  -39583738.3022839     
  -38825021.1665885     
  -38075223.8470810     
  -37301780.5594147     
  -36451239.7179350     
  -35367879.3028455     
SCALARS 2waySource double 
LOOKUP_TABLE default
  1.225080810473768E-005
  3.372527247988316E-006
 -2.849528867512314E-007
 -1.994109434790003E-006
 -2.655869065501316E-006
 -2.731391529805711E-006
 -2.487093283572364E-006
 -2.091134576495167E-006
 -1.659412726271361E-006
 -1.283093397000176E-006
 -1.048669493062580E-006
 -1.057725752702901E-006
 -1.457561109020969E-006
 -2.487830022007064E-006
 -4.881838499382034E-006
  1.211541273024158E-005
  8.688155755929112E-006
  6.455234050090475E-006
  5.435289592497457E-006
  5.130049559360804E-006
  5.240421311495899E-006
  5.575782732432189E-006
  6.012291318675002E-006
  6.462761347798540E-006
  6.858121479834506E-006
  7.133382540678427E-006
  7.214014630068504E-006
  7.001317712306487E-006
  6.325971609403191E-006
  5.004525872235886E-006
  1.230231261488497E-005
  1.171424765469518E-005
  1.143801746413358E-005
  1.142882046546519E-005
  1.170702849846682E-005
  1.215924306163123E-005
  1.270041860734461E-005
  1.326772383174889E-005
  1.381474771423157E-005
  1.430404311120927E-005
  1.470104438062101E-005
  1.496915633485526E-005
  1.506345519421191E-005
  1.494115146152685E-005
  1.459550796036314E-005
  1.099376683512092E-005
  1.336880641882948E-005
  1.483214544262143E-005
  1.595663139664847E-005
  1.691823168226950E-005
  1.779849586038294E-005
  1.861584883290829E-005
  1.937343536412893E-005
  2.006947683219053E-005
  2.070126931608861E-005
  2.126668018974017E-005
  2.176558439847789E-005
  2.220529383303128E-005
  2.261390387864219E-005
  2.308123387328085E-005
  9.643551395792978E-006
  1.399243597603588E-005
  1.694399919814122E-005
  1.906504837052743E-005
  2.069539965367017E-005
  2.201678560546734E-005
  2.313388344493632E-005
  2.410747481041585E-005
  2.497720419648656E-005
  2.577281493159342E-005
  2.652142630936686E-005
  2.725417612518733E-005
  2.801506644877238E-005
  2.887688612594615E-005
  2.996412653677633E-005
  8.289403242916585E-006
  1.394207142989677E-005
  1.794711647039447E-005
  2.085513826569629E-005
  2.304336983889042E-005
  2.475748406271216E-005
  2.615429040564513E-005
  2.733734795447195E-005
  2.837892383809139E-005
  2.933505269782882E-005
  3.025614273033473E-005
  3.119623493173106E-005
  3.222342941263694E-005
  3.343299881371902E-005
  3.496300270334133E-005
  6.986680262043752E-006
  1.336545651485390E-005
  1.801135824708430E-005
  2.143992929073631E-005
  2.402820255620277E-005
  2.604140283243989E-005
  2.766313138464607E-005
  2.902162307461173E-005
  3.021041825100018E-005
  3.130346627423885E-005
  3.236687013789124E-005
  3.346904940925102E-005
  3.469088347371837E-005
  3.613669626612788E-005
  3.794562546064981E-005
  5.783938988609974E-006
  1.237581508079719E-005
  1.727827409183159E-005
  2.095704481272474E-005
  2.376367590904924E-005
  2.595703258995865E-005
  2.772492791865374E-005
  2.920426922856289E-005
  3.049803410761234E-005
  3.168902814883213E-005
  3.285110101258508E-005
  3.405891019048095E-005
  3.539712900034624E-005
  3.696956170698380E-005
  3.890804348695029E-005
  4.721062943959317E-006
  1.107542795754179E-005
  1.588928406421391E-005
  1.956254263538164E-005
  2.240413776182130E-005
  2.464833980992220E-005
  2.647076484182821E-005
  2.800341957510414E-005
  2.934810207437282E-005
  3.058786917389824E-005
  3.179682255917827E-005
  3.304869840615180E-005
  3.442474436915060E-005
  3.602115485000222E-005
  3.795606335718006E-005
  3.825122028443799E-006
  9.562494194332752E-006
  1.398998825396473E-005
  1.742926160754335E-005
  2.013416796135727E-005
  2.230182763578909E-005
  2.408374467657821E-005
  2.559658563113533E-005
  2.693216421004831E-005
  2.816637826502663E-005
  2.936709433869241E-005
  3.060115497992513E-005
  3.194071617204386E-005
  3.346904490652179E-005
  3.528578967401776E-005
  3.109690884318216E-006
  7.929466271444174E-006
  1.172766820525626E-005
  1.474018485234766E-005
  1.715788914593727E-005
  1.913251471064413E-005
  2.078333282567996E-005
  2.220412319097625E-005
  2.347000782185068E-005
  2.464385221642459E-005
  2.578210035157059E-005
  2.694003033571409E-005
  2.817646653470326E-005
  2.955796510451053E-005
  3.116243983739724E-005
  2.575301944766422E-006
  6.259993786823723E-006
  9.245601875615313E-006
  1.168001179177944E-005
  1.368753735458382E-005
  1.537006156548809E-005
  1.680972771036368E-005
  1.807251973729920E-005
  1.921223264952755E-005
  2.027447813792720E-005
  2.130050003089105E-005
  2.233067161861172E-005
  2.340759755259196E-005
  2.457874934448795E-005
  2.589854051358489E-005
  2.210898800413595E-006
  4.626080187146597E-006
  6.677188491203312E-006
  8.426673158043346E-006
  9.932614501265013E-006
  1.124587369395505E-005
  1.240937141845688E-005
  1.345873057703883E-005
  1.442371974251652E-005
  1.533008775413105E-005
  1.620150064802980E-005
  1.706137917215826E-005
  1.793448575291827E-005
  1.884812566380461E-005
  1.983281522458317E-005
  1.995956453733281E-006
  3.086253485259486E-006
  4.141145805102451E-006
  5.144112698733716E-006
  6.090590470806990E-006
  6.982026620382184E-006
  7.822407619648915E-006
  8.616467032135242E-006
  9.368982032894838E-006
  1.008471815888363E-005
  1.076869633099584E-005
  1.142653710286529E-005
  1.206468611480916E-005
  1.269034415619448E-005
  1.331091863121045E-005
  1.902992916458938E-006
  1.684935750670660E-006
  1.738327967124939E-006
  1.976971714876957E-006
  2.339755856532400E-006
  2.782536006462881E-006
  3.272603165379384E-006
  3.784984770364645E-006
  4.299999475983306E-006
  4.801624794217811E-006
  5.276340921674159E-006
  5.712187994500892E-006
  6.097819883060826E-006
  6.421357822914525E-006
  6.668844152026652E-006
  1.900213806603812E-006
  4.529216444608453E-007
 -4.497573495982876E-007
 -9.526449869857571E-007
 -1.165575388413654E-006
 -1.172830680172616E-006
 -1.040066634285619E-006
 -8.194014794039366E-007
 -5.531982344289515E-007
 -2.769539451615137E-007
 -2.161865565387550E-008
  1.843978333146308E-007
  3.133141073705858E-007
  3.359620035305231E-007
  2.194698685555737E-007
  1.954078804746229E-006
 -5.912651506974384E-007
 -2.360913302465550E-006
 -3.546451434572519E-006
 -4.297611910332939E-006
 -4.732283648626649E-006
 -4.944235717014161E-006
 -5.009120784382016E-006
 -4.989216210763912E-006
 -4.937265393660030E-006
 -4.899706751112818E-006
 -4.919524315879098E-006
 -5.038920747559675E-006
 -5.301997439550812E-006
 -5.757624418732833E-006
  2.031633486603129E-006
 -1.439415167651945E-006
 -3.951007312609312E-006
 -5.729612313641568E-006
 -6.955666800648009E-006
 -7.773555309720313E-006
 -8.299627879432315E-006
 -8.628708840647248E-006
 -8.839467456216623E-006
 -8.998943159811177E-006
 -9.166458068356944E-006
 -9.397110157269752E-006
 -9.745018494960218E-006
 -1.026648154240197E-005
 -1.102320639035472E-005
  2.102504211640509E-006
 -2.091341302710203E-006
 -5.191852391344376E-006
 -7.449090718795079E-006
 -9.065150061070944E-006
 -1.020363588944016E-005
 -1.099757382689939E-005
 -1.155609775249514E-005
 -1.197019074761008E-005
 -1.231768230718225E-005
 -1.266766038047473E-005
 -1.308443697605990E-005
 -1.363120157783928E-005
 -1.437349604044334E-005
 -1.538264116518378E-005
  2.140500834580465E-006
 -2.552467520631380E-006
 -6.068519162275429E-006
 -8.671062008890207E-006
 -1.057535129525982E-005
 -1.195710133169118E-005
 -1.295998177267043E-005
 -1.370225920009108E-005
 -1.428274217409598E-005
 -1.478611507449436E-005
 -1.528772153679836E-005
 -1.585787036680420E-005
 -1.656576096873414E-005
 -1.748314069086694E-005
 -1.868780181739071E-005
  2.124810050078648E-006
 -2.831439165370302E-006
 -6.576295112798822E-006
 -9.377664959894317E-006
 -1.145633331277462E-005
 -1.299340128074555E-005
 -1.413716972707747E-005
 -1.500963811519475E-005
 -1.571261415653418E-005
 -1.633334813322501E-005
 -1.694962423740970E-005
 -1.763431116386724E-005
 -1.845944584843125E-005
 -1.949996150688046E-005
 -2.083716282765134E-005
  2.040793466589533E-006
 -2.937796783620042E-006
 -6.717373968216605E-006
 -9.563228154908526E-006
 -1.169515042622865E-005
 -1.329340436110773E-005
 -1.450492887149489E-005
 -1.544979649522922E-005
 -1.622763022780916E-005
 -1.692362398833938E-005
 -1.761393873578756E-005
 -1.837042439349918E-005
 -1.926475244995230E-005
 -2.037211414664580E-005
 -2.177461189799196E-005
  1.880436234898203E-006
 -2.879612689096769E-006
 -6.497157129339137E-006
 -9.229915366050847E-006
 -1.129146451945009E-005
 -1.285541838148725E-005
 -1.406114868788488E-005
 -1.502066412788215E-005
 -1.582574355085278E-005
 -1.655454847269348E-005
 -1.727734661132907E-005
 -1.806131418247389E-005
 -1.897459218952880E-005
 -2.008983565877097E-005
 -2.148749575599294E-005
  1.642543892158457E-006
 -2.660745585417821E-006
 -5.919713016496079E-006
 -8.382452965644148E-006
 -1.025248281419401E-005
 -1.169086555598208E-005
 -1.282233943219983E-005
 -1.374378689400648E-005
 -1.453283608539858E-005
 -1.525528832822083E-005
 -1.597109187445365E-005
 -1.673908857634074E-005
 -1.762079972343984E-005
 -1.868370987186203E-005
 -2.000438187103682E-005
  1.332886376753018E-006
 -2.276838727139550E-006
 -4.981305114908954E-006
 -7.021190967642512E-006
 -8.587071098929501E-006
 -9.819914920205314E-006
 -1.082049869930713E-005
 -1.166197875469932E-005
 -1.240085722140947E-005
 -1.308505436866757E-005
 -1.375974067771770E-005
 -1.447172475916499E-005
 -1.527297274778323E-005
 -1.622320994643631E-005
 -1.739302375114067E-005
  9.648673598055509E-007
 -1.707907783194794E-006
 -3.659491011055598E-006
 -5.132263488131703E-006
 -6.299235744129294E-006
 -7.267880417035039E-006
 -8.101064172127148E-006
 -8.837764730187239E-006
 -9.506451327311270E-006
 -1.013204866222191E-005
 -1.074046602402126E-005
 -1.136279051346505E-005
 -1.203810283878991E-005
 -1.281625557639406E-005
 -1.375905418935238E-005
  5.620178284101085E-007
 -9.009548215547329E-007
 -1.892443173690105E-006
 -2.673763943590541E-006
 -3.382832350469073E-006
 -4.064582911149229E-006
 -4.722867526959335E-006
 -5.352851609883834E-006
 -5.949888371499763E-006
 -6.512397240961028E-006
 -7.043238086193605E-006
 -7.552110349567659E-006
 -8.062595633495900E-006
 -8.610174009625809E-006
 -9.246883997880972E-006
  1.725111626959776E-007
  2.759657509702988E-007
  4.629539528805271E-007
  4.381108479733019E-007
  1.739921671109353E-007
 -2.490120201303724E-007
 -7.608236774710174E-007
 -1.308449243142533E-006
 -1.853606461407710E-006
 -2.367975661638329E-006
 -2.829504675377138E-006
 -3.221229645327037E-006
 -3.534667077135051E-006
 -3.800706079978235E-006
 -4.042974838072685E-006
 -7.552746918990862E-008
  2.195494278350173E-006
  3.693144996140090E-006
  4.300325809174161E-006
  4.370254285854101E-006
  4.119352704672891E-006
  3.689307152184228E-006
  3.174264377655160E-006
  2.640469263791047E-006
  2.138752701599466E-006
  1.713565488637614E-006
  1.410281972045701E-006
  1.279742399062526E-006
  1.376534751332301E-006
  1.588729323337544E-006
  7.452433311413051E-007
  5.837929871708096E-006
  8.046567764343267E-006
  8.960968768078670E-006
  9.159379929620599E-006
  8.947209017391569E-006
  8.506259541857945E-006
  7.954593579716245E-006
  7.375241946162654E-006
  6.833197810014957E-006
  6.387712272412591E-006
  6.104052096497773E-006
  6.068823236179251E-006
  6.419789188204486E-006
  7.367135661800471E-006
SCALARS poroP double 
LOOKUP_TABLE default
  8.111845677747069E-006
  1.052655334505825E-006
  0.000000000000000E+000
  0.000000000000000E+000
  0.000000000000000E+000
  0.000000000000000E+000
  0.000000000000000E+000
  0.000000000000000E+000
  0.000000000000000E+000
  0.000000000000000E+000
  0.000000000000000E+000
  0.000000000000000E+000
  0.000000000000000E+000
  0.000000000000000E+000
  0.000000000000000E+000
  8.723651773368448E-007
  0.000000000000000E+000
  0.000000000000000E+000
  0.000000000000000E+000
  0.000000000000000E+000
  0.000000000000000E+000
  0.000000000000000E+000
  0.000000000000000E+000
  0.000000000000000E+000
  0.000000000000000E+000
  0.000000000000000E+000
  0.000000000000000E+000
  0.000000000000000E+000
  0.000000000000000E+000
  0.000000000000000E+000
  0.000000000000000E+000
  0.000000000000000E+000
  0.000000000000000E+000
  0.000000000000000E+000
  0.000000000000000E+000
  0.000000000000000E+000
  0.000000000000000E+000
  0.000000000000000E+000
  0.000000000000000E+000
  0.000000000000000E+000
  0.000000000000000E+000
  0.000000000000000E+000
  0.000000000000000E+000
  0.000000000000000E+000
  0.000000000000000E+000
  0.000000000000000E+000
  0.000000000000000E+000
  0.000000000000000E+000
  0.000000000000000E+000
  0.000000000000000E+000
  0.000000000000000E+000
  0.000000000000000E+000
  0.000000000000000E+000
  0.000000000000000E+000
  0.000000000000000E+000
  0.000000000000000E+000
  0.000000000000000E+000
  0.000000000000000E+000
  0.000000000000000E+000
  0.000000000000000E+000
  0.000000000000000E+000
  0.000000000000000E+000
  0.000000000000000E+000
  0.000000000000000E+000
  0.000000000000000E+000
  0.000000000000000E+000
  0.000000000000000E+000
  0.000000000000000E+000
  0.000000000000000E+000
  0.000000000000000E+000
  0.000000000000000E+000
  0.000000000000000E+000
  0.000000000000000E+000
  0.000000000000000E+000
  0.000000000000000E+000
  0.000000000000000E+000
  0.000000000000000E+000
  0.000000000000000E+000
  0.000000000000000E+000
  0.000000000000000E+000
  0.000000000000000E+000
  0.000000000000000E+000
  0.000000000000000E+000
  0.000000000000000E+000
  0.000000000000000E+000
  0.000000000000000E+000
  0.000000000000000E+000
  0.000000000000000E+000
  0.000000000000000E+000
  0.000000000000000E+000
  0.000000000000000E+000
  0.000000000000000E+000
  0.000000000000000E+000
  0.000000000000000E+000
  0.000000000000000E+000
  0.000000000000000E+000
  0.000000000000000E+000
  0.000000000000000E+000
  0.000000000000000E+000
  0.000000000000000E+000
  0.000000000000000E+000
  0.000000000000000E+000
  0.000000000000000E+000
  0.000000000000000E+000
  0.000000000000000E+000
  0.000000000000000E+000
  0.000000000000000E+000
  0.000000000000000E+000
  0.000000000000000E+000
  0.000000000000000E+000
  0.000000000000000E+000
  0.000000000000000E+000
  0.000000000000000E+000
  0.000000000000000E+000
  0.000000000000000E+000
  0.000000000000000E+000
  0.000000000000000E+000
  0.000000000000000E+000
  0.000000000000000E+000
  0.000000000000000E+000
  0.000000000000000E+000
  0.000000000000000E+000
  0.000000000000000E+000
  0.000000000000000E+000
  0.000000000000000E+000
  0.000000000000000E+000
  0.000000000000000E+000
  0.000000000000000E+000
  0.000000000000000E+000
  0.000000000000000E+000
  0.000000000000000E+000
  0.000000000000000E+000
  0.000000000000000E+000
  0.000000000000000E+000
  0.000000000000000E+000
  0.000000000000000E+000
  0.000000000000000E+000
  0.000000000000000E+000
  0.000000000000000E+000
  0.000000000000000E+000
  0.000000000000000E+000
  0.000000000000000E+000
  0.000000000000000E+000
  0.000000000000000E+000
  0.000000000000000E+000
  0.000000000000000E+000
  0.000000000000000E+000
  0.000000000000000E+000
  0.000000000000000E+000
  0.000000000000000E+000
  0.000000000000000E+000
  0.000000000000000E+000
  0.000000000000000E+000
  0.000000000000000E+000
  0.000000000000000E+000
  0.000000000000000E+000
  0.000000000000000E+000
  0.000000000000000E+000
  0.000000000000000E+000
  0.000000000000000E+000
  0.000000000000000E+000
  0.000000000000000E+000
  0.000000000000000E+000
  0.000000000000000E+000
  0.000000000000000E+000
  0.000000000000000E+000
  0.000000000000000E+000
  0.000000000000000E+000
  0.000000000000000E+000
  0.000000000000000E+000
  0.000000000000000E+000
  0.000000000000000E+000
  0.000000000000000E+000
  0.000000000000000E+000
  0.000000000000000E+000
  0.000000000000000E+000
  0.000000000000000E+000
  0.000000000000000E+000
  0.000000000000000E+000
  0.000000000000000E+000
  0.000000000000000E+000
  0.000000000000000E+000
  0.000000000000000E+000
  0.000000000000000E+000
  0.000000000000000E+000
  0.000000000000000E+000
  0.000000000000000E+000
  0.000000000000000E+000
  0.000000000000000E+000
  0.000000000000000E+000
  0.000000000000000E+000
  0.000000000000000E+000
  0.000000000000000E+000
  0.000000000000000E+000
  0.000000000000000E+000
  0.000000000000000E+000
  0.000000000000000E+000
  0.000000000000000E+000
  0.000000000000000E+000
  0.000000000000000E+000
  0.000000000000000E+000
  0.000000000000000E+000
  0.000000000000000E+000
  0.000000000000000E+000
  0.000000000000000E+000
  0.000000000000000E+000
  0.000000000000000E+000
  0.000000000000000E+000
  0.000000000000000E+000
  0.000000000000000E+000
  0.000000000000000E+000
  0.000000000000000E+000
  0.000000000000000E+000
  0.000000000000000E+000
  0.000000000000000E+000
  0.000000000000000E+000
  0.000000000000000E+000
  0.000000000000000E+000
  0.000000000000000E+000
  0.000000000000000E+000
  0.000000000000000E+000
  0.000000000000000E+000
  0.000000000000000E+000
  0.000000000000000E+000
  0.000000000000000E+000
  0.000000000000000E+000
  0.000000000000000E+000
  0.000000000000000E+000
  0.000000000000000E+000
  0.000000000000000E+000
  0.000000000000000E+000
  0.000000000000000E+000
  0.000000000000000E+000
  0.000000000000000E+000
  0.000000000000000E+000
  0.000000000000000E+000
  0.000000000000000E+000
  0.000000000000000E+000
  0.000000000000000E+000
  0.000000000000000E+000
  0.000000000000000E+000
  0.000000000000000E+000
  0.000000000000000E+000
  0.000000000000000E+000
  0.000000000000000E+000
  0.000000000000000E+000
  0.000000000000000E+000
  0.000000000000000E+000
  0.000000000000000E+000
  0.000000000000000E+000
  0.000000000000000E+000
  0.000000000000000E+000
  0.000000000000000E+000
  0.000000000000000E+000
  0.000000000000000E+000
  0.000000000000000E+000
  0.000000000000000E+000
  0.000000000000000E+000
  0.000000000000000E+000
  0.000000000000000E+000
  0.000000000000000E+000
  0.000000000000000E+000
  0.000000000000000E+000
  0.000000000000000E+000
  0.000000000000000E+000
  0.000000000000000E+000
  0.000000000000000E+000
  0.000000000000000E+000
  0.000000000000000E+000
  0.000000000000000E+000
  0.000000000000000E+000
  0.000000000000000E+000
  0.000000000000000E+000
  0.000000000000000E+000
  0.000000000000000E+000
  0.000000000000000E+000
  0.000000000000000E+000
  0.000000000000000E+000
  0.000000000000000E+000
  0.000000000000000E+000
  0.000000000000000E+000
  0.000000000000000E+000
  0.000000000000000E+000
  0.000000000000000E+000
  0.000000000000000E+000
  0.000000000000000E+000
  0.000000000000000E+000
  0.000000000000000E+000
  0.000000000000000E+000
  0.000000000000000E+000
  0.000000000000000E+000
  0.000000000000000E+000
  0.000000000000000E+000
  0.000000000000000E+000
  0.000000000000000E+000
  0.000000000000000E+000
  0.000000000000000E+000
  0.000000000000000E+000
  0.000000000000000E+000
  0.000000000000000E+000
  0.000000000000000E+000
  0.000000000000000E+000
  0.000000000000000E+000
  0.000000000000000E+000
  0.000000000000000E+000
  0.000000000000000E+000
  0.000000000000000E+000
  0.000000000000000E+000
  0.000000000000000E+000
  0.000000000000000E+000
  0.000000000000000E+000
  0.000000000000000E+000
  0.000000000000000E+000
  0.000000000000000E+000
  0.000000000000000E+000
  0.000000000000000E+000
  0.000000000000000E+000
  0.000000000000000E+000
  0.000000000000000E+000
  0.000000000000000E+000
  0.000000000000000E+000
  0.000000000000000E+000
  0.000000000000000E+000
  0.000000000000000E+000
  0.000000000000000E+000
  0.000000000000000E+000
  0.000000000000000E+000
  0.000000000000000E+000
  0.000000000000000E+000
  0.000000000000000E+000
  0.000000000000000E+000
  0.000000000000000E+000
  0.000000000000000E+000
  0.000000000000000E+000
  0.000000000000000E+000
  0.000000000000000E+000
  0.000000000000000E+000
  0.000000000000000E+000
  0.000000000000000E+000
  0.000000000000000E+000
  0.000000000000000E+000
  0.000000000000000E+000
  0.000000000000000E+000
  0.000000000000000E+000
  0.000000000000000E+000
  0.000000000000000E+000
  0.000000000000000E+000
  0.000000000000000E+000
  0.000000000000000E+000
  0.000000000000000E+000
  0.000000000000000E+000
  0.000000000000000E+000
  0.000000000000000E+000
  0.000000000000000E+000
  0.000000000000000E+000
  0.000000000000000E+000
  0.000000000000000E+000
  0.000000000000000E+000
  0.000000000000000E+000
  0.000000000000000E+000
  0.000000000000000E+000
  0.000000000000000E+000
  0.000000000000000E+000
  0.000000000000000E+000
  0.000000000000000E+000
  0.000000000000000E+000
  0.000000000000000E+000
  0.000000000000000E+000
  0.000000000000000E+000
  0.000000000000000E+000
  0.000000000000000E+000
  0.000000000000000E+000
  0.000000000000000E+000
  0.000000000000000E+000
  0.000000000000000E+000
  0.000000000000000E+000
  0.000000000000000E+000
  0.000000000000000E+000
  0.000000000000000E+000
  0.000000000000000E+000
  0.000000000000000E+000
  0.000000000000000E+000
  0.000000000000000E+000
  0.000000000000000E+000
  0.000000000000000E+000
  0.000000000000000E+000
  0.000000000000000E+000
  0.000000000000000E+000
  0.000000000000000E+000
  0.000000000000000E+000
  0.000000000000000E+000
  0.000000000000000E+000
  0.000000000000000E+000
  0.000000000000000E+000
  0.000000000000000E+000
  0.000000000000000E+000
  0.000000000000000E+000
  0.000000000000000E+000
  0.000000000000000E+000
  0.000000000000000E+000
  0.000000000000000E+000
  0.000000000000000E+000
  0.000000000000000E+000
  0.000000000000000E+000
  0.000000000000000E+000
  0.000000000000000E+000
  0.000000000000000E+000
  0.000000000000000E+000
  0.000000000000000E+000
  0.000000000000000E+000
  0.000000000000000E+000
  0.000000000000000E+000
  0.000000000000000E+000
  0.000000000000000E+000
  0.000000000000000E+000
  0.000000000000000E+000
  0.000000000000000E+000
  0.000000000000000E+000
  0.000000000000000E+000
  0.000000000000000E+000
  0.000000000000000E+000
  0.000000000000000E+000
  0.000000000000000E+000
  0.000000000000000E+000
  0.000000000000000E+000
  0.000000000000000E+000
  0.000000000000000E+000
  0.000000000000000E+000
  0.000000000000000E+000
  0.000000000000000E+000
  0.000000000000000E+000
  0.000000000000000E+000
  0.000000000000000E+000
  0.000000000000000E+000
  0.000000000000000E+000
  0.000000000000000E+000
  0.000000000000000E+000
  0.000000000000000E+000
  0.000000000000000E+000
  0.000000000000000E+000
  0.000000000000000E+000
  0.000000000000000E+000
  0.000000000000000E+000
  0.000000000000000E+000
  0.000000000000000E+000
  0.000000000000000E+000
  0.000000000000000E+000
  0.000000000000000E+000
  0.000000000000000E+000
  0.000000000000000E+000
SCALARS elementIsPlast double 
LOOKUP_TABLE default
  0.000000000000000E+000
  0.000000000000000E+000
  0.000000000000000E+000
  0.000000000000000E+000
  0.000000000000000E+000
  0.000000000000000E+000
  0.000000000000000E+000
  0.000000000000000E+000
  0.000000000000000E+000
  0.000000000000000E+000
  0.000000000000000E+000
  0.000000000000000E+000
  0.000000000000000E+000
  0.000000000000000E+000
  0.000000000000000E+000
   1.00000000000000     
  0.000000000000000E+000
  0.000000000000000E+000
  0.000000000000000E+000
  0.000000000000000E+000
  0.000000000000000E+000
  0.000000000000000E+000
  0.000000000000000E+000
  0.000000000000000E+000
  0.000000000000000E+000
  0.000000000000000E+000
  0.000000000000000E+000
  0.000000000000000E+000
  0.000000000000000E+000
  0.000000000000000E+000
  0.000000000000000E+000
  0.000000000000000E+000
  0.000000000000000E+000
  0.000000000000000E+000
  0.000000000000000E+000
  0.000000000000000E+000
  0.000000000000000E+000
  0.000000000000000E+000
  0.000000000000000E+000
  0.000000000000000E+000
  0.000000000000000E+000
  0.000000000000000E+000
  0.000000000000000E+000
  0.000000000000000E+000
  0.000000000000000E+000
  0.000000000000000E+000
  0.000000000000000E+000
  0.000000000000000E+000
  0.000000000000000E+000
  0.000000000000000E+000
  0.000000000000000E+000
  0.000000000000000E+000
  0.000000000000000E+000
  0.000000000000000E+000
  0.000000000000000E+000
  0.000000000000000E+000
  0.000000000000000E+000
  0.000000000000000E+000
  0.000000000000000E+000
  0.000000000000000E+000
  0.000000000000000E+000
  0.000000000000000E+000
  0.000000000000000E+000
  0.000000000000000E+000
  0.000000000000000E+000
  0.000000000000000E+000
  0.000000000000000E+000
  0.000000000000000E+000
  0.000000000000000E+000
  0.000000000000000E+000
  0.000000000000000E+000
  0.000000000000000E+000
  0.000000000000000E+000
  0.000000000000000E+000
  0.000000000000000E+000
  0.000000000000000E+000
  0.000000000000000E+000
  0.000000000000000E+000
  0.000000000000000E+000
  0.000000000000000E+000
  0.000000000000000E+000
  0.000000000000000E+000
  0.000000000000000E+000
  0.000000000000000E+000
  0.000000000000000E+000
  0.000000000000000E+000
  0.000000000000000E+000
  0.000000000000000E+000
  0.000000000000000E+000
  0.000000000000000E+000
  0.000000000000000E+000
  0.000000000000000E+000
  0.000000000000000E+000
  0.000000000000000E+000
  0.000000000000000E+000
  0.000000000000000E+000
  0.000000000000000E+000
  0.000000000000000E+000
  0.000000000000000E+000
  0.000000000000000E+000
  0.000000000000000E+000
  0.000000000000000E+000
  0.000000000000000E+000
  0.000000000000000E+000
  0.000000000000000E+000
  0.000000000000000E+000
  0.000000000000000E+000
  0.000000000000000E+000
  0.000000000000000E+000
  0.000000000000000E+000
  0.000000000000000E+000
  0.000000000000000E+000
  0.000000000000000E+000
  0.000000000000000E+000
  0.000000000000000E+000
  0.000000000000000E+000
  0.000000000000000E+000
  0.000000000000000E+000
  0.000000000000000E+000
  0.000000000000000E+000
  0.000000000000000E+000
  0.000000000000000E+000
  0.000000000000000E+000
  0.000000000000000E+000
  0.000000000000000E+000
  0.000000000000000E+000
  0.000000000000000E+000
  0.000000000000000E+000
  0.000000000000000E+000
  0.000000000000000E+000
  0.000000000000000E+000
  0.000000000000000E+000
  0.000000000000000E+000
  0.000000000000000E+000
  0.000000000000000E+000
  0.000000000000000E+000
  0.000000000000000E+000
  0.000000000000000E+000
  0.000000000000000E+000
  0.000000000000000E+000
  0.000000000000000E+000
  0.000000000000000E+000
  0.000000000000000E+000
  0.000000000000000E+000
  0.000000000000000E+000
  0.000000000000000E+000
  0.000000000000000E+000
  0.000000000000000E+000
  0.000000000000000E+000
  0.000000000000000E+000
  0.000000000000000E+000
  0.000000000000000E+000
  0.000000000000000E+000
  0.000000000000000E+000
  0.000000000000000E+000
  0.000000000000000E+000
  0.000000000000000E+000
  0.000000000000000E+000
  0.000000000000000E+000
  0.000000000000000E+000
  0.000000000000000E+000
  0.000000000000000E+000
  0.000000000000000E+000
  0.000000000000000E+000
  0.000000000000000E+000
  0.000000000000000E+000
  0.000000000000000E+000
  0.000000000000000E+000
  0.000000000000000E+000
  0.000000000000000E+000
  0.000000000000000E+000
  0.000000000000000E+000
  0.000000000000000E+000
  0.000000000000000E+000
  0.000000000000000E+000
  0.000000000000000E+000
  0.000000000000000E+000
  0.000000000000000E+000
  0.000000000000000E+000
  0.000000000000000E+000
  0.000000000000000E+000
  0.000000000000000E+000
  0.000000000000000E+000
  0.000000000000000E+000
  0.000000000000000E+000
  0.000000000000000E+000
  0.000000000000000E+000
  0.000000000000000E+000
  0.000000000000000E+000
  0.000000000000000E+000
  0.000000000000000E+000
  0.000000000000000E+000
  0.000000000000000E+000
  0.000000000000000E+000
  0.000000000000000E+000
  0.000000000000000E+000
  0.000000000000000E+000
  0.000000000000000E+000
  0.000000000000000E+000
  0.000000000000000E+000
  0.000000000000000E+000
  0.000000000000000E+000
  0.000000000000000E+000
  0.000000000000000E+000
  0.000000000000000E+000
  0.000000000000000E+000
  0.000000000000000E+000
  0.000000000000000E+000
  0.000000000000000E+000
  0.000000000000000E+000
  0.000000000000000E+000
  0.000000000000000E+000
  0.000000000000000E+000
  0.000000000000000E+000
  0.000000000000000E+000
  0.000000000000000E+000
  0.000000000000000E+000
  0.000000000000000E+000
  0.000000000000000E+000
  0.000000000000000E+000
  0.000000000000000E+000
  0.000000000000000E+000
  0.000000000000000E+000
  0.000000000000000E+000
  0.000000000000000E+000
  0.000000000000000E+000
  0.000000000000000E+000
  0.000000000000000E+000
  0.000000000000000E+000
  0.000000000000000E+000
  0.000000000000000E+000
  0.000000000000000E+000
  0.000000000000000E+000
  0.000000000000000E+000
  0.000000000000000E+000
  0.000000000000000E+000
  0.000000000000000E+000
  0.000000000000000E+000
  0.000000000000000E+000
  0.000000000000000E+000
  0.000000000000000E+000
  0.000000000000000E+000
  0.000000000000000E+000
  0.000000000000000E+000
  0.000000000000000E+000
  0.000000000000000E+000
  0.000000000000000E+000
  0.000000000000000E+000
  0.000000000000000E+000
  0.000000000000000E+000
  0.000000000000000E+000
  0.000000000000000E+000
  0.000000000000000E+000
  0.000000000000000E+000
  0.000000000000000E+000
  0.000000000000000E+000
  0.000000000000000E+000
  0.000000000000000E+000
  0.000000000000000E+000
  0.000000000000000E+000
  0.000000000000000E+000
  0.000000000000000E+000
  0.000000000000000E+000
  0.000000000000000E+000
  0.000000000000000E+000
  0.000000000000000E+000
  0.000000000000000E+000
  0.000000000000000E+000
  0.000000000000000E+000
  0.000000000000000E+000
  0.000000000000000E+000
  0.000000000000000E+000
  0.000000000000000E+000
  0.000000000000000E+000
  0.000000000000000E+000
  0.000000000000000E+000
  0.000000000000000E+000
  0.000000000000000E+000
  0.000000000000000E+000
  0.000000000000000E+000
  0.000000000000000E+000
  0.000000000000000E+000
  0.000000000000000E+000
  0.000000000000000E+000
  0.000000000000000E+000
  0.000000000000000E+000
  0.000000000000000E+000
  0.000000000000000E+000
  0.000000000000000E+000
  0.000000000000000E+000
  0.000000000000000E+000
  0.000000000000000E+000
  0.000000000000000E+000
  0.000000000000000E+000
  0.000000000000000E+000
  0.000000000000000E+000
  0.000000000000000E+000
  0.000000000000000E+000
  0.000000000000000E+000
  0.000000000000000E+000
  0.000000000000000E+000
  0.000000000000000E+000
  0.000000000000000E+000
  0.000000000000000E+000
  0.000000000000000E+000
  0.000000000000000E+000
  0.000000000000000E+000
  0.000000000000000E+000
  0.000000000000000E+000
  0.000000000000000E+000
  0.000000000000000E+000
  0.000000000000000E+000
  0.000000000000000E+000
  0.000000000000000E+000
  0.000000000000000E+000
  0.000000000000000E+000
  0.000000000000000E+000
  0.000000000000000E+000
  0.000000000000000E+000
  0.000000000000000E+000
  0.000000000000000E+000
  0.000000000000000E+000
  0.000000000000000E+000
  0.000000000000000E+000
  0.000000000000000E+000
  0.000000000000000E+000
  0.000000000000000E+000
  0.000000000000000E+000
  0.000000000000000E+000
  0.000000000000000E+000
  0.000000000000000E+000
  0.000000000000000E+000
  0.000000000000000E+000
  0.000000000000000E+000
  0.000000000000000E+000
  0.000000000000000E+000
  0.000000000000000E+000
  0.000000000000000E+000
  0.000000000000000E+000
  0.000000000000000E+000
  0.000000000000000E+000
  0.000000000000000E+000
  0.000000000000000E+000
  0.000000000000000E+000
  0.000000000000000E+000
  0.000000000000000E+000
  0.000000000000000E+000
  0.000000000000000E+000
  0.000000000000000E+000
  0.000000000000000E+000
  0.000000000000000E+000
  0.000000000000000E+000
  0.000000000000000E+000
  0.000000000000000E+000
  0.000000000000000E+000
  0.000000000000000E+000
  0.000000000000000E+000
  0.000000000000000E+000
  0.000000000000000E+000
  0.000000000000000E+000
  0.000000000000000E+000
  0.000000000000000E+000
  0.000000000000000E+000
  0.000000000000000E+000
  0.000000000000000E+000
  0.000000000000000E+000
  0.000000000000000E+000
  0.000000000000000E+000
  0.000000000000000E+000
  0.000000000000000E+000
  0.000000000000000E+000
  0.000000000000000E+000
  0.000000000000000E+000
  0.000000000000000E+000
  0.000000000000000E+000
  0.000000000000000E+000
  0.000000000000000E+000
  0.000000000000000E+000
  0.000000000000000E+000
  0.000000000000000E+000
  0.000000000000000E+000
  0.000000000000000E+000
  0.000000000000000E+000
  0.000000000000000E+000
  0.000000000000000E+000
  0.000000000000000E+000
  0.000000000000000E+000
  0.000000000000000E+000
  0.000000000000000E+000
  0.000000000000000E+000
  0.000000000000000E+000
  0.000000000000000E+000
  0.000000000000000E+000
  0.000000000000000E+000
  0.000000000000000E+000
  0.000000000000000E+000
  0.000000000000000E+000
  0.000000000000000E+000
  0.000000000000000E+000
  0.000000000000000E+000
  0.000000000000000E+000
  0.000000000000000E+000
  0.000000000000000E+000
  0.000000000000000E+000
  0.000000000000000E+000
  0.000000000000000E+000
  0.000000000000000E+000
  0.000000000000000E+000
  0.000000000000000E+000
  0.000000000000000E+000
  0.000000000000000E+000
  0.000000000000000E+000
  0.000000000000000E+000
  0.000000000000000E+000
  0.000000000000000E+000
  0.000000000000000E+000
  0.000000000000000E+000
  0.000000000000000E+000
  0.000000000000000E+000
  0.000000000000000E+000
  0.000000000000000E+000
  0.000000000000000E+000
  0.000000000000000E+000
  0.000000000000000E+000
  0.000000000000000E+000
  0.000000000000000E+000
  0.000000000000000E+000
  0.000000000000000E+000
  0.000000000000000E+000
  0.000000000000000E+000
  0.000000000000000E+000
  0.000000000000000E+000
  0.000000000000000E+000
  0.000000000000000E+000
  0.000000000000000E+000
  0.000000000000000E+000
  0.000000000000000E+000
  0.000000000000000E+000
  0.000000000000000E+000
  0.000000000000000E+000
  0.000000000000000E+000
  0.000000000000000E+000
  0.000000000000000E+000
  0.000000000000000E+000
  0.000000000000000E+000
  0.000000000000000E+000
  0.000000000000000E+000
  0.000000000000000E+000
  0.000000000000000E+000
  0.000000000000000E+000
SCALARS poroL double 
LOOKUP_TABLE default
  0.156228709267366     
  0.156203581812276     
  0.156184064645071     
  0.156170316357787     
  0.156159255446407     
  0.156149868399343     
  0.156141655331839     
  0.156134304984012     
  0.156127590414414     
  0.156121323222795     
  0.156115323873554     
  0.156109392326182     
  0.156103258526010     
  0.156096482254595     
  0.156087785591159     
  0.156193308034081     
  0.156181495238829     
  0.156169273029094     
  0.156157282576511     
  0.156146989997684     
  0.156138039190012     
  0.156130120527175     
  0.156122993798096     
  0.156116468646441     
  0.156110381284379     
  0.156104576766078     
  0.156098890965421     
  0.156093135417893     
  0.156087044630174     
  0.156080887274302     
  0.156173178671171     
  0.156162688092421     
  0.156152470455440     
  0.156142623339867     
  0.156133492644262     
  0.156125282222268     
  0.156117884489823     
  0.156111162210135     
  0.156104982266769     
  0.156099222187262     
  0.156093767427600     
  0.156088510824110     
  0.156083356953771     
  0.156078324488212     
  0.156073567236804     
  0.156153231453602     
  0.156144224556434     
  0.156135475851440     
  0.156127074265934     
  0.156119156068884     
  0.156111820715930     
  0.156105087120582     
  0.156098899729600     
  0.156093183680466     
  0.156087861919366     
  0.156082864180734     
  0.156078135540686     
  0.156073661503975     
  0.156069491543034     
  0.156065772964383     
  0.156133203903761     
  0.156125710935332     
  0.156118326673729     
  0.156111163178926     
  0.156104323479109     
  0.156097884012897     
  0.156091878864026     
  0.156086303341391     
  0.156081127538842     
  0.156076314279202     
  0.156071830991938     
  0.156067662358529     
  0.156063823892008     
  0.156060377715369     
  0.156057438320298     
  0.156113372169082     
  0.156107279134644     
  0.156101139491431     
  0.156095093410099     
  0.156089243237085     
  0.156083662987178     
  0.156078397677446     
  0.156073465945695     
  0.156068868182634     
  0.156064596729661     
  0.156060646668715     
  0.156057025752528     
  0.156053764056528     
  0.156050920977096     
  0.156048587549984     
  0.156093968667162     
  0.156089082519031     
  0.156084051669886     
  0.156079013283808     
  0.156074071275198     
  0.156069301639267     
  0.156064756664175     
  0.156060468929294     
  0.156056456998856     
  0.156052732658940     
  0.156049308577978     
  0.156046205692771     
  0.156043459340635     
  0.156041123198873     
  0.156039269581032     
  0.156075100681959     
  0.156071236545392     
  0.156067171887389     
  0.156063032475311     
  0.156058917284138     
  0.156054901960973     
  0.156051042423037     
  0.156047378831614     
  0.156043940187954     
  0.156040749580908     
  0.156037829679705     
  0.156035207821619     
  0.156032920037755     
  0.156031013265326     
  0.156029545168225     
  0.156056809052246     
  0.156053801643927     
  0.156050569874458     
  0.156047224431268     
  0.156043855486957     
  0.156040534613147     
  0.156037317477728     
  0.156034247016812     
  0.156031357028682     
  0.156028676057295     
  0.156026231286637     
  0.156024052036837     
  0.156022172383968     
  0.156020632461717     
  0.156019478117199     
  0.156039088120547     
  0.156036795036484     
  0.156034277365201     
  0.156031629513866     
  0.156028930382601     
  0.156026244515468     
  0.156023623960065     
  0.156021110620076     
  0.156018738927868     
  0.156016538668021     
  0.156014537724001     
  0.156012764461206     
  0.156011249437148     
  0.156010026160096     
  0.156009130716236     
  0.156021898212071     
  0.156020199935500     
  0.156018294549861     
  0.156016259665062     
  0.156014161412981     
  0.156012055150608     
  0.156009986711954     
  0.156007994060193     
  0.156006109189812     
  0.156004360117874     
  0.156002772782536     
  0.156001372645504     
  0.156000185793147     
  0.155999239362246     
  0.155998561182539     
  0.156005173665667     
  0.156003973352705     
  0.156002596550553     
  0.156001103817122     
  0.155999547561022     
  0.155997972453715     
  0.155996416230922     
  0.155994910791662     
  0.155993483481282     
  0.155992158432336     
  0.155990957826255     
  0.155989902933201     
  0.155989014794229     
  0.155988314435064     
  0.155987822545251     
  0.155988829337114     
  0.155988052634465     
  0.155987139455616     
  0.155986133180905     
  0.155985071898453     
  0.155983988594794     
  0.155982911611624     
  0.155981865308924     
  0.155980870855815     
  0.155979947059713     
  0.155979111138945     
  0.155978379343944     
  0.155977767340085     
  0.155977290283303     
  0.155976962547721     
  0.155972766384691     
  0.155972361263320     
  0.155971865817897     
  0.155971306239116     
  0.155970705963370     
  0.155970085681980     
  0.155969463522412     
  0.155968855359983     
  0.155968275209041     
  0.155967735638051     
  0.155967248151775     
  0.155966823485636     
  0.155966471763300     
  0.155966202479155     
  0.155966024282682     
  0.155956877635688     
  0.155956814145616     
  0.155956709700659     
  0.155956573401460     
  0.155956413917841     
  0.155956239349661     
  0.155956057180478     
  0.155955874293379     
  0.155955697021160     
  0.155955531206543     
  0.155955382251291     
  0.155955255135596     
  0.155955154391629     
  0.155955084018343     
  0.155955047328847     
  0.155941052580638     
  0.155941322476332     
  0.155941601324212     
  0.155941881331151     
  0.155942156463311     
  0.155942422194864     
  0.155942675268746     
  0.155942913447192     
  0.155943135246885     
  0.155943339666624     
  0.155943525923078     
  0.155943693212579     
  0.155943840514969     
  0.155943966450709     
  0.155944069195952     
  0.155925181965716     
  0.155925798203525     
  0.155926471345934     
  0.155927176960898     
  0.155927894511383     
  0.155928607036082     
  0.155929300741465     
  0.155929964492651     
  0.155930589225223     
  0.155931167324101     
  0.155931692027553     
  0.155932156915284     
  0.155932555531618     
  0.155932881180684     
  0.155933126912369     
  0.155909161939117     
  0.155910158098261     
  0.155911254802872     
  0.155912411228792     
  0.155913592625969     
  0.155914769986367     
  0.155915919479206     
  0.155917021657430     
  0.155918060496752     
  0.155919022364836     
  0.155919895032603     
  0.155920666836258     
  0.155921326082209     
  0.155921860761391     
  0.155922258607748     
  0.155892897719061     
  0.155894327447828     
  0.155895894765130     
  0.155897542589646     
  0.155899222279618     
  0.155900893356142     
  0.155902522772760     
  0.155904083768491     
  0.155905554429349     
  0.155906916130628     
  0.155908152043628     
  0.155909245877287     
  0.155910180996614     
  0.155910940020504     
  0.155911504953197     
  0.155876306772123     
  0.155878243423131     
  0.155880345790216     
  0.155882540401588     
  0.155884765006301     
  0.155886968431670     
  0.155889109636147     
  0.155891156067375     
  0.155893081561286     
  0.155894864066879     
  0.155896483474849     
  0.155897919794645     
  0.155899151880950     
  0.155900156857966     
  0.155900910323479     
  0.155859321517291     
  0.155861858228551     
  0.155864577341617     
  0.155867388358826     
  0.155870215589156     
  0.155872998211698     
  0.155875688968298     
  0.155878251758158     
  0.155880658570439     
  0.155882886208154     
  0.155884913195371     
  0.155886717188661     
  0.155888273157260     
  0.155889552544525     
  0.155890523540461     
  0.155841891610252     
  0.155845142242640     
  0.155848577459889     
  0.155852088253722     
  0.155855585498281     
  0.155859000222831     
  0.155862281593390     
  0.155865393244679     
  0.155868308768577     
  0.155871007051814     
  0.155873467959050     
  0.155875668718431     
  0.155877581332363     
  0.155879171321404     
  0.155880398045097     
  0.155823985934525     
  0.155828087547109     
  0.155832357197172     
  0.155836664529528     
  0.155840906889319     
  0.155845009556929     
  0.155848922194051     
  0.155852612991139     
  0.155856062001579     
  0.155859254650312     
  0.155862175889280     
  0.155864805263189     
  0.155867113199459     
  0.155869059044027     
  0.155870591324543     
  0.155805594585592     
  0.155810712625730     
  0.155815956745993     
  0.155821170366661     
  0.155826237566264     
  0.155831082233104     
  0.155835661071864     
  0.155839953887247     
  0.155843953826371     
  0.155847658746979     
  0.155851063755825     
  0.155854154647400     
  0.155856902540969     
  0.155859260486290     
  0.155861163385685     
  0.155786731495886     
  0.155793069883197     
  0.155799455014431     
  0.155805696472257     
  0.155811667303944     
  0.155817298755543     
  0.155822565455318     
  0.155827468914950     
  0.155832023863530     
  0.155836247871652     
  0.155840152755652     
  0.155843736420408     
  0.155846974581716     
  0.155849814673551     
  0.155852173956783     
  0.155767439426758     
  0.155775259661536     
  0.155782986143440     
  0.155790384231267     
  0.155797325451855     
  0.155803767070103     
  0.155809719615592     
  0.155815219818395     
  0.155820313437112     
  0.155825045521897     
  0.155829452802408     
  0.155833553788937     
  0.155837337013867     
  0.155840746757255     
  0.155843677952578     
  0.155747801647680     
  0.155757460569588     
  0.155766769771370     
  0.155775444613518     
  0.155783387883699     
  0.155790622387003     
  0.155797222594263     
  0.155803274451525     
  0.155808862861522     
  0.155814066700138     
  0.155818955378674     
  0.155823582652337     
  0.155827963855669     
  0.155832054193719     
  0.155835717208352     
  0.155727980818424     
  0.155740001086995     
  0.155751168253966     
  0.155761179339308     
  0.155770073758777     
  0.155778020552938     
  0.155785182049750     
  0.155791702615266     
  0.155797709205484     
  0.155803316338694     
  0.155808630872576     
  0.155813753077106     
  0.155818772573138     
  0.155823672243686     
  0.155828308631555     
  0.155708343213508     
  0.155723572349279     
  0.155736775460911     
  0.155747957874762     
  0.155757624892557     
  0.155766121220525     
  0.155773703701262     
  0.155780570578019     
  0.155786885163592     
  0.155792792378619     
  0.155798432707703     
  0.155803957448148     
  0.155809541984760     
  0.155815434687209     
  0.155821382966120     
  0.155690424082193     
  0.155709721708465     
  0.155724249664906     
  0.155736149950865     
  0.155746259215584     
  0.155755062589854     
  0.155762877506075     
  0.155769935016278     
  0.155776419406455     
  0.155782492966095     
  0.155788316439962     
  0.155794073298148     
  0.155800014542987     
  0.155806551742341     
  0.155814882973999     
