# vtk DataFile Version 3.0
vtk output
ASCII
DATASET UNSTRUCTURED_GRID
POINTS       496 double 
  0.00000000E+00  3.00000000E+02  0.00000000E+00
  0.00000000E+00  2.80000000E+02  0.00000000E+00
  0.00000000E+00  2.60000000E+02  0.00000000E+00
  0.00000000E+00  2.40000000E+02  0.00000000E+00
  0.00000000E+00  2.20000000E+02  0.00000000E+00
  0.00000000E+00  2.00000000E+02  0.00000000E+00
  0.00000000E+00  1.80000000E+02  0.00000000E+00
  0.00000000E+00  1.60000000E+02  0.00000000E+00
  0.00000000E+00  1.40000000E+02  0.00000000E+00
  0.00000000E+00  1.20000000E+02  0.00000000E+00
  0.00000000E+00  1.00000000E+02  0.00000000E+00
  0.00000000E+00  8.00000000E+01  0.00000000E+00
  0.00000000E+00  6.00000000E+01  0.00000000E+00
  0.00000000E+00  4.00000000E+01  0.00000000E+00
  0.00000000E+00  2.00000000E+01  0.00000000E+00
  0.00000000E+00  4.99600361E-14  0.00000000E+00
  2.00000000E+01  3.00000000E+02  0.00000000E+00
  2.00000000E+01  2.80000000E+02  0.00000000E+00
  2.00000000E+01  2.60000000E+02  0.00000000E+00
  2.00000000E+01  2.40000000E+02  0.00000000E+00
  2.00000000E+01  2.20000000E+02  0.00000000E+00
  2.00000000E+01  2.00000000E+02  0.00000000E+00
  2.00000000E+01  1.80000000E+02  0.00000000E+00
  2.00000000E+01  1.60000000E+02  0.00000000E+00
  2.00000000E+01  1.40000000E+02  0.00000000E+00
  2.00000000E+01  1.20000000E+02  0.00000000E+00
  2.00000000E+01  1.00000000E+02  0.00000000E+00
  2.00000000E+01  8.00000000E+01  0.00000000E+00
  2.00000000E+01  6.00000000E+01  0.00000000E+00
  2.00000000E+01  4.00000000E+01  0.00000000E+00
  2.00000000E+01  2.00000000E+01  0.00000000E+00
  2.00000000E+01  4.99600361E-14  0.00000000E+00
  4.00000000E+01  3.00000000E+02  0.00000000E+00
  4.00000000E+01  2.80000000E+02  0.00000000E+00
  4.00000000E+01  2.60000000E+02  0.00000000E+00
  4.00000000E+01  2.40000000E+02  0.00000000E+00
  4.00000000E+01  2.20000000E+02  0.00000000E+00
  4.00000000E+01  2.00000000E+02  0.00000000E+00
  4.00000000E+01  1.80000000E+02  0.00000000E+00
  4.00000000E+01  1.60000000E+02  0.00000000E+00
  4.00000000E+01  1.40000000E+02  0.00000000E+00
  4.00000000E+01  1.20000000E+02  0.00000000E+00
  4.00000000E+01  1.00000000E+02  0.00000000E+00
  4.00000000E+01  8.00000000E+01  0.00000000E+00
  4.00000000E+01  6.00000000E+01  0.00000000E+00
  4.00000000E+01  4.00000000E+01  0.00000000E+00
  4.00000000E+01  2.00000000E+01  0.00000000E+00
  4.00000000E+01  4.99600361E-14  0.00000000E+00
  6.00000000E+01  3.00000000E+02  0.00000000E+00
  6.00000000E+01  2.80000000E+02  0.00000000E+00
  6.00000000E+01  2.60000000E+02  0.00000000E+00
  6.00000000E+01  2.40000000E+02  0.00000000E+00
  6.00000000E+01  2.20000000E+02  0.00000000E+00
  6.00000000E+01  2.00000000E+02  0.00000000E+00
  6.00000000E+01  1.80000000E+02  0.00000000E+00
  6.00000000E+01  1.60000000E+02  0.00000000E+00
  6.00000000E+01  1.40000000E+02  0.00000000E+00
  6.00000000E+01  1.20000000E+02  0.00000000E+00
  6.00000000E+01  1.00000000E+02  0.00000000E+00
  6.00000000E+01  8.00000000E+01  0.00000000E+00
  6.00000000E+01  6.00000000E+01  0.00000000E+00
  6.00000000E+01  4.00000000E+01  0.00000000E+00
  6.00000000E+01  2.00000000E+01  0.00000000E+00
  6.00000000E+01  4.99600361E-14  0.00000000E+00
  8.00000000E+01  3.00000000E+02  0.00000000E+00
  8.00000000E+01  2.80000000E+02  0.00000000E+00
  8.00000000E+01  2.60000000E+02  0.00000000E+00
  8.00000000E+01  2.40000000E+02  0.00000000E+00
  8.00000000E+01  2.20000000E+02  0.00000000E+00
  8.00000000E+01  2.00000000E+02  0.00000000E+00
  8.00000000E+01  1.80000000E+02  0.00000000E+00
  8.00000000E+01  1.60000000E+02  0.00000000E+00
  8.00000000E+01  1.40000000E+02  0.00000000E+00
  8.00000000E+01  1.20000000E+02  0.00000000E+00
  8.00000000E+01  1.00000000E+02  0.00000000E+00
  8.00000000E+01  8.00000000E+01  0.00000000E+00
  8.00000000E+01  6.00000000E+01  0.00000000E+00
  8.00000000E+01  4.00000000E+01  0.00000000E+00
  8.00000000E+01  2.00000000E+01  0.00000000E+00
  8.00000000E+01  4.99600361E-14  0.00000000E+00
  1.00000000E+02  3.00000000E+02  0.00000000E+00
  1.00000000E+02  2.80000000E+02  0.00000000E+00
  1.00000000E+02  2.60000000E+02  0.00000000E+00
  1.00000000E+02  2.40000000E+02  0.00000000E+00
  1.00000000E+02  2.20000000E+02  0.00000000E+00
  1.00000000E+02  2.00000000E+02  0.00000000E+00
  1.00000000E+02  1.80000000E+02  0.00000000E+00
  1.00000000E+02  1.60000000E+02  0.00000000E+00
  1.00000000E+02  1.40000000E+02  0.00000000E+00
  1.00000000E+02  1.20000000E+02  0.00000000E+00
  1.00000000E+02  1.00000000E+02  0.00000000E+00
  1.00000000E+02  8.00000000E+01  0.00000000E+00
  1.00000000E+02  6.00000000E+01  0.00000000E+00
  1.00000000E+02  4.00000000E+01  0.00000000E+00
  1.00000000E+02  2.00000000E+01  0.00000000E+00
  1.00000000E+02  4.99600361E-14  0.00000000E+00
  1.20000000E+02  3.00000000E+02  0.00000000E+00
  1.20000000E+02  2.80000000E+02  0.00000000E+00
  1.20000000E+02  2.60000000E+02  0.00000000E+00
  1.20000000E+02  2.40000000E+02  0.00000000E+00
  1.20000000E+02  2.20000000E+02  0.00000000E+00
  1.20000000E+02  2.00000000E+02  0.00000000E+00
  1.20000000E+02  1.80000000E+02  0.00000000E+00
  1.20000000E+02  1.60000000E+02  0.00000000E+00
  1.20000000E+02  1.40000000E+02  0.00000000E+00
  1.20000000E+02  1.20000000E+02  0.00000000E+00
  1.20000000E+02  1.00000000E+02  0.00000000E+00
  1.20000000E+02  8.00000000E+01  0.00000000E+00
  1.20000000E+02  6.00000000E+01  0.00000000E+00
  1.20000000E+02  4.00000000E+01  0.00000000E+00
  1.20000000E+02  2.00000000E+01  0.00000000E+00
  1.20000000E+02  4.99600361E-14  0.00000000E+00
  1.40000000E+02  3.00000000E+02  0.00000000E+00
  1.40000000E+02  2.80000000E+02  0.00000000E+00
  1.40000000E+02  2.60000000E+02  0.00000000E+00
  1.40000000E+02  2.40000000E+02  0.00000000E+00
  1.40000000E+02  2.20000000E+02  0.00000000E+00
  1.40000000E+02  2.00000000E+02  0.00000000E+00
  1.40000000E+02  1.80000000E+02  0.00000000E+00
  1.40000000E+02  1.60000000E+02  0.00000000E+00
  1.40000000E+02  1.40000000E+02  0.00000000E+00
  1.40000000E+02  1.20000000E+02  0.00000000E+00
  1.40000000E+02  1.00000000E+02  0.00000000E+00
  1.40000000E+02  8.00000000E+01  0.00000000E+00
  1.40000000E+02  6.00000000E+01  0.00000000E+00
  1.40000000E+02  4.00000000E+01  0.00000000E+00
  1.40000000E+02  2.00000000E+01  0.00000000E+00
  1.40000000E+02  4.99600361E-14  0.00000000E+00
  1.60000000E+02  3.00000000E+02  0.00000000E+00
  1.60000000E+02  2.80000000E+02  0.00000000E+00
  1.60000000E+02  2.60000000E+02  0.00000000E+00
  1.60000000E+02  2.40000000E+02  0.00000000E+00
  1.60000000E+02  2.20000000E+02  0.00000000E+00
  1.60000000E+02  2.00000000E+02  0.00000000E+00
  1.60000000E+02  1.80000000E+02  0.00000000E+00
  1.60000000E+02  1.60000000E+02  0.00000000E+00
  1.60000000E+02  1.40000000E+02  0.00000000E+00
  1.60000000E+02  1.20000000E+02  0.00000000E+00
  1.60000000E+02  1.00000000E+02  0.00000000E+00
  1.60000000E+02  8.00000000E+01  0.00000000E+00
  1.60000000E+02  6.00000000E+01  0.00000000E+00
  1.60000000E+02  4.00000000E+01  0.00000000E+00
  1.60000000E+02  2.00000000E+01  0.00000000E+00
  1.60000000E+02  4.99600361E-14  0.00000000E+00
  1.80000000E+02  3.00000000E+02  0.00000000E+00
  1.80000000E+02  2.80000000E+02  0.00000000E+00
  1.80000000E+02  2.60000000E+02  0.00000000E+00
  1.80000000E+02  2.40000000E+02  0.00000000E+00
  1.80000000E+02  2.20000000E+02  0.00000000E+00
  1.80000000E+02  2.00000000E+02  0.00000000E+00
  1.80000000E+02  1.80000000E+02  0.00000000E+00
  1.80000000E+02  1.60000000E+02  0.00000000E+00
  1.80000000E+02  1.40000000E+02  0.00000000E+00
  1.80000000E+02  1.20000000E+02  0.00000000E+00
  1.80000000E+02  1.00000000E+02  0.00000000E+00
  1.80000000E+02  8.00000000E+01  0.00000000E+00
  1.80000000E+02  6.00000000E+01  0.00000000E+00
  1.80000000E+02  4.00000000E+01  0.00000000E+00
  1.80000000E+02  2.00000000E+01  0.00000000E+00
  1.80000000E+02  4.99600361E-14  0.00000000E+00
  2.00000000E+02  3.00000000E+02  0.00000000E+00
  2.00000000E+02  2.80000000E+02  0.00000000E+00
  2.00000000E+02  2.60000000E+02  0.00000000E+00
  2.00000000E+02  2.40000000E+02  0.00000000E+00
  2.00000000E+02  2.20000000E+02  0.00000000E+00
  2.00000000E+02  2.00000000E+02  0.00000000E+00
  2.00000000E+02  1.80000000E+02  0.00000000E+00
  2.00000000E+02  1.60000000E+02  0.00000000E+00
  2.00000000E+02  1.40000000E+02  0.00000000E+00
  2.00000000E+02  1.20000000E+02  0.00000000E+00
  2.00000000E+02  1.00000000E+02  0.00000000E+00
  2.00000000E+02  8.00000000E+01  0.00000000E+00
  2.00000000E+02  6.00000000E+01  0.00000000E+00
  2.00000000E+02  4.00000000E+01  0.00000000E+00
  2.00000000E+02  2.00000000E+01  0.00000000E+00
  2.00000000E+02  4.99600361E-14  0.00000000E+00
  2.20000000E+02  3.00000000E+02  0.00000000E+00
  2.20000000E+02  2.80000000E+02  0.00000000E+00
  2.20000000E+02  2.60000000E+02  0.00000000E+00
  2.20000000E+02  2.40000000E+02  0.00000000E+00
  2.20000000E+02  2.20000000E+02  0.00000000E+00
  2.20000000E+02  2.00000000E+02  0.00000000E+00
  2.20000000E+02  1.80000000E+02  0.00000000E+00
  2.20000000E+02  1.60000000E+02  0.00000000E+00
  2.20000000E+02  1.40000000E+02  0.00000000E+00
  2.20000000E+02  1.20000000E+02  0.00000000E+00
  2.20000000E+02  1.00000000E+02  0.00000000E+00
  2.20000000E+02  8.00000000E+01  0.00000000E+00
  2.20000000E+02  6.00000000E+01  0.00000000E+00
  2.20000000E+02  4.00000000E+01  0.00000000E+00
  2.20000000E+02  2.00000000E+01  0.00000000E+00
  2.20000000E+02  4.99600361E-14  0.00000000E+00
  2.40000000E+02  3.00000000E+02  0.00000000E+00
  2.40000000E+02  2.80000000E+02  0.00000000E+00
  2.40000000E+02  2.60000000E+02  0.00000000E+00
  2.40000000E+02  2.40000000E+02  0.00000000E+00
  2.40000000E+02  2.20000000E+02  0.00000000E+00
  2.40000000E+02  2.00000000E+02  0.00000000E+00
  2.40000000E+02  1.80000000E+02  0.00000000E+00
  2.40000000E+02  1.60000000E+02  0.00000000E+00
  2.40000000E+02  1.40000000E+02  0.00000000E+00
  2.40000000E+02  1.20000000E+02  0.00000000E+00
  2.40000000E+02  1.00000000E+02  0.00000000E+00
  2.40000000E+02  8.00000000E+01  0.00000000E+00
  2.40000000E+02  6.00000000E+01  0.00000000E+00
  2.40000000E+02  4.00000000E+01  0.00000000E+00
  2.40000000E+02  2.00000000E+01  0.00000000E+00
  2.40000000E+02  4.99600361E-14  0.00000000E+00
  2.60000000E+02  3.00000000E+02  0.00000000E+00
  2.60000000E+02  2.80000000E+02  0.00000000E+00
  2.60000000E+02  2.60000000E+02  0.00000000E+00
  2.60000000E+02  2.40000000E+02  0.00000000E+00
  2.60000000E+02  2.20000000E+02  0.00000000E+00
  2.60000000E+02  2.00000000E+02  0.00000000E+00
  2.60000000E+02  1.80000000E+02  0.00000000E+00
  2.60000000E+02  1.60000000E+02  0.00000000E+00
  2.60000000E+02  1.40000000E+02  0.00000000E+00
  2.60000000E+02  1.20000000E+02  0.00000000E+00
  2.60000000E+02  1.00000000E+02  0.00000000E+00
  2.60000000E+02  8.00000000E+01  0.00000000E+00
  2.60000000E+02  6.00000000E+01  0.00000000E+00
  2.60000000E+02  4.00000000E+01  0.00000000E+00
  2.60000000E+02  2.00000000E+01  0.00000000E+00
  2.60000000E+02  4.99600361E-14  0.00000000E+00
  2.80000000E+02  3.00000000E+02  0.00000000E+00
  2.80000000E+02  2.80000000E+02  0.00000000E+00
  2.80000000E+02  2.60000000E+02  0.00000000E+00
  2.80000000E+02  2.40000000E+02  0.00000000E+00
  2.80000000E+02  2.20000000E+02  0.00000000E+00
  2.80000000E+02  2.00000000E+02  0.00000000E+00
  2.80000000E+02  1.80000000E+02  0.00000000E+00
  2.80000000E+02  1.60000000E+02  0.00000000E+00
  2.80000000E+02  1.40000000E+02  0.00000000E+00
  2.80000000E+02  1.20000000E+02  0.00000000E+00
  2.80000000E+02  1.00000000E+02  0.00000000E+00
  2.80000000E+02  8.00000000E+01  0.00000000E+00
  2.80000000E+02  6.00000000E+01  0.00000000E+00
  2.80000000E+02  4.00000000E+01  0.00000000E+00
  2.80000000E+02  2.00000000E+01  0.00000000E+00
  2.80000000E+02  4.99600361E-14  0.00000000E+00
  3.00000000E+02  3.00000000E+02  0.00000000E+00
  3.00000000E+02  2.80000000E+02  0.00000000E+00
  3.00000000E+02  2.60000000E+02  0.00000000E+00
  3.00000000E+02  2.40000000E+02  0.00000000E+00
  3.00000000E+02  2.20000000E+02  0.00000000E+00
  3.00000000E+02  2.00000000E+02  0.00000000E+00
  3.00000000E+02  1.80000000E+02  0.00000000E+00
  3.00000000E+02  1.60000000E+02  0.00000000E+00
  3.00000000E+02  1.40000000E+02  0.00000000E+00
  3.00000000E+02  1.20000000E+02  0.00000000E+00
  3.00000000E+02  1.00000000E+02  0.00000000E+00
  3.00000000E+02  8.00000000E+01  0.00000000E+00
  3.00000000E+02  6.00000000E+01  0.00000000E+00
  3.00000000E+02  4.00000000E+01  0.00000000E+00
  3.00000000E+02  2.00000000E+01  0.00000000E+00
  3.00000000E+02  4.99600361E-14  0.00000000E+00
  3.20000000E+02  3.00000000E+02  0.00000000E+00
  3.20000000E+02  2.80000000E+02  0.00000000E+00
  3.20000000E+02  2.60000000E+02  0.00000000E+00
  3.20000000E+02  2.40000000E+02  0.00000000E+00
  3.20000000E+02  2.20000000E+02  0.00000000E+00
  3.20000000E+02  2.00000000E+02  0.00000000E+00
  3.20000000E+02  1.80000000E+02  0.00000000E+00
  3.20000000E+02  1.60000000E+02  0.00000000E+00
  3.20000000E+02  1.40000000E+02  0.00000000E+00
  3.20000000E+02  1.20000000E+02  0.00000000E+00
  3.20000000E+02  1.00000000E+02  0.00000000E+00
  3.20000000E+02  8.00000000E+01  0.00000000E+00
  3.20000000E+02  6.00000000E+01  0.00000000E+00
  3.20000000E+02  4.00000000E+01  0.00000000E+00
  3.20000000E+02  2.00000000E+01  0.00000000E+00
  3.20000000E+02  4.99600361E-14  0.00000000E+00
  3.40000000E+02  3.00000000E+02  0.00000000E+00
  3.40000000E+02  2.80000000E+02  0.00000000E+00
  3.40000000E+02  2.60000000E+02  0.00000000E+00
  3.40000000E+02  2.40000000E+02  0.00000000E+00
  3.40000000E+02  2.20000000E+02  0.00000000E+00
  3.40000000E+02  2.00000000E+02  0.00000000E+00
  3.40000000E+02  1.80000000E+02  0.00000000E+00
  3.40000000E+02  1.60000000E+02  0.00000000E+00
  3.40000000E+02  1.40000000E+02  0.00000000E+00
  3.40000000E+02  1.20000000E+02  0.00000000E+00
  3.40000000E+02  1.00000000E+02  0.00000000E+00
  3.40000000E+02  8.00000000E+01  0.00000000E+00
  3.40000000E+02  6.00000000E+01  0.00000000E+00
  3.40000000E+02  4.00000000E+01  0.00000000E+00
  3.40000000E+02  2.00000000E+01  0.00000000E+00
  3.40000000E+02  4.99600361E-14  0.00000000E+00
  3.60000000E+02  3.00000000E+02  0.00000000E+00
  3.60000000E+02  2.80000000E+02  0.00000000E+00
  3.60000000E+02  2.60000000E+02  0.00000000E+00
  3.60000000E+02  2.40000000E+02  0.00000000E+00
  3.60000000E+02  2.20000000E+02  0.00000000E+00
  3.60000000E+02  2.00000000E+02  0.00000000E+00
  3.60000000E+02  1.80000000E+02  0.00000000E+00
  3.60000000E+02  1.60000000E+02  0.00000000E+00
  3.60000000E+02  1.40000000E+02  0.00000000E+00
  3.60000000E+02  1.20000000E+02  0.00000000E+00
  3.60000000E+02  1.00000000E+02  0.00000000E+00
  3.60000000E+02  8.00000000E+01  0.00000000E+00
  3.60000000E+02  6.00000000E+01  0.00000000E+00
  3.60000000E+02  4.00000000E+01  0.00000000E+00
  3.60000000E+02  2.00000000E+01  0.00000000E+00
  3.60000000E+02  4.99600361E-14  0.00000000E+00
  3.80000000E+02  3.00000000E+02  0.00000000E+00
  3.80000000E+02  2.80000000E+02  0.00000000E+00
  3.80000000E+02  2.60000000E+02  0.00000000E+00
  3.80000000E+02  2.40000000E+02  0.00000000E+00
  3.80000000E+02  2.20000000E+02  0.00000000E+00
  3.80000000E+02  2.00000000E+02  0.00000000E+00
  3.80000000E+02  1.80000000E+02  0.00000000E+00
  3.80000000E+02  1.60000000E+02  0.00000000E+00
  3.80000000E+02  1.40000000E+02  0.00000000E+00
  3.80000000E+02  1.20000000E+02  0.00000000E+00
  3.80000000E+02  1.00000000E+02  0.00000000E+00
  3.80000000E+02  8.00000000E+01  0.00000000E+00
  3.80000000E+02  6.00000000E+01  0.00000000E+00
  3.80000000E+02  4.00000000E+01  0.00000000E+00
  3.80000000E+02  2.00000000E+01  0.00000000E+00
  3.80000000E+02  4.99600361E-14  0.00000000E+00
  4.00000000E+02  3.00000000E+02  0.00000000E+00
  4.00000000E+02  2.80000000E+02  0.00000000E+00
  4.00000000E+02  2.60000000E+02  0.00000000E+00
  4.00000000E+02  2.40000000E+02  0.00000000E+00
  4.00000000E+02  2.20000000E+02  0.00000000E+00
  4.00000000E+02  2.00000000E+02  0.00000000E+00
  4.00000000E+02  1.80000000E+02  0.00000000E+00
  4.00000000E+02  1.60000000E+02  0.00000000E+00
  4.00000000E+02  1.40000000E+02  0.00000000E+00
  4.00000000E+02  1.20000000E+02  0.00000000E+00
  4.00000000E+02  1.00000000E+02  0.00000000E+00
  4.00000000E+02  8.00000000E+01  0.00000000E+00
  4.00000000E+02  6.00000000E+01  0.00000000E+00
  4.00000000E+02  4.00000000E+01  0.00000000E+00
  4.00000000E+02  2.00000000E+01  0.00000000E+00
  4.00000000E+02  4.99600361E-14  0.00000000E+00
  4.20000000E+02  3.00000000E+02  0.00000000E+00
  4.20000000E+02  2.80000000E+02  0.00000000E+00
  4.20000000E+02  2.60000000E+02  0.00000000E+00
  4.20000000E+02  2.40000000E+02  0.00000000E+00
  4.20000000E+02  2.20000000E+02  0.00000000E+00
  4.20000000E+02  2.00000000E+02  0.00000000E+00
  4.20000000E+02  1.80000000E+02  0.00000000E+00
  4.20000000E+02  1.60000000E+02  0.00000000E+00
  4.20000000E+02  1.40000000E+02  0.00000000E+00
  4.20000000E+02  1.20000000E+02  0.00000000E+00
  4.20000000E+02  1.00000000E+02  0.00000000E+00
  4.20000000E+02  8.00000000E+01  0.00000000E+00
  4.20000000E+02  6.00000000E+01  0.00000000E+00
  4.20000000E+02  4.00000000E+01  0.00000000E+00
  4.20000000E+02  2.00000000E+01  0.00000000E+00
  4.20000000E+02  4.99600361E-14  0.00000000E+00
  4.40000000E+02  3.00000000E+02  0.00000000E+00
  4.40000000E+02  2.80000000E+02  0.00000000E+00
  4.40000000E+02  2.60000000E+02  0.00000000E+00
  4.40000000E+02  2.40000000E+02  0.00000000E+00
  4.40000000E+02  2.20000000E+02  0.00000000E+00
  4.40000000E+02  2.00000000E+02  0.00000000E+00
  4.40000000E+02  1.80000000E+02  0.00000000E+00
  4.40000000E+02  1.60000000E+02  0.00000000E+00
  4.40000000E+02  1.40000000E+02  0.00000000E+00
  4.40000000E+02  1.20000000E+02  0.00000000E+00
  4.40000000E+02  1.00000000E+02  0.00000000E+00
  4.40000000E+02  8.00000000E+01  0.00000000E+00
  4.40000000E+02  6.00000000E+01  0.00000000E+00
  4.40000000E+02  4.00000000E+01  0.00000000E+00
  4.40000000E+02  2.00000000E+01  0.00000000E+00
  4.40000000E+02  4.99600361E-14  0.00000000E+00
  4.60000000E+02  3.00000000E+02  0.00000000E+00
  4.60000000E+02  2.80000000E+02  0.00000000E+00
  4.60000000E+02  2.60000000E+02  0.00000000E+00
  4.60000000E+02  2.40000000E+02  0.00000000E+00
  4.60000000E+02  2.20000000E+02  0.00000000E+00
  4.60000000E+02  2.00000000E+02  0.00000000E+00
  4.60000000E+02  1.80000000E+02  0.00000000E+00
  4.60000000E+02  1.60000000E+02  0.00000000E+00
  4.60000000E+02  1.40000000E+02  0.00000000E+00
  4.60000000E+02  1.20000000E+02  0.00000000E+00
  4.60000000E+02  1.00000000E+02  0.00000000E+00
  4.60000000E+02  8.00000000E+01  0.00000000E+00
  4.60000000E+02  6.00000000E+01  0.00000000E+00
  4.60000000E+02  4.00000000E+01  0.00000000E+00
  4.60000000E+02  2.00000000E+01  0.00000000E+00
  4.60000000E+02  4.99600361E-14  0.00000000E+00
  4.80000000E+02  3.00000000E+02  0.00000000E+00
  4.80000000E+02  2.80000000E+02  0.00000000E+00
  4.80000000E+02  2.60000000E+02  0.00000000E+00
  4.80000000E+02  2.40000000E+02  0.00000000E+00
  4.80000000E+02  2.20000000E+02  0.00000000E+00
  4.80000000E+02  2.00000000E+02  0.00000000E+00
  4.80000000E+02  1.80000000E+02  0.00000000E+00
  4.80000000E+02  1.60000000E+02  0.00000000E+00
  4.80000000E+02  1.40000000E+02  0.00000000E+00
  4.80000000E+02  1.20000000E+02  0.00000000E+00
  4.80000000E+02  1.00000000E+02  0.00000000E+00
  4.80000000E+02  8.00000000E+01  0.00000000E+00
  4.80000000E+02  6.00000000E+01  0.00000000E+00
  4.80000000E+02  4.00000000E+01  0.00000000E+00
  4.80000000E+02  2.00000000E+01  0.00000000E+00
  4.80000000E+02  4.99600361E-14  0.00000000E+00
  5.00000000E+02  3.00000000E+02  0.00000000E+00
  5.00000000E+02  2.80000000E+02  0.00000000E+00
  5.00000000E+02  2.60000000E+02  0.00000000E+00
  5.00000000E+02  2.40000000E+02  0.00000000E+00
  5.00000000E+02  2.20000000E+02  0.00000000E+00
  5.00000000E+02  2.00000000E+02  0.00000000E+00
  5.00000000E+02  1.80000000E+02  0.00000000E+00
  5.00000000E+02  1.60000000E+02  0.00000000E+00
  5.00000000E+02  1.40000000E+02  0.00000000E+00
  5.00000000E+02  1.20000000E+02  0.00000000E+00
  5.00000000E+02  1.00000000E+02  0.00000000E+00
  5.00000000E+02  8.00000000E+01  0.00000000E+00
  5.00000000E+02  6.00000000E+01  0.00000000E+00
  5.00000000E+02  4.00000000E+01  0.00000000E+00
  5.00000000E+02  2.00000000E+01  0.00000000E+00
  5.00000000E+02  4.99600361E-14  0.00000000E+00
  5.20000000E+02  3.00000000E+02  0.00000000E+00
  5.20000000E+02  2.80000000E+02  0.00000000E+00
  5.20000000E+02  2.60000000E+02  0.00000000E+00
  5.20000000E+02  2.40000000E+02  0.00000000E+00
  5.20000000E+02  2.20000000E+02  0.00000000E+00
  5.20000000E+02  2.00000000E+02  0.00000000E+00
  5.20000000E+02  1.80000000E+02  0.00000000E+00
  5.20000000E+02  1.60000000E+02  0.00000000E+00
  5.20000000E+02  1.40000000E+02  0.00000000E+00
  5.20000000E+02  1.20000000E+02  0.00000000E+00
  5.20000000E+02  1.00000000E+02  0.00000000E+00
  5.20000000E+02  8.00000000E+01  0.00000000E+00
  5.20000000E+02  6.00000000E+01  0.00000000E+00
  5.20000000E+02  4.00000000E+01  0.00000000E+00
  5.20000000E+02  2.00000000E+01  0.00000000E+00
  5.20000000E+02  4.99600361E-14  0.00000000E+00
  5.40000000E+02  3.00000000E+02  0.00000000E+00
  5.40000000E+02  2.80000000E+02  0.00000000E+00
  5.40000000E+02  2.60000000E+02  0.00000000E+00
  5.40000000E+02  2.40000000E+02  0.00000000E+00
  5.40000000E+02  2.20000000E+02  0.00000000E+00
  5.40000000E+02  2.00000000E+02  0.00000000E+00
  5.40000000E+02  1.80000000E+02  0.00000000E+00
  5.40000000E+02  1.60000000E+02  0.00000000E+00
  5.40000000E+02  1.40000000E+02  0.00000000E+00
  5.40000000E+02  1.20000000E+02  0.00000000E+00
  5.40000000E+02  1.00000000E+02  0.00000000E+00
  5.40000000E+02  8.00000000E+01  0.00000000E+00
  5.40000000E+02  6.00000000E+01  0.00000000E+00
  5.40000000E+02  4.00000000E+01  0.00000000E+00
  5.40000000E+02  2.00000000E+01  0.00000000E+00
  5.40000000E+02  4.99600361E-14  0.00000000E+00
  5.60000000E+02  3.00000000E+02  0.00000000E+00
  5.60000000E+02  2.80000000E+02  0.00000000E+00
  5.60000000E+02  2.60000000E+02  0.00000000E+00
  5.60000000E+02  2.40000000E+02  0.00000000E+00
  5.60000000E+02  2.20000000E+02  0.00000000E+00
  5.60000000E+02  2.00000000E+02  0.00000000E+00
  5.60000000E+02  1.80000000E+02  0.00000000E+00
  5.60000000E+02  1.60000000E+02  0.00000000E+00
  5.60000000E+02  1.40000000E+02  0.00000000E+00
  5.60000000E+02  1.20000000E+02  0.00000000E+00
  5.60000000E+02  1.00000000E+02  0.00000000E+00
  5.60000000E+02  8.00000000E+01  0.00000000E+00
  5.60000000E+02  6.00000000E+01  0.00000000E+00
  5.60000000E+02  4.00000000E+01  0.00000000E+00
  5.60000000E+02  2.00000000E+01  0.00000000E+00
  5.60000000E+02  4.99600361E-14  0.00000000E+00
  5.80000000E+02  3.00000000E+02  0.00000000E+00
  5.80000000E+02  2.80000000E+02  0.00000000E+00
  5.80000000E+02  2.60000000E+02  0.00000000E+00
  5.80000000E+02  2.40000000E+02  0.00000000E+00
  5.80000000E+02  2.20000000E+02  0.00000000E+00
  5.80000000E+02  2.00000000E+02  0.00000000E+00
  5.80000000E+02  1.80000000E+02  0.00000000E+00
  5.80000000E+02  1.60000000E+02  0.00000000E+00
  5.80000000E+02  1.40000000E+02  0.00000000E+00
  5.80000000E+02  1.20000000E+02  0.00000000E+00
  5.80000000E+02  1.00000000E+02  0.00000000E+00
  5.80000000E+02  8.00000000E+01  0.00000000E+00
  5.80000000E+02  6.00000000E+01  0.00000000E+00
  5.80000000E+02  4.00000000E+01  0.00000000E+00
  5.80000000E+02  2.00000000E+01  0.00000000E+00
  5.80000000E+02  4.99600361E-14  0.00000000E+00
  6.00000000E+02  3.00000000E+02  0.00000000E+00
  6.00000000E+02  2.80000000E+02  0.00000000E+00
  6.00000000E+02  2.60000000E+02  0.00000000E+00
  6.00000000E+02  2.40000000E+02  0.00000000E+00
  6.00000000E+02  2.20000000E+02  0.00000000E+00
  6.00000000E+02  2.00000000E+02  0.00000000E+00
  6.00000000E+02  1.80000000E+02  0.00000000E+00
  6.00000000E+02  1.60000000E+02  0.00000000E+00
  6.00000000E+02  1.40000000E+02  0.00000000E+00
  6.00000000E+02  1.20000000E+02  0.00000000E+00
  6.00000000E+02  1.00000000E+02  0.00000000E+00
  6.00000000E+02  8.00000000E+01  0.00000000E+00
  6.00000000E+02  6.00000000E+01  0.00000000E+00
  6.00000000E+02  4.00000000E+01  0.00000000E+00
  6.00000000E+02  2.00000000E+01  0.00000000E+00
  6.00000000E+02  4.99600361E-14  0.00000000E+00
CELLS       450      2250
         4           0           1          17          16
         4           1           2          18          17
         4           2           3          19          18
         4           3           4          20          19
         4           4           5          21          20
         4           5           6          22          21
         4           6           7          23          22
         4           7           8          24          23
         4           8           9          25          24
         4           9          10          26          25
         4          10          11          27          26
         4          11          12          28          27
         4          12          13          29          28
         4          13          14          30          29
         4          14          15          31          30
         4          16          17          33          32
         4          17          18          34          33
         4          18          19          35          34
         4          19          20          36          35
         4          20          21          37          36
         4          21          22          38          37
         4          22          23          39          38
         4          23          24          40          39
         4          24          25          41          40
         4          25          26          42          41
         4          26          27          43          42
         4          27          28          44          43
         4          28          29          45          44
         4          29          30          46          45
         4          30          31          47          46
         4          32          33          49          48
         4          33          34          50          49
         4          34          35          51          50
         4          35          36          52          51
         4          36          37          53          52
         4          37          38          54          53
         4          38          39          55          54
         4          39          40          56          55
         4          40          41          57          56
         4          41          42          58          57
         4          42          43          59          58
         4          43          44          60          59
         4          44          45          61          60
         4          45          46          62          61
         4          46          47          63          62
         4          48          49          65          64
         4          49          50          66          65
         4          50          51          67          66
         4          51          52          68          67
         4          52          53          69          68
         4          53          54          70          69
         4          54          55          71          70
         4          55          56          72          71
         4          56          57          73          72
         4          57          58          74          73
         4          58          59          75          74
         4          59          60          76          75
         4          60          61          77          76
         4          61          62          78          77
         4          62          63          79          78
         4          64          65          81          80
         4          65          66          82          81
         4          66          67          83          82
         4          67          68          84          83
         4          68          69          85          84
         4          69          70          86          85
         4          70          71          87          86
         4          71          72          88          87
         4          72          73          89          88
         4          73          74          90          89
         4          74          75          91          90
         4          75          76          92          91
         4          76          77          93          92
         4          77          78          94          93
         4          78          79          95          94
         4          80          81          97          96
         4          81          82          98          97
         4          82          83          99          98
         4          83          84         100          99
         4          84          85         101         100
         4          85          86         102         101
         4          86          87         103         102
         4          87          88         104         103
         4          88          89         105         104
         4          89          90         106         105
         4          90          91         107         106
         4          91          92         108         107
         4          92          93         109         108
         4          93          94         110         109
         4          94          95         111         110
         4          96          97         113         112
         4          97          98         114         113
         4          98          99         115         114
         4          99         100         116         115
         4         100         101         117         116
         4         101         102         118         117
         4         102         103         119         118
         4         103         104         120         119
         4         104         105         121         120
         4         105         106         122         121
         4         106         107         123         122
         4         107         108         124         123
         4         108         109         125         124
         4         109         110         126         125
         4         110         111         127         126
         4         112         113         129         128
         4         113         114         130         129
         4         114         115         131         130
         4         115         116         132         131
         4         116         117         133         132
         4         117         118         134         133
         4         118         119         135         134
         4         119         120         136         135
         4         120         121         137         136
         4         121         122         138         137
         4         122         123         139         138
         4         123         124         140         139
         4         124         125         141         140
         4         125         126         142         141
         4         126         127         143         142
         4         128         129         145         144
         4         129         130         146         145
         4         130         131         147         146
         4         131         132         148         147
         4         132         133         149         148
         4         133         134         150         149
         4         134         135         151         150
         4         135         136         152         151
         4         136         137         153         152
         4         137         138         154         153
         4         138         139         155         154
         4         139         140         156         155
         4         140         141         157         156
         4         141         142         158         157
         4         142         143         159         158
         4         144         145         161         160
         4         145         146         162         161
         4         146         147         163         162
         4         147         148         164         163
         4         148         149         165         164
         4         149         150         166         165
         4         150         151         167         166
         4         151         152         168         167
         4         152         153         169         168
         4         153         154         170         169
         4         154         155         171         170
         4         155         156         172         171
         4         156         157         173         172
         4         157         158         174         173
         4         158         159         175         174
         4         160         161         177         176
         4         161         162         178         177
         4         162         163         179         178
         4         163         164         180         179
         4         164         165         181         180
         4         165         166         182         181
         4         166         167         183         182
         4         167         168         184         183
         4         168         169         185         184
         4         169         170         186         185
         4         170         171         187         186
         4         171         172         188         187
         4         172         173         189         188
         4         173         174         190         189
         4         174         175         191         190
         4         176         177         193         192
         4         177         178         194         193
         4         178         179         195         194
         4         179         180         196         195
         4         180         181         197         196
         4         181         182         198         197
         4         182         183         199         198
         4         183         184         200         199
         4         184         185         201         200
         4         185         186         202         201
         4         186         187         203         202
         4         187         188         204         203
         4         188         189         205         204
         4         189         190         206         205
         4         190         191         207         206
         4         192         193         209         208
         4         193         194         210         209
         4         194         195         211         210
         4         195         196         212         211
         4         196         197         213         212
         4         197         198         214         213
         4         198         199         215         214
         4         199         200         216         215
         4         200         201         217         216
         4         201         202         218         217
         4         202         203         219         218
         4         203         204         220         219
         4         204         205         221         220
         4         205         206         222         221
         4         206         207         223         222
         4         208         209         225         224
         4         209         210         226         225
         4         210         211         227         226
         4         211         212         228         227
         4         212         213         229         228
         4         213         214         230         229
         4         214         215         231         230
         4         215         216         232         231
         4         216         217         233         232
         4         217         218         234         233
         4         218         219         235         234
         4         219         220         236         235
         4         220         221         237         236
         4         221         222         238         237
         4         222         223         239         238
         4         224         225         241         240
         4         225         226         242         241
         4         226         227         243         242
         4         227         228         244         243
         4         228         229         245         244
         4         229         230         246         245
         4         230         231         247         246
         4         231         232         248         247
         4         232         233         249         248
         4         233         234         250         249
         4         234         235         251         250
         4         235         236         252         251
         4         236         237         253         252
         4         237         238         254         253
         4         238         239         255         254
         4         240         241         257         256
         4         241         242         258         257
         4         242         243         259         258
         4         243         244         260         259
         4         244         245         261         260
         4         245         246         262         261
         4         246         247         263         262
         4         247         248         264         263
         4         248         249         265         264
         4         249         250         266         265
         4         250         251         267         266
         4         251         252         268         267
         4         252         253         269         268
         4         253         254         270         269
         4         254         255         271         270
         4         256         257         273         272
         4         257         258         274         273
         4         258         259         275         274
         4         259         260         276         275
         4         260         261         277         276
         4         261         262         278         277
         4         262         263         279         278
         4         263         264         280         279
         4         264         265         281         280
         4         265         266         282         281
         4         266         267         283         282
         4         267         268         284         283
         4         268         269         285         284
         4         269         270         286         285
         4         270         271         287         286
         4         272         273         289         288
         4         273         274         290         289
         4         274         275         291         290
         4         275         276         292         291
         4         276         277         293         292
         4         277         278         294         293
         4         278         279         295         294
         4         279         280         296         295
         4         280         281         297         296
         4         281         282         298         297
         4         282         283         299         298
         4         283         284         300         299
         4         284         285         301         300
         4         285         286         302         301
         4         286         287         303         302
         4         288         289         305         304
         4         289         290         306         305
         4         290         291         307         306
         4         291         292         308         307
         4         292         293         309         308
         4         293         294         310         309
         4         294         295         311         310
         4         295         296         312         311
         4         296         297         313         312
         4         297         298         314         313
         4         298         299         315         314
         4         299         300         316         315
         4         300         301         317         316
         4         301         302         318         317
         4         302         303         319         318
         4         304         305         321         320
         4         305         306         322         321
         4         306         307         323         322
         4         307         308         324         323
         4         308         309         325         324
         4         309         310         326         325
         4         310         311         327         326
         4         311         312         328         327
         4         312         313         329         328
         4         313         314         330         329
         4         314         315         331         330
         4         315         316         332         331
         4         316         317         333         332
         4         317         318         334         333
         4         318         319         335         334
         4         320         321         337         336
         4         321         322         338         337
         4         322         323         339         338
         4         323         324         340         339
         4         324         325         341         340
         4         325         326         342         341
         4         326         327         343         342
         4         327         328         344         343
         4         328         329         345         344
         4         329         330         346         345
         4         330         331         347         346
         4         331         332         348         347
         4         332         333         349         348
         4         333         334         350         349
         4         334         335         351         350
         4         336         337         353         352
         4         337         338         354         353
         4         338         339         355         354
         4         339         340         356         355
         4         340         341         357         356
         4         341         342         358         357
         4         342         343         359         358
         4         343         344         360         359
         4         344         345         361         360
         4         345         346         362         361
         4         346         347         363         362
         4         347         348         364         363
         4         348         349         365         364
         4         349         350         366         365
         4         350         351         367         366
         4         352         353         369         368
         4         353         354         370         369
         4         354         355         371         370
         4         355         356         372         371
         4         356         357         373         372
         4         357         358         374         373
         4         358         359         375         374
         4         359         360         376         375
         4         360         361         377         376
         4         361         362         378         377
         4         362         363         379         378
         4         363         364         380         379
         4         364         365         381         380
         4         365         366         382         381
         4         366         367         383         382
         4         368         369         385         384
         4         369         370         386         385
         4         370         371         387         386
         4         371         372         388         387
         4         372         373         389         388
         4         373         374         390         389
         4         374         375         391         390
         4         375         376         392         391
         4         376         377         393         392
         4         377         378         394         393
         4         378         379         395         394
         4         379         380         396         395
         4         380         381         397         396
         4         381         382         398         397
         4         382         383         399         398
         4         384         385         401         400
         4         385         386         402         401
         4         386         387         403         402
         4         387         388         404         403
         4         388         389         405         404
         4         389         390         406         405
         4         390         391         407         406
         4         391         392         408         407
         4         392         393         409         408
         4         393         394         410         409
         4         394         395         411         410
         4         395         396         412         411
         4         396         397         413         412
         4         397         398         414         413
         4         398         399         415         414
         4         400         401         417         416
         4         401         402         418         417
         4         402         403         419         418
         4         403         404         420         419
         4         404         405         421         420
         4         405         406         422         421
         4         406         407         423         422
         4         407         408         424         423
         4         408         409         425         424
         4         409         410         426         425
         4         410         411         427         426
         4         411         412         428         427
         4         412         413         429         428
         4         413         414         430         429
         4         414         415         431         430
         4         416         417         433         432
         4         417         418         434         433
         4         418         419         435         434
         4         419         420         436         435
         4         420         421         437         436
         4         421         422         438         437
         4         422         423         439         438
         4         423         424         440         439
         4         424         425         441         440
         4         425         426         442         441
         4         426         427         443         442
         4         427         428         444         443
         4         428         429         445         444
         4         429         430         446         445
         4         430         431         447         446
         4         432         433         449         448
         4         433         434         450         449
         4         434         435         451         450
         4         435         436         452         451
         4         436         437         453         452
         4         437         438         454         453
         4         438         439         455         454
         4         439         440         456         455
         4         440         441         457         456
         4         441         442         458         457
         4         442         443         459         458
         4         443         444         460         459
         4         444         445         461         460
         4         445         446         462         461
         4         446         447         463         462
         4         448         449         465         464
         4         449         450         466         465
         4         450         451         467         466
         4         451         452         468         467
         4         452         453         469         468
         4         453         454         470         469
         4         454         455         471         470
         4         455         456         472         471
         4         456         457         473         472
         4         457         458         474         473
         4         458         459         475         474
         4         459         460         476         475
         4         460         461         477         476
         4         461         462         478         477
         4         462         463         479         478
         4         464         465         481         480
         4         465         466         482         481
         4         466         467         483         482
         4         467         468         484         483
         4         468         469         485         484
         4         469         470         486         485
         4         470         471         487         486
         4         471         472         488         487
         4         472         473         489         488
         4         473         474         490         489
         4         474         475         491         490
         4         475         476         492         491
         4         476         477         493         492
         4         477         478         494         493
         4         478         479         495         494
CELL_TYPES        450
9
9
9
9
9
9
9
9
9
9
9
9
9
9
9
9
9
9
9
9
9
9
9
9
9
9
9
9
9
9
9
9
9
9
9
9
9
9
9
9
9
9
9
9
9
9
9
9
9
9
9
9
9
9
9
9
9
9
9
9
9
9
9
9
9
9
9
9
9
9
9
9
9
9
9
9
9
9
9
9
9
9
9
9
9
9
9
9
9
9
9
9
9
9
9
9
9
9
9
9
9
9
9
9
9
9
9
9
9
9
9
9
9
9
9
9
9
9
9
9
9
9
9
9
9
9
9
9
9
9
9
9
9
9
9
9
9
9
9
9
9
9
9
9
9
9
9
9
9
9
9
9
9
9
9
9
9
9
9
9
9
9
9
9
9
9
9
9
9
9
9
9
9
9
9
9
9
9
9
9
9
9
9
9
9
9
9
9
9
9
9
9
9
9
9
9
9
9
9
9
9
9
9
9
9
9
9
9
9
9
9
9
9
9
9
9
9
9
9
9
9
9
9
9
9
9
9
9
9
9
9
9
9
9
9
9
9
9
9
9
9
9
9
9
9
9
9
9
9
9
9
9
9
9
9
9
9
9
9
9
9
9
9
9
9
9
9
9
9
9
9
9
9
9
9
9
9
9
9
9
9
9
9
9
9
9
9
9
9
9
9
9
9
9
9
9
9
9
9
9
9
9
9
9
9
9
9
9
9
9
9
9
9
9
9
9
9
9
9
9
9
9
9
9
9
9
9
9
9
9
9
9
9
9
9
9
9
9
9
9
9
9
9
9
9
9
9
9
9
9
9
9
9
9
9
9
9
9
9
9
9
9
9
9
9
9
9
9
9
9
9
9
9
9
9
9
9
9
9
9
9
9
9
9
9
9
9
9
9
9
9
9
9
9
9
9
9
9
9
9
9
9
9
9
9
9
9
9
9
9
9
9
9
9
9
9
9
9
9
9
9
9
9
9
9
9
9
9
9
9
9
9
9
9
9
9
9
9
9
9
9
9
9
9
9
9
9
9
9
9
POINT_DATA       496
SCALARS p double 
LOOKUP_TABLE default
   60000000.0000000     
   60000000.0000000     
   60000000.0000000     
   60000000.0000000     
   60000000.0000000     
   60000000.0000000     
   60000000.0000000     
   60000000.0000000     
   60000000.0000000     
   60000000.0000000     
   60000000.0000000     
   60000000.0000000     
   60000000.0000000     
   60000000.0000000     
   60000000.0000000     
   60000000.0000000     
   59780210.2919197     
   59780210.9887781     
   59780213.1286847     
   59780216.5312490     
   59780220.7798458     
   59780225.5308903     
   59780230.5030834     
   59780235.4744195     
   59780240.2716997     
   59780244.7582692     
   59780248.8209091     
   59780252.3569898     
   59780255.2622226     
   59780257.4228305     
   59780258.6908469     
   59780259.0796454     
   59552123.7611121     
   59552125.3821346     
   59552129.9678232     
   59552136.8872774     
   59552145.4221180     
   59552154.9032105     
   59552164.7830399     
   59552174.6296099     
   59552184.1088404     
   59552192.9601337     
   59552200.9700123     
   59552207.9463800     
   59552213.6967819     
   59552218.0107021     
   59552220.6964896     
   59552221.6124107     
   59307299.5872066     
   59307302.1933975     
   59307309.3870921     
   59307319.9588876     
   59307332.7959342     
   59307346.9241310     
   59307361.5459620     
   59307376.0410395     
   59307389.9384987     
   59307402.8793959     
   59307414.5756552     
   59307424.7707722     
   59307433.2063280     
   59307439.6062635     
   59307443.6732906     
   59307445.0849260     
   59037007.7839531     
   59037011.3979185     
   59037021.2499971     
   59037035.4921071     
   59037052.5435716     
   59037071.0985280     
   59037090.1249058     
   59037108.8425264     
   59037126.6801146     
   59037143.2197301     
   59037158.1376602     
   59037171.1480547     
   59037181.9556679     
   59037190.2204700     
   59037195.5333606     
   59037197.3957979     
   58732097.5674275     
   58732102.1901911     
   58732114.6665259     
   58732132.4421976     
   58732153.4200826     
   58732175.9438245     
   58732198.7622727     
   58732220.9749587     
   58732241.9613113     
   58732261.2999365     
   58732278.6855747     
   58732293.8507499     
   58732306.4972423     
   58732316.2404748     
   58732322.5668140     
   58732324.8023513     
   58382881.6791160     
   58382887.2755961     
   58382902.2202980     
   58382923.1749079     
   58382947.4903488     
   58382973.1609111     
   58382998.7495967     
   58383023.2929639     
   58383046.1923605     
   58383067.0987294     
   58383085.7982909     
   58383102.1056230     
   58383115.7692566     
   58383126.3930808     
   58383133.3753527     
   58383135.8664239     
   57979042.7327248     
   57979049.2059033     
   57979066.2716418     
   57979089.7294790     
   57979116.3606120     
   57979143.8376970     
   57979170.5997256     
   57979195.7055601     
   57979218.6766670     
   57979239.3378071     
   57979257.6631905     
   57979273.6343721     
   57979287.1148230     
   57979297.7448837     
   57979304.8599379     
   57979307.4344166     
   57509568.3550583     
   57509575.5111987     
   57509594.0649145     
   57509618.8925137     
   57509646.2178941     
   57509673.4570084     
   57509699.0255188     
   57509722.1272114     
   57509742.5364612     
   57509760.3847984     
   57509775.9592426     
   57509789.5182713     
   57509801.1299680     
   57509810.5360578     
   57509817.0452195     
   57509819.4592528     
   56962722.4482181     
   56962729.9542769     
   56962748.9621104     
   56962773.4037292     
   56962799.0066939     
   56962823.0467502     
   56962844.0672542     
   56962861.5860425     
   56962875.8048069     
   56962887.3315204     
   56962896.9230840     
   56962905.2530659     
   56962912.7080917     
   56962919.2160137     
   56962924.1093089     
   56962926.0279729     
   56326060.3094958     
   56326067.6437988     
   56326085.5394091     
   56326107.0324305     
   56326127.4867414     
   56326144.2232684     
   56326156.1269047     
   56326163.2538168     
   56326166.4547574     
   56326167.0241728     
   56326166.3805910     
   56326165.7810622     
   56326166.0712291     
   56326167.4727590     
   56326169.4110695     
   56326170.3881160     
   55586495.4556329     
   55586501.8540214     
   55586516.3973776     
   55586531.3798812     
   55586542.0332850     
   55586545.9971172     
   55586542.7868450     
   55586533.2834923     
   55586519.2592495     
   55586502.9463492     
   55586486.6512431     
   55586472.4130926     
   55586461.7047168     
   55586455.1751851     
   55586452.4357399     
   55586451.8940937     
   54730425.6525850     
   54730430.0538936     
   54730438.1920795     
   54730441.9212503     
   54730436.7015081     
   54730420.8717930     
   54730394.9529982     
   54730361.0037309     
   54730322.0400089     
   54730281.5212663     
   54730242.8988361     
   54730209.2198718     
   54730182.7794213     
   54730164.8157450     
   54730155.2483444     
   54730152.4637132     
   53743924.6844714     
   53743925.6812683     
   53743923.4283211     
   53743909.8360437     
   53743881.1130072     
   53743836.8031258     
   53743778.9000662     
   53743711.0577157     
   53743637.9019294     
   53743564.4379330     
   53743495.5404965     
   53743435.5107617     
   53743387.6843784     
   53743354.0799098     
   53743335.0834759     
   53743329.1741845     
   52613004.6483303     
   52613000.4511144     
   52612982.8097997     
   52612944.4297597     
   52612882.9761090     
   52612799.8404912     
   52612699.0492648     
   52612586.3254566     
   52612468.3001342     
   52612351.8556278     
   52612243.5745840     
   52612149.2657779     
   52612073.5399159     
   52612019.4156674     
   52611987.9467558     
   52611977.8736312     
   51323950.9046225     
   51323939.3297950     
   51323900.2835820     
   51323828.2911179     
   51323723.3918005     
   51323589.6088977     
   51323433.6443374     
   51323263.8013239     
   51323089.1166032     
   51322918.6679236     
   51322761.0123913     
   51322623.7088410     
   51322512.8818526     
   51322432.7957234     
   51322385.4220529     
   51322370.0027168     
   49863728.1695429     
   49863706.6629936     
   49863639.2700711     
   49863523.6801223     
   49863363.4442879     
   49863166.1338873     
   49862941.8296784     
   49862701.9314841     
   49862458.2510133     
   49862222.3303198     
   49862004.9169039     
   49861815.5248410     
   49861662.0189542     
   49861550.1745654     
   49861483.1868473     
   49861461.1289164     
   48220451.6076161     
   48220417.3160824     
   48220313.9375311     
   48220144.0052655     
   48219915.9322590     
   48219641.8614485     
   48219335.9772468     
   48219013.2510257     
   48218688.5578150     
   48218376.0755502     
   48218088.8652566     
   48217838.5308403     
   48217634.8691644     
   48217485.4427387     
   48217395.0364503     
   48217364.9936812     
   46383911.2861770     
   46383861.1870173     
   46383713.8766647     
   46383478.7378157     
   46383170.5784835     
   46382807.1976311     
   46382407.5716001     
   46381990.6128740     
   46381574.4035138     
   46381175.7727461     
   46380810.0748515     
   46380491.0277008     
   46380230.4903176     
   46380038.0867471     
   46379920.6213781     
   46379881.2755040     
   44346132.2396974     
   44346063.3358375     
   44345864.4087285     
   44345553.9811275     
   44345154.9161049     
   44344691.7428057     
   44344188.8009633     
   44343669.1266154     
   44343153.9313866     
   44342662.4878376     
   44342212.2237373     
   44341818.8404234     
   44341496.2964350     
   44341256.5336973     
   44341108.8700228     
   44341059.0387566     
   42101946.0707273     
   42101855.6511139     
   42101598.4308704     
   42101204.5756265     
   42100706.7041180     
   42100137.0393862     
   42099525.6337051     
   42098899.5426240     
   42098282.7233908     
   42097696.3913403     
   42097159.5730434     
   42096689.6238134     
   42096302.5126738     
   42096012.7174201     
   42095832.6236788     
   42095771.3921388     
   39649544.0544856     
   39649430.0119217     
   39649109.7365000     
   39648627.6502488     
   39648027.7498471     
   39647350.6694018     
   39646632.1652418     
   39645902.8071660     
   39645188.5228484     
   39644511.6186625     
   39643891.9469310     
   39643347.9504206     
   39642897.3581540     
   39642557.3365471     
   39642343.9431548     
   39642270.8120954     
   36990976.8244088     
   36990838.0137696     
   36990452.8595707     
   36989882.6463922     
   36989184.1347600     
   36988406.6539878     
   36987591.1250525     
   36986770.6017779     
   36985971.7506656     
   36985216.7419399     
   36984525.1700138     
   36983915.7389377     
   36983407.4880259     
   36983020.3192291     
   36982774.5914689     
   36982689.6319989     
   34132562.6937449     
   34132399.3077552     
   34131951.4843923     
   34131299.8527526     
   34130514.8685778     
   34129654.1381132     
   34128762.4521889     
   34127873.6777028     
   34127013.5240071     
   34126202.4736590     
   34125458.5178352     
   34124799.5407745     
   34124245.1955511     
   34123817.9888409     
   34123543.1829401     
   34123447.1851478     
   31085166.3154304     
   31084980.2586117     
   31084477.1514415     
   31083759.2247844     
   31082910.7644320     
   31081996.1128944     
   31081061.5928257     
   31080139.5111187     
   31079252.5786275     
   31078417.9020660     
   31077650.4156579     
   31076965.8942660     
   31076383.5896814     
   31075928.1638233     
   31075630.2421023     
   31075524.8479081     
   27864312.3838322     
   27864107.6544218     
   27863563.0920976     
   27862804.4565848     
   27861928.5635068     
   27861003.1308283     
   27860072.3162719     
   27859163.9092022     
   27858295.5881332     
   27857479.6523553     
   27856726.7130306     
   27856049.0644491     
   27855464.1070289     
   27854997.6135203     
   27854685.6392747     
   27854573.4555959     
   24490105.8838326     
   24489889.0525956     
   24489325.0563352     
   24488564.4822688     
   24487712.5234702     
   24486833.9918182     
   24485965.7289790     
   24485128.0608860     
   24484332.3039636     
   24483585.3199881     
   24482892.8133339     
   24482262.4001955     
   24481707.6758699     
   24481253.3354347     
   24480939.9612567     
   24480824.7165406     
   20986940.9447905     
   20986722.1718826     
   20986172.3360783     
   20985466.1078272     
   20984706.8739469     
   20983945.9861817     
   20983207.5613751     
   20982503.1185836     
   20981837.7405524     
   20981213.5075240     
   20980631.7582820     
   20980095.3012902     
   20979611.4636169     
   20979199.8896643     
   20978902.4336482     
   20978789.1025192     
   17382994.9166293     
   17382790.6822244     
   17382308.2852470     
   17381737.7734977     
   17381156.4966245     
   17380589.9315777     
   17380049.1482708     
   17379538.1998415     
   17379057.8529149     
   17378607.3166388     
   17378185.3621321     
   17377791.3256519     
   17377426.9038239     
   17377098.7395755     
   17376841.5651208     
   17376738.1896621     
   13709519.4922741     
   13709364.7888409     
   13709047.3094066     
   13708721.9988440     
   13708403.4170232     
   13708099.5678986     
   13707812.9043533     
   13707543.8359852     
   13707291.6693598     
   13707055.1655474     
   13706832.8656982     
   13706623.3698506     
   13706425.5265660     
   13706239.9633702     
   13706064.2217336     
   13705977.9162131     
   10000000.0000000     
   10000000.0000000     
   10000000.0000000     
   10000000.0000000     
   10000000.0000000     
   10000000.0000000     
   10000000.0000000     
   10000000.0000000     
   10000000.0000000     
   10000000.0000000     
   10000000.0000000     
   10000000.0000000     
   10000000.0000000     
  10000000.00000000     
   10000000.0000000     
   10000000.0000000     
VECTORS u double 
    0.00000E+00        -0.16756E-02         0.00000E+00
    0.00000E+00        -0.13769E-02         0.00000E+00
    0.00000E+00        -0.10986E-02         0.00000E+00
    0.00000E+00        -0.84211E-03         0.00000E+00
    0.00000E+00        -0.60937E-03         0.00000E+00
    0.00000E+00        -0.40174E-03         0.00000E+00
    0.00000E+00        -0.22034E-03         0.00000E+00
    0.00000E+00        -0.66205E-04         0.00000E+00
    0.00000E+00         0.59586E-04         0.00000E+00
    0.00000E+00         0.15578E-03         0.00000E+00
    0.00000E+00         0.22090E-03         0.00000E+00
    0.00000E+00         0.25315E-03         0.00000E+00
    0.00000E+00         0.25044E-03         0.00000E+00
    0.00000E+00         0.21017E-03         0.00000E+00
    0.00000E+00         0.12900E-03         0.00000E+00
    0.00000E+00         0.00000E+00         0.00000E+00
    0.12255E-02        -0.17350E-02         0.00000E+00
    0.11256E-02        -0.14268E-02         0.00000E+00
    0.10349E-02        -0.11428E-02         0.00000E+00
    0.94706E-03        -0.88242E-03         0.00000E+00
    0.86128E-03        -0.64637E-03         0.00000E+00
    0.77749E-03        -0.43571E-03         0.00000E+00
    0.69569E-03        -0.25137E-03         0.00000E+00
    0.61583E-03        -0.94257E-04         0.00000E+00
    0.53777E-03         0.34582E-04         0.00000E+00
    0.46126E-03         0.13392E-03         0.00000E+00
    0.38599E-03         0.20228E-03         0.00000E+00
    0.31155E-03         0.23786E-03         0.00000E+00
    0.23744E-03         0.23851E-03         0.00000E+00
    0.16280E-03         0.20162E-03         0.00000E+00
    0.85917E-04         0.12377E-03         0.00000E+00
    0.00000E+00         0.00000E+00         0.00000E+00
    0.24317E-02        -0.18917E-02         0.00000E+00
    0.22388E-02        -0.15701E-02         0.00000E+00
    0.20566E-02        -0.12735E-02         0.00000E+00
    0.18803E-02        -0.10025E-02         0.00000E+00
    0.17084E-02        -0.75705E-03         0.00000E+00
    0.15406E-02        -0.53754E-03         0.00000E+00
    0.13771E-02        -0.34446E-03         0.00000E+00
    0.12175E-02        -0.17849E-03         0.00000E+00
    0.10616E-02        -0.40514E-04         0.00000E+00
    0.90883E-03         0.68288E-04         0.00000E+00
    0.75856E-03         0.14643E-03         0.00000E+00
    0.60997E-03         0.19207E-03         0.00000E+00
    0.46208E-03         0.20299E-03         0.00000E+00
    0.31341E-03         0.17657E-03         0.00000E+00
    0.16114E-03         0.10972E-03         0.00000E+00
    0.00000E+00         0.00000E+00         0.00000E+00
    0.36210E-02        -0.21359E-02         0.00000E+00
    0.33394E-02        -0.17988E-02         0.00000E+00
    0.30667E-02        -0.14866E-02         0.00000E+00
    0.28014E-02        -0.12005E-02         0.00000E+00
    0.25429E-02        -0.94074E-03         0.00000E+00
    0.22912E-02        -0.70712E-03         0.00000E+00
    0.20460E-02        -0.49980E-03         0.00000E+00
    0.18071E-02        -0.31918E-03         0.00000E+00
    0.15738E-02        -0.16599E-03         0.00000E+00
    0.13453E-02        -0.41340E-04         0.00000E+00
    0.11206E-02         0.53266E-04         0.00000E+00
    0.89850E-03         0.11594E-03         0.00000E+00
    0.67755E-03         0.14440E-03         0.00000E+00
    0.45597E-03         0.13611E-03         0.00000E+00
    0.23125E-03         0.88562E-04         0.00000E+00
    0.00000E+00         0.00000E+00         0.00000E+00
    0.47967E-02        -0.24649E-02         0.00000E+00
    0.44274E-02        -0.21101E-02         0.00000E+00
    0.40648E-02        -0.17798E-02         0.00000E+00
    0.37105E-02        -0.14754E-02         0.00000E+00
    0.33654E-02        -0.11971E-02         0.00000E+00
    0.30297E-02        -0.94467E-03         0.00000E+00
    0.27034E-02        -0.71786E-03         0.00000E+00
    0.23858E-02        -0.51691E-03         0.00000E+00
    0.20761E-02        -0.34241E-03         0.00000E+00
    0.17728E-02        -0.19543E-03         0.00000E+00
    0.14746E-02        -0.77483E-04         0.00000E+00
    0.11799E-02         0.94507E-05         0.00000E+00
    0.88692E-03         0.63048E-04         0.00000E+00
    0.59390E-03         0.80802E-04         0.00000E+00
    0.29889E-03         0.60354E-04         0.00000E+00
    0.00000E+00         0.00000E+00         0.00000E+00
    0.59609E-02        -0.28798E-02         0.00000E+00
    0.55027E-02        -0.25043E-02         0.00000E+00
    0.50499E-02        -0.21532E-02         0.00000E+00
    0.46066E-02        -0.18275E-02         0.00000E+00
    0.41751E-02        -0.15269E-02         0.00000E+00
    0.37561E-02        -0.12511E-02         0.00000E+00
    0.33495E-02        -0.99969E-03         0.00000E+00
    0.29544E-02        -0.77274E-03         0.00000E+00
    0.25694E-02        -0.57075E-03         0.00000E+00
    0.21927E-02        -0.39478E-03         0.00000E+00
    0.18223E-02        -0.24642E-03         0.00000E+00
    0.14563E-02        -0.12776E-03         0.00000E+00
    0.10926E-02        -0.41248E-04         0.00000E+00
    0.72953E-03         0.10485E-04         0.00000E+00
    0.36559E-03         0.24919E-04         0.00000E+00
    0.00000E+00         0.00000E+00         0.00000E+00
    0.71142E-02        -0.33837E-02         0.00000E+00
    0.65643E-02        -0.29843E-02         0.00000E+00
    0.60202E-02        -0.26092E-02         0.00000E+00
    0.54879E-02        -0.22586E-02         0.00000E+00
    0.49704E-02        -0.19318E-02         0.00000E+00
    0.44691E-02        -0.16281E-02         0.00000E+00
    0.39836E-02        -0.13470E-02         0.00000E+00
    0.35126E-02        -0.10882E-02         0.00000E+00
    0.30541E-02        -0.85243E-03         0.00000E+00
    0.26058E-02        -0.64062E-03         0.00000E+00
    0.21650E-02        -0.45455E-03         0.00000E+00
    0.17293E-02        -0.29647E-03         0.00000E+00
    0.12964E-02        -0.16909E-03         0.00000E+00
    0.86443E-03        -0.75310E-04         0.00000E+00
    0.43232E-03        -0.18069E-04         0.00000E+00
    0.00000E+00         0.00000E+00         0.00000E+00
    0.82559E-02        -0.39811E-02         0.00000E+00
    0.76104E-02        -0.35541E-02         0.00000E+00
    0.69732E-02        -0.31514E-02         0.00000E+00
    0.63515E-02        -0.27721E-02         0.00000E+00
    0.57489E-02        -0.24148E-02         0.00000E+00
    0.51667E-02        -0.20784E-02         0.00000E+00
    0.46042E-02        -0.17620E-02         0.00000E+00
    0.40595E-02        -0.14655E-02         0.00000E+00
    0.35300E-02        -0.11893E-02         0.00000E+00
    0.30124E-02        -0.93457E-03         0.00000E+00
    0.25035E-02        -0.70323E-03         0.00000E+00
    0.20001E-02        -0.49781E-03         0.00000E+00
    0.14995E-02        -0.32137E-03         0.00000E+00
    0.99968E-03        -0.17727E-03         0.00000E+00
    0.49973E-03        -0.69014E-04         0.00000E+00
    0.00000E+00         0.00000E+00         0.00000E+00
    0.93835E-02        -0.46779E-02         0.00000E+00
    0.86378E-02        -0.42191E-02         0.00000E+00
    0.79055E-02        -0.37846E-02         0.00000E+00
    0.71940E-02        -0.33721E-02         0.00000E+00
    0.65073E-02        -0.29795E-02         0.00000E+00
    0.58461E-02        -0.26052E-02         0.00000E+00
    0.52091E-02        -0.22478E-02         0.00000E+00
    0.45937E-02        -0.19072E-02         0.00000E+00
    0.39961E-02        -0.15837E-02         0.00000E+00
    0.34122E-02        -0.12786E-02         0.00000E+00
    0.28378E-02        -0.99413E-03         0.00000E+00
    0.22690E-02        -0.73317E-03         0.00000E+00
    0.17025E-02        -0.49920E-03         0.00000E+00
    0.11360E-02        -0.29620E-03         0.00000E+00
    0.56827E-03        -0.12837E-03         0.00000E+00
    0.00000E+00         0.00000E+00         0.00000E+00
    0.10493E-01        -0.54804E-02         0.00000E+00
    0.96418E-02        -0.49851E-02         0.00000E+00
    0.88120E-02        -0.45141E-02         0.00000E+00
    0.80108E-02        -0.40635E-02         0.00000E+00
    0.72414E-02        -0.36304E-02         0.00000E+00
    0.65037E-02        -0.32123E-02         0.00000E+00
    0.57955E-02        -0.28077E-02         0.00000E+00
    0.51128E-02        -0.24161E-02         0.00000E+00
    0.44509E-02        -0.20380E-02         0.00000E+00
    0.38042E-02        -0.16749E-02         0.00000E+00
    0.31677E-02        -0.13291E-02         0.00000E+00
    0.25363E-02        -0.10041E-02         0.00000E+00
    0.19059E-02        -0.70383E-03         0.00000E+00
    0.12737E-02        -0.43298E-03         0.00000E+00
    0.63820E-03        -0.19662E-03         0.00000E+00
    0.00000E+00         0.00000E+00         0.00000E+00
    0.11577E-01        -0.63954E-02         0.00000E+00
    0.10616E-01        -0.58586E-02         0.00000E+00
    0.96869E-02        -0.53457E-02         0.00000E+00
    0.87962E-02        -0.48516E-02         0.00000E+00
    0.79460E-02        -0.43720E-02         0.00000E+00
    0.71350E-02        -0.39038E-02         0.00000E+00
    0.63595E-02        -0.34452E-02         0.00000E+00
    0.56140E-02        -0.29955E-02         0.00000E+00
    0.48921E-02        -0.25550E-02         0.00000E+00
    0.41870E-02        -0.21257E-02         0.00000E+00
    0.34921E-02        -0.17101E-02         0.00000E+00
    0.28013E-02        -0.13122E-02         0.00000E+00
    0.21095E-02        -0.93650E-03         0.00000E+00
    0.14129E-02        -0.58853E-03         0.00000E+00
    0.70967E-03        -0.27424E-03         0.00000E+00
    0.00000E+00         0.00000E+00         0.00000E+00
    0.12629E-01        -0.74297E-02         0.00000E+00
    0.11552E-01        -0.68457E-02         0.00000E+00
    0.10522E-01        -0.62852E-02         0.00000E+00
    0.95431E-02        -0.57413E-02         0.00000E+00
    0.86149E-02        -0.52088E-02         0.00000E+00
    0.77347E-02        -0.46837E-02         0.00000E+00
    0.68966E-02        -0.41638E-02         0.00000E+00
    0.60934E-02        -0.36481E-02         0.00000E+00
    0.53168E-02        -0.31372E-02         0.00000E+00
    0.45583E-02        -0.26331E-02         0.00000E+00
    0.38096E-02        -0.21389E-02         0.00000E+00
    0.30632E-02        -0.16589E-02         0.00000E+00
    0.23128E-02        -0.11984E-02         0.00000E+00
    0.15535E-02        -0.76371E-03         0.00000E+00
    0.78267E-03        -0.36172E-03         0.00000E+00
    0.00000E+00         0.00000E+00         0.00000E+00
    0.13637E-01        -0.85897E-02         0.00000E+00
    0.12441E-01        -0.79525E-02         0.00000E+00
    0.11309E-01        -0.73379E-02         0.00000E+00
    0.10243E-01        -0.67376E-02         0.00000E+00
    0.92409E-02        -0.61450E-02         0.00000E+00
    0.82964E-02        -0.55555E-02         0.00000E+00
    0.74016E-02        -0.49664E-02         0.00000E+00
    0.65467E-02        -0.43766E-02         0.00000E+00
    0.57216E-02        -0.37868E-02         0.00000E+00
    0.49154E-02        -0.31992E-02         0.00000E+00
    0.41182E-02        -0.26172E-02         0.00000E+00
    0.33207E-02        -0.20457E-02         0.00000E+00
    0.25150E-02        -0.14907E-02         0.00000E+00
    0.16951E-02        -0.95927E-03         0.00000E+00
    0.85709E-03        -0.45946E-03         0.00000E+00
    0.00000E+00         0.00000E+00         0.00000E+00
    0.14587E-01        -0.98812E-02         0.00000E+00
    0.13270E-01        -0.91840E-02         0.00000E+00
    0.12037E-01        -0.85084E-02         0.00000E+00
    0.10887E-01        -0.78443E-02         0.00000E+00
    0.98154E-02        -0.71839E-02         0.00000E+00
    0.88127E-02        -0.65219E-02         0.00000E+00
    0.78679E-02        -0.58553E-02         0.00000E+00
    0.69686E-02        -0.51829E-02         0.00000E+00
    0.61019E-02        -0.45053E-02         0.00000E+00
    0.52549E-02        -0.38250E-02         0.00000E+00
    0.44152E-02        -0.31459E-02         0.00000E+00
    0.35718E-02        -0.24733E-02         0.00000E+00
    0.27149E-02        -0.18140E-02         0.00000E+00
    0.18369E-02        -0.11758E-02         0.00000E+00
    0.93265E-03        -0.56779E-03         0.00000E+00
    0.00000E+00         0.00000E+00         0.00000E+00
    0.15466E-01        -0.11309E-01         0.00000E+00
    0.14025E-01        -0.10544E-01         0.00000E+00
    0.12692E-01        -0.98001E-02         0.00000E+00
    0.11464E-01        -0.90641E-02         0.00000E+00
    0.10329E-01        -0.83277E-02         0.00000E+00
    0.92753E-02        -0.75847E-02         0.00000E+00
    0.82885E-02        -0.68318E-02         0.00000E+00
    0.73530E-02        -0.60677E-02         0.00000E+00
    0.64528E-02        -0.52933E-02         0.00000E+00
    0.55725E-02        -0.45112E-02         0.00000E+00
    0.46973E-02        -0.37255E-02         0.00000E+00
    0.38139E-02        -0.29423E-02         0.00000E+00
    0.29106E-02        -0.21688E-02         0.00000E+00
    0.19779E-02        -0.14136E-02         0.00000E+00
    0.10089E-02        -0.68694E-03         0.00000E+00
    0.00000E+00         0.00000E+00         0.00000E+00
    0.16254E-01        -0.12874E-01         0.00000E+00
    0.14689E-01        -0.12035E-01         0.00000E+00
    0.13262E-01        -0.11214E-01         0.00000E+00
    0.11960E-01        -0.10398E-01         0.00000E+00
    0.10770E-01        -0.95768E-02         0.00000E+00
    0.96748E-02        -0.87438E-02         0.00000E+00
    0.86553E-02        -0.78955E-02         0.00000E+00
    0.76928E-02        -0.70307E-02         0.00000E+00
    0.67682E-02        -0.61502E-02         0.00000E+00
    0.58632E-02        -0.52570E-02         0.00000E+00
    0.49604E-02        -0.43556E-02         0.00000E+00
    0.40440E-02        -0.34523E-02         0.00000E+00
    0.31000E-02        -0.25548E-02         0.00000E+00
    0.21166E-02        -0.16727E-02         0.00000E+00
    0.10851E-02        -0.81696E-03         0.00000E+00
    0.00000E+00         0.00000E+00         0.00000E+00
    0.16931E-01        -0.14579E-01         0.00000E+00
    0.15247E-01        -0.13657E-01         0.00000E+00
    0.13730E-01        -0.12751E-01         0.00000E+00
    0.12364E-01        -0.11845E-01         0.00000E+00
    0.11128E-01        -0.10930E-01         0.00000E+00
    0.10001E-01        -0.99972E-02         0.00000E+00
    0.89592E-02        -0.90442E-02         0.00000E+00
    0.79801E-02        -0.80694E-02         0.00000E+00
    0.70413E-02        -0.70738E-02         0.00000E+00
    0.61212E-02        -0.60606E-02         0.00000E+00
    0.51996E-02        -0.50344E-02         0.00000E+00
    0.42580E-02        -0.40020E-02         0.00000E+00
    0.32800E-02        -0.29714E-02         0.00000E+00
    0.22512E-02        -0.19527E-02         0.00000E+00
    0.11604E-02        -0.95770E-03         0.00000E+00
    0.00000E+00         0.00000E+00         0.00000E+00
    0.17475E-01        -0.16419E-01         0.00000E+00
    0.15676E-01        -0.15407E-01         0.00000E+00
    0.14079E-01        -0.14406E-01         0.00000E+00
    0.12659E-01        -0.13401E-01         0.00000E+00
    0.11389E-01        -0.12382E-01         0.00000E+00
    0.10242E-01        -0.11340E-01         0.00000E+00
    0.91902E-02        -0.10273E-01         0.00000E+00
    0.82063E-02        -0.91793E-02         0.00000E+00
    0.72643E-02        -0.80599E-02         0.00000E+00
    0.63395E-02        -0.69181E-02         0.00000E+00
    0.54090E-02        -0.57590E-02         0.00000E+00
    0.44512E-02        -0.45890E-02         0.00000E+00
    0.34469E-02        -0.34168E-02         0.00000E+00
    0.23791E-02        -0.22526E-02         0.00000E+00
    0.12336E-02        -0.11088E-02         0.00000E+00
    0.00000E+00         0.00000E+00         0.00000E+00
    0.17860E-01        -0.18390E-01         0.00000E+00
    0.15956E-01        -0.17277E-01         0.00000E+00
    0.14291E-01        -0.16173E-01         0.00000E+00
    0.12830E-01        -0.15059E-01         0.00000E+00
    0.11540E-01        -0.13926E-01         0.00000E+00
    0.10387E-01        -0.12766E-01         0.00000E+00
    0.93378E-02        -0.11575E-01         0.00000E+00
    0.83615E-02        -0.10353E-01         0.00000E+00
    0.74284E-02        -0.91019E-02         0.00000E+00
    0.65104E-02        -0.78239E-02         0.00000E+00
    0.55816E-02        -0.65244E-02         0.00000E+00
    0.46177E-02        -0.52098E-02         0.00000E+00
    0.35962E-02        -0.38884E-02         0.00000E+00
    0.24972E-02        -0.25707E-02         0.00000E+00
    0.13031E-02        -0.12695E-02         0.00000E+00
    0.00000E+00         0.00000E+00         0.00000E+00
    0.18059E-01        -0.20481E-01         0.00000E+00
    0.16065E-01        -0.19259E-01         0.00000E+00
    0.14347E-01        -0.18040E-01         0.00000E+00
    0.12861E-01        -0.16808E-01         0.00000E+00
    0.11566E-01        -0.15551E-01         0.00000E+00
    0.10422E-01        -0.14262E-01         0.00000E+00
    0.93904E-02        -0.12939E-01         0.00000E+00
    0.84354E-02        -0.11581E-01         0.00000E+00
    0.75238E-02        -0.10191E-01         0.00000E+00
    0.66248E-02        -0.87699E-02         0.00000E+00
    0.57094E-02        -0.73240E-02         0.00000E+00
    0.47504E-02        -0.58589E-02         0.00000E+00
    0.37223E-02        -0.43826E-02         0.00000E+00
    0.26015E-02        -0.29050E-02         0.00000E+00
    0.13667E-02        -0.14388E-02         0.00000E+00
    0.00000E+00         0.00000E+00         0.00000E+00
    0.18044E-01        -0.22676E-01         0.00000E+00
    0.15978E-01        -0.21336E-01         0.00000E+00
    0.14226E-01        -0.19993E-01         0.00000E+00
    0.12735E-01        -0.18632E-01         0.00000E+00
    0.11454E-01        -0.17240E-01         0.00000E+00
    0.10335E-01        -0.15814E-01         0.00000E+00
    0.93361E-02        -0.14350E-01         0.00000E+00
    0.84164E-02        -0.12849E-01         0.00000E+00
    0.75398E-02        -0.11313E-01         0.00000E+00
    0.66724E-02        -0.97453E-02         0.00000E+00
    0.57828E-02        -0.81489E-02         0.00000E+00
    0.48410E-02        -0.65296E-02         0.00000E+00
    0.38182E-02        -0.48943E-02         0.00000E+00
    0.26871E-02        -0.32522E-02         0.00000E+00
    0.14220E-02        -0.16155E-02         0.00000E+00
    0.00000E+00         0.00000E+00         0.00000E+00
    0.17786E-01        -0.24955E-01         0.00000E+00
    0.15672E-01        -0.23487E-01         0.00000E+00
    0.13910E-01        -0.22011E-01         0.00000E+00
    0.12435E-01        -0.20510E-01         0.00000E+00
    0.11188E-01        -0.18975E-01         0.00000E+00
    0.10113E-01        -0.17402E-01         0.00000E+00
    0.91624E-02        -0.15790E-01         0.00000E+00
    0.82926E-02        -0.14140E-01         0.00000E+00
    0.74643E-02        -0.12455E-01         0.00000E+00
    0.66415E-02        -0.10736E-01         0.00000E+00
    0.57907E-02        -0.89877E-02         0.00000E+00
    0.48794E-02        -0.72128E-02         0.00000E+00
    0.38756E-02        -0.54172E-02         0.00000E+00
    0.27480E-02        -0.36084E-02         0.00000E+00
    0.14657E-02        -0.17976E-02         0.00000E+00
    0.00000E+00         0.00000E+00         0.00000E+00
    0.17254E-01        -0.27291E-01         0.00000E+00
    0.15123E-01        -0.25687E-01         0.00000E+00
    0.13379E-01        -0.24066E-01         0.00000E+00
    0.11946E-01        -0.22416E-01         0.00000E+00
    0.10754E-01        -0.20728E-01         0.00000E+00
    0.97423E-02        -0.19000E-01         0.00000E+00
    0.88566E-02        -0.17234E-01         0.00000E+00
    0.80509E-02        -0.15432E-01         0.00000E+00
    0.72840E-02        -0.13595E-01         0.00000E+00
    0.65189E-02        -0.11726E-01         0.00000E+00
    0.57202E-02        -0.98264E-02         0.00000E+00
    0.48537E-02        -0.78979E-02         0.00000E+00
    0.38844E-02        -0.59436E-02         0.00000E+00
    0.27766E-02        -0.39690E-02         0.00000E+00
    0.14938E-02        -0.19831E-02         0.00000E+00
    0.00000E+00         0.00000E+00         0.00000E+00
    0.16420E-01        -0.29651E-01         0.00000E+00
    0.14307E-01        -0.27901E-01         0.00000E+00
    0.12615E-01        -0.26127E-01         0.00000E+00
    0.11253E-01        -0.24317E-01         0.00000E+00
    0.10141E-01        -0.22467E-01         0.00000E+00
    0.92109E-02        -0.20579E-01         0.00000E+00
    0.84059E-02        -0.18655E-01         0.00000E+00
    0.76777E-02        -0.16698E-01         0.00000E+00
    0.69846E-02        -0.14711E-01         0.00000E+00
    0.62893E-02        -0.12695E-01         0.00000E+00
    0.55563E-02        -0.10648E-01         0.00000E+00
    0.47497E-02        -0.85716E-02         0.00000E+00
    0.38323E-02        -0.64642E-02         0.00000E+00
    0.27639E-02        -0.43281E-02         0.00000E+00
    0.15013E-02        -0.21693E-02         0.00000E+00
    0.00000E+00         0.00000E+00         0.00000E+00
    0.15254E-01        -0.31992E-01         0.00000E+00
    0.13203E-01        -0.30088E-01         0.00000E+00
    0.11602E-01        -0.28151E-01         0.00000E+00
    0.10343E-01        -0.26172E-01         0.00000E+00
    0.93359E-02        -0.24154E-01         0.00000E+00
    0.85071E-02        -0.22100E-01         0.00000E+00
    0.77973E-02        -0.20017E-01         0.00000E+00
    0.71585E-02        -0.17908E-01         0.00000E+00
    0.65500E-02        -0.15776E-01         0.00000E+00
    0.59358E-02        -0.13619E-01         0.00000E+00
    0.52812E-02        -0.11434E-01         0.00000E+00
    0.45505E-02        -0.92190E-02         0.00000E+00
    0.37043E-02        -0.69681E-02         0.00000E+00
    0.26982E-02        -0.46791E-02         0.00000E+00
    0.14818E-02        -0.23535E-02         0.00000E+00
    0.00000E+00         0.00000E+00         0.00000E+00
    0.13729E-01        -0.34264E-01         0.00000E+00
    0.11794E-01        -0.32199E-01         0.00000E+00
    0.10328E-01        -0.30089E-01         0.00000E+00
    0.92073E-02        -0.27935E-01         0.00000E+00
    0.83302E-02        -0.25742E-01         0.00000E+00
    0.76200E-02        -0.23522E-01         0.00000E+00
    0.70177E-02        -0.21283E-01         0.00000E+00
    0.64777E-02        -0.19028E-01         0.00000E+00
    0.59625E-02        -0.16758E-01         0.00000E+00
    0.54390E-02        -0.14472E-01         0.00000E+00
    0.48750E-02        -0.12163E-01         0.00000E+00
    0.42359E-02        -0.98228E-02         0.00000E+00
    0.34821E-02        -0.74429E-02         0.00000E+00
    0.25654E-02        -0.50142E-02         0.00000E+00
    0.14273E-02        -0.25321E-02         0.00000E+00
    0.00000E+00         0.00000E+00         0.00000E+00
    0.11819E-01        -0.36406E-01         0.00000E+00
    0.10065E-01        -0.34172E-01         0.00000E+00
    0.87864E-02        -0.31882E-01         0.00000E+00
    0.78399E-02        -0.29545E-01         0.00000E+00
    0.71163E-02        -0.27178E-01         0.00000E+00
    0.65388E-02        -0.24796E-01         0.00000E+00
    0.60530E-02        -0.22408E-01         0.00000E+00
    0.56185E-02        -0.20018E-01         0.00000E+00
    0.52028E-02        -0.17626E-01         0.00000E+00
    0.47775E-02        -0.15226E-01         0.00000E+00
    0.43144E-02        -0.12809E-01         0.00000E+00
    0.37823E-02        -0.10363E-01         0.00000E+00
    0.31433E-02        -0.78741E-02         0.00000E+00
    0.23470E-02        -0.53247E-02         0.00000E+00
    0.13273E-02        -0.27015E-02         0.00000E+00
    0.00000E+00         0.00000E+00         0.00000E+00
    0.95041E-02        -0.38342E-01         0.00000E+00
    0.80077E-02        -0.35933E-01         0.00000E+00
    0.69754E-02        -0.33456E-01         0.00000E+00
    0.62388E-02        -0.30935E-01         0.00000E+00
    0.56875E-02        -0.28400E-01         0.00000E+00
    0.52523E-02        -0.25868E-01         0.00000E+00
    0.48881E-02        -0.23348E-01         0.00000E+00
    0.45623E-02        -0.20842E-01         0.00000E+00
    0.42497E-02        -0.18346E-01         0.00000E+00
    0.39277E-02        -0.15852E-01         0.00000E+00
    0.35738E-02        -0.13349E-01         0.00000E+00
    0.31625E-02        -0.10820E-01         0.00000E+00
    0.26603E-02        -0.82452E-02         0.00000E+00
    0.20193E-02        -0.55998E-02         0.00000E+00
    0.11671E-02        -0.28574E-02         0.00000E+00
    0.00000E+00         0.00000E+00         0.00000E+00
    0.67645E-02        -0.39976E-01         0.00000E+00
    0.56268E-02        -0.37386E-01         0.00000E+00
    0.49025E-02        -0.34718E-01         0.00000E+00
    0.44040E-02        -0.32025E-01         0.00000E+00
    0.40357E-02        -0.29342E-01         0.00000E+00
    0.37466E-02        -0.26685E-01         0.00000E+00
    0.35051E-02        -0.24059E-01         0.00000E+00
    0.32888E-02        -0.21462E-01         0.00000E+00
    0.30805E-02        -0.18887E-01         0.00000E+00
    0.28648E-02        -0.16323E-01         0.00000E+00
    0.26261E-02        -0.13757E-01         0.00000E+00
    0.23461E-02        -0.11169E-01         0.00000E+00
    0.20000E-02        -0.85362E-02         0.00000E+00
    0.15496E-02        -0.58258E-02         0.00000E+00
    0.92496E-03        -0.29939E-02         0.00000E+00
    0.00000E+00         0.00000E+00         0.00000E+00
    0.35888E-02        -0.41175E-01         0.00000E+00
    0.29448E-02        -0.38398E-01         0.00000E+00
    0.25794E-02        -0.35556E-01         0.00000E+00
    0.23302E-02        -0.32728E-01         0.00000E+00
    0.21471E-02        -0.29939E-01         0.00000E+00
    0.20035E-02        -0.27198E-01         0.00000E+00
    0.18834E-02        -0.24503E-01         0.00000E+00
    0.17758E-02        -0.21848E-01         0.00000E+00
    0.16718E-02        -0.19223E-01         0.00000E+00
    0.15637E-02        -0.16616E-01         0.00000E+00
    0.14436E-02        -0.14012E-01         0.00000E+00
    0.13019E-02        -0.11390E-01         0.00000E+00
    0.11256E-02        -0.87245E-02         0.00000E+00
    0.89302E-03        -0.59804E-02         0.00000E+00
    0.56321E-03        -0.31026E-02         0.00000E+00
    0.00000E+00         0.00000E+00         0.00000E+00
    0.00000E+00        -0.41703E-01         0.00000E+00
    0.00000E+00        -0.38778E-01         0.00000E+00
    0.00000E+00        -0.35853E-01         0.00000E+00
    0.00000E+00        -0.32972E-01         0.00000E+00
    0.00000E+00        -0.30145E-01         0.00000E+00
    0.00000E+00        -0.27374E-01         0.00000E+00
    0.00000E+00        -0.24654E-01         0.00000E+00
    0.00000E+00        -0.21979E-01         0.00000E+00
    0.00000E+00        -0.19337E-01         0.00000E+00
    0.00000E+00        -0.16716E-01         0.00000E+00
    0.00000E+00        -0.14099E-01         0.00000E+00
    0.00000E+00        -0.11465E-01         0.00000E+00
    0.00000E+00        -0.87901E-02         0.00000E+00
    0.00000E+00        -0.60363E-02         0.00000E+00
    0.00000E+00        -0.31487E-02         0.00000E+00
    0.00000E+00         0.00000E+00         0.00000E+00
CELL_DATA        450
VECTORS vDarcy double 
    0.15710E-08         0.24905E-14         0.00000E+00
    0.15709E-08         0.76473E-14         0.00000E+00
    0.15708E-08         0.12159E-13         0.00000E+00
    0.15707E-08         0.15182E-13         0.00000E+00
    0.15706E-08         0.16976E-13         0.00000E+00
    0.15705E-08         0.17766E-13         0.00000E+00
    0.15704E-08         0.17762E-13         0.00000E+00
    0.15703E-08         0.17139E-13         0.00000E+00
    0.15702E-08         0.16029E-13         0.00000E+00
    0.15701E-08         0.14514E-13         0.00000E+00
    0.15700E-08         0.12632E-13         0.00000E+00
    0.15700E-08         0.10378E-13         0.00000E+00
    0.15699E-08         0.77180E-14         0.00000E+00
    0.15699E-08         0.45294E-14         0.00000E+00
    0.15698E-08         0.13888E-14         0.00000E+00
    0.16303E-08         0.82836E-14         0.00000E+00
    0.16302E-08         0.24035E-13         0.00000E+00
    0.16301E-08         0.36885E-13         0.00000E+00
    0.16300E-08         0.45679E-13         0.00000E+00
    0.16299E-08         0.50853E-13         0.00000E+00
    0.16298E-08         0.53066E-13         0.00000E+00
    0.16297E-08         0.52942E-13         0.00000E+00
    0.16296E-08         0.51005E-13         0.00000E+00
    0.16295E-08         0.47650E-13         0.00000E+00
    0.16294E-08         0.43128E-13         0.00000E+00
    0.16293E-08         0.37554E-13         0.00000E+00
    0.16292E-08         0.30920E-13         0.00000E+00
    0.16292E-08         0.23128E-13         0.00000E+00
    0.16291E-08         0.14123E-13         0.00000E+00
    0.16291E-08         0.46603E-14         0.00000E+00
    0.17499E-08         0.15107E-13         0.00000E+00
    0.17498E-08         0.42094E-13         0.00000E+00
    0.17497E-08         0.62503E-13         0.00000E+00
    0.17496E-08         0.76366E-13         0.00000E+00
    0.17494E-08         0.84357E-13         0.00000E+00
    0.17493E-08         0.87542E-13         0.00000E+00
    0.17492E-08         0.86967E-13         0.00000E+00
    0.17491E-08         0.83516E-13         0.00000E+00
    0.17490E-08         0.77852E-13         0.00000E+00
    0.17489E-08         0.70397E-13         0.00000E+00
    0.17489E-08         0.61341E-13         0.00000E+00
    0.17488E-08         0.50674E-13         0.00000E+00
    0.17487E-08         0.38270E-13         0.00000E+00
    0.17487E-08         0.24121E-13         0.00000E+00
    0.17486E-08         0.83137E-14         0.00000E+00
    0.19319E-08         0.22229E-13         0.00000E+00
    0.19318E-08         0.60913E-13         0.00000E+00
    0.19316E-08         0.88668E-13         0.00000E+00
    0.19315E-08         0.10680E-12         0.00000E+00
    0.19314E-08         0.11678E-12         0.00000E+00
    0.19313E-08         0.12022E-12         0.00000E+00
    0.19312E-08         0.11866E-12         0.00000E+00
    0.19311E-08         0.11337E-12         0.00000E+00
    0.19310E-08         0.10532E-12         0.00000E+00
    0.19309E-08         0.95074E-13         0.00000E+00
    0.19308E-08         0.82894E-13         0.00000E+00
    0.19307E-08         0.68738E-13         0.00000E+00
    0.19306E-08         0.52382E-13         0.00000E+00
    0.19306E-08         0.33504E-13         0.00000E+00
    0.19305E-08         0.11694E-13         0.00000E+00
    0.21793E-08         0.29435E-13         0.00000E+00
    0.21791E-08         0.79789E-13         0.00000E+00
    0.21790E-08         0.11441E-12         0.00000E+00
    0.21789E-08         0.13588E-12         0.00000E+00
    0.21787E-08         0.14677E-12         0.00000E+00
    0.21786E-08         0.14950E-12         0.00000E+00
    0.21785E-08         0.14623E-12         0.00000E+00
    0.21784E-08         0.13870E-12         0.00000E+00
    0.21783E-08         0.12817E-12         0.00000E+00
    0.21782E-08         0.11539E-12         0.00000E+00
    0.21781E-08         0.10065E-12         0.00000E+00
    0.21780E-08         0.83778E-13         0.00000E+00
    0.21780E-08         0.64323E-13         0.00000E+00
    0.21779E-08         0.41573E-13         0.00000E+00
    0.21778E-08         0.14637E-13         0.00000E+00
    0.24959E-08         0.36519E-13         0.00000E+00
    0.24957E-08         0.97985E-13         0.00000E+00
    0.24956E-08         0.13839E-12         0.00000E+00
    0.24954E-08         0.16183E-12         0.00000E+00
    0.24953E-08         0.17219E-12         0.00000E+00
    0.24952E-08         0.17294E-12         0.00000E+00
    0.24950E-08         0.16704E-12         0.00000E+00
    0.24949E-08         0.15678E-12         0.00000E+00
    0.24948E-08         0.14376E-12         0.00000E+00
    0.24947E-08         0.12890E-12         0.00000E+00
    0.24946E-08         0.11242E-12         0.00000E+00
    0.24945E-08         0.93977E-13         0.00000E+00
    0.24945E-08         0.72747E-13         0.00000E+00
    0.24944E-08         0.47534E-13         0.00000E+00
    0.24943E-08         0.16882E-13         0.00000E+00
    0.28862E-08         0.43130E-13         0.00000E+00
    0.28860E-08         0.11438E-12         0.00000E+00
    0.28858E-08         0.15869E-12         0.00000E+00
    0.28857E-08         0.18203E-12         0.00000E+00
    0.28855E-08         0.18988E-12         0.00000E+00
    0.28854E-08         0.18702E-12         0.00000E+00
    0.28853E-08         0.17737E-12         0.00000E+00
    0.28851E-08         0.16386E-12         0.00000E+00
    0.28850E-08         0.14848E-12         0.00000E+00
    0.28849E-08         0.13225E-12         0.00000E+00
    0.28848E-08         0.11529E-12         0.00000E+00
    0.28848E-08         0.96952E-13         0.00000E+00
    0.28847E-08         0.75912E-13         0.00000E+00
    0.28846E-08         0.50350E-13         0.00000E+00
    0.28845E-08         0.18092E-13         0.00000E+00
    0.33552E-08         0.48702E-13         0.00000E+00
    0.33550E-08         0.12727E-12         0.00000E+00
    0.33548E-08         0.17252E-12         0.00000E+00
    0.33546E-08         0.19277E-12         0.00000E+00
    0.33544E-08         0.19548E-12         0.00000E+00
    0.33543E-08         0.18695E-12         0.00000E+00
    0.33541E-08         0.17221E-12         0.00000E+00
    0.33540E-08         0.15496E-12         0.00000E+00
    0.33539E-08         0.13755E-12         0.00000E+00
    0.33538E-08         0.12108E-12         0.00000E+00
    0.33537E-08         0.10547E-12         0.00000E+00
    0.33536E-08         0.89619E-13         0.00000E+00
    0.33536E-08         0.71559E-13         0.00000E+00
    0.33535E-08         0.48658E-13         0.00000E+00
    0.33534E-08         0.17816E-13         0.00000E+00
    0.39080E-08         0.52391E-13         0.00000E+00
    0.39077E-08         0.13421E-12         0.00000E+00
    0.39075E-08         0.17603E-12         0.00000E+00
    0.39073E-08         0.18909E-12         0.00000E+00
    0.39071E-08         0.18319E-12         0.00000E+00
    0.39070E-08         0.16643E-12         0.00000E+00
    0.39068E-08         0.14510E-12         0.00000E+00
    0.39067E-08         0.12369E-12         0.00000E+00
    0.39066E-08         0.10492E-12         0.00000E+00
    0.39065E-08         0.89885E-13         0.00000E+00
    0.39064E-08         0.78178E-13         0.00000E+00
    0.39064E-08         0.68096E-13         0.00000E+00
    0.39063E-08         0.56834E-13         0.00000E+00
    0.39062E-08         0.40721E-13         0.00000E+00
    0.39061E-08         0.15473E-13         0.00000E+00
    0.45497E-08         0.53025E-13         0.00000E+00
    0.45494E-08         0.13185E-12         0.00000E+00
    0.45491E-08         0.16411E-12         0.00000E+00
    0.45489E-08         0.16454E-12         0.00000E+00
    0.45487E-08         0.14566E-12         0.00000E+00
    0.45485E-08         0.11761E-12         0.00000E+00
    0.45484E-08         0.88032E-13         0.00000E+00
    0.45483E-08         0.62219E-13         0.00000E+00
    0.45482E-08         0.43203E-13         0.00000E+00
    0.45481E-08         0.31958E-13         0.00000E+00
    0.45480E-08         0.27608E-13         0.00000E+00
    0.45479E-08         0.27660E-13         0.00000E+00
    0.45479E-08         0.28246E-13         0.00000E+00
    0.45478E-08         0.24396E-13         0.00000E+00
    0.45477E-08         0.10341E-13         0.00000E+00
    0.52847E-08         0.49065E-13         0.00000E+00
    0.52844E-08         0.11589E-12         0.00000E+00
    0.52841E-08         0.13030E-12         0.00000E+00
    0.52838E-08         0.11112E-12         0.00000E+00
    0.52836E-08         0.73941E-13         0.00000E+00
    0.52835E-08         0.31051E-13         0.00000E+00
    0.52833E-08        -0.84878E-14         0.00000E+00
    0.52833E-08        -0.38656E-13         0.00000E+00
    0.52832E-08        -0.56226E-13         0.00000E+00
    0.52831E-08        -0.60492E-13         0.00000E+00
    0.52830E-08        -0.52987E-13         0.00000E+00
    0.52830E-08        -0.37204E-13         0.00000E+00
    0.52829E-08        -0.18312E-13         0.00000E+00
    0.52828E-08        -0.28607E-14         0.00000E+00
    0.52827E-08         0.15547E-14         0.00000E+00
    0.61168E-08         0.38583E-13         0.00000E+00
    0.61164E-08         0.81027E-13         0.00000E+00
    0.61161E-08         0.66840E-13         0.00000E+00
    0.61158E-08         0.19409E-13         0.00000E+00
    0.61156E-08        -0.42382E-13         0.00000E+00
    0.61155E-08        -0.10404E-12         0.00000E+00
    0.61154E-08        -0.15519E-12         0.00000E+00
    0.61153E-08        -0.18923E-12         0.00000E+00
    0.61152E-08        -0.20295E-12         0.00000E+00
    0.61152E-08        -0.19611E-12         0.00000E+00
    0.61152E-08        -0.17111E-12         0.00000E+00
    0.61151E-08        -0.13265E-12         0.00000E+00
    0.61150E-08        -0.87457E-13         0.00000E+00
    0.61149E-08        -0.43943E-13         0.00000E+00
    0.61148E-08        -0.11876E-13         0.00000E+00
    0.70482E-08         0.19284E-13         0.00000E+00
    0.70477E-08         0.21022E-13         0.00000E+00
    0.70473E-08        -0.35229E-13         0.00000E+00
    0.70471E-08        -0.12123E-12         0.00000E+00
    0.70469E-08        -0.21478E-12         0.00000E+00
    0.70468E-08        -0.29935E-12         0.00000E+00
    0.70467E-08        -0.36351E-12         0.00000E+00
    0.70467E-08        -0.40037E-12         0.00000E+00
    0.70467E-08        -0.40701E-12         0.00000E+00
    0.70467E-08        -0.38392E-12         0.00000E+00
    0.70466E-08        -0.33460E-12         0.00000E+00
    0.70466E-08        -0.26517E-12         0.00000E+00
    0.70466E-08        -0.18412E-12         0.00000E+00
    0.70465E-08        -0.10198E-12         0.00000E+00
    0.70463E-08        -0.31039E-13         0.00000E+00
    0.80792E-08        -0.11432E-13         0.00000E+00
    0.80787E-08        -0.71056E-13         0.00000E+00
    0.80783E-08        -0.18562E-12         0.00000E+00
    0.80780E-08        -0.32204E-12         0.00000E+00
    0.80778E-08        -0.45511E-12         0.00000E+00
    0.80777E-08        -0.56668E-12         0.00000E+00
    0.80777E-08        -0.64475E-12         0.00000E+00
    0.80777E-08        -0.68263E-12         0.00000E+00
    0.80778E-08        -0.67806E-12         0.00000E+00
    0.80778E-08        -0.63259E-12         0.00000E+00
    0.80779E-08        -0.55103E-12         0.00000E+00
    0.80779E-08        -0.44110E-12         0.00000E+00
    0.80778E-08        -0.31320E-12         0.00000E+00
    0.80777E-08        -0.18016E-12         0.00000E+00
    0.80776E-08        -0.57056E-13         0.00000E+00
    0.92078E-08        -0.56330E-13         0.00000E+00
    0.92072E-08        -0.20244E-12         0.00000E+00
    0.92067E-08        -0.39414E-12         0.00000E+00
    0.92065E-08        -0.59401E-12         0.00000E+00
    0.92064E-08        -0.77453E-12         0.00000E+00
    0.92063E-08        -0.91674E-12         0.00000E+00
    0.92064E-08        -0.10089E-11         0.00000E+00
    0.92065E-08        -0.10450E-11         0.00000E+00
    0.92066E-08        -0.10242E-11         0.00000E+00
    0.92067E-08        -0.94939E-12         0.00000E+00
    0.92068E-08        -0.82683E-12         0.00000E+00
    0.92069E-08        -0.66596E-12         0.00000E+00
    0.92068E-08        -0.47909E-12         0.00000E+00
    0.92068E-08        -0.28144E-12         0.00000E+00
    0.92066E-08        -0.90996E-13         0.00000E+00
    0.10429E-07        -0.11813E-12         0.00000E+00
    0.10428E-07        -0.38006E-12         0.00000E+00
    0.10428E-07        -0.66976E-12         0.00000E+00
    0.10428E-07        -0.94661E-12         0.00000E+00
    0.10428E-07        -0.11820E-11         0.00000E+00
    0.10428E-07        -0.13576E-11         0.00000E+00
    0.10428E-07        -0.14627E-11         0.00000E+00
    0.10428E-07        -0.14935E-11         0.00000E+00
    0.10428E-07        -0.14506E-11         0.00000E+00
    0.10428E-07        -0.13388E-11         0.00000E+00
    0.10429E-07        -0.11661E-11         0.00000E+00
    0.10429E-07        -0.94351E-12         0.00000E+00
    0.10429E-07        -0.68506E-12         0.00000E+00
    0.10429E-07        -0.40818E-12         0.00000E+00
    0.10428E-07        -0.13376E-12         0.00000E+00
    0.11734E-07        -0.19922E-12         0.00000E+00
    0.11734E-07        -0.60968E-12         0.00000E+00
    0.11733E-07        -0.10193E-11         0.00000E+00
    0.11733E-07        -0.13862E-11         0.00000E+00
    0.11733E-07        -0.16826E-11         0.00000E+00
    0.11733E-07        -0.18925E-11         0.00000E+00
    0.11734E-07        -0.20082E-11         0.00000E+00
    0.11734E-07        -0.20287E-11         0.00000E+00
    0.11734E-07        -0.19574E-11         0.00000E+00
    0.11734E-07        -0.18011E-11         0.00000E+00
    0.11735E-07        -0.15694E-11         0.00000E+00
    0.11735E-07        -0.12747E-11         0.00000E+00
    0.11735E-07        -0.93245E-12         0.00000E+00
    0.11735E-07        -0.56171E-12         0.00000E+00
    0.11735E-07        -0.18593E-12         0.00000E+00
    0.13112E-07        -0.30125E-12         0.00000E+00
    0.13111E-07        -0.89482E-12         0.00000E+00
    0.13111E-07        -0.14458E-11         0.00000E+00
    0.13111E-07        -0.19139E-11         0.00000E+00
    0.13111E-07        -0.22750E-11         0.00000E+00
    0.13111E-07        -0.25179E-11         0.00000E+00
    0.13112E-07        -0.26398E-11         0.00000E+00
    0.13112E-07        -0.26441E-11         0.00000E+00
    0.13112E-07        -0.25377E-11         0.00000E+00
    0.13113E-07        -0.23300E-11         0.00000E+00
    0.13113E-07        -0.20319E-11         0.00000E+00
    0.13113E-07        -0.16565E-11         0.00000E+00
    0.13113E-07        -0.12198E-11         0.00000E+00
    0.13113E-07        -0.74176E-12         0.00000E+00
    0.13113E-07        -0.24760E-12         0.00000E+00
    0.14545E-07        -0.42471E-12         0.00000E+00
    0.14545E-07        -0.12356E-11         0.00000E+00
    0.14544E-07        -0.19468E-11         0.00000E+00
    0.14544E-07        -0.25236E-11         0.00000E+00
    0.14545E-07        -0.29494E-11         0.00000E+00
    0.14545E-07        -0.32205E-11         0.00000E+00
    0.14546E-07        -0.33420E-11         0.00000E+00
    0.14546E-07        -0.33233E-11         0.00000E+00
    0.14547E-07        -0.31758E-11         0.00000E+00
    0.14547E-07        -0.29114E-11         0.00000E+00
    0.14548E-07        -0.25420E-11         0.00000E+00
    0.14548E-07        -0.20804E-11         0.00000E+00
    0.14548E-07        -0.15419E-11         0.00000E+00
    0.14548E-07        -0.94595E-12         0.00000E+00
    0.14548E-07        -0.31817E-12         0.00000E+00
    0.16014E-07        -0.56846E-12         0.00000E+00
    0.16014E-07        -0.16274E-11         0.00000E+00
    0.16014E-07        -0.25126E-11         0.00000E+00
    0.16014E-07        -0.31999E-11         0.00000E+00
    0.16014E-07        -0.36846E-11         0.00000E+00
    0.16015E-07        -0.39754E-11         0.00000E+00
    0.16016E-07        -0.40874E-11         0.00000E+00
    0.16016E-07        -0.40384E-11         0.00000E+00
    0.16017E-07        -0.38449E-11         0.00000E+00
    0.16018E-07        -0.35213E-11         0.00000E+00
    0.16018E-07        -0.30799E-11         0.00000E+00
    0.16019E-07        -0.25316E-11         0.00000E+00
    0.16019E-07        -0.18891E-11         0.00000E+00
    0.16019E-07        -0.11692E-11         0.00000E+00
    0.16019E-07        -0.39619E-12         0.00000E+00
    0.17495E-07        -0.72929E-12         0.00000E+00
    0.17495E-07        -0.20598E-11         0.00000E+00
    0.17495E-07        -0.31242E-11         0.00000E+00
    0.17495E-07        -0.39154E-11         0.00000E+00
    0.17496E-07        -0.44467E-11         0.00000E+00
    0.17497E-07        -0.47433E-11         0.00000E+00
    0.17498E-07        -0.48345E-11         0.00000E+00
    0.17499E-07        -0.47477E-11         0.00000E+00
    0.17499E-07        -0.45056E-11         0.00000E+00
    0.17500E-07        -0.41249E-11         0.00000E+00
    0.17501E-07        -0.36165E-11         0.00000E+00
    0.17501E-07        -0.29879E-11         0.00000E+00
    0.17502E-07        -0.22464E-11         0.00000E+00
    0.17502E-07        -0.14035E-11         0.00000E+00
    0.17502E-07        -0.47924E-12         0.00000E+00
    0.18960E-07        -0.90160E-12         0.00000E+00
    0.18960E-07        -0.25153E-11         0.00000E+00
    0.18960E-07        -0.37521E-11         0.00000E+00
    0.18961E-07        -0.46297E-11         0.00000E+00
    0.18962E-07        -0.51866E-11         0.00000E+00
    0.18963E-07        -0.54700E-11         0.00000E+00
    0.18964E-07        -0.55267E-11         0.00000E+00
    0.18965E-07        -0.53957E-11         0.00000E+00
    0.18966E-07        -0.51062E-11         0.00000E+00
    0.18967E-07        -0.46760E-11         0.00000E+00
    0.18968E-07        -0.41133E-11         0.00000E+00
    0.18968E-07        -0.34194E-11         0.00000E+00
    0.18969E-07        -0.25933E-11         0.00000E+00
    0.18969E-07        -0.16373E-11         0.00000E+00
    0.18969E-07        -0.56378E-12         0.00000E+00
    0.20377E-07        -0.10772E-11         0.00000E+00
    0.20378E-07        -0.29691E-11         0.00000E+00
    0.20379E-07        -0.43553E-11         0.00000E+00
    0.20380E-07        -0.52881E-11         0.00000E+00
    0.20381E-07        -0.58398E-11         0.00000E+00
    0.20382E-07        -0.60860E-11         0.00000E+00
    0.20384E-07        -0.60936E-11         0.00000E+00
    0.20385E-07        -0.59145E-11         0.00000E+00
    0.20386E-07        -0.55833E-11         0.00000E+00
    0.20387E-07        -0.51181E-11         0.00000E+00
    0.20388E-07        -0.45224E-11         0.00000E+00
    0.20388E-07        -0.37887E-11         0.00000E+00
    0.20389E-07        -0.29037E-11         0.00000E+00
    0.20390E-07        -0.18560E-11         0.00000E+00
    0.20390E-07        -0.64522E-12         0.00000E+00
    0.21716E-07        -0.12451E-11         0.00000E+00
    0.21717E-07        -0.33883E-11         0.00000E+00
    0.21719E-07        -0.48802E-11         0.00000E+00
    0.21720E-07        -0.58208E-11         0.00000E+00
    0.21722E-07        -0.63269E-11         0.00000E+00
    0.21723E-07        -0.65084E-11         0.00000E+00
    0.21725E-07        -0.64540E-11         0.00000E+00
    0.21726E-07        -0.62270E-11         0.00000E+00
    0.21727E-07        -0.58660E-11         0.00000E+00
    0.21728E-07        -0.53876E-11         0.00000E+00
    0.21729E-07        -0.47891E-11         0.00000E+00
    0.21730E-07        -0.40519E-11         0.00000E+00
    0.21731E-07        -0.31465E-11         0.00000E+00
    0.21731E-07        -0.20417E-11         0.00000E+00
    0.21732E-07        -0.71796E-12         0.00000E+00
    0.22943E-07        -0.13918E-11         0.00000E+00
    0.22944E-07        -0.37316E-11         0.00000E+00
    0.22946E-07        -0.52596E-11         0.00000E+00
    0.22948E-07        -0.61427E-11         0.00000E+00
    0.22950E-07        -0.65555E-11         0.00000E+00
    0.22952E-07        -0.66459E-11         0.00000E+00
    0.22953E-07        -0.65222E-11         0.00000E+00
    0.22955E-07        -0.62545E-11         0.00000E+00
    0.22956E-07        -0.58820E-11         0.00000E+00
    0.22957E-07        -0.54184E-11         0.00000E+00
    0.22958E-07        -0.48546E-11         0.00000E+00
    0.22959E-07        -0.41602E-11         0.00000E+00
    0.22960E-07        -0.32859E-11         0.00000E+00
    0.22961E-07        -0.21739E-11         0.00000E+00
    0.22961E-07        -0.77553E-12         0.00000E+00
    0.24024E-07        -0.15007E-11         0.00000E+00
    0.24027E-07        -0.39469E-11         0.00000E+00
    0.24030E-07        -0.54095E-11         0.00000E+00
    0.24032E-07        -0.61531E-11         0.00000E+00
    0.24034E-07        -0.64248E-11         0.00000E+00
    0.24036E-07        -0.64080E-11         0.00000E+00
    0.24038E-07        -0.62197E-11         0.00000E+00
    0.24039E-07        -0.59281E-11         0.00000E+00
    0.24040E-07        -0.55681E-11         0.00000E+00
    0.24041E-07        -0.51500E-11         0.00000E+00
    0.24042E-07        -0.46608E-11         0.00000E+00
    0.24044E-07        -0.40610E-11         0.00000E+00
    0.24045E-07        -0.32814E-11         0.00000E+00
    0.24046E-07        -0.22285E-11         0.00000E+00
    0.24047E-07        -0.81051E-12         0.00000E+00
    0.24931E-07        -0.15500E-11         0.00000E+00
    0.24935E-07        -0.39640E-11         0.00000E+00
    0.24938E-07        -0.52209E-11         0.00000E+00
    0.24941E-07        -0.57357E-11         0.00000E+00
    0.24944E-07        -0.58369E-11         0.00000E+00
    0.24945E-07        -0.57210E-11         0.00000E+00
    0.24947E-07        -0.54916E-11         0.00000E+00
    0.24948E-07        -0.52038E-11         0.00000E+00
    0.24950E-07        -0.48839E-11         0.00000E+00
    0.24951E-07        -0.45389E-11         0.00000E+00
    0.24952E-07        -0.41567E-11         0.00000E+00
    0.24953E-07        -0.36999E-11         0.00000E+00
    0.24954E-07        -0.30851E-11         0.00000E+00
    0.24956E-07        -0.21764E-11         0.00000E+00
    0.24957E-07        -0.81446E-12         0.00000E+00
    0.25635E-07        -0.15045E-11         0.00000E+00
    0.25641E-07        -0.36720E-11         0.00000E+00
    0.25645E-07        -0.45428E-11         0.00000E+00
    0.25649E-07        -0.47705E-11         0.00000E+00
    0.25651E-07        -0.47247E-11         0.00000E+00
    0.25653E-07        -0.45536E-11         0.00000E+00
    0.25655E-07        -0.43270E-11         0.00000E+00
    0.25656E-07        -0.40793E-11         0.00000E+00
    0.25657E-07        -0.38271E-11         0.00000E+00
    0.25658E-07        -0.35743E-11         0.00000E+00
    0.25659E-07        -0.33139E-11         0.00000E+00
    0.25660E-07        -0.30213E-11         0.00000E+00
    0.25662E-07        -0.26350E-11         0.00000E+00
    0.25664E-07        -0.19758E-11         0.00000E+00
    0.25666E-07        -0.77204E-12         0.00000E+00
    0.26117E-07        -0.12760E-11         0.00000E+00
    0.26124E-07        -0.28443E-11         0.00000E+00
    0.26130E-07        -0.31863E-11         0.00000E+00
    0.26133E-07        -0.32013E-11         0.00000E+00
    0.26136E-07        -0.30971E-11         0.00000E+00
    0.26138E-07        -0.29446E-11         0.00000E+00
    0.26139E-07        -0.27762E-11         0.00000E+00
    0.26141E-07        -0.26074E-11         0.00000E+00
    0.26142E-07        -0.24458E-11         0.00000E+00
    0.26143E-07        -0.22937E-11         0.00000E+00
    0.26144E-07        -0.21489E-11         0.00000E+00
    0.26145E-07        -0.20022E-11         0.00000E+00
    0.26146E-07        -0.18295E-11         0.00000E+00
    0.26148E-07        -0.15419E-11         0.00000E+00
    0.26151E-07        -0.67565E-12         0.00000E+00
    0.26362E-07        -0.54971E-12         0.00000E+00
    0.26371E-07        -0.11286E-11         0.00000E+00
    0.26376E-07        -0.11567E-11         0.00000E+00
    0.26379E-07        -0.11331E-11         0.00000E+00
    0.26382E-07        -0.10809E-11         0.00000E+00
    0.26384E-07        -0.10199E-11         0.00000E+00
    0.26385E-07        -0.95740E-12         0.00000E+00
    0.26387E-07        -0.89737E-12         0.00000E+00
    0.26388E-07        -0.84172E-12         0.00000E+00
    0.26389E-07        -0.79124E-12         0.00000E+00
    0.26390E-07        -0.74574E-12         0.00000E+00
    0.26391E-07        -0.70433E-12         0.00000E+00
    0.26392E-07        -0.66068E-12         0.00000E+00
    0.26394E-07        -0.62579E-12         0.00000E+00
    0.26398E-07        -0.30738E-12         0.00000E+00
POINT_DATA        496
VECTORS vDarcyNodal double 
    0.15710E-08         0.00000E+00         0.00000E+00
    0.15709E-08         0.00000E+00         0.00000E+00
    0.15708E-08         0.00000E+00         0.00000E+00
    0.15707E-08         0.00000E+00         0.00000E+00
    0.15706E-08         0.00000E+00         0.00000E+00
    0.15705E-08         0.00000E+00         0.00000E+00
    0.15704E-08         0.00000E+00         0.00000E+00
    0.15703E-08         0.00000E+00         0.00000E+00
    0.15702E-08         0.00000E+00         0.00000E+00
    0.15702E-08         0.00000E+00         0.00000E+00
    0.15701E-08         0.00000E+00         0.00000E+00
    0.15700E-08         0.00000E+00         0.00000E+00
    0.15699E-08        -0.33268E-22         0.00000E+00
    0.15699E-08        -0.87654E-27         0.00000E+00
    0.15698E-08         0.33267E-22         0.00000E+00
    0.15698E-08         0.00000E+00         0.00000E+00
    0.16006E-08         0.49809E-14         0.00000E+00
    0.16006E-08         0.10138E-13         0.00000E+00
    0.16005E-08         0.19806E-13         0.00000E+00
    0.16004E-08         0.27340E-13         0.00000E+00
    0.16003E-08         0.32158E-13         0.00000E+00
    0.16002E-08         0.34742E-13         0.00000E+00
    0.16001E-08         0.35527E-13         0.00000E+00
    0.16000E-08         0.34901E-13         0.00000E+00
    0.15999E-08         0.33168E-13         0.00000E+00
    0.15998E-08         0.30542E-13         0.00000E+00
    0.15997E-08         0.27146E-13         0.00000E+00
    0.15996E-08         0.23010E-13         0.00000E+00
    0.15996E-08         0.18096E-13         0.00000E+00
    0.15995E-08         0.12247E-13         0.00000E+00
    0.15995E-08         0.59181E-14         0.00000E+00
    0.15994E-08         0.27775E-14         0.00000E+00
    0.16901E-08         0.11586E-13         0.00000E+00
    0.16900E-08         0.22180E-13         0.00000E+00
    0.16899E-08         0.41113E-13         0.00000E+00
    0.16898E-08         0.55223E-13         0.00000E+00
    0.16897E-08         0.64374E-13         0.00000E+00
    0.16896E-08         0.69177E-13         0.00000E+00
    0.16895E-08         0.70480E-13         0.00000E+00
    0.16894E-08         0.69046E-13         0.00000E+00
    0.16893E-08         0.65487E-13         0.00000E+00
    0.16892E-08         0.60236E-13         0.00000E+00
    0.16891E-08         0.53536E-13         0.00000E+00
    0.16890E-08         0.45463E-13         0.00000E+00
    0.16890E-08         0.35951E-13         0.00000E+00
    0.16889E-08         0.25003E-13         0.00000E+00
    0.16889E-08         0.12865E-13         0.00000E+00
    0.16888E-08         0.65431E-14         0.00000E+00
    0.18409E-08         0.18627E-13         0.00000E+00
    0.18408E-08         0.35021E-13         0.00000E+00
    0.18407E-08         0.63484E-13         0.00000E+00
    0.18406E-08         0.83646E-13         0.00000E+00
    0.18405E-08         0.96350E-13         0.00000E+00
    0.18404E-08         0.10272E-12         0.00000E+00
    0.18403E-08         0.10403E-12         0.00000E+00
    0.18401E-08         0.10144E-12         0.00000E+00
    0.18400E-08         0.95880E-13         0.00000E+00
    0.18400E-08         0.88013E-13         0.00000E+00
    0.18399E-08         0.78202E-13         0.00000E+00
    0.18398E-08         0.66552E-13         0.00000E+00
    0.18397E-08         0.52993E-13         0.00000E+00
    0.18397E-08         0.37388E-13         0.00000E+00
    0.18396E-08         0.19569E-13         0.00000E+00
    0.18396E-08         0.10084E-13         0.00000E+00
    0.20556E-08         0.25830E-13         0.00000E+00
    0.20555E-08         0.48121E-13         0.00000E+00
    0.20554E-08         0.86097E-13         0.00000E+00
    0.20553E-08         0.11182E-12         0.00000E+00
    0.20551E-08         0.12722E-12         0.00000E+00
    0.20550E-08         0.13427E-12         0.00000E+00
    0.20549E-08         0.13485E-12         0.00000E+00
    0.20548E-08         0.13060E-12         0.00000E+00
    0.20547E-08         0.12281E-12         0.00000E+00
    0.20546E-08         0.11238E-12         0.00000E+00
    0.20545E-08         0.99765E-13         0.00000E+00
    0.20544E-08         0.85080E-13         0.00000E+00
    0.20543E-08         0.68126E-13         0.00000E+00
    0.20543E-08         0.48498E-13         0.00000E+00
    0.20542E-08         0.25629E-13         0.00000E+00
    0.20542E-08         0.13304E-13         0.00000E+00
    0.23376E-08         0.33039E-13         0.00000E+00
    0.23375E-08         0.61102E-13         0.00000E+00
    0.23374E-08         0.10810E-12         0.00000E+00
    0.23372E-08         0.13847E-12         0.00000E+00
    0.23371E-08         0.15543E-12         0.00000E+00
    0.23369E-08         0.16200E-12         0.00000E+00
    0.23368E-08         0.16088E-12         0.00000E+00
    0.23367E-08         0.15433E-12         0.00000E+00
    0.23366E-08         0.14405E-12         0.00000E+00
    0.23365E-08         0.13119E-12         0.00000E+00
    0.23364E-08         0.11627E-12         0.00000E+00
    0.23363E-08         0.99343E-13         0.00000E+00
    0.23362E-08         0.79974E-13         0.00000E+00
    0.23362E-08         0.57397E-13         0.00000E+00
    0.23361E-08         0.30581E-13         0.00000E+00
    0.23361E-08         0.15969E-13         0.00000E+00
    0.26910E-08         0.39998E-13         0.00000E+00
    0.26910E-08         0.73401E-13         0.00000E+00
    0.26908E-08         0.12827E-12         0.00000E+00
    0.26906E-08         0.16175E-12         0.00000E+00
    0.26905E-08         0.17859E-12         0.00000E+00
    0.26903E-08         0.18313E-12         0.00000E+00
    0.26902E-08         0.17910E-12         0.00000E+00
    0.26901E-08         0.16948E-12         0.00000E+00
    0.26900E-08         0.15648E-12         0.00000E+00
    0.26899E-08         0.14148E-12         0.00000E+00
    0.26898E-08         0.12504E-12         0.00000E+00
    0.26897E-08         0.10705E-12         0.00000E+00
    0.26896E-08         0.86749E-13         0.00000E+00
    0.26895E-08         0.62883E-13         0.00000E+00
    0.26895E-08         0.33835E-13         0.00000E+00
    0.26894E-08         0.17794E-13         0.00000E+00
    0.31207E-08         0.46262E-13         0.00000E+00
    0.31206E-08         0.84110E-13         0.00000E+00
    0.31204E-08         0.14479E-12         0.00000E+00
    0.31202E-08         0.17896E-12         0.00000E+00
    0.31201E-08         0.19331E-12         0.00000E+00
    0.31199E-08         0.19377E-12         0.00000E+00
    0.31198E-08         0.18529E-12         0.00000E+00
    0.31196E-08         0.17174E-12         0.00000E+00
    0.31195E-08         0.15586E-12         0.00000E+00
    0.31194E-08         0.13926E-12         0.00000E+00
    0.31193E-08         0.12250E-12         0.00000E+00
    0.31192E-08         0.10519E-12         0.00000E+00
    0.31192E-08         0.86114E-13         0.00000E+00
    0.31191E-08         0.63378E-13         0.00000E+00
    0.31190E-08         0.34606E-13         0.00000E+00
    0.31190E-08         0.18389E-13         0.00000E+00
    0.36316E-08         0.51142E-13         0.00000E+00
    0.36315E-08         0.91864E-13         0.00000E+00
    0.36313E-08         0.15500E-12         0.00000E+00
    0.36311E-08         0.18633E-12         0.00000E+00
    0.36309E-08         0.19494E-12         0.00000E+00
    0.36307E-08         0.18865E-12         0.00000E+00
    0.36306E-08         0.17386E-12         0.00000E+00
    0.36304E-08         0.15543E-12         0.00000E+00
    0.36303E-08         0.13665E-12         0.00000E+00
    0.36302E-08         0.11938E-12         0.00000E+00
    0.36301E-08         0.10406E-12         0.00000E+00
    0.36300E-08         0.89899E-13         0.00000E+00
    0.36300E-08         0.75065E-13         0.00000E+00
    0.36299E-08         0.56840E-13         0.00000E+00
    0.36298E-08         0.31868E-13         0.00000E+00
    0.36298E-08         0.17242E-13         0.00000E+00
    0.42288E-08         0.53640E-13         0.00000E+00
    0.42287E-08         0.94733E-13         0.00000E+00
    0.42284E-08         0.15524E-12         0.00000E+00
    0.42282E-08         0.17879E-12         0.00000E+00
    0.42280E-08         0.17735E-12         0.00000E+00
    0.42278E-08         0.16097E-12         0.00000E+00
    0.42277E-08         0.13766E-12         0.00000E+00
    0.42276E-08         0.11336E-12         0.00000E+00
    0.42274E-08         0.91957E-13         0.00000E+00
    0.42274E-08         0.75427E-13         0.00000E+00
    0.42273E-08         0.64007E-13         0.00000E+00
    0.42272E-08         0.56375E-13         0.00000E+00
    0.42271E-08         0.49866E-13         0.00000E+00
    0.42270E-08         0.40716E-13         0.00000E+00
    0.42269E-08         0.24326E-13         0.00000E+00
    0.42269E-08         0.13703E-13         0.00000E+00
    0.49172E-08         0.52410E-13         0.00000E+00
    0.49170E-08         0.90141E-13         0.00000E+00
    0.49167E-08         0.14072E-12         0.00000E+00
    0.49165E-08         0.14985E-12         0.00000E+00
    0.49162E-08         0.13285E-12         0.00000E+00
    0.49161E-08         0.10230E-12         0.00000E+00
    0.49159E-08         0.67975E-13         0.00000E+00
    0.49158E-08         0.36888E-13         0.00000E+00
    0.49157E-08         0.13466E-13         0.00000E+00
    0.49156E-08        -0.26480E-15         0.00000E+00
    0.49156E-08        -0.44395E-14         0.00000E+00
    0.49155E-08        -0.11048E-14         0.00000E+00
    0.49154E-08         0.60412E-14         0.00000E+00
    0.49153E-08         0.11927E-13         0.00000E+00
    0.49152E-08         0.10411E-13         0.00000E+00
    0.49152E-08         0.69778E-14         0.00000E+00
    0.57008E-08         0.45720E-13         0.00000E+00
    0.57006E-08         0.74816E-13         0.00000E+00
    0.57002E-08         0.10548E-12         0.00000E+00
    0.56999E-08         0.91576E-13         0.00000E+00
    0.56997E-08         0.52213E-13         0.00000E+00
    0.56995E-08         0.26922E-14         0.00000E+00
    0.56994E-08        -0.45408E-13         0.00000E+00
    0.56993E-08        -0.84027E-13         0.00000E+00
    0.56992E-08        -0.10834E-12         0.00000E+00
    0.56992E-08        -0.11645E-12         0.00000E+00
    0.56991E-08        -0.10904E-12         0.00000E+00
    0.56991E-08        -0.89083E-13         0.00000E+00
    0.56990E-08        -0.61554E-13         0.00000E+00
    0.56989E-08        -0.33097E-13         0.00000E+00
    0.56988E-08        -0.11716E-13         0.00000E+00
    0.56988E-08        -0.38680E-14         0.00000E+00
    0.65825E-08         0.31447E-13         0.00000E+00
    0.65823E-08         0.44795E-13         0.00000E+00
    0.65819E-08         0.42392E-13         0.00000E+00
    0.65816E-08        -0.53232E-14         0.00000E+00
    0.65813E-08        -0.75180E-13         0.00000E+00
    0.65812E-08        -0.14910E-12         0.00000E+00
    0.65811E-08        -0.21381E-12         0.00000E+00
    0.65810E-08        -0.26038E-12         0.00000E+00
    0.65810E-08        -0.28383E-12         0.00000E+00
    0.65809E-08        -0.28261E-12         0.00000E+00
    0.65809E-08        -0.25817E-12         0.00000E+00
    0.65809E-08        -0.21467E-12         0.00000E+00
    0.65808E-08        -0.15855E-12         0.00000E+00
    0.65808E-08        -0.98300E-13         0.00000E+00
    0.65806E-08        -0.44102E-13         0.00000E+00
    0.65806E-08        -0.19884E-13         0.00000E+00
    0.75637E-08         0.71214E-14         0.00000E+00
    0.75634E-08        -0.44865E-14         0.00000E+00
    0.75630E-08        -0.56594E-13         0.00000E+00
    0.75626E-08        -0.15113E-12         0.00000E+00
    0.75624E-08        -0.26082E-12         0.00000E+00
    0.75623E-08        -0.36502E-12         0.00000E+00
    0.75622E-08        -0.44903E-12         0.00000E+00
    0.75622E-08        -0.50348E-12         0.00000E+00
    0.75622E-08        -0.52354E-12         0.00000E+00
    0.75622E-08        -0.50832E-12         0.00000E+00
    0.75623E-08        -0.46033E-12         0.00000E+00
    0.75623E-08        -0.38509E-12         0.00000E+00
    0.75622E-08        -0.29073E-12         0.00000E+00
    0.75622E-08        -0.18780E-12         0.00000E+00
    0.75620E-08        -0.88917E-13         0.00000E+00
    0.75620E-08        -0.42193E-13         0.00000E+00
    0.86435E-08        -0.29983E-13         0.00000E+00
    0.86432E-08        -0.77997E-13         0.00000E+00
    0.86427E-08        -0.20007E-12         0.00000E+00
    0.86424E-08        -0.35652E-12         0.00000E+00
    0.86422E-08        -0.51631E-12         0.00000E+00
    0.86421E-08        -0.65675E-12         0.00000E+00
    0.86420E-08        -0.76238E-12         0.00000E+00
    0.86421E-08        -0.82388E-12         0.00000E+00
    0.86422E-08        -0.83714E-12         0.00000E+00
    0.86422E-08        -0.80232E-12         0.00000E+00
    0.86423E-08        -0.72327E-12         0.00000E+00
    0.86424E-08        -0.60703E-12         0.00000E+00
    0.86424E-08        -0.46356E-12         0.00000E+00
    0.86423E-08        -0.30556E-12         0.00000E+00
    0.86422E-08        -0.14830E-12         0.00000E+00
    0.86421E-08        -0.71916E-13         0.00000E+00
    0.98183E-08        -0.82673E-13         0.00000E+00
    0.98180E-08        -0.18077E-12         0.00000E+00
    0.98175E-08        -0.39650E-12         0.00000E+00
    0.98172E-08        -0.63161E-12         0.00000E+00
    0.98170E-08        -0.85220E-12         0.00000E+00
    0.98170E-08        -0.10345E-11         0.00000E+00
    0.98170E-08        -0.11632E-11         0.00000E+00
    0.98172E-08        -0.12300E-11         0.00000E+00
    0.98173E-08        -0.12321E-11         0.00000E+00
    0.98175E-08        -0.11713E-11         0.00000E+00
    0.98176E-08        -0.10529E-11         0.00000E+00
    0.98177E-08        -0.88574E-12         0.00000E+00
    0.98178E-08        -0.68148E-12         0.00000E+00
    0.98177E-08        -0.45497E-12         0.00000E+00
    0.98176E-08        -0.22413E-12         0.00000E+00
    0.98175E-08        -0.11007E-12         0.00000E+00
    0.11082E-07        -0.15359E-12         0.00000E+00
    0.11081E-07        -0.31741E-12         0.00000E+00
    0.11081E-07        -0.65330E-12         0.00000E+00
    0.11080E-07        -0.98472E-12         0.00000E+00
    0.11080E-07        -0.12764E-11         0.00000E+00
    0.11080E-07        -0.15051E-11         0.00000E+00
    0.11081E-07        -0.16570E-11         0.00000E+00
    0.11081E-07        -0.17262E-11         0.00000E+00
    0.11081E-07        -0.17119E-11         0.00000E+00
    0.11081E-07        -0.16181E-11         0.00000E+00
    0.11081E-07        -0.14520E-11         0.00000E+00
    0.11082E-07        -0.12239E-11         0.00000E+00
    0.11082E-07        -0.94708E-12         0.00000E+00
    0.11082E-07        -0.63827E-12         0.00000E+00
    0.11082E-07        -0.31781E-12         0.00000E+00
    0.11082E-07        -0.15745E-12         0.00000E+00
    0.12423E-07        -0.24484E-12         0.00000E+00
    0.12423E-07        -0.49146E-12         0.00000E+00
    0.12422E-07        -0.97562E-12         0.00000E+00
    0.12422E-07        -0.14207E-11         0.00000E+00
    0.12422E-07        -0.17923E-11         0.00000E+00
    0.12422E-07        -0.20700E-11         0.00000E+00
    0.12422E-07        -0.22436E-11         0.00000E+00
    0.12423E-07        -0.23107E-11         0.00000E+00
    0.12423E-07        -0.22741E-11         0.00000E+00
    0.12423E-07        -0.21402E-11         0.00000E+00
    0.12424E-07        -0.19184E-11         0.00000E+00
    0.12424E-07        -0.16202E-11         0.00000E+00
    0.12424E-07        -0.12601E-11         0.00000E+00
    0.12424E-07        -0.85588E-12         0.00000E+00
    0.12424E-07        -0.42983E-12         0.00000E+00
    0.12424E-07        -0.21442E-12         0.00000E+00
    0.13828E-07        -0.35764E-12         0.00000E+00
    0.13828E-07        -0.70457E-12         0.00000E+00
    0.13828E-07        -0.13649E-11         0.00000E+00
    0.13828E-07        -0.19389E-11         0.00000E+00
    0.13828E-07        -0.23965E-11         0.00000E+00
    0.13828E-07        -0.27228E-11         0.00000E+00
    0.13828E-07        -0.29140E-11         0.00000E+00
    0.13829E-07        -0.29731E-11         0.00000E+00
    0.13829E-07        -0.29077E-11         0.00000E+00
    0.13830E-07        -0.27274E-11         0.00000E+00
    0.13830E-07        -0.24434E-11         0.00000E+00
    0.13831E-07        -0.20681E-11         0.00000E+00
    0.13831E-07        -0.16162E-11         0.00000E+00
    0.13831E-07        -0.11057E-11         0.00000E+00
    0.13831E-07        -0.55952E-12         0.00000E+00
    0.13831E-07        -0.28078E-12         0.00000E+00
    0.15280E-07        -0.49175E-12         0.00000E+00
    0.15279E-07        -0.95569E-12         0.00000E+00
    0.15279E-07        -0.18174E-11         0.00000E+00
    0.15279E-07        -0.25315E-11         0.00000E+00
    0.15279E-07        -0.30764E-11         0.00000E+00
    0.15280E-07        -0.34470E-11         0.00000E+00
    0.15280E-07        -0.36485E-11         0.00000E+00
    0.15281E-07        -0.36922E-11         0.00000E+00
    0.15282E-07        -0.35914E-11         0.00000E+00
    0.15282E-07        -0.33598E-11         0.00000E+00
    0.15283E-07        -0.30099E-11         0.00000E+00
    0.15283E-07        -0.25542E-11         0.00000E+00
    0.15284E-07        -0.20061E-11         0.00000E+00
    0.15284E-07        -0.13822E-11         0.00000E+00
    0.15284E-07        -0.70458E-12         0.00000E+00
    0.15284E-07        -0.35555E-12         0.00000E+00
    0.16755E-07        -0.64513E-12         0.00000E+00
    0.16754E-07        -0.12401E-11         0.00000E+00
    0.16754E-07        -0.23225E-11         0.00000E+00
    0.16754E-07        -0.31809E-11         0.00000E+00
    0.16755E-07        -0.38080E-11         0.00000E+00
    0.16756E-07        -0.42129E-11         0.00000E+00
    0.16756E-07        -0.44142E-11         0.00000E+00
    0.16757E-07        -0.44335E-11         0.00000E+00
    0.16758E-07        -0.42917E-11         0.00000E+00
    0.16759E-07        -0.40064E-11         0.00000E+00
    0.16759E-07        -0.35912E-11         0.00000E+00
    0.16760E-07        -0.30572E-11         0.00000E+00
    0.16760E-07        -0.24146E-11         0.00000E+00
    0.16761E-07        -0.16761E-11         0.00000E+00
    0.16761E-07        -0.86082E-12         0.00000E+00
    0.16761E-07        -0.43683E-12         0.00000E+00
    0.18227E-07        -0.81342E-12         0.00000E+00
    0.18227E-07        -0.15489E-11         0.00000E+00
    0.18227E-07        -0.28614E-11         0.00000E+00
    0.18228E-07        -0.38585E-11         0.00000E+00
    0.18228E-07        -0.45539E-11         0.00000E+00
    0.18229E-07        -0.49769E-11         0.00000E+00
    0.18230E-07        -0.51634E-11         0.00000E+00
    0.18231E-07        -0.51485E-11         0.00000E+00
    0.18232E-07        -0.49615E-11         0.00000E+00
    0.18233E-07        -0.46241E-11         0.00000E+00
    0.18234E-07        -0.41502E-11         0.00000E+00
    0.18235E-07        -0.35472E-11         0.00000E+00
    0.18235E-07        -0.28197E-11         0.00000E+00
    0.18235E-07        -0.19738E-11         0.00000E+00
    0.18235E-07        -0.10219E-11         0.00000E+00
    0.18235E-07        -0.52164E-12         0.00000E+00
    0.19668E-07        -0.98974E-12         0.00000E+00
    0.19668E-07        -0.18680E-11         0.00000E+00
    0.19669E-07        -0.34060E-11         0.00000E+00
    0.19670E-07        -0.45232E-11         0.00000E+00
    0.19671E-07        -0.52622E-11         0.00000E+00
    0.19672E-07        -0.56795E-11         0.00000E+00
    0.19673E-07        -0.58331E-11         0.00000E+00
    0.19674E-07        -0.57738E-11         0.00000E+00
    0.19675E-07        -0.55404E-11         0.00000E+00
    0.19676E-07        -0.51580E-11         0.00000E+00
    0.19677E-07        -0.46390E-11         0.00000E+00
    0.19678E-07        -0.39854E-11         0.00000E+00
    0.19679E-07        -0.31929E-11         0.00000E+00
    0.19679E-07        -0.22568E-11         0.00000E+00
    0.19679E-07        -0.11792E-11         0.00000E+00
    0.19679E-07        -0.60591E-12         0.00000E+00
    0.21047E-07        -0.11645E-11         0.00000E+00
    0.21047E-07        -0.21782E-11         0.00000E+00
    0.21048E-07        -0.39183E-11         0.00000E+00
    0.21049E-07        -0.51201E-11         0.00000E+00
    0.21051E-07        -0.58656E-11         0.00000E+00
    0.21052E-07        -0.62461E-11         0.00000E+00
    0.21053E-07        -0.63464E-11         0.00000E+00
    0.21055E-07        -0.62342E-11         0.00000E+00
    0.21056E-07        -0.59574E-11         0.00000E+00
    0.21057E-07        -0.55434E-11         0.00000E+00
    0.21058E-07        -0.50014E-11         0.00000E+00
    0.21059E-07        -0.43256E-11         0.00000E+00
    0.21060E-07        -0.34994E-11         0.00000E+00
    0.21060E-07        -0.25028E-11         0.00000E+00
    0.21061E-07        -0.13220E-11         0.00000E+00
    0.21061E-07        -0.68452E-12         0.00000E+00
    0.22329E-07        -0.13256E-11         0.00000E+00
    0.22330E-07        -0.24551E-11         0.00000E+00
    0.22332E-07        -0.43501E-11         0.00000E+00
    0.22333E-07        -0.55807E-11         0.00000E+00
    0.22335E-07        -0.62820E-11         0.00000E+00
    0.22337E-07        -0.65891E-11         0.00000E+00
    0.22338E-07        -0.66160E-11         0.00000E+00
    0.22340E-07        -0.64467E-11         0.00000E+00
    0.22341E-07        -0.61356E-11         0.00000E+00
    0.22342E-07        -0.57102E-11         0.00000E+00
    0.22343E-07        -0.51753E-11         0.00000E+00
    0.22344E-07        -0.45154E-11         0.00000E+00
    0.22345E-07        -0.36990E-11         0.00000E+00
    0.22346E-07        -0.26854E-11         0.00000E+00
    0.22346E-07        -0.14377E-11         0.00000E+00
    0.22346E-07        -0.75139E-12         0.00000E+00
    0.23483E-07        -0.14580E-11         0.00000E+00
    0.23484E-07        -0.26682E-11         0.00000E+00
    0.23487E-07        -0.46410E-11         0.00000E+00
    0.23489E-07        -0.58215E-11         0.00000E+00
    0.23491E-07        -0.64161E-11         0.00000E+00
    0.23493E-07        -0.66123E-11         0.00000E+00
    0.23495E-07        -0.65522E-11         0.00000E+00
    0.23496E-07        -0.63300E-11         0.00000E+00
    0.23497E-07        -0.60010E-11         0.00000E+00
    0.23499E-07        -0.55902E-11         0.00000E+00
    0.23500E-07        -0.50978E-11         0.00000E+00
    0.23501E-07        -0.44994E-11         0.00000E+00
    0.23502E-07        -0.37471E-11         0.00000E+00
    0.23503E-07        -0.27744E-11         0.00000E+00
    0.23504E-07        -0.15117E-11         0.00000E+00
    0.23504E-07        -0.79966E-12         0.00000E+00
    0.24477E-07        -0.15435E-11         0.00000E+00
    0.24479E-07        -0.27793E-11         0.00000E+00
    0.24482E-07        -0.47153E-11         0.00000E+00
    0.24485E-07        -0.57411E-11         0.00000E+00
    0.24488E-07        -0.61618E-11         0.00000E+00
    0.24490E-07        -0.62205E-11         0.00000E+00
    0.24492E-07        -0.60756E-11         0.00000E+00
    0.24493E-07        -0.58179E-11         0.00000E+00
    0.24494E-07        -0.54953E-11         0.00000E+00
    0.24495E-07        -0.51279E-11         0.00000E+00
    0.24497E-07        -0.47130E-11         0.00000E+00
    0.24498E-07        -0.42224E-11         0.00000E+00
    0.24499E-07        -0.35953E-11         0.00000E+00
    0.24500E-07        -0.27355E-11         0.00000E+00
    0.24501E-07        -0.15273E-11         0.00000E+00
    0.24502E-07        -0.82135E-12         0.00000E+00
    0.25283E-07        -0.15565E-11         0.00000E+00
    0.25285E-07        -0.27347E-11         0.00000E+00
    0.25290E-07        -0.44697E-11         0.00000E+00
    0.25293E-07        -0.52156E-11         0.00000E+00
    0.25296E-07        -0.54110E-11         0.00000E+00
    0.25298E-07        -0.53376E-11         0.00000E+00
    0.25300E-07        -0.51372E-11         0.00000E+00
    0.25302E-07        -0.48776E-11         0.00000E+00
    0.25303E-07        -0.45925E-11         0.00000E+00
    0.25304E-07        -0.42950E-11         0.00000E+00
    0.25305E-07        -0.39827E-11         0.00000E+00
    0.25306E-07        -0.36343E-11         0.00000E+00
    0.25307E-07        -0.31897E-11         0.00000E+00
    0.25309E-07        -0.25259E-11         0.00000E+00
    0.25310E-07        -0.14635E-11         0.00000E+00
    0.25311E-07        -0.80758E-12         0.00000E+00
    0.25876E-07        -0.14524E-11         0.00000E+00
    0.25880E-07        -0.24419E-11         0.00000E+00
    0.25885E-07        -0.37453E-11         0.00000E+00
    0.25889E-07        -0.40979E-11         0.00000E+00
    0.25892E-07        -0.40845E-11         0.00000E+00
    0.25894E-07        -0.39410E-11         0.00000E+00
    0.25896E-07        -0.37436E-11         0.00000E+00
    0.25898E-07        -0.35288E-11         0.00000E+00
    0.25899E-07        -0.33141E-11         0.00000E+00
    0.25900E-07        -0.31065E-11         0.00000E+00
    0.25901E-07        -0.29056E-11         0.00000E+00
    0.25902E-07        -0.27010E-11         0.00000E+00
    0.25903E-07        -0.24666E-11         0.00000E+00
    0.25905E-07        -0.20849E-11         0.00000E+00
    0.25907E-07        -0.12843E-11         0.00000E+00
    0.25908E-07        -0.73652E-12         0.00000E+00
    0.26240E-07        -0.10997E-11         0.00000E+00
    0.26244E-07        -0.16786E-11         0.00000E+00
    0.26250E-07        -0.22857E-11         0.00000E+00
    0.26255E-07        -0.22901E-11         0.00000E+00
    0.26258E-07        -0.22142E-11         0.00000E+00
    0.26260E-07        -0.21010E-11         0.00000E+00
    0.26262E-07        -0.19775E-11         0.00000E+00
    0.26263E-07        -0.18550E-11         0.00000E+00
    0.26264E-07        -0.17393E-11         0.00000E+00
    0.26265E-07        -0.16332E-11         0.00000E+00
    0.26266E-07        -0.15372E-11         0.00000E+00
    0.26267E-07        -0.14503E-11         0.00000E+00
    0.26268E-07        -0.13652E-11         0.00000E+00
    0.26270E-07        -0.12866E-11         0.00000E+00
    0.26273E-07        -0.93326E-12         0.00000E+00
    0.26274E-07        -0.61480E-12         0.00000E+00
    0.26362E-07         0.00000E+00         0.00000E+00
    0.26366E-07         0.00000E+00         0.00000E+00
    0.26373E-07        -0.74510E-22         0.00000E+00
    0.26378E-07         0.16708E-25         0.00000E+00
    0.26381E-07         0.78667E-22         0.00000E+00
    0.26383E-07         0.00000E+00         0.00000E+00
    0.26385E-07         0.00000E+00         0.00000E+00
    0.26386E-07        -0.74570E-22         0.00000E+00
    0.26387E-07        -0.74570E-22         0.00000E+00
    0.26388E-07         0.74585E-22         0.00000E+00
    0.26389E-07         0.78729E-22         0.00000E+00
    0.26390E-07        -0.78744E-22         0.00000E+00
    0.26392E-07        -0.41369E-23         0.00000E+00
    0.26393E-07         0.78754E-22         0.00000E+00
    0.26396E-07         0.82908E-23         0.00000E+00
    0.26398E-07         0.00000E+00         0.00000E+00
CELL_DATA        450
TENSORS stressef double 
    0.14296E+08        -0.22757E+05         0.00000E+00
   -0.22757E+05        -0.12427E+06         0.00000E+00
    0.00000E+00         0.00000E+00         0.28344E+07
 
    0.13130E+08        -0.82959E+04         0.00000E+00
   -0.82959E+04        -0.14378E+06         0.00000E+00
    0.00000E+00         0.00000E+00         0.25972E+07
 
    0.12043E+08         0.80119E+04         0.00000E+00
    0.80119E+04        -0.13911E+06         0.00000E+00
    0.00000E+00         0.00000E+00         0.23807E+07
 
    0.10992E+08         0.20626E+05         0.00000E+00
    0.20626E+05        -0.10856E+06         0.00000E+00
    0.00000E+00         0.00000E+00         0.21768E+07
 
    0.99723E+07         0.31241E+05         0.00000E+00
    0.31241E+05        -0.55880E+05         0.00000E+00
    0.00000E+00         0.00000E+00         0.19833E+07
 
    0.89813E+07         0.40957E+05         0.00000E+00
    0.40957E+05         0.16565E+05         0.00000E+00
    0.00000E+00         0.00000E+00         0.17996E+07
 
    0.80191E+07         0.50654E+05         0.00000E+00
    0.50654E+05         0.10811E+06         0.00000E+00
    0.00000E+00         0.00000E+00         0.16254E+07
 
    0.70846E+07         0.60954E+05         0.00000E+00
    0.60954E+05         0.21950E+06         0.00000E+00
    0.00000E+00         0.00000E+00         0.14608E+07
 
    0.61759E+07         0.72264E+05         0.00000E+00
    0.72264E+05         0.35243E+06         0.00000E+00
    0.00000E+00         0.00000E+00         0.13057E+07
 
    0.52902E+07         0.84823E+05         0.00000E+00
    0.84823E+05         0.50922E+06         0.00000E+00
    0.00000E+00         0.00000E+00         0.11599E+07
 
    0.44238E+07         0.98774E+05         0.00000E+00
    0.98774E+05         0.69259E+06         0.00000E+00
    0.00000E+00         0.00000E+00         0.10233E+07
 
    0.35718E+07         0.11430E+06         0.00000E+00
    0.11430E+06         0.90553E+06         0.00000E+00
    0.00000E+00         0.00000E+00         0.89546E+06
 
    0.27269E+07         0.13202E+06         0.00000E+00
    0.13202E+06         0.11518E+07         0.00000E+00
    0.00000E+00         0.00000E+00         0.77574E+06
 
    0.18751E+07         0.15381E+06         0.00000E+00
    0.15381E+06         0.14378E+07         0.00000E+00
    0.00000E+00         0.00000E+00         0.66257E+06
 
    0.96922E+06         0.19668E+06         0.00000E+00
    0.19668E+06         0.17826E+07         0.00000E+00
    0.00000E+00         0.00000E+00         0.55037E+06
 
    0.14052E+08        -0.17889E+05         0.00000E+00
   -0.17889E+05        -0.32502E+06         0.00000E+00
    0.00000E+00         0.00000E+00         0.27454E+07
 
    0.12933E+08        -0.27687E+04         0.00000E+00
   -0.27687E+04        -0.30433E+06         0.00000E+00
    0.00000E+00         0.00000E+00         0.25258E+07
 
    0.11844E+08         0.32747E+05         0.00000E+00
    0.32747E+05        -0.27751E+06         0.00000E+00
    0.00000E+00         0.00000E+00         0.23132E+07
 
    0.10790E+08         0.65723E+05         0.00000E+00
    0.65723E+05        -0.23653E+06         0.00000E+00
    0.00000E+00         0.00000E+00         0.21107E+07
 
    0.97676E+07         0.95113E+05         0.00000E+00
    0.95113E+05        -0.17945E+06         0.00000E+00
    0.00000E+00         0.00000E+00         0.19176E+07
 
    0.87762E+07         0.12296E+06         0.00000E+00
    0.12296E+06        -0.10591E+06         0.00000E+00
    0.00000E+00         0.00000E+00         0.17341E+07
 
    0.78148E+07         0.15135E+06         0.00000E+00
    0.15135E+06        -0.15083E+05         0.00000E+00
    0.00000E+00         0.00000E+00         0.15599E+07
 
    0.68822E+07         0.18194E+06         0.00000E+00
    0.18194E+06         0.94649E+05         0.00000E+00
    0.00000E+00         0.00000E+00         0.13954E+07
 
    0.59759E+07         0.21582E+06         0.00000E+00
    0.21582E+06         0.22559E+06         0.00000E+00
    0.00000E+00         0.00000E+00         0.12403E+07
 
    0.50929E+07         0.25365E+06         0.00000E+00
    0.25365E+06         0.38052E+06         0.00000E+00
    0.00000E+00         0.00000E+00         0.10947E+07
 
    0.42295E+07         0.29585E+06         0.00000E+00
    0.29585E+06         0.56247E+06         0.00000E+00
    0.00000E+00         0.00000E+00         0.95839E+06
 
    0.33811E+07         0.34296E+06         0.00000E+00
    0.34296E+06         0.77475E+06         0.00000E+00
    0.00000E+00         0.00000E+00         0.83117E+06
 
    0.25420E+07         0.39667E+06         0.00000E+00
    0.39667E+06         0.10213E+07         0.00000E+00
    0.00000E+00         0.00000E+00         0.71266E+06
 
    0.17031E+07         0.46321E+06         0.00000E+00
    0.46321E+06         0.13075E+07         0.00000E+00
    0.00000E+00         0.00000E+00         0.60213E+06
 
    0.86841E+06         0.56796E+06         0.00000E+00
    0.56796E+06         0.16400E+07         0.00000E+00
    0.00000E+00         0.00000E+00         0.50167E+06
 
    0.13815E+08         0.40247E+04         0.00000E+00
    0.40247E+04        -0.56026E+06         0.00000E+00
    0.00000E+00         0.00000E+00         0.26508E+07
 
    0.12730E+08         0.31737E+05         0.00000E+00
    0.31737E+05        -0.52744E+06         0.00000E+00
    0.00000E+00         0.00000E+00         0.24406E+07
 
    0.11648E+08         0.74166E+05         0.00000E+00
    0.74166E+05        -0.48279E+06         0.00000E+00
    0.00000E+00         0.00000E+00         0.22330E+07
 
    0.10591E+08         0.11864E+06         0.00000E+00
    0.11864E+06        -0.43102E+06         0.00000E+00
    0.00000E+00         0.00000E+00         0.20320E+07
 
    0.95668E+07         0.16151E+06         0.00000E+00
    0.16151E+06        -0.36959E+06         0.00000E+00
    0.00000E+00         0.00000E+00         0.18394E+07
 
    0.85756E+07         0.20437E+06         0.00000E+00
    0.20437E+06        -0.29604E+06         0.00000E+00
    0.00000E+00         0.00000E+00         0.16559E+07
 
    0.76168E+07         0.24974E+06         0.00000E+00
    0.24974E+06        -0.20786E+06         0.00000E+00
    0.00000E+00         0.00000E+00         0.14818E+07
 
    0.66883E+07         0.29983E+06         0.00000E+00
    0.29983E+06        -0.10218E+06         0.00000E+00
    0.00000E+00         0.00000E+00         0.13172E+07
 
    0.57873E+07         0.35618E+06         0.00000E+00
    0.35618E+06         0.24232E+05         0.00000E+00
    0.00000E+00         0.00000E+00         0.11623E+07
 
    0.49101E+07         0.41971E+06         0.00000E+00
    0.41971E+06         0.17486E+06         0.00000E+00
    0.00000E+00         0.00000E+00         0.10170E+07
 
    0.40530E+07         0.49097E+06         0.00000E+00
    0.49097E+06         0.35325E+06         0.00000E+00
    0.00000E+00         0.00000E+00         0.88124E+06
 
    0.32120E+07         0.57070E+06         0.00000E+00
    0.57070E+06         0.56295E+06         0.00000E+00
    0.00000E+00         0.00000E+00         0.75499E+06
 
    0.23836E+07         0.66106E+06         0.00000E+00
    0.66106E+06         0.80741E+06         0.00000E+00
    0.00000E+00         0.00000E+00         0.63821E+06
 
    0.15683E+07         0.76873E+06         0.00000E+00
    0.76873E+06         0.10892E+07         0.00000E+00
    0.00000E+00         0.00000E+00         0.53149E+06
 
    0.77789E+06         0.90489E+06         0.00000E+00
    0.90489E+06         0.14028E+07         0.00000E+00
    0.00000E+00         0.00000E+00         0.43613E+06
 
    0.13590E+08         0.25930E+05         0.00000E+00
    0.25930E+05        -0.81885E+06         0.00000E+00
    0.00000E+00         0.00000E+00         0.25542E+07
 
    0.12516E+08         0.75332E+05         0.00000E+00
    0.75332E+05        -0.78630E+06         0.00000E+00
    0.00000E+00         0.00000E+00         0.23459E+07
 
    0.11438E+08         0.12549E+06         0.00000E+00
    0.12549E+06        -0.73842E+06         0.00000E+00
    0.00000E+00         0.00000E+00         0.21398E+07
 
    0.10381E+08         0.17632E+06         0.00000E+00
    0.17632E+06        -0.68374E+06         0.00000E+00
    0.00000E+00         0.00000E+00         0.19394E+07
 
    0.93570E+07         0.22796E+06         0.00000E+00
    0.22796E+06        -0.62288E+06         0.00000E+00
    0.00000E+00         0.00000E+00         0.17468E+07
 
    0.83686E+07         0.28253E+06         0.00000E+00
    0.28253E+06        -0.55327E+06         0.00000E+00
    0.00000E+00         0.00000E+00         0.15631E+07
 
    0.74152E+07         0.34292E+06         0.00000E+00
    0.34292E+06        -0.47140E+06         0.00000E+00
    0.00000E+00         0.00000E+00         0.13888E+07
 
    0.64942E+07         0.41163E+06         0.00000E+00
    0.41163E+06        -0.37331E+06         0.00000E+00
    0.00000E+00         0.00000E+00         0.12242E+07
 
    0.56018E+07         0.49043E+06         0.00000E+00
    0.49043E+06        -0.25483E+06         0.00000E+00
    0.00000E+00         0.00000E+00         0.10694E+07
 
    0.47340E+07         0.58028E+06         0.00000E+00
    0.58028E+06        -0.11173E+06         0.00000E+00
    0.00000E+00         0.00000E+00         0.92445E+06
 
    0.38867E+07         0.68160E+06         0.00000E+00
    0.68160E+06         0.60025E+05         0.00000E+00
    0.00000E+00         0.00000E+00         0.78934E+06
 
    0.30565E+07         0.79481E+06         0.00000E+00
    0.79481E+06         0.26403E+06         0.00000E+00
    0.00000E+00         0.00000E+00         0.66410E+06
 
    0.22420E+07         0.92117E+06         0.00000E+00
    0.92117E+06         0.50284E+06         0.00000E+00
    0.00000E+00         0.00000E+00         0.54898E+06
 
    0.14467E+07         0.10633E+07         0.00000E+00
    0.10633E+07         0.77605E+06         0.00000E+00
    0.00000E+00         0.00000E+00         0.44455E+06
 
    0.68164E+06         0.12235E+07         0.00000E+00
    0.12235E+07         0.10779E+07         0.00000E+00
    0.00000E+00         0.00000E+00         0.35190E+06
 
    0.13369E+08         0.44769E+05         0.00000E+00
    0.44769E+05        -0.11083E+07         0.00000E+00
    0.00000E+00         0.00000E+00         0.24522E+07
 
    0.12285E+08         0.11622E+06         0.00000E+00
    0.11622E+06        -0.10808E+07         0.00000E+00
    0.00000E+00         0.00000E+00         0.22408E+07
 
    0.11204E+08         0.17548E+06         0.00000E+00
    0.17548E+06        -0.10389E+07         0.00000E+00
    0.00000E+00         0.00000E+00         0.20329E+07
 
    0.10147E+08         0.23123E+06         0.00000E+00
    0.23123E+06        -0.99069E+06         0.00000E+00
    0.00000E+00         0.00000E+00         0.18313E+07
 
    0.91260E+07         0.28888E+06         0.00000E+00
    0.28888E+06        -0.93773E+06         0.00000E+00
    0.00000E+00         0.00000E+00         0.16376E+07
 
    0.81439E+07         0.35276E+06         0.00000E+00
    0.35276E+06        -0.87799E+06         0.00000E+00
    0.00000E+00         0.00000E+00         0.14532E+07
 
    0.71998E+07         0.42663E+06         0.00000E+00
    0.42663E+06        -0.80754E+06         0.00000E+00
    0.00000E+00         0.00000E+00         0.12785E+07
 
    0.62903E+07         0.51339E+06         0.00000E+00
    0.51339E+06        -0.72164E+06         0.00000E+00
    0.00000E+00         0.00000E+00         0.11137E+07
 
    0.54109E+07         0.61486E+06         0.00000E+00
    0.61486E+06        -0.61531E+06         0.00000E+00
    0.00000E+00         0.00000E+00         0.95912E+06
 
    0.45565E+07         0.73186E+06         0.00000E+00
    0.73186E+06        -0.48365E+06         0.00000E+00
    0.00000E+00         0.00000E+00         0.81458E+06
 
    0.37227E+07         0.86437E+06         0.00000E+00
    0.86437E+06        -0.32218E+06         0.00000E+00
    0.00000E+00         0.00000E+00         0.68010E+06
 
    0.29060E+07         0.10119E+07         0.00000E+00
    0.10119E+07        -0.12729E+06         0.00000E+00
    0.00000E+00         0.00000E+00         0.55575E+06
 
    0.21057E+07         0.11736E+07         0.00000E+00
    0.11736E+07         0.10298E+06         0.00000E+00
    0.00000E+00         0.00000E+00         0.44173E+06
 
    0.13249E+07         0.13484E+07         0.00000E+00
    0.13484E+07         0.36786E+06         0.00000E+00
    0.00000E+00         0.00000E+00         0.33854E+06
 
    0.57210E+06         0.15333E+07         0.00000E+00
    0.15333E+07         0.66266E+06         0.00000E+00
    0.00000E+00         0.00000E+00         0.24695E+06
 
    0.13138E+08         0.59284E+05         0.00000E+00
    0.59284E+05        -0.14375E+07         0.00000E+00
    0.00000E+00         0.00000E+00         0.23401E+07
 
    0.12028E+08         0.14858E+06         0.00000E+00
    0.14858E+06        -0.14179E+07         0.00000E+00
    0.00000E+00         0.00000E+00         0.21220E+07
 
    0.10936E+08         0.21562E+06         0.00000E+00
    0.21562E+06        -0.13879E+07         0.00000E+00
    0.00000E+00         0.00000E+00         0.19096E+07
 
    0.98779E+07         0.27520E+06         0.00000E+00
    0.27520E+06        -0.13535E+07         0.00000E+00
    0.00000E+00         0.00000E+00         0.17049E+07
 
    0.88622E+07         0.33734E+06         0.00000E+00
    0.33734E+06        -0.13158E+07         0.00000E+00
    0.00000E+00         0.00000E+00         0.15093E+07
 
    0.78904E+07         0.40912E+06         0.00000E+00
    0.40912E+06        -0.12726E+07         0.00000E+00
    0.00000E+00         0.00000E+00         0.13236E+07
 
    0.69604E+07         0.49565E+06         0.00000E+00
    0.49565E+06        -0.12194E+07         0.00000E+00
    0.00000E+00         0.00000E+00         0.11482E+07
 
    0.60676E+07         0.60035E+06         0.00000E+00
    0.60035E+06        -0.11509E+07         0.00000E+00
    0.00000E+00         0.00000E+00         0.98332E+06
 
    0.52060E+07         0.72515E+06         0.00000E+00
    0.72515E+06        -0.10615E+07         0.00000E+00
    0.00000E+00         0.00000E+00         0.82889E+06
 
    0.43696E+07         0.87051E+06         0.00000E+00
    0.87051E+06        -0.94555E+06         0.00000E+00
    0.00000E+00         0.00000E+00         0.68480E+06
 
    0.35529E+07         0.10357E+07         0.00000E+00
    0.10357E+07        -0.79816E+06         0.00000E+00
    0.00000E+00         0.00000E+00         0.55094E+06
 
    0.27519E+07         0.12189E+07         0.00000E+00
    0.12189E+07        -0.61549E+06         0.00000E+00
    0.00000E+00         0.00000E+00         0.42728E+06
 
    0.19651E+07         0.14172E+07         0.00000E+00
    0.14172E+07        -0.39542E+06         0.00000E+00
    0.00000E+00         0.00000E+00         0.31393E+06
 
    0.11942E+07         0.16265E+07         0.00000E+00
    0.16265E+07        -0.13823E+06         0.00000E+00
    0.00000E+00         0.00000E+00         0.21119E+06
 
    0.44488E+06         0.18401E+07         0.00000E+00
    0.18401E+07         0.15296E+06         0.00000E+00
    0.00000E+00         0.00000E+00         0.11957E+06
 
    0.12878E+08         0.68603E+05         0.00000E+00
    0.68603E+05        -0.18166E+07         0.00000E+00
    0.00000E+00         0.00000E+00         0.22122E+07
 
    0.11731E+08         0.16877E+06         0.00000E+00
    0.16877E+06        -0.18067E+07         0.00000E+00
    0.00000E+00         0.00000E+00         0.19848E+07
 
    0.10622E+08         0.23990E+06         0.00000E+00
    0.23990E+06        -0.17927E+07         0.00000E+00
    0.00000E+00         0.00000E+00         0.17659E+07
 
    0.95623E+07         0.30123E+06         0.00000E+00
    0.30123E+06        -0.17780E+07         0.00000E+00
    0.00000E+00         0.00000E+00         0.15569E+07
 
    0.85543E+07         0.36649E+06         0.00000E+00
    0.36649E+06        -0.17621E+07         0.00000E+00
    0.00000E+00         0.00000E+00         0.13584E+07
 
    0.75973E+07         0.44533E+06         0.00000E+00
    0.44533E+06        -0.17417E+07         0.00000E+00
    0.00000E+00         0.00000E+00         0.11711E+07
 
    0.66869E+07         0.54429E+06         0.00000E+00
    0.54429E+06        -0.17117E+07         0.00000E+00
    0.00000E+00         0.00000E+00         0.99503E+06
 
    0.58164E+07         0.66743E+06         0.00000E+00
    0.66743E+06        -0.16661E+07         0.00000E+00
    0.00000E+00         0.00000E+00         0.83006E+06
 
    0.49782E+07         0.81670E+06         0.00000E+00
    0.81670E+06        -0.15984E+07         0.00000E+00
    0.00000E+00         0.00000E+00         0.67596E+06
 
    0.41647E+07         0.99216E+06         0.00000E+00
    0.99216E+06        -0.15024E+07         0.00000E+00
    0.00000E+00         0.00000E+00         0.53246E+06
 
    0.33691E+07         0.11922E+07         0.00000E+00
    0.11922E+07        -0.13728E+07         0.00000E+00
    0.00000E+00         0.00000E+00         0.39928E+06
 
    0.25861E+07         0.14136E+07         0.00000E+00
    0.14136E+07        -0.12050E+07         0.00000E+00
    0.00000E+00         0.00000E+00         0.27622E+06
 
    0.18126E+07         0.16515E+07         0.00000E+00
    0.16515E+07        -0.99641E+06         0.00000E+00
    0.00000E+00         0.00000E+00         0.16323E+06
 
    0.10484E+07         0.18992E+07         0.00000E+00
    0.18992E+07        -0.74637E+06         0.00000E+00
    0.00000E+00         0.00000E+00         0.60409E+05
 
    0.29670E+06         0.21477E+07         0.00000E+00
    0.21477E+07        -0.45649E+06         0.00000E+00
    0.00000E+00         0.00000E+00        -0.31958E+05
 
    0.12568E+08         0.71958E+05         0.00000E+00
    0.71958E+05        -0.22562E+07         0.00000E+00
    0.00000E+00         0.00000E+00         0.20624E+07
 
    0.11377E+08         0.17408E+06         0.00000E+00
    0.17408E+06        -0.22575E+07         0.00000E+00
    0.00000E+00         0.00000E+00         0.18239E+07
 
    0.10249E+08         0.24374E+06         0.00000E+00
    0.24374E+06        -0.22629E+07         0.00000E+00
    0.00000E+00         0.00000E+00         0.15972E+07
 
    0.91874E+07         0.30359E+06         0.00000E+00
    0.30359E+06        -0.22725E+07         0.00000E+00
    0.00000E+00         0.00000E+00         0.13830E+07
 
    0.81905E+07         0.37025E+06         0.00000E+00
    0.37025E+06        -0.22837E+07         0.00000E+00
    0.00000E+00         0.00000E+00         0.11814E+07
 
    0.72536E+07         0.45545E+06         0.00000E+00
    0.45545E+06        -0.22918E+07         0.00000E+00
    0.00000E+00         0.00000E+00         0.99236E+06
 
    0.63689E+07         0.56701E+06         0.00000E+00
    0.56701E+06        -0.22905E+07         0.00000E+00
    0.00000E+00         0.00000E+00         0.81566E+06
 
    0.55271E+07         0.70956E+06         0.00000E+00
    0.70956E+06        -0.22729E+07         0.00000E+00
    0.00000E+00         0.00000E+00         0.65085E+06
 
    0.47186E+07         0.88501E+06         0.00000E+00
    0.88501E+06        -0.22316E+07         0.00000E+00
    0.00000E+00         0.00000E+00         0.49741E+06
 
    0.39337E+07         0.10929E+07         0.00000E+00
    0.10929E+07        -0.21597E+07         0.00000E+00
    0.00000E+00         0.00000E+00         0.35479E+06
 
    0.31636E+07         0.13308E+07         0.00000E+00
    0.13308E+07        -0.20511E+07         0.00000E+00
    0.00000E+00         0.00000E+00         0.22250E+06
 
    0.24012E+07         0.15940E+07         0.00000E+00
    0.15940E+07        -0.19006E+07         0.00000E+00
    0.00000E+00         0.00000E+00         0.10012E+06
 
    0.16417E+07         0.18759E+07         0.00000E+00
    0.18759E+07        -0.17048E+07         0.00000E+00
    0.00000E+00         0.00000E+00        -0.12605E+05
 
    0.88272E+06         0.21678E+07         0.00000E+00
    0.21678E+07        -0.14617E+07         0.00000E+00
    0.00000E+00         0.00000E+00        -0.11579E+06
 
    0.12475E+06         0.24586E+07         0.00000E+00
    0.24586E+07        -0.11716E+07         0.00000E+00
    0.00000E+00         0.00000E+00        -0.20937E+06
 
    0.12185E+08         0.68628E+05         0.00000E+00
    0.68628E+05        -0.27676E+07         0.00000E+00
    0.00000E+00         0.00000E+00         0.18836E+07
 
    0.10947E+08         0.16228E+06         0.00000E+00
    0.16228E+06        -0.27816E+07         0.00000E+00
    0.00000E+00         0.00000E+00         0.16331E+07
 
    0.97996E+07         0.22350E+06         0.00000E+00
    0.22350E+06        -0.28090E+07         0.00000E+00
    0.00000E+00         0.00000E+00         0.13981E+07
 
    0.87390E+07         0.27760E+06         0.00000E+00
    0.27760E+06        -0.28466E+07         0.00000E+00
    0.00000E+00         0.00000E+00         0.11785E+07
 
    0.77582E+07         0.34340E+06         0.00000E+00
    0.34340E+06        -0.28895E+07         0.00000E+00
    0.00000E+00         0.00000E+00         0.97374E+06
 
    0.68476E+07         0.43420E+06         0.00000E+00
    0.43420E+06        -0.29310E+07         0.00000E+00
    0.00000E+00         0.00000E+00         0.78333E+06
 
    0.59957E+07         0.55876E+06         0.00000E+00
    0.55876E+06        -0.29632E+07         0.00000E+00
    0.00000E+00         0.00000E+00         0.60650E+06
 
    0.51901E+07         0.72205E+06         0.00000E+00
    0.72205E+06        -0.29781E+07         0.00000E+00
    0.00000E+00         0.00000E+00         0.44240E+06
 
    0.44183E+07         0.92587E+06         0.00000E+00
    0.92587E+06        -0.29674E+07         0.00000E+00
    0.00000E+00         0.00000E+00         0.29017E+06
 
    0.36681E+07         0.11692E+07         0.00000E+00
    0.11692E+07        -0.29233E+07         0.00000E+00
    0.00000E+00         0.00000E+00         0.14895E+06
 
    0.29286E+07         0.14487E+07         0.00000E+00
    0.14487E+07        -0.28387E+07         0.00000E+00
    0.00000E+00         0.00000E+00         0.17968E+05
 
    0.21906E+07         0.17583E+07         0.00000E+00
    0.17583E+07        -0.27078E+07         0.00000E+00
    0.00000E+00         0.00000E+00        -0.10344E+06
 
    0.14469E+07         0.20899E+07         0.00000E+00
    0.20899E+07        -0.25258E+07         0.00000E+00
    0.00000E+00         0.00000E+00        -0.21579E+06
 
    0.69279E+06         0.24329E+07         0.00000E+00
    0.24329E+07        -0.22899E+07         0.00000E+00
    0.00000E+00         0.00000E+00        -0.31942E+06
 
   -0.73541E+05         0.27744E+07         0.00000E+00
    0.27744E+07        -0.19988E+07         0.00000E+00
    0.00000E+00         0.00000E+00        -0.41446E+06
 
    0.11705E+08         0.57931E+05         0.00000E+00
    0.57931E+05        -0.33628E+07         0.00000E+00
    0.00000E+00         0.00000E+00         0.16685E+07
 
    0.10420E+08         0.13141E+06         0.00000E+00
    0.13141E+06        -0.33908E+07         0.00000E+00
    0.00000E+00         0.00000E+00         0.14059E+07
 
    0.92560E+07         0.17612E+06         0.00000E+00
    0.17612E+06        -0.34425E+07         0.00000E+00
    0.00000E+00         0.00000E+00         0.11627E+07
 
    0.82016E+07         0.21943E+06         0.00000E+00
    0.21943E+06        -0.35113E+07         0.00000E+00
    0.00000E+00         0.00000E+00         0.93805E+06
 
    0.72437E+07         0.28166E+06         0.00000E+00
    0.28166E+06        -0.35896E+07         0.00000E+00
    0.00000E+00         0.00000E+00         0.73082E+06
 
    0.63672E+07         0.37715E+06         0.00000E+00
    0.37715E+06        -0.36683E+07         0.00000E+00
    0.00000E+00         0.00000E+00         0.53979E+06
 
    0.55564E+07         0.51519E+06         0.00000E+00
    0.51519E+06        -0.37380E+07         0.00000E+00
    0.00000E+00         0.00000E+00         0.36368E+06
 
    0.47952E+07         0.70085E+06         0.00000E+00
    0.70085E+06        -0.37892E+07         0.00000E+00
    0.00000E+00         0.00000E+00         0.20119E+06
 
    0.40678E+07         0.93565E+06         0.00000E+00
    0.93565E+06        -0.38126E+07         0.00000E+00
    0.00000E+00         0.00000E+00         0.51038E+05
 
    0.33594E+07         0.12180E+07         0.00000E+00
    0.12180E+07        -0.37993E+07         0.00000E+00
    0.00000E+00         0.00000E+00        -0.87986E+05
 
    0.26566E+07         0.15433E+07         0.00000E+00
    0.15433E+07        -0.37415E+07         0.00000E+00
    0.00000E+00         0.00000E+00        -0.21698E+06
 
    0.19475E+07         0.19048E+07         0.00000E+00
    0.19048E+07        -0.36320E+07         0.00000E+00
    0.00000E+00         0.00000E+00        -0.33690E+06
 
    0.12226E+07         0.22926E+07         0.00000E+00
    0.22926E+07        -0.34652E+07         0.00000E+00
    0.00000E+00         0.00000E+00        -0.44853E+06
 
    0.47467E+06         0.26947E+07         0.00000E+00
    0.26947E+07        -0.32369E+07         0.00000E+00
    0.00000E+00         0.00000E+00        -0.55245E+06
 
   -0.30063E+06         0.30962E+07         0.00000E+00
    0.30962E+07        -0.29445E+07         0.00000E+00
    0.00000E+00         0.00000E+00        -0.64902E+06
 
    0.11100E+08         0.39244E+05         0.00000E+00
    0.39244E+05        -0.40547E+07         0.00000E+00
    0.00000E+00         0.00000E+00         0.14091E+07
 
    0.97728E+07         0.79801E+05         0.00000E+00
    0.79801E+05        -0.40977E+07         0.00000E+00
    0.00000E+00         0.00000E+00         0.11350E+07
 
    0.85986E+07         0.99149E+05         0.00000E+00
    0.99149E+05        -0.41755E+07         0.00000E+00
    0.00000E+00         0.00000E+00         0.88462E+06
 
    0.75584E+07         0.12603E+06         0.00000E+00
    0.12603E+06        -0.42780E+07         0.00000E+00
    0.00000E+00         0.00000E+00         0.65607E+06
 
    0.66322E+07         0.18164E+06         0.00000E+00
    0.18164E+06        -0.43944E+07         0.00000E+00
    0.00000E+00         0.00000E+00         0.44757E+06
 
    0.57993E+07         0.28079E+06         0.00000E+00
    0.28079E+06        -0.45132E+07         0.00000E+00
    0.00000E+00         0.00000E+00         0.25722E+06
 
    0.50392E+07         0.43286E+06         0.00000E+00
    0.43286E+06        -0.46234E+07         0.00000E+00
    0.00000E+00         0.00000E+00         0.83159E+05
 
    0.43317E+07         0.64271E+06         0.00000E+00
    0.64271E+06        -0.47138E+07         0.00000E+00
    0.00000E+00         0.00000E+00        -0.76430E+05
 
    0.36576E+07         0.91135E+06         0.00000E+00
    0.91135E+06        -0.47740E+07         0.00000E+00
    0.00000E+00         0.00000E+00        -0.22328E+06
 
    0.29991E+07         0.12365E+07         0.00000E+00
    0.12365E+07        -0.47941E+07         0.00000E+00
    0.00000E+00         0.00000E+00        -0.35899E+06
 
    0.23399E+07         0.16127E+07         0.00000E+00
    0.16127E+07        -0.47651E+07         0.00000E+00
    0.00000E+00         0.00000E+00        -0.48503E+06
 
    0.16655E+07         0.20319E+07         0.00000E+00
    0.20319E+07        -0.46789E+07         0.00000E+00
    0.00000E+00         0.00000E+00        -0.60268E+06
 
    0.96361E+06         0.24832E+07         0.00000E+00
    0.24832E+07        -0.45286E+07         0.00000E+00
    0.00000E+00         0.00000E+00        -0.71300E+06
 
    0.22450E+06         0.29528E+07         0.00000E+00
    0.29528E+07        -0.43087E+07         0.00000E+00
    0.00000E+00         0.00000E+00        -0.81684E+06
 
   -0.55890E+06         0.34244E+07         0.00000E+00
    0.34244E+07        -0.40151E+07         0.00000E+00
    0.00000E+00         0.00000E+00        -0.91480E+06
 
    0.10341E+08         0.12028E+05         0.00000E+00
    0.12028E+05        -0.48566E+07         0.00000E+00
    0.00000E+00         0.00000E+00         0.10969E+07
 
    0.89807E+07         0.61188E+04         0.00000E+00
    0.61188E+04        -0.49153E+07         0.00000E+00
    0.00000E+00         0.00000E+00         0.81308E+06
 
    0.78066E+07        -0.93039E+04         0.00000E+00
   -0.93039E+04        -0.50207E+07         0.00000E+00
    0.00000E+00         0.00000E+00         0.55719E+06
 
    0.67916E+07        -0.48301E+04         0.00000E+00
   -0.48301E+04        -0.51585E+07         0.00000E+00
    0.00000E+00         0.00000E+00         0.32662E+06
 
    0.59085E+07         0.40949E+05         0.00000E+00
    0.40949E+05        -0.53148E+07         0.00000E+00
    0.00000E+00         0.00000E+00         0.11873E+06
 
    0.51305E+07         0.14268E+06         0.00000E+00
    0.14268E+06        -0.54758E+07         0.00000E+00
    0.00000E+00         0.00000E+00        -0.69052E+05
 
    0.44321E+07         0.30937E+06         0.00000E+00
    0.30937E+06        -0.56283E+07         0.00000E+00
    0.00000E+00         0.00000E+00        -0.23923E+06
 
    0.37888E+07         0.54531E+06         0.00000E+00
    0.54531E+06        -0.57597E+07         0.00000E+00
    0.00000E+00         0.00000E+00        -0.39418E+06
 
    0.31779E+07         0.85081E+06         0.00000E+00
    0.85081E+06        -0.58585E+07         0.00000E+00
    0.00000E+00         0.00000E+00        -0.53610E+06
 
    0.25783E+07         0.12228E+07         0.00000E+00
    0.12228E+07        -0.59136E+07         0.00000E+00
    0.00000E+00         0.00000E+00        -0.66705E+06
 
    0.19707E+07         0.16549E+07         0.00000E+00
    0.16549E+07        -0.59150E+07         0.00000E+00
    0.00000E+00         0.00000E+00        -0.78885E+06
 
    0.13379E+07         0.21381E+07         0.00000E+00
    0.21381E+07        -0.58536E+07         0.00000E+00
    0.00000E+00         0.00000E+00        -0.90313E+06
 
    0.66469E+06         0.26603E+07         0.00000E+00
    0.26603E+07        -0.57211E+07         0.00000E+00
    0.00000E+00         0.00000E+00        -0.10113E+07
 
   -0.61534E+05         0.32065E+07         0.00000E+00
    0.32065E+07        -0.55107E+07         0.00000E+00
    0.00000E+00         0.00000E+00        -0.11145E+07
 
   -0.85068E+06         0.37587E+07         0.00000E+00
    0.37587E+07        -0.52167E+07         0.00000E+00
    0.00000E+00         0.00000E+00        -0.12135E+07
 
    0.93988E+07        -0.24136E+05         0.00000E+00
   -0.24136E+05        -0.57820E+07         0.00000E+00
    0.00000E+00         0.00000E+00         0.72337E+06
 
    0.80186E+07        -0.90598E+05         0.00000E+00
   -0.90598E+05        -0.58571E+07         0.00000E+00
    0.00000E+00         0.00000E+00         0.43228E+06
 
    0.68586E+07        -0.15046E+06         0.00000E+00
   -0.15046E+06        -0.59908E+07         0.00000E+00
    0.00000E+00         0.00000E+00         0.17357E+06
 
    0.58829E+07        -0.17446E+06         0.00000E+00
   -0.17446E+06        -0.61648E+07         0.00000E+00
    0.00000E+00         0.00000E+00        -0.56376E+05
 
    0.50566E+07        -0.14174E+06         0.00000E+00
   -0.14174E+06        -0.63618E+07         0.00000E+00
    0.00000E+00         0.00000E+00        -0.26104E+06
 
    0.43468E+07        -0.38454E+05         0.00000E+00
   -0.38454E+05        -0.65656E+07         0.00000E+00
    0.00000E+00         0.00000E+00        -0.44375E+06
 
    0.37226E+07         0.14349E+06         0.00000E+00
    0.14349E+06        -0.67609E+07         0.00000E+00
    0.00000E+00         0.00000E+00        -0.60768E+06
 
    0.31553E+07         0.40743E+06         0.00000E+00
    0.40743E+06        -0.69341E+07         0.00000E+00
    0.00000E+00         0.00000E+00        -0.75576E+06
 
    0.26184E+07         0.75278E+06         0.00000E+00
    0.75278E+06        -0.70720E+07         0.00000E+00
    0.00000E+00         0.00000E+00        -0.89072E+06
 
    0.20878E+07         0.11756E+07         0.00000E+00
    0.11756E+07        -0.71629E+07         0.00000E+00
    0.00000E+00         0.00000E+00        -0.10150E+07
 
    0.15410E+07         0.16687E+07         0.00000E+00
    0.16687E+07        -0.71958E+07         0.00000E+00
    0.00000E+00         0.00000E+00        -0.11310E+07
 
    0.95785E+06         0.22221E+07         0.00000E+00
    0.22221E+07        -0.71603E+07         0.00000E+00
    0.00000E+00         0.00000E+00        -0.12405E+07
 
    0.32034E+06         0.28228E+07         0.00000E+00
    0.28228E+07        -0.70471E+07         0.00000E+00
    0.00000E+00         0.00000E+00        -0.13454E+07
 
   -0.38732E+06         0.34547E+07         0.00000E+00
    0.34547E+07        -0.68476E+07         0.00000E+00
    0.00000E+00         0.00000E+00        -0.14470E+07
 
   -0.11782E+07         0.40984E+07         0.00000E+00
    0.40984E+07        -0.65544E+07         0.00000E+00
    0.00000E+00         0.00000E+00        -0.15465E+07
 
    0.82420E+07        -0.69506E+05         0.00000E+00
   -0.69506E+05        -0.68449E+07         0.00000E+00
    0.00000E+00         0.00000E+00         0.27942E+06
 
    0.68605E+07        -0.21082E+06         0.00000E+00
   -0.21082E+06        -0.69367E+07         0.00000E+00
    0.00000E+00         0.00000E+00        -0.15228E+05
 
    0.57330E+07        -0.32474E+06         0.00000E+00
   -0.32474E+06        -0.70987E+07         0.00000E+00
    0.00000E+00         0.00000E+00        -0.27315E+06
 
    0.48139E+07        -0.38311E+06         0.00000E+00
   -0.38311E+06        -0.73087E+07         0.00000E+00
    0.00000E+00         0.00000E+00        -0.49895E+06
 
    0.40607E+07        -0.36649E+06         0.00000E+00
   -0.36649E+06        -0.75459E+07         0.00000E+00
    0.00000E+00         0.00000E+00        -0.69704E+06
 
    0.34341E+07        -0.26254E+06         0.00000E+00
   -0.26254E+06        -0.77918E+07         0.00000E+00
    0.00000E+00         0.00000E+00        -0.87153E+06
 
    0.28979E+07        -0.64673E+05         0.00000E+00
   -0.64673E+05        -0.80292E+07         0.00000E+00
    0.00000E+00         0.00000E+00        -0.10263E+07
 
    0.24194E+07         0.22913E+06         0.00000E+00
    0.22913E+06        -0.82431E+07         0.00000E+00
    0.00000E+00         0.00000E+00        -0.11647E+07
 
    0.19685E+07         0.61713E+06         0.00000E+00
    0.61713E+06        -0.84197E+07         0.00000E+00
    0.00000E+00         0.00000E+00        -0.12902E+07
 
    0.15178E+07         0.10944E+07         0.00000E+00
    0.10944E+07        -0.85462E+07         0.00000E+00
    0.00000E+00         0.00000E+00        -0.14057E+07
 
    0.10420E+07         0.16531E+07         0.00000E+00
    0.16531E+07        -0.86108E+07         0.00000E+00
    0.00000E+00         0.00000E+00        -0.15138E+07
 
    0.51809E+06         0.22826E+07         0.00000E+00
    0.22826E+07        -0.86021E+07         0.00000E+00
    0.00000E+00         0.00000E+00        -0.16168E+07
 
   -0.75165E+05         0.29692E+07         0.00000E+00
    0.29692E+07        -0.85094E+07         0.00000E+00
    0.00000E+00         0.00000E+00        -0.17169E+07
 
   -0.75681E+06         0.36959E+07         0.00000E+00
    0.36959E+07        -0.83224E+07         0.00000E+00
    0.00000E+00         0.00000E+00        -0.18158E+07
 
   -0.15434E+07         0.44420E+07         0.00000E+00
    0.44420E+07        -0.80319E+07         0.00000E+00
    0.00000E+00         0.00000E+00        -0.19151E+07
 
    0.68399E+07        -0.12413E+06         0.00000E+00
   -0.12413E+06        -0.80591E+07         0.00000E+00
    0.00000E+00         0.00000E+00        -0.24384E+06
 
    0.54811E+07        -0.35443E+06         0.00000E+00
   -0.35443E+06        -0.81671E+07         0.00000E+00
    0.00000E+00         0.00000E+00        -0.53722E+06
 
    0.44084E+07        -0.53164E+06         0.00000E+00
   -0.53164E+06        -0.83569E+07         0.00000E+00
    0.00000E+00         0.00000E+00        -0.78970E+06
 
    0.35666E+07        -0.62983E+06         0.00000E+00
   -0.62983E+06        -0.86015E+07         0.00000E+00
    0.00000E+00         0.00000E+00        -0.10070E+07
 
    0.29052E+07        -0.63192E+06         0.00000E+00
   -0.63192E+06        -0.88771E+07         0.00000E+00
    0.00000E+00         0.00000E+00        -0.11944E+07
 
    0.23786E+07        -0.52795E+06         0.00000E+00
   -0.52795E+06        -0.91626E+07         0.00000E+00
    0.00000E+00         0.00000E+00        -0.13568E+07
 
    0.19457E+07        -0.31341E+06         0.00000E+00
   -0.31341E+06        -0.94396E+07         0.00000E+00
    0.00000E+00         0.00000E+00        -0.14988E+07
 
    0.15697E+07         0.11925E+05         0.00000E+00
    0.11925E+05        -0.96919E+07         0.00000E+00
    0.00000E+00         0.00000E+00        -0.16244E+07
 
    0.12173E+07         0.44497E+06         0.00000E+00
    0.44497E+06        -0.99050E+07         0.00000E+00
    0.00000E+00         0.00000E+00        -0.17375E+07
 
    0.85834E+06         0.97985E+06         0.00000E+00
    0.97985E+06        -0.10066E+08         0.00000E+00
    0.00000E+00         0.00000E+00        -0.18415E+07
 
    0.46487E+06         0.16082E+07         0.00000E+00
    0.16082E+07        -0.10161E+08         0.00000E+00
    0.00000E+00         0.00000E+00        -0.19393E+07
 
    0.10914E+05         0.23188E+07         0.00000E+00
    0.23188E+07        -0.10180E+08         0.00000E+00
    0.00000E+00         0.00000E+00        -0.20338E+07
 
   -0.52786E+06         0.30978E+07         0.00000E+00
    0.30978E+07        -0.10109E+08         0.00000E+00
    0.00000E+00         0.00000E+00        -0.21273E+07
 
   -0.11741E+07         0.39277E+07         0.00000E+00
    0.39277E+07        -0.99366E+07         0.00000E+00
    0.00000E+00         0.00000E+00        -0.22221E+07
 
   -0.19483E+07         0.47872E+07         0.00000E+00
    0.47872E+07        -0.96515E+07         0.00000E+00
    0.00000E+00         0.00000E+00        -0.23200E+07
 
    0.51623E+07        -0.18782E+06         0.00000E+00
   -0.18782E+06        -0.94378E+07         0.00000E+00
    0.00000E+00         0.00000E+00        -0.85509E+06
 
    0.38556E+07        -0.52058E+06         0.00000E+00
   -0.52058E+06        -0.95614E+07         0.00000E+00
    0.00000E+00         0.00000E+00        -0.11411E+07
 
    0.28646E+07        -0.76953E+06         0.00000E+00
   -0.76953E+06        -0.97770E+07         0.00000E+00
    0.00000E+00         0.00000E+00        -0.13825E+07
 
    0.21240E+07        -0.91218E+06         0.00000E+00
   -0.91218E+06        -0.10054E+08         0.00000E+00
    0.00000E+00         0.00000E+00        -0.15859E+07
 
    0.15755E+07        -0.93498E+06         0.00000E+00
   -0.93498E+06        -0.10364E+08         0.00000E+00
    0.00000E+00         0.00000E+00        -0.17577E+07
 
    0.11672E+07        -0.83122E+06         0.00000E+00
   -0.83122E+06        -0.10685E+08         0.00000E+00
    0.00000E+00         0.00000E+00        -0.19035E+07
 
    0.85360E+06        -0.59922E+06         0.00000E+00
   -0.59922E+06        -0.10997E+08         0.00000E+00
    0.00000E+00         0.00000E+00        -0.20287E+07
 
    0.59443E+06        -0.24097E+06         0.00000E+00
   -0.24097E+06        -0.11283E+08         0.00000E+00
    0.00000E+00         0.00000E+00        -0.21378E+07
 
    0.35379E+06         0.23886E+06         0.00000E+00
    0.23886E+06        -0.11529E+08         0.00000E+00
    0.00000E+00         0.00000E+00        -0.22351E+07
 
    0.99074E+05         0.83351E+06         0.00000E+00
    0.83351E+06        -0.11721E+08         0.00000E+00
    0.00000E+00         0.00000E+00        -0.23244E+07
 
   -0.19993E+06         0.15342E+07         0.00000E+00
    0.15342E+07        -0.11846E+08         0.00000E+00
    0.00000E+00         0.00000E+00        -0.24093E+07
 
   -0.57184E+06         0.23299E+07         0.00000E+00
    0.23299E+07        -0.11892E+08         0.00000E+00
    0.00000E+00         0.00000E+00        -0.24927E+07
 
   -0.10441E+07         0.32068E+07         0.00000E+00
    0.32068E+07        -0.11844E+08         0.00000E+00
    0.00000E+00         0.00000E+00        -0.25776E+07
 
   -0.16432E+07         0.41475E+07         0.00000E+00
    0.41475E+07        -0.11689E+08         0.00000E+00
    0.00000E+00         0.00000E+00        -0.26665E+07
 
   -0.23942E+07         0.51305E+07         0.00000E+00
    0.51305E+07        -0.11413E+08         0.00000E+00
    0.00000E+00         0.00000E+00        -0.27614E+07
 
    0.31808E+07        -0.26007E+06         0.00000E+00
   -0.26007E+06        -0.10993E+08         0.00000E+00
    0.00000E+00         0.00000E+00        -0.15625E+07
 
    0.19616E+07        -0.70763E+06         0.00000E+00
   -0.70763E+06        -0.11131E+08         0.00000E+00
    0.00000E+00         0.00000E+00        -0.18339E+07
 
    0.10835E+07        -0.10355E+07         0.00000E+00
   -0.10355E+07        -0.11370E+08         0.00000E+00
    0.00000E+00         0.00000E+00        -0.20573E+07
 
    0.47108E+06        -0.12261E+07         0.00000E+00
   -0.12261E+07        -0.11674E+08         0.00000E+00
    0.00000E+00         0.00000E+00        -0.22406E+07
 
    0.58336E+05        -0.12707E+07         0.00000E+00
   -0.12707E+07        -0.12013E+08         0.00000E+00
    0.00000E+00         0.00000E+00        -0.23910E+07
 
   -0.21212E+06        -0.11668E+07         0.00000E+00
   -0.11668E+07        -0.12363E+08         0.00000E+00
    0.00000E+00         0.00000E+00        -0.25151E+07
 
   -0.38977E+06        -0.91647E+06         0.00000E+00
   -0.91647E+06        -0.12704E+08         0.00000E+00
    0.00000E+00         0.00000E+00        -0.26187E+07
 
   -0.51752E+06        -0.52437E+06         0.00000E+00
   -0.52437E+06        -0.13017E+08         0.00000E+00
    0.00000E+00         0.00000E+00        -0.27070E+07
 
   -0.63314E+06         0.30775E+04         0.00000E+00
    0.30775E+04        -0.13290E+08         0.00000E+00
    0.00000E+00         0.00000E+00        -0.27847E+07
 
   -0.77079E+06         0.65830E+06         0.00000E+00
    0.65830E+06        -0.13509E+08         0.00000E+00
    0.00000E+00         0.00000E+00        -0.28560E+07
 
   -0.96242E+06         0.14325E+07         0.00000E+00
    0.14325E+07        -0.13661E+08         0.00000E+00
    0.00000E+00         0.00000E+00        -0.29248E+07
 
   -0.12389E+07         0.23154E+07         0.00000E+00
    0.23154E+07        -0.13733E+08         0.00000E+00
    0.00000E+00         0.00000E+00        -0.29944E+07
 
   -0.16308E+07         0.32939E+07         0.00000E+00
    0.32939E+07        -0.13710E+08         0.00000E+00
    0.00000E+00         0.00000E+00        -0.30681E+07
 
   -0.21686E+07         0.43516E+07         0.00000E+00
    0.43516E+07        -0.13576E+08         0.00000E+00
    0.00000E+00         0.00000E+00        -0.31488E+07
 
   -0.28823E+07         0.54673E+07         0.00000E+00
    0.54673E+07        -0.13313E+08         0.00000E+00
    0.00000E+00         0.00000E+00        -0.32391E+07
 
    0.86962E+06        -0.34006E+06         0.00000E+00
   -0.34006E+06        -0.12736E+08         0.00000E+00
    0.00000E+00         0.00000E+00        -0.23734E+07
 
   -0.22077E+06        -0.91297E+06         0.00000E+00
   -0.91297E+06        -0.12886E+08         0.00000E+00
    0.00000E+00         0.00000E+00        -0.26214E+07
 
   -0.95043E+06        -0.13251E+07         0.00000E+00
   -0.13251E+07        -0.13144E+08         0.00000E+00
    0.00000E+00         0.00000E+00        -0.28189E+07
 
   -0.14047E+07        -0.15655E+07         0.00000E+00
   -0.15655E+07        -0.13469E+08         0.00000E+00
    0.00000E+00         0.00000E+00        -0.29748E+07
 
   -0.16570E+07        -0.16317E+07         0.00000E+00
   -0.16317E+07        -0.13830E+08         0.00000E+00
    0.00000E+00         0.00000E+00        -0.30975E+07
 
   -0.17695E+07        -0.15267E+07         0.00000E+00
   -0.15267E+07        -0.14200E+08         0.00000E+00
    0.00000E+00         0.00000E+00        -0.31940E+07
 
   -0.17946E+07        -0.12571E+07         0.00000E+00
   -0.12571E+07        -0.14560E+08         0.00000E+00
    0.00000E+00         0.00000E+00        -0.32708E+07
 
   -0.17768E+07        -0.83082E+06         0.00000E+00
   -0.83082E+06        -0.14892E+08         0.00000E+00
    0.00000E+00         0.00000E+00        -0.33337E+07
 
   -0.17545E+07        -0.25620E+06         0.00000E+00
   -0.25620E+06        -0.15184E+08         0.00000E+00
    0.00000E+00         0.00000E+00        -0.33877E+07
 
   -0.17624E+07         0.45861E+06         0.00000E+00
    0.45861E+06        -0.15423E+08         0.00000E+00
    0.00000E+00         0.00000E+00        -0.34372E+07
 
   -0.18332E+07         0.13054E+07         0.00000E+00
    0.13054E+07        -0.15598E+08         0.00000E+00
    0.00000E+00         0.00000E+00        -0.34863E+07
 
   -0.19997E+07         0.22751E+07         0.00000E+00
    0.22751E+07        -0.15695E+08         0.00000E+00
    0.00000E+00         0.00000E+00        -0.35390E+07
 
   -0.22951E+07         0.33566E+07         0.00000E+00
    0.33566E+07        -0.15698E+08         0.00000E+00
    0.00000E+00         0.00000E+00        -0.35986E+07
 
   -0.27544E+07         0.45354E+07         0.00000E+00
    0.45354E+07        -0.15588E+08         0.00000E+00
    0.00000E+00         0.00000E+00        -0.36685E+07
 
   -0.34133E+07         0.57914E+07         0.00000E+00
    0.57914E+07        -0.15346E+08         0.00000E+00
    0.00000E+00         0.00000E+00        -0.37518E+07
 
   -0.17929E+07        -0.42660E+06         0.00000E+00
   -0.42660E+06        -0.14676E+08         0.00000E+00
    0.00000E+00         0.00000E+00        -0.32939E+07
 
   -0.27071E+07        -0.11329E+07         0.00000E+00
   -0.11329E+07        -0.14835E+08         0.00000E+00
    0.00000E+00         0.00000E+00        -0.35085E+07
 
   -0.32484E+07        -0.16323E+07         0.00000E+00
   -0.16323E+07        -0.15106E+08         0.00000E+00
    0.00000E+00         0.00000E+00        -0.36710E+07
 
   -0.35121E+07        -0.19222E+07         0.00000E+00
   -0.19222E+07        -0.15445E+08         0.00000E+00
    0.00000E+00         0.00000E+00        -0.37915E+07
 
   -0.35782E+07        -0.20081E+07         0.00000E+00
   -0.20081E+07        -0.15817E+08         0.00000E+00
    0.00000E+00         0.00000E+00        -0.38790E+07
 
   -0.35127E+07        -0.19001E+07         0.00000E+00
   -0.19001E+07        -0.16195E+08         0.00000E+00
    0.00000E+00         0.00000E+00        -0.39416E+07
 
   -0.33696E+07        -0.16102E+07         0.00000E+00
   -0.16102E+07        -0.16561E+08         0.00000E+00
    0.00000E+00         0.00000E+00        -0.39861E+07
 
   -0.31932E+07        -0.11503E+07         0.00000E+00
   -0.11503E+07        -0.16899E+08         0.00000E+00
    0.00000E+00         0.00000E+00        -0.40185E+07
 
   -0.30212E+07        -0.53056E+06         0.00000E+00
   -0.53056E+06        -0.17200E+08         0.00000E+00
    0.00000E+00         0.00000E+00        -0.40442E+07
 
   -0.28871E+07         0.24046E+06         0.00000E+00
    0.24046E+06        -0.17452E+08         0.00000E+00
    0.00000E+00         0.00000E+00        -0.40678E+07
 
   -0.28237E+07         0.11558E+07         0.00000E+00
    0.11558E+07        -0.17645E+08         0.00000E+00
    0.00000E+00         0.00000E+00        -0.40937E+07
 
   -0.28643E+07         0.22089E+07         0.00000E+00
    0.22089E+07        -0.17765E+08         0.00000E+00
    0.00000E+00         0.00000E+00        -0.41258E+07
 
   -0.30451E+07         0.33918E+07         0.00000E+00
    0.33918E+07        -0.17795E+08         0.00000E+00
    0.00000E+00         0.00000E+00        -0.41680E+07
 
   -0.34053E+07         0.46928E+07         0.00000E+00
    0.46928E+07        -0.17715E+08         0.00000E+00
    0.00000E+00         0.00000E+00        -0.42241E+07
 
   -0.39872E+07         0.60948E+07         0.00000E+00
    0.60948E+07        -0.17501E+08         0.00000E+00
    0.00000E+00         0.00000E+00        -0.42976E+07
 
   -0.48232E+07        -0.51812E+06         0.00000E+00
   -0.51812E+06        -0.16819E+08         0.00000E+00
    0.00000E+00         0.00000E+00        -0.43285E+07
 
   -0.55076E+07        -0.13628E+07         0.00000E+00
   -0.13628E+07        -0.16984E+08         0.00000E+00
    0.00000E+00         0.00000E+00        -0.44983E+07
 
   -0.58167E+07        -0.19491E+07         0.00000E+00
   -0.19491E+07        -0.17261E+08         0.00000E+00
    0.00000E+00         0.00000E+00        -0.46156E+07
 
   -0.58552E+07        -0.22854E+07         0.00000E+00
   -0.22854E+07        -0.17602E+08         0.00000E+00
    0.00000E+00         0.00000E+00        -0.46915E+07
 
   -0.57090E+07        -0.23870E+07         0.00000E+00
   -0.23870E+07        -0.17972E+08         0.00000E+00
    0.00000E+00         0.00000E+00        -0.47361E+07
 
   -0.54465E+07        -0.22729E+07         0.00000E+00
   -0.22729E+07        -0.18343E+08         0.00000E+00
    0.00000E+00         0.00000E+00        -0.47579E+07
 
   -0.51212E+07        -0.19617E+07         0.00000E+00
   -0.19617E+07        -0.18699E+08         0.00000E+00
    0.00000E+00         0.00000E+00        -0.47641E+07
 
   -0.47754E+07        -0.14697E+07         0.00000E+00
   -0.14697E+07        -0.19029E+08         0.00000E+00
    0.00000E+00         0.00000E+00        -0.47608E+07
 
   -0.44437E+07        -0.80915E+06         0.00000E+00
   -0.80915E+06        -0.19324E+08         0.00000E+00
    0.00000E+00         0.00000E+00        -0.47536E+07
 
   -0.41571E+07         0.11659E+05         0.00000E+00
    0.11659E+05        -0.19578E+08         0.00000E+00
    0.00000E+00         0.00000E+00        -0.47471E+07
 
   -0.39462E+07         0.98803E+06         0.00000E+00
    0.98803E+06        -0.19782E+08         0.00000E+00
    0.00000E+00         0.00000E+00        -0.47456E+07
 
   -0.38442E+07         0.21171E+07         0.00000E+00
    0.21171E+07        -0.19923E+08         0.00000E+00
    0.00000E+00         0.00000E+00        -0.47534E+07
 
   -0.38896E+07         0.33954E+07         0.00000E+00
    0.33954E+07        -0.19983E+08         0.00000E+00
    0.00000E+00         0.00000E+00        -0.47745E+07
 
   -0.41262E+07         0.48165E+07         0.00000E+00
    0.48165E+07        -0.19939E+08         0.00000E+00
    0.00000E+00         0.00000E+00        -0.48131E+07
 
   -0.46038E+07         0.63670E+07         0.00000E+00
    0.63670E+07        -0.19763E+08         0.00000E+00
    0.00000E+00         0.00000E+00        -0.48734E+07
 
   -0.82310E+07        -0.61267E+06         0.00000E+00
   -0.61267E+06        -0.19168E+08         0.00000E+00
    0.00000E+00         0.00000E+00        -0.54799E+07
 
   -0.86258E+07        -0.15964E+07         0.00000E+00
   -0.15964E+07        -0.19335E+08         0.00000E+00
    0.00000E+00         0.00000E+00        -0.55921E+07
 
   -0.86549E+07        -0.22655E+07         0.00000E+00
   -0.22655E+07        -0.19609E+08         0.00000E+00
    0.00000E+00         0.00000E+00        -0.56527E+07
 
   -0.84321E+07        -0.26413E+07         0.00000E+00
   -0.26413E+07        -0.19939E+08         0.00000E+00
    0.00000E+00         0.00000E+00        -0.56743E+07
 
   -0.80482E+07        -0.27521E+07         0.00000E+00
   -0.27521E+07        -0.20289E+08         0.00000E+00
    0.00000E+00         0.00000E+00        -0.56674E+07
 
   -0.75717E+07        -0.26273E+07         0.00000E+00
   -0.26273E+07        -0.20634E+08         0.00000E+00
    0.00000E+00         0.00000E+00        -0.56412E+07
 
   -0.70535E+07        -0.22938E+07         0.00000E+00
   -0.22938E+07        -0.20961E+08         0.00000E+00
    0.00000E+00         0.00000E+00        -0.56029E+07
 
   -0.65308E+07        -0.17728E+07         0.00000E+00
   -0.17728E+07        -0.21263E+08         0.00000E+00
    0.00000E+00         0.00000E+00        -0.55588E+07
 
   -0.60328E+07        -0.10784E+07         0.00000E+00
   -0.10784E+07        -0.21537E+08         0.00000E+00
    0.00000E+00         0.00000E+00        -0.55140E+07
 
   -0.55849E+07        -0.21802E+06         0.00000E+00
   -0.21802E+06        -0.21780E+08         0.00000E+00
    0.00000E+00         0.00000E+00        -0.54730E+07
 
   -0.52142E+07         0.80715E+06         0.00000E+00
    0.80715E+06        -0.21987E+08         0.00000E+00
    0.00000E+00         0.00000E+00        -0.54402E+07
 
   -0.49522E+07         0.19996E+07         0.00000E+00
    0.19996E+07        -0.22145E+08         0.00000E+00
    0.00000E+00         0.00000E+00        -0.54195E+07
 
   -0.48386E+07         0.33626E+07         0.00000E+00
    0.33626E+07        -0.22238E+08         0.00000E+00
    0.00000E+00         0.00000E+00        -0.54154E+07
 
   -0.49225E+07         0.48967E+07         0.00000E+00
    0.48967E+07        -0.22239E+08         0.00000E+00
    0.00000E+00         0.00000E+00        -0.54323E+07
 
   -0.52620E+07         0.65950E+07         0.00000E+00
    0.65950E+07        -0.22114E+08         0.00000E+00
    0.00000E+00         0.00000E+00        -0.54751E+07
 
   -0.12018E+08        -0.70791E+06         0.00000E+00
   -0.70791E+06        -0.21724E+08         0.00000E+00
    0.00000E+00         0.00000E+00        -0.67483E+07
 
   -0.12057E+08        -0.18264E+07         0.00000E+00
   -0.18264E+07        -0.21886E+08         0.00000E+00
    0.00000E+00         0.00000E+00        -0.67886E+07
 
   -0.11754E+08        -0.25687E+07         0.00000E+00
   -0.25687E+07        -0.22146E+08         0.00000E+00
    0.00000E+00         0.00000E+00        -0.67801E+07
 
   -0.11234E+08        -0.29728E+07         0.00000E+00
   -0.29728E+07        -0.22449E+08         0.00000E+00
    0.00000E+00         0.00000E+00        -0.67366E+07
 
   -0.10589E+08        -0.30828E+07         0.00000E+00
   -0.30828E+07        -0.22758E+08         0.00000E+00
    0.00000E+00         0.00000E+00        -0.66694E+07
 
   -0.98851E+07        -0.29414E+07         0.00000E+00
   -0.29414E+07        -0.23054E+08         0.00000E+00
    0.00000E+00         0.00000E+00        -0.65878E+07
 
   -0.91679E+07        -0.25850E+07         0.00000E+00
   -0.25850E+07        -0.23327E+08         0.00000E+00
    0.00000E+00         0.00000E+00        -0.64990E+07
 
   -0.84657E+07        -0.20400E+07         0.00000E+00
   -0.20400E+07        -0.23579E+08         0.00000E+00
    0.00000E+00         0.00000E+00        -0.64090E+07
 
   -0.77987E+07        -0.13221E+07         0.00000E+00
   -0.13221E+07        -0.23812E+08         0.00000E+00
    0.00000E+00         0.00000E+00        -0.63222E+07
 
   -0.71843E+07        -0.43684E+06         0.00000E+00
   -0.43684E+06        -0.24029E+08         0.00000E+00
    0.00000E+00         0.00000E+00        -0.62427E+07
 
   -0.66431E+07         0.61940E+06         0.00000E+00
    0.61940E+06        -0.24228E+08         0.00000E+00
    0.00000E+00         0.00000E+00        -0.61743E+07
 
   -0.62031E+07         0.18565E+07         0.00000E+00
    0.18565E+07        -0.24402E+08         0.00000E+00
    0.00000E+00         0.00000E+00        -0.61210E+07
 
   -0.59043E+07         0.32870E+07         0.00000E+00
    0.32870E+07        -0.24531E+08         0.00000E+00
    0.00000E+00         0.00000E+00        -0.60871E+07
 
   -0.58008E+07         0.49213E+07         0.00000E+00
    0.49213E+07        -0.24587E+08         0.00000E+00
    0.00000E+00         0.00000E+00        -0.60775E+07
 
   -0.59609E+07         0.67618E+07         0.00000E+00
    0.67618E+07        -0.24528E+08         0.00000E+00
    0.00000E+00         0.00000E+00        -0.60979E+07
 
   -0.16176E+08        -0.80118E+06         0.00000E+00
   -0.80118E+06        -0.24481E+08         0.00000E+00
    0.00000E+00         0.00000E+00        -0.81314E+07
 
   -0.15786E+08        -0.20439E+07         0.00000E+00
   -0.20439E+07        -0.24633E+08         0.00000E+00
    0.00000E+00         0.00000E+00        -0.80838E+07
 
   -0.15097E+08        -0.28430E+07         0.00000E+00
   -0.28430E+07        -0.24865E+08         0.00000E+00
    0.00000E+00         0.00000E+00        -0.79924E+07
 
   -0.14242E+08        -0.32582E+07         0.00000E+00
   -0.32582E+07        -0.25119E+08         0.00000E+00
    0.00000E+00         0.00000E+00        -0.78724E+07
 
   -0.13317E+08        -0.33538E+07         0.00000E+00
   -0.33538E+07        -0.25362E+08         0.00000E+00
    0.00000E+00         0.00000E+00        -0.77357E+07
 
   -0.12379E+08        -0.31887E+07         0.00000E+00
   -0.31887E+07        -0.25579E+08         0.00000E+00
    0.00000E+00         0.00000E+00        -0.75916E+07
 
   -0.11463E+08        -0.28095E+07         0.00000E+00
   -0.28095E+07        -0.25771E+08         0.00000E+00
    0.00000E+00         0.00000E+00        -0.74469E+07
 
   -0.10585E+08        -0.22482E+07         0.00000E+00
   -0.22482E+07        -0.25946E+08         0.00000E+00
    0.00000E+00         0.00000E+00        -0.73063E+07
 
   -0.97524E+07        -0.15212E+07         0.00000E+00
   -0.15212E+07        -0.26116E+08         0.00000E+00
    0.00000E+00         0.00000E+00        -0.71737E+07
 
   -0.89705E+07        -0.63112E+06         0.00000E+00
   -0.63112E+06        -0.26289E+08         0.00000E+00
    0.00000E+00         0.00000E+00        -0.70520E+07
 
   -0.82506E+07         0.43198E+06         0.00000E+00
    0.43198E+06        -0.26471E+08         0.00000E+00
    0.00000E+00         0.00000E+00        -0.69442E+07
 
   -0.76149E+07         0.16875E+07         0.00000E+00
    0.16875E+07        -0.26655E+08         0.00000E+00
    0.00000E+00         0.00000E+00        -0.68539E+07
 
   -0.71016E+07         0.31604E+07         0.00000E+00
    0.31604E+07        -0.26825E+08         0.00000E+00
    0.00000E+00         0.00000E+00        -0.67853E+07
 
   -0.67696E+07         0.48749E+07         0.00000E+00
    0.48749E+07        -0.26949E+08         0.00000E+00
    0.00000E+00         0.00000E+00        -0.67437E+07
 
   -0.66991E+07         0.68466E+07         0.00000E+00
    0.68466E+07        -0.26978E+08         0.00000E+00
    0.00000E+00         0.00000E+00        -0.67355E+07
 
   -0.20688E+08        -0.88946E+06         0.00000E+00
   -0.88946E+06        -0.27431E+08         0.00000E+00
    0.00000E+00         0.00000E+00        -0.96238E+07
 
   -0.19787E+08        -0.22377E+07         0.00000E+00
   -0.22377E+07        -0.27565E+08         0.00000E+00
    0.00000E+00         0.00000E+00        -0.94703E+07
 
   -0.18653E+08        -0.30685E+07         0.00000E+00
   -0.30685E+07        -0.27751E+08         0.00000E+00
    0.00000E+00         0.00000E+00        -0.92809E+07
 
   -0.17431E+08        -0.34704E+07         0.00000E+00
   -0.34704E+07        -0.27930E+08         0.00000E+00
    0.00000E+00         0.00000E+00        -0.90723E+07
 
   -0.16212E+08        -0.35341E+07         0.00000E+00
   -0.35341E+07        -0.28074E+08         0.00000E+00
    0.00000E+00         0.00000E+00        -0.88571E+07
 
   -0.15042E+08        -0.33375E+07         0.00000E+00
   -0.33375E+07        -0.28178E+08         0.00000E+00
    0.00000E+00         0.00000E+00        -0.86440E+07
 
   -0.13937E+08        -0.29381E+07         0.00000E+00
   -0.29381E+07        -0.28256E+08         0.00000E+00
    0.00000E+00         0.00000E+00        -0.84386E+07
 
   -0.12894E+08        -0.23718E+07         0.00000E+00
   -0.23718E+07        -0.28327E+08         0.00000E+00
    0.00000E+00         0.00000E+00        -0.82442E+07
 
   -0.11905E+08        -0.16548E+07         0.00000E+00
   -0.16548E+07        -0.28409E+08         0.00000E+00
    0.00000E+00         0.00000E+00        -0.80628E+07
 
   -0.10960E+08        -0.78558E+06         0.00000E+00
   -0.78558E+06        -0.28520E+08         0.00000E+00
    0.00000E+00         0.00000E+00        -0.78960E+07
 
   -0.10058E+08         0.25317E+06         0.00000E+00
    0.25317E+06        -0.28671E+08         0.00000E+00
    0.00000E+00         0.00000E+00        -0.77456E+07
 
   -0.92095E+07         0.14924E+07         0.00000E+00
    0.14924E+07        -0.28861E+08         0.00000E+00
    0.00000E+00         0.00000E+00        -0.76141E+07
 
   -0.84496E+07         0.29729E+07         0.00000E+00
    0.29729E+07        -0.29078E+08         0.00000E+00
    0.00000E+00         0.00000E+00        -0.75055E+07
 
   -0.78404E+07         0.47381E+07         0.00000E+00
    0.47381E+07        -0.29287E+08         0.00000E+00
    0.00000E+00         0.00000E+00        -0.74254E+07
 
   -0.74762E+07         0.68226E+07         0.00000E+00
    0.68226E+07        -0.29430E+08         0.00000E+00
    0.00000E+00         0.00000E+00        -0.73812E+07
 
   -0.25523E+08        -0.96935E+06         0.00000E+00
   -0.96935E+06        -0.30560E+08         0.00000E+00
    0.00000E+00         0.00000E+00        -0.11217E+08
 
   -0.24016E+08        -0.23936E+07         0.00000E+00
   -0.23936E+07        -0.30666E+08         0.00000E+00
    0.00000E+00         0.00000E+00        -0.10936E+08
 
   -0.22378E+08        -0.32185E+07         0.00000E+00
   -0.32185E+07        -0.30783E+08         0.00000E+00
    0.00000E+00         0.00000E+00        -0.10632E+08
 
   -0.20762E+08        -0.35744E+07         0.00000E+00
   -0.35744E+07        -0.30851E+08         0.00000E+00
    0.00000E+00         0.00000E+00        -0.10323E+08
 
   -0.19248E+08        -0.35862E+07         0.00000E+00
   -0.35862E+07        -0.30854E+08         0.00000E+00
    0.00000E+00         0.00000E+00        -0.10020E+08
 
   -0.17859E+08        -0.33524E+07         0.00000E+00
   -0.33524E+07        -0.30807E+08         0.00000E+00
    0.00000E+00         0.00000E+00        -0.97332E+07
 
   -0.16584E+08        -0.29393E+07         0.00000E+00
   -0.29393E+07        -0.30737E+08         0.00000E+00
    0.00000E+00         0.00000E+00        -0.94641E+07
 
   -0.15397E+08        -0.23843E+07         0.00000E+00
   -0.23843E+07        -0.30673E+08         0.00000E+00
    0.00000E+00         0.00000E+00        -0.92141E+07
 
   -0.14268E+08        -0.17012E+07         0.00000E+00
   -0.17012E+07        -0.30645E+08         0.00000E+00
    0.00000E+00         0.00000E+00        -0.89827E+07
 
   -0.13172E+08        -0.88392E+06         0.00000E+00
   -0.88392E+06        -0.30675E+08         0.00000E+00
    0.00000E+00         0.00000E+00        -0.87693E+07
 
   -0.12088E+08         0.92435E+05         0.00000E+00
    0.92435E+05        -0.30781E+08         0.00000E+00
    0.00000E+00         0.00000E+00        -0.85738E+07
 
   -0.11014E+08         0.12712E+07         0.00000E+00
    0.12712E+07        -0.30973E+08         0.00000E+00
    0.00000E+00         0.00000E+00        -0.83974E+07
 
   -0.99741E+07         0.27127E+07         0.00000E+00
    0.27127E+07        -0.31242E+08         0.00000E+00
    0.00000E+00         0.00000E+00        -0.82431E+07
 
   -0.90303E+07         0.44865E+07         0.00000E+00
    0.44865E+07        -0.31555E+08         0.00000E+00
    0.00000E+00         0.00000E+00        -0.81170E+07
 
   -0.82933E+07         0.66556E+07         0.00000E+00
    0.66556E+07        -0.31845E+08         0.00000E+00
    0.00000E+00         0.00000E+00        -0.80276E+07
 
   -0.30636E+08        -0.10367E+07         0.00000E+00
   -0.10367E+07        -0.33851E+08         0.00000E+00
    0.00000E+00         0.00000E+00        -0.12897E+08
 
   -0.28414E+08        -0.24909E+07         0.00000E+00
   -0.24909E+07        -0.33914E+08         0.00000E+00
    0.00000E+00         0.00000E+00        -0.12465E+08
 
   -0.26210E+08        -0.32555E+07         0.00000E+00
   -0.32555E+07        -0.33925E+08         0.00000E+00
    0.00000E+00         0.00000E+00        -0.12027E+08
 
   -0.24188E+08        -0.35243E+07         0.00000E+00
   -0.35243E+07        -0.33831E+08         0.00000E+00
    0.00000E+00         0.00000E+00        -0.11604E+08
 
   -0.22397E+08        -0.34655E+07         0.00000E+00
   -0.34655E+07        -0.33644E+08         0.00000E+00
    0.00000E+00         0.00000E+00        -0.11208E+08
 
   -0.20817E+08        -0.31955E+07         0.00000E+00
   -0.31955E+07        -0.33403E+08         0.00000E+00
    0.00000E+00         0.00000E+00        -0.10844E+08
 
   -0.19402E+08        -0.27829E+07         0.00000E+00
   -0.27829E+07        -0.33152E+08         0.00000E+00
    0.00000E+00         0.00000E+00        -0.10511E+08
 
   -0.18098E+08        -0.22615E+07         0.00000E+00
   -0.22615E+07        -0.32931E+08         0.00000E+00
    0.00000E+00         0.00000E+00        -0.10206E+08
 
   -0.16854E+08        -0.16408E+07         0.00000E+00
   -0.16408E+07        -0.32773E+08         0.00000E+00
    0.00000E+00         0.00000E+00        -0.99255E+07
 
   -0.15624E+08        -0.91005E+06         0.00000E+00
   -0.91005E+06        -0.32706E+08         0.00000E+00
    0.00000E+00         0.00000E+00        -0.96659E+07
 
   -0.14369E+08        -0.39052E+05         0.00000E+00
   -0.39052E+05        -0.32754E+08         0.00000E+00
    0.00000E+00         0.00000E+00        -0.94245E+07
 
   -0.13063E+08         0.10262E+07         0.00000E+00
    0.10262E+07        -0.32938E+08         0.00000E+00
    0.00000E+00         0.00000E+00        -0.92002E+07
 
   -0.11711E+08         0.23674E+07         0.00000E+00
    0.23674E+07        -0.33262E+08         0.00000E+00
    0.00000E+00         0.00000E+00        -0.89946E+07
 
   -0.10366E+08         0.40899E+07         0.00000E+00
    0.40899E+07        -0.33702E+08         0.00000E+00
    0.00000E+00         0.00000E+00        -0.88135E+07
 
   -0.91552E+07         0.63013E+07         0.00000E+00
    0.63013E+07        -0.34181E+08         0.00000E+00
    0.00000E+00         0.00000E+00        -0.86673E+07
 
   -0.35963E+08        -0.10856E+07         0.00000E+00
   -0.10856E+07        -0.37280E+08         0.00000E+00
    0.00000E+00         0.00000E+00        -0.14649E+08
 
   -0.32888E+08        -0.24952E+07         0.00000E+00
   -0.24952E+07        -0.37272E+08         0.00000E+00
    0.00000E+00         0.00000E+00        -0.14032E+08
 
   -0.30072E+08        -0.31215E+07         0.00000E+00
   -0.31215E+07        -0.37116E+08         0.00000E+00
    0.00000E+00         0.00000E+00        -0.13438E+08
 
   -0.27661E+08        -0.32597E+07         0.00000E+00
   -0.32597E+07        -0.36790E+08         0.00000E+00
    0.00000E+00         0.00000E+00        -0.12890E+08
 
   -0.25635E+08        -0.31239E+07         0.00000E+00
   -0.31239E+07        -0.36355E+08         0.00000E+00
    0.00000E+00         0.00000E+00        -0.12398E+08
 
   -0.23909E+08        -0.28334E+07         0.00000E+00
   -0.28334E+07        -0.35883E+08         0.00000E+00
    0.00000E+00         0.00000E+00        -0.11958E+08
 
   -0.22392E+08        -0.24464E+07         0.00000E+00
   -0.24464E+07        -0.35431E+08         0.00000E+00
    0.00000E+00         0.00000E+00        -0.11565E+08
 
   -0.21004E+08        -0.19874E+07         0.00000E+00
   -0.19874E+07        -0.35039E+08         0.00000E+00
    0.00000E+00         0.00000E+00        -0.11209E+08
 
   -0.19672E+08        -0.14598E+07         0.00000E+00
   -0.14598E+07        -0.34742E+08         0.00000E+00
    0.00000E+00         0.00000E+00        -0.10883E+08
 
   -0.18333E+08        -0.85056E+06         0.00000E+00
   -0.85056E+06        -0.34567E+08         0.00000E+00
    0.00000E+00         0.00000E+00        -0.10580E+08
 
   -0.16926E+08        -0.12803E+06         0.00000E+00
   -0.12803E+06        -0.34545E+08         0.00000E+00
    0.00000E+00         0.00000E+00        -0.10294E+08
 
   -0.15397E+08         0.76514E+06         0.00000E+00
    0.76514E+06        -0.34708E+08         0.00000E+00
    0.00000E+00         0.00000E+00        -0.10021E+08
 
   -0.13711E+08         0.19281E+07         0.00000E+00
    0.19281E+07        -0.35083E+08         0.00000E+00
    0.00000E+00         0.00000E+00        -0.97588E+07
 
   -0.11891E+08         0.35125E+07         0.00000E+00
    0.35125E+07        -0.35669E+08         0.00000E+00
    0.00000E+00         0.00000E+00        -0.95121E+07
 
   -0.10075E+08         0.57000E+07         0.00000E+00
    0.57000E+07        -0.36393E+08         0.00000E+00
    0.00000E+00         0.00000E+00        -0.92936E+07
 
   -0.41407E+08        -0.11037E+07         0.00000E+00
   -0.11037E+07        -0.40815E+08         0.00000E+00
    0.00000E+00         0.00000E+00        -0.16444E+08
 
   -0.37309E+08        -0.23376E+07         0.00000E+00
   -0.23376E+07        -0.40675E+08         0.00000E+00
    0.00000E+00         0.00000E+00        -0.15597E+08
 
   -0.33872E+08        -0.27233E+07         0.00000E+00
   -0.27233E+07        -0.40239E+08         0.00000E+00
    0.00000E+00         0.00000E+00        -0.14822E+08
 
   -0.31143E+08        -0.27095E+07         0.00000E+00
   -0.27095E+07        -0.39587E+08         0.00000E+00
    0.00000E+00         0.00000E+00        -0.14146E+08
 
   -0.28956E+08        -0.25217E+07         0.00000E+00
   -0.25217E+07        -0.38858E+08         0.00000E+00
    0.00000E+00         0.00000E+00        -0.13563E+08
 
   -0.27138E+08        -0.22478E+07         0.00000E+00
   -0.22478E+07        -0.38140E+08         0.00000E+00
    0.00000E+00         0.00000E+00        -0.13056E+08
 
   -0.25560E+08        -0.19233E+07         0.00000E+00
   -0.19233E+07        -0.37487E+08         0.00000E+00
    0.00000E+00         0.00000E+00        -0.12609E+08
 
   -0.24118E+08        -0.15600E+07         0.00000E+00
   -0.15600E+07        -0.36932E+08         0.00000E+00
    0.00000E+00         0.00000E+00        -0.12210E+08
 
   -0.22727E+08        -0.11562E+07         0.00000E+00
   -0.11562E+07        -0.36502E+08         0.00000E+00
    0.00000E+00         0.00000E+00        -0.11846E+08
 
   -0.21308E+08        -0.69891E+06         0.00000E+00
   -0.69891E+06        -0.36223E+08         0.00000E+00
    0.00000E+00         0.00000E+00        -0.11506E+08
 
   -0.19781E+08        -0.16116E+06         0.00000E+00
   -0.16116E+06        -0.36125E+08         0.00000E+00
    0.00000E+00         0.00000E+00        -0.11181E+08
 
   -0.18061E+08         0.50677E+06         0.00000E+00
    0.50677E+06        -0.36248E+08         0.00000E+00
    0.00000E+00         0.00000E+00        -0.10862E+08
 
   -0.16048E+08         0.14000E+07         0.00000E+00
    0.14000E+07        -0.36648E+08         0.00000E+00
    0.00000E+00         0.00000E+00        -0.10539E+08
 
   -0.13685E+08         0.27165E+07         0.00000E+00
    0.27165E+07        -0.37390E+08         0.00000E+00
    0.00000E+00         0.00000E+00        -0.10215E+08
 
   -0.11082E+08         0.47666E+07         0.00000E+00
    0.47666E+07        -0.38427E+08         0.00000E+00
    0.00000E+00         0.00000E+00        -0.99017E+07
 
   -0.46796E+08        -0.10487E+07         0.00000E+00
   -0.10487E+07        -0.44401E+08         0.00000E+00
    0.00000E+00         0.00000E+00        -0.18239E+08
 
   -0.41486E+08        -0.18543E+07         0.00000E+00
   -0.18543E+07        -0.43946E+08         0.00000E+00
    0.00000E+00         0.00000E+00        -0.17086E+08
 
   -0.37553E+08        -0.19319E+07         0.00000E+00
   -0.19319E+07        -0.43037E+08         0.00000E+00
    0.00000E+00         0.00000E+00        -0.16118E+08
 
   -0.34646E+08        -0.18253E+07         0.00000E+00
   -0.18253E+07        -0.42003E+08         0.00000E+00
    0.00000E+00         0.00000E+00        -0.15330E+08
 
   -0.32378E+08        -0.16536E+07         0.00000E+00
   -0.16536E+07        -0.40987E+08         0.00000E+00
    0.00000E+00         0.00000E+00        -0.14673E+08
 
   -0.30518E+08        -0.14521E+07         0.00000E+00
   -0.14521E+07        -0.40053E+08         0.00000E+00
    0.00000E+00         0.00000E+00        -0.14114E+08
 
   -0.28911E+08        -0.12330E+07         0.00000E+00
   -0.12330E+07        -0.39233E+08         0.00000E+00
    0.00000E+00         0.00000E+00        -0.13629E+08
 
   -0.27442E+08        -0.99836E+06         0.00000E+00
   -0.99836E+06        -0.38547E+08         0.00000E+00
    0.00000E+00         0.00000E+00        -0.13198E+08
 
   -0.26016E+08        -0.74432E+06         0.00000E+00
   -0.74432E+06        -0.38012E+08         0.00000E+00
    0.00000E+00         0.00000E+00        -0.12806E+08
 
   -0.24546E+08        -0.46134E+06         0.00000E+00
   -0.46134E+06        -0.37648E+08         0.00000E+00
    0.00000E+00         0.00000E+00        -0.12439E+08
 
   -0.22939E+08        -0.13189E+06         0.00000E+00
   -0.13189E+06        -0.37482E+08         0.00000E+00
    0.00000E+00         0.00000E+00        -0.12084E+08
 
   -0.21080E+08         0.27638E+06         0.00000E+00
    0.27638E+06        -0.37556E+08         0.00000E+00
    0.00000E+00         0.00000E+00        -0.11727E+08
 
   -0.18815E+08         0.82850E+06         0.00000E+00
    0.82850E+06        -0.37942E+08         0.00000E+00
    0.00000E+00         0.00000E+00        -0.11351E+08
 
   -0.15898E+08         0.16847E+07         0.00000E+00
    0.16847E+07        -0.38768E+08         0.00000E+00
    0.00000E+00         0.00000E+00        -0.10933E+08
 
   -0.12258E+08         0.33624E+07         0.00000E+00
    0.33624E+07        -0.40215E+08         0.00000E+00
    0.00000E+00         0.00000E+00        -0.10495E+08
 
   -0.51733E+08        -0.64443E+06         0.00000E+00
   -0.64443E+06        -0.47676E+08         0.00000E+00
    0.00000E+00         0.00000E+00        -0.19882E+08
 
   -0.45280E+08        -0.75838E+06         0.00000E+00
   -0.75838E+06        -0.46469E+08         0.00000E+00
    0.00000E+00         0.00000E+00        -0.18350E+08
 
   -0.41191E+08        -0.71045E+06         0.00000E+00
   -0.71045E+06        -0.45090E+08         0.00000E+00
    0.00000E+00         0.00000E+00        -0.17256E+08
 
   -0.38227E+08        -0.64849E+06         0.00000E+00
   -0.64849E+06        -0.43774E+08         0.00000E+00
    0.00000E+00         0.00000E+00        -0.16400E+08
 
   -0.35936E+08        -0.57771E+06         0.00000E+00
   -0.57771E+06        -0.42573E+08         0.00000E+00
    0.00000E+00         0.00000E+00        -0.15702E+08
 
   -0.34063E+08        -0.50292E+06         0.00000E+00
   -0.50292E+06        -0.41510E+08         0.00000E+00
    0.00000E+00         0.00000E+00        -0.15115E+08
 
   -0.32447E+08        -0.42515E+06         0.00000E+00
   -0.42515E+06        -0.40594E+08         0.00000E+00
    0.00000E+00         0.00000E+00        -0.14608E+08
 
   -0.30967E+08        -0.34385E+06         0.00000E+00
   -0.34385E+06        -0.39835E+08         0.00000E+00
    0.00000E+00         0.00000E+00        -0.14160E+08
 
   -0.29526E+08        -0.25711E+06         0.00000E+00
   -0.25711E+06        -0.39241E+08         0.00000E+00
    0.00000E+00         0.00000E+00        -0.13753E+08
 
   -0.28033E+08        -0.16142E+06         0.00000E+00
   -0.16142E+06        -0.38828E+08         0.00000E+00
    0.00000E+00         0.00000E+00        -0.13372E+08
 
   -0.26386E+08        -0.50776E+05         0.00000E+00
   -0.50776E+05        -0.38621E+08         0.00000E+00
    0.00000E+00         0.00000E+00        -0.13001E+08
 
   -0.24457E+08         0.85630E+05         0.00000E+00
    0.85630E+05        -0.38659E+08         0.00000E+00
    0.00000E+00         0.00000E+00        -0.12623E+08
 
   -0.22055E+08         0.27063E+06         0.00000E+00
    0.27063E+06        -0.39016E+08         0.00000E+00
    0.00000E+00         0.00000E+00        -0.12214E+08
 
   -0.18834E+08         0.55509E+06         0.00000E+00
    0.55509E+06        -0.39842E+08         0.00000E+00
    0.00000E+00         0.00000E+00        -0.11735E+08
 
   -0.13819E+08         0.12603E+07         0.00000E+00
    0.12603E+07        -0.41549E+08         0.00000E+00
    0.00000E+00         0.00000E+00        -0.11074E+08
 
TENSORS stresstot double 
   -0.45594E+08        -0.22757E+05         0.00000E+00
   -0.22757E+05        -0.60014E+08         0.00000E+00
    0.00000E+00         0.00000E+00        -0.57056E+08
 
   -0.46760E+08        -0.82959E+04         0.00000E+00
   -0.82959E+04        -0.60034E+08         0.00000E+00
    0.00000E+00         0.00000E+00        -0.57293E+08
 
   -0.47847E+08         0.80119E+04         0.00000E+00
    0.80119E+04        -0.60029E+08         0.00000E+00
    0.00000E+00         0.00000E+00        -0.57509E+08
 
   -0.48898E+08         0.20626E+05         0.00000E+00
    0.20626E+05        -0.59999E+08         0.00000E+00
    0.00000E+00         0.00000E+00        -0.57713E+08
 
   -0.49918E+08         0.31241E+05         0.00000E+00
    0.31241E+05        -0.59946E+08         0.00000E+00
    0.00000E+00         0.00000E+00        -0.57907E+08
 
   -0.50909E+08         0.40957E+05         0.00000E+00
    0.40957E+05        -0.59874E+08         0.00000E+00
    0.00000E+00         0.00000E+00        -0.58091E+08
 
   -0.51871E+08         0.50654E+05         0.00000E+00
    0.50654E+05        -0.59782E+08         0.00000E+00
    0.00000E+00         0.00000E+00        -0.58265E+08
 
   -0.52805E+08         0.60954E+05         0.00000E+00
    0.60954E+05        -0.59671E+08         0.00000E+00
    0.00000E+00         0.00000E+00        -0.58429E+08
 
   -0.53714E+08         0.72264E+05         0.00000E+00
    0.72264E+05        -0.59538E+08         0.00000E+00
    0.00000E+00         0.00000E+00        -0.58584E+08
 
   -0.54600E+08         0.84823E+05         0.00000E+00
    0.84823E+05        -0.59381E+08         0.00000E+00
    0.00000E+00         0.00000E+00        -0.58730E+08
 
   -0.55466E+08         0.98774E+05         0.00000E+00
    0.98774E+05        -0.59198E+08         0.00000E+00
    0.00000E+00         0.00000E+00        -0.58867E+08
 
   -0.56318E+08         0.11430E+06         0.00000E+00
    0.11430E+06        -0.58985E+08         0.00000E+00
    0.00000E+00         0.00000E+00        -0.58995E+08
 
   -0.57163E+08         0.13202E+06         0.00000E+00
    0.13202E+06        -0.58738E+08         0.00000E+00
    0.00000E+00         0.00000E+00        -0.59114E+08
 
   -0.58015E+08         0.15381E+06         0.00000E+00
    0.15381E+06        -0.58452E+08         0.00000E+00
    0.00000E+00         0.00000E+00        -0.59228E+08
 
   -0.58921E+08         0.19668E+06         0.00000E+00
    0.19668E+06        -0.58107E+08         0.00000E+00
    0.00000E+00         0.00000E+00        -0.59340E+08
 
   -0.45614E+08        -0.17889E+05         0.00000E+00
   -0.17889E+05        -0.59991E+08         0.00000E+00
    0.00000E+00         0.00000E+00        -0.56921E+08
 
   -0.46733E+08        -0.27687E+04         0.00000E+00
   -0.27687E+04        -0.59971E+08         0.00000E+00
    0.00000E+00         0.00000E+00        -0.57140E+08
 
   -0.47822E+08         0.32747E+05         0.00000E+00
    0.32747E+05        -0.59944E+08         0.00000E+00
    0.00000E+00         0.00000E+00        -0.57353E+08
 
   -0.48876E+08         0.65723E+05         0.00000E+00
    0.65723E+05        -0.59903E+08         0.00000E+00
    0.00000E+00         0.00000E+00        -0.57556E+08
 
   -0.49899E+08         0.95113E+05         0.00000E+00
    0.95113E+05        -0.59846E+08         0.00000E+00
    0.00000E+00         0.00000E+00        -0.57749E+08
 
   -0.50890E+08         0.12296E+06         0.00000E+00
    0.12296E+06        -0.59772E+08         0.00000E+00
    0.00000E+00         0.00000E+00        -0.57932E+08
 
   -0.51851E+08         0.15135E+06         0.00000E+00
    0.15135E+06        -0.59681E+08         0.00000E+00
    0.00000E+00         0.00000E+00        -0.58106E+08
 
   -0.52784E+08         0.18194E+06         0.00000E+00
    0.18194E+06        -0.59572E+08         0.00000E+00
    0.00000E+00         0.00000E+00        -0.58271E+08
 
   -0.53690E+08         0.21582E+06         0.00000E+00
    0.21582E+06        -0.59441E+08         0.00000E+00
    0.00000E+00         0.00000E+00        -0.58426E+08
 
   -0.54573E+08         0.25365E+06         0.00000E+00
    0.25365E+06        -0.59286E+08         0.00000E+00
    0.00000E+00         0.00000E+00        -0.58572E+08
 
   -0.55437E+08         0.29585E+06         0.00000E+00
    0.29585E+06        -0.59104E+08         0.00000E+00
    0.00000E+00         0.00000E+00        -0.58708E+08
 
   -0.56285E+08         0.34296E+06         0.00000E+00
    0.34296E+06        -0.58891E+08         0.00000E+00
    0.00000E+00         0.00000E+00        -0.58835E+08
 
   -0.57124E+08         0.39667E+06         0.00000E+00
    0.39667E+06        -0.58645E+08         0.00000E+00
    0.00000E+00         0.00000E+00        -0.58954E+08
 
   -0.57963E+08         0.46321E+06         0.00000E+00
    0.46321E+06        -0.58359E+08         0.00000E+00
    0.00000E+00         0.00000E+00        -0.59064E+08
 
   -0.58798E+08         0.56796E+06         0.00000E+00
    0.56796E+06        -0.58026E+08         0.00000E+00
    0.00000E+00         0.00000E+00        -0.59165E+08
 
   -0.45615E+08         0.40247E+04         0.00000E+00
    0.40247E+04        -0.59990E+08         0.00000E+00
    0.00000E+00         0.00000E+00        -0.56779E+08
 
   -0.46699E+08         0.31737E+05         0.00000E+00
    0.31737E+05        -0.59957E+08         0.00000E+00
    0.00000E+00         0.00000E+00        -0.56989E+08
 
   -0.47782E+08         0.74166E+05         0.00000E+00
    0.74166E+05        -0.59913E+08         0.00000E+00
    0.00000E+00         0.00000E+00        -0.57197E+08
 
   -0.48839E+08         0.11864E+06         0.00000E+00
    0.11864E+06        -0.59861E+08         0.00000E+00
    0.00000E+00         0.00000E+00        -0.57398E+08
 
   -0.49863E+08         0.16151E+06         0.00000E+00
    0.16151E+06        -0.59799E+08         0.00000E+00
    0.00000E+00         0.00000E+00        -0.57590E+08
 
   -0.50854E+08         0.20437E+06         0.00000E+00
    0.20437E+06        -0.59726E+08         0.00000E+00
    0.00000E+00         0.00000E+00        -0.57774E+08
 
   -0.51813E+08         0.24974E+06         0.00000E+00
    0.24974E+06        -0.59638E+08         0.00000E+00
    0.00000E+00         0.00000E+00        -0.57948E+08
 
   -0.52741E+08         0.29983E+06         0.00000E+00
    0.29983E+06        -0.59532E+08         0.00000E+00
    0.00000E+00         0.00000E+00        -0.58113E+08
 
   -0.53643E+08         0.35618E+06         0.00000E+00
    0.35618E+06        -0.59406E+08         0.00000E+00
    0.00000E+00         0.00000E+00        -0.58267E+08
 
   -0.54520E+08         0.41971E+06         0.00000E+00
    0.41971E+06        -0.59255E+08         0.00000E+00
    0.00000E+00         0.00000E+00        -0.58413E+08
 
   -0.55377E+08         0.49097E+06         0.00000E+00
    0.49097E+06        -0.59077E+08         0.00000E+00
    0.00000E+00         0.00000E+00        -0.58549E+08
 
   -0.56218E+08         0.57070E+06         0.00000E+00
    0.57070E+06        -0.58867E+08         0.00000E+00
    0.00000E+00         0.00000E+00        -0.58675E+08
 
   -0.57046E+08         0.66106E+06         0.00000E+00
    0.66106E+06        -0.58622E+08         0.00000E+00
    0.00000E+00         0.00000E+00        -0.58792E+08
 
   -0.57862E+08         0.76873E+06         0.00000E+00
    0.76873E+06        -0.58341E+08         0.00000E+00
    0.00000E+00         0.00000E+00        -0.58898E+08
 
   -0.58652E+08         0.90489E+06         0.00000E+00
    0.90489E+06        -0.58027E+08         0.00000E+00
    0.00000E+00         0.00000E+00        -0.58994E+08
 
   -0.45582E+08         0.25930E+05         0.00000E+00
    0.25930E+05        -0.59991E+08         0.00000E+00
    0.00000E+00         0.00000E+00        -0.56618E+08
 
   -0.46656E+08         0.75332E+05         0.00000E+00
    0.75332E+05        -0.59958E+08         0.00000E+00
    0.00000E+00         0.00000E+00        -0.56826E+08
 
   -0.47735E+08         0.12549E+06         0.00000E+00
    0.12549E+06        -0.59911E+08         0.00000E+00
    0.00000E+00         0.00000E+00        -0.57032E+08
 
   -0.48791E+08         0.17632E+06         0.00000E+00
    0.17632E+06        -0.59856E+08         0.00000E+00
    0.00000E+00         0.00000E+00        -0.57233E+08
 
   -0.49815E+08         0.22796E+06         0.00000E+00
    0.22796E+06        -0.59795E+08         0.00000E+00
    0.00000E+00         0.00000E+00        -0.57425E+08
 
   -0.50804E+08         0.28253E+06         0.00000E+00
    0.28253E+06        -0.59725E+08         0.00000E+00
    0.00000E+00         0.00000E+00        -0.57609E+08
 
   -0.51757E+08         0.34292E+06         0.00000E+00
    0.34292E+06        -0.59644E+08         0.00000E+00
    0.00000E+00         0.00000E+00        -0.57783E+08
 
   -0.52678E+08         0.41163E+06         0.00000E+00
    0.41163E+06        -0.59546E+08         0.00000E+00
    0.00000E+00         0.00000E+00        -0.57948E+08
 
   -0.53570E+08         0.49043E+06         0.00000E+00
    0.49043E+06        -0.59427E+08         0.00000E+00
    0.00000E+00         0.00000E+00        -0.58103E+08
 
   -0.54438E+08         0.58028E+06         0.00000E+00
    0.58028E+06        -0.59284E+08         0.00000E+00
    0.00000E+00         0.00000E+00        -0.58248E+08
 
   -0.55286E+08         0.68160E+06         0.00000E+00
    0.68160E+06        -0.59112E+08         0.00000E+00
    0.00000E+00         0.00000E+00        -0.58383E+08
 
   -0.56116E+08         0.79481E+06         0.00000E+00
    0.79481E+06        -0.58908E+08         0.00000E+00
    0.00000E+00         0.00000E+00        -0.58508E+08
 
   -0.56930E+08         0.92117E+06         0.00000E+00
    0.92117E+06        -0.58669E+08         0.00000E+00
    0.00000E+00         0.00000E+00        -0.58623E+08
 
   -0.57726E+08         0.10633E+07         0.00000E+00
    0.10633E+07        -0.58396E+08         0.00000E+00
    0.00000E+00         0.00000E+00        -0.58728E+08
 
   -0.58491E+08         0.12235E+07         0.00000E+00
    0.12235E+07        -0.58094E+08         0.00000E+00
    0.00000E+00         0.00000E+00        -0.58820E+08
 
   -0.45515E+08         0.44769E+05         0.00000E+00
    0.44769E+05        -0.59993E+08         0.00000E+00
    0.00000E+00         0.00000E+00        -0.56432E+08
 
   -0.46600E+08         0.11622E+06         0.00000E+00
    0.11622E+06        -0.59965E+08         0.00000E+00
    0.00000E+00         0.00000E+00        -0.56644E+08
 
   -0.47681E+08         0.17548E+06         0.00000E+00
    0.17548E+06        -0.59924E+08         0.00000E+00
    0.00000E+00         0.00000E+00        -0.56852E+08
 
   -0.48738E+08         0.23123E+06         0.00000E+00
    0.23123E+06        -0.59875E+08         0.00000E+00
    0.00000E+00         0.00000E+00        -0.57053E+08
 
   -0.49759E+08         0.28888E+06         0.00000E+00
    0.28888E+06        -0.59822E+08         0.00000E+00
    0.00000E+00         0.00000E+00        -0.57247E+08
 
   -0.50741E+08         0.35276E+06         0.00000E+00
    0.35276E+06        -0.59763E+08         0.00000E+00
    0.00000E+00         0.00000E+00        -0.57431E+08
 
   -0.51685E+08         0.42663E+06         0.00000E+00
    0.42663E+06        -0.59692E+08         0.00000E+00
    0.00000E+00         0.00000E+00        -0.57606E+08
 
   -0.52594E+08         0.51339E+06         0.00000E+00
    0.51339E+06        -0.59606E+08         0.00000E+00
    0.00000E+00         0.00000E+00        -0.57771E+08
 
   -0.53474E+08         0.61486E+06         0.00000E+00
    0.61486E+06        -0.59500E+08         0.00000E+00
    0.00000E+00         0.00000E+00        -0.57926E+08
 
   -0.54328E+08         0.73186E+06         0.00000E+00
    0.73186E+06        -0.59368E+08         0.00000E+00
    0.00000E+00         0.00000E+00        -0.58070E+08
 
   -0.55162E+08         0.86437E+06         0.00000E+00
    0.86437E+06        -0.59207E+08         0.00000E+00
    0.00000E+00         0.00000E+00        -0.58205E+08
 
   -0.55979E+08         0.10119E+07         0.00000E+00
    0.10119E+07        -0.59012E+08         0.00000E+00
    0.00000E+00         0.00000E+00        -0.58329E+08
 
   -0.56779E+08         0.11736E+07         0.00000E+00
    0.11736E+07        -0.58782E+08         0.00000E+00
    0.00000E+00         0.00000E+00        -0.58443E+08
 
   -0.57560E+08         0.13484E+07         0.00000E+00
    0.13484E+07        -0.58517E+08         0.00000E+00
    0.00000E+00         0.00000E+00        -0.58546E+08
 
   -0.58313E+08         0.15333E+07         0.00000E+00
    0.15333E+07        -0.58222E+08         0.00000E+00
    0.00000E+00         0.00000E+00        -0.58638E+08
 
   -0.45419E+08         0.59284E+05         0.00000E+00
    0.59284E+05        -0.59995E+08         0.00000E+00
    0.00000E+00         0.00000E+00        -0.56217E+08
 
   -0.46530E+08         0.14858E+06         0.00000E+00
    0.14858E+06        -0.59975E+08         0.00000E+00
    0.00000E+00         0.00000E+00        -0.56436E+08
 
   -0.47622E+08         0.21562E+06         0.00000E+00
    0.21562E+06        -0.59945E+08         0.00000E+00
    0.00000E+00         0.00000E+00        -0.56648E+08
 
   -0.48680E+08         0.27520E+06         0.00000E+00
    0.27520E+06        -0.59911E+08         0.00000E+00
    0.00000E+00         0.00000E+00        -0.56853E+08
 
   -0.49695E+08         0.33734E+06         0.00000E+00
    0.33734E+06        -0.59873E+08         0.00000E+00
    0.00000E+00         0.00000E+00        -0.57048E+08
 
   -0.50667E+08         0.40912E+06         0.00000E+00
    0.40912E+06        -0.59830E+08         0.00000E+00
    0.00000E+00         0.00000E+00        -0.57234E+08
 
   -0.51597E+08         0.49565E+06         0.00000E+00
    0.49565E+06        -0.59777E+08         0.00000E+00
    0.00000E+00         0.00000E+00        -0.57409E+08
 
   -0.52490E+08         0.60035E+06         0.00000E+00
    0.60035E+06        -0.59709E+08         0.00000E+00
    0.00000E+00         0.00000E+00        -0.57574E+08
 
   -0.53352E+08         0.72515E+06         0.00000E+00
    0.72515E+06        -0.59619E+08         0.00000E+00
    0.00000E+00         0.00000E+00        -0.57729E+08
 
   -0.54188E+08         0.87051E+06         0.00000E+00
    0.87051E+06        -0.59503E+08         0.00000E+00
    0.00000E+00         0.00000E+00        -0.57873E+08
 
   -0.55005E+08         0.10357E+07         0.00000E+00
    0.10357E+07        -0.59356E+08         0.00000E+00
    0.00000E+00         0.00000E+00        -0.58007E+08
 
   -0.55806E+08         0.12189E+07         0.00000E+00
    0.12189E+07        -0.59173E+08         0.00000E+00
    0.00000E+00         0.00000E+00        -0.58130E+08
 
   -0.56593E+08         0.14172E+07         0.00000E+00
    0.14172E+07        -0.58953E+08         0.00000E+00
    0.00000E+00         0.00000E+00        -0.58244E+08
 
   -0.57364E+08         0.16265E+07         0.00000E+00
    0.16265E+07        -0.58696E+08         0.00000E+00
    0.00000E+00         0.00000E+00        -0.58347E+08
 
   -0.58113E+08         0.18401E+07         0.00000E+00
    0.18401E+07        -0.58405E+08         0.00000E+00
    0.00000E+00         0.00000E+00        -0.58438E+08
 
   -0.45303E+08         0.68603E+05         0.00000E+00
    0.68603E+05        -0.59998E+08         0.00000E+00
    0.00000E+00         0.00000E+00        -0.55969E+08
 
   -0.46450E+08         0.16877E+06         0.00000E+00
    0.16877E+06        -0.59988E+08         0.00000E+00
    0.00000E+00         0.00000E+00        -0.56196E+08
 
   -0.47559E+08         0.23990E+06         0.00000E+00
    0.23990E+06        -0.59974E+08         0.00000E+00
    0.00000E+00         0.00000E+00        -0.56415E+08
 
   -0.48619E+08         0.30123E+06         0.00000E+00
    0.30123E+06        -0.59959E+08         0.00000E+00
    0.00000E+00         0.00000E+00        -0.56624E+08
 
   -0.49627E+08         0.36649E+06         0.00000E+00
    0.36649E+06        -0.59943E+08         0.00000E+00
    0.00000E+00         0.00000E+00        -0.56823E+08
 
   -0.50584E+08         0.44533E+06         0.00000E+00
    0.44533E+06        -0.59923E+08         0.00000E+00
    0.00000E+00         0.00000E+00        -0.57010E+08
 
   -0.51494E+08         0.54429E+06         0.00000E+00
    0.54429E+06        -0.59893E+08         0.00000E+00
    0.00000E+00         0.00000E+00        -0.57186E+08
 
   -0.52365E+08         0.66743E+06         0.00000E+00
    0.66743E+06        -0.59847E+08         0.00000E+00
    0.00000E+00         0.00000E+00        -0.57351E+08
 
   -0.53203E+08         0.81670E+06         0.00000E+00
    0.81670E+06        -0.59780E+08         0.00000E+00
    0.00000E+00         0.00000E+00        -0.57505E+08
 
   -0.54016E+08         0.99216E+06         0.00000E+00
    0.99216E+06        -0.59684E+08         0.00000E+00
    0.00000E+00         0.00000E+00        -0.57649E+08
 
   -0.54812E+08         0.11922E+07         0.00000E+00
    0.11922E+07        -0.59554E+08         0.00000E+00
    0.00000E+00         0.00000E+00        -0.57782E+08
 
   -0.55595E+08         0.14136E+07         0.00000E+00
    0.14136E+07        -0.59386E+08         0.00000E+00
    0.00000E+00         0.00000E+00        -0.57905E+08
 
   -0.56369E+08         0.16515E+07         0.00000E+00
    0.16515E+07        -0.59178E+08         0.00000E+00
    0.00000E+00         0.00000E+00        -0.58018E+08
 
   -0.57133E+08         0.18992E+07         0.00000E+00
    0.18992E+07        -0.58928E+08         0.00000E+00
    0.00000E+00         0.00000E+00        -0.58121E+08
 
   -0.57885E+08         0.21477E+07         0.00000E+00
    0.21477E+07        -0.58638E+08         0.00000E+00
    0.00000E+00         0.00000E+00        -0.58213E+08
 
   -0.45176E+08         0.71958E+05         0.00000E+00
    0.71958E+05        -0.60001E+08         0.00000E+00
    0.00000E+00         0.00000E+00        -0.55682E+08
 
   -0.46367E+08         0.17408E+06         0.00000E+00
    0.17408E+06        -0.60002E+08         0.00000E+00
    0.00000E+00         0.00000E+00        -0.55920E+08
 
   -0.47495E+08         0.24374E+06         0.00000E+00
    0.24374E+06        -0.60007E+08         0.00000E+00
    0.00000E+00         0.00000E+00        -0.56147E+08
 
   -0.48557E+08         0.30359E+06         0.00000E+00
    0.30359E+06        -0.60017E+08         0.00000E+00
    0.00000E+00         0.00000E+00        -0.56361E+08
 
   -0.49554E+08         0.37025E+06         0.00000E+00
    0.37025E+06        -0.60028E+08         0.00000E+00
    0.00000E+00         0.00000E+00        -0.56563E+08
 
   -0.50491E+08         0.45545E+06         0.00000E+00
    0.45545E+06        -0.60036E+08         0.00000E+00
    0.00000E+00         0.00000E+00        -0.56752E+08
 
   -0.51376E+08         0.56701E+06         0.00000E+00
    0.56701E+06        -0.60035E+08         0.00000E+00
    0.00000E+00         0.00000E+00        -0.56929E+08
 
   -0.52217E+08         0.70956E+06         0.00000E+00
    0.70956E+06        -0.60017E+08         0.00000E+00
    0.00000E+00         0.00000E+00        -0.57094E+08
 
   -0.53026E+08         0.88501E+06         0.00000E+00
    0.88501E+06        -0.59976E+08         0.00000E+00
    0.00000E+00         0.00000E+00        -0.57247E+08
 
   -0.53811E+08         0.10929E+07         0.00000E+00
    0.10929E+07        -0.59904E+08         0.00000E+00
    0.00000E+00         0.00000E+00        -0.57390E+08
 
   -0.54581E+08         0.13308E+07         0.00000E+00
    0.13308E+07        -0.59796E+08         0.00000E+00
    0.00000E+00         0.00000E+00        -0.57522E+08
 
   -0.55343E+08         0.15940E+07         0.00000E+00
    0.15940E+07        -0.59645E+08         0.00000E+00
    0.00000E+00         0.00000E+00        -0.57644E+08
 
   -0.56103E+08         0.18759E+07         0.00000E+00
    0.18759E+07        -0.59449E+08         0.00000E+00
    0.00000E+00         0.00000E+00        -0.57757E+08
 
   -0.56862E+08         0.21678E+07         0.00000E+00
    0.21678E+07        -0.59206E+08         0.00000E+00
    0.00000E+00         0.00000E+00        -0.57860E+08
 
   -0.57620E+08         0.24586E+07         0.00000E+00
    0.24586E+07        -0.58916E+08         0.00000E+00
    0.00000E+00         0.00000E+00        -0.57954E+08
 
   -0.45051E+08         0.68628E+05         0.00000E+00
    0.68628E+05        -0.60004E+08         0.00000E+00
    0.00000E+00         0.00000E+00        -0.55353E+08
 
   -0.46289E+08         0.16228E+06         0.00000E+00
    0.16228E+06        -0.60018E+08         0.00000E+00
    0.00000E+00         0.00000E+00        -0.55603E+08
 
   -0.47437E+08         0.22350E+06         0.00000E+00
    0.22350E+06        -0.60045E+08         0.00000E+00
    0.00000E+00         0.00000E+00        -0.55838E+08
 
   -0.48497E+08         0.27760E+06         0.00000E+00
    0.27760E+06        -0.60083E+08         0.00000E+00
    0.00000E+00         0.00000E+00        -0.56058E+08
 
   -0.49478E+08         0.34340E+06         0.00000E+00
    0.34340E+06        -0.60126E+08         0.00000E+00
    0.00000E+00         0.00000E+00        -0.56262E+08
 
   -0.50389E+08         0.43420E+06         0.00000E+00
    0.43420E+06        -0.60167E+08         0.00000E+00
    0.00000E+00         0.00000E+00        -0.56453E+08
 
   -0.51241E+08         0.55876E+06         0.00000E+00
    0.55876E+06        -0.60200E+08         0.00000E+00
    0.00000E+00         0.00000E+00        -0.56630E+08
 
   -0.52046E+08         0.72205E+06         0.00000E+00
    0.72205E+06        -0.60214E+08         0.00000E+00
    0.00000E+00         0.00000E+00        -0.56794E+08
 
   -0.52818E+08         0.92587E+06         0.00000E+00
    0.92587E+06        -0.60204E+08         0.00000E+00
    0.00000E+00         0.00000E+00        -0.56946E+08
 
   -0.53568E+08         0.11692E+07         0.00000E+00
    0.11692E+07        -0.60160E+08         0.00000E+00
    0.00000E+00         0.00000E+00        -0.57087E+08
 
   -0.54308E+08         0.14487E+07         0.00000E+00
    0.14487E+07        -0.60075E+08         0.00000E+00
    0.00000E+00         0.00000E+00        -0.57218E+08
 
   -0.55046E+08         0.17583E+07         0.00000E+00
    0.17583E+07        -0.59944E+08         0.00000E+00
    0.00000E+00         0.00000E+00        -0.57340E+08
 
   -0.55790E+08         0.20899E+07         0.00000E+00
    0.20899E+07        -0.59762E+08         0.00000E+00
    0.00000E+00         0.00000E+00        -0.57452E+08
 
   -0.56544E+08         0.24329E+07         0.00000E+00
    0.24329E+07        -0.59526E+08         0.00000E+00
    0.00000E+00         0.00000E+00        -0.57556E+08
 
   -0.57310E+08         0.27744E+07         0.00000E+00
    0.27744E+07        -0.59235E+08         0.00000E+00
    0.00000E+00         0.00000E+00        -0.57651E+08
 
   -0.44939E+08         0.57931E+05         0.00000E+00
    0.57931E+05        -0.60007E+08         0.00000E+00
    0.00000E+00         0.00000E+00        -0.54976E+08
 
   -0.46224E+08         0.13141E+06         0.00000E+00
    0.13141E+06        -0.60035E+08         0.00000E+00
    0.00000E+00         0.00000E+00        -0.55239E+08
 
   -0.47388E+08         0.17612E+06         0.00000E+00
    0.17612E+06        -0.60087E+08         0.00000E+00
    0.00000E+00         0.00000E+00        -0.55482E+08
 
   -0.48443E+08         0.21943E+06         0.00000E+00
    0.21943E+06        -0.60156E+08         0.00000E+00
    0.00000E+00         0.00000E+00        -0.55706E+08
 
   -0.49401E+08         0.28166E+06         0.00000E+00
    0.28166E+06        -0.60234E+08         0.00000E+00
    0.00000E+00         0.00000E+00        -0.55914E+08
 
   -0.50277E+08         0.37715E+06         0.00000E+00
    0.37715E+06        -0.60313E+08         0.00000E+00
    0.00000E+00         0.00000E+00        -0.56105E+08
 
   -0.51088E+08         0.51519E+06         0.00000E+00
    0.51519E+06        -0.60382E+08         0.00000E+00
    0.00000E+00         0.00000E+00        -0.56281E+08
 
   -0.51849E+08         0.70085E+06         0.00000E+00
    0.70085E+06        -0.60434E+08         0.00000E+00
    0.00000E+00         0.00000E+00        -0.56443E+08
 
   -0.52577E+08         0.93565E+06         0.00000E+00
    0.93565E+06        -0.60457E+08         0.00000E+00
    0.00000E+00         0.00000E+00        -0.56593E+08
 
   -0.53285E+08         0.12180E+07         0.00000E+00
    0.12180E+07        -0.60444E+08         0.00000E+00
    0.00000E+00         0.00000E+00        -0.56733E+08
 
   -0.53988E+08         0.15433E+07         0.00000E+00
    0.15433E+07        -0.60386E+08         0.00000E+00
    0.00000E+00         0.00000E+00        -0.56862E+08
 
   -0.54697E+08         0.19048E+07         0.00000E+00
    0.19048E+07        -0.60277E+08         0.00000E+00
    0.00000E+00         0.00000E+00        -0.56981E+08
 
   -0.55422E+08         0.22926E+07         0.00000E+00
    0.22926E+07        -0.60110E+08         0.00000E+00
    0.00000E+00         0.00000E+00        -0.57093E+08
 
   -0.56170E+08         0.26947E+07         0.00000E+00
    0.26947E+07        -0.59881E+08         0.00000E+00
    0.00000E+00         0.00000E+00        -0.57197E+08
 
   -0.56945E+08         0.30962E+07         0.00000E+00
    0.30962E+07        -0.59589E+08         0.00000E+00
    0.00000E+00         0.00000E+00        -0.57294E+08
 
   -0.44856E+08         0.39244E+05         0.00000E+00
    0.39244E+05        -0.60011E+08         0.00000E+00
    0.00000E+00         0.00000E+00        -0.54547E+08
 
   -0.46183E+08         0.79801E+05         0.00000E+00
    0.79801E+05        -0.60054E+08         0.00000E+00
    0.00000E+00         0.00000E+00        -0.54821E+08
 
   -0.47358E+08         0.99149E+05         0.00000E+00
    0.99149E+05        -0.60132E+08         0.00000E+00
    0.00000E+00         0.00000E+00        -0.55072E+08
 
   -0.48398E+08         0.12603E+06         0.00000E+00
    0.12603E+06        -0.60234E+08         0.00000E+00
    0.00000E+00         0.00000E+00        -0.55300E+08
 
   -0.49324E+08         0.18164E+06         0.00000E+00
    0.18164E+06        -0.60351E+08         0.00000E+00
    0.00000E+00         0.00000E+00        -0.55509E+08
 
   -0.50157E+08         0.28079E+06         0.00000E+00
    0.28079E+06        -0.60470E+08         0.00000E+00
    0.00000E+00         0.00000E+00        -0.55699E+08
 
   -0.50917E+08         0.43286E+06         0.00000E+00
    0.43286E+06        -0.60580E+08         0.00000E+00
    0.00000E+00         0.00000E+00        -0.55873E+08
 
   -0.51625E+08         0.64271E+06         0.00000E+00
    0.64271E+06        -0.60670E+08         0.00000E+00
    0.00000E+00         0.00000E+00        -0.56033E+08
 
   -0.52299E+08         0.91135E+06         0.00000E+00
    0.91135E+06        -0.60730E+08         0.00000E+00
    0.00000E+00         0.00000E+00        -0.56180E+08
 
   -0.52957E+08         0.12365E+07         0.00000E+00
    0.12365E+07        -0.60750E+08         0.00000E+00
    0.00000E+00         0.00000E+00        -0.56315E+08
 
   -0.53616E+08         0.16127E+07         0.00000E+00
    0.16127E+07        -0.60721E+08         0.00000E+00
    0.00000E+00         0.00000E+00        -0.56441E+08
 
   -0.54291E+08         0.20319E+07         0.00000E+00
    0.20319E+07        -0.60635E+08         0.00000E+00
    0.00000E+00         0.00000E+00        -0.56559E+08
 
   -0.54993E+08         0.24832E+07         0.00000E+00
    0.24832E+07        -0.60485E+08         0.00000E+00
    0.00000E+00         0.00000E+00        -0.56669E+08
 
   -0.55732E+08         0.29528E+07         0.00000E+00
    0.29528E+07        -0.60265E+08         0.00000E+00
    0.00000E+00         0.00000E+00        -0.56773E+08
 
   -0.56515E+08         0.34244E+07         0.00000E+00
    0.34244E+07        -0.59971E+08         0.00000E+00
    0.00000E+00         0.00000E+00        -0.56871E+08
 
   -0.44817E+08         0.12028E+05         0.00000E+00
    0.12028E+05        -0.60015E+08         0.00000E+00
    0.00000E+00         0.00000E+00        -0.54062E+08
 
   -0.46178E+08         0.61188E+04         0.00000E+00
    0.61188E+04        -0.60074E+08         0.00000E+00
    0.00000E+00         0.00000E+00        -0.54345E+08
 
   -0.47352E+08        -0.93039E+04         0.00000E+00
   -0.93039E+04        -0.60179E+08         0.00000E+00
    0.00000E+00         0.00000E+00        -0.54601E+08
 
   -0.48367E+08        -0.48301E+04         0.00000E+00
   -0.48301E+04        -0.60317E+08         0.00000E+00
    0.00000E+00         0.00000E+00        -0.54832E+08
 
   -0.49250E+08         0.40949E+05         0.00000E+00
    0.40949E+05        -0.60473E+08         0.00000E+00
    0.00000E+00         0.00000E+00        -0.55040E+08
 
   -0.50028E+08         0.14268E+06         0.00000E+00
    0.14268E+06        -0.60634E+08         0.00000E+00
    0.00000E+00         0.00000E+00        -0.55228E+08
 
   -0.50726E+08         0.30937E+06         0.00000E+00
    0.30937E+06        -0.60787E+08         0.00000E+00
    0.00000E+00         0.00000E+00        -0.55398E+08
 
   -0.51370E+08         0.54531E+06         0.00000E+00
    0.54531E+06        -0.60918E+08         0.00000E+00
    0.00000E+00         0.00000E+00        -0.55553E+08
 
   -0.51980E+08         0.85081E+06         0.00000E+00
    0.85081E+06        -0.61017E+08         0.00000E+00
    0.00000E+00         0.00000E+00        -0.55695E+08
 
   -0.52580E+08         0.12228E+07         0.00000E+00
    0.12228E+07        -0.61072E+08         0.00000E+00
    0.00000E+00         0.00000E+00        -0.55825E+08
 
   -0.53188E+08         0.16549E+07         0.00000E+00
    0.16549E+07        -0.61073E+08         0.00000E+00
    0.00000E+00         0.00000E+00        -0.55947E+08
 
   -0.53820E+08         0.21381E+07         0.00000E+00
    0.21381E+07        -0.61012E+08         0.00000E+00
    0.00000E+00         0.00000E+00        -0.56061E+08
 
   -0.54494E+08         0.26603E+07         0.00000E+00
    0.26603E+07        -0.60879E+08         0.00000E+00
    0.00000E+00         0.00000E+00        -0.56170E+08
 
   -0.55220E+08         0.32065E+07         0.00000E+00
    0.32065E+07        -0.60669E+08         0.00000E+00
    0.00000E+00         0.00000E+00        -0.56273E+08
 
   -0.56009E+08         0.37587E+07         0.00000E+00
    0.37587E+07        -0.60375E+08         0.00000E+00
    0.00000E+00         0.00000E+00        -0.56372E+08
 
   -0.44838E+08        -0.24136E+05         0.00000E+00
   -0.24136E+05        -0.60019E+08         0.00000E+00
    0.00000E+00         0.00000E+00        -0.53514E+08
 
   -0.46219E+08        -0.90598E+05         0.00000E+00
   -0.90598E+05        -0.60094E+08         0.00000E+00
    0.00000E+00         0.00000E+00        -0.53805E+08
 
   -0.47379E+08        -0.15046E+06         0.00000E+00
   -0.15046E+06        -0.60228E+08         0.00000E+00
    0.00000E+00         0.00000E+00        -0.54064E+08
 
   -0.48354E+08        -0.17446E+06         0.00000E+00
   -0.17446E+06        -0.60402E+08         0.00000E+00
    0.00000E+00         0.00000E+00        -0.54294E+08
 
   -0.49181E+08        -0.14174E+06         0.00000E+00
   -0.14174E+06        -0.60599E+08         0.00000E+00
    0.00000E+00         0.00000E+00        -0.54498E+08
 
   -0.49890E+08        -0.38454E+05         0.00000E+00
   -0.38454E+05        -0.60803E+08         0.00000E+00
    0.00000E+00         0.00000E+00        -0.54681E+08
 
   -0.50515E+08         0.14349E+06         0.00000E+00
    0.14349E+06        -0.60998E+08         0.00000E+00
    0.00000E+00         0.00000E+00        -0.54845E+08
 
   -0.51082E+08         0.40743E+06         0.00000E+00
    0.40743E+06        -0.61171E+08         0.00000E+00
    0.00000E+00         0.00000E+00        -0.54993E+08
 
   -0.51619E+08         0.75278E+06         0.00000E+00
    0.75278E+06        -0.61309E+08         0.00000E+00
    0.00000E+00         0.00000E+00        -0.55128E+08
 
   -0.52149E+08         0.11756E+07         0.00000E+00
    0.11756E+07        -0.61400E+08         0.00000E+00
    0.00000E+00         0.00000E+00        -0.55252E+08
 
   -0.52696E+08         0.16687E+07         0.00000E+00
    0.16687E+07        -0.61433E+08         0.00000E+00
    0.00000E+00         0.00000E+00        -0.55368E+08
 
   -0.53279E+08         0.22221E+07         0.00000E+00
    0.22221E+07        -0.61397E+08         0.00000E+00
    0.00000E+00         0.00000E+00        -0.55477E+08
 
   -0.53916E+08         0.28228E+07         0.00000E+00
    0.28228E+07        -0.61284E+08         0.00000E+00
    0.00000E+00         0.00000E+00        -0.55582E+08
 
   -0.54624E+08         0.34547E+07         0.00000E+00
    0.34547E+07        -0.61084E+08         0.00000E+00
    0.00000E+00         0.00000E+00        -0.55684E+08
 
   -0.55415E+08         0.40984E+07         0.00000E+00
    0.40984E+07        -0.60791E+08         0.00000E+00
    0.00000E+00         0.00000E+00        -0.55783E+08
 
   -0.44936E+08        -0.69506E+05         0.00000E+00
   -0.69506E+05        -0.60023E+08         0.00000E+00
    0.00000E+00         0.00000E+00        -0.52899E+08
 
   -0.46318E+08        -0.21082E+06         0.00000E+00
   -0.21082E+06        -0.60115E+08         0.00000E+00
    0.00000E+00         0.00000E+00        -0.53194E+08
 
   -0.47445E+08        -0.32474E+06         0.00000E+00
   -0.32474E+06        -0.60277E+08         0.00000E+00
    0.00000E+00         0.00000E+00        -0.53452E+08
 
   -0.48364E+08        -0.38311E+06         0.00000E+00
   -0.38311E+06        -0.60487E+08         0.00000E+00
    0.00000E+00         0.00000E+00        -0.53677E+08
 
   -0.49118E+08        -0.36649E+06         0.00000E+00
   -0.36649E+06        -0.60724E+08         0.00000E+00
    0.00000E+00         0.00000E+00        -0.53875E+08
 
   -0.49744E+08        -0.26254E+06         0.00000E+00
   -0.26254E+06        -0.60970E+08         0.00000E+00
    0.00000E+00         0.00000E+00        -0.54050E+08
 
   -0.50280E+08        -0.64673E+05         0.00000E+00
   -0.64673E+05        -0.61207E+08         0.00000E+00
    0.00000E+00         0.00000E+00        -0.54204E+08
 
   -0.50759E+08         0.22913E+06         0.00000E+00
    0.22913E+06        -0.61421E+08         0.00000E+00
    0.00000E+00         0.00000E+00        -0.54343E+08
 
   -0.51209E+08         0.61713E+06         0.00000E+00
    0.61713E+06        -0.61598E+08         0.00000E+00
    0.00000E+00         0.00000E+00        -0.54468E+08
 
   -0.51660E+08         0.10944E+07         0.00000E+00
    0.10944E+07        -0.61724E+08         0.00000E+00
    0.00000E+00         0.00000E+00        -0.54584E+08
 
   -0.52136E+08         0.16531E+07         0.00000E+00
    0.16531E+07        -0.61789E+08         0.00000E+00
    0.00000E+00         0.00000E+00        -0.54692E+08
 
   -0.52660E+08         0.22826E+07         0.00000E+00
    0.22826E+07        -0.61780E+08         0.00000E+00
    0.00000E+00         0.00000E+00        -0.54795E+08
 
   -0.53253E+08         0.29692E+07         0.00000E+00
    0.29692E+07        -0.61687E+08         0.00000E+00
    0.00000E+00         0.00000E+00        -0.54895E+08
 
   -0.53934E+08         0.36959E+07         0.00000E+00
    0.36959E+07        -0.61500E+08         0.00000E+00
    0.00000E+00         0.00000E+00        -0.54994E+08
 
   -0.54721E+08         0.44420E+07         0.00000E+00
    0.44420E+07        -0.61210E+08         0.00000E+00
    0.00000E+00         0.00000E+00        -0.55093E+08
 
   -0.45129E+08        -0.12413E+06         0.00000E+00
   -0.12413E+06        -0.60028E+08         0.00000E+00
    0.00000E+00         0.00000E+00        -0.52212E+08
 
   -0.46487E+08        -0.35443E+06         0.00000E+00
   -0.35443E+06        -0.60136E+08         0.00000E+00
    0.00000E+00         0.00000E+00        -0.52506E+08
 
   -0.47560E+08        -0.53164E+06         0.00000E+00
   -0.53164E+06        -0.60325E+08         0.00000E+00
    0.00000E+00         0.00000E+00        -0.52758E+08
 
   -0.48402E+08        -0.62983E+06         0.00000E+00
   -0.62983E+06        -0.60570E+08         0.00000E+00
    0.00000E+00         0.00000E+00        -0.52975E+08
 
   -0.49063E+08        -0.63192E+06         0.00000E+00
   -0.63192E+06        -0.60845E+08         0.00000E+00
    0.00000E+00         0.00000E+00        -0.53163E+08
 
   -0.49590E+08        -0.52795E+06         0.00000E+00
   -0.52795E+06        -0.61131E+08         0.00000E+00
    0.00000E+00         0.00000E+00        -0.53325E+08
 
   -0.50022E+08        -0.31341E+06         0.00000E+00
   -0.31341E+06        -0.61408E+08         0.00000E+00
    0.00000E+00         0.00000E+00        -0.53467E+08
 
   -0.50398E+08         0.11925E+05         0.00000E+00
    0.11925E+05        -0.61660E+08         0.00000E+00
    0.00000E+00         0.00000E+00        -0.53592E+08
 
   -0.50750E+08         0.44497E+06         0.00000E+00
    0.44497E+06        -0.61873E+08         0.00000E+00
    0.00000E+00         0.00000E+00        -0.53705E+08
 
   -0.51109E+08         0.97985E+06         0.00000E+00
    0.97985E+06        -0.62033E+08         0.00000E+00
    0.00000E+00         0.00000E+00        -0.53809E+08
 
   -0.51503E+08         0.16082E+07         0.00000E+00
    0.16082E+07        -0.62129E+08         0.00000E+00
    0.00000E+00         0.00000E+00        -0.53907E+08
 
   -0.51956E+08         0.23188E+07         0.00000E+00
    0.23188E+07        -0.62147E+08         0.00000E+00
    0.00000E+00         0.00000E+00        -0.54001E+08
 
   -0.52495E+08         0.30978E+07         0.00000E+00
    0.30978E+07        -0.62076E+08         0.00000E+00
    0.00000E+00         0.00000E+00        -0.54095E+08
 
   -0.53141E+08         0.39277E+07         0.00000E+00
    0.39277E+07        -0.61904E+08         0.00000E+00
    0.00000E+00         0.00000E+00        -0.54189E+08
 
   -0.53915E+08         0.47872E+07         0.00000E+00
    0.47872E+07        -0.61619E+08         0.00000E+00
    0.00000E+00         0.00000E+00        -0.54287E+08
 
   -0.45431E+08        -0.18782E+06         0.00000E+00
   -0.18782E+06        -0.60032E+08         0.00000E+00
    0.00000E+00         0.00000E+00        -0.51449E+08
 
   -0.46738E+08        -0.52058E+06         0.00000E+00
   -0.52058E+06        -0.60155E+08         0.00000E+00
    0.00000E+00         0.00000E+00        -0.51735E+08
 
   -0.47729E+08        -0.76953E+06         0.00000E+00
   -0.76953E+06        -0.60371E+08         0.00000E+00
    0.00000E+00         0.00000E+00        -0.51976E+08
 
   -0.48470E+08        -0.91218E+06         0.00000E+00
   -0.91218E+06        -0.60647E+08         0.00000E+00
    0.00000E+00         0.00000E+00        -0.52180E+08
 
   -0.49018E+08        -0.93498E+06         0.00000E+00
   -0.93498E+06        -0.60957E+08         0.00000E+00
    0.00000E+00         0.00000E+00        -0.52351E+08
 
   -0.49426E+08        -0.83122E+06         0.00000E+00
   -0.83122E+06        -0.61278E+08         0.00000E+00
    0.00000E+00         0.00000E+00        -0.52497E+08
 
   -0.49739E+08        -0.59922E+06         0.00000E+00
   -0.59922E+06        -0.61590E+08         0.00000E+00
    0.00000E+00         0.00000E+00        -0.52622E+08
 
   -0.49998E+08        -0.24097E+06         0.00000E+00
   -0.24097E+06        -0.61876E+08         0.00000E+00
    0.00000E+00         0.00000E+00        -0.52731E+08
 
   -0.50239E+08         0.23886E+06         0.00000E+00
    0.23886E+06        -0.62122E+08         0.00000E+00
    0.00000E+00         0.00000E+00        -0.52828E+08
 
   -0.50493E+08         0.83351E+06         0.00000E+00
    0.83351E+06        -0.62314E+08         0.00000E+00
    0.00000E+00         0.00000E+00        -0.52917E+08
 
   -0.50792E+08         0.15342E+07         0.00000E+00
    0.15342E+07        -0.62439E+08         0.00000E+00
    0.00000E+00         0.00000E+00        -0.53002E+08
 
   -0.51164E+08         0.23299E+07         0.00000E+00
    0.23299E+07        -0.62484E+08         0.00000E+00
    0.00000E+00         0.00000E+00        -0.53085E+08
 
   -0.51636E+08         0.32068E+07         0.00000E+00
    0.32068E+07        -0.62436E+08         0.00000E+00
    0.00000E+00         0.00000E+00        -0.53170E+08
 
   -0.52235E+08         0.41475E+07         0.00000E+00
    0.41475E+07        -0.62281E+08         0.00000E+00
    0.00000E+00         0.00000E+00        -0.53258E+08
 
   -0.52986E+08         0.51305E+07         0.00000E+00
    0.51305E+07        -0.62005E+08         0.00000E+00
    0.00000E+00         0.00000E+00        -0.53353E+08
 
   -0.45861E+08        -0.26007E+06         0.00000E+00
   -0.26007E+06        -0.60035E+08         0.00000E+00
    0.00000E+00         0.00000E+00        -0.50605E+08
 
   -0.47080E+08        -0.70763E+06         0.00000E+00
   -0.70763E+06        -0.60173E+08         0.00000E+00
    0.00000E+00         0.00000E+00        -0.50876E+08
 
   -0.47958E+08        -0.10355E+07         0.00000E+00
   -0.10355E+07        -0.60412E+08         0.00000E+00
    0.00000E+00         0.00000E+00        -0.51099E+08
 
   -0.48571E+08        -0.12261E+07         0.00000E+00
   -0.12261E+07        -0.60716E+08         0.00000E+00
    0.00000E+00         0.00000E+00        -0.51282E+08
 
   -0.48983E+08        -0.12707E+07         0.00000E+00
   -0.12707E+07        -0.61055E+08         0.00000E+00
    0.00000E+00         0.00000E+00        -0.51433E+08
 
   -0.49253E+08        -0.11668E+07         0.00000E+00
   -0.11668E+07        -0.61405E+08         0.00000E+00
    0.00000E+00         0.00000E+00        -0.51556E+08
 
   -0.49431E+08        -0.91647E+06         0.00000E+00
   -0.91647E+06        -0.61745E+08         0.00000E+00
    0.00000E+00         0.00000E+00        -0.51660E+08
 
   -0.49558E+08        -0.52437E+06         0.00000E+00
   -0.52437E+06        -0.62058E+08         0.00000E+00
    0.00000E+00         0.00000E+00        -0.51748E+08
 
   -0.49674E+08         0.30775E+04         0.00000E+00
    0.30775E+04        -0.62331E+08         0.00000E+00
    0.00000E+00         0.00000E+00        -0.51825E+08
 
   -0.49811E+08         0.65830E+06         0.00000E+00
    0.65830E+06        -0.62550E+08         0.00000E+00
    0.00000E+00         0.00000E+00        -0.51896E+08
 
   -0.50002E+08         0.14325E+07         0.00000E+00
    0.14325E+07        -0.62701E+08         0.00000E+00
    0.00000E+00         0.00000E+00        -0.51965E+08
 
   -0.50279E+08         0.23154E+07         0.00000E+00
    0.23154E+07        -0.62773E+08         0.00000E+00
    0.00000E+00         0.00000E+00        -0.52034E+08
 
   -0.50670E+08         0.32939E+07         0.00000E+00
    0.32939E+07        -0.62749E+08         0.00000E+00
    0.00000E+00         0.00000E+00        -0.52108E+08
 
   -0.51208E+08         0.43516E+07         0.00000E+00
    0.43516E+07        -0.62615E+08         0.00000E+00
    0.00000E+00         0.00000E+00        -0.52188E+08
 
   -0.51922E+08         0.54673E+07         0.00000E+00
    0.54673E+07        -0.62353E+08         0.00000E+00
    0.00000E+00         0.00000E+00        -0.52279E+08
 
   -0.46433E+08        -0.34006E+06         0.00000E+00
   -0.34006E+06        -0.60039E+08         0.00000E+00
    0.00000E+00         0.00000E+00        -0.49676E+08
 
   -0.47523E+08        -0.91297E+06         0.00000E+00
   -0.91297E+06        -0.60188E+08         0.00000E+00
    0.00000E+00         0.00000E+00        -0.49923E+08
 
   -0.48252E+08        -0.13251E+07         0.00000E+00
   -0.13251E+07        -0.60446E+08         0.00000E+00
    0.00000E+00         0.00000E+00        -0.50121E+08
 
   -0.48706E+08        -0.15655E+07         0.00000E+00
   -0.15655E+07        -0.60771E+08         0.00000E+00
    0.00000E+00         0.00000E+00        -0.50277E+08
 
   -0.48958E+08        -0.16317E+07         0.00000E+00
   -0.16317E+07        -0.61132E+08         0.00000E+00
    0.00000E+00         0.00000E+00        -0.50399E+08
 
   -0.49071E+08        -0.15267E+07         0.00000E+00
   -0.15267E+07        -0.61501E+08         0.00000E+00
    0.00000E+00         0.00000E+00        -0.50495E+08
 
   -0.49095E+08        -0.12571E+07         0.00000E+00
   -0.12571E+07        -0.61860E+08         0.00000E+00
    0.00000E+00         0.00000E+00        -0.50572E+08
 
   -0.49077E+08        -0.83082E+06         0.00000E+00
   -0.83082E+06        -0.62192E+08         0.00000E+00
    0.00000E+00         0.00000E+00        -0.50634E+08
 
   -0.49054E+08        -0.25620E+06         0.00000E+00
   -0.25620E+06        -0.62484E+08         0.00000E+00
    0.00000E+00         0.00000E+00        -0.50688E+08
 
   -0.49062E+08         0.45861E+06         0.00000E+00
    0.45861E+06        -0.62723E+08         0.00000E+00
    0.00000E+00         0.00000E+00        -0.50737E+08
 
   -0.49133E+08         0.13054E+07         0.00000E+00
    0.13054E+07        -0.62898E+08         0.00000E+00
    0.00000E+00         0.00000E+00        -0.50786E+08
 
   -0.49299E+08         0.22751E+07         0.00000E+00
    0.22751E+07        -0.62994E+08         0.00000E+00
    0.00000E+00         0.00000E+00        -0.50838E+08
 
   -0.49594E+08         0.33566E+07         0.00000E+00
    0.33566E+07        -0.62997E+08         0.00000E+00
    0.00000E+00         0.00000E+00        -0.50897E+08
 
   -0.50053E+08         0.45354E+07         0.00000E+00
    0.45354E+07        -0.62887E+08         0.00000E+00
    0.00000E+00         0.00000E+00        -0.50967E+08
 
   -0.50712E+08         0.57914E+07         0.00000E+00
    0.57914E+07        -0.62644E+08         0.00000E+00
    0.00000E+00         0.00000E+00        -0.51050E+08
 
   -0.47158E+08        -0.42660E+06         0.00000E+00
   -0.42660E+06        -0.60041E+08         0.00000E+00
    0.00000E+00         0.00000E+00        -0.48659E+08
 
   -0.48072E+08        -0.11329E+07         0.00000E+00
   -0.11329E+07        -0.60200E+08         0.00000E+00
    0.00000E+00         0.00000E+00        -0.48873E+08
 
   -0.48613E+08        -0.16323E+07         0.00000E+00
   -0.16323E+07        -0.60471E+08         0.00000E+00
    0.00000E+00         0.00000E+00        -0.49036E+08
 
   -0.48876E+08        -0.19222E+07         0.00000E+00
   -0.19222E+07        -0.60809E+08         0.00000E+00
    0.00000E+00         0.00000E+00        -0.49156E+08
 
   -0.48942E+08        -0.20081E+07         0.00000E+00
   -0.20081E+07        -0.61181E+08         0.00000E+00
    0.00000E+00         0.00000E+00        -0.49243E+08
 
   -0.48876E+08        -0.19001E+07         0.00000E+00
   -0.19001E+07        -0.61559E+08         0.00000E+00
    0.00000E+00         0.00000E+00        -0.49305E+08
 
   -0.48733E+08        -0.16102E+07         0.00000E+00
   -0.16102E+07        -0.61924E+08         0.00000E+00
    0.00000E+00         0.00000E+00        -0.49349E+08
 
   -0.48556E+08        -0.11503E+07         0.00000E+00
   -0.11503E+07        -0.62262E+08         0.00000E+00
    0.00000E+00         0.00000E+00        -0.49381E+08
 
   -0.48383E+08        -0.53056E+06         0.00000E+00
   -0.53056E+06        -0.62562E+08         0.00000E+00
    0.00000E+00         0.00000E+00        -0.49406E+08
 
   -0.48249E+08         0.24046E+06         0.00000E+00
    0.24046E+06        -0.62814E+08         0.00000E+00
    0.00000E+00         0.00000E+00        -0.49430E+08
 
   -0.48185E+08         0.11558E+07         0.00000E+00
    0.11558E+07        -0.63006E+08         0.00000E+00
    0.00000E+00         0.00000E+00        -0.49455E+08
 
   -0.48225E+08         0.22089E+07         0.00000E+00
    0.22089E+07        -0.63126E+08         0.00000E+00
    0.00000E+00         0.00000E+00        -0.49487E+08
 
   -0.48406E+08         0.33918E+07         0.00000E+00
    0.33918E+07        -0.63156E+08         0.00000E+00
    0.00000E+00         0.00000E+00        -0.49529E+08
 
   -0.48766E+08         0.46928E+07         0.00000E+00
    0.46928E+07        -0.63076E+08         0.00000E+00
    0.00000E+00         0.00000E+00        -0.49585E+08
 
   -0.49348E+08         0.60948E+07         0.00000E+00
    0.60948E+07        -0.62861E+08         0.00000E+00
    0.00000E+00         0.00000E+00        -0.49658E+08
 
   -0.48047E+08        -0.51812E+06         0.00000E+00
   -0.51812E+06        -0.60043E+08         0.00000E+00
    0.00000E+00         0.00000E+00        -0.47552E+08
 
   -0.48731E+08        -0.13628E+07         0.00000E+00
   -0.13628E+07        -0.60208E+08         0.00000E+00
    0.00000E+00         0.00000E+00        -0.47722E+08
 
   -0.49040E+08        -0.19491E+07         0.00000E+00
   -0.19491E+07        -0.60485E+08         0.00000E+00
    0.00000E+00         0.00000E+00        -0.47839E+08
 
   -0.49078E+08        -0.22854E+07         0.00000E+00
   -0.22854E+07        -0.60826E+08         0.00000E+00
    0.00000E+00         0.00000E+00        -0.47915E+08
 
   -0.48932E+08        -0.23870E+07         0.00000E+00
   -0.23870E+07        -0.61194E+08         0.00000E+00
    0.00000E+00         0.00000E+00        -0.47959E+08
 
   -0.48669E+08        -0.22729E+07         0.00000E+00
   -0.22729E+07        -0.61565E+08         0.00000E+00
    0.00000E+00         0.00000E+00        -0.47980E+08
 
   -0.48343E+08        -0.19617E+07         0.00000E+00
   -0.19617E+07        -0.61921E+08         0.00000E+00
    0.00000E+00         0.00000E+00        -0.47986E+08
 
   -0.47996E+08        -0.14697E+07         0.00000E+00
   -0.14697E+07        -0.62250E+08         0.00000E+00
    0.00000E+00         0.00000E+00        -0.47982E+08
 
   -0.47664E+08        -0.80915E+06         0.00000E+00
   -0.80915E+06        -0.62545E+08         0.00000E+00
    0.00000E+00         0.00000E+00        -0.47974E+08
 
   -0.47377E+08         0.11659E+05         0.00000E+00
    0.11659E+05        -0.62798E+08         0.00000E+00
    0.00000E+00         0.00000E+00        -0.47967E+08
 
   -0.47166E+08         0.98803E+06         0.00000E+00
    0.98803E+06        -0.63001E+08         0.00000E+00
    0.00000E+00         0.00000E+00        -0.47965E+08
 
   -0.47063E+08         0.21171E+07         0.00000E+00
    0.21171E+07        -0.63142E+08         0.00000E+00
    0.00000E+00         0.00000E+00        -0.47972E+08
 
   -0.47108E+08         0.33954E+07         0.00000E+00
    0.33954E+07        -0.63202E+08         0.00000E+00
    0.00000E+00         0.00000E+00        -0.47993E+08
 
   -0.47345E+08         0.48165E+07         0.00000E+00
    0.48165E+07        -0.63158E+08         0.00000E+00
    0.00000E+00         0.00000E+00        -0.48032E+08
 
   -0.47822E+08         0.63670E+07         0.00000E+00
    0.63670E+07        -0.62981E+08         0.00000E+00
    0.00000E+00         0.00000E+00        -0.48092E+08
 
   -0.49107E+08        -0.61267E+06         0.00000E+00
   -0.61267E+06        -0.60044E+08         0.00000E+00
    0.00000E+00         0.00000E+00        -0.46356E+08
 
   -0.49501E+08        -0.15964E+07         0.00000E+00
   -0.15964E+07        -0.60210E+08         0.00000E+00
    0.00000E+00         0.00000E+00        -0.46468E+08
 
   -0.49530E+08        -0.22655E+07         0.00000E+00
   -0.22655E+07        -0.60484E+08         0.00000E+00
    0.00000E+00         0.00000E+00        -0.46528E+08
 
   -0.49307E+08        -0.26413E+07         0.00000E+00
   -0.26413E+07        -0.60814E+08         0.00000E+00
    0.00000E+00         0.00000E+00        -0.46549E+08
 
   -0.48922E+08        -0.27521E+07         0.00000E+00
   -0.27521E+07        -0.61163E+08         0.00000E+00
    0.00000E+00         0.00000E+00        -0.46541E+08
 
   -0.48445E+08        -0.26273E+07         0.00000E+00
   -0.26273E+07        -0.61508E+08         0.00000E+00
    0.00000E+00         0.00000E+00        -0.46515E+08
 
   -0.47926E+08        -0.22938E+07         0.00000E+00
   -0.22938E+07        -0.61834E+08         0.00000E+00
    0.00000E+00         0.00000E+00        -0.46476E+08
 
   -0.47403E+08        -0.17728E+07         0.00000E+00
   -0.17728E+07        -0.62135E+08         0.00000E+00
    0.00000E+00         0.00000E+00        -0.46431E+08
 
   -0.46904E+08        -0.10784E+07         0.00000E+00
   -0.10784E+07        -0.62409E+08         0.00000E+00
    0.00000E+00         0.00000E+00        -0.46385E+08
 
   -0.46456E+08        -0.21802E+06         0.00000E+00
   -0.21802E+06        -0.62651E+08         0.00000E+00
    0.00000E+00         0.00000E+00        -0.46344E+08
 
   -0.46084E+08         0.80715E+06         0.00000E+00
    0.80715E+06        -0.62857E+08         0.00000E+00
    0.00000E+00         0.00000E+00        -0.46310E+08
 
   -0.45822E+08         0.19996E+07         0.00000E+00
    0.19996E+07        -0.63015E+08         0.00000E+00
    0.00000E+00         0.00000E+00        -0.46289E+08
 
   -0.45708E+08         0.33626E+07         0.00000E+00
    0.33626E+07        -0.63108E+08         0.00000E+00
    0.00000E+00         0.00000E+00        -0.46285E+08
 
   -0.45792E+08         0.48967E+07         0.00000E+00
    0.48967E+07        -0.63108E+08         0.00000E+00
    0.00000E+00         0.00000E+00        -0.46302E+08
 
   -0.46131E+08         0.65950E+07         0.00000E+00
    0.65950E+07        -0.62983E+08         0.00000E+00
    0.00000E+00         0.00000E+00        -0.46344E+08
 
   -0.50338E+08        -0.70791E+06         0.00000E+00
   -0.70791E+06        -0.60044E+08         0.00000E+00
    0.00000E+00         0.00000E+00        -0.45069E+08
 
   -0.50377E+08        -0.18264E+07         0.00000E+00
   -0.18264E+07        -0.60206E+08         0.00000E+00
    0.00000E+00         0.00000E+00        -0.45109E+08
 
   -0.50074E+08        -0.25687E+07         0.00000E+00
   -0.25687E+07        -0.60466E+08         0.00000E+00
    0.00000E+00         0.00000E+00        -0.45100E+08
 
   -0.49553E+08        -0.29728E+07         0.00000E+00
   -0.29728E+07        -0.60768E+08         0.00000E+00
    0.00000E+00         0.00000E+00        -0.45055E+08
 
   -0.48907E+08        -0.30828E+07         0.00000E+00
   -0.30828E+07        -0.61077E+08         0.00000E+00
    0.00000E+00         0.00000E+00        -0.44988E+08
 
   -0.48203E+08        -0.29414E+07         0.00000E+00
   -0.29414E+07        -0.61371E+08         0.00000E+00
    0.00000E+00         0.00000E+00        -0.44905E+08
 
   -0.47485E+08        -0.25850E+07         0.00000E+00
   -0.25850E+07        -0.61644E+08         0.00000E+00
    0.00000E+00         0.00000E+00        -0.44816E+08
 
   -0.46782E+08        -0.20400E+07         0.00000E+00
   -0.20400E+07        -0.61895E+08         0.00000E+00
    0.00000E+00         0.00000E+00        -0.44725E+08
 
   -0.46114E+08        -0.13221E+07         0.00000E+00
   -0.13221E+07        -0.62127E+08         0.00000E+00
    0.00000E+00         0.00000E+00        -0.44637E+08
 
   -0.45499E+08        -0.43684E+06         0.00000E+00
   -0.43684E+06        -0.62344E+08         0.00000E+00
    0.00000E+00         0.00000E+00        -0.44557E+08
 
   -0.44957E+08         0.61940E+06         0.00000E+00
    0.61940E+06        -0.62542E+08         0.00000E+00
    0.00000E+00         0.00000E+00        -0.44488E+08
 
   -0.44516E+08         0.18565E+07         0.00000E+00
    0.18565E+07        -0.62715E+08         0.00000E+00
    0.00000E+00         0.00000E+00        -0.44434E+08
 
   -0.44217E+08         0.32870E+07         0.00000E+00
    0.32870E+07        -0.62844E+08         0.00000E+00
    0.00000E+00         0.00000E+00        -0.44400E+08
 
   -0.44113E+08         0.49213E+07         0.00000E+00
    0.49213E+07        -0.62900E+08         0.00000E+00
    0.00000E+00         0.00000E+00        -0.44390E+08
 
   -0.44273E+08         0.67618E+07         0.00000E+00
    0.67618E+07        -0.62841E+08         0.00000E+00
    0.00000E+00         0.00000E+00        -0.44410E+08
 
   -0.51738E+08        -0.80118E+06         0.00000E+00
   -0.80118E+06        -0.60042E+08         0.00000E+00
    0.00000E+00         0.00000E+00        -0.43693E+08
 
   -0.51348E+08        -0.20439E+07         0.00000E+00
   -0.20439E+07        -0.60194E+08         0.00000E+00
    0.00000E+00         0.00000E+00        -0.43645E+08
 
   -0.50658E+08        -0.28430E+07         0.00000E+00
   -0.28430E+07        -0.60426E+08         0.00000E+00
    0.00000E+00         0.00000E+00        -0.43553E+08
 
   -0.49803E+08        -0.32582E+07         0.00000E+00
   -0.32582E+07        -0.60680E+08         0.00000E+00
    0.00000E+00         0.00000E+00        -0.43433E+08
 
   -0.48876E+08        -0.33538E+07         0.00000E+00
   -0.33538E+07        -0.60921E+08         0.00000E+00
    0.00000E+00         0.00000E+00        -0.43295E+08
 
   -0.47938E+08        -0.31887E+07         0.00000E+00
   -0.31887E+07        -0.61138E+08         0.00000E+00
    0.00000E+00         0.00000E+00        -0.43150E+08
 
   -0.47021E+08        -0.28095E+07         0.00000E+00
   -0.28095E+07        -0.61329E+08         0.00000E+00
    0.00000E+00         0.00000E+00        -0.43005E+08
 
   -0.46142E+08        -0.22482E+07         0.00000E+00
   -0.22482E+07        -0.61503E+08         0.00000E+00
    0.00000E+00         0.00000E+00        -0.42863E+08
 
   -0.45308E+08        -0.15212E+07         0.00000E+00
   -0.15212E+07        -0.61672E+08         0.00000E+00
    0.00000E+00         0.00000E+00        -0.42730E+08
 
   -0.44526E+08        -0.63112E+06         0.00000E+00
   -0.63112E+06        -0.61845E+08         0.00000E+00
    0.00000E+00         0.00000E+00        -0.42607E+08
 
   -0.43805E+08         0.43198E+06         0.00000E+00
    0.43198E+06        -0.62025E+08         0.00000E+00
    0.00000E+00         0.00000E+00        -0.42499E+08
 
   -0.43169E+08         0.16875E+07         0.00000E+00
    0.16875E+07        -0.62209E+08         0.00000E+00
    0.00000E+00         0.00000E+00        -0.42408E+08
 
   -0.42655E+08         0.31604E+07         0.00000E+00
    0.31604E+07        -0.62379E+08         0.00000E+00
    0.00000E+00         0.00000E+00        -0.42339E+08
 
   -0.42323E+08         0.48749E+07         0.00000E+00
    0.48749E+07        -0.62502E+08         0.00000E+00
    0.00000E+00         0.00000E+00        -0.42297E+08
 
   -0.42252E+08         0.68466E+07         0.00000E+00
    0.68466E+07        -0.62532E+08         0.00000E+00
    0.00000E+00         0.00000E+00        -0.42289E+08
 
   -0.53297E+08        -0.88946E+06         0.00000E+00
   -0.88946E+06        -0.60039E+08         0.00000E+00
    0.00000E+00         0.00000E+00        -0.42233E+08
 
   -0.52395E+08        -0.22377E+07         0.00000E+00
   -0.22377E+07        -0.60173E+08         0.00000E+00
    0.00000E+00         0.00000E+00        -0.42079E+08
 
   -0.51261E+08        -0.30685E+07         0.00000E+00
   -0.30685E+07        -0.60359E+08         0.00000E+00
    0.00000E+00         0.00000E+00        -0.41889E+08
 
   -0.50038E+08        -0.34704E+07         0.00000E+00
   -0.34704E+07        -0.60538E+08         0.00000E+00
    0.00000E+00         0.00000E+00        -0.41679E+08
 
   -0.48818E+08        -0.35341E+07         0.00000E+00
   -0.35341E+07        -0.60680E+08         0.00000E+00
    0.00000E+00         0.00000E+00        -0.41463E+08
 
   -0.47647E+08        -0.33375E+07         0.00000E+00
   -0.33375E+07        -0.60784E+08         0.00000E+00
    0.00000E+00         0.00000E+00        -0.41249E+08
 
   -0.46541E+08        -0.29381E+07         0.00000E+00
   -0.29381E+07        -0.60861E+08         0.00000E+00
    0.00000E+00         0.00000E+00        -0.41043E+08
 
   -0.45498E+08        -0.23718E+07         0.00000E+00
   -0.23718E+07        -0.60930E+08         0.00000E+00
    0.00000E+00         0.00000E+00        -0.40848E+08
 
   -0.44508E+08        -0.16548E+07         0.00000E+00
   -0.16548E+07        -0.61012E+08         0.00000E+00
    0.00000E+00         0.00000E+00        -0.40666E+08
 
   -0.43562E+08        -0.78558E+06         0.00000E+00
   -0.78558E+06        -0.61122E+08         0.00000E+00
    0.00000E+00         0.00000E+00        -0.40498E+08
 
   -0.42659E+08         0.25317E+06         0.00000E+00
    0.25317E+06        -0.61272E+08         0.00000E+00
    0.00000E+00         0.00000E+00        -0.40347E+08
 
   -0.41810E+08         0.14924E+07         0.00000E+00
    0.14924E+07        -0.61462E+08         0.00000E+00
    0.00000E+00         0.00000E+00        -0.40215E+08
 
   -0.41050E+08         0.29729E+07         0.00000E+00
    0.29729E+07        -0.61678E+08         0.00000E+00
    0.00000E+00         0.00000E+00        -0.40106E+08
 
   -0.40440E+08         0.47381E+07         0.00000E+00
    0.47381E+07        -0.61886E+08         0.00000E+00
    0.00000E+00         0.00000E+00        -0.40025E+08
 
   -0.40076E+08         0.68226E+07         0.00000E+00
    0.68226E+07        -0.62029E+08         0.00000E+00
    0.00000E+00         0.00000E+00        -0.39981E+08
 
   -0.54998E+08        -0.96935E+06         0.00000E+00
   -0.96935E+06        -0.60035E+08         0.00000E+00
    0.00000E+00         0.00000E+00        -0.40691E+08
 
   -0.53491E+08        -0.23936E+07         0.00000E+00
   -0.23936E+07        -0.60140E+08         0.00000E+00
    0.00000E+00         0.00000E+00        -0.40411E+08
 
   -0.51851E+08        -0.32185E+07         0.00000E+00
   -0.32185E+07        -0.60257E+08         0.00000E+00
    0.00000E+00         0.00000E+00        -0.40106E+08
 
   -0.50235E+08        -0.35744E+07         0.00000E+00
   -0.35744E+07        -0.60324E+08         0.00000E+00
    0.00000E+00         0.00000E+00        -0.39795E+08
 
   -0.48720E+08        -0.35862E+07         0.00000E+00
   -0.35862E+07        -0.60326E+08         0.00000E+00
    0.00000E+00         0.00000E+00        -0.39492E+08
 
   -0.47330E+08        -0.33524E+07         0.00000E+00
   -0.33524E+07        -0.60278E+08         0.00000E+00
    0.00000E+00         0.00000E+00        -0.39204E+08
 
   -0.46054E+08        -0.29393E+07         0.00000E+00
   -0.29393E+07        -0.60207E+08         0.00000E+00
    0.00000E+00         0.00000E+00        -0.38934E+08
 
   -0.44866E+08        -0.23843E+07         0.00000E+00
   -0.23843E+07        -0.60143E+08         0.00000E+00
    0.00000E+00         0.00000E+00        -0.38683E+08
 
   -0.43737E+08        -0.17012E+07         0.00000E+00
   -0.17012E+07        -0.60113E+08         0.00000E+00
    0.00000E+00         0.00000E+00        -0.38451E+08
 
   -0.42639E+08        -0.88392E+06         0.00000E+00
   -0.88392E+06        -0.60142E+08         0.00000E+00
    0.00000E+00         0.00000E+00        -0.38237E+08
 
   -0.41555E+08         0.92435E+05         0.00000E+00
    0.92435E+05        -0.60248E+08         0.00000E+00
    0.00000E+00         0.00000E+00        -0.38041E+08
 
   -0.40480E+08         0.12712E+07         0.00000E+00
    0.12712E+07        -0.60439E+08         0.00000E+00
    0.00000E+00         0.00000E+00        -0.37864E+08
 
   -0.39440E+08         0.27127E+07         0.00000E+00
    0.27127E+07        -0.60707E+08         0.00000E+00
    0.00000E+00         0.00000E+00        -0.37709E+08
 
   -0.38496E+08         0.44865E+07         0.00000E+00
    0.44865E+07        -0.61020E+08         0.00000E+00
    0.00000E+00         0.00000E+00        -0.37582E+08
 
   -0.37758E+08         0.66556E+07         0.00000E+00
    0.66556E+07        -0.61310E+08         0.00000E+00
    0.00000E+00         0.00000E+00        -0.37493E+08
 
   -0.56813E+08        -0.10367E+07         0.00000E+00
   -0.10367E+07        -0.60028E+08         0.00000E+00
    0.00000E+00         0.00000E+00        -0.39075E+08
 
   -0.54590E+08        -0.24909E+07         0.00000E+00
   -0.24909E+07        -0.60091E+08         0.00000E+00
    0.00000E+00         0.00000E+00        -0.38642E+08
 
   -0.52386E+08        -0.32555E+07         0.00000E+00
   -0.32555E+07        -0.60101E+08         0.00000E+00
    0.00000E+00         0.00000E+00        -0.38203E+08
 
   -0.50363E+08        -0.35243E+07         0.00000E+00
   -0.35243E+07        -0.60007E+08         0.00000E+00
    0.00000E+00         0.00000E+00        -0.37779E+08
 
   -0.48571E+08        -0.34655E+07         0.00000E+00
   -0.34655E+07        -0.59818E+08         0.00000E+00
    0.00000E+00         0.00000E+00        -0.37383E+08
 
   -0.46991E+08        -0.31955E+07         0.00000E+00
   -0.31955E+07        -0.59576E+08         0.00000E+00
    0.00000E+00         0.00000E+00        -0.37018E+08
 
   -0.45575E+08        -0.27829E+07         0.00000E+00
   -0.27829E+07        -0.59325E+08         0.00000E+00
    0.00000E+00         0.00000E+00        -0.36684E+08
 
   -0.44270E+08        -0.22615E+07         0.00000E+00
   -0.22615E+07        -0.59103E+08         0.00000E+00
    0.00000E+00         0.00000E+00        -0.36378E+08
 
   -0.43025E+08        -0.16408E+07         0.00000E+00
   -0.16408E+07        -0.58944E+08         0.00000E+00
    0.00000E+00         0.00000E+00        -0.36096E+08
 
   -0.41794E+08        -0.91005E+06         0.00000E+00
   -0.91005E+06        -0.58876E+08         0.00000E+00
    0.00000E+00         0.00000E+00        -0.35836E+08
 
   -0.40538E+08        -0.39052E+05         0.00000E+00
   -0.39052E+05        -0.58923E+08         0.00000E+00
    0.00000E+00         0.00000E+00        -0.35594E+08
 
   -0.39232E+08         0.10262E+07         0.00000E+00
    0.10262E+07        -0.59107E+08         0.00000E+00
    0.00000E+00         0.00000E+00        -0.35369E+08
 
   -0.37879E+08         0.23674E+07         0.00000E+00
    0.23674E+07        -0.59431E+08         0.00000E+00
    0.00000E+00         0.00000E+00        -0.35163E+08
 
   -0.36534E+08         0.40899E+07         0.00000E+00
    0.40899E+07        -0.59870E+08         0.00000E+00
    0.00000E+00         0.00000E+00        -0.34981E+08
 
   -0.35323E+08         0.63013E+07         0.00000E+00
    0.63013E+07        -0.60349E+08         0.00000E+00
    0.00000E+00         0.00000E+00        -0.34835E+08
 
   -0.58701E+08        -0.10856E+07         0.00000E+00
   -0.10856E+07        -0.60019E+08         0.00000E+00
    0.00000E+00         0.00000E+00        -0.37387E+08
 
   -0.55626E+08        -0.24952E+07         0.00000E+00
   -0.24952E+07        -0.60010E+08         0.00000E+00
    0.00000E+00         0.00000E+00        -0.36770E+08
 
   -0.52809E+08        -0.31215E+07         0.00000E+00
   -0.31215E+07        -0.59854E+08         0.00000E+00
    0.00000E+00         0.00000E+00        -0.36175E+08
 
   -0.50397E+08        -0.32597E+07         0.00000E+00
   -0.32597E+07        -0.59527E+08         0.00000E+00
    0.00000E+00         0.00000E+00        -0.35627E+08
 
   -0.48371E+08        -0.31239E+07         0.00000E+00
   -0.31239E+07        -0.59091E+08         0.00000E+00
    0.00000E+00         0.00000E+00        -0.35134E+08
 
   -0.46644E+08        -0.28334E+07         0.00000E+00
   -0.28334E+07        -0.58618E+08         0.00000E+00
    0.00000E+00         0.00000E+00        -0.34693E+08
 
   -0.45127E+08        -0.24464E+07         0.00000E+00
   -0.24464E+07        -0.58165E+08         0.00000E+00
    0.00000E+00         0.00000E+00        -0.34299E+08
 
   -0.43737E+08        -0.19874E+07         0.00000E+00
   -0.19874E+07        -0.57773E+08         0.00000E+00
    0.00000E+00         0.00000E+00        -0.33942E+08
 
   -0.42405E+08        -0.14598E+07         0.00000E+00
   -0.14598E+07        -0.57474E+08         0.00000E+00
    0.00000E+00         0.00000E+00        -0.33615E+08
 
   -0.41065E+08        -0.85056E+06         0.00000E+00
   -0.85056E+06        -0.57299E+08         0.00000E+00
    0.00000E+00         0.00000E+00        -0.33312E+08
 
   -0.39658E+08        -0.12803E+06         0.00000E+00
   -0.12803E+06        -0.57277E+08         0.00000E+00
    0.00000E+00         0.00000E+00        -0.33026E+08
 
   -0.38128E+08         0.76514E+06         0.00000E+00
    0.76514E+06        -0.57438E+08         0.00000E+00
    0.00000E+00         0.00000E+00        -0.32752E+08
 
   -0.36442E+08         0.19281E+07         0.00000E+00
    0.19281E+07        -0.57813E+08         0.00000E+00
    0.00000E+00         0.00000E+00        -0.32489E+08
 
   -0.34621E+08         0.35125E+07         0.00000E+00
    0.35125E+07        -0.58400E+08         0.00000E+00
    0.00000E+00         0.00000E+00        -0.32242E+08
 
   -0.32804E+08         0.57000E+07         0.00000E+00
    0.57000E+07        -0.59123E+08         0.00000E+00
    0.00000E+00         0.00000E+00        -0.32023E+08
 
   -0.60592E+08        -0.11037E+07         0.00000E+00
   -0.11037E+07        -0.60000E+08         0.00000E+00
    0.00000E+00         0.00000E+00        -0.35629E+08
 
   -0.56493E+08        -0.23376E+07         0.00000E+00
   -0.23376E+07        -0.59860E+08         0.00000E+00
    0.00000E+00         0.00000E+00        -0.34781E+08
 
   -0.53056E+08        -0.27233E+07         0.00000E+00
   -0.27233E+07        -0.59423E+08         0.00000E+00
    0.00000E+00         0.00000E+00        -0.34006E+08
 
   -0.50327E+08        -0.27095E+07         0.00000E+00
   -0.27095E+07        -0.58770E+08         0.00000E+00
    0.00000E+00         0.00000E+00        -0.33329E+08
 
   -0.48138E+08        -0.25217E+07         0.00000E+00
   -0.25217E+07        -0.58040E+08         0.00000E+00
    0.00000E+00         0.00000E+00        -0.32745E+08
 
   -0.46320E+08        -0.22478E+07         0.00000E+00
   -0.22478E+07        -0.57322E+08         0.00000E+00
    0.00000E+00         0.00000E+00        -0.32238E+08
 
   -0.44741E+08        -0.19233E+07         0.00000E+00
   -0.19233E+07        -0.56668E+08         0.00000E+00
    0.00000E+00         0.00000E+00        -0.31791E+08
 
   -0.43299E+08        -0.15600E+07         0.00000E+00
   -0.15600E+07        -0.56113E+08         0.00000E+00
    0.00000E+00         0.00000E+00        -0.31391E+08
 
   -0.41907E+08        -0.11562E+07         0.00000E+00
   -0.11562E+07        -0.55682E+08         0.00000E+00
    0.00000E+00         0.00000E+00        -0.31026E+08
 
   -0.40488E+08        -0.69891E+06         0.00000E+00
   -0.69891E+06        -0.55403E+08         0.00000E+00
    0.00000E+00         0.00000E+00        -0.30686E+08
 
   -0.38961E+08        -0.16116E+06         0.00000E+00
   -0.16116E+06        -0.55304E+08         0.00000E+00
    0.00000E+00         0.00000E+00        -0.30360E+08
 
   -0.37239E+08         0.50677E+06         0.00000E+00
    0.50677E+06        -0.55427E+08         0.00000E+00
    0.00000E+00         0.00000E+00        -0.30040E+08
 
   -0.35226E+08         0.14000E+07         0.00000E+00
    0.14000E+07        -0.55827E+08         0.00000E+00
    0.00000E+00         0.00000E+00        -0.29718E+08
 
   -0.32863E+08         0.27165E+07         0.00000E+00
    0.27165E+07        -0.56568E+08         0.00000E+00
    0.00000E+00         0.00000E+00        -0.29393E+08
 
   -0.30260E+08         0.47666E+07         0.00000E+00
    0.47666E+07        -0.57604E+08         0.00000E+00
    0.00000E+00         0.00000E+00        -0.29080E+08
 
   -0.62342E+08        -0.10487E+07         0.00000E+00
   -0.10487E+07        -0.59948E+08         0.00000E+00
    0.00000E+00         0.00000E+00        -0.33786E+08
 
   -0.57032E+08        -0.18543E+07         0.00000E+00
   -0.18543E+07        -0.59492E+08         0.00000E+00
    0.00000E+00         0.00000E+00        -0.32632E+08
 
   -0.53098E+08        -0.19319E+07         0.00000E+00
   -0.19319E+07        -0.58583E+08         0.00000E+00
    0.00000E+00         0.00000E+00        -0.31663E+08
 
   -0.50191E+08        -0.18253E+07         0.00000E+00
   -0.18253E+07        -0.57548E+08         0.00000E+00
    0.00000E+00         0.00000E+00        -0.30875E+08
 
   -0.47922E+08        -0.16536E+07         0.00000E+00
   -0.16536E+07        -0.56532E+08         0.00000E+00
    0.00000E+00         0.00000E+00        -0.30218E+08
 
   -0.46062E+08        -0.14521E+07         0.00000E+00
   -0.14521E+07        -0.55598E+08         0.00000E+00
    0.00000E+00         0.00000E+00        -0.29658E+08
 
   -0.44454E+08        -0.12330E+07         0.00000E+00
   -0.12330E+07        -0.54777E+08         0.00000E+00
    0.00000E+00         0.00000E+00        -0.29173E+08
 
   -0.42985E+08        -0.99836E+06         0.00000E+00
   -0.99836E+06        -0.54091E+08         0.00000E+00
    0.00000E+00         0.00000E+00        -0.28741E+08
 
   -0.41559E+08        -0.74432E+06         0.00000E+00
   -0.74432E+06        -0.53555E+08         0.00000E+00
    0.00000E+00         0.00000E+00        -0.28349E+08
 
   -0.40089E+08        -0.46134E+06         0.00000E+00
   -0.46134E+06        -0.53191E+08         0.00000E+00
    0.00000E+00         0.00000E+00        -0.27982E+08
 
   -0.38481E+08        -0.13189E+06         0.00000E+00
   -0.13189E+06        -0.53024E+08         0.00000E+00
    0.00000E+00         0.00000E+00        -0.27627E+08
 
   -0.36622E+08         0.27638E+06         0.00000E+00
    0.27638E+06        -0.53098E+08         0.00000E+00
    0.00000E+00         0.00000E+00        -0.27269E+08
 
   -0.34357E+08         0.82850E+06         0.00000E+00
    0.82850E+06        -0.53484E+08         0.00000E+00
    0.00000E+00         0.00000E+00        -0.26893E+08
 
   -0.31439E+08         0.16847E+07         0.00000E+00
    0.16847E+07        -0.54310E+08         0.00000E+00
    0.00000E+00         0.00000E+00        -0.26475E+08
 
   -0.27799E+08         0.33624E+07         0.00000E+00
    0.33624E+07        -0.55756E+08         0.00000E+00
    0.00000E+00         0.00000E+00        -0.26036E+08
 
   -0.63588E+08        -0.64443E+06         0.00000E+00
   -0.64443E+06        -0.59531E+08         0.00000E+00
    0.00000E+00         0.00000E+00        -0.31737E+08
 
   -0.57135E+08        -0.75838E+06         0.00000E+00
   -0.75838E+06        -0.58323E+08         0.00000E+00
    0.00000E+00         0.00000E+00        -0.30204E+08
 
   -0.53045E+08        -0.71045E+06         0.00000E+00
   -0.71045E+06        -0.56945E+08         0.00000E+00
    0.00000E+00         0.00000E+00        -0.29111E+08
 
   -0.50081E+08        -0.64849E+06         0.00000E+00
   -0.64849E+06        -0.55628E+08         0.00000E+00
    0.00000E+00         0.00000E+00        -0.28254E+08
 
   -0.47790E+08        -0.57771E+06         0.00000E+00
   -0.57771E+06        -0.54427E+08         0.00000E+00
    0.00000E+00         0.00000E+00        -0.27556E+08
 
   -0.45917E+08        -0.50292E+06         0.00000E+00
   -0.50292E+06        -0.53364E+08         0.00000E+00
    0.00000E+00         0.00000E+00        -0.26969E+08
 
   -0.44301E+08        -0.42515E+06         0.00000E+00
   -0.42515E+06        -0.52448E+08         0.00000E+00
    0.00000E+00         0.00000E+00        -0.26462E+08
 
   -0.42821E+08        -0.34385E+06         0.00000E+00
   -0.34385E+06        -0.51688E+08         0.00000E+00
    0.00000E+00         0.00000E+00        -0.26014E+08
 
   -0.41380E+08        -0.25711E+06         0.00000E+00
   -0.25711E+06        -0.51095E+08         0.00000E+00
    0.00000E+00         0.00000E+00        -0.25607E+08
 
   -0.39886E+08        -0.16142E+06         0.00000E+00
   -0.16142E+06        -0.50682E+08         0.00000E+00
    0.00000E+00         0.00000E+00        -0.25226E+08
 
   -0.38239E+08        -0.50776E+05         0.00000E+00
   -0.50776E+05        -0.50474E+08         0.00000E+00
    0.00000E+00         0.00000E+00        -0.24855E+08
 
   -0.36310E+08         0.85630E+05         0.00000E+00
    0.85630E+05        -0.50512E+08         0.00000E+00
    0.00000E+00         0.00000E+00        -0.24476E+08
 
   -0.33908E+08         0.27063E+06         0.00000E+00
    0.27063E+06        -0.50869E+08         0.00000E+00
    0.00000E+00         0.00000E+00        -0.24067E+08
 
   -0.30687E+08         0.55509E+06         0.00000E+00
    0.55509E+06        -0.51695E+08         0.00000E+00
    0.00000E+00         0.00000E+00        -0.23588E+08
 
   -0.25672E+08         0.12603E+07         0.00000E+00
    0.12603E+07        -0.53402E+08         0.00000E+00
    0.00000E+00         0.00000E+00        -0.22927E+08
 
SCALARS stressS double 
LOOKUP_TABLE default
  -54221356.7115357     
  -54695688.6410924     
  -55128623.1921889     
  -55536571.2824998     
  -55923560.4981828     
  -56290973.4283618     
  -56639233.2215532     
  -56968469.1142804     
  -57278777.8589496     
  -57570352.3727188     
  -57843580.9825251     
  -58099197.0961925     
  -58338650.3633494     
  -58564980.3710600     
  -58789383.6633231     
  -54175387.0612696     
  -54614632.6950313     
  -55039687.5351643     
  -55444830.8228447     
  -55830922.0854724     
  -56198091.9457549     
  -56546302.2981939     
  -56875481.5025131     
  -57185628.4442400     
  -57476861.1084841     
  -57749452.5730759     
  -58003891.2221238     
  -58240924.4952024     
  -58461987.5089145     
  -58662894.2080987     
  -54128015.7993576     
  -54548567.7525153     
  -54963823.6334222     
  -55365753.2760936     
  -55750878.2147105     
  -56117914.9838480     
  -56466177.1619693     
  -56795314.8180748     
  -57105192.0693551     
  -57395825.2941199     
  -57667331.6949185     
  -57919849.2345841     
  -58153412.9332083     
  -58366852.8286815     
  -58557574.4092087     
  -54063725.2832433     
  -54480369.4411875     
  -54892516.6778840     
  -55293302.6679494     
  -55678564.2450229     
  -56046071.1003296     
  -56394703.4538517     
  -56723914.0629664     
  -57033486.8566021     
  -57323383.4837400     
  -57593616.2741241     
  -57844103.2998047     
  -58074359.5107899     
  -58283224.3256567     
  -58468517.5892145     
  -53980109.7568331     
  -54402942.0614402     
  -54818721.2748468     
  -55222067.9413358     
  -55609322.8936730     
  -55978276.5707709     
  -56327745.4146993     
  -56657193.3932433     
  -56966456.9200656     
  -57255553.6440065     
  -57524522.1204244     
  -57773247.9047892     
  -58001284.7446997     
  -58207668.5590526     
  -58390856.0684508     
  -53877287.2142365     
  -54313552.6516566     
  -54738358.9217467     
  -55147768.0257061     
  -55539030.5889645     
  -55910462.1921148     
  -56261208.8446879     
  -56590989.4251013     
  -56899868.2886258     
  -57188067.1600225     
  -57455803.2965586     
  -57703142.2088672     
  -57929861.5594988     
  -58135353.8675309     
  -58318591.6340361     
  -53756487.8871231     
  -54211363.3515516     
  -54649154.8759112     
  -55067309.5331905     
  -55464156.0689707     
  -55838812.3061080     
  -56191029.1830664     
  -56521007.8885000     
  -56829220.1111719     
  -57116245.6290490     
  -57382629.3410230     
  -57628756.2935088     
  -57854749.2462949     
  -58060398.1119119     
  -58245136.2009928     
  -53619594.0761212     
  -54096553.2936350     
  -54549879.7078269     
  -54978408.7301175     
  -55381652.6078387     
  -55759705.6377663     
  -56113119.2979306     
  -56442760.9570182     
  -56749671.0383356     
  -57034928.8953350     
  -57299532.4396593     
  -57544294.4210710     
  -57769758.7656333     
  -57976142.4376416     
  -58163307.4636930     
  -53468984.7343338     
  -53969916.6516384     
  -54439918.3879012     
  -54879269.5973128     
  -55288763.5605245     
  -55669602.9724915     
  -56023287.7718578     
  -56351498.1526438     
  -56655978.7042310     
  -56938429.1384897     
  -57200405.4121829     
  -57443233.8249170     
  -57667940.4336089     
  -57875197.9759768     
  -58065291.7092237     
  -53307455.9593727     
  -53832652.4463633     
  -54319010.0928054     
  -54768347.4981959     
  -55182842.2357283     
  -55564919.5489188     
  -55917147.6297343     
  -56242137.5651715     
  -56542448.6509993     
  -56820500.6207374     
  -57078494.1727426     
  -57318340.7809676     
  -57541602.4507933     
  -57749441.7444832     
  -57942581.6839846     
  -53138166.4199567     
  -53686232.8590548     
  -54187077.7935304     
  -54644178.3004189     
  -55061205.2234409     
  -55441910.6431230     
  -55790031.5869129     
  -56109205.4200806     
  -56402894.4193882     
  -56674318.1124758     
  -56926392.3599518     
  -57161674.2159668     
  -57382311.5509556     
  -57589996.2799705     
  -57785919.7598345     
  -52964585.8602033     
  -53532306.2428558     
  -54044105.8851195     
  -54505252.2807098     
  -54921019.1735082     
  -55296580.1203406     
  -55636924.7380224     
  -55946791.6035536     
  -56230613.2329209     
  -56492469.4589199     
  -56736046.0231947     
  -56964595.4904696     
  -57180897.8213928     
  -57387218.1549193     
  -57585259.5393441     
  -52790436.9404542     
  -53372614.3918056     
  -53890044.6863163     
  -54349918.7785188     
  -54759216.6148507     
  -55124614.6716448     
  -55452420.5085996     
  -55748527.5102884     
  -56018383.7916326     
  -56266969.7334648     
  -56498778.9698877     
  -56717798.0233178     
  -56927480.2656690     
  -57130710.4909137     
  -57329757.0770443     
  -52619624.8863183     
  -53208913.6892364     
  -53724730.2506761     
  -54176312.6960995     
  -54572436.4853058     
  -54921343.7949512     
  -55230703.0143200     
  -55507591.2265733     
  -55758492.5273228     
  -55989304.9148197     
  -56205348.5308283     
  -56411368.3945895     
  -56611525.5025896     
  -56809371.2208503     
  -57007801.1665462     
  -52456151.4601633     
  -53042894.1327218     
  -53547812.4817374     
  -53982296.7220878     
  -54356985.5131952     
  -54681724.4156109     
  -54965557.2960668     
  -55216743.6724347     
  -55442793.7907846     
  -55650512.2308189     
  -55846040.4131870     
  -56034888.6935611     
  -56221949.7620525     
  -56411486.6880469     
  -56607090.9496508     
  -52304010.9694407     
  -52876092.1245489     
  -53358686.2620520     
  -53765413.9704611     
  -54108816.2503595     
  -54400347.8155442     
  -54650407.3007522     
  -54868397.7924579     
  -55062808.1228468     
  -55241303.1256088     
  -55410810.0197796     
  -55577588.3816578     
  -55747272.6543587     
  -55924878.5573312     
  -56114767.7457301     
  -52167067.0097402     
  -52709793.4043587     
  -53156420.1198808     
  -53522844.7827029     
  -53823515.9579025     
  -54071464.5558911     
  -54278379.4344161     
  -54454721.0292455     
  -54609861.1889758     
  -54752233.4596975     
  -54889476.3617229     
  -55028552.6525527     
  -55175829.8111590     
  -55337110.5378459     
  -55517606.4365886     
  -52048909.6178518     
  -52544921.8668883     
  -52939675.0252795     
  -53251358.6555700     
  -53496297.3883312     
  -53689019.9758325     
  -53842386.7713792     
  -53967769.0825656     
  -54075264.2452754     
  -54173924.2587369     
  -54271973.6496220     
  -54376993.2954317     
  -54496050.4094293     
  -54635760.0780529     
  -54802270.0412435     
  -51952693.4489256     
  -52381907.9969881     
  -52706601.8376918     
  -52947247.2005728     
  -53121977.4272509     
  -53246688.4054559     
  -53335225.5084041     
  -53399646.4520211     
  -53450535.3673515     
  -53497335.3612216     
  -53548665.1126959     
  -53612587.6778978     
  -53696805.0363360     
  -53808759.1839191     
  -53955629.4472388     
  -51880958.1579406     
  -52220526.4098229     
  -52454698.6792013     
  -52606215.8369963     
  -52694922.0509901     
  -52737888.3404614     
  -52749671.1897907     
  -52742686.8083684     
  -52727659.4855191     
  -52714094.0823622     
  -52710724.0173485     
  -52725892.1665552     
  -52767829.8284443     
  -52844808.2332049     
  -52965148.8646795     
  -51835431.5144658     
  -52059683.6339210     
  -52180596.9849772     
  -52223199.0119246     
  -52208925.4940650     
  -52155753.6788554     
  -52078558.2145968     
  -51989644.4930160     
  -51899385.0699717     
  -51816881.9900607     
  -51750588.8435722     
  -51708838.8854343     
  -51700235.2147070     
  -51733867.8193809     
  -51819336.7396077     
  -51816812.0398546     
  -51897120.9234247     
  -51879723.0524033     
  -51792043.4910097     
  -51656977.3538120     
  -51493028.7447815     
  -51314823.6802546     
  -51133888.5648071     
  -50959556.6242922     
  -50799885.4115506     
  -50662503.7004793     
  -50555330.4301375     
  -50487113.4762460     
  -50467737.6522882     
  -50508262.0273057     
  -51824517.1969983     
  -51728963.9990515     
  -51545742.3147160     
  -51304972.2719369     
  -51030854.0305338     
  -50741850.5128691     
  -50451499.1720801     
  -50169594.5230524     
  -49903485.0768040     
  -49659318.5391847     
  -49443161.6920317     
  -49261957.6265128     
  -49124272.0905716     
  -49040741.0838441     
  -49024137.9305502     
  -51856355.6052245     
  -51548983.1367577     
  -51169618.4630304     
  -50751691.5265541     
  -50320454.8020702     
  -49893389.3170502     
  -49481648.8657976     
  -49091938.6125461     
  -48728360.1153717     
  -48394029.2582654     
  -48092475.4133548     
  -47828884.8245470     
  -47611144.7430964     
  -47450556.9207583     
  -47361981.1687046     
  -51908016.8661238     
  -51347270.8806841     
  -50737972.4270538     
  -50117927.5206581     
  -49512806.1178536     
  -48937362.8522400     
  -48398292.4422430     
  -47897315.9143169     
  -47433704.3926901     
  -47006182.1684299     
  -46614504.6682339     
  -46260971.6606829     
  -45951991.9074521     
  -45699287.0878618     
  -45520376.2225269     
  -51972077.3329300     
  -51107679.0793369     
  -50230113.1567722     
  -49383095.6145258     
  -48590747.1883096     
  -47861562.4019161     
  -47194437.1697794     
  -46583622.9402146     
  -46021832.8034445     
  -45501977.4764411     
  -45018520.1790099     
  -44569275.2330587     
  -44157584.1169706     
  -43795009.1924316     
  -43502404.2011505     
  -52035750.8517883     
  -50802246.1251382     
  -49612517.7465273     
  -48516858.1231084     
  -47531652.5397189     
  -46651849.4663884     
  -45863429.4696052     
  -45150653.8827168     
  -44498238.8917490     
  -43892157.9931834     
  -43320177.8235169     
  -42772922.9482321     
  -42248037.1490371     
  -41754204.8644217     
  -41317083.8439698     
  -52073669.1992459     
  -50378103.2377947     
  -48828386.4463817     
  -47475227.8834397     
  -46307935.9464547     
  -45293224.9938429     
  -44399893.7620306     
  -43600639.8736025     
  -42871750.8202173     
  -42192016.7277573     
  -41541700.4102075     
  -40902204.8834829     
  -40256699.7367059     
  -39607812.6884835     
  -38981281.7378761     
  -52025159.4381941     
  -49718720.5046870     
  -47781489.6339662     
  -46204711.6787248     
  -44890646.1697689     
  -43772652.2659531     
  -42801352.7718491     
  -41938898.0131907     
  -41154346.2020361     
  -40420401.1995705     
  -39710647.4808401     
  -38996546.4560234     
  -38244777.7557849     
  -37407938.2325618     
  -36530542.9801761     
  -51618299.1891083     
  -48554228.6280482     
  -46366858.0481348     
  -44654515.0994802     
  -43257693.8013145     
  -42083304.2995412     
  -41070326.3296260     
  -40174466.7625327     
  -39360574.1691807     
  -38597835.4727869     
  -37855787.3797037     
  -37099613.8017876     
  -36281599.9011377     
  -35323546.7190230     
  -34000216.1058727     
SCALARS 2waySource double 
LOOKUP_TABLE default
  0.000000000000000E+000
  0.000000000000000E+000
  0.000000000000000E+000
  0.000000000000000E+000
  0.000000000000000E+000
  0.000000000000000E+000
  0.000000000000000E+000
  0.000000000000000E+000
  0.000000000000000E+000
  0.000000000000000E+000
  0.000000000000000E+000
  0.000000000000000E+000
  0.000000000000000E+000
  0.000000000000000E+000
  0.000000000000000E+000
  0.000000000000000E+000
  0.000000000000000E+000
  0.000000000000000E+000
  0.000000000000000E+000
  0.000000000000000E+000
  0.000000000000000E+000
  0.000000000000000E+000
  0.000000000000000E+000
  0.000000000000000E+000
  0.000000000000000E+000
  0.000000000000000E+000
  0.000000000000000E+000
  0.000000000000000E+000
  0.000000000000000E+000
  0.000000000000000E+000
  0.000000000000000E+000
  0.000000000000000E+000
  0.000000000000000E+000
  0.000000000000000E+000
  0.000000000000000E+000
  0.000000000000000E+000
  0.000000000000000E+000
  0.000000000000000E+000
  0.000000000000000E+000
  0.000000000000000E+000
  0.000000000000000E+000
  0.000000000000000E+000
  0.000000000000000E+000
  0.000000000000000E+000
  0.000000000000000E+000
  0.000000000000000E+000
  0.000000000000000E+000
  0.000000000000000E+000
  0.000000000000000E+000
  0.000000000000000E+000
  0.000000000000000E+000
  0.000000000000000E+000
  0.000000000000000E+000
  0.000000000000000E+000
  0.000000000000000E+000
  0.000000000000000E+000
  0.000000000000000E+000
  0.000000000000000E+000
  0.000000000000000E+000
  0.000000000000000E+000
  0.000000000000000E+000
  0.000000000000000E+000
  0.000000000000000E+000
  0.000000000000000E+000
  0.000000000000000E+000
  0.000000000000000E+000
  0.000000000000000E+000
  0.000000000000000E+000
  0.000000000000000E+000
  0.000000000000000E+000
  0.000000000000000E+000
  0.000000000000000E+000
  0.000000000000000E+000
  0.000000000000000E+000
  0.000000000000000E+000
  0.000000000000000E+000
  0.000000000000000E+000
  0.000000000000000E+000
  0.000000000000000E+000
  0.000000000000000E+000
  0.000000000000000E+000
  0.000000000000000E+000
  0.000000000000000E+000
  0.000000000000000E+000
  0.000000000000000E+000
  0.000000000000000E+000
  0.000000000000000E+000
  0.000000000000000E+000
  0.000000000000000E+000
  0.000000000000000E+000
  0.000000000000000E+000
  0.000000000000000E+000
  0.000000000000000E+000
  0.000000000000000E+000
  0.000000000000000E+000
  0.000000000000000E+000
  0.000000000000000E+000
  0.000000000000000E+000
  0.000000000000000E+000
  0.000000000000000E+000
  0.000000000000000E+000
  0.000000000000000E+000
  0.000000000000000E+000
  0.000000000000000E+000
  0.000000000000000E+000
  0.000000000000000E+000
  0.000000000000000E+000
  0.000000000000000E+000
  0.000000000000000E+000
  0.000000000000000E+000
  0.000000000000000E+000
  0.000000000000000E+000
  0.000000000000000E+000
  0.000000000000000E+000
  0.000000000000000E+000
  0.000000000000000E+000
  0.000000000000000E+000
  0.000000000000000E+000
  0.000000000000000E+000
  0.000000000000000E+000
  0.000000000000000E+000
  0.000000000000000E+000
  0.000000000000000E+000
  0.000000000000000E+000
  0.000000000000000E+000
  0.000000000000000E+000
  0.000000000000000E+000
  0.000000000000000E+000
  0.000000000000000E+000
  0.000000000000000E+000
  0.000000000000000E+000
  0.000000000000000E+000
  0.000000000000000E+000
  0.000000000000000E+000
  0.000000000000000E+000
  0.000000000000000E+000
  0.000000000000000E+000
  0.000000000000000E+000
  0.000000000000000E+000
  0.000000000000000E+000
  0.000000000000000E+000
  0.000000000000000E+000
  0.000000000000000E+000
  0.000000000000000E+000
  0.000000000000000E+000
  0.000000000000000E+000
  0.000000000000000E+000
  0.000000000000000E+000
  0.000000000000000E+000
  0.000000000000000E+000
  0.000000000000000E+000
  0.000000000000000E+000
  0.000000000000000E+000
  0.000000000000000E+000
  0.000000000000000E+000
  0.000000000000000E+000
  0.000000000000000E+000
  0.000000000000000E+000
  0.000000000000000E+000
  0.000000000000000E+000
  0.000000000000000E+000
  0.000000000000000E+000
  0.000000000000000E+000
  0.000000000000000E+000
  0.000000000000000E+000
  0.000000000000000E+000
  0.000000000000000E+000
  0.000000000000000E+000
  0.000000000000000E+000
  0.000000000000000E+000
  0.000000000000000E+000
  0.000000000000000E+000
  0.000000000000000E+000
  0.000000000000000E+000
  0.000000000000000E+000
  0.000000000000000E+000
  0.000000000000000E+000
  0.000000000000000E+000
  0.000000000000000E+000
  0.000000000000000E+000
  0.000000000000000E+000
  0.000000000000000E+000
  0.000000000000000E+000
  0.000000000000000E+000
  0.000000000000000E+000
  0.000000000000000E+000
  0.000000000000000E+000
  0.000000000000000E+000
  0.000000000000000E+000
  0.000000000000000E+000
  0.000000000000000E+000
  0.000000000000000E+000
  0.000000000000000E+000
  0.000000000000000E+000
  0.000000000000000E+000
  0.000000000000000E+000
  0.000000000000000E+000
  0.000000000000000E+000
  0.000000000000000E+000
  0.000000000000000E+000
  0.000000000000000E+000
  0.000000000000000E+000
  0.000000000000000E+000
  0.000000000000000E+000
  0.000000000000000E+000
  0.000000000000000E+000
  0.000000000000000E+000
  0.000000000000000E+000
  0.000000000000000E+000
  0.000000000000000E+000
  0.000000000000000E+000
  0.000000000000000E+000
  0.000000000000000E+000
  0.000000000000000E+000
  0.000000000000000E+000
  0.000000000000000E+000
  0.000000000000000E+000
  0.000000000000000E+000
  0.000000000000000E+000
  0.000000000000000E+000
  0.000000000000000E+000
  0.000000000000000E+000
  0.000000000000000E+000
  0.000000000000000E+000
  0.000000000000000E+000
  0.000000000000000E+000
  0.000000000000000E+000
  0.000000000000000E+000
  0.000000000000000E+000
  0.000000000000000E+000
  0.000000000000000E+000
  0.000000000000000E+000
  0.000000000000000E+000
  0.000000000000000E+000
  0.000000000000000E+000
  0.000000000000000E+000
  0.000000000000000E+000
  0.000000000000000E+000
  0.000000000000000E+000
  0.000000000000000E+000
  0.000000000000000E+000
  0.000000000000000E+000
  0.000000000000000E+000
  0.000000000000000E+000
  0.000000000000000E+000
  0.000000000000000E+000
  0.000000000000000E+000
  0.000000000000000E+000
  0.000000000000000E+000
  0.000000000000000E+000
  0.000000000000000E+000
  0.000000000000000E+000
  0.000000000000000E+000
  0.000000000000000E+000
  0.000000000000000E+000
  0.000000000000000E+000
  0.000000000000000E+000
  0.000000000000000E+000
  0.000000000000000E+000
  0.000000000000000E+000
  0.000000000000000E+000
  0.000000000000000E+000
  0.000000000000000E+000
  0.000000000000000E+000
  0.000000000000000E+000
  0.000000000000000E+000
  0.000000000000000E+000
  0.000000000000000E+000
  0.000000000000000E+000
  0.000000000000000E+000
  0.000000000000000E+000
  0.000000000000000E+000
  0.000000000000000E+000
  0.000000000000000E+000
  0.000000000000000E+000
  0.000000000000000E+000
  0.000000000000000E+000
  0.000000000000000E+000
  0.000000000000000E+000
  0.000000000000000E+000
  0.000000000000000E+000
  0.000000000000000E+000
  0.000000000000000E+000
  0.000000000000000E+000
  0.000000000000000E+000
  0.000000000000000E+000
  0.000000000000000E+000
  0.000000000000000E+000
  0.000000000000000E+000
  0.000000000000000E+000
  0.000000000000000E+000
  0.000000000000000E+000
  0.000000000000000E+000
  0.000000000000000E+000
  0.000000000000000E+000
  0.000000000000000E+000
  0.000000000000000E+000
  0.000000000000000E+000
  0.000000000000000E+000
  0.000000000000000E+000
  0.000000000000000E+000
  0.000000000000000E+000
  0.000000000000000E+000
  0.000000000000000E+000
  0.000000000000000E+000
  0.000000000000000E+000
  0.000000000000000E+000
  0.000000000000000E+000
  0.000000000000000E+000
  0.000000000000000E+000
  0.000000000000000E+000
  0.000000000000000E+000
  0.000000000000000E+000
  0.000000000000000E+000
  0.000000000000000E+000
  0.000000000000000E+000
  0.000000000000000E+000
  0.000000000000000E+000
  0.000000000000000E+000
  0.000000000000000E+000
  0.000000000000000E+000
  0.000000000000000E+000
  0.000000000000000E+000
  0.000000000000000E+000
  0.000000000000000E+000
  0.000000000000000E+000
  0.000000000000000E+000
  0.000000000000000E+000
  0.000000000000000E+000
  0.000000000000000E+000
  0.000000000000000E+000
  0.000000000000000E+000
  0.000000000000000E+000
  0.000000000000000E+000
  0.000000000000000E+000
  0.000000000000000E+000
  0.000000000000000E+000
  0.000000000000000E+000
  0.000000000000000E+000
  0.000000000000000E+000
  0.000000000000000E+000
  0.000000000000000E+000
  0.000000000000000E+000
  0.000000000000000E+000
  0.000000000000000E+000
  0.000000000000000E+000
  0.000000000000000E+000
  0.000000000000000E+000
  0.000000000000000E+000
  0.000000000000000E+000
  0.000000000000000E+000
  0.000000000000000E+000
  0.000000000000000E+000
  0.000000000000000E+000
  0.000000000000000E+000
  0.000000000000000E+000
  0.000000000000000E+000
  0.000000000000000E+000
  0.000000000000000E+000
  0.000000000000000E+000
  0.000000000000000E+000
  0.000000000000000E+000
  0.000000000000000E+000
  0.000000000000000E+000
  0.000000000000000E+000
  0.000000000000000E+000
  0.000000000000000E+000
  0.000000000000000E+000
  0.000000000000000E+000
  0.000000000000000E+000
  0.000000000000000E+000
  0.000000000000000E+000
  0.000000000000000E+000
  0.000000000000000E+000
  0.000000000000000E+000
  0.000000000000000E+000
  0.000000000000000E+000
  0.000000000000000E+000
  0.000000000000000E+000
  0.000000000000000E+000
  0.000000000000000E+000
  0.000000000000000E+000
  0.000000000000000E+000
  0.000000000000000E+000
  0.000000000000000E+000
  0.000000000000000E+000
  0.000000000000000E+000
  0.000000000000000E+000
  0.000000000000000E+000
  0.000000000000000E+000
  0.000000000000000E+000
  0.000000000000000E+000
  0.000000000000000E+000
  0.000000000000000E+000
  0.000000000000000E+000
  0.000000000000000E+000
  0.000000000000000E+000
  0.000000000000000E+000
  0.000000000000000E+000
  0.000000000000000E+000
  0.000000000000000E+000
  0.000000000000000E+000
  0.000000000000000E+000
  0.000000000000000E+000
  0.000000000000000E+000
  0.000000000000000E+000
  0.000000000000000E+000
  0.000000000000000E+000
  0.000000000000000E+000
  0.000000000000000E+000
  0.000000000000000E+000
  0.000000000000000E+000
  0.000000000000000E+000
  0.000000000000000E+000
  0.000000000000000E+000
  0.000000000000000E+000
  0.000000000000000E+000
  0.000000000000000E+000
  0.000000000000000E+000
  0.000000000000000E+000
  0.000000000000000E+000
  0.000000000000000E+000
  0.000000000000000E+000
  0.000000000000000E+000
  0.000000000000000E+000
  0.000000000000000E+000
  0.000000000000000E+000
  0.000000000000000E+000
  0.000000000000000E+000
  0.000000000000000E+000
  0.000000000000000E+000
  0.000000000000000E+000
  0.000000000000000E+000
  0.000000000000000E+000
  0.000000000000000E+000
  0.000000000000000E+000
  0.000000000000000E+000
  0.000000000000000E+000
  0.000000000000000E+000
  0.000000000000000E+000
  0.000000000000000E+000
  0.000000000000000E+000
  0.000000000000000E+000
  0.000000000000000E+000
  0.000000000000000E+000
  0.000000000000000E+000
  0.000000000000000E+000
  0.000000000000000E+000
  0.000000000000000E+000
  0.000000000000000E+000
SCALARS poroP double 
LOOKUP_TABLE default
  0.000000000000000E+000
  0.000000000000000E+000
  0.000000000000000E+000
  0.000000000000000E+000
  0.000000000000000E+000
  0.000000000000000E+000
  0.000000000000000E+000
  0.000000000000000E+000
  0.000000000000000E+000
  0.000000000000000E+000
  0.000000000000000E+000
  0.000000000000000E+000
  0.000000000000000E+000
  0.000000000000000E+000
  0.000000000000000E+000
  0.000000000000000E+000
  0.000000000000000E+000
  0.000000000000000E+000
  0.000000000000000E+000
  0.000000000000000E+000
  0.000000000000000E+000
  0.000000000000000E+000
  0.000000000000000E+000
  0.000000000000000E+000
  0.000000000000000E+000
  0.000000000000000E+000
  0.000000000000000E+000
  0.000000000000000E+000
  0.000000000000000E+000
  0.000000000000000E+000
  0.000000000000000E+000
  0.000000000000000E+000
  0.000000000000000E+000
  0.000000000000000E+000
  0.000000000000000E+000
  0.000000000000000E+000
  0.000000000000000E+000
  0.000000000000000E+000
  0.000000000000000E+000
  0.000000000000000E+000
  0.000000000000000E+000
  0.000000000000000E+000
  0.000000000000000E+000
  0.000000000000000E+000
  0.000000000000000E+000
  0.000000000000000E+000
  0.000000000000000E+000
  0.000000000000000E+000
  0.000000000000000E+000
  0.000000000000000E+000
  0.000000000000000E+000
  0.000000000000000E+000
  0.000000000000000E+000
  0.000000000000000E+000
  0.000000000000000E+000
  0.000000000000000E+000
  0.000000000000000E+000
  0.000000000000000E+000
  0.000000000000000E+000
  0.000000000000000E+000
  0.000000000000000E+000
  0.000000000000000E+000
  0.000000000000000E+000
  0.000000000000000E+000
  0.000000000000000E+000
  0.000000000000000E+000
  0.000000000000000E+000
  0.000000000000000E+000
  0.000000000000000E+000
  0.000000000000000E+000
  0.000000000000000E+000
  0.000000000000000E+000
  0.000000000000000E+000
  0.000000000000000E+000
  0.000000000000000E+000
  0.000000000000000E+000
  0.000000000000000E+000
  0.000000000000000E+000
  0.000000000000000E+000
  0.000000000000000E+000
  0.000000000000000E+000
  0.000000000000000E+000
  0.000000000000000E+000
  0.000000000000000E+000
  0.000000000000000E+000
  0.000000000000000E+000
  0.000000000000000E+000
  0.000000000000000E+000
  0.000000000000000E+000
  0.000000000000000E+000
  0.000000000000000E+000
  0.000000000000000E+000
  0.000000000000000E+000
  0.000000000000000E+000
  0.000000000000000E+000
  0.000000000000000E+000
  0.000000000000000E+000
  0.000000000000000E+000
  0.000000000000000E+000
  0.000000000000000E+000
  0.000000000000000E+000
  0.000000000000000E+000
  0.000000000000000E+000
  0.000000000000000E+000
  0.000000000000000E+000
  0.000000000000000E+000
  0.000000000000000E+000
  0.000000000000000E+000
  0.000000000000000E+000
  0.000000000000000E+000
  0.000000000000000E+000
  0.000000000000000E+000
  0.000000000000000E+000
  0.000000000000000E+000
  0.000000000000000E+000
  0.000000000000000E+000
  0.000000000000000E+000
  0.000000000000000E+000
  0.000000000000000E+000
  0.000000000000000E+000
  0.000000000000000E+000
  0.000000000000000E+000
  0.000000000000000E+000
  0.000000000000000E+000
  0.000000000000000E+000
  0.000000000000000E+000
  0.000000000000000E+000
  0.000000000000000E+000
  0.000000000000000E+000
  0.000000000000000E+000
  0.000000000000000E+000
  0.000000000000000E+000
  0.000000000000000E+000
  0.000000000000000E+000
  0.000000000000000E+000
  0.000000000000000E+000
  0.000000000000000E+000
  0.000000000000000E+000
  0.000000000000000E+000
  0.000000000000000E+000
  0.000000000000000E+000
  0.000000000000000E+000
  0.000000000000000E+000
  0.000000000000000E+000
  0.000000000000000E+000
  0.000000000000000E+000
  0.000000000000000E+000
  0.000000000000000E+000
  0.000000000000000E+000
  0.000000000000000E+000
  0.000000000000000E+000
  0.000000000000000E+000
  0.000000000000000E+000
  0.000000000000000E+000
  0.000000000000000E+000
  0.000000000000000E+000
  0.000000000000000E+000
  0.000000000000000E+000
  0.000000000000000E+000
  0.000000000000000E+000
  0.000000000000000E+000
  0.000000000000000E+000
  0.000000000000000E+000
  0.000000000000000E+000
  0.000000000000000E+000
  0.000000000000000E+000
  0.000000000000000E+000
  0.000000000000000E+000
  0.000000000000000E+000
  0.000000000000000E+000
  0.000000000000000E+000
  0.000000000000000E+000
  0.000000000000000E+000
  0.000000000000000E+000
  0.000000000000000E+000
  0.000000000000000E+000
  0.000000000000000E+000
  0.000000000000000E+000
  0.000000000000000E+000
  0.000000000000000E+000
  0.000000000000000E+000
  0.000000000000000E+000
  0.000000000000000E+000
  0.000000000000000E+000
  0.000000000000000E+000
  0.000000000000000E+000
  0.000000000000000E+000
  0.000000000000000E+000
  0.000000000000000E+000
  0.000000000000000E+000
  0.000000000000000E+000
  0.000000000000000E+000
  0.000000000000000E+000
  0.000000000000000E+000
  0.000000000000000E+000
  0.000000000000000E+000
  0.000000000000000E+000
  0.000000000000000E+000
  0.000000000000000E+000
  0.000000000000000E+000
  0.000000000000000E+000
  0.000000000000000E+000
  0.000000000000000E+000
  0.000000000000000E+000
  0.000000000000000E+000
  0.000000000000000E+000
  0.000000000000000E+000
  0.000000000000000E+000
  0.000000000000000E+000
  0.000000000000000E+000
  0.000000000000000E+000
  0.000000000000000E+000
  0.000000000000000E+000
  0.000000000000000E+000
  0.000000000000000E+000
  0.000000000000000E+000
  0.000000000000000E+000
  0.000000000000000E+000
  0.000000000000000E+000
  0.000000000000000E+000
  0.000000000000000E+000
  0.000000000000000E+000
  0.000000000000000E+000
  0.000000000000000E+000
  0.000000000000000E+000
  0.000000000000000E+000
  0.000000000000000E+000
  0.000000000000000E+000
  0.000000000000000E+000
  0.000000000000000E+000
  0.000000000000000E+000
  0.000000000000000E+000
  0.000000000000000E+000
  0.000000000000000E+000
  0.000000000000000E+000
  0.000000000000000E+000
  0.000000000000000E+000
  0.000000000000000E+000
  0.000000000000000E+000
  0.000000000000000E+000
  0.000000000000000E+000
  0.000000000000000E+000
  0.000000000000000E+000
  0.000000000000000E+000
  0.000000000000000E+000
  0.000000000000000E+000
  0.000000000000000E+000
  0.000000000000000E+000
  0.000000000000000E+000
  0.000000000000000E+000
  0.000000000000000E+000
  0.000000000000000E+000
  0.000000000000000E+000
  0.000000000000000E+000
  0.000000000000000E+000
  0.000000000000000E+000
  0.000000000000000E+000
  0.000000000000000E+000
  0.000000000000000E+000
  0.000000000000000E+000
  0.000000000000000E+000
  0.000000000000000E+000
  0.000000000000000E+000
  0.000000000000000E+000
  0.000000000000000E+000
  0.000000000000000E+000
  0.000000000000000E+000
  0.000000000000000E+000
  0.000000000000000E+000
  0.000000000000000E+000
  0.000000000000000E+000
  0.000000000000000E+000
  0.000000000000000E+000
  0.000000000000000E+000
  0.000000000000000E+000
  0.000000000000000E+000
  0.000000000000000E+000
  0.000000000000000E+000
  0.000000000000000E+000
  0.000000000000000E+000
  0.000000000000000E+000
  0.000000000000000E+000
  0.000000000000000E+000
  0.000000000000000E+000
  0.000000000000000E+000
  0.000000000000000E+000
  0.000000000000000E+000
  0.000000000000000E+000
  0.000000000000000E+000
  0.000000000000000E+000
  0.000000000000000E+000
  0.000000000000000E+000
  0.000000000000000E+000
  0.000000000000000E+000
  0.000000000000000E+000
  0.000000000000000E+000
  0.000000000000000E+000
  0.000000000000000E+000
  0.000000000000000E+000
  0.000000000000000E+000
  0.000000000000000E+000
  0.000000000000000E+000
  0.000000000000000E+000
  0.000000000000000E+000
  0.000000000000000E+000
  0.000000000000000E+000
  0.000000000000000E+000
  0.000000000000000E+000
  0.000000000000000E+000
  0.000000000000000E+000
  0.000000000000000E+000
  0.000000000000000E+000
  0.000000000000000E+000
  0.000000000000000E+000
  0.000000000000000E+000
  0.000000000000000E+000
  0.000000000000000E+000
  0.000000000000000E+000
  0.000000000000000E+000
  0.000000000000000E+000
  0.000000000000000E+000
  0.000000000000000E+000
  0.000000000000000E+000
  0.000000000000000E+000
  0.000000000000000E+000
  0.000000000000000E+000
  0.000000000000000E+000
  0.000000000000000E+000
  0.000000000000000E+000
  0.000000000000000E+000
  0.000000000000000E+000
  0.000000000000000E+000
  0.000000000000000E+000
  0.000000000000000E+000
  0.000000000000000E+000
  0.000000000000000E+000
  0.000000000000000E+000
  0.000000000000000E+000
  0.000000000000000E+000
  0.000000000000000E+000
  0.000000000000000E+000
  0.000000000000000E+000
  0.000000000000000E+000
  0.000000000000000E+000
  0.000000000000000E+000
  0.000000000000000E+000
  0.000000000000000E+000
  0.000000000000000E+000
  0.000000000000000E+000
  0.000000000000000E+000
  0.000000000000000E+000
  0.000000000000000E+000
  0.000000000000000E+000
  0.000000000000000E+000
  0.000000000000000E+000
  0.000000000000000E+000
  0.000000000000000E+000
  0.000000000000000E+000
  0.000000000000000E+000
  0.000000000000000E+000
  0.000000000000000E+000
  0.000000000000000E+000
  0.000000000000000E+000
  0.000000000000000E+000
  0.000000000000000E+000
  0.000000000000000E+000
  0.000000000000000E+000
  0.000000000000000E+000
  0.000000000000000E+000
  0.000000000000000E+000
  0.000000000000000E+000
  0.000000000000000E+000
  0.000000000000000E+000
  0.000000000000000E+000
  0.000000000000000E+000
  0.000000000000000E+000
  0.000000000000000E+000
  0.000000000000000E+000
  0.000000000000000E+000
  0.000000000000000E+000
  0.000000000000000E+000
  0.000000000000000E+000
  0.000000000000000E+000
  0.000000000000000E+000
  0.000000000000000E+000
  0.000000000000000E+000
  0.000000000000000E+000
  0.000000000000000E+000
  0.000000000000000E+000
  0.000000000000000E+000
  0.000000000000000E+000
  0.000000000000000E+000
  0.000000000000000E+000
  0.000000000000000E+000
  0.000000000000000E+000
  0.000000000000000E+000
  0.000000000000000E+000
  0.000000000000000E+000
  0.000000000000000E+000
  0.000000000000000E+000
  0.000000000000000E+000
  0.000000000000000E+000
  0.000000000000000E+000
  0.000000000000000E+000
  0.000000000000000E+000
  0.000000000000000E+000
  0.000000000000000E+000
  0.000000000000000E+000
  0.000000000000000E+000
  0.000000000000000E+000
  0.000000000000000E+000
  0.000000000000000E+000
  0.000000000000000E+000
  0.000000000000000E+000
  0.000000000000000E+000
  0.000000000000000E+000
  0.000000000000000E+000
  0.000000000000000E+000
  0.000000000000000E+000
  0.000000000000000E+000
  0.000000000000000E+000
  0.000000000000000E+000
  0.000000000000000E+000
  0.000000000000000E+000
  0.000000000000000E+000
  0.000000000000000E+000
  0.000000000000000E+000
  0.000000000000000E+000
  0.000000000000000E+000
  0.000000000000000E+000
  0.000000000000000E+000
  0.000000000000000E+000
  0.000000000000000E+000
  0.000000000000000E+000
  0.000000000000000E+000
  0.000000000000000E+000
  0.000000000000000E+000
  0.000000000000000E+000
  0.000000000000000E+000
  0.000000000000000E+000
  0.000000000000000E+000
  0.000000000000000E+000
  0.000000000000000E+000
  0.000000000000000E+000
  0.000000000000000E+000
  0.000000000000000E+000
  0.000000000000000E+000
  0.000000000000000E+000
  0.000000000000000E+000
  0.000000000000000E+000
SCALARS elementIsPlast double 
LOOKUP_TABLE default
  0.000000000000000E+000
  0.000000000000000E+000
  0.000000000000000E+000
  0.000000000000000E+000
  0.000000000000000E+000
  0.000000000000000E+000
  0.000000000000000E+000
  0.000000000000000E+000
  0.000000000000000E+000
  0.000000000000000E+000
  0.000000000000000E+000
  0.000000000000000E+000
  0.000000000000000E+000
  0.000000000000000E+000
  0.000000000000000E+000
  0.000000000000000E+000
  0.000000000000000E+000
  0.000000000000000E+000
  0.000000000000000E+000
  0.000000000000000E+000
  0.000000000000000E+000
  0.000000000000000E+000
  0.000000000000000E+000
  0.000000000000000E+000
  0.000000000000000E+000
  0.000000000000000E+000
  0.000000000000000E+000
  0.000000000000000E+000
  0.000000000000000E+000
  0.000000000000000E+000
  0.000000000000000E+000
  0.000000000000000E+000
  0.000000000000000E+000
  0.000000000000000E+000
  0.000000000000000E+000
  0.000000000000000E+000
  0.000000000000000E+000
  0.000000000000000E+000
  0.000000000000000E+000
  0.000000000000000E+000
  0.000000000000000E+000
  0.000000000000000E+000
  0.000000000000000E+000
  0.000000000000000E+000
  0.000000000000000E+000
  0.000000000000000E+000
  0.000000000000000E+000
  0.000000000000000E+000
  0.000000000000000E+000
  0.000000000000000E+000
  0.000000000000000E+000
  0.000000000000000E+000
  0.000000000000000E+000
  0.000000000000000E+000
  0.000000000000000E+000
  0.000000000000000E+000
  0.000000000000000E+000
  0.000000000000000E+000
  0.000000000000000E+000
  0.000000000000000E+000
  0.000000000000000E+000
  0.000000000000000E+000
  0.000000000000000E+000
  0.000000000000000E+000
  0.000000000000000E+000
  0.000000000000000E+000
  0.000000000000000E+000
  0.000000000000000E+000
  0.000000000000000E+000
  0.000000000000000E+000
  0.000000000000000E+000
  0.000000000000000E+000
  0.000000000000000E+000
  0.000000000000000E+000
  0.000000000000000E+000
  0.000000000000000E+000
  0.000000000000000E+000
  0.000000000000000E+000
  0.000000000000000E+000
  0.000000000000000E+000
  0.000000000000000E+000
  0.000000000000000E+000
  0.000000000000000E+000
  0.000000000000000E+000
  0.000000000000000E+000
  0.000000000000000E+000
  0.000000000000000E+000
  0.000000000000000E+000
  0.000000000000000E+000
  0.000000000000000E+000
  0.000000000000000E+000
  0.000000000000000E+000
  0.000000000000000E+000
  0.000000000000000E+000
  0.000000000000000E+000
  0.000000000000000E+000
  0.000000000000000E+000
  0.000000000000000E+000
  0.000000000000000E+000
  0.000000000000000E+000
  0.000000000000000E+000
  0.000000000000000E+000
  0.000000000000000E+000
  0.000000000000000E+000
  0.000000000000000E+000
  0.000000000000000E+000
  0.000000000000000E+000
  0.000000000000000E+000
  0.000000000000000E+000
  0.000000000000000E+000
  0.000000000000000E+000
  0.000000000000000E+000
  0.000000000000000E+000
  0.000000000000000E+000
  0.000000000000000E+000
  0.000000000000000E+000
  0.000000000000000E+000
  0.000000000000000E+000
  0.000000000000000E+000
  0.000000000000000E+000
  0.000000000000000E+000
  0.000000000000000E+000
  0.000000000000000E+000
  0.000000000000000E+000
  0.000000000000000E+000
  0.000000000000000E+000
  0.000000000000000E+000
  0.000000000000000E+000
  0.000000000000000E+000
  0.000000000000000E+000
  0.000000000000000E+000
  0.000000000000000E+000
  0.000000000000000E+000
  0.000000000000000E+000
  0.000000000000000E+000
  0.000000000000000E+000
  0.000000000000000E+000
  0.000000000000000E+000
  0.000000000000000E+000
  0.000000000000000E+000
  0.000000000000000E+000
  0.000000000000000E+000
  0.000000000000000E+000
  0.000000000000000E+000
  0.000000000000000E+000
  0.000000000000000E+000
  0.000000000000000E+000
  0.000000000000000E+000
  0.000000000000000E+000
  0.000000000000000E+000
  0.000000000000000E+000
  0.000000000000000E+000
  0.000000000000000E+000
  0.000000000000000E+000
  0.000000000000000E+000
  0.000000000000000E+000
  0.000000000000000E+000
  0.000000000000000E+000
  0.000000000000000E+000
  0.000000000000000E+000
  0.000000000000000E+000
  0.000000000000000E+000
  0.000000000000000E+000
  0.000000000000000E+000
  0.000000000000000E+000
  0.000000000000000E+000
  0.000000000000000E+000
  0.000000000000000E+000
  0.000000000000000E+000
  0.000000000000000E+000
  0.000000000000000E+000
  0.000000000000000E+000
  0.000000000000000E+000
  0.000000000000000E+000
  0.000000000000000E+000
  0.000000000000000E+000
  0.000000000000000E+000
  0.000000000000000E+000
  0.000000000000000E+000
  0.000000000000000E+000
  0.000000000000000E+000
  0.000000000000000E+000
  0.000000000000000E+000
  0.000000000000000E+000
  0.000000000000000E+000
  0.000000000000000E+000
  0.000000000000000E+000
  0.000000000000000E+000
  0.000000000000000E+000
  0.000000000000000E+000
  0.000000000000000E+000
  0.000000000000000E+000
  0.000000000000000E+000
  0.000000000000000E+000
  0.000000000000000E+000
  0.000000000000000E+000
  0.000000000000000E+000
  0.000000000000000E+000
  0.000000000000000E+000
  0.000000000000000E+000
  0.000000000000000E+000
  0.000000000000000E+000
  0.000000000000000E+000
  0.000000000000000E+000
  0.000000000000000E+000
  0.000000000000000E+000
  0.000000000000000E+000
  0.000000000000000E+000
  0.000000000000000E+000
  0.000000000000000E+000
  0.000000000000000E+000
  0.000000000000000E+000
  0.000000000000000E+000
  0.000000000000000E+000
  0.000000000000000E+000
  0.000000000000000E+000
  0.000000000000000E+000
  0.000000000000000E+000
  0.000000000000000E+000
  0.000000000000000E+000
  0.000000000000000E+000
  0.000000000000000E+000
  0.000000000000000E+000
  0.000000000000000E+000
  0.000000000000000E+000
  0.000000000000000E+000
  0.000000000000000E+000
  0.000000000000000E+000
  0.000000000000000E+000
  0.000000000000000E+000
  0.000000000000000E+000
  0.000000000000000E+000
  0.000000000000000E+000
  0.000000000000000E+000
  0.000000000000000E+000
  0.000000000000000E+000
  0.000000000000000E+000
  0.000000000000000E+000
  0.000000000000000E+000
  0.000000000000000E+000
  0.000000000000000E+000
  0.000000000000000E+000
  0.000000000000000E+000
  0.000000000000000E+000
  0.000000000000000E+000
  0.000000000000000E+000
  0.000000000000000E+000
  0.000000000000000E+000
  0.000000000000000E+000
  0.000000000000000E+000
  0.000000000000000E+000
  0.000000000000000E+000
  0.000000000000000E+000
  0.000000000000000E+000
  0.000000000000000E+000
  0.000000000000000E+000
  0.000000000000000E+000
  0.000000000000000E+000
  0.000000000000000E+000
  0.000000000000000E+000
  0.000000000000000E+000
  0.000000000000000E+000
  0.000000000000000E+000
  0.000000000000000E+000
  0.000000000000000E+000
  0.000000000000000E+000
  0.000000000000000E+000
  0.000000000000000E+000
  0.000000000000000E+000
  0.000000000000000E+000
  0.000000000000000E+000
  0.000000000000000E+000
  0.000000000000000E+000
  0.000000000000000E+000
  0.000000000000000E+000
  0.000000000000000E+000
  0.000000000000000E+000
  0.000000000000000E+000
  0.000000000000000E+000
  0.000000000000000E+000
  0.000000000000000E+000
  0.000000000000000E+000
  0.000000000000000E+000
  0.000000000000000E+000
  0.000000000000000E+000
  0.000000000000000E+000
  0.000000000000000E+000
  0.000000000000000E+000
  0.000000000000000E+000
  0.000000000000000E+000
  0.000000000000000E+000
  0.000000000000000E+000
  0.000000000000000E+000
  0.000000000000000E+000
  0.000000000000000E+000
  0.000000000000000E+000
  0.000000000000000E+000
  0.000000000000000E+000
  0.000000000000000E+000
  0.000000000000000E+000
  0.000000000000000E+000
  0.000000000000000E+000
  0.000000000000000E+000
  0.000000000000000E+000
  0.000000000000000E+000
  0.000000000000000E+000
  0.000000000000000E+000
  0.000000000000000E+000
  0.000000000000000E+000
  0.000000000000000E+000
  0.000000000000000E+000
  0.000000000000000E+000
  0.000000000000000E+000
  0.000000000000000E+000
  0.000000000000000E+000
  0.000000000000000E+000
  0.000000000000000E+000
  0.000000000000000E+000
  0.000000000000000E+000
  0.000000000000000E+000
  0.000000000000000E+000
  0.000000000000000E+000
  0.000000000000000E+000
  0.000000000000000E+000
  0.000000000000000E+000
  0.000000000000000E+000
  0.000000000000000E+000
  0.000000000000000E+000
  0.000000000000000E+000
  0.000000000000000E+000
  0.000000000000000E+000
  0.000000000000000E+000
  0.000000000000000E+000
  0.000000000000000E+000
  0.000000000000000E+000
  0.000000000000000E+000
  0.000000000000000E+000
  0.000000000000000E+000
  0.000000000000000E+000
  0.000000000000000E+000
  0.000000000000000E+000
  0.000000000000000E+000
  0.000000000000000E+000
  0.000000000000000E+000
  0.000000000000000E+000
  0.000000000000000E+000
  0.000000000000000E+000
  0.000000000000000E+000
  0.000000000000000E+000
  0.000000000000000E+000
  0.000000000000000E+000
  0.000000000000000E+000
  0.000000000000000E+000
  0.000000000000000E+000
  0.000000000000000E+000
  0.000000000000000E+000
  0.000000000000000E+000
  0.000000000000000E+000
  0.000000000000000E+000
  0.000000000000000E+000
  0.000000000000000E+000
  0.000000000000000E+000
  0.000000000000000E+000
  0.000000000000000E+000
  0.000000000000000E+000
  0.000000000000000E+000
  0.000000000000000E+000
  0.000000000000000E+000
  0.000000000000000E+000
  0.000000000000000E+000
  0.000000000000000E+000
  0.000000000000000E+000
  0.000000000000000E+000
  0.000000000000000E+000
  0.000000000000000E+000
  0.000000000000000E+000
  0.000000000000000E+000
  0.000000000000000E+000
  0.000000000000000E+000
  0.000000000000000E+000
  0.000000000000000E+000
  0.000000000000000E+000
  0.000000000000000E+000
  0.000000000000000E+000
  0.000000000000000E+000
  0.000000000000000E+000
  0.000000000000000E+000
  0.000000000000000E+000
  0.000000000000000E+000
  0.000000000000000E+000
  0.000000000000000E+000
  0.000000000000000E+000
  0.000000000000000E+000
  0.000000000000000E+000
  0.000000000000000E+000
  0.000000000000000E+000
  0.000000000000000E+000
  0.000000000000000E+000
  0.000000000000000E+000
  0.000000000000000E+000
  0.000000000000000E+000
  0.000000000000000E+000
  0.000000000000000E+000
  0.000000000000000E+000
  0.000000000000000E+000
  0.000000000000000E+000
  0.000000000000000E+000
  0.000000000000000E+000
  0.000000000000000E+000
  0.000000000000000E+000
  0.000000000000000E+000
  0.000000000000000E+000
  0.000000000000000E+000
  0.000000000000000E+000
  0.000000000000000E+000
  0.000000000000000E+000
  0.000000000000000E+000
  0.000000000000000E+000
  0.000000000000000E+000
  0.000000000000000E+000
  0.000000000000000E+000
  0.000000000000000E+000
  0.000000000000000E+000
  0.000000000000000E+000
  0.000000000000000E+000
  0.000000000000000E+000
  0.000000000000000E+000
  0.000000000000000E+000
  0.000000000000000E+000
  0.000000000000000E+000
  0.000000000000000E+000
  0.000000000000000E+000
  0.000000000000000E+000
  0.000000000000000E+000
  0.000000000000000E+000
  0.000000000000000E+000
  0.000000000000000E+000
  0.000000000000000E+000
  0.000000000000000E+000
  0.000000000000000E+000
  0.000000000000000E+000
  0.000000000000000E+000
  0.000000000000000E+000
  0.000000000000000E+000
  0.000000000000000E+000
  0.000000000000000E+000
  0.000000000000000E+000
  0.000000000000000E+000
  0.000000000000000E+000
  0.000000000000000E+000
SCALARS poroL double 
LOOKUP_TABLE default
  0.156043605758528     
  0.156039957056833     
  0.156036626801714     
  0.156033488754194     
  0.156030511931381     
  0.156027685696770     
  0.156025006794406     
  0.156022474229402     
  0.156020087256912     
  0.156017844392478     
  0.156015742648553     
  0.156013776383143     
  0.156011934444676     
  0.156010193451210     
  0.156008467275225     
  0.156042236773421     
  0.156038857978245     
  0.156035588358412     
  0.156032471916018     
  0.156029502035181     
  0.156026677707572     
  0.156023999223456     
  0.156021467131682     
  0.156019081439081     
  0.156016841236683     
  0.156014744422696     
  0.156012787239181     
  0.156010963935407     
  0.156009263470741     
  0.156007718044706     
  0.156040782284089     
  0.156037547299847     
  0.156034353080130     
  0.156031261388384     
  0.156028298975359     
  0.156025475708117     
  0.156022796862215     
  0.156020265125857     
  0.156017881541557     
  0.156015645981171     
  0.156013557541314     
  0.156011615159004     
  0.156009818563052     
  0.156008176751292     
  0.156006709679674     
  0.156039295615057     
  0.156036090704738     
  0.156032920421878     
  0.156029837557921     
  0.156026874127658     
  0.156024047279408     
  0.156021365620652     
  0.156018833356251     
  0.156016452144791     
  0.156014222278611     
  0.156012143660645     
  0.156010216919003     
  0.156008445782588     
  0.156006839176405     
  0.156005413867943     
  0.156037726499831     
  0.156034474002421     
  0.156031275805291     
  0.156028173273332     
  0.156025194541214     
  0.156022356595474     
  0.156019668532781     
  0.156017134470934     
  0.156014755664386     
  0.156012531974552     
  0.156010463102578     
  0.156008549926601     
  0.156006795876798     
  0.156005208366009     
  0.156003799261586     
  0.156036001576645     
  0.156032645761050     
  0.156029378147725     
  0.156026229008509     
  0.156023219476268     
  0.156020362495862     
  0.156017664627694     
  0.156015128028310     
  0.156012752198842     
  0.156010535431235     
  0.156008476052412     
  0.156006573556514     
  0.156004829651273     
  0.156003249005972     
  0.156001839519375     
  0.156034034441048     
  0.156030535483783     
  0.156027168003640     
  0.156023951612736     
  0.156020899147257     
  0.156018017379084     
  0.156015308214645     
  0.156012770100603     
  0.156010399405502     
  0.156008191668042     
  0.156006142695841     
  0.156004249525865     
  0.156002511211609     
  0.156000929365242     
  0.155999508339870     
  0.156031728575962     
  0.156028059753614     
  0.156024572788706     
  0.156021276608231     
  0.156018174941234     
  0.156015267046863     
  0.156012548673589     
  0.156010013144650     
  0.156007652455351     
  0.156005458303392     
  0.156003423013493     
  0.156001540334064     
  0.155999806079737     
  0.155998218577761     
  0.155996778882585     
  0.156028978187176     
  0.156025124965165     
  0.156021509734176     
  0.156018130306022     
  0.156014980552858     
  0.156012051207128     
  0.156009330722536     
  0.156006806172008     
  0.156004464137001     
  0.156002291546240     
  0.156000276434625     
  0.155998408602519     
  0.155996680157415     
  0.155995085921159     
  0.155993623691932     
  0.156025668762535     
  0.156021628889066     
  0.156017887835705     
  0.156014431571032     
  0.156011243316963     
  0.156008304402439     
  0.156005595066375     
  0.156003095224690     
  0.156000785196175     
  0.155998646375339     
  0.155996661841629     
  0.155994816897480     
  0.155993099530125     
  0.155991500794675     
  0.155990015121539     
  0.156021677806891     
  0.156017461999997     
  0.156013609479183     
  0.156010093451405     
  0.156006885651628     
  0.156003957204926     
  0.156001279363660     
  0.155998824154944     
  0.155996564957706     
  0.155994477020293     
  0.155992537926512     
  0.155990728017512     
  0.155989030777346     
  0.155987433191106     
  0.155985926086711     
  0.156016875979953     
  0.156012508964473     
  0.156008572123750     
  0.156005024890217     
  0.156001826670980     
  0.155998937661783     
  0.155996319486683     
  0.155993935709947     
  0.155991752255452     
  0.155989737761888     
  0.155987863898251     
  0.155986105661837     
  0.155984441679211     
  0.155982854528953     
  0.155981331103624     
  0.156011128765982     
  0.156006650499593     
  0.156002670258909     
  0.155999132681649     
  0.155995984055827     
  0.155993173024695     
  0.155990651084385     
  0.155988372926850     
  0.155986296674490     
  0.155984384048971     
  0.155982600514020     
  0.155980915429041     
  0.155979302246725     
  0.155977738783200     
  0.155976207583964     
  0.156004298761384     
  0.155999765726180     
  0.155995797768272     
  0.155992323783789     
  0.155989276259214     
  0.155986591806564     
  0.155984211467837     
  0.155982080843613     
  0.155980150100743     
  0.155978373914903     
  0.155976711403401     
  0.155975126100812     
  0.155973586024441     
  0.155972063868543     
  0.155970537356561     
  0.155996248633641     
  0.155991735089122     
  0.155987850780553     
  0.155984508061924     
  0.155981625103393     
  0.155979126200924     
  0.155976941833916     
  0.155975008524719     
  0.155973268563033     
  0.155971669665745     
  0.155970164645979     
  0.155968711162735     
  0.155967271614586     
  0.155965813228515     
  0.155964308379705     
  0.155986844771518     
  0.155982443878939     
  0.155978731050917     
  0.155975601505626     
  0.155972958803034     
  0.155970714884528     
  0.155968789830777     
  0.155967111388328     
  0.155965614338220     
  0.155964239796971     
  0.155962934548238     
  0.155961650501169     
  0.155960344360103     
  0.155958977571827     
  0.155957516593765     
  0.155975961607149     
  0.155971786353018     
  0.155968349885411     
  0.155965529938329     
  0.155963215429885     
  0.155961306206882     
  0.155959712452407     
  0.155958353803605     
  0.155957158270113     
  0.155956061073749     
  0.155955003543060     
  0.155953932192949     
  0.155952798102425     
  0.155951556676325     
  0.155950167843461     
  0.155963486544087     
  0.155959670420865     
  0.155956632597031     
  0.155954233220445     
  0.155952346819262     
  0.155950861755201     
  0.155949679231399     
  0.155948711904798     
  0.155947882226593     
  0.155947120680295     
  0.155946364103654     
  0.155945554272570     
  0.155944636898560     
  0.155943561151683     
  0.155942279772619     
  0.155949325373564     
  0.155946022828501     
  0.155943523468565     
  0.155941669941175     
  0.155940322912935     
  0.155939360272483     
  0.155938675680920     
  0.155938176542820     
  0.155937781586781     
  0.155937418305989     
  0.155937020522531     
  0.155936526319122     
  0.155935876540888     
  0.155935014014185     
  0.155933883561571     
  0.155933408008972     
  0.155930794761899     
  0.155928991205153     
  0.155927822609287     
  0.155927136542689     
  0.155926801903567     
  0.155926706919894     
  0.155926756265559     
  0.155926867610754     
  0.155926967989128     
  0.155926990354215     
  0.155926870651168     
  0.155926545670666     
  0.155925951880408     
  0.155925025339357     
  0.155915694326405     
  0.155913967806336     
  0.155913034908564     
  0.155912703405062     
  0.155912808692666     
  0.155913212751524     
  0.155913801398635     
  0.155914480183892     
  0.155915169498031     
  0.155915799483788     
  0.155916305257154     
  0.155916622849814     
  0.155916686209742     
  0.155916425529506     
  0.155915767061178     
  0.155896179886048     
  0.155895560282554     
  0.155895690732083     
  0.155896360669648     
  0.155897394345755     
  0.155898649741605     
  0.155900014619189     
  0.155901400537352     
  0.155902735888725     
  0.155903958853522     
  0.155905010896162     
  0.155905831243875     
  0.155906352747302     
  0.155906499510733     
  0.155906186597826     
  0.155874901361638     
  0.155875634203210     
  0.155877039649200     
  0.155878886523874     
  0.155880989122449     
  0.155883205792919     
  0.155885432694555     
  0.155887594714350     
  0.155889635508044     
  0.155891507939898     
  0.155893165484999     
  0.155894554879725     
  0.155895610389672     
  0.155896250368744     
  0.155896376736287     
  0.155851941704144     
  0.155854303607029     
  0.155857217334349     
  0.155860426381931     
  0.155863737032069     
  0.155867015225054     
  0.155870175464944     
  0.155873166393926     
  0.155875956626956     
  0.155878522331300     
  0.155880836485991     
  0.155882859336389     
  0.155884530376857     
  0.155885762869028     
  0.155886442732276     
  0.155827435575284     
  0.155831746239680     
  0.155836428296571     
  0.155841191717167     
  0.155845839642500     
  0.155850259003354     
  0.155854398591462     
  0.155858245361403     
  0.155861805054135     
  0.155865087588480     
  0.155868094948874     
  0.155870809569255     
  0.155873182318931     
  0.155875123256360     
  0.155876497902490     
  0.155801577126236     
  0.155808223401035     
  0.155814968854731     
  0.155821478129938     
  0.155827566325878     
  0.155833168510693     
  0.155838293425647     
  0.155842985438656     
  0.155847300695482     
  0.155851293797294     
  0.155855007404375     
  0.155858458427529     
  0.155861621319738     
  0.155864407384192     
  0.155866656551862     
  0.155774635874319     
  0.155784121392531     
  0.155793268186532     
  0.155801690418260     
  0.155809262671570     
  0.155816024145005     
  0.155822082858830     
  0.155827559972487     
  0.155832573102510     
  0.155837230175820     
  0.155841625328806     
  0.155845830740477     
  0.155849864661093     
  0.155853660531081     
  0.155857021386227     
  0.155747009176766     
  0.155760049193316     
  0.155771965651379     
  0.155782369530227     
  0.155791343568274     
  0.155799144024331     
  0.155806011005731     
  0.155812154571957     
  0.155817757140648     
  0.155822981867372     
  0.155827980580974     
  0.155832896356655     
  0.155837858727019     
  0.155842847676681     
  0.155847665662191     
  0.155719392369475     
  0.155737131978936     
  0.155752030493906     
  0.155764156101867     
  0.155774260893719     
  0.155782857581708     
  0.155790326025002     
  0.155796957383664     
  0.155802989667685     
  0.155808632838292     
  0.155814090082692     
  0.155819580925580     
  0.155825361692520     
  0.155831797099153     
  0.155838545096100     
  0.155694126322163     
  0.155717695187665     
  0.155734519879069     
  0.155747690509650     
  0.155758434091884     
  0.155767466721681     
  0.155775257791196     
  0.155782148016260     
  0.155788407788766     
  0.155794274127192     
  0.155799981359071     
  0.155805797295556     
  0.155812088972857     
  0.155819457917902     
  0.155829636880220     
