# vtk DataFile Version 3.0
vtk output
ASCII
DATASET UNSTRUCTURED_GRID
POINTS       496 double 
  0.00000000E+00  3.00000000E+02  0.00000000E+00
  0.00000000E+00  2.80000000E+02  0.00000000E+00
  0.00000000E+00  2.60000000E+02  0.00000000E+00
  0.00000000E+00  2.40000000E+02  0.00000000E+00
  0.00000000E+00  2.20000000E+02  0.00000000E+00
  0.00000000E+00  2.00000000E+02  0.00000000E+00
  0.00000000E+00  1.80000000E+02  0.00000000E+00
  0.00000000E+00  1.60000000E+02  0.00000000E+00
  0.00000000E+00  1.40000000E+02  0.00000000E+00
  0.00000000E+00  1.20000000E+02  0.00000000E+00
  0.00000000E+00  1.00000000E+02  0.00000000E+00
  0.00000000E+00  8.00000000E+01  0.00000000E+00
  0.00000000E+00  6.00000000E+01  0.00000000E+00
  0.00000000E+00  4.00000000E+01  0.00000000E+00
  0.00000000E+00  2.00000000E+01  0.00000000E+00
  0.00000000E+00  4.99600361E-14  0.00000000E+00
  2.00000000E+01  3.00000000E+02  0.00000000E+00
  2.00000000E+01  2.80000000E+02  0.00000000E+00
  2.00000000E+01  2.60000000E+02  0.00000000E+00
  2.00000000E+01  2.40000000E+02  0.00000000E+00
  2.00000000E+01  2.20000000E+02  0.00000000E+00
  2.00000000E+01  2.00000000E+02  0.00000000E+00
  2.00000000E+01  1.80000000E+02  0.00000000E+00
  2.00000000E+01  1.60000000E+02  0.00000000E+00
  2.00000000E+01  1.40000000E+02  0.00000000E+00
  2.00000000E+01  1.20000000E+02  0.00000000E+00
  2.00000000E+01  1.00000000E+02  0.00000000E+00
  2.00000000E+01  8.00000000E+01  0.00000000E+00
  2.00000000E+01  6.00000000E+01  0.00000000E+00
  2.00000000E+01  4.00000000E+01  0.00000000E+00
  2.00000000E+01  2.00000000E+01  0.00000000E+00
  2.00000000E+01  4.99600361E-14  0.00000000E+00
  4.00000000E+01  3.00000000E+02  0.00000000E+00
  4.00000000E+01  2.80000000E+02  0.00000000E+00
  4.00000000E+01  2.60000000E+02  0.00000000E+00
  4.00000000E+01  2.40000000E+02  0.00000000E+00
  4.00000000E+01  2.20000000E+02  0.00000000E+00
  4.00000000E+01  2.00000000E+02  0.00000000E+00
  4.00000000E+01  1.80000000E+02  0.00000000E+00
  4.00000000E+01  1.60000000E+02  0.00000000E+00
  4.00000000E+01  1.40000000E+02  0.00000000E+00
  4.00000000E+01  1.20000000E+02  0.00000000E+00
  4.00000000E+01  1.00000000E+02  0.00000000E+00
  4.00000000E+01  8.00000000E+01  0.00000000E+00
  4.00000000E+01  6.00000000E+01  0.00000000E+00
  4.00000000E+01  4.00000000E+01  0.00000000E+00
  4.00000000E+01  2.00000000E+01  0.00000000E+00
  4.00000000E+01  4.99600361E-14  0.00000000E+00
  6.00000000E+01  3.00000000E+02  0.00000000E+00
  6.00000000E+01  2.80000000E+02  0.00000000E+00
  6.00000000E+01  2.60000000E+02  0.00000000E+00
  6.00000000E+01  2.40000000E+02  0.00000000E+00
  6.00000000E+01  2.20000000E+02  0.00000000E+00
  6.00000000E+01  2.00000000E+02  0.00000000E+00
  6.00000000E+01  1.80000000E+02  0.00000000E+00
  6.00000000E+01  1.60000000E+02  0.00000000E+00
  6.00000000E+01  1.40000000E+02  0.00000000E+00
  6.00000000E+01  1.20000000E+02  0.00000000E+00
  6.00000000E+01  1.00000000E+02  0.00000000E+00
  6.00000000E+01  8.00000000E+01  0.00000000E+00
  6.00000000E+01  6.00000000E+01  0.00000000E+00
  6.00000000E+01  4.00000000E+01  0.00000000E+00
  6.00000000E+01  2.00000000E+01  0.00000000E+00
  6.00000000E+01  4.99600361E-14  0.00000000E+00
  8.00000000E+01  3.00000000E+02  0.00000000E+00
  8.00000000E+01  2.80000000E+02  0.00000000E+00
  8.00000000E+01  2.60000000E+02  0.00000000E+00
  8.00000000E+01  2.40000000E+02  0.00000000E+00
  8.00000000E+01  2.20000000E+02  0.00000000E+00
  8.00000000E+01  2.00000000E+02  0.00000000E+00
  8.00000000E+01  1.80000000E+02  0.00000000E+00
  8.00000000E+01  1.60000000E+02  0.00000000E+00
  8.00000000E+01  1.40000000E+02  0.00000000E+00
  8.00000000E+01  1.20000000E+02  0.00000000E+00
  8.00000000E+01  1.00000000E+02  0.00000000E+00
  8.00000000E+01  8.00000000E+01  0.00000000E+00
  8.00000000E+01  6.00000000E+01  0.00000000E+00
  8.00000000E+01  4.00000000E+01  0.00000000E+00
  8.00000000E+01  2.00000000E+01  0.00000000E+00
  8.00000000E+01  4.99600361E-14  0.00000000E+00
  1.00000000E+02  3.00000000E+02  0.00000000E+00
  1.00000000E+02  2.80000000E+02  0.00000000E+00
  1.00000000E+02  2.60000000E+02  0.00000000E+00
  1.00000000E+02  2.40000000E+02  0.00000000E+00
  1.00000000E+02  2.20000000E+02  0.00000000E+00
  1.00000000E+02  2.00000000E+02  0.00000000E+00
  1.00000000E+02  1.80000000E+02  0.00000000E+00
  1.00000000E+02  1.60000000E+02  0.00000000E+00
  1.00000000E+02  1.40000000E+02  0.00000000E+00
  1.00000000E+02  1.20000000E+02  0.00000000E+00
  1.00000000E+02  1.00000000E+02  0.00000000E+00
  1.00000000E+02  8.00000000E+01  0.00000000E+00
  1.00000000E+02  6.00000000E+01  0.00000000E+00
  1.00000000E+02  4.00000000E+01  0.00000000E+00
  1.00000000E+02  2.00000000E+01  0.00000000E+00
  1.00000000E+02  4.99600361E-14  0.00000000E+00
  1.20000000E+02  3.00000000E+02  0.00000000E+00
  1.20000000E+02  2.80000000E+02  0.00000000E+00
  1.20000000E+02  2.60000000E+02  0.00000000E+00
  1.20000000E+02  2.40000000E+02  0.00000000E+00
  1.20000000E+02  2.20000000E+02  0.00000000E+00
  1.20000000E+02  2.00000000E+02  0.00000000E+00
  1.20000000E+02  1.80000000E+02  0.00000000E+00
  1.20000000E+02  1.60000000E+02  0.00000000E+00
  1.20000000E+02  1.40000000E+02  0.00000000E+00
  1.20000000E+02  1.20000000E+02  0.00000000E+00
  1.20000000E+02  1.00000000E+02  0.00000000E+00
  1.20000000E+02  8.00000000E+01  0.00000000E+00
  1.20000000E+02  6.00000000E+01  0.00000000E+00
  1.20000000E+02  4.00000000E+01  0.00000000E+00
  1.20000000E+02  2.00000000E+01  0.00000000E+00
  1.20000000E+02  4.99600361E-14  0.00000000E+00
  1.40000000E+02  3.00000000E+02  0.00000000E+00
  1.40000000E+02  2.80000000E+02  0.00000000E+00
  1.40000000E+02  2.60000000E+02  0.00000000E+00
  1.40000000E+02  2.40000000E+02  0.00000000E+00
  1.40000000E+02  2.20000000E+02  0.00000000E+00
  1.40000000E+02  2.00000000E+02  0.00000000E+00
  1.40000000E+02  1.80000000E+02  0.00000000E+00
  1.40000000E+02  1.60000000E+02  0.00000000E+00
  1.40000000E+02  1.40000000E+02  0.00000000E+00
  1.40000000E+02  1.20000000E+02  0.00000000E+00
  1.40000000E+02  1.00000000E+02  0.00000000E+00
  1.40000000E+02  8.00000000E+01  0.00000000E+00
  1.40000000E+02  6.00000000E+01  0.00000000E+00
  1.40000000E+02  4.00000000E+01  0.00000000E+00
  1.40000000E+02  2.00000000E+01  0.00000000E+00
  1.40000000E+02  4.99600361E-14  0.00000000E+00
  1.60000000E+02  3.00000000E+02  0.00000000E+00
  1.60000000E+02  2.80000000E+02  0.00000000E+00
  1.60000000E+02  2.60000000E+02  0.00000000E+00
  1.60000000E+02  2.40000000E+02  0.00000000E+00
  1.60000000E+02  2.20000000E+02  0.00000000E+00
  1.60000000E+02  2.00000000E+02  0.00000000E+00
  1.60000000E+02  1.80000000E+02  0.00000000E+00
  1.60000000E+02  1.60000000E+02  0.00000000E+00
  1.60000000E+02  1.40000000E+02  0.00000000E+00
  1.60000000E+02  1.20000000E+02  0.00000000E+00
  1.60000000E+02  1.00000000E+02  0.00000000E+00
  1.60000000E+02  8.00000000E+01  0.00000000E+00
  1.60000000E+02  6.00000000E+01  0.00000000E+00
  1.60000000E+02  4.00000000E+01  0.00000000E+00
  1.60000000E+02  2.00000000E+01  0.00000000E+00
  1.60000000E+02  4.99600361E-14  0.00000000E+00
  1.80000000E+02  3.00000000E+02  0.00000000E+00
  1.80000000E+02  2.80000000E+02  0.00000000E+00
  1.80000000E+02  2.60000000E+02  0.00000000E+00
  1.80000000E+02  2.40000000E+02  0.00000000E+00
  1.80000000E+02  2.20000000E+02  0.00000000E+00
  1.80000000E+02  2.00000000E+02  0.00000000E+00
  1.80000000E+02  1.80000000E+02  0.00000000E+00
  1.80000000E+02  1.60000000E+02  0.00000000E+00
  1.80000000E+02  1.40000000E+02  0.00000000E+00
  1.80000000E+02  1.20000000E+02  0.00000000E+00
  1.80000000E+02  1.00000000E+02  0.00000000E+00
  1.80000000E+02  8.00000000E+01  0.00000000E+00
  1.80000000E+02  6.00000000E+01  0.00000000E+00
  1.80000000E+02  4.00000000E+01  0.00000000E+00
  1.80000000E+02  2.00000000E+01  0.00000000E+00
  1.80000000E+02  4.99600361E-14  0.00000000E+00
  2.00000000E+02  3.00000000E+02  0.00000000E+00
  2.00000000E+02  2.80000000E+02  0.00000000E+00
  2.00000000E+02  2.60000000E+02  0.00000000E+00
  2.00000000E+02  2.40000000E+02  0.00000000E+00
  2.00000000E+02  2.20000000E+02  0.00000000E+00
  2.00000000E+02  2.00000000E+02  0.00000000E+00
  2.00000000E+02  1.80000000E+02  0.00000000E+00
  2.00000000E+02  1.60000000E+02  0.00000000E+00
  2.00000000E+02  1.40000000E+02  0.00000000E+00
  2.00000000E+02  1.20000000E+02  0.00000000E+00
  2.00000000E+02  1.00000000E+02  0.00000000E+00
  2.00000000E+02  8.00000000E+01  0.00000000E+00
  2.00000000E+02  6.00000000E+01  0.00000000E+00
  2.00000000E+02  4.00000000E+01  0.00000000E+00
  2.00000000E+02  2.00000000E+01  0.00000000E+00
  2.00000000E+02  4.99600361E-14  0.00000000E+00
  2.20000000E+02  3.00000000E+02  0.00000000E+00
  2.20000000E+02  2.80000000E+02  0.00000000E+00
  2.20000000E+02  2.60000000E+02  0.00000000E+00
  2.20000000E+02  2.40000000E+02  0.00000000E+00
  2.20000000E+02  2.20000000E+02  0.00000000E+00
  2.20000000E+02  2.00000000E+02  0.00000000E+00
  2.20000000E+02  1.80000000E+02  0.00000000E+00
  2.20000000E+02  1.60000000E+02  0.00000000E+00
  2.20000000E+02  1.40000000E+02  0.00000000E+00
  2.20000000E+02  1.20000000E+02  0.00000000E+00
  2.20000000E+02  1.00000000E+02  0.00000000E+00
  2.20000000E+02  8.00000000E+01  0.00000000E+00
  2.20000000E+02  6.00000000E+01  0.00000000E+00
  2.20000000E+02  4.00000000E+01  0.00000000E+00
  2.20000000E+02  2.00000000E+01  0.00000000E+00
  2.20000000E+02  4.99600361E-14  0.00000000E+00
  2.40000000E+02  3.00000000E+02  0.00000000E+00
  2.40000000E+02  2.80000000E+02  0.00000000E+00
  2.40000000E+02  2.60000000E+02  0.00000000E+00
  2.40000000E+02  2.40000000E+02  0.00000000E+00
  2.40000000E+02  2.20000000E+02  0.00000000E+00
  2.40000000E+02  2.00000000E+02  0.00000000E+00
  2.40000000E+02  1.80000000E+02  0.00000000E+00
  2.40000000E+02  1.60000000E+02  0.00000000E+00
  2.40000000E+02  1.40000000E+02  0.00000000E+00
  2.40000000E+02  1.20000000E+02  0.00000000E+00
  2.40000000E+02  1.00000000E+02  0.00000000E+00
  2.40000000E+02  8.00000000E+01  0.00000000E+00
  2.40000000E+02  6.00000000E+01  0.00000000E+00
  2.40000000E+02  4.00000000E+01  0.00000000E+00
  2.40000000E+02  2.00000000E+01  0.00000000E+00
  2.40000000E+02  4.99600361E-14  0.00000000E+00
  2.60000000E+02  3.00000000E+02  0.00000000E+00
  2.60000000E+02  2.80000000E+02  0.00000000E+00
  2.60000000E+02  2.60000000E+02  0.00000000E+00
  2.60000000E+02  2.40000000E+02  0.00000000E+00
  2.60000000E+02  2.20000000E+02  0.00000000E+00
  2.60000000E+02  2.00000000E+02  0.00000000E+00
  2.60000000E+02  1.80000000E+02  0.00000000E+00
  2.60000000E+02  1.60000000E+02  0.00000000E+00
  2.60000000E+02  1.40000000E+02  0.00000000E+00
  2.60000000E+02  1.20000000E+02  0.00000000E+00
  2.60000000E+02  1.00000000E+02  0.00000000E+00
  2.60000000E+02  8.00000000E+01  0.00000000E+00
  2.60000000E+02  6.00000000E+01  0.00000000E+00
  2.60000000E+02  4.00000000E+01  0.00000000E+00
  2.60000000E+02  2.00000000E+01  0.00000000E+00
  2.60000000E+02  4.99600361E-14  0.00000000E+00
  2.80000000E+02  3.00000000E+02  0.00000000E+00
  2.80000000E+02  2.80000000E+02  0.00000000E+00
  2.80000000E+02  2.60000000E+02  0.00000000E+00
  2.80000000E+02  2.40000000E+02  0.00000000E+00
  2.80000000E+02  2.20000000E+02  0.00000000E+00
  2.80000000E+02  2.00000000E+02  0.00000000E+00
  2.80000000E+02  1.80000000E+02  0.00000000E+00
  2.80000000E+02  1.60000000E+02  0.00000000E+00
  2.80000000E+02  1.40000000E+02  0.00000000E+00
  2.80000000E+02  1.20000000E+02  0.00000000E+00
  2.80000000E+02  1.00000000E+02  0.00000000E+00
  2.80000000E+02  8.00000000E+01  0.00000000E+00
  2.80000000E+02  6.00000000E+01  0.00000000E+00
  2.80000000E+02  4.00000000E+01  0.00000000E+00
  2.80000000E+02  2.00000000E+01  0.00000000E+00
  2.80000000E+02  4.99600361E-14  0.00000000E+00
  3.00000000E+02  3.00000000E+02  0.00000000E+00
  3.00000000E+02  2.80000000E+02  0.00000000E+00
  3.00000000E+02  2.60000000E+02  0.00000000E+00
  3.00000000E+02  2.40000000E+02  0.00000000E+00
  3.00000000E+02  2.20000000E+02  0.00000000E+00
  3.00000000E+02  2.00000000E+02  0.00000000E+00
  3.00000000E+02  1.80000000E+02  0.00000000E+00
  3.00000000E+02  1.60000000E+02  0.00000000E+00
  3.00000000E+02  1.40000000E+02  0.00000000E+00
  3.00000000E+02  1.20000000E+02  0.00000000E+00
  3.00000000E+02  1.00000000E+02  0.00000000E+00
  3.00000000E+02  8.00000000E+01  0.00000000E+00
  3.00000000E+02  6.00000000E+01  0.00000000E+00
  3.00000000E+02  4.00000000E+01  0.00000000E+00
  3.00000000E+02  2.00000000E+01  0.00000000E+00
  3.00000000E+02  4.99600361E-14  0.00000000E+00
  3.20000000E+02  3.00000000E+02  0.00000000E+00
  3.20000000E+02  2.80000000E+02  0.00000000E+00
  3.20000000E+02  2.60000000E+02  0.00000000E+00
  3.20000000E+02  2.40000000E+02  0.00000000E+00
  3.20000000E+02  2.20000000E+02  0.00000000E+00
  3.20000000E+02  2.00000000E+02  0.00000000E+00
  3.20000000E+02  1.80000000E+02  0.00000000E+00
  3.20000000E+02  1.60000000E+02  0.00000000E+00
  3.20000000E+02  1.40000000E+02  0.00000000E+00
  3.20000000E+02  1.20000000E+02  0.00000000E+00
  3.20000000E+02  1.00000000E+02  0.00000000E+00
  3.20000000E+02  8.00000000E+01  0.00000000E+00
  3.20000000E+02  6.00000000E+01  0.00000000E+00
  3.20000000E+02  4.00000000E+01  0.00000000E+00
  3.20000000E+02  2.00000000E+01  0.00000000E+00
  3.20000000E+02  4.99600361E-14  0.00000000E+00
  3.40000000E+02  3.00000000E+02  0.00000000E+00
  3.40000000E+02  2.80000000E+02  0.00000000E+00
  3.40000000E+02  2.60000000E+02  0.00000000E+00
  3.40000000E+02  2.40000000E+02  0.00000000E+00
  3.40000000E+02  2.20000000E+02  0.00000000E+00
  3.40000000E+02  2.00000000E+02  0.00000000E+00
  3.40000000E+02  1.80000000E+02  0.00000000E+00
  3.40000000E+02  1.60000000E+02  0.00000000E+00
  3.40000000E+02  1.40000000E+02  0.00000000E+00
  3.40000000E+02  1.20000000E+02  0.00000000E+00
  3.40000000E+02  1.00000000E+02  0.00000000E+00
  3.40000000E+02  8.00000000E+01  0.00000000E+00
  3.40000000E+02  6.00000000E+01  0.00000000E+00
  3.40000000E+02  4.00000000E+01  0.00000000E+00
  3.40000000E+02  2.00000000E+01  0.00000000E+00
  3.40000000E+02  4.99600361E-14  0.00000000E+00
  3.60000000E+02  3.00000000E+02  0.00000000E+00
  3.60000000E+02  2.80000000E+02  0.00000000E+00
  3.60000000E+02  2.60000000E+02  0.00000000E+00
  3.60000000E+02  2.40000000E+02  0.00000000E+00
  3.60000000E+02  2.20000000E+02  0.00000000E+00
  3.60000000E+02  2.00000000E+02  0.00000000E+00
  3.60000000E+02  1.80000000E+02  0.00000000E+00
  3.60000000E+02  1.60000000E+02  0.00000000E+00
  3.60000000E+02  1.40000000E+02  0.00000000E+00
  3.60000000E+02  1.20000000E+02  0.00000000E+00
  3.60000000E+02  1.00000000E+02  0.00000000E+00
  3.60000000E+02  8.00000000E+01  0.00000000E+00
  3.60000000E+02  6.00000000E+01  0.00000000E+00
  3.60000000E+02  4.00000000E+01  0.00000000E+00
  3.60000000E+02  2.00000000E+01  0.00000000E+00
  3.60000000E+02  4.99600361E-14  0.00000000E+00
  3.80000000E+02  3.00000000E+02  0.00000000E+00
  3.80000000E+02  2.80000000E+02  0.00000000E+00
  3.80000000E+02  2.60000000E+02  0.00000000E+00
  3.80000000E+02  2.40000000E+02  0.00000000E+00
  3.80000000E+02  2.20000000E+02  0.00000000E+00
  3.80000000E+02  2.00000000E+02  0.00000000E+00
  3.80000000E+02  1.80000000E+02  0.00000000E+00
  3.80000000E+02  1.60000000E+02  0.00000000E+00
  3.80000000E+02  1.40000000E+02  0.00000000E+00
  3.80000000E+02  1.20000000E+02  0.00000000E+00
  3.80000000E+02  1.00000000E+02  0.00000000E+00
  3.80000000E+02  8.00000000E+01  0.00000000E+00
  3.80000000E+02  6.00000000E+01  0.00000000E+00
  3.80000000E+02  4.00000000E+01  0.00000000E+00
  3.80000000E+02  2.00000000E+01  0.00000000E+00
  3.80000000E+02  4.99600361E-14  0.00000000E+00
  4.00000000E+02  3.00000000E+02  0.00000000E+00
  4.00000000E+02  2.80000000E+02  0.00000000E+00
  4.00000000E+02  2.60000000E+02  0.00000000E+00
  4.00000000E+02  2.40000000E+02  0.00000000E+00
  4.00000000E+02  2.20000000E+02  0.00000000E+00
  4.00000000E+02  2.00000000E+02  0.00000000E+00
  4.00000000E+02  1.80000000E+02  0.00000000E+00
  4.00000000E+02  1.60000000E+02  0.00000000E+00
  4.00000000E+02  1.40000000E+02  0.00000000E+00
  4.00000000E+02  1.20000000E+02  0.00000000E+00
  4.00000000E+02  1.00000000E+02  0.00000000E+00
  4.00000000E+02  8.00000000E+01  0.00000000E+00
  4.00000000E+02  6.00000000E+01  0.00000000E+00
  4.00000000E+02  4.00000000E+01  0.00000000E+00
  4.00000000E+02  2.00000000E+01  0.00000000E+00
  4.00000000E+02  4.99600361E-14  0.00000000E+00
  4.20000000E+02  3.00000000E+02  0.00000000E+00
  4.20000000E+02  2.80000000E+02  0.00000000E+00
  4.20000000E+02  2.60000000E+02  0.00000000E+00
  4.20000000E+02  2.40000000E+02  0.00000000E+00
  4.20000000E+02  2.20000000E+02  0.00000000E+00
  4.20000000E+02  2.00000000E+02  0.00000000E+00
  4.20000000E+02  1.80000000E+02  0.00000000E+00
  4.20000000E+02  1.60000000E+02  0.00000000E+00
  4.20000000E+02  1.40000000E+02  0.00000000E+00
  4.20000000E+02  1.20000000E+02  0.00000000E+00
  4.20000000E+02  1.00000000E+02  0.00000000E+00
  4.20000000E+02  8.00000000E+01  0.00000000E+00
  4.20000000E+02  6.00000000E+01  0.00000000E+00
  4.20000000E+02  4.00000000E+01  0.00000000E+00
  4.20000000E+02  2.00000000E+01  0.00000000E+00
  4.20000000E+02  4.99600361E-14  0.00000000E+00
  4.40000000E+02  3.00000000E+02  0.00000000E+00
  4.40000000E+02  2.80000000E+02  0.00000000E+00
  4.40000000E+02  2.60000000E+02  0.00000000E+00
  4.40000000E+02  2.40000000E+02  0.00000000E+00
  4.40000000E+02  2.20000000E+02  0.00000000E+00
  4.40000000E+02  2.00000000E+02  0.00000000E+00
  4.40000000E+02  1.80000000E+02  0.00000000E+00
  4.40000000E+02  1.60000000E+02  0.00000000E+00
  4.40000000E+02  1.40000000E+02  0.00000000E+00
  4.40000000E+02  1.20000000E+02  0.00000000E+00
  4.40000000E+02  1.00000000E+02  0.00000000E+00
  4.40000000E+02  8.00000000E+01  0.00000000E+00
  4.40000000E+02  6.00000000E+01  0.00000000E+00
  4.40000000E+02  4.00000000E+01  0.00000000E+00
  4.40000000E+02  2.00000000E+01  0.00000000E+00
  4.40000000E+02  4.99600361E-14  0.00000000E+00
  4.60000000E+02  3.00000000E+02  0.00000000E+00
  4.60000000E+02  2.80000000E+02  0.00000000E+00
  4.60000000E+02  2.60000000E+02  0.00000000E+00
  4.60000000E+02  2.40000000E+02  0.00000000E+00
  4.60000000E+02  2.20000000E+02  0.00000000E+00
  4.60000000E+02  2.00000000E+02  0.00000000E+00
  4.60000000E+02  1.80000000E+02  0.00000000E+00
  4.60000000E+02  1.60000000E+02  0.00000000E+00
  4.60000000E+02  1.40000000E+02  0.00000000E+00
  4.60000000E+02  1.20000000E+02  0.00000000E+00
  4.60000000E+02  1.00000000E+02  0.00000000E+00
  4.60000000E+02  8.00000000E+01  0.00000000E+00
  4.60000000E+02  6.00000000E+01  0.00000000E+00
  4.60000000E+02  4.00000000E+01  0.00000000E+00
  4.60000000E+02  2.00000000E+01  0.00000000E+00
  4.60000000E+02  4.99600361E-14  0.00000000E+00
  4.80000000E+02  3.00000000E+02  0.00000000E+00
  4.80000000E+02  2.80000000E+02  0.00000000E+00
  4.80000000E+02  2.60000000E+02  0.00000000E+00
  4.80000000E+02  2.40000000E+02  0.00000000E+00
  4.80000000E+02  2.20000000E+02  0.00000000E+00
  4.80000000E+02  2.00000000E+02  0.00000000E+00
  4.80000000E+02  1.80000000E+02  0.00000000E+00
  4.80000000E+02  1.60000000E+02  0.00000000E+00
  4.80000000E+02  1.40000000E+02  0.00000000E+00
  4.80000000E+02  1.20000000E+02  0.00000000E+00
  4.80000000E+02  1.00000000E+02  0.00000000E+00
  4.80000000E+02  8.00000000E+01  0.00000000E+00
  4.80000000E+02  6.00000000E+01  0.00000000E+00
  4.80000000E+02  4.00000000E+01  0.00000000E+00
  4.80000000E+02  2.00000000E+01  0.00000000E+00
  4.80000000E+02  4.99600361E-14  0.00000000E+00
  5.00000000E+02  3.00000000E+02  0.00000000E+00
  5.00000000E+02  2.80000000E+02  0.00000000E+00
  5.00000000E+02  2.60000000E+02  0.00000000E+00
  5.00000000E+02  2.40000000E+02  0.00000000E+00
  5.00000000E+02  2.20000000E+02  0.00000000E+00
  5.00000000E+02  2.00000000E+02  0.00000000E+00
  5.00000000E+02  1.80000000E+02  0.00000000E+00
  5.00000000E+02  1.60000000E+02  0.00000000E+00
  5.00000000E+02  1.40000000E+02  0.00000000E+00
  5.00000000E+02  1.20000000E+02  0.00000000E+00
  5.00000000E+02  1.00000000E+02  0.00000000E+00
  5.00000000E+02  8.00000000E+01  0.00000000E+00
  5.00000000E+02  6.00000000E+01  0.00000000E+00
  5.00000000E+02  4.00000000E+01  0.00000000E+00
  5.00000000E+02  2.00000000E+01  0.00000000E+00
  5.00000000E+02  4.99600361E-14  0.00000000E+00
  5.20000000E+02  3.00000000E+02  0.00000000E+00
  5.20000000E+02  2.80000000E+02  0.00000000E+00
  5.20000000E+02  2.60000000E+02  0.00000000E+00
  5.20000000E+02  2.40000000E+02  0.00000000E+00
  5.20000000E+02  2.20000000E+02  0.00000000E+00
  5.20000000E+02  2.00000000E+02  0.00000000E+00
  5.20000000E+02  1.80000000E+02  0.00000000E+00
  5.20000000E+02  1.60000000E+02  0.00000000E+00
  5.20000000E+02  1.40000000E+02  0.00000000E+00
  5.20000000E+02  1.20000000E+02  0.00000000E+00
  5.20000000E+02  1.00000000E+02  0.00000000E+00
  5.20000000E+02  8.00000000E+01  0.00000000E+00
  5.20000000E+02  6.00000000E+01  0.00000000E+00
  5.20000000E+02  4.00000000E+01  0.00000000E+00
  5.20000000E+02  2.00000000E+01  0.00000000E+00
  5.20000000E+02  4.99600361E-14  0.00000000E+00
  5.40000000E+02  3.00000000E+02  0.00000000E+00
  5.40000000E+02  2.80000000E+02  0.00000000E+00
  5.40000000E+02  2.60000000E+02  0.00000000E+00
  5.40000000E+02  2.40000000E+02  0.00000000E+00
  5.40000000E+02  2.20000000E+02  0.00000000E+00
  5.40000000E+02  2.00000000E+02  0.00000000E+00
  5.40000000E+02  1.80000000E+02  0.00000000E+00
  5.40000000E+02  1.60000000E+02  0.00000000E+00
  5.40000000E+02  1.40000000E+02  0.00000000E+00
  5.40000000E+02  1.20000000E+02  0.00000000E+00
  5.40000000E+02  1.00000000E+02  0.00000000E+00
  5.40000000E+02  8.00000000E+01  0.00000000E+00
  5.40000000E+02  6.00000000E+01  0.00000000E+00
  5.40000000E+02  4.00000000E+01  0.00000000E+00
  5.40000000E+02  2.00000000E+01  0.00000000E+00
  5.40000000E+02  4.99600361E-14  0.00000000E+00
  5.60000000E+02  3.00000000E+02  0.00000000E+00
  5.60000000E+02  2.80000000E+02  0.00000000E+00
  5.60000000E+02  2.60000000E+02  0.00000000E+00
  5.60000000E+02  2.40000000E+02  0.00000000E+00
  5.60000000E+02  2.20000000E+02  0.00000000E+00
  5.60000000E+02  2.00000000E+02  0.00000000E+00
  5.60000000E+02  1.80000000E+02  0.00000000E+00
  5.60000000E+02  1.60000000E+02  0.00000000E+00
  5.60000000E+02  1.40000000E+02  0.00000000E+00
  5.60000000E+02  1.20000000E+02  0.00000000E+00
  5.60000000E+02  1.00000000E+02  0.00000000E+00
  5.60000000E+02  8.00000000E+01  0.00000000E+00
  5.60000000E+02  6.00000000E+01  0.00000000E+00
  5.60000000E+02  4.00000000E+01  0.00000000E+00
  5.60000000E+02  2.00000000E+01  0.00000000E+00
  5.60000000E+02  4.99600361E-14  0.00000000E+00
  5.80000000E+02  3.00000000E+02  0.00000000E+00
  5.80000000E+02  2.80000000E+02  0.00000000E+00
  5.80000000E+02  2.60000000E+02  0.00000000E+00
  5.80000000E+02  2.40000000E+02  0.00000000E+00
  5.80000000E+02  2.20000000E+02  0.00000000E+00
  5.80000000E+02  2.00000000E+02  0.00000000E+00
  5.80000000E+02  1.80000000E+02  0.00000000E+00
  5.80000000E+02  1.60000000E+02  0.00000000E+00
  5.80000000E+02  1.40000000E+02  0.00000000E+00
  5.80000000E+02  1.20000000E+02  0.00000000E+00
  5.80000000E+02  1.00000000E+02  0.00000000E+00
  5.80000000E+02  8.00000000E+01  0.00000000E+00
  5.80000000E+02  6.00000000E+01  0.00000000E+00
  5.80000000E+02  4.00000000E+01  0.00000000E+00
  5.80000000E+02  2.00000000E+01  0.00000000E+00
  5.80000000E+02  4.99600361E-14  0.00000000E+00
  6.00000000E+02  3.00000000E+02  0.00000000E+00
  6.00000000E+02  2.80000000E+02  0.00000000E+00
  6.00000000E+02  2.60000000E+02  0.00000000E+00
  6.00000000E+02  2.40000000E+02  0.00000000E+00
  6.00000000E+02  2.20000000E+02  0.00000000E+00
  6.00000000E+02  2.00000000E+02  0.00000000E+00
  6.00000000E+02  1.80000000E+02  0.00000000E+00
  6.00000000E+02  1.60000000E+02  0.00000000E+00
  6.00000000E+02  1.40000000E+02  0.00000000E+00
  6.00000000E+02  1.20000000E+02  0.00000000E+00
  6.00000000E+02  1.00000000E+02  0.00000000E+00
  6.00000000E+02  8.00000000E+01  0.00000000E+00
  6.00000000E+02  6.00000000E+01  0.00000000E+00
  6.00000000E+02  4.00000000E+01  0.00000000E+00
  6.00000000E+02  2.00000000E+01  0.00000000E+00
  6.00000000E+02  4.99600361E-14  0.00000000E+00
CELLS       450      2250
         4           0           1          17          16
         4           1           2          18          17
         4           2           3          19          18
         4           3           4          20          19
         4           4           5          21          20
         4           5           6          22          21
         4           6           7          23          22
         4           7           8          24          23
         4           8           9          25          24
         4           9          10          26          25
         4          10          11          27          26
         4          11          12          28          27
         4          12          13          29          28
         4          13          14          30          29
         4          14          15          31          30
         4          16          17          33          32
         4          17          18          34          33
         4          18          19          35          34
         4          19          20          36          35
         4          20          21          37          36
         4          21          22          38          37
         4          22          23          39          38
         4          23          24          40          39
         4          24          25          41          40
         4          25          26          42          41
         4          26          27          43          42
         4          27          28          44          43
         4          28          29          45          44
         4          29          30          46          45
         4          30          31          47          46
         4          32          33          49          48
         4          33          34          50          49
         4          34          35          51          50
         4          35          36          52          51
         4          36          37          53          52
         4          37          38          54          53
         4          38          39          55          54
         4          39          40          56          55
         4          40          41          57          56
         4          41          42          58          57
         4          42          43          59          58
         4          43          44          60          59
         4          44          45          61          60
         4          45          46          62          61
         4          46          47          63          62
         4          48          49          65          64
         4          49          50          66          65
         4          50          51          67          66
         4          51          52          68          67
         4          52          53          69          68
         4          53          54          70          69
         4          54          55          71          70
         4          55          56          72          71
         4          56          57          73          72
         4          57          58          74          73
         4          58          59          75          74
         4          59          60          76          75
         4          60          61          77          76
         4          61          62          78          77
         4          62          63          79          78
         4          64          65          81          80
         4          65          66          82          81
         4          66          67          83          82
         4          67          68          84          83
         4          68          69          85          84
         4          69          70          86          85
         4          70          71          87          86
         4          71          72          88          87
         4          72          73          89          88
         4          73          74          90          89
         4          74          75          91          90
         4          75          76          92          91
         4          76          77          93          92
         4          77          78          94          93
         4          78          79          95          94
         4          80          81          97          96
         4          81          82          98          97
         4          82          83          99          98
         4          83          84         100          99
         4          84          85         101         100
         4          85          86         102         101
         4          86          87         103         102
         4          87          88         104         103
         4          88          89         105         104
         4          89          90         106         105
         4          90          91         107         106
         4          91          92         108         107
         4          92          93         109         108
         4          93          94         110         109
         4          94          95         111         110
         4          96          97         113         112
         4          97          98         114         113
         4          98          99         115         114
         4          99         100         116         115
         4         100         101         117         116
         4         101         102         118         117
         4         102         103         119         118
         4         103         104         120         119
         4         104         105         121         120
         4         105         106         122         121
         4         106         107         123         122
         4         107         108         124         123
         4         108         109         125         124
         4         109         110         126         125
         4         110         111         127         126
         4         112         113         129         128
         4         113         114         130         129
         4         114         115         131         130
         4         115         116         132         131
         4         116         117         133         132
         4         117         118         134         133
         4         118         119         135         134
         4         119         120         136         135
         4         120         121         137         136
         4         121         122         138         137
         4         122         123         139         138
         4         123         124         140         139
         4         124         125         141         140
         4         125         126         142         141
         4         126         127         143         142
         4         128         129         145         144
         4         129         130         146         145
         4         130         131         147         146
         4         131         132         148         147
         4         132         133         149         148
         4         133         134         150         149
         4         134         135         151         150
         4         135         136         152         151
         4         136         137         153         152
         4         137         138         154         153
         4         138         139         155         154
         4         139         140         156         155
         4         140         141         157         156
         4         141         142         158         157
         4         142         143         159         158
         4         144         145         161         160
         4         145         146         162         161
         4         146         147         163         162
         4         147         148         164         163
         4         148         149         165         164
         4         149         150         166         165
         4         150         151         167         166
         4         151         152         168         167
         4         152         153         169         168
         4         153         154         170         169
         4         154         155         171         170
         4         155         156         172         171
         4         156         157         173         172
         4         157         158         174         173
         4         158         159         175         174
         4         160         161         177         176
         4         161         162         178         177
         4         162         163         179         178
         4         163         164         180         179
         4         164         165         181         180
         4         165         166         182         181
         4         166         167         183         182
         4         167         168         184         183
         4         168         169         185         184
         4         169         170         186         185
         4         170         171         187         186
         4         171         172         188         187
         4         172         173         189         188
         4         173         174         190         189
         4         174         175         191         190
         4         176         177         193         192
         4         177         178         194         193
         4         178         179         195         194
         4         179         180         196         195
         4         180         181         197         196
         4         181         182         198         197
         4         182         183         199         198
         4         183         184         200         199
         4         184         185         201         200
         4         185         186         202         201
         4         186         187         203         202
         4         187         188         204         203
         4         188         189         205         204
         4         189         190         206         205
         4         190         191         207         206
         4         192         193         209         208
         4         193         194         210         209
         4         194         195         211         210
         4         195         196         212         211
         4         196         197         213         212
         4         197         198         214         213
         4         198         199         215         214
         4         199         200         216         215
         4         200         201         217         216
         4         201         202         218         217
         4         202         203         219         218
         4         203         204         220         219
         4         204         205         221         220
         4         205         206         222         221
         4         206         207         223         222
         4         208         209         225         224
         4         209         210         226         225
         4         210         211         227         226
         4         211         212         228         227
         4         212         213         229         228
         4         213         214         230         229
         4         214         215         231         230
         4         215         216         232         231
         4         216         217         233         232
         4         217         218         234         233
         4         218         219         235         234
         4         219         220         236         235
         4         220         221         237         236
         4         221         222         238         237
         4         222         223         239         238
         4         224         225         241         240
         4         225         226         242         241
         4         226         227         243         242
         4         227         228         244         243
         4         228         229         245         244
         4         229         230         246         245
         4         230         231         247         246
         4         231         232         248         247
         4         232         233         249         248
         4         233         234         250         249
         4         234         235         251         250
         4         235         236         252         251
         4         236         237         253         252
         4         237         238         254         253
         4         238         239         255         254
         4         240         241         257         256
         4         241         242         258         257
         4         242         243         259         258
         4         243         244         260         259
         4         244         245         261         260
         4         245         246         262         261
         4         246         247         263         262
         4         247         248         264         263
         4         248         249         265         264
         4         249         250         266         265
         4         250         251         267         266
         4         251         252         268         267
         4         252         253         269         268
         4         253         254         270         269
         4         254         255         271         270
         4         256         257         273         272
         4         257         258         274         273
         4         258         259         275         274
         4         259         260         276         275
         4         260         261         277         276
         4         261         262         278         277
         4         262         263         279         278
         4         263         264         280         279
         4         264         265         281         280
         4         265         266         282         281
         4         266         267         283         282
         4         267         268         284         283
         4         268         269         285         284
         4         269         270         286         285
         4         270         271         287         286
         4         272         273         289         288
         4         273         274         290         289
         4         274         275         291         290
         4         275         276         292         291
         4         276         277         293         292
         4         277         278         294         293
         4         278         279         295         294
         4         279         280         296         295
         4         280         281         297         296
         4         281         282         298         297
         4         282         283         299         298
         4         283         284         300         299
         4         284         285         301         300
         4         285         286         302         301
         4         286         287         303         302
         4         288         289         305         304
         4         289         290         306         305
         4         290         291         307         306
         4         291         292         308         307
         4         292         293         309         308
         4         293         294         310         309
         4         294         295         311         310
         4         295         296         312         311
         4         296         297         313         312
         4         297         298         314         313
         4         298         299         315         314
         4         299         300         316         315
         4         300         301         317         316
         4         301         302         318         317
         4         302         303         319         318
         4         304         305         321         320
         4         305         306         322         321
         4         306         307         323         322
         4         307         308         324         323
         4         308         309         325         324
         4         309         310         326         325
         4         310         311         327         326
         4         311         312         328         327
         4         312         313         329         328
         4         313         314         330         329
         4         314         315         331         330
         4         315         316         332         331
         4         316         317         333         332
         4         317         318         334         333
         4         318         319         335         334
         4         320         321         337         336
         4         321         322         338         337
         4         322         323         339         338
         4         323         324         340         339
         4         324         325         341         340
         4         325         326         342         341
         4         326         327         343         342
         4         327         328         344         343
         4         328         329         345         344
         4         329         330         346         345
         4         330         331         347         346
         4         331         332         348         347
         4         332         333         349         348
         4         333         334         350         349
         4         334         335         351         350
         4         336         337         353         352
         4         337         338         354         353
         4         338         339         355         354
         4         339         340         356         355
         4         340         341         357         356
         4         341         342         358         357
         4         342         343         359         358
         4         343         344         360         359
         4         344         345         361         360
         4         345         346         362         361
         4         346         347         363         362
         4         347         348         364         363
         4         348         349         365         364
         4         349         350         366         365
         4         350         351         367         366
         4         352         353         369         368
         4         353         354         370         369
         4         354         355         371         370
         4         355         356         372         371
         4         356         357         373         372
         4         357         358         374         373
         4         358         359         375         374
         4         359         360         376         375
         4         360         361         377         376
         4         361         362         378         377
         4         362         363         379         378
         4         363         364         380         379
         4         364         365         381         380
         4         365         366         382         381
         4         366         367         383         382
         4         368         369         385         384
         4         369         370         386         385
         4         370         371         387         386
         4         371         372         388         387
         4         372         373         389         388
         4         373         374         390         389
         4         374         375         391         390
         4         375         376         392         391
         4         376         377         393         392
         4         377         378         394         393
         4         378         379         395         394
         4         379         380         396         395
         4         380         381         397         396
         4         381         382         398         397
         4         382         383         399         398
         4         384         385         401         400
         4         385         386         402         401
         4         386         387         403         402
         4         387         388         404         403
         4         388         389         405         404
         4         389         390         406         405
         4         390         391         407         406
         4         391         392         408         407
         4         392         393         409         408
         4         393         394         410         409
         4         394         395         411         410
         4         395         396         412         411
         4         396         397         413         412
         4         397         398         414         413
         4         398         399         415         414
         4         400         401         417         416
         4         401         402         418         417
         4         402         403         419         418
         4         403         404         420         419
         4         404         405         421         420
         4         405         406         422         421
         4         406         407         423         422
         4         407         408         424         423
         4         408         409         425         424
         4         409         410         426         425
         4         410         411         427         426
         4         411         412         428         427
         4         412         413         429         428
         4         413         414         430         429
         4         414         415         431         430
         4         416         417         433         432
         4         417         418         434         433
         4         418         419         435         434
         4         419         420         436         435
         4         420         421         437         436
         4         421         422         438         437
         4         422         423         439         438
         4         423         424         440         439
         4         424         425         441         440
         4         425         426         442         441
         4         426         427         443         442
         4         427         428         444         443
         4         428         429         445         444
         4         429         430         446         445
         4         430         431         447         446
         4         432         433         449         448
         4         433         434         450         449
         4         434         435         451         450
         4         435         436         452         451
         4         436         437         453         452
         4         437         438         454         453
         4         438         439         455         454
         4         439         440         456         455
         4         440         441         457         456
         4         441         442         458         457
         4         442         443         459         458
         4         443         444         460         459
         4         444         445         461         460
         4         445         446         462         461
         4         446         447         463         462
         4         448         449         465         464
         4         449         450         466         465
         4         450         451         467         466
         4         451         452         468         467
         4         452         453         469         468
         4         453         454         470         469
         4         454         455         471         470
         4         455         456         472         471
         4         456         457         473         472
         4         457         458         474         473
         4         458         459         475         474
         4         459         460         476         475
         4         460         461         477         476
         4         461         462         478         477
         4         462         463         479         478
         4         464         465         481         480
         4         465         466         482         481
         4         466         467         483         482
         4         467         468         484         483
         4         468         469         485         484
         4         469         470         486         485
         4         470         471         487         486
         4         471         472         488         487
         4         472         473         489         488
         4         473         474         490         489
         4         474         475         491         490
         4         475         476         492         491
         4         476         477         493         492
         4         477         478         494         493
         4         478         479         495         494
CELL_TYPES        450
9
9
9
9
9
9
9
9
9
9
9
9
9
9
9
9
9
9
9
9
9
9
9
9
9
9
9
9
9
9
9
9
9
9
9
9
9
9
9
9
9
9
9
9
9
9
9
9
9
9
9
9
9
9
9
9
9
9
9
9
9
9
9
9
9
9
9
9
9
9
9
9
9
9
9
9
9
9
9
9
9
9
9
9
9
9
9
9
9
9
9
9
9
9
9
9
9
9
9
9
9
9
9
9
9
9
9
9
9
9
9
9
9
9
9
9
9
9
9
9
9
9
9
9
9
9
9
9
9
9
9
9
9
9
9
9
9
9
9
9
9
9
9
9
9
9
9
9
9
9
9
9
9
9
9
9
9
9
9
9
9
9
9
9
9
9
9
9
9
9
9
9
9
9
9
9
9
9
9
9
9
9
9
9
9
9
9
9
9
9
9
9
9
9
9
9
9
9
9
9
9
9
9
9
9
9
9
9
9
9
9
9
9
9
9
9
9
9
9
9
9
9
9
9
9
9
9
9
9
9
9
9
9
9
9
9
9
9
9
9
9
9
9
9
9
9
9
9
9
9
9
9
9
9
9
9
9
9
9
9
9
9
9
9
9
9
9
9
9
9
9
9
9
9
9
9
9
9
9
9
9
9
9
9
9
9
9
9
9
9
9
9
9
9
9
9
9
9
9
9
9
9
9
9
9
9
9
9
9
9
9
9
9
9
9
9
9
9
9
9
9
9
9
9
9
9
9
9
9
9
9
9
9
9
9
9
9
9
9
9
9
9
9
9
9
9
9
9
9
9
9
9
9
9
9
9
9
9
9
9
9
9
9
9
9
9
9
9
9
9
9
9
9
9
9
9
9
9
9
9
9
9
9
9
9
9
9
9
9
9
9
9
9
9
9
9
9
9
9
9
9
9
9
9
9
9
9
9
9
9
9
9
9
9
9
9
9
9
9
9
9
9
9
9
9
9
9
9
9
9
9
9
9
9
9
9
9
9
9
9
9
9
9
9
9
9
9
9
9
9
POINT_DATA       496
SCALARS p double 
LOOKUP_TABLE default
   90000000.0000000     
   90000000.0000000     
   90000000.0000000     
   90000000.0000000     
   90000000.0000000     
   90000000.0000000     
   90000000.0000000     
   90000000.0000000     
   90000000.0000000     
   90000000.0000000     
   90000000.0000000     
   90000000.0000000     
   90000000.0000000     
   90000000.0000000     
   90000000.0000000     
   90000000.0000000     
   87177956.6399697     
   87177774.7716854     
   87177328.2673478     
   87176744.4358732     
   87176141.8247291     
   87175674.2728394     
   87175356.7488155     
   87175115.3444906     
   87174915.5918069     
   87174743.7436559     
   87174592.4781406     
   87174457.6480373     
   87174336.6523390     
   87174228.3934809     
   87174129.8873357     
   87174082.3365422     
   84357243.5791977     
   84357037.4978551     
   84356461.6099203     
   84355727.0127762     
   84355047.3150859     
   84354454.6282751     
   84353943.7247318     
   84353512.8442731     
   84353142.8541179     
   84352818.4752823     
   84352530.9318119     
   84352275.1667884     
   84352049.1957808     
   84351854.3419328     
   84351707.0721781     
   84351649.0627765     
   81542555.9743884     
   81542352.6144188     
   81541886.4425012     
   81541310.6700896     
   81540670.2249928     
   81540029.8924730     
   81539427.7477897     
   81538877.1413950     
   81538381.1609229     
   81537936.0119060     
   81537537.6032163     
   81537184.1593026     
   81536877.3092471     
   81536625.6942548     
   81536449.6937051     
   81536383.9887082     
   78738164.4364887     
   78738037.5748634     
   78737682.9481306     
   78737170.0929828     
   78736567.6385896     
   78735923.5193524     
   78735278.2743861     
   78734659.0517941     
   78734080.2582157     
   78733548.9885383     
   78733068.9204591     
   78732643.8691705     
   78732280.6635090     
   78731991.8770193     
   78731798.1575912     
   78731728.2118242     
   75947376.1870653     
   75947263.6931085     
   75946948.8056305     
   75946478.2177791     
   75945900.9761820     
   75945262.6582635     
   75944600.8322699     
   75943945.1461108     
   75943316.8038353     
   75942730.1757357     
   75942195.7902515     
   75941723.2045592     
   75941323.6239690     
   75941012.0029068     
   75940808.1221464     
   75940735.9012843     
   73172713.4960858     
   73172607.6736751     
   73172310.5509939     
   73171862.9152867     
   73171305.2301705     
   73170676.3228878     
   73170011.2462784     
   73169339.6331574     
   73168685.4224744     
   73168067.5063035     
   73167501.3137216     
   73167000.8365784     
   73166580.5334797     
   73166256.7394104     
   73166048.1725058     
   73165975.1826386     
   70416187.2099817     
   70416085.7369906     
   70415800.5653155     
   70415369.2223379     
   70414827.7652154     
   70414210.8492740     
   70413550.7484164     
   70412876.3531724     
   70412212.6638760     
   70411581.0300187     
   70410999.9999387     
   70410486.5315306     
   70410057.2041424     
   70409729.0666833     
   70409519.8242830     
   70409447.1739042     
   67679196.0225427     
   67679098.6554937     
   67678824.3117575     
   67678407.6849193     
   67677882.0237843     
   67677279.2719328     
   67676629.6710562     
   67675961.1701112     
   67675299.0380149     
   67674665.8698435     
   67674081.9957859     
   67673566.1380969     
   67673136.0832995     
   67672809.1179104     
   67672602.0193228     
   67672530.4931667     
   64962490.7724620     
   64962397.5505190     
   64962134.0385692     
   64961732.1091222     
   64961222.7477160     
   64960635.9599061     
   64960000.4911731     
   64959343.4473731     
   64958689.9915302     
   64958063.2510453     
   64957484.4578961     
   64956973.2443119     
   64956547.9489905     
   64956225.7714452     
   64956022.6414938     
   64955952.7406428     
   62266169.5835413     
   62266080.4630012     
   62265827.6813466     
   62265440.4068418     
   62264947.6233737     
   62264377.7811438     
   62263758.4611667     
   62263116.0383401     
   62262475.4036622     
   62261859.8065117     
   62261290.8317996     
   62260788.4677141     
   62260371.1772662     
   62260055.8733593     
   62259857.7164029     
   62259789.7003841     
   59589702.3894111     
   59589617.1229124     
   59589374.4869036     
   59589001.2118753     
   59588524.5102020     
   59587971.5200962     
   59587368.8636127     
   59586742.2741762     
   59586116.2962008     
   59585514.0719056     
   59584957.2134485     
   59584465.7297808     
   59584057.9540600     
   59583750.4106004     
   59583557.5739047     
   59583491.5038056     
   56931981.2171845     
   56931899.3501558     
   56931665.7313367     
   56931305.0451465     
   56930843.0089311     
   56930305.6665131     
   56929718.8417230     
   56929107.7044893     
   56928496.4278861     
   56927907.9255338     
   56927363.6545597     
   56926883.4572243     
   56926485.4039720     
   56926185.5994167     
   56925997.9238473     
   56925933.7049952     
   54291392.6455470     
   54291313.5480824     
   54291087.3404541     
   54290737.1413374     
   54290287.5087744     
   54289763.6298275     
   54289190.6896675     
   54288593.3784809     
   54287995.5062540     
   54287419.7020474     
   54286887.1743166     
   54286417.5050995     
   54286028.4483364     
   54285735.7054737     
   54285552.6618265     
   54285490.0842326     
   51665908.1205218     
   51665831.0324882     
   51665610.2683027     
   51665267.9202880     
   51664827.7740173     
   51664314.4287162     
   51663752.6059792     
   51663166.6126776     
   51662579.9264127     
   51662014.8737735     
   51661492.3719797     
   51661031.7043784     
   51660650.3019909     
   51660363.5089925     
   51660184.3205787     
   51660123.0964267     
   49053187.2961390     
   49053111.3755316     
   49052893.8584749     
   49052556.3879982     
   49052122.4015850     
   49051616.2066552     
   49051062.2517577     
   49050484.5661182     
   49049906.3360531     
   49049349.5843461     
   49048834.9177847     
   49048381.3091870     
   49048005.8843022     
   49047723.6917039     
   49047547.4452985     
   49047487.2434802     
   46450689.2507019     
   46450613.6215443     
   46450397.0635421     
   46450061.3708860     
   46449630.0814847     
   46449127.5233965     
   46448578.0686924     
   46448005.5726940     
   46447432.9665528     
   46446881.9644921     
   46446372.8442889     
   46445924.2609655     
   46445553.0592148     
   46445274.0596725     
   46445099.8072453     
   46445040.2852505     
   43855786.3589421     
   43855710.1573306     
   43855492.3134902     
   43855155.3882756     
   43854723.4812921     
   43854221.2569482     
   43853673.1987719     
   43853103.0734058     
   43852533.5691885     
   43851986.0631183     
   43851480.4653429     
   43851035.0918991     
   43850666.5234636     
   43850389.4195185     
   43850216.2727194     
   43850157.1061847     
   41265875.7657130     
   41265798.1836420     
   41265576.9837220     
   41265236.1210464     
   41264800.7221025     
   41264296.0924818     
   41263746.9882760     
   41263177.1333863     
   41262608.9400089     
   41262063.3736665     
   41261559.8982464     
   41261116.4391114     
   41260749.3113988     
   41260473.0746642     
   41260300.2932597     
   41260241.2033119     
   38678483.7833322     
   38678404.1103313     
   38678177.7870601     
   38677830.8051329     
   38677389.7805927     
   38676880.9388071     
   38676329.4209350     
   38675758.8900471     
   38675191.3784851     
   38674647.2977555     
   38674145.5273194     
   38673703.5043511     
   38673337.2484924     
   38673061.2719833     
   38672888.3466069     
   38672829.1249056     
   36091359.0862954     
   36091276.7490628     
   36091043.9649261     
   36090689.4283704     
   36090241.7003647     
   36089728.1598918     
   36089174.3699814     
   36088603.8214889     
   36088037.9660383     
   36087496.4279101     
   36086997.2864191     
   36086557.3333250     
   36086192.2254355     
   36085916.4694666     
   36085743.1983760     
   36085683.7295511     
   33502551.2627811     
   33502465.8632464     
   33502225.8392399     
   33501863.2966636     
   33501409.1840210     
   33500892.1966657     
   33500338.2443116     
   33499770.4062081     
   33499209.2285672     
   33498673.2061184     
   33498179.3112394     
   33497743.4619524     
   33497380.8385765     
   33497105.9702081     
   33496932.5295780     
   33496872.8106708     
   30910472.0597918     
   30910383.4128842     
   30910136.0669771     
   30909766.3198139     
   30909307.9251667     
   30908790.9424664     
   30908241.3885558     
   30907681.5233700     
   30907130.5183610     
   30906605.2807022     
   30906121.2751398     
   30905693.2396153     
   30905335.7069004     
   30905063.2344442     
   30904890.2427419     
   30904830.3995074     
   28313937.4872308     
   28313845.6620670     
   28313591.7751253     
   28313217.2121256     
   28312758.8913157     
   28312248.0874470     
   28311710.4415906     
   28311166.7761589     
   28310634.2723441     
   28310127.6968794     
   28309660.5309420     
   28309245.9487025     
   28308897.5886604     
   28308629.9985347     
   28308458.5792268     
   28308398.8800241     
   25712189.7890836     
   25712095.1632422     
   25711836.6132189     
   25711461.6810131     
   25711010.6580390     
   25710515.5325699     
   25710000.7267619     
   25709484.7692433     
   25708982.1351167     
   25708504.8756439     
   25708063.9946088     
   25707670.6540455     
   25707337.2422297     
   25707078.1601043     
   25706910.0159514     
   25706850.8869124     
   23104899.1141161     
   23104802.4670841     
   23104542.6262767     
   23104174.5796363     
   23103741.8103078     
   23103275.8657616     
   23102798.6006798     
   23102325.1949888     
   23101866.7400665     
   23101432.1289056     
   23101029.4881003     
   23100667.4964484     
   23100356.7664467     
   23100111.1963254     
   23099948.7316104     
   23099890.7798501     
   20492145.5065910     
   20492048.2152100     
   20491792.7383272     
   20491442.9652165     
   20491044.3739607     
   20490625.7524777     
   20490204.4658708     
   20489791.3319996     
   20489393.7003931     
   20489017.2063923     
   20488666.9901473     
   20488348.8458211     
   20488070.8712765     
   20487845.6332284     
   20487692.2023409     
   20487636.2867617     
   17874382.5278074     
   17874287.0935004     
   17874045.6983969     
   17873732.1522297     
   17873390.2289926     
   17873041.7953438     
   17872697.7299000     
   17872364.1973654     
   17872045.0615213     
   17871743.1274794     
   17871460.8992211     
   17871201.3473707     
   17870969.0704971     
   17870773.6973783     
   17870634.2378545     
   17870581.5544149     
   15252384.7702837     
   15252296.2467156     
   15252087.0194818     
   15251838.6541383     
   15251583.1561228     
   15251330.4791030     
   15251085.3406991     
   15250850.1014257     
   15250626.1259366     
   15250414.3089742     
   15250215.3742266     
   15250030.1409765     
   15249860.1561015     
   15249708.6292782     
   15249591.0374375     
   15249544.0625710     
   12627181.5769317     
   12627113.6262606     
   12626975.5505314     
   12626835.2772456     
   12626697.0673632     
   12626563.5750451     
   12626435.6804394     
   12626313.8092652     
   12626198.1574931     
   12626088.8016270     
   12625985.7326768     
   12625888.8803442     
   12625798.0853419     
   12625713.6736970     
   12625633.8584773     
   12625594.5461878     
   10000000.0000000     
   10000000.0000000     
   10000000.0000000     
   10000000.0000000     
   10000000.0000000     
   10000000.0000000     
   10000000.0000000     
   10000000.0000000     
   10000000.0000000     
   10000000.0000000     
   10000000.0000000     
   10000000.0000000     
   10000000.0000000     
  10000000.00000000     
   10000000.0000000     
   10000000.0000000     
VECTORS u double 
    0.00000E+00         0.21841E-01         0.00000E+00
    0.00000E+00         0.20891E-01         0.00000E+00
    0.00000E+00         0.19621E-01         0.00000E+00
    0.00000E+00         0.18187E-01         0.00000E+00
    0.00000E+00         0.16689E-01         0.00000E+00
    0.00000E+00         0.15218E-01         0.00000E+00
    0.00000E+00         0.13783E-01         0.00000E+00
    0.00000E+00         0.12383E-01         0.00000E+00
    0.00000E+00         0.10999E-01         0.00000E+00
    0.00000E+00         0.96147E-02         0.00000E+00
    0.00000E+00         0.82134E-02         0.00000E+00
    0.00000E+00         0.67751E-02         0.00000E+00
    0.00000E+00         0.52763E-02         0.00000E+00
    0.00000E+00         0.36860E-02         0.00000E+00
    0.00000E+00         0.19598E-02         0.00000E+00
    0.00000E+00         0.00000E+00         0.00000E+00
    0.54621E-02         0.21190E-01         0.00000E+00
    0.46131E-02         0.20261E-01         0.00000E+00
    0.38309E-02         0.19074E-01         0.00000E+00
    0.31667E-02         0.17741E-01         0.00000E+00
    0.26155E-02         0.16359E-01         0.00000E+00
    0.23026E-02         0.14973E-01         0.00000E+00
    0.20976E-02         0.13592E-01         0.00000E+00
    0.19230E-02         0.12226E-01         0.00000E+00
    0.17606E-02         0.10867E-01         0.00000E+00
    0.16002E-02         0.95035E-02         0.00000E+00
    0.14338E-02         0.81193E-02         0.00000E+00
    0.12533E-02         0.66961E-02         0.00000E+00
    0.10484E-02         0.52110E-02         0.00000E+00
    0.80316E-03         0.36337E-02         0.00000E+00
    0.48737E-03         0.19202E-02         0.00000E+00
    0.00000E+00         0.00000E+00         0.00000E+00
    0.94849E-02         0.20159E-01         0.00000E+00
    0.81374E-02         0.19084E-01         0.00000E+00
    0.68270E-02         0.17944E-01         0.00000E+00
    0.57472E-02         0.16758E-01         0.00000E+00
    0.49795E-02         0.15545E-01         0.00000E+00
    0.44302E-02         0.14309E-01         0.00000E+00
    0.40125E-02         0.13048E-01         0.00000E+00
    0.36581E-02         0.11771E-01         0.00000E+00
    0.33301E-02         0.10482E-01         0.00000E+00
    0.30079E-02         0.91768E-02         0.00000E+00
    0.26753E-02         0.78429E-02         0.00000E+00
    0.23161E-02         0.64649E-02         0.00000E+00
    0.19108E-02         0.50220E-02         0.00000E+00
    0.14306E-02         0.34870E-02         0.00000E+00
    0.82421E-03         0.18238E-02         0.00000E+00
    0.00000E+00         0.00000E+00         0.00000E+00
    0.12579E-01         0.18535E-01         0.00000E+00
    0.10822E-01         0.17539E-01         0.00000E+00
    0.93311E-02         0.16516E-01         0.00000E+00
    0.81074E-02         0.15484E-01         0.00000E+00
    0.71403E-02         0.14431E-01         0.00000E+00
    0.63812E-02         0.13341E-01         0.00000E+00
    0.57621E-02         0.12215E-01         0.00000E+00
    0.52258E-02         0.11056E-01         0.00000E+00
    0.47301E-02         0.98697E-02         0.00000E+00
    0.42456E-02         0.86532E-02         0.00000E+00
    0.37483E-02         0.73994E-02         0.00000E+00
    0.32149E-02         0.60960E-02         0.00000E+00
    0.26186E-02         0.47257E-02         0.00000E+00
    0.19228E-02         0.32670E-02         0.00000E+00
    0.10746E-02         0.16972E-02         0.00000E+00
    0.00000E+00         0.00000E+00         0.00000E+00
    0.15169E-01         0.16576E-01         0.00000E+00
    0.13257E-01         0.15740E-01         0.00000E+00
    0.11619E-01         0.14880E-01         0.00000E+00
    0.10242E-01         0.13996E-01         0.00000E+00
    0.91002E-02         0.13086E-01         0.00000E+00
    0.81530E-02         0.12139E-01         0.00000E+00
    0.73487E-02         0.11152E-01         0.00000E+00
    0.66373E-02         0.10126E-01         0.00000E+00
    0.59766E-02         0.90616E-02         0.00000E+00
    0.53322E-02         0.79581E-02         0.00000E+00
    0.46745E-02         0.68102E-02         0.00000E+00
    0.39747E-02         0.56087E-02         0.00000E+00
    0.32012E-02         0.43406E-02         0.00000E+00
    0.23152E-02         0.29911E-02         0.00000E+00
    0.12678E-02         0.15466E-02         0.00000E+00
    0.00000E+00         0.00000E+00         0.00000E+00
    0.17541E-01         0.14439E-01         0.00000E+00
    0.15472E-01         0.13760E-01         0.00000E+00
    0.13688E-01         0.13051E-01         0.00000E+00
    0.12161E-01         0.12315E-01         0.00000E+00
    0.10860E-01         0.11549E-01         0.00000E+00
    0.97460E-02         0.10746E-01         0.00000E+00
    0.87736E-02         0.99033E-02         0.00000E+00
    0.78988E-02         0.90183E-02         0.00000E+00
    0.70807E-02         0.80906E-02         0.00000E+00
    0.62830E-02         0.71186E-02         0.00000E+00
    0.54726E-02         0.60982E-02         0.00000E+00
    0.46174E-02         0.50226E-02         0.00000E+00
    0.36833E-02         0.38832E-02         0.00000E+00
    0.26322E-02         0.26703E-02         0.00000E+00
    0.14204E-02         0.13766E-02         0.00000E+00
    0.00000E+00         0.00000E+00         0.00000E+00
    0.19679E-01         0.12136E-01         0.00000E+00
    0.17462E-01         0.11610E-01         0.00000E+00
    0.15539E-01         0.11054E-01         0.00000E+00
    0.13873E-01         0.10468E-01         0.00000E+00
    0.12428E-01         0.98498E-02         0.00000E+00
    0.11163E-01         0.91957E-02         0.00000E+00
    0.10040E-01         0.85018E-02         0.00000E+00
    0.90153E-02         0.77658E-02         0.00000E+00
    0.80512E-02         0.69859E-02         0.00000E+00
    0.71103E-02         0.61600E-02         0.00000E+00
    0.61581E-02         0.52849E-02         0.00000E+00
    0.51608E-02         0.43558E-02         0.00000E+00
    0.40838E-02         0.33670E-02         0.00000E+00
    0.28907E-02         0.23130E-02         0.00000E+00
    0.15427E-02         0.11904E-02         0.00000E+00
    0.00000E+00         0.00000E+00         0.00000E+00
    0.21572E-01         0.96891E-02         0.00000E+00
    0.19226E-01         0.93155E-02         0.00000E+00
    0.17177E-01         0.89124E-02         0.00000E+00
    0.15384E-01         0.84793E-02         0.00000E+00
    0.13808E-01         0.80139E-02         0.00000E+00
    0.12410E-01         0.75133E-02         0.00000E+00
    0.11151E-01         0.69743E-02         0.00000E+00
    0.99923E-02         0.63947E-02         0.00000E+00
    0.88956E-02         0.57721E-02         0.00000E+00
    0.78243E-02         0.51047E-02         0.00000E+00
    0.67434E-02         0.43896E-02         0.00000E+00
    0.56189E-02         0.36237E-02         0.00000E+00
    0.44167E-02         0.28035E-02         0.00000E+00
    0.31024E-02         0.19262E-02         0.00000E+00
    0.16414E-02         0.99088E-03         0.00000E+00
    0.00000E+00         0.00000E+00         0.00000E+00
    0.23219E-01         0.71232E-02         0.00000E+00
    0.20764E-01         0.69008E-02         0.00000E+00
    0.18604E-01         0.66515E-02         0.00000E+00
    0.16698E-01         0.63735E-02         0.00000E+00
    0.15006E-01         0.60645E-02         0.00000E+00
    0.13491E-01         0.57220E-02         0.00000E+00
    0.12113E-01         0.53436E-02         0.00000E+00
    0.10835E-01         0.49270E-02         0.00000E+00
    0.96209E-02         0.44703E-02         0.00000E+00
    0.84336E-02         0.39715E-02         0.00000E+00
    0.72387E-02         0.34285E-02         0.00000E+00
    0.60026E-02         0.28394E-02         0.00000E+00
    0.46923E-02         0.22021E-02         0.00000E+00
    0.32756E-02         0.15156E-02         0.00000E+00
    0.17212E-02         0.78049E-03         0.00000E+00
    0.00000E+00         0.00000E+00         0.00000E+00
    0.24622E-01         0.44607E-02         0.00000E+00
    0.22078E-01         0.43887E-02         0.00000E+00
    0.19824E-01         0.42936E-02         0.00000E+00
    0.17820E-01         0.41723E-02         0.00000E+00
    0.16029E-01         0.40225E-02         0.00000E+00
    0.14411E-01         0.38422E-02         0.00000E+00
    0.12931E-01         0.36292E-02         0.00000E+00
    0.11550E-01         0.33817E-02         0.00000E+00
    0.10233E-01         0.30979E-02         0.00000E+00
    0.89452E-02         0.27763E-02         0.00000E+00
    0.76518E-02         0.24153E-02         0.00000E+00
    0.63200E-02         0.20137E-02         0.00000E+00
    0.49183E-02         0.15706E-02         0.00000E+00
    0.34162E-02         0.10860E-02         0.00000E+00
    0.17853E-02         0.56137E-03         0.00000E+00
    0.00000E+00         0.00000E+00         0.00000E+00
    0.25785E-01         0.17220E-02         0.00000E+00
    0.23169E-01         0.18001E-02         0.00000E+00
    0.20838E-01         0.18591E-02         0.00000E+00
    0.18754E-01         0.18956E-02         0.00000E+00
    0.16878E-01         0.19072E-02         0.00000E+00
    0.15175E-01         0.18921E-02         0.00000E+00
    0.13608E-01         0.18486E-02         0.00000E+00
    0.12141E-01         0.17751E-02         0.00000E+00
    0.10738E-01         0.16702E-02         0.00000E+00
    0.93653E-02         0.15327E-02         0.00000E+00
    0.79891E-02         0.13615E-02         0.00000E+00
    0.65775E-02         0.11560E-02         0.00000E+00
    0.51002E-02         0.91592E-03         0.00000E+00
    0.35285E-02         0.64180E-03         0.00000E+00
    0.18362E-02         0.33541E-03         0.00000E+00
    0.00000E+00         0.00000E+00         0.00000E+00
    0.26712E-01        -0.10748E-02         0.00000E+00
    0.24043E-01        -0.84683E-03         0.00000E+00
    0.21652E-01        -0.63386E-03         0.00000E+00
    0.19502E-01        -0.43905E-03         0.00000E+00
    0.17560E-01        -0.26460E-03         0.00000E+00
    0.15788E-01        -0.11215E-03         0.00000E+00
    0.14151E-01         0.16899E-04         0.00000E+00
    0.12613E-01         0.12132E-03         0.00000E+00
    0.11140E-01         0.20005E-03         0.00000E+00
    0.96987E-02         0.25215E-03         0.00000E+00
    0.82556E-02         0.27694E-03         0.00000E+00
    0.67799E-02         0.27404E-03         0.00000E+00
    0.52423E-02         0.24358E-03         0.00000E+00
    0.36156E-02         0.18640E-03         0.00000E+00
    0.18753E-02         0.10425E-03         0.00000E+00
    0.00000E+00         0.00000E+00         0.00000E+00
    0.27410E-01        -0.39136E-02         0.00000E+00
    0.24702E-01        -0.35361E-02         0.00000E+00
    0.22266E-01        -0.31693E-02         0.00000E+00
    0.20069E-01        -0.28160E-02         0.00000E+00
    0.18075E-01        -0.24778E-02         0.00000E+00
    0.16251E-01        -0.21563E-02         0.00000E+00
    0.14561E-01        -0.18523E-02         0.00000E+00
    0.12970E-01        -0.15670E-02         0.00000E+00
    0.11444E-01        -0.13011E-02         0.00000E+00
    0.99495E-02        -0.10553E-02         0.00000E+00
    0.84553E-02        -0.83007E-03         0.00000E+00
    0.69308E-02        -0.62555E-03         0.00000E+00
    0.53477E-02        -0.44149E-03         0.00000E+00
    0.36798E-02        -0.27705E-03         0.00000E+00
    0.19038E-02        -0.13068E-03         0.00000E+00
    0.00000E+00         0.00000E+00         0.00000E+00
    0.27882E-01        -0.67801E-02         0.00000E+00
    0.25150E-01        -0.62535E-02         0.00000E+00
    0.22685E-01        -0.57333E-02         0.00000E+00
    0.20456E-01        -0.52214E-02         0.00000E+00
    0.18428E-01        -0.47191E-02         0.00000E+00
    0.16568E-01        -0.42274E-02         0.00000E+00
    0.14842E-01        -0.37471E-02         0.00000E+00
    0.13214E-01        -0.32788E-02         0.00000E+00
    0.11651E-01        -0.28233E-02         0.00000E+00
    0.10121E-01        -0.23809E-02         0.00000E+00
    0.85912E-02        -0.19521E-02         0.00000E+00
    0.70331E-02        -0.15369E-02         0.00000E+00
    0.54186E-02        -0.11350E-02         0.00000E+00
    0.37226E-02        -0.74580E-03         0.00000E+00
    0.19227E-02        -0.36806E-03         0.00000E+00
    0.00000E+00         0.00000E+00         0.00000E+00
    0.28132E-01        -0.96615E-02         0.00000E+00
    0.25389E-01        -0.89862E-02         0.00000E+00
    0.22910E-01        -0.83130E-02         0.00000E+00
    0.20665E-01        -0.76428E-02         0.00000E+00
    0.18620E-01        -0.69763E-02         0.00000E+00
    0.16741E-01        -0.63140E-02         0.00000E+00
    0.14995E-01        -0.56564E-02         0.00000E+00
    0.13348E-01        -0.50041E-02         0.00000E+00
    0.11765E-01        -0.43574E-02         0.00000E+00
    0.10215E-01        -0.37168E-02         0.00000E+00
    0.86656E-02        -0.30825E-02         0.00000E+00
    0.70887E-02        -0.24547E-02         0.00000E+00
    0.54568E-02        -0.18331E-02         0.00000E+00
    0.37452E-02        -0.12174E-02         0.00000E+00
    0.19324E-02        -0.60672E-03         0.00000E+00
    0.00000E+00         0.00000E+00         0.00000E+00
    0.28163E-01        -0.12546E-01         0.00000E+00
    0.25422E-01        -0.11723E-01         0.00000E+00
    0.22944E-01        -0.10897E-01         0.00000E+00
    0.20698E-01        -0.10069E-01         0.00000E+00
    0.18652E-01        -0.92383E-02         0.00000E+00
    0.16772E-01        -0.84053E-02         0.00000E+00
    0.15024E-01        -0.75702E-02         0.00000E+00
    0.13374E-01        -0.67333E-02         0.00000E+00
    0.11787E-01        -0.58949E-02         0.00000E+00
    0.10233E-01        -0.50554E-02         0.00000E+00
    0.86800E-02        -0.42151E-02         0.00000E+00
    0.70990E-02        -0.33740E-02         0.00000E+00
    0.54633E-02        -0.25321E-02         0.00000E+00
    0.37485E-02        -0.16894E-02         0.00000E+00
    0.19334E-02        -0.84553E-03         0.00000E+00
    0.00000E+00         0.00000E+00         0.00000E+00
    0.27975E-01        -0.15422E-01         0.00000E+00
    0.25248E-01        -0.14451E-01         0.00000E+00
    0.22785E-01        -0.13474E-01         0.00000E+00
    0.20556E-01        -0.12489E-01         0.00000E+00
    0.18526E-01        -0.11494E-01         0.00000E+00
    0.16662E-01        -0.10491E-01         0.00000E+00
    0.14929E-01        -0.94787E-02         0.00000E+00
    0.13292E-01        -0.84575E-02         0.00000E+00
    0.11719E-01        -0.74278E-02         0.00000E+00
    0.10177E-01        -0.63898E-02         0.00000E+00
    0.86354E-02        -0.53438E-02         0.00000E+00
    0.70647E-02        -0.42901E-02         0.00000E+00
    0.54386E-02        -0.32287E-02         0.00000E+00
    0.37328E-02        -0.21597E-02         0.00000E+00
    0.19259E-02        -0.10834E-02         0.00000E+00
    0.00000E+00         0.00000E+00         0.00000E+00
    0.27568E-01        -0.18279E-01         0.00000E+00
    0.24868E-01        -0.17162E-01         0.00000E+00
    0.22436E-01        -0.16033E-01         0.00000E+00
    0.20239E-01        -0.14891E-01         0.00000E+00
    0.18242E-01        -0.13734E-01         0.00000E+00
    0.16411E-01        -0.12561E-01         0.00000E+00
    0.14710E-01        -0.11372E-01         0.00000E+00
    0.13105E-01        -0.10168E-01         0.00000E+00
    0.11561E-01        -0.89477E-02         0.00000E+00
    0.10047E-01        -0.77126E-02         0.00000E+00
    0.85319E-02        -0.64628E-02         0.00000E+00
    0.69861E-02        -0.51982E-02         0.00000E+00
    0.53830E-02        -0.39191E-02         0.00000E+00
    0.36981E-02        -0.26260E-02         0.00000E+00
    0.19098E-02        -0.13193E-02         0.00000E+00
    0.00000E+00         0.00000E+00         0.00000E+00
    0.26940E-01        -0.21105E-01         0.00000E+00
    0.24281E-01        -0.19842E-01         0.00000E+00
    0.21895E-01        -0.18563E-01         0.00000E+00
    0.19746E-01        -0.17265E-01         0.00000E+00
    0.17800E-01        -0.15945E-01         0.00000E+00
    0.16019E-01        -0.14604E-01         0.00000E+00
    0.14368E-01        -0.13240E-01         0.00000E+00
    0.12810E-01        -0.11854E-01         0.00000E+00
    0.11313E-01        -0.10446E-01         0.00000E+00
    0.98431E-02        -0.90165E-02         0.00000E+00
    0.83694E-02        -0.75655E-02         0.00000E+00
    0.68627E-02        -0.60933E-02         0.00000E+00
    0.52959E-02        -0.45999E-02         0.00000E+00
    0.36441E-02        -0.30859E-02         0.00000E+00
    0.18851E-02        -0.15521E-02         0.00000E+00
    0.00000E+00         0.00000E+00         0.00000E+00
    0.26089E-01        -0.23887E-01         0.00000E+00
    0.23485E-01        -0.22479E-01         0.00000E+00
    0.21161E-01        -0.21051E-01         0.00000E+00
    0.19078E-01        -0.19597E-01         0.00000E+00
    0.17200E-01        -0.18117E-01         0.00000E+00
    0.15487E-01        -0.16608E-01         0.00000E+00
    0.13902E-01        -0.15071E-01         0.00000E+00
    0.12409E-01        -0.13506E-01         0.00000E+00
    0.10974E-01        -0.11913E-01         0.00000E+00
    0.95636E-02        -0.10293E-01         0.00000E+00
    0.81465E-02        -0.86453E-02         0.00000E+00
    0.66933E-02        -0.69700E-02         0.00000E+00
    0.51763E-02        -0.52671E-02         0.00000E+00
    0.35700E-02        -0.35370E-02         0.00000E+00
    0.18512E-02        -0.17806E-02         0.00000E+00
    0.00000E+00         0.00000E+00         0.00000E+00
    0.25009E-01        -0.26612E-01         0.00000E+00
    0.22476E-01        -0.25060E-01         0.00000E+00
    0.20231E-01        -0.23483E-01         0.00000E+00
    0.18233E-01        -0.21876E-01         0.00000E+00
    0.16441E-01        -0.20235E-01         0.00000E+00
    0.14813E-01        -0.18561E-01         0.00000E+00
    0.13312E-01        -0.16853E-01         0.00000E+00
    0.11900E-01        -0.15112E-01         0.00000E+00
    0.10543E-01        -0.13339E-01         0.00000E+00
    0.92071E-02        -0.11533E-01         0.00000E+00
    0.78613E-02        -0.96944E-02         0.00000E+00
    0.64759E-02        -0.78223E-02         0.00000E+00
    0.50225E-02        -0.59163E-02         0.00000E+00
    0.34746E-02        -0.39764E-02         0.00000E+00
    0.18076E-02        -0.20036E-02         0.00000E+00
    0.00000E+00         0.00000E+00         0.00000E+00
    0.23695E-01        -0.29263E-01         0.00000E+00
    0.21251E-01        -0.27570E-01         0.00000E+00
    0.19105E-01        -0.25845E-01         0.00000E+00
    0.17210E-01        -0.24084E-01         0.00000E+00
    0.15522E-01        -0.22285E-01         0.00000E+00
    0.13998E-01        -0.20447E-01         0.00000E+00
    0.12597E-01        -0.18572E-01         0.00000E+00
    0.11282E-01        -0.16660E-01         0.00000E+00
    0.10017E-01        -0.14711E-01         0.00000E+00
    0.87707E-02        -0.12726E-01         0.00000E+00
    0.75107E-02        -0.10704E-01         0.00000E+00
    0.62073E-02        -0.86435E-02         0.00000E+00
    0.48316E-02        -0.65427E-02         0.00000E+00
    0.33556E-02        -0.44012E-02         0.00000E+00
    0.17531E-02        -0.22196E-02         0.00000E+00
    0.00000E+00         0.00000E+00         0.00000E+00
    0.22140E-01        -0.31823E-01         0.00000E+00
    0.19805E-01        -0.29988E-01         0.00000E+00
    0.17778E-01        -0.28117E-01         0.00000E+00
    0.16007E-01        -0.26203E-01         0.00000E+00
    0.14443E-01        -0.24247E-01         0.00000E+00
    0.13040E-01        -0.22249E-01         0.00000E+00
    0.11755E-01        -0.20210E-01         0.00000E+00
    0.10551E-01        -0.18133E-01         0.00000E+00
    0.93940E-02        -0.16017E-01         0.00000E+00
    0.82505E-02        -0.13861E-01         0.00000E+00
    0.70902E-02        -0.11665E-01         0.00000E+00
    0.58831E-02        -0.94259E-02         0.00000E+00
    0.45996E-02        -0.71408E-02         0.00000E+00
    0.32102E-02        -0.48080E-02         0.00000E+00
    0.16861E-02        -0.24271E-02         0.00000E+00
    0.00000E+00         0.00000E+00         0.00000E+00
    0.20336E-01        -0.34270E-01         0.00000E+00
    0.18134E-01        -0.32296E-01         0.00000E+00
    0.16250E-01        -0.30278E-01         0.00000E+00
    0.14625E-01        -0.28214E-01         0.00000E+00
    0.13203E-01        -0.26102E-01         0.00000E+00
    0.11938E-01        -0.23947E-01         0.00000E+00
    0.10784E-01        -0.21750E-01         0.00000E+00
    0.97059E-02        -0.19514E-01         0.00000E+00
    0.86685E-02        -0.17239E-01         0.00000E+00
    0.76410E-02        -0.14924E-01         0.00000E+00
    0.65938E-02        -0.12566E-01         0.00000E+00
    0.54971E-02        -0.10161E-01         0.00000E+00
    0.43209E-02        -0.77046E-02         0.00000E+00
    0.30340E-02        -0.51931E-02         0.00000E+00
    0.16042E-02        -0.26245E-02         0.00000E+00
    0.00000E+00         0.00000E+00         0.00000E+00
    0.18274E-01        -0.36579E-01         0.00000E+00
    0.16232E-01        -0.34466E-01         0.00000E+00
    0.14517E-01        -0.32303E-01         0.00000E+00
    0.13061E-01        -0.30089E-01         0.00000E+00
    0.11803E-01        -0.27825E-01         0.00000E+00
    0.10691E-01        -0.25517E-01         0.00000E+00
    0.96825E-02        -0.23169E-01         0.00000E+00
    0.87411E-02        -0.20783E-01         0.00000E+00
    0.78350E-02        -0.18361E-01         0.00000E+00
    0.69351E-02        -0.15899E-01         0.00000E+00
    0.60133E-02        -0.13394E-01         0.00000E+00
    0.50410E-02        -0.10839E-01         0.00000E+00
    0.39880E-02        -0.82270E-02         0.00000E+00
    0.28210E-02        -0.55522E-02         0.00000E+00
    0.15042E-02        -0.28100E-02         0.00000E+00
    0.00000E+00         0.00000E+00         0.00000E+00
    0.15945E-01        -0.38720E-01         0.00000E+00
    0.14097E-01        -0.36470E-01         0.00000E+00
    0.12581E-01        -0.34162E-01         0.00000E+00
    0.11318E-01        -0.31799E-01         0.00000E+00
    0.10242E-01        -0.29386E-01         0.00000E+00
    0.92981E-02        -0.26931E-01         0.00000E+00
    0.84460E-02        -0.24441E-01         0.00000E+00
    0.76516E-02        -0.21919E-01         0.00000E+00
    0.68860E-02        -0.19363E-01         0.00000E+00
    0.61234E-02        -0.16770E-01         0.00000E+00
    0.53382E-02        -0.14135E-01         0.00000E+00
    0.45038E-02        -0.11448E-01         0.00000E+00
    0.35903E-02        -0.87002E-02         0.00000E+00
    0.25631E-02        -0.58807E-02         0.00000E+00
    0.13815E-02        -0.29816E-02         0.00000E+00
    0.00000E+00         0.00000E+00         0.00000E+00
    0.13340E-01        -0.40655E-01         0.00000E+00
    0.11725E-01        -0.38269E-01         0.00000E+00
    0.10443E-01        -0.35817E-01         0.00000E+00
    0.93987E-02        -0.33307E-01         0.00000E+00
    0.85210E-02        -0.30751E-01         0.00000E+00
    0.77577E-02        -0.28160E-01         0.00000E+00
    0.70705E-02        -0.25541E-01         0.00000E+00
    0.64300E-02        -0.22896E-01         0.00000E+00
    0.58120E-02        -0.20224E-01         0.00000E+00
    0.51943E-02        -0.17519E-01         0.00000E+00
    0.45553E-02        -0.14774E-01         0.00000E+00
    0.38713E-02        -0.11977E-01         0.00000E+00
    0.31143E-02        -0.91152E-02         0.00000E+00
    0.22489E-02        -0.61731E-02         0.00000E+00
    0.12295E-02        -0.31371E-02         0.00000E+00
    0.00000E+00         0.00000E+00         0.00000E+00
    0.10450E-01        -0.42340E-01         0.00000E+00
    0.91180E-02        -0.39818E-01         0.00000E+00
    0.81071E-02        -0.37223E-01         0.00000E+00
    0.73060E-02        -0.34571E-01         0.00000E+00
    0.66413E-02        -0.31882E-01         0.00000E+00
    0.60661E-02        -0.29169E-01         0.00000E+00
    0.55492E-02        -0.26438E-01         0.00000E+00
    0.50672E-02        -0.23690E-01         0.00000E+00
    0.46012E-02        -0.20922E-01         0.00000E+00
    0.41342E-02        -0.18127E-01         0.00000E+00
    0.36489E-02        -0.15295E-01         0.00000E+00
    0.31261E-02        -0.12412E-01         0.00000E+00
    0.25419E-02        -0.94614E-02         0.00000E+00
    0.18625E-02        -0.64228E-02         0.00000E+00
    0.10384E-02        -0.32742E-02         0.00000E+00
    0.00000E+00         0.00000E+00         0.00000E+00
    0.72641E-02        -0.43713E-01         0.00000E+00
    0.62811E-02        -0.41057E-01         0.00000E+00
    0.55833E-02        -0.38320E-01         0.00000E+00
    0.50444E-02        -0.35538E-01         0.00000E+00
    0.46005E-02        -0.32735E-01         0.00000E+00
    0.42173E-02        -0.29923E-01         0.00000E+00
    0.38728E-02        -0.27104E-01         0.00000E+00
    0.35513E-02        -0.24278E-01         0.00000E+00
    0.32398E-02        -0.21438E-01         0.00000E+00
    0.29269E-02        -0.18577E-01         0.00000E+00
    0.26007E-02        -0.15682E-01         0.00000E+00
    0.22477E-02        -0.12738E-01         0.00000E+00
    0.18501E-02        -0.97261E-02         0.00000E+00
    0.13813E-02        -0.66211E-02         0.00000E+00
    0.79322E-03        -0.33892E-02         0.00000E+00
    0.00000E+00         0.00000E+00         0.00000E+00
    0.37760E-02        -0.44688E-01         0.00000E+00
    0.32328E-02        -0.41896E-01         0.00000E+00
    0.28820E-02        -0.39033E-01         0.00000E+00
    0.26128E-02        -0.36150E-01         0.00000E+00
    0.23915E-02        -0.33268E-01         0.00000E+00
    0.22004E-02        -0.30390E-01         0.00000E+00
    0.20284E-02        -0.27515E-01         0.00000E+00
    0.18677E-02        -0.24640E-01         0.00000E+00
    0.17119E-02        -0.21756E-01         0.00000E+00
    0.15550E-02        -0.18853E-01         0.00000E+00
    0.13912E-02        -0.15920E-01         0.00000E+00
    0.12133E-02        -0.12941E-01         0.00000E+00
    0.10122E-02        -0.98941E-02         0.00000E+00
    0.77272E-03        -0.67531E-02         0.00000E+00
    0.46677E-03        -0.34769E-02         0.00000E+00
    0.00000E+00         0.00000E+00         0.00000E+00
    0.00000E+00        -0.45103E-01         0.00000E+00
    0.00000E+00        -0.42206E-01         0.00000E+00
    0.00000E+00        -0.39282E-01         0.00000E+00
    0.00000E+00        -0.36361E-01         0.00000E+00
    0.00000E+00        -0.33450E-01         0.00000E+00
    0.00000E+00        -0.30549E-01         0.00000E+00
    0.00000E+00        -0.27654E-01         0.00000E+00
    0.00000E+00        -0.24762E-01         0.00000E+00
    0.00000E+00        -0.21863E-01         0.00000E+00
    0.00000E+00        -0.18947E-01         0.00000E+00
    0.00000E+00        -0.16001E-01         0.00000E+00
    0.00000E+00        -0.13010E-01         0.00000E+00
    0.00000E+00        -0.99520E-02         0.00000E+00
    0.00000E+00        -0.68001E-02         0.00000E+00
    0.00000E+00        -0.35130E-02         0.00000E+00
    0.00000E+00         0.00000E+00         0.00000E+00
CELL_DATA        450
VECTORS vDarcy double 
    0.20258E-07        -0.65274E-12         0.00000E+00
    0.20251E-07        -0.16018E-11         0.00000E+00
    0.20245E-07        -0.20935E-11         0.00000E+00
    0.20240E-07        -0.21599E-11         0.00000E+00
    0.20237E-07        -0.16752E-11         0.00000E+00
    0.20235E-07        -0.11374E-11         0.00000E+00
    0.20233E-07        -0.86457E-12         0.00000E+00
    0.20232E-07        -0.71529E-12         0.00000E+00
    0.20231E-07        -0.61529E-12         0.00000E+00
    0.20229E-07        -0.54153E-12         0.00000E+00
    0.20228E-07        -0.48264E-12         0.00000E+00
    0.20227E-07        -0.43307E-12         0.00000E+00
    0.20225E-07        -0.38744E-12         0.00000E+00
    0.20224E-07        -0.35249E-12         0.00000E+00
    0.20221E-07        -0.17013E-12         0.00000E+00
    0.20227E-07        -0.13910E-11         0.00000E+00
    0.20222E-07        -0.36647E-11         0.00000E+00
    0.20217E-07        -0.47244E-11         0.00000E+00
    0.20213E-07        -0.45939E-11         0.00000E+00
    0.20210E-07        -0.37977E-11         0.00000E+00
    0.20208E-07        -0.29668E-11         0.00000E+00
    0.20206E-07        -0.24072E-11         0.00000E+00
    0.20204E-07        -0.20398E-11         0.00000E+00
    0.20203E-07        -0.17764E-11         0.00000E+00
    0.20202E-07        -0.15706E-11         0.00000E+00
    0.20200E-07        -0.13979E-11         0.00000E+00
    0.20199E-07        -0.12416E-11         0.00000E+00
    0.20198E-07        -0.10846E-11         0.00000E+00
    0.20196E-07        -0.87934E-12         0.00000E+00
    0.20194E-07        -0.37763E-12         0.00000E+00
    0.20170E-07        -0.14670E-11         0.00000E+00
    0.20165E-07        -0.37329E-11         0.00000E+00
    0.20162E-07        -0.46936E-11         0.00000E+00
    0.20159E-07        -0.47280E-11         0.00000E+00
    0.20156E-07        -0.44153E-11         0.00000E+00
    0.20154E-07        -0.39851E-11         0.00000E+00
    0.20152E-07        -0.35136E-11         0.00000E+00
    0.20150E-07        -0.30997E-11         0.00000E+00
    0.20149E-07        -0.27542E-11         0.00000E+00
    0.20147E-07        -0.24548E-11         0.00000E+00
    0.20146E-07        -0.21799E-11         0.00000E+00
    0.20145E-07        -0.19064E-11         0.00000E+00
    0.20143E-07        -0.15973E-11         0.00000E+00
    0.20142E-07        -0.11564E-11         0.00000E+00
    0.20140E-07        -0.44252E-12         0.00000E+00
    0.20088E-07        -0.11827E-11         0.00000E+00
    0.20085E-07        -0.29394E-11         0.00000E+00
    0.20082E-07        -0.38981E-11         0.00000E+00
    0.20079E-07        -0.44500E-11         0.00000E+00
    0.20077E-07        -0.45982E-11         0.00000E+00
    0.20075E-07        -0.44650E-11         0.00000E+00
    0.20073E-07        -0.41869E-11         0.00000E+00
    0.20071E-07        -0.38462E-11         0.00000E+00
    0.20069E-07        -0.34939E-11         0.00000E+00
    0.20068E-07        -0.31431E-11         0.00000E+00
    0.20067E-07        -0.27851E-11         0.00000E+00
    0.20065E-07        -0.23970E-11         0.00000E+00
    0.20064E-07        -0.19330E-11         0.00000E+00
    0.20063E-07        -0.13224E-11         0.00000E+00
    0.20062E-07        -0.48515E-12         0.00000E+00
    0.19984E-07        -0.85699E-12         0.00000E+00
    0.19982E-07        -0.23969E-11         0.00000E+00
    0.19980E-07        -0.35204E-11         0.00000E+00
    0.19977E-07        -0.42225E-11         0.00000E+00
    0.19975E-07        -0.45897E-11         0.00000E+00
    0.19973E-07        -0.46774E-11         0.00000E+00
    0.19971E-07        -0.45619E-11         0.00000E+00
    0.19970E-07        -0.43189E-11         0.00000E+00
    0.19968E-07        -0.39993E-11         0.00000E+00
    0.19967E-07        -0.36289E-11         0.00000E+00
    0.19965E-07        -0.32107E-11         0.00000E+00
    0.19964E-07        -0.27282E-11         0.00000E+00
    0.19963E-07        -0.21473E-11         0.00000E+00
    0.19962E-07        -0.14219E-11         0.00000E+00
    0.19961E-07        -0.50838E-12         0.00000E+00
    0.19862E-07        -0.78141E-12         0.00000E+00
    0.19860E-07        -0.21903E-11         0.00000E+00
    0.19859E-07        -0.32860E-11         0.00000E+00
    0.19857E-07        -0.40611E-11         0.00000E+00
    0.19855E-07        -0.45341E-11         0.00000E+00
    0.19853E-07        -0.47472E-11         0.00000E+00
    0.19851E-07        -0.47481E-11         0.00000E+00
    0.19850E-07        -0.45877E-11         0.00000E+00
    0.19848E-07        -0.43083E-11         0.00000E+00
    0.19847E-07        -0.39361E-11         0.00000E+00
    0.19846E-07        -0.34798E-11         0.00000E+00
    0.19844E-07        -0.29318E-11         0.00000E+00
    0.19843E-07        -0.22721E-11         0.00000E+00
    0.19842E-07        -0.14747E-11         0.00000E+00
    0.19842E-07        -0.51918E-12         0.00000E+00
    0.19726E-07        -0.74172E-12         0.00000E+00
    0.19725E-07        -0.20833E-11         0.00000E+00
    0.19723E-07        -0.31446E-11         0.00000E+00
    0.19721E-07        -0.39319E-11         0.00000E+00
    0.19720E-07        -0.44563E-11         0.00000E+00
    0.19718E-07        -0.47397E-11         0.00000E+00
    0.19716E-07        -0.48139E-11         0.00000E+00
    0.19715E-07        -0.47130E-11         0.00000E+00
    0.19714E-07        -0.44683E-11         0.00000E+00
    0.19713E-07        -0.41021E-11         0.00000E+00
    0.19711E-07        -0.36253E-11         0.00000E+00
    0.19710E-07        -0.30376E-11         0.00000E+00
    0.19709E-07        -0.23307E-11         0.00000E+00
    0.19709E-07        -0.14936E-11         0.00000E+00
    0.19708E-07        -0.52063E-12         0.00000E+00
    0.19580E-07        -0.71124E-12         0.00000E+00
    0.19579E-07        -0.20012E-11         0.00000E+00
    0.19577E-07        -0.30327E-11         0.00000E+00
    0.19576E-07        -0.38163E-11         0.00000E+00
    0.19575E-07        -0.43615E-11         0.00000E+00
    0.19573E-07        -0.46832E-11         0.00000E+00
    0.19572E-07        -0.48016E-11         0.00000E+00
    0.19571E-07        -0.47402E-11         0.00000E+00
    0.19569E-07        -0.45218E-11         0.00000E+00
    0.19568E-07        -0.41644E-11         0.00000E+00
    0.19567E-07        -0.36795E-11         0.00000E+00
    0.19566E-07        -0.30719E-11         0.00000E+00
    0.19566E-07        -0.23416E-11         0.00000E+00
    0.19565E-07        -0.14881E-11         0.00000E+00
    0.19564E-07        -0.51531E-12         0.00000E+00
    0.19429E-07        -0.68151E-12         0.00000E+00
    0.19428E-07        -0.19232E-11         0.00000E+00
    0.19427E-07        -0.29267E-11         0.00000E+00
    0.19425E-07        -0.37004E-11         0.00000E+00
    0.19424E-07        -0.42526E-11         0.00000E+00
    0.19423E-07        -0.45939E-11         0.00000E+00
    0.19422E-07        -0.47383E-11         0.00000E+00
    0.19421E-07        -0.47025E-11         0.00000E+00
    0.19420E-07        -0.45032E-11         0.00000E+00
    0.19419E-07        -0.41555E-11         0.00000E+00
    0.19418E-07        -0.36707E-11         0.00000E+00
    0.19417E-07        -0.30568E-11         0.00000E+00
    0.19416E-07        -0.23198E-11         0.00000E+00
    0.19416E-07        -0.14660E-11         0.00000E+00
    0.19415E-07        -0.50539E-12         0.00000E+00
    0.19277E-07        -0.65182E-12         0.00000E+00
    0.19276E-07        -0.18455E-11         0.00000E+00
    0.19275E-07        -0.28209E-11         0.00000E+00
    0.19274E-07        -0.35819E-11         0.00000E+00
    0.19273E-07        -0.41339E-11         0.00000E+00
    0.19272E-07        -0.44845E-11         0.00000E+00
    0.19271E-07        -0.46440E-11         0.00000E+00
    0.19270E-07        -0.46245E-11         0.00000E+00
    0.19269E-07        -0.44394E-11         0.00000E+00
    0.19269E-07        -0.41013E-11         0.00000E+00
    0.19268E-07        -0.36217E-11         0.00000E+00
    0.19267E-07        -0.30106E-11         0.00000E+00
    0.19267E-07        -0.22777E-11         0.00000E+00
    0.19266E-07        -0.14337E-11         0.00000E+00
    0.19266E-07        -0.49275E-12         0.00000E+00
    0.19129E-07        -0.62319E-12         0.00000E+00
    0.19128E-07        -0.17704E-11         0.00000E+00
    0.19128E-07        -0.27177E-11         0.00000E+00
    0.19127E-07        -0.34642E-11         0.00000E+00
    0.19126E-07        -0.40120E-11         0.00000E+00
    0.19125E-07        -0.43661E-11         0.00000E+00
    0.19125E-07        -0.45340E-11         0.00000E+00
    0.19124E-07        -0.45253E-11         0.00000E+00
    0.19123E-07        -0.43508E-11         0.00000E+00
    0.19122E-07        -0.40220E-11         0.00000E+00
    0.19122E-07        -0.35504E-11         0.00000E+00
    0.19121E-07        -0.29474E-11         0.00000E+00
    0.19121E-07        -0.22250E-11         0.00000E+00
    0.19120E-07        -0.13967E-11         0.00000E+00
    0.19120E-07        -0.47897E-12         0.00000E+00
    0.18989E-07        -0.59708E-12         0.00000E+00
    0.18989E-07        -0.17014E-11         0.00000E+00
    0.18988E-07        -0.26219E-11         0.00000E+00
    0.18988E-07        -0.33534E-11         0.00000E+00
    0.18987E-07        -0.38948E-11         0.00000E+00
    0.18987E-07        -0.42489E-11         0.00000E+00
    0.18986E-07        -0.44211E-11         0.00000E+00
    0.18985E-07        -0.44193E-11         0.00000E+00
    0.18985E-07        -0.42530E-11         0.00000E+00
    0.18984E-07        -0.39329E-11         0.00000E+00
    0.18984E-07        -0.34705E-11         0.00000E+00
    0.18983E-07        -0.28781E-11         0.00000E+00
    0.18983E-07        -0.21691E-11         0.00000E+00
    0.18983E-07        -0.13590E-11         0.00000E+00
    0.18982E-07        -0.46532E-12         0.00000E+00
    0.18861E-07        -0.57487E-12         0.00000E+00
    0.18861E-07        -0.16422E-11         0.00000E+00
    0.18861E-07        -0.25388E-11         0.00000E+00
    0.18860E-07        -0.32558E-11         0.00000E+00
    0.18860E-07        -0.37898E-11         0.00000E+00
    0.18859E-07        -0.41417E-11         0.00000E+00
    0.18859E-07        -0.43154E-11         0.00000E+00
    0.18859E-07        -0.43179E-11         0.00000E+00
    0.18858E-07        -0.41577E-11         0.00000E+00
    0.18858E-07        -0.38451E-11         0.00000E+00
    0.18857E-07        -0.33918E-11         0.00000E+00
    0.18857E-07        -0.28106E-11         0.00000E+00
    0.18857E-07        -0.21158E-11         0.00000E+00
    0.18857E-07        -0.13237E-11         0.00000E+00
    0.18856E-07        -0.45275E-12         0.00000E+00
    0.18748E-07        -0.55764E-12         0.00000E+00
    0.18748E-07        -0.15958E-11         0.00000E+00
    0.18747E-07        -0.24726E-11         0.00000E+00
    0.18747E-07        -0.31768E-11         0.00000E+00
    0.18747E-07        -0.37031E-11         0.00000E+00
    0.18747E-07        -0.40513E-11         0.00000E+00
    0.18747E-07        -0.42246E-11         0.00000E+00
    0.18746E-07        -0.42290E-11         0.00000E+00
    0.18746E-07        -0.40730E-11         0.00000E+00
    0.18746E-07        -0.37665E-11         0.00000E+00
    0.18746E-07        -0.33214E-11         0.00000E+00
    0.18745E-07        -0.27506E-11         0.00000E+00
    0.18745E-07        -0.20690E-11         0.00000E+00
    0.18745E-07        -0.12932E-11         0.00000E+00
    0.18745E-07        -0.44197E-12         0.00000E+00
    0.18651E-07        -0.54613E-12         0.00000E+00
    0.18651E-07        -0.15644E-11         0.00000E+00
    0.18651E-07        -0.24265E-11         0.00000E+00
    0.18651E-07        -0.31200E-11         0.00000E+00
    0.18651E-07        -0.36390E-11         0.00000E+00
    0.18651E-07        -0.39825E-11         0.00000E+00
    0.18651E-07        -0.41535E-11         0.00000E+00
    0.18651E-07        -0.41579E-11         0.00000E+00
    0.18651E-07        -0.40040E-11         0.00000E+00
    0.18651E-07        -0.37020E-11         0.00000E+00
    0.18651E-07        -0.32633E-11         0.00000E+00
    0.18651E-07        -0.27013E-11         0.00000E+00
    0.18650E-07        -0.20309E-11         0.00000E+00
    0.18650E-07        -0.12686E-11         0.00000E+00
    0.18650E-07        -0.43340E-12         0.00000E+00
    0.18573E-07        -0.54077E-12         0.00000E+00
    0.18573E-07        -0.15489E-11         0.00000E+00
    0.18573E-07        -0.24020E-11         0.00000E+00
    0.18573E-07        -0.30876E-11         0.00000E+00
    0.18573E-07        -0.35996E-11         0.00000E+00
    0.18573E-07        -0.39374E-11         0.00000E+00
    0.18573E-07        -0.41043E-11         0.00000E+00
    0.18574E-07        -0.41067E-11         0.00000E+00
    0.18574E-07        -0.39530E-11         0.00000E+00
    0.18574E-07        -0.36534E-11         0.00000E+00
    0.18574E-07        -0.32195E-11         0.00000E+00
    0.18574E-07        -0.26644E-11         0.00000E+00
    0.18574E-07        -0.20026E-11         0.00000E+00
    0.18574E-07        -0.12508E-11         0.00000E+00
    0.18574E-07        -0.42724E-12         0.00000E+00
    0.18513E-07        -0.54161E-12         0.00000E+00
    0.18513E-07        -0.15496E-11         0.00000E+00
    0.18514E-07        -0.23994E-11         0.00000E+00
    0.18514E-07        -0.30793E-11         0.00000E+00
    0.18514E-07        -0.35845E-11         0.00000E+00
    0.18515E-07        -0.39154E-11         0.00000E+00
    0.18515E-07        -0.40763E-11         0.00000E+00
    0.18515E-07        -0.40746E-11         0.00000E+00
    0.18515E-07        -0.39191E-11         0.00000E+00
    0.18516E-07        -0.36202E-11         0.00000E+00
    0.18516E-07        -0.31894E-11         0.00000E+00
    0.18516E-07        -0.26393E-11         0.00000E+00
    0.18516E-07        -0.19841E-11         0.00000E+00
    0.18516E-07        -0.12395E-11         0.00000E+00
    0.18516E-07        -0.42346E-12         0.00000E+00
    0.18472E-07        -0.54841E-12         0.00000E+00
    0.18472E-07        -0.15657E-11         0.00000E+00
    0.18473E-07        -0.24172E-11         0.00000E+00
    0.18473E-07        -0.30932E-11         0.00000E+00
    0.18474E-07        -0.35909E-11         0.00000E+00
    0.18474E-07        -0.39131E-11         0.00000E+00
    0.18475E-07        -0.40659E-11         0.00000E+00
    0.18475E-07        -0.40579E-11         0.00000E+00
    0.18476E-07        -0.38988E-11         0.00000E+00
    0.18476E-07        -0.35993E-11         0.00000E+00
    0.18476E-07        -0.31704E-11         0.00000E+00
    0.18477E-07        -0.26242E-11         0.00000E+00
    0.18477E-07        -0.19738E-11         0.00000E+00
    0.18477E-07        -0.12340E-11         0.00000E+00
    0.18477E-07        -0.42184E-12         0.00000E+00
    0.18448E-07        -0.56063E-12         0.00000E+00
    0.18449E-07        -0.15955E-11         0.00000E+00
    0.18450E-07        -0.24524E-11         0.00000E+00
    0.18450E-07        -0.31248E-11         0.00000E+00
    0.18451E-07        -0.36136E-11         0.00000E+00
    0.18452E-07        -0.39245E-11         0.00000E+00
    0.18452E-07        -0.40664E-11         0.00000E+00
    0.18453E-07        -0.40498E-11         0.00000E+00
    0.18454E-07        -0.38857E-11         0.00000E+00
    0.18454E-07        -0.35848E-11         0.00000E+00
    0.18455E-07        -0.31578E-11         0.00000E+00
    0.18455E-07        -0.26155E-11         0.00000E+00
    0.18455E-07        -0.19694E-11         0.00000E+00
    0.18456E-07        -0.12329E-11         0.00000E+00
    0.18456E-07        -0.42195E-12         0.00000E+00
    0.18441E-07        -0.57741E-12         0.00000E+00
    0.18442E-07        -0.16363E-11         0.00000E+00
    0.18443E-07        -0.25004E-11         0.00000E+00
    0.18444E-07        -0.31679E-11         0.00000E+00
    0.18445E-07        -0.36444E-11         0.00000E+00
    0.18445E-07        -0.39402E-11         0.00000E+00
    0.18446E-07        -0.40679E-11         0.00000E+00
    0.18447E-07        -0.40406E-11         0.00000E+00
    0.18448E-07        -0.38705E-11         0.00000E+00
    0.18448E-07        -0.35686E-11         0.00000E+00
    0.18449E-07        -0.31447E-11         0.00000E+00
    0.18449E-07        -0.26077E-11         0.00000E+00
    0.18450E-07        -0.19673E-11         0.00000E+00
    0.18450E-07        -0.12344E-11         0.00000E+00
    0.18450E-07        -0.42323E-12         0.00000E+00
    0.18447E-07        -0.59763E-12         0.00000E+00
    0.18448E-07        -0.16847E-11         0.00000E+00
    0.18450E-07        -0.25552E-11         0.00000E+00
    0.18451E-07        -0.32137E-11         0.00000E+00
    0.18452E-07        -0.36725E-11         0.00000E+00
    0.18453E-07        -0.39479E-11         0.00000E+00
    0.18454E-07        -0.40573E-11         0.00000E+00
    0.18455E-07        -0.40170E-11         0.00000E+00
    0.18455E-07        -0.38409E-11         0.00000E+00
    0.18456E-07        -0.35398E-11         0.00000E+00
    0.18457E-07        -0.31220E-11         0.00000E+00
    0.18457E-07        -0.25943E-11         0.00000E+00
    0.18458E-07        -0.19630E-11         0.00000E+00
    0.18459E-07        -0.12360E-11         0.00000E+00
    0.18459E-07        -0.42492E-12         0.00000E+00
    0.18465E-07        -0.61992E-12         0.00000E+00
    0.18466E-07        -0.17360E-11         0.00000E+00
    0.18468E-07        -0.26086E-11         0.00000E+00
    0.18469E-07        -0.32509E-11         0.00000E+00
    0.18470E-07        -0.36838E-11         0.00000E+00
    0.18471E-07        -0.39318E-11         0.00000E+00
    0.18473E-07        -0.40183E-11         0.00000E+00
    0.18474E-07        -0.39632E-11         0.00000E+00
    0.18475E-07        -0.37820E-11         0.00000E+00
    0.18475E-07        -0.34851E-11         0.00000E+00
    0.18476E-07        -0.30789E-11         0.00000E+00
    0.18477E-07        -0.25667E-11         0.00000E+00
    0.18478E-07        -0.19509E-11         0.00000E+00
    0.18478E-07        -0.12348E-11         0.00000E+00
    0.18479E-07        -0.42618E-12         0.00000E+00
    0.18491E-07        -0.64261E-12         0.00000E+00
    0.18493E-07        -0.17849E-11         0.00000E+00
    0.18494E-07        -0.26507E-11         0.00000E+00
    0.18496E-07        -0.32650E-11         0.00000E+00
    0.18497E-07        -0.36609E-11         0.00000E+00
    0.18499E-07        -0.38728E-11         0.00000E+00
    0.18500E-07        -0.39312E-11         0.00000E+00
    0.18501E-07        -0.38602E-11         0.00000E+00
    0.18502E-07        -0.36762E-11         0.00000E+00
    0.18503E-07        -0.33891E-11         0.00000E+00
    0.18504E-07        -0.30025E-11         0.00000E+00
    0.18505E-07        -0.25154E-11         0.00000E+00
    0.18505E-07        -0.19246E-11         0.00000E+00
    0.18506E-07        -0.12274E-11         0.00000E+00
    0.18507E-07        -0.42603E-12         0.00000E+00
    0.18522E-07        -0.66369E-12         0.00000E+00
    0.18524E-07        -0.18242E-11         0.00000E+00
    0.18526E-07        -0.26684E-11         0.00000E+00
    0.18528E-07        -0.32378E-11         0.00000E+00
    0.18529E-07        -0.35821E-11         0.00000E+00
    0.18531E-07        -0.37481E-11         0.00000E+00
    0.18532E-07        -0.37739E-11         0.00000E+00
    0.18534E-07        -0.36870E-11         0.00000E+00
    0.18535E-07        -0.35046E-11         0.00000E+00
    0.18536E-07        -0.32348E-11         0.00000E+00
    0.18537E-07        -0.28783E-11         0.00000E+00
    0.18538E-07        -0.24290E-11         0.00000E+00
    0.18539E-07        -0.18765E-11         0.00000E+00
    0.18539E-07        -0.12099E-11         0.00000E+00
    0.18540E-07        -0.42342E-12         0.00000E+00
    0.18556E-07        -0.68064E-12         0.00000E+00
    0.18558E-07        -0.18449E-11         0.00000E+00
    0.18560E-07        -0.26445E-11         0.00000E+00
    0.18562E-07        -0.31460E-11         0.00000E+00
    0.18564E-07        -0.34215E-11         0.00000E+00
    0.18566E-07        -0.35322E-11         0.00000E+00
    0.18567E-07        -0.35229E-11         0.00000E+00
    0.18569E-07        -0.34225E-11         0.00000E+00
    0.18570E-07        -0.32475E-11         0.00000E+00
    0.18571E-07        -0.30044E-11         0.00000E+00
    0.18572E-07        -0.26904E-11         0.00000E+00
    0.18573E-07        -0.22945E-11         0.00000E+00
    0.18574E-07        -0.17978E-11         0.00000E+00
    0.18575E-07        -0.11778E-11         0.00000E+00
    0.18576E-07        -0.41713E-12         0.00000E+00
    0.18589E-07        -0.68990E-12         0.00000E+00
    0.18591E-07        -0.18334E-11         0.00000E+00
    0.18594E-07        -0.25542E-11         0.00000E+00
    0.18596E-07        -0.29586E-11         0.00000E+00
    0.18598E-07        -0.31484E-11         0.00000E+00
    0.18600E-07        -0.31985E-11         0.00000E+00
    0.18602E-07        -0.31561E-11         0.00000E+00
    0.18603E-07        -0.30480E-11         0.00000E+00
    0.18604E-07        -0.28881E-11         0.00000E+00
    0.18605E-07        -0.26809E-11         0.00000E+00
    0.18607E-07        -0.24222E-11         0.00000E+00
    0.18608E-07        -0.20967E-11         0.00000E+00
    0.18609E-07        -0.16769E-11         0.00000E+00
    0.18610E-07        -0.11252E-11         0.00000E+00
    0.18611E-07        -0.40562E-12         0.00000E+00
    0.18618E-07        -0.68536E-12         0.00000E+00
    0.18621E-07        -0.17672E-11         0.00000E+00
    0.18624E-07        -0.23596E-11         0.00000E+00
    0.18627E-07        -0.26347E-11         0.00000E+00
    0.18629E-07        -0.27295E-11         0.00000E+00
    0.18631E-07        -0.27238E-11         0.00000E+00
    0.18632E-07        -0.26576E-11         0.00000E+00
    0.18634E-07        -0.25514E-11         0.00000E+00
    0.18635E-07        -0.24152E-11         0.00000E+00
    0.18636E-07        -0.22517E-11         0.00000E+00
    0.18638E-07        -0.20570E-11         0.00000E+00
    0.18639E-07        -0.18170E-11         0.00000E+00
    0.18640E-07        -0.14979E-11         0.00000E+00
    0.18641E-07        -0.10431E-11         0.00000E+00
    0.18642E-07        -0.38680E-12         0.00000E+00
    0.18642E-07        -0.65396E-12         0.00000E+00
    0.18646E-07        -0.16023E-11         0.00000E+00
    0.18649E-07        -0.19984E-11         0.00000E+00
    0.18652E-07        -0.21250E-11         0.00000E+00
    0.18654E-07        -0.21385E-11         0.00000E+00
    0.18656E-07        -0.20964E-11         0.00000E+00
    0.18658E-07        -0.20240E-11         0.00000E+00
    0.18659E-07        -0.19329E-11         0.00000E+00
    0.18661E-07        -0.18286E-11         0.00000E+00
    0.18662E-07        -0.17128E-11         0.00000E+00
    0.18663E-07        -0.15834E-11         0.00000E+00
    0.18664E-07        -0.14322E-11         0.00000E+00
    0.18666E-07        -0.12352E-11         0.00000E+00
    0.18667E-07        -0.91535E-12         0.00000E+00
    0.18668E-07        -0.35491E-12         0.00000E+00
    0.18659E-07        -0.55608E-12         0.00000E+00
    0.18663E-07        -0.12346E-11         0.00000E+00
    0.18667E-07        -0.13818E-11         0.00000E+00
    0.18670E-07        -0.14001E-11         0.00000E+00
    0.18672E-07        -0.13735E-11         0.00000E+00
    0.18674E-07        -0.13270E-11         0.00000E+00
    0.18676E-07        -0.12705E-11         0.00000E+00
    0.18677E-07        -0.12085E-11         0.00000E+00
    0.18679E-07        -0.11430E-11         0.00000E+00
    0.18680E-07        -0.10748E-11         0.00000E+00
    0.18681E-07        -0.10041E-11         0.00000E+00
    0.18682E-07        -0.92831E-12         0.00000E+00
    0.18684E-07        -0.83997E-12         0.00000E+00
    0.18685E-07        -0.70286E-12         0.00000E+00
    0.18687E-07        -0.30726E-12         0.00000E+00
    0.18667E-07        -0.24141E-12         0.00000E+00
    0.18673E-07        -0.49071E-12         0.00000E+00
    0.18676E-07        -0.49865E-12         0.00000E+00
    0.18679E-07        -0.49141E-12         0.00000E+00
    0.18682E-07        -0.47472E-12         0.00000E+00
    0.18683E-07        -0.45489E-12         0.00000E+00
    0.18685E-07        -0.43352E-12         0.00000E+00
    0.18687E-07        -0.41145E-12         0.00000E+00
    0.18688E-07        -0.38910E-12         0.00000E+00
    0.18689E-07        -0.36677E-12         0.00000E+00
    0.18690E-07        -0.34468E-12         0.00000E+00
    0.18692E-07        -0.32316E-12         0.00000E+00
    0.18693E-07        -0.30047E-12         0.00000E+00
    0.18695E-07        -0.28414E-12         0.00000E+00
    0.18697E-07        -0.13997E-12         0.00000E+00
POINT_DATA        496
VECTORS vDarcyNodal double 
    0.20257E-07         0.00000E+00         0.00000E+00
    0.20254E-07         0.00000E+00         0.00000E+00
    0.20248E-07         0.00000E+00         0.00000E+00
    0.20243E-07         0.00000E+00         0.00000E+00
    0.20239E-07         0.00000E+00         0.00000E+00
    0.20236E-07         0.00000E+00         0.00000E+00
    0.20234E-07         0.00000E+00         0.00000E+00
    0.20233E-07         0.00000E+00         0.00000E+00
    0.20231E-07         0.00000E+00         0.00000E+00
    0.20230E-07         0.00000E+00         0.00000E+00
    0.20229E-07         0.00000E+00         0.00000E+00
    0.20228E-07         0.00000E+00         0.00000E+00
    0.20226E-07        -0.66661E-22         0.00000E+00
    0.20225E-07        -0.79598E-26         0.00000E+00
    0.20223E-07         0.66653E-22         0.00000E+00
    0.20221E-07         0.00000E+00         0.00000E+00
    0.20242E-07        -0.13048E-11         0.00000E+00
    0.20239E-07        -0.22536E-11         0.00000E+00
    0.20234E-07        -0.36940E-11         0.00000E+00
    0.20229E-07        -0.42522E-11         0.00000E+00
    0.20225E-07        -0.38343E-11         0.00000E+00
    0.20223E-07        -0.28122E-11         0.00000E+00
    0.20221E-07        -0.20017E-11         0.00000E+00
    0.20219E-07        -0.15797E-11         0.00000E+00
    0.20218E-07        -0.13305E-11         0.00000E+00
    0.20216E-07        -0.11567E-11         0.00000E+00
    0.20215E-07        -0.10241E-11         0.00000E+00
    0.20214E-07        -0.91562E-12         0.00000E+00
    0.20212E-07        -0.82044E-12         0.00000E+00
    0.20211E-07        -0.73987E-12         0.00000E+00
    0.20209E-07        -0.52258E-12         0.00000E+00
    0.20208E-07        -0.34024E-12         0.00000E+00
    0.20199E-07        -0.14773E-11         0.00000E+00
    0.20196E-07        -0.28023E-11         0.00000E+00
    0.20192E-07        -0.46954E-11         0.00000E+00
    0.20188E-07        -0.50664E-11         0.00000E+00
    0.20185E-07        -0.45573E-11         0.00000E+00
    0.20182E-07        -0.39521E-11         0.00000E+00
    0.20180E-07        -0.33721E-11         0.00000E+00
    0.20178E-07        -0.28672E-11         0.00000E+00
    0.20177E-07        -0.24856E-11         0.00000E+00
    0.20175E-07        -0.21902E-11         0.00000E+00
    0.20174E-07        -0.19444E-11         0.00000E+00
    0.20173E-07        -0.17239E-11         0.00000E+00
    0.20171E-07        -0.15057E-11         0.00000E+00
    0.20170E-07        -0.12240E-11         0.00000E+00
    0.20168E-07        -0.73437E-12         0.00000E+00
    0.20167E-07        -0.41502E-12         0.00000E+00
    0.20129E-07        -0.14570E-11         0.00000E+00
    0.20127E-07        -0.23982E-11         0.00000E+00
    0.20124E-07        -0.37317E-11         0.00000E+00
    0.20121E-07        -0.43554E-11         0.00000E+00
    0.20118E-07        -0.45860E-11         0.00000E+00
    0.20115E-07        -0.44483E-11         0.00000E+00
    0.20113E-07        -0.41265E-11         0.00000E+00
    0.20111E-07        -0.37460E-11         0.00000E+00
    0.20110E-07        -0.33682E-11         0.00000E+00
    0.20108E-07        -0.30186E-11         0.00000E+00
    0.20107E-07        -0.26902E-11         0.00000E+00
    0.20106E-07        -0.23624E-11         0.00000E+00
    0.20104E-07        -0.19979E-11         0.00000E+00
    0.20103E-07        -0.15297E-11         0.00000E+00
    0.20102E-07        -0.86456E-12         0.00000E+00
    0.20101E-07        -0.47002E-12         0.00000E+00
    0.20036E-07        -0.90857E-12         0.00000E+00
    0.20035E-07        -0.17241E-11         0.00000E+00
    0.20032E-07        -0.31059E-11         0.00000E+00
    0.20030E-07        -0.39928E-11         0.00000E+00
    0.20027E-07        -0.44622E-11         0.00000E+00
    0.20025E-07        -0.46149E-11         0.00000E+00
    0.20023E-07        -0.45253E-11         0.00000E+00
    0.20021E-07        -0.42870E-11         0.00000E+00
    0.20019E-07        -0.39719E-11         0.00000E+00
    0.20018E-07        -0.36183E-11         0.00000E+00
    0.20017E-07        -0.32380E-11         0.00000E+00
    0.20015E-07        -0.28197E-11         0.00000E+00
    0.20014E-07        -0.23321E-11         0.00000E+00
    0.20013E-07        -0.17257E-11         0.00000E+00
    0.20012E-07        -0.94296E-12         0.00000E+00
    0.20011E-07        -0.50028E-12         0.00000E+00
    0.19923E-07        -0.80542E-12         0.00000E+00
    0.19922E-07        -0.15298E-11         0.00000E+00
    0.19920E-07        -0.28114E-11         0.00000E+00
    0.19918E-07        -0.37501E-11         0.00000E+00
    0.19916E-07        -0.43500E-11         0.00000E+00
    0.19914E-07        -0.46522E-11         0.00000E+00
    0.19912E-07        -0.47139E-11         0.00000E+00
    0.19910E-07        -0.45937E-11         0.00000E+00
    0.19909E-07        -0.43463E-11         0.00000E+00
    0.19907E-07        -0.40098E-11         0.00000E+00
    0.19906E-07        -0.36016E-11         0.00000E+00
    0.19905E-07        -0.31192E-11         0.00000E+00
    0.19904E-07        -0.25434E-11         0.00000E+00
    0.19903E-07        -0.18434E-11         0.00000E+00
    0.19902E-07        -0.98728E-12         0.00000E+00
    0.19901E-07        -0.51647E-12         0.00000E+00
    0.19794E-07        -0.75741E-12         0.00000E+00
    0.19793E-07        -0.14419E-11         0.00000E+00
    0.19792E-07        -0.26649E-11         0.00000E+00
    0.19790E-07        -0.35969E-11         0.00000E+00
    0.19788E-07        -0.42452E-11         0.00000E+00
    0.19786E-07        -0.46290E-11         0.00000E+00
    0.19785E-07        -0.47813E-11         0.00000E+00
    0.19783E-07        -0.47421E-11         0.00000E+00
    0.19782E-07        -0.45497E-11         0.00000E+00
    0.19780E-07        -0.42346E-11         0.00000E+00
    0.19779E-07        -0.38143E-11         0.00000E+00
    0.19778E-07        -0.32924E-11         0.00000E+00
    0.19777E-07        -0.26605E-11         0.00000E+00
    0.19776E-07        -0.19034E-11         0.00000E+00
    0.19775E-07        -0.10066E-11         0.00000E+00
    0.19775E-07        -0.52189E-12         0.00000E+00
    0.19653E-07        -0.72604E-12         0.00000E+00
    0.19652E-07        -0.13832E-11         0.00000E+00
    0.19651E-07        -0.25631E-11         0.00000E+00
    0.19649E-07        -0.34796E-11         0.00000E+00
    0.19648E-07        -0.41430E-11         0.00000E+00
    0.19646E-07        -0.45671E-11         0.00000E+00
    0.19645E-07        -0.47723E-11         0.00000E+00
    0.19643E-07        -0.47848E-11         0.00000E+00
    0.19642E-07        -0.46316E-11         0.00000E+00
    0.19641E-07        -0.43357E-11         0.00000E+00
    0.19640E-07        -0.39130E-11         0.00000E+00
    0.19639E-07        -0.33705E-11         0.00000E+00
    0.19638E-07        -0.27078E-11         0.00000E+00
    0.19637E-07        -0.19209E-11         0.00000E+00
    0.19636E-07        -0.10076E-11         0.00000E+00
    0.19636E-07        -0.51937E-12         0.00000E+00
    0.19505E-07        -0.69644E-12         0.00000E+00
    0.19504E-07        -0.13293E-11         0.00000E+00
    0.19503E-07        -0.24709E-11         0.00000E+00
    0.19501E-07        -0.33695E-11         0.00000E+00
    0.19500E-07        -0.40348E-11         0.00000E+00
    0.19499E-07        -0.44777E-11         0.00000E+00
    0.19497E-07        -0.47125E-11         0.00000E+00
    0.19496E-07        -0.47570E-11         0.00000E+00
    0.19495E-07        -0.46304E-11         0.00000E+00
    0.19494E-07        -0.43504E-11         0.00000E+00
    0.19493E-07        -0.39309E-11         0.00000E+00
    0.19492E-07        -0.33809E-11         0.00000E+00
    0.19491E-07        -0.27057E-11         0.00000E+00
    0.19491E-07        -0.19087E-11         0.00000E+00
    0.19490E-07        -0.99577E-12         0.00000E+00
    0.19490E-07        -0.51124E-12         0.00000E+00
    0.19353E-07        -0.66658E-12         0.00000E+00
    0.19352E-07        -0.12754E-11         0.00000E+00
    0.19351E-07        -0.23789E-11         0.00000E+00
    0.19350E-07        -0.32577E-11         0.00000E+00
    0.19349E-07        -0.39183E-11         0.00000E+00
    0.19348E-07        -0.43689E-11         0.00000E+00
    0.19347E-07        -0.46198E-11         0.00000E+00
    0.19346E-07        -0.46839E-11         0.00000E+00
    0.19345E-07        -0.45753E-11         0.00000E+00
    0.19344E-07        -0.43083E-11         0.00000E+00
    0.19343E-07        -0.38953E-11         0.00000E+00
    0.19342E-07        -0.33466E-11         0.00000E+00
    0.19342E-07        -0.26710E-11         0.00000E+00
    0.19341E-07        -0.18771E-11         0.00000E+00
    0.19341E-07        -0.97559E-12         0.00000E+00
    0.19340E-07        -0.49953E-12         0.00000E+00
    0.19203E-07        -0.63706E-12         0.00000E+00
    0.19203E-07        -0.12220E-11         0.00000E+00
    0.19202E-07        -0.22875E-11         0.00000E+00
    0.19201E-07        -0.31451E-11         0.00000E+00
    0.19200E-07        -0.37974E-11         0.00000E+00
    0.19199E-07        -0.42495E-11         0.00000E+00
    0.19198E-07        -0.45087E-11         0.00000E+00
    0.19198E-07        -0.45846E-11         0.00000E+00
    0.19197E-07        -0.44886E-11         0.00000E+00
    0.19196E-07        -0.42324E-11         0.00000E+00
    0.19195E-07        -0.38277E-11         0.00000E+00
    0.19195E-07        -0.32857E-11         0.00000E+00
    0.19194E-07        -0.26173E-11         0.00000E+00
    0.19193E-07        -0.18344E-11         0.00000E+00
    0.19193E-07        -0.95090E-12         0.00000E+00
    0.19193E-07        -0.48597E-12         0.00000E+00
    0.19059E-07        -0.60932E-12         0.00000E+00
    0.19059E-07        -0.11716E-11         0.00000E+00
    0.19058E-07        -0.22006E-11         0.00000E+00
    0.19058E-07        -0.30368E-11         0.00000E+00
    0.19057E-07        -0.36787E-11         0.00000E+00
    0.19056E-07        -0.41286E-11         0.00000E+00
    0.19056E-07        -0.43914E-11         0.00000E+00
    0.19055E-07        -0.44746E-11         0.00000E+00
    0.19054E-07        -0.43874E-11         0.00000E+00
    0.19054E-07        -0.41404E-11         0.00000E+00
    0.19053E-07        -0.37447E-11         0.00000E+00
    0.19053E-07        -0.32121E-11         0.00000E+00
    0.19052E-07        -0.25550E-11         0.00000E+00
    0.19052E-07        -0.17873E-11         0.00000E+00
    0.19051E-07        -0.92476E-12         0.00000E+00
    0.19051E-07        -0.47197E-12         0.00000E+00
    0.18925E-07        -0.58485E-12         0.00000E+00
    0.18925E-07        -0.11269E-11         0.00000E+00
    0.18925E-07        -0.21228E-11         0.00000E+00
    0.18924E-07        -0.29386E-11         0.00000E+00
    0.18924E-07        -0.35695E-11         0.00000E+00
    0.18923E-07        -0.40151E-11         0.00000E+00
    0.18923E-07        -0.42786E-11         0.00000E+00
    0.18922E-07        -0.43658E-11         0.00000E+00
    0.18922E-07        -0.42849E-11         0.00000E+00
    0.18921E-07        -0.40455E-11         0.00000E+00
    0.18921E-07        -0.36586E-11         0.00000E+00
    0.18920E-07        -0.31364E-11         0.00000E+00
    0.18920E-07        -0.24922E-11         0.00000E+00
    0.18920E-07        -0.17408E-11         0.00000E+00
    0.18920E-07        -0.89953E-12         0.00000E+00
    0.18919E-07        -0.45866E-12         0.00000E+00
    0.18805E-07        -0.56490E-12         0.00000E+00
    0.18804E-07        -0.10902E-11         0.00000E+00
    0.18804E-07        -0.20582E-11         0.00000E+00
    0.18804E-07        -0.28560E-11         0.00000E+00
    0.18804E-07        -0.34762E-11         0.00000E+00
    0.18803E-07        -0.39164E-11         0.00000E+00
    0.18803E-07        -0.41786E-11         0.00000E+00
    0.18803E-07        -0.42675E-11         0.00000E+00
    0.18802E-07        -0.41907E-11         0.00000E+00
    0.18802E-07        -0.39573E-11         0.00000E+00
    0.18802E-07        -0.35783E-11         0.00000E+00
    0.18801E-07        -0.30660E-11         0.00000E+00
    0.18801E-07        -0.24343E-11         0.00000E+00
    0.18801E-07        -0.16987E-11         0.00000E+00
    0.18801E-07        -0.87696E-12         0.00000E+00
    0.18801E-07        -0.44685E-12         0.00000E+00
    0.18699E-07        -0.55038E-12         0.00000E+00
    0.18699E-07        -0.10633E-11         0.00000E+00
    0.18699E-07        -0.20102E-11         0.00000E+00
    0.18699E-07        -0.27933E-11         0.00000E+00
    0.18699E-07        -0.34038E-11         0.00000E+00
    0.18699E-07        -0.38381E-11         0.00000E+00
    0.18699E-07        -0.40974E-11         0.00000E+00
    0.18699E-07        -0.41861E-11         0.00000E+00
    0.18698E-07        -0.41114E-11         0.00000E+00
    0.18698E-07        -0.38822E-11         0.00000E+00
    0.18698E-07        -0.35096E-11         0.00000E+00
    0.18698E-07        -0.30059E-11         0.00000E+00
    0.18698E-07        -0.23852E-11         0.00000E+00
    0.18698E-07        -0.16634E-11         0.00000E+00
    0.18698E-07        -0.85819E-12         0.00000E+00
    0.18698E-07        -0.43710E-12         0.00000E+00
    0.18612E-07        -0.54189E-12         0.00000E+00
    0.18612E-07        -0.10472E-11         0.00000E+00
    0.18612E-07        -0.19806E-11         0.00000E+00
    0.18612E-07        -0.27532E-11         0.00000E+00
    0.18612E-07        -0.33553E-11         0.00000E+00
    0.18612E-07        -0.37835E-11         0.00000E+00
    0.18612E-07        -0.40387E-11         0.00000E+00
    0.18612E-07        -0.41253E-11         0.00000E+00
    0.18612E-07        -0.40506E-11         0.00000E+00
    0.18612E-07        -0.38238E-11         0.00000E+00
    0.18612E-07        -0.34557E-11         0.00000E+00
    0.18612E-07        -0.29587E-11         0.00000E+00
    0.18612E-07        -0.23470E-11         0.00000E+00
    0.18612E-07        -0.16361E-11         0.00000E+00
    0.18612E-07        -0.84386E-12         0.00000E+00
    0.18612E-07        -0.42971E-12         0.00000E+00
    0.18543E-07        -0.53965E-12         0.00000E+00
    0.18543E-07        -0.10424E-11         0.00000E+00
    0.18543E-07        -0.19703E-11         0.00000E+00
    0.18543E-07        -0.27365E-11         0.00000E+00
    0.18544E-07        -0.33318E-11         0.00000E+00
    0.18544E-07        -0.37535E-11         0.00000E+00
    0.18544E-07        -0.40031E-11         0.00000E+00
    0.18544E-07        -0.40857E-11         0.00000E+00
    0.18544E-07        -0.40091E-11         0.00000E+00
    0.18545E-07        -0.37826E-11         0.00000E+00
    0.18545E-07        -0.34172E-11         0.00000E+00
    0.18545E-07        -0.29251E-11         0.00000E+00
    0.18545E-07        -0.23200E-11         0.00000E+00
    0.18545E-07        -0.16173E-11         0.00000E+00
    0.18545E-07        -0.83415E-12         0.00000E+00
    0.18545E-07        -0.42477E-12         0.00000E+00
    0.18492E-07        -0.54357E-12         0.00000E+00
    0.18493E-07        -0.10488E-11         0.00000E+00
    0.18493E-07        -0.19787E-11         0.00000E+00
    0.18493E-07        -0.27423E-11         0.00000E+00
    0.18494E-07        -0.33320E-11         0.00000E+00
    0.18494E-07        -0.37464E-11         0.00000E+00
    0.18495E-07        -0.39886E-11         0.00000E+00
    0.18495E-07        -0.40652E-11         0.00000E+00
    0.18495E-07        -0.39846E-11         0.00000E+00
    0.18496E-07        -0.37567E-11         0.00000E+00
    0.18496E-07        -0.33924E-11         0.00000E+00
    0.18496E-07        -0.29036E-11         0.00000E+00
    0.18496E-07        -0.23034E-11         0.00000E+00
    0.18497E-07        -0.16063E-11         0.00000E+00
    0.18497E-07        -0.82877E-12         0.00000E+00
    0.18497E-07        -0.42215E-12         0.00000E+00
    0.18460E-07        -0.55325E-12         0.00000E+00
    0.18460E-07        -0.10654E-11         0.00000E+00
    0.18461E-07        -0.20042E-11         0.00000E+00
    0.18462E-07        -0.27680E-11         0.00000E+00
    0.18462E-07        -0.33521E-11         0.00000E+00
    0.18463E-07        -0.37577E-11         0.00000E+00
    0.18463E-07        -0.39904E-11         0.00000E+00
    0.18464E-07        -0.40586E-11         0.00000E+00
    0.18464E-07        -0.39721E-11         0.00000E+00
    0.18465E-07        -0.37414E-11         0.00000E+00
    0.18465E-07        -0.33773E-11         0.00000E+00
    0.18466E-07        -0.28911E-11         0.00000E+00
    0.18466E-07        -0.22947E-11         0.00000E+00
    0.18466E-07        -0.16015E-11         0.00000E+00
    0.18466E-07        -0.82703E-12         0.00000E+00
    0.18467E-07        -0.42153E-12         0.00000E+00
    0.18445E-07        -0.56800E-12         0.00000E+00
    0.18445E-07        -0.10908E-11         0.00000E+00
    0.18446E-07        -0.20437E-11         0.00000E+00
    0.18447E-07        -0.28092E-11         0.00000E+00
    0.18447E-07        -0.33863E-11         0.00000E+00
    0.18448E-07        -0.37804E-11         0.00000E+00
    0.18449E-07        -0.40005E-11         0.00000E+00
    0.18450E-07        -0.40576E-11         0.00000E+00
    0.18450E-07        -0.39635E-11         0.00000E+00
    0.18451E-07        -0.37292E-11         0.00000E+00
    0.18451E-07        -0.33654E-11         0.00000E+00
    0.18452E-07        -0.28822E-11         0.00000E+00
    0.18452E-07        -0.22902E-11         0.00000E+00
    0.18453E-07        -0.16008E-11         0.00000E+00
    0.18453E-07        -0.82786E-12         0.00000E+00
    0.18453E-07        -0.42238E-12         0.00000E+00
    0.18444E-07        -0.58681E-12         0.00000E+00
    0.18445E-07        -0.11230E-11         0.00000E+00
    0.18446E-07        -0.20931E-11         0.00000E+00
    0.18447E-07        -0.28592E-11         0.00000E+00
    0.18448E-07        -0.34260E-11         0.00000E+00
    0.18449E-07        -0.38042E-11         0.00000E+00
    0.18449E-07        -0.40076E-11         0.00000E+00
    0.18450E-07        -0.40508E-11         0.00000E+00
    0.18451E-07        -0.39476E-11         0.00000E+00
    0.18452E-07        -0.37099E-11         0.00000E+00
    0.18452E-07        -0.33479E-11         0.00000E+00
    0.18453E-07        -0.28702E-11         0.00000E+00
    0.18454E-07        -0.22848E-11         0.00000E+00
    0.18454E-07        -0.16009E-11         0.00000E+00
    0.18454E-07        -0.82981E-12         0.00000E+00
    0.18455E-07        -0.42407E-12         0.00000E+00
    0.18456E-07        -0.60845E-12         0.00000E+00
    0.18457E-07        -0.11593E-11         0.00000E+00
    0.18458E-07        -0.21468E-11         0.00000E+00
    0.18459E-07        -0.29097E-11         0.00000E+00
    0.18460E-07        -0.34602E-11         0.00000E+00
    0.18462E-07        -0.38161E-11         0.00000E+00
    0.18463E-07        -0.39976E-11         0.00000E+00
    0.18464E-07        -0.40235E-11         0.00000E+00
    0.18465E-07        -0.39104E-11         0.00000E+00
    0.18465E-07        -0.36708E-11         0.00000E+00
    0.18466E-07        -0.33139E-11         0.00000E+00
    0.18467E-07        -0.28461E-11         0.00000E+00
    0.18468E-07        -0.22724E-11         0.00000E+00
    0.18468E-07        -0.15981E-11         0.00000E+00
    0.18469E-07        -0.83116E-12         0.00000E+00
    0.18469E-07        -0.42577E-12         0.00000E+00
    0.18478E-07        -0.63139E-12         0.00000E+00
    0.18479E-07        -0.11966E-11         0.00000E+00
    0.18480E-07        -0.21979E-11         0.00000E+00
    0.18482E-07        -0.29498E-11         0.00000E+00
    0.18483E-07        -0.34745E-11         0.00000E+00
    0.18484E-07        -0.37995E-11         0.00000E+00
    0.18486E-07        -0.39525E-11         0.00000E+00
    0.18487E-07        -0.39580E-11         0.00000E+00
    0.18488E-07        -0.38348E-11         0.00000E+00
    0.18489E-07        -0.35963E-11         0.00000E+00
    0.18490E-07        -0.32501E-11         0.00000E+00
    0.18490E-07        -0.27996E-11         0.00000E+00
    0.18491E-07        -0.22453E-11         0.00000E+00
    0.18492E-07        -0.15876E-11         0.00000E+00
    0.18492E-07        -0.82985E-12         0.00000E+00
    0.18493E-07        -0.42658E-12         0.00000E+00
    0.18507E-07        -0.65383E-12         0.00000E+00
    0.18508E-07        -0.12309E-11         0.00000E+00
    0.18509E-07        -0.22377E-11         0.00000E+00
    0.18511E-07        -0.29659E-11         0.00000E+00
    0.18513E-07        -0.34513E-11         0.00000E+00
    0.18514E-07        -0.37341E-11         0.00000E+00
    0.18515E-07        -0.38515E-11         0.00000E+00
    0.18517E-07        -0.38335E-11         0.00000E+00
    0.18518E-07        -0.37016E-11         0.00000E+00
    0.18519E-07        -0.34691E-11         0.00000E+00
    0.18520E-07        -0.31415E-11         0.00000E+00
    0.18521E-07        -0.27184E-11         0.00000E+00
    0.18522E-07        -0.21948E-11         0.00000E+00
    0.18522E-07        -0.15644E-11         0.00000E+00
    0.18523E-07        -0.82359E-12         0.00000E+00
    0.18523E-07        -0.42549E-12         0.00000E+00
    0.18539E-07        -0.67355E-12         0.00000E+00
    0.18540E-07        -0.12571E-11         0.00000E+00
    0.18542E-07        -0.22550E-11         0.00000E+00
    0.18544E-07        -0.29404E-11         0.00000E+00
    0.18546E-07        -0.33686E-11         0.00000E+00
    0.18548E-07        -0.35961E-11         0.00000E+00
    0.18549E-07        -0.36706E-11         0.00000E+00
    0.18550E-07        -0.36276E-11         0.00000E+00
    0.18552E-07        -0.34900E-11         0.00000E+00
    0.18553E-07        -0.32703E-11         0.00000E+00
    0.18554E-07        -0.29716E-11         0.00000E+00
    0.18555E-07        -0.25890E-11         0.00000E+00
    0.18556E-07        -0.21108E-11         0.00000E+00
    0.18557E-07        -0.15221E-11         0.00000E+00
    0.18558E-07        -0.80975E-12         0.00000E+00
    0.18558E-07        -0.42135E-12         0.00000E+00
    0.18572E-07        -0.68772E-12         0.00000E+00
    0.18574E-07        -0.12685E-11         0.00000E+00
    0.18576E-07        -0.22344E-11         0.00000E+00
    0.18578E-07        -0.28501E-11         0.00000E+00
    0.18580E-07        -0.31989E-11         0.00000E+00
    0.18582E-07        -0.33577E-11         0.00000E+00
    0.18584E-07        -0.33846E-11         0.00000E+00
    0.18585E-07        -0.33180E-11         0.00000E+00
    0.18586E-07        -0.31801E-11         0.00000E+00
    0.18588E-07        -0.29816E-11         0.00000E+00
    0.18589E-07        -0.27232E-11         0.00000E+00
    0.18590E-07        -0.23960E-11         0.00000E+00
    0.18591E-07        -0.19815E-11         0.00000E+00
    0.18592E-07        -0.14535E-11         0.00000E+00
    0.18593E-07        -0.78520E-12         0.00000E+00
    0.18593E-07        -0.41290E-12         0.00000E+00
    0.18603E-07        -0.69208E-12         0.00000E+00
    0.18605E-07        -0.12548E-11         0.00000E+00
    0.18608E-07        -0.21532E-11         0.00000E+00
    0.18610E-07        -0.26627E-11         0.00000E+00
    0.18613E-07        -0.29081E-11         0.00000E+00
    0.18614E-07        -0.29892E-11         0.00000E+00
    0.18616E-07        -0.29701E-11         0.00000E+00
    0.18618E-07        -0.28862E-11         0.00000E+00
    0.18619E-07        -0.27560E-11         0.00000E+00
    0.18620E-07        -0.25875E-11         0.00000E+00
    0.18622E-07        -0.23799E-11         0.00000E+00
    0.18623E-07        -0.21228E-11         0.00000E+00
    0.18624E-07        -0.17921E-11         0.00000E+00
    0.18625E-07        -0.13487E-11         0.00000E+00
    0.18626E-07        -0.74565E-12         0.00000E+00
    0.18627E-07        -0.39834E-12         0.00000E+00
    0.18630E-07        -0.67864E-12         0.00000E+00
    0.18632E-07        -0.11978E-11         0.00000E+00
    0.18635E-07        -0.19737E-11         0.00000E+00
    0.18638E-07        -0.23316E-11         0.00000E+00
    0.18641E-07        -0.24561E-11         0.00000E+00
    0.18643E-07        -0.24641E-11         0.00000E+00
    0.18644E-07        -0.24114E-11         0.00000E+00
    0.18646E-07        -0.23229E-11         0.00000E+00
    0.18647E-07        -0.22107E-11         0.00000E+00
    0.18649E-07        -0.20795E-11         0.00000E+00
    0.18650E-07        -0.19288E-11         0.00000E+00
    0.18651E-07        -0.17511E-11         0.00000E+00
    0.18652E-07        -0.15228E-11         0.00000E+00
    0.18653E-07        -0.11924E-11         0.00000E+00
    0.18655E-07        -0.68428E-12         0.00000E+00
    0.18655E-07        -0.37526E-12         0.00000E+00
    0.18651E-07        -0.62929E-12         0.00000E+00
    0.18653E-07        -0.10585E-11         0.00000E+00
    0.18656E-07        -0.16270E-11         0.00000E+00
    0.18660E-07        -0.17919E-11         0.00000E+00
    0.18662E-07        -0.18075E-11         0.00000E+00
    0.18664E-07        -0.17710E-11         0.00000E+00
    0.18666E-07        -0.17092E-11         0.00000E+00
    0.18668E-07        -0.16341E-11         0.00000E+00
    0.18669E-07        -0.15509E-11         0.00000E+00
    0.18670E-07        -0.14619E-11         0.00000E+00
    0.18672E-07        -0.13675E-11         0.00000E+00
    0.18673E-07        -0.12645E-11         0.00000E+00
    0.18674E-07        -0.11446E-11         0.00000E+00
    0.18675E-07        -0.95821E-12         0.00000E+00
    0.18677E-07        -0.58599E-12         0.00000E+00
    0.18678E-07        -0.33456E-12         0.00000E+00
    0.18663E-07        -0.48290E-12         0.00000E+00
    0.18666E-07        -0.73222E-12         0.00000E+00
    0.18670E-07        -0.98947E-12         0.00000E+00
    0.18673E-07        -0.99016E-12         0.00000E+00
    0.18676E-07        -0.96623E-12         0.00000E+00
    0.18678E-07        -0.92969E-12         0.00000E+00
    0.18680E-07        -0.88849E-12         0.00000E+00
    0.18681E-07        -0.84505E-12         0.00000E+00
    0.18683E-07        -0.80061E-12         0.00000E+00
    0.18684E-07        -0.75593E-12         0.00000E+00
    0.18685E-07        -0.71151E-12         0.00000E+00
    0.18686E-07        -0.66789E-12         0.00000E+00
    0.18688E-07        -0.62367E-12         0.00000E+00
    0.18689E-07        -0.58465E-12         0.00000E+00
    0.18691E-07        -0.42414E-12         0.00000E+00
    0.18692E-07        -0.27995E-12         0.00000E+00
    0.18667E-07         0.00000E+00         0.00000E+00
    0.18670E-07         0.00000E+00         0.00000E+00
    0.18675E-07        -0.53799E-22         0.00000E+00
    0.18678E-07         0.11096E-25         0.00000E+00
    0.18680E-07         0.57949E-22         0.00000E+00
    0.18682E-07         0.00000E+00         0.00000E+00
    0.18684E-07         0.00000E+00         0.00000E+00
    0.18686E-07        -0.53842E-22         0.00000E+00
    0.18687E-07        -0.53842E-22         0.00000E+00
    0.18689E-07         0.53853E-22         0.00000E+00
    0.18690E-07         0.57996E-22         0.00000E+00
    0.18691E-07        -0.58008E-22         0.00000E+00
    0.18692E-07        -0.41382E-23         0.00000E+00
    0.18694E-07         0.58015E-22         0.00000E+00
    0.18696E-07         0.82886E-23         0.00000E+00
    0.18697E-07         0.00000E+00         0.00000E+00
CELL_DATA        450
TENSORS stressef double 
    0.44342E+08         0.11087E+06         0.00000E+00
    0.11087E+06         0.29465E+08         0.00000E+00
    0.00000E+00         0.00000E+00         0.25883E+08
 
    0.43664E+08        -0.13525E+06         0.00000E+00
   -0.13525E+06         0.29170E+08         0.00000E+00
    0.00000E+00         0.00000E+00         0.22693E+08
 
    0.41722E+08        -0.37835E+06         0.00000E+00
   -0.37835E+06         0.28507E+08         0.00000E+00
    0.00000E+00         0.00000E+00         0.19022E+08
 
    0.39385E+08        -0.40437E+06         0.00000E+00
   -0.40437E+06         0.27590E+08         0.00000E+00
    0.00000E+00         0.00000E+00         0.15336E+08
 
    0.36583E+08        -0.63704E+06         0.00000E+00
   -0.63704E+06         0.26560E+08         0.00000E+00
    0.00000E+00         0.00000E+00         0.12651E+08
 
    0.33175E+08        -0.56361E+06         0.00000E+00
   -0.56361E+06         0.25446E+08         0.00000E+00
    0.00000E+00         0.00000E+00         0.11724E+08
 
    0.30630E+08        -0.42278E+06         0.00000E+00
   -0.42278E+06         0.24518E+08         0.00000E+00
    0.00000E+00         0.00000E+00         0.11030E+08
 
    0.28401E+08        -0.30703E+06         0.00000E+00
   -0.30703E+06         0.23815E+08         0.00000E+00
    0.00000E+00         0.00000E+00         0.10443E+08
 
    0.26311E+08        -0.20053E+06         0.00000E+00
   -0.20053E+06         0.23322E+08         0.00000E+00
    0.00000E+00         0.00000E+00         0.99266E+07
 
    0.24248E+08        -0.94696E+05         0.00000E+00
   -0.94696E+05         0.23036E+08         0.00000E+00
    0.00000E+00         0.00000E+00         0.94568E+07
 
    0.22116E+08         0.18296E+05         0.00000E+00
    0.18296E+05         0.22966E+08         0.00000E+00
    0.00000E+00         0.00000E+00         0.90164E+07
 
    0.19810E+08         0.14790E+06         0.00000E+00
    0.14790E+06         0.23136E+08         0.00000E+00
    0.00000E+00         0.00000E+00         0.85893E+07
 
    0.17182E+08         0.31131E+06         0.00000E+00
    0.31131E+06         0.23598E+08         0.00000E+00
    0.00000E+00         0.00000E+00         0.81560E+07
 
    0.13978E+08         0.54563E+06         0.00000E+00
    0.54563E+06         0.24456E+08         0.00000E+00
    0.00000E+00         0.00000E+00         0.76867E+07
 
    0.94729E+07         0.10913E+07         0.00000E+00
    0.10913E+07         0.26012E+08         0.00000E+00
    0.00000E+00         0.00000E+00         0.70970E+07
 
    0.41561E+08         0.17946E+06         0.00000E+00
    0.17946E+06         0.25122E+08         0.00000E+00
    0.00000E+00         0.00000E+00         0.18887E+08
 
    0.40395E+08        -0.23864E+06         0.00000E+00
   -0.23864E+06         0.25159E+08         0.00000E+00
    0.00000E+00         0.00000E+00         0.16554E+08
 
    0.38702E+08        -0.77528E+06         0.00000E+00
   -0.77528E+06         0.25150E+08         0.00000E+00
    0.00000E+00         0.00000E+00         0.13871E+08
 
    0.36356E+08        -0.11643E+07         0.00000E+00
   -0.11643E+07         0.24898E+08         0.00000E+00
    0.00000E+00         0.00000E+00         0.12251E+08
 
    0.33457E+08        -0.15001E+07         0.00000E+00
   -0.15001E+07         0.24346E+08         0.00000E+00
    0.00000E+00         0.00000E+00         0.11561E+08
 
    0.30569E+08        -0.14263E+07         0.00000E+00
   -0.14263E+07         0.23738E+08         0.00000E+00
    0.00000E+00         0.00000E+00         0.10861E+08
 
    0.28020E+08        -0.11457E+07         0.00000E+00
   -0.11457E+07         0.23112E+08         0.00000E+00
    0.00000E+00         0.00000E+00         0.10226E+08
 
    0.25781E+08        -0.85137E+06         0.00000E+00
   -0.85137E+06         0.22578E+08         0.00000E+00
    0.00000E+00         0.00000E+00         0.96719E+07
 
    0.23689E+08        -0.55783E+06         0.00000E+00
   -0.55783E+06         0.22189E+08         0.00000E+00
    0.00000E+00         0.00000E+00         0.91757E+07
 
    0.21636E+08        -0.25381E+06         0.00000E+00
   -0.25381E+06         0.21973E+08         0.00000E+00
    0.00000E+00         0.00000E+00         0.87218E+07
 
    0.19530E+08         0.77827E+05         0.00000E+00
    0.77827E+05         0.21952E+08         0.00000E+00
    0.00000E+00         0.00000E+00         0.82963E+07
 
    0.17272E+08         0.46308E+06         0.00000E+00
    0.46308E+06         0.22160E+08         0.00000E+00
    0.00000E+00         0.00000E+00         0.78864E+07
 
    0.14741E+08         0.94995E+06         0.00000E+00
    0.94995E+06         0.22651E+08         0.00000E+00
    0.00000E+00         0.00000E+00         0.74784E+07
 
    0.11755E+08         0.16553E+07         0.00000E+00
    0.16553E+07         0.23516E+08         0.00000E+00
    0.00000E+00         0.00000E+00         0.70541E+07
 
    0.82735E+07         0.29622E+07         0.00000E+00
    0.29622E+07         0.24883E+08         0.00000E+00
    0.00000E+00         0.00000E+00         0.66314E+07
 
    0.38679E+08        -0.11554E+06         0.00000E+00
   -0.11554E+06         0.22639E+08         0.00000E+00
    0.00000E+00         0.00000E+00         0.13603E+08
 
    0.37188E+08        -0.41598E+06         0.00000E+00
   -0.41598E+06         0.22486E+08         0.00000E+00
    0.00000E+00         0.00000E+00         0.11972E+08
 
    0.35221E+08        -0.97233E+06         0.00000E+00
   -0.97233E+06         0.22317E+08         0.00000E+00
    0.00000E+00         0.00000E+00         0.11508E+08
 
    0.33068E+08        -0.15908E+07         0.00000E+00
   -0.15908E+07         0.22076E+08         0.00000E+00
    0.00000E+00         0.00000E+00         0.11029E+08
 
    0.30507E+08        -0.18846E+07         0.00000E+00
   -0.18846E+07         0.21802E+08         0.00000E+00
    0.00000E+00         0.00000E+00         0.10462E+08
 
    0.27934E+08        -0.18627E+07         0.00000E+00
   -0.18627E+07         0.21531E+08         0.00000E+00
    0.00000E+00         0.00000E+00         0.98929E+07
 
    0.25520E+08        -0.16020E+07         0.00000E+00
   -0.16020E+07         0.21221E+08         0.00000E+00
    0.00000E+00         0.00000E+00         0.93481E+07
 
    0.23313E+08        -0.12282E+07         0.00000E+00
   -0.12282E+07         0.20913E+08         0.00000E+00
    0.00000E+00         0.00000E+00         0.88452E+07
 
    0.21244E+08        -0.80340E+06         0.00000E+00
   -0.80340E+06         0.20681E+08         0.00000E+00
    0.00000E+00         0.00000E+00         0.83850E+07
 
    0.19224E+08        -0.33418E+06         0.00000E+00
   -0.33418E+06         0.20575E+08         0.00000E+00
    0.00000E+00         0.00000E+00         0.79598E+07
 
    0.17174E+08         0.19531E+06         0.00000E+00
    0.19531E+06         0.20634E+08         0.00000E+00
    0.00000E+00         0.00000E+00         0.75616E+07
 
    0.15015E+08         0.82007E+06         0.00000E+00
    0.82007E+06         0.20896E+08         0.00000E+00
    0.00000E+00         0.00000E+00         0.71822E+07
 
    0.12665E+08         0.16079E+07         0.00000E+00
    0.16079E+07         0.21409E+08         0.00000E+00
    0.00000E+00         0.00000E+00         0.68148E+07
 
    0.10080E+08         0.27007E+07         0.00000E+00
    0.27007E+07         0.22221E+08         0.00000E+00
    0.00000E+00         0.00000E+00         0.64602E+07
 
    0.73489E+07         0.43196E+07         0.00000E+00
    0.43196E+07         0.23293E+08         0.00000E+00
    0.00000E+00         0.00000E+00         0.61285E+07
 
    0.35635E+08        -0.21827E+06         0.00000E+00
   -0.21827E+06         0.20072E+08         0.00000E+00
    0.00000E+00         0.00000E+00         0.11141E+08
 
    0.33755E+08        -0.74314E+06         0.00000E+00
   -0.74314E+06         0.19922E+08         0.00000E+00
    0.00000E+00         0.00000E+00         0.10735E+08
 
    0.31854E+08        -0.12751E+07         0.00000E+00
   -0.12751E+07         0.19631E+08         0.00000E+00
    0.00000E+00         0.00000E+00         0.10297E+08
 
    0.29805E+08        -0.17677E+07         0.00000E+00
   -0.17677E+07         0.19420E+08         0.00000E+00
    0.00000E+00         0.00000E+00         0.98450E+07
 
    0.27565E+08        -0.20521E+07         0.00000E+00
   -0.20521E+07         0.19303E+08         0.00000E+00
    0.00000E+00         0.00000E+00         0.93735E+07
 
    0.25263E+08        -0.20520E+07         0.00000E+00
   -0.20520E+07         0.19193E+08         0.00000E+00
    0.00000E+00         0.00000E+00         0.88913E+07
 
    0.23038E+08        -0.18177E+07         0.00000E+00
   -0.18177E+07         0.19072E+08         0.00000E+00
    0.00000E+00         0.00000E+00         0.84221E+07
 
    0.20935E+08        -0.14197E+07         0.00000E+00
   -0.14197E+07         0.18951E+08         0.00000E+00
    0.00000E+00         0.00000E+00         0.79772E+07
 
    0.18935E+08        -0.91234E+06         0.00000E+00
   -0.91234E+06         0.18871E+08         0.00000E+00
    0.00000E+00         0.00000E+00         0.75612E+07
 
    0.16986E+08        -0.31514E+06         0.00000E+00
   -0.31514E+06         0.18881E+08         0.00000E+00
    0.00000E+00         0.00000E+00         0.71735E+07
 
    0.15030E+08         0.38161E+06         0.00000E+00
    0.38161E+06         0.19022E+08         0.00000E+00
    0.00000E+00         0.00000E+00         0.68104E+07
 
    0.13013E+08         0.12126E+07         0.00000E+00
    0.12126E+07         0.19331E+08         0.00000E+00
    0.00000E+00         0.00000E+00         0.64688E+07
 
    0.10901E+08         0.22445E+07         0.00000E+00
    0.22445E+07         0.19837E+08         0.00000E+00
    0.00000E+00         0.00000E+00         0.61476E+07
 
    0.87049E+07         0.35810E+07         0.00000E+00
    0.35810E+07         0.20545E+08         0.00000E+00
    0.00000E+00         0.00000E+00         0.58499E+07
 
    0.65274E+07         0.53426E+07         0.00000E+00
    0.53426E+07         0.21399E+08         0.00000E+00
    0.00000E+00         0.00000E+00         0.55853E+07
 
    0.32278E+08        -0.33434E+06         0.00000E+00
   -0.33434E+06         0.17302E+08         0.00000E+00
    0.00000E+00         0.00000E+00         0.99159E+07
 
    0.30394E+08        -0.94506E+06         0.00000E+00
   -0.94506E+06         0.17160E+08         0.00000E+00
    0.00000E+00         0.00000E+00         0.95109E+07
 
    0.28556E+08        -0.14806E+07         0.00000E+00
   -0.14806E+07         0.17006E+08         0.00000E+00
    0.00000E+00         0.00000E+00         0.91124E+07
 
    0.26643E+08        -0.18899E+07         0.00000E+00
   -0.18899E+07         0.16882E+08         0.00000E+00
    0.00000E+00         0.00000E+00         0.87051E+07
 
    0.24639E+08        -0.21145E+07         0.00000E+00
   -0.21145E+07         0.16819E+08         0.00000E+00
    0.00000E+00         0.00000E+00         0.82916E+07
 
    0.22590E+08        -0.21079E+07         0.00000E+00
   -0.21079E+07         0.16798E+08         0.00000E+00
    0.00000E+00         0.00000E+00         0.78774E+07
 
    0.20567E+08        -0.18771E+07         0.00000E+00
   -0.18771E+07         0.16788E+08         0.00000E+00
    0.00000E+00         0.00000E+00         0.74710E+07
 
    0.18613E+08        -0.14617E+07         0.00000E+00
   -0.14617E+07         0.16792E+08         0.00000E+00
    0.00000E+00         0.00000E+00         0.70810E+07
 
    0.16729E+08        -0.89785E+06         0.00000E+00
   -0.89785E+06         0.16830E+08         0.00000E+00
    0.00000E+00         0.00000E+00         0.67119E+07
 
    0.14891E+08        -0.20353E+06         0.00000E+00
   -0.20353E+06         0.16936E+08         0.00000E+00
    0.00000E+00         0.00000E+00         0.63654E+07
 
    0.13065E+08         0.62614E+06         0.00000E+00
    0.62614E+06         0.17142E+08         0.00000E+00
    0.00000E+00         0.00000E+00         0.60415E+07
 
    0.11223E+08         0.16190E+07         0.00000E+00
    0.16190E+07         0.17477E+08         0.00000E+00
    0.00000E+00         0.00000E+00         0.57400E+07
 
    0.93581E+07         0.28249E+07         0.00000E+00
    0.28249E+07         0.17954E+08         0.00000E+00
    0.00000E+00         0.00000E+00         0.54624E+07
 
    0.75021E+07         0.43101E+07         0.00000E+00
    0.43101E+07         0.18561E+08         0.00000E+00
    0.00000E+00         0.00000E+00         0.52127E+07
 
    0.57422E+07         0.61382E+07         0.00000E+00
    0.61382E+07         0.19249E+08         0.00000E+00
    0.00000E+00         0.00000E+00         0.49982E+07
 
    0.28787E+08        -0.40567E+06         0.00000E+00
   -0.40567E+06         0.14538E+08         0.00000E+00
    0.00000E+00         0.00000E+00         0.86650E+07
 
    0.27030E+08        -0.10732E+07         0.00000E+00
   -0.10732E+07         0.14466E+08         0.00000E+00
    0.00000E+00         0.00000E+00         0.82992E+07
 
    0.25313E+08        -0.15898E+07         0.00000E+00
   -0.15898E+07         0.14380E+08         0.00000E+00
    0.00000E+00         0.00000E+00         0.79386E+07
 
    0.23564E+08        -0.19499E+07         0.00000E+00
   -0.19499E+07         0.14327E+08         0.00000E+00
    0.00000E+00         0.00000E+00         0.75782E+07
 
    0.21766E+08        -0.21227E+07         0.00000E+00
   -0.21227E+07         0.14319E+08         0.00000E+00
    0.00000E+00         0.00000E+00         0.72168E+07
 
    0.19939E+08        -0.20865E+07         0.00000E+00
   -0.20865E+07         0.14350E+08         0.00000E+00
    0.00000E+00         0.00000E+00         0.68577E+07
 
    0.18121E+08        -0.18402E+07         0.00000E+00
   -0.18402E+07         0.14408E+08         0.00000E+00
    0.00000E+00         0.00000E+00         0.65058E+07
 
    0.16340E+08        -0.14014E+07         0.00000E+00
   -0.14014E+07         0.14491E+08         0.00000E+00
    0.00000E+00         0.00000E+00         0.61662E+07
 
    0.14607E+08        -0.79136E+06         0.00000E+00
   -0.79136E+06         0.14608E+08         0.00000E+00
    0.00000E+00         0.00000E+00         0.58430E+07
 
    0.12913E+08        -0.22446E+05         0.00000E+00
   -0.22446E+05         0.14779E+08         0.00000E+00
    0.00000E+00         0.00000E+00         0.55385E+07
 
    0.11245E+08         0.90796E+06         0.00000E+00
    0.90796E+06         0.15027E+08         0.00000E+00
    0.00000E+00         0.00000E+00         0.52544E+07
 
    0.95936E+07         0.20185E+07         0.00000E+00
    0.20185E+07         0.15368E+08         0.00000E+00
    0.00000E+00         0.00000E+00         0.49923E+07
 
    0.79670E+07         0.33414E+07         0.00000E+00
    0.33414E+07         0.15806E+08         0.00000E+00
    0.00000E+00         0.00000E+00         0.47545E+07
 
    0.64012E+07         0.49147E+07         0.00000E+00
    0.49147E+07         0.16325E+08         0.00000E+00
    0.00000E+00         0.00000E+00         0.45452E+07
 
    0.49659E+07         0.67687E+07         0.00000E+00
    0.67687E+07         0.16884E+08         0.00000E+00
    0.00000E+00         0.00000E+00         0.43700E+07
 
    0.25234E+08        -0.43567E+06         0.00000E+00
   -0.43567E+06         0.11788E+08         0.00000E+00
    0.00000E+00         0.00000E+00         0.74043E+07
 
    0.23672E+08        -0.11316E+07         0.00000E+00
   -0.11316E+07         0.11764E+08         0.00000E+00
    0.00000E+00         0.00000E+00         0.70872E+07
 
    0.22121E+08        -0.16339E+07         0.00000E+00
   -0.16339E+07         0.11740E+08         0.00000E+00
    0.00000E+00         0.00000E+00         0.67721E+07
 
    0.20550E+08        -0.19554E+07         0.00000E+00
   -0.19554E+07         0.11739E+08         0.00000E+00
    0.00000E+00         0.00000E+00         0.64578E+07
 
    0.18949E+08        -0.20867E+07         0.00000E+00
   -0.20867E+07         0.11774E+08         0.00000E+00
    0.00000E+00         0.00000E+00         0.61447E+07
 
    0.17330E+08        -0.20169E+07         0.00000E+00
   -0.20169E+07         0.11845E+08         0.00000E+00
    0.00000E+00         0.00000E+00         0.58350E+07
 
    0.15713E+08        -0.17444E+07         0.00000E+00
   -0.17444E+07         0.11946E+08         0.00000E+00
    0.00000E+00         0.00000E+00         0.55318E+07
 
    0.14118E+08        -0.12771E+07         0.00000E+00
   -0.12771E+07         0.12076E+08         0.00000E+00
    0.00000E+00         0.00000E+00         0.52388E+07
 
    0.12557E+08        -0.62618E+06         0.00000E+00
   -0.62618E+06         0.12239E+08         0.00000E+00
    0.00000E+00         0.00000E+00         0.49591E+07
 
    0.11030E+08         0.20089E+06         0.00000E+00
    0.20089E+06         0.12447E+08         0.00000E+00
    0.00000E+00         0.00000E+00         0.46955E+07
 
    0.95371E+07         0.12052E+07         0.00000E+00
    0.12052E+07         0.12713E+08         0.00000E+00
    0.00000E+00         0.00000E+00         0.44501E+07
 
    0.80814E+07         0.23974E+07         0.00000E+00
    0.23974E+07         0.13044E+08         0.00000E+00
    0.00000E+00         0.00000E+00         0.42251E+07
 
    0.66782E+07         0.37954E+07         0.00000E+00
    0.37954E+07         0.13439E+08         0.00000E+00
    0.00000E+00         0.00000E+00         0.40234E+07
 
    0.53616E+07         0.54177E+07         0.00000E+00
    0.54177E+07         0.13881E+08         0.00000E+00
    0.00000E+00         0.00000E+00         0.38485E+07
 
    0.41861E+07         0.72747E+07         0.00000E+00
    0.72747E+07         0.14339E+08         0.00000E+00
    0.00000E+00         0.00000E+00         0.37050E+07
 
    0.21671E+08        -0.43943E+06         0.00000E+00
   -0.43943E+06         0.90500E+07         0.00000E+00
    0.00000E+00         0.00000E+00         0.61442E+07
 
    0.20332E+08        -0.11386E+07         0.00000E+00
   -0.11386E+07         0.90581E+07         0.00000E+00
    0.00000E+00         0.00000E+00         0.58781E+07
 
    0.18973E+08        -0.16264E+07         0.00000E+00
   -0.16264E+07         0.90771E+07         0.00000E+00
    0.00000E+00         0.00000E+00         0.56101E+07
 
    0.17592E+08        -0.19188E+07         0.00000E+00
   -0.19188E+07         0.91168E+07         0.00000E+00
    0.00000E+00         0.00000E+00         0.53417E+07
 
    0.16188E+08        -0.20163E+07         0.00000E+00
   -0.20163E+07         0.91847E+07         0.00000E+00
    0.00000E+00         0.00000E+00         0.50745E+07
 
    0.14770E+08        -0.19150E+07         0.00000E+00
   -0.19150E+07         0.92825E+07         0.00000E+00
    0.00000E+00         0.00000E+00         0.48105E+07
 
    0.13352E+08        -0.16140E+07         0.00000E+00
   -0.16140E+07         0.94090E+07         0.00000E+00
    0.00000E+00         0.00000E+00         0.45522E+07
 
    0.11948E+08        -0.11170E+07         0.00000E+00
   -0.11170E+07         0.95637E+07         0.00000E+00
    0.00000E+00         0.00000E+00         0.43024E+07
 
    0.10570E+08        -0.43013E+06         0.00000E+00
   -0.43013E+06         0.97494E+07         0.00000E+00
    0.00000E+00         0.00000E+00         0.40639E+07
 
    0.92235E+07         0.44219E+06         0.00000E+00
    0.44219E+06         0.99717E+07         0.00000E+00
    0.00000E+00         0.00000E+00         0.38390E+07
 
    0.79149E+07         0.14995E+07         0.00000E+00
    0.14995E+07         0.10236E+08         0.00000E+00
    0.00000E+00         0.00000E+00         0.36302E+07
 
    0.66539E+07         0.27464E+07         0.00000E+00
    0.27464E+07         0.10545E+08         0.00000E+00
    0.00000E+00         0.00000E+00         0.34398E+07
 
    0.54585E+07         0.41900E+07         0.00000E+00
    0.41900E+07         0.10894E+08         0.00000E+00
    0.00000E+00         0.00000E+00         0.32705E+07
 
    0.43589E+07         0.58363E+07         0.00000E+00
    0.58363E+07         0.11268E+08         0.00000E+00
    0.00000E+00         0.00000E+00         0.31255E+07
 
    0.33972E+07         0.76833E+07         0.00000E+00
    0.76833E+07         0.11644E+08         0.00000E+00
    0.00000E+00         0.00000E+00         0.30082E+07
 
    0.18135E+08        -0.42818E+06         0.00000E+00
   -0.42818E+06         0.63280E+07         0.00000E+00
    0.00000E+00         0.00000E+00         0.48926E+07
 
    0.17023E+08        -0.11124E+07         0.00000E+00
   -0.11124E+07         0.63545E+07         0.00000E+00
    0.00000E+00         0.00000E+00         0.46754E+07
 
    0.15868E+08        -0.15830E+07         0.00000E+00
   -0.15830E+07         0.64003E+07         0.00000E+00
    0.00000E+00         0.00000E+00         0.44536E+07
 
    0.14683E+08        -0.18519E+07         0.00000E+00
   -0.18519E+07         0.64662E+07         0.00000E+00
    0.00000E+00         0.00000E+00         0.42298E+07
 
    0.13476E+08        -0.19223E+07         0.00000E+00
   -0.19223E+07         0.65550E+07         0.00000E+00
    0.00000E+00         0.00000E+00         0.40063E+07
 
    0.12258E+08        -0.17937E+07         0.00000E+00
   -0.17937E+07         0.66683E+07         0.00000E+00
    0.00000E+00         0.00000E+00         0.37853E+07
 
    0.11038E+08        -0.14662E+07         0.00000E+00
   -0.14662E+07         0.68065E+07         0.00000E+00
    0.00000E+00         0.00000E+00         0.35689E+07
 
    0.98287E+07        -0.94191E+06         0.00000E+00
   -0.94191E+06         0.69697E+07         0.00000E+00
    0.00000E+00         0.00000E+00         0.33597E+07
 
    0.86396E+07        -0.22454E+06         0.00000E+00
   -0.22454E+06         0.71594E+07         0.00000E+00
    0.00000E+00         0.00000E+00         0.31598E+07
 
    0.74798E+07         0.68242E+06         0.00000E+00
    0.68242E+06         0.73779E+07         0.00000E+00
    0.00000E+00         0.00000E+00         0.29715E+07
 
    0.63584E+07         0.17770E+07         0.00000E+00
    0.17770E+07         0.76270E+07         0.00000E+00
    0.00000E+00         0.00000E+00         0.27971E+07
 
    0.52877E+07         0.30591E+07         0.00000E+00
    0.30591E+07         0.79057E+07         0.00000E+00
    0.00000E+00         0.00000E+00         0.26387E+07
 
    0.42858E+07         0.45286E+07         0.00000E+00
    0.45286E+07         0.82079E+07         0.00000E+00
    0.00000E+00         0.00000E+00         0.24987E+07
 
    0.33782E+07         0.61830E+07         0.00000E+00
    0.61830E+07         0.85210E+07         0.00000E+00
    0.00000E+00         0.00000E+00         0.23799E+07
 
    0.25976E+07         0.80130E+07         0.00000E+00
    0.80130E+07         0.88264E+07         0.00000E+00
    0.00000E+00         0.00000E+00         0.22848E+07
 
    0.14646E+08        -0.40940E+06         0.00000E+00
   -0.40940E+06         0.36236E+07         0.00000E+00
    0.00000E+00         0.00000E+00         0.36539E+07
 
    0.13752E+08        -0.10681E+07         0.00000E+00
   -0.10681E+07         0.36585E+07         0.00000E+00
    0.00000E+00         0.00000E+00         0.34820E+07
 
    0.12802E+08        -0.15189E+07         0.00000E+00
   -0.15189E+07         0.37174E+07         0.00000E+00
    0.00000E+00         0.00000E+00         0.33039E+07
 
    0.11817E+08        -0.17675E+07         0.00000E+00
   -0.17675E+07         0.37958E+07         0.00000E+00
    0.00000E+00         0.00000E+00         0.31226E+07
 
    0.10810E+08        -0.18161E+07         0.00000E+00
   -0.18161E+07         0.38935E+07         0.00000E+00
    0.00000E+00         0.00000E+00         0.29408E+07
 
    0.97911E+07        -0.16650E+07         0.00000E+00
   -0.16650E+07         0.40110E+07         0.00000E+00
    0.00000E+00         0.00000E+00         0.27604E+07
 
    0.87696E+07        -0.13148E+07         0.00000E+00
   -0.13148E+07         0.41488E+07         0.00000E+00
    0.00000E+00         0.00000E+00         0.25837E+07
 
    0.77557E+07        -0.76726E+06         0.00000E+00
   -0.76726E+06         0.43074E+07         0.00000E+00
    0.00000E+00         0.00000E+00         0.24126E+07
 
    0.67586E+07        -0.25303E+05         0.00000E+00
   -0.25303E+05         0.44874E+07         0.00000E+00
    0.00000E+00         0.00000E+00         0.22492E+07
 
    0.57876E+07         0.90749E+06         0.00000E+00
    0.90749E+06         0.46892E+07         0.00000E+00
    0.00000E+00         0.00000E+00         0.20954E+07
 
    0.48527E+07         0.20276E+07         0.00000E+00
    0.20276E+07         0.49127E+07         0.00000E+00
    0.00000E+00         0.00000E+00         0.19531E+07
 
    0.39665E+07         0.33312E+07         0.00000E+00
    0.33312E+07         0.51550E+07         0.00000E+00
    0.00000E+00         0.00000E+00         0.18243E+07
 
    0.31456E+07         0.48136E+07         0.00000E+00
    0.48136E+07         0.54099E+07         0.00000E+00
    0.00000E+00         0.00000E+00         0.17111E+07
 
    0.24109E+07         0.64666E+07         0.00000E+00
    0.64666E+07         0.56669E+07         0.00000E+00
    0.00000E+00         0.00000E+00         0.16156E+07
 
    0.17876E+07         0.82767E+07         0.00000E+00
    0.82767E+07         0.59117E+07         0.00000E+00
    0.00000E+00         0.00000E+00         0.15399E+07
 
    0.11213E+08        -0.38813E+06         0.00000E+00
   -0.38813E+06         0.93746E+06         0.00000E+00
    0.00000E+00         0.00000E+00         0.24300E+07
 
    0.10523E+08        -0.10172E+07         0.00000E+00
   -0.10172E+07         0.97374E+06         0.00000E+00
    0.00000E+00         0.00000E+00         0.22994E+07
 
    0.97759E+07        -0.14474E+07         0.00000E+00
   -0.14474E+07         0.10347E+07         0.00000E+00
    0.00000E+00         0.00000E+00         0.21621E+07
 
    0.89915E+07        -0.16781E+07         0.00000E+00
   -0.16781E+07         0.11138E+07         0.00000E+00
    0.00000E+00         0.00000E+00         0.20211E+07
 
    0.81843E+07        -0.17090E+07         0.00000E+00
   -0.17090E+07         0.12091E+07         0.00000E+00
    0.00000E+00         0.00000E+00         0.18787E+07
 
    0.73648E+07        -0.15399E+07         0.00000E+00
   -0.15399E+07         0.13201E+07         0.00000E+00
    0.00000E+00         0.00000E+00         0.17370E+07
 
    0.65419E+07        -0.11714E+07         0.00000E+00
   -0.11714E+07         0.14472E+07         0.00000E+00
    0.00000E+00         0.00000E+00         0.15978E+07
 
    0.57242E+07        -0.60514E+06         0.00000E+00
   -0.60514E+06         0.15905E+07         0.00000E+00
    0.00000E+00         0.00000E+00         0.14629E+07
 
    0.49198E+07         0.15576E+06         0.00000E+00
    0.15576E+06         0.17503E+07         0.00000E+00
    0.00000E+00         0.00000E+00         0.13340E+07
 
    0.41374E+07         0.11072E+07         0.00000E+00
    0.11072E+07         0.19261E+07         0.00000E+00
    0.00000E+00         0.00000E+00         0.12127E+07
 
    0.33866E+07         0.22441E+07         0.00000E+00
    0.22441E+07         0.21166E+07         0.00000E+00
    0.00000E+00         0.00000E+00         0.11006E+07
 
    0.26788E+07         0.35602E+07         0.00000E+00
    0.35602E+07         0.23185E+07         0.00000E+00
    0.00000E+00         0.00000E+00         0.99946E+06
 
    0.20282E+07         0.50472E+07         0.00000E+00
    0.50472E+07         0.25260E+07         0.00000E+00
    0.00000E+00         0.00000E+00         0.91084E+06
 
    0.14517E+07         0.66936E+07         0.00000E+00
    0.66936E+07         0.27306E+07         0.00000E+00
    0.00000E+00         0.00000E+00         0.83647E+06
 
    0.96863E+06         0.84832E+07         0.00000E+00
    0.84832E+07         0.29213E+07         0.00000E+00
    0.00000E+00         0.00000E+00         0.77799E+06
 
    0.78358E+07        -0.36786E+06         0.00000E+00
   -0.36786E+06        -0.17307E+07         0.00000E+00
    0.00000E+00         0.00000E+00         0.12210E+07
 
    0.73383E+07        -0.96817E+06         0.00000E+00
   -0.96817E+06        -0.16982E+07         0.00000E+00
    0.00000E+00         0.00000E+00         0.11280E+07
 
    0.67869E+07        -0.13789E+07         0.00000E+00
   -0.13789E+07        -0.16436E+07         0.00000E+00
    0.00000E+00         0.00000E+00         0.10287E+07
 
    0.62009E+07        -0.15943E+07         0.00000E+00
   -0.15943E+07        -0.15734E+07         0.00000E+00
    0.00000E+00         0.00000E+00         0.92550E+06
 
    0.55934E+07        -0.16112E+07         0.00000E+00
   -0.16112E+07        -0.14903E+07         0.00000E+00
    0.00000E+00         0.00000E+00         0.82063E+06
 
    0.49738E+07        -0.14282E+07         0.00000E+00
   -0.14282E+07        -0.13950E+07         0.00000E+00
    0.00000E+00         0.00000E+00         0.71576E+06
 
    0.43498E+07        -0.10455E+07         0.00000E+00
   -0.10455E+07        -0.12876E+07         0.00000E+00
    0.00000E+00         0.00000E+00         0.61245E+06
 
    0.37284E+07        -0.46497E+06         0.00000E+00
   -0.46497E+06        -0.11679E+07         0.00000E+00
    0.00000E+00         0.00000E+00         0.51210E+06
 
    0.31165E+07         0.30992E+06         0.00000E+00
    0.30992E+06        -0.10362E+07         0.00000E+00
    0.00000E+00         0.00000E+00         0.41606E+06
 
    0.25215E+07         0.12743E+07         0.00000E+00
    0.12743E+07        -0.89323E+06         0.00000E+00
    0.00000E+00         0.00000E+00         0.32565E+06
 
    0.19516E+07         0.24218E+07         0.00000E+00
    0.24218E+07        -0.74074E+06         0.00000E+00
    0.00000E+00         0.00000E+00         0.24217E+06
 
    0.14165E+07         0.37443E+07         0.00000E+00
    0.37443E+07        -0.58191E+06         0.00000E+00
    0.00000E+00         0.00000E+00         0.16691E+06
 
    0.92765E+06         0.52311E+07         0.00000E+00
    0.52311E+07        -0.42168E+06         0.00000E+00
    0.00000E+00         0.00000E+00         0.10119E+06
 
    0.49825E+06         0.68686E+07         0.00000E+00
    0.68686E+07        -0.26677E+06         0.00000E+00
    0.00000E+00         0.00000E+00         0.46296E+05
 
    0.14268E+06         0.86389E+07         0.00000E+00
    0.86389E+07        -0.12540E+06         0.00000E+00
    0.00000E+00         0.00000E+00         0.34548E+04
 
    0.45103E+07        -0.35100E+06         0.00000E+00
   -0.35100E+06        -0.43818E+07         0.00000E+00
    0.00000E+00         0.00000E+00         0.25714E+05
 
    0.41925E+07        -0.92716E+06         0.00000E+00
   -0.92716E+06        -0.43568E+07         0.00000E+00
    0.00000E+00         0.00000E+00        -0.32864E+05
 
    0.38311E+07        -0.13219E+07         0.00000E+00
   -0.13219E+07        -0.43148E+07         0.00000E+00
    0.00000E+00         0.00000E+00        -0.96747E+05
 
    0.34411E+07        -0.15252E+07         0.00000E+00
   -0.15252E+07        -0.42610E+07         0.00000E+00
    0.00000E+00         0.00000E+00        -0.16400E+06
 
    0.30326E+07        -0.15314E+07         0.00000E+00
   -0.15314E+07        -0.41978E+07         0.00000E+00
    0.00000E+00         0.00000E+00        -0.23304E+06
 
    0.26130E+07        -0.13380E+07         0.00000E+00
   -0.13380E+07        -0.41258E+07         0.00000E+00
    0.00000E+00         0.00000E+00        -0.30256E+06
 
    0.21880E+07        -0.94483E+06         0.00000E+00
   -0.94483E+06        -0.40451E+07         0.00000E+00
    0.00000E+00         0.00000E+00        -0.37142E+06
 
    0.17628E+07        -0.35396E+06         0.00000E+00
   -0.35396E+06        -0.39556E+07         0.00000E+00
    0.00000E+00         0.00000E+00        -0.43857E+06
 
    0.13426E+07         0.43079E+06         0.00000E+00
    0.43079E+06        -0.38578E+07         0.00000E+00
    0.00000E+00         0.00000E+00        -0.50303E+06
 
    0.93322E+06         0.14038E+07         0.00000E+00
    0.14038E+07        -0.37524E+07         0.00000E+00
    0.00000E+00         0.00000E+00        -0.56384E+06
 
    0.54109E+06         0.25575E+07         0.00000E+00
    0.25575E+07        -0.36412E+07         0.00000E+00
    0.00000E+00         0.00000E+00        -0.62003E+06
 
    0.17376E+06         0.38825E+07         0.00000E+00
    0.38825E+07        -0.35271E+07         0.00000E+00
    0.00000E+00         0.00000E+00        -0.67066E+06
 
   -0.16009E+06         0.53666E+07         0.00000E+00
    0.53666E+07        -0.34138E+07         0.00000E+00
    0.00000E+00         0.00000E+00        -0.71478E+06
 
   -0.45077E+06         0.69948E+07         0.00000E+00
    0.69948E+07        -0.33065E+07         0.00000E+00
    0.00000E+00         0.00000E+00        -0.75146E+06
 
   -0.68793E+06         0.87485E+07         0.00000E+00
    0.87485E+07        -0.32112E+07         0.00000E+00
    0.00000E+00         0.00000E+00        -0.77982E+06
 
    0.12268E+07        -0.33925E+06         0.00000E+00
   -0.33925E+06        -0.70174E+07         0.00000E+00
    0.00000E+00         0.00000E+00        -0.11581E+07
 
    0.10793E+07        -0.89861E+06         0.00000E+00
   -0.89861E+06        -0.70024E+07         0.00000E+00
    0.00000E+00         0.00000E+00        -0.11846E+07
 
    0.90287E+06        -0.12823E+07         0.00000E+00
   -0.12823E+07        -0.69775E+07         0.00000E+00
    0.00000E+00         0.00000E+00        -0.12149E+07
 
    0.70669E+06        -0.14773E+07         0.00000E+00
   -0.14773E+07        -0.69456E+07         0.00000E+00
    0.00000E+00         0.00000E+00        -0.12478E+07
 
    0.49673E+06        -0.14763E+07         0.00000E+00
   -0.14763E+07        -0.69081E+07         0.00000E+00
    0.00000E+00         0.00000E+00        -0.12823E+07
 
    0.27713E+06        -0.12757E+07         0.00000E+00
   -0.12757E+07        -0.68649E+07         0.00000E+00
    0.00000E+00         0.00000E+00        -0.13176E+07
 
    0.51122E+05        -0.87530E+06         0.00000E+00
   -0.87530E+06        -0.68160E+07         0.00000E+00
    0.00000E+00         0.00000E+00        -0.13530E+07
 
   -0.17822E+06        -0.27729E+06         0.00000E+00
   -0.27729E+06        -0.67614E+07         0.00000E+00
    0.00000E+00         0.00000E+00        -0.13879E+07
 
   -0.40755E+06         0.51398E+06         0.00000E+00
    0.51398E+06        -0.67012E+07         0.00000E+00
    0.00000E+00         0.00000E+00        -0.14217E+07
 
   -0.63302E+06         0.14922E+07         0.00000E+00
    0.14922E+07        -0.66365E+07         0.00000E+00
    0.00000E+00         0.00000E+00        -0.14539E+07
 
   -0.85012E+06         0.26492E+07         0.00000E+00
    0.26492E+07        -0.65686E+07         0.00000E+00
    0.00000E+00         0.00000E+00        -0.14837E+07
 
   -0.10536E+07         0.39744E+07         0.00000E+00
    0.39744E+07        -0.64999E+07         0.00000E+00
    0.00000E+00         0.00000E+00        -0.15107E+07
 
   -0.12376E+07         0.54549E+07         0.00000E+00
    0.54549E+07        -0.64332E+07         0.00000E+00
    0.00000E+00         0.00000E+00        -0.15342E+07
 
   -0.13956E+07         0.70749E+07         0.00000E+00
    0.70749E+07        -0.63720E+07         0.00000E+00
    0.00000E+00         0.00000E+00        -0.15535E+07
 
   -0.15208E+07         0.88151E+07         0.00000E+00
    0.88151E+07        -0.63202E+07         0.00000E+00
    0.00000E+00         0.00000E+00        -0.15682E+07
 
   -0.20272E+07        -0.33374E+06         0.00000E+00
   -0.33374E+06        -0.96394E+07         0.00000E+00
    0.00000E+00         0.00000E+00        -0.23333E+07
 
   -0.20102E+07        -0.88556E+06         0.00000E+00
   -0.88556E+06        -0.96362E+07         0.00000E+00
    0.00000E+00         0.00000E+00        -0.23293E+07
 
   -0.20046E+07        -0.12644E+07         0.00000E+00
   -0.12644E+07        -0.96312E+07         0.00000E+00
    0.00000E+00         0.00000E+00        -0.23272E+07
 
   -0.20081E+07        -0.14556E+07         0.00000E+00
   -0.14556E+07        -0.96249E+07         0.00000E+00
    0.00000E+00         0.00000E+00        -0.23266E+07
 
   -0.20196E+07        -0.14506E+07         0.00000E+00
   -0.14506E+07        -0.96167E+07         0.00000E+00
    0.00000E+00         0.00000E+00        -0.23273E+07
 
   -0.20390E+07        -0.12457E+07         0.00000E+00
   -0.12457E+07        -0.96059E+07         0.00000E+00
    0.00000E+00         0.00000E+00        -0.23290E+07
 
   -0.20659E+07        -0.84076E+06         0.00000E+00
   -0.84076E+06        -0.95919E+07         0.00000E+00
    0.00000E+00         0.00000E+00        -0.23316E+07
 
   -0.20997E+07        -0.23827E+06         0.00000E+00
   -0.23827E+06        -0.95746E+07         0.00000E+00
    0.00000E+00         0.00000E+00        -0.23349E+07
 
   -0.21391E+07         0.55689E+06         0.00000E+00
    0.55689E+06        -0.95542E+07         0.00000E+00
    0.00000E+00         0.00000E+00        -0.23387E+07
 
   -0.21822E+07         0.15379E+07         0.00000E+00
    0.15379E+07        -0.95315E+07         0.00000E+00
    0.00000E+00         0.00000E+00        -0.23427E+07
 
   -0.22265E+07         0.26960E+07         0.00000E+00
    0.26960E+07        -0.95079E+07         0.00000E+00
    0.00000E+00         0.00000E+00        -0.23469E+07
 
   -0.22691E+07         0.40201E+07         0.00000E+00
    0.40201E+07        -0.94848E+07         0.00000E+00
    0.00000E+00         0.00000E+00        -0.23508E+07
 
   -0.23067E+07         0.54970E+07         0.00000E+00
    0.54970E+07        -0.94640E+07         0.00000E+00
    0.00000E+00         0.00000E+00        -0.23542E+07
 
   -0.23361E+07         0.71103E+07         0.00000E+00
    0.71103E+07        -0.94477E+07         0.00000E+00
    0.00000E+00         0.00000E+00        -0.23568E+07
 
   -0.23535E+07         0.88408E+07         0.00000E+00
    0.88408E+07        -0.94380E+07         0.00000E+00
    0.00000E+00         0.00000E+00        -0.23583E+07
 
   -0.52663E+07        -0.33516E+06         0.00000E+00
   -0.33516E+06        -0.12250E+08         0.00000E+00
    0.00000E+00         0.00000E+00        -0.35033E+07
 
   -0.50865E+07        -0.88985E+06         0.00000E+00
   -0.88985E+06        -0.12260E+08         0.00000E+00
    0.00000E+00         0.00000E+00        -0.34692E+07
 
   -0.48992E+07        -0.12708E+07         0.00000E+00
   -0.12708E+07        -0.12276E+08         0.00000E+00
    0.00000E+00         0.00000E+00        -0.34351E+07
 
   -0.47094E+07        -0.14627E+07         0.00000E+00
   -0.14627E+07        -0.12297E+08         0.00000E+00
    0.00000E+00         0.00000E+00        -0.34013E+07
 
   -0.45218E+07        -0.14570E+07         0.00000E+00
   -0.14570E+07        -0.12320E+08         0.00000E+00
    0.00000E+00         0.00000E+00        -0.33684E+07
 
   -0.43404E+07        -0.12504E+07         0.00000E+00
   -0.12504E+07        -0.12343E+08         0.00000E+00
    0.00000E+00         0.00000E+00        -0.33367E+07
 
   -0.41680E+07        -0.84302E+06         0.00000E+00
   -0.84302E+06        -0.12365E+08         0.00000E+00
    0.00000E+00         0.00000E+00        -0.33066E+07
 
   -0.40067E+07        -0.23824E+06         0.00000E+00
   -0.23824E+06        -0.12386E+08         0.00000E+00
    0.00000E+00         0.00000E+00        -0.32784E+07
 
   -0.38569E+07         0.55860E+06         0.00000E+00
    0.55860E+06        -0.12405E+08         0.00000E+00
    0.00000E+00         0.00000E+00        -0.32524E+07
 
   -0.37189E+07         0.15403E+07         0.00000E+00
    0.15403E+07        -0.12424E+08         0.00000E+00
    0.00000E+00         0.00000E+00        -0.32287E+07
 
   -0.35919E+07         0.26978E+07         0.00000E+00
    0.26978E+07        -0.12445E+08         0.00000E+00
    0.00000E+00         0.00000E+00        -0.32073E+07
 
   -0.34755E+07         0.40200E+07         0.00000E+00
    0.40200E+07        -0.12467E+08         0.00000E+00
    0.00000E+00         0.00000E+00        -0.31884E+07
 
   -0.33689E+07         0.54936E+07         0.00000E+00
    0.54936E+07        -0.12491E+08         0.00000E+00
    0.00000E+00         0.00000E+00        -0.31720E+07
 
   -0.32717E+07         0.71024E+07         0.00000E+00
    0.71024E+07        -0.12519E+08         0.00000E+00
    0.00000E+00         0.00000E+00        -0.31582E+07
 
   -0.31836E+07         0.88270E+07         0.00000E+00
    0.88270E+07        -0.12551E+08         0.00000E+00
    0.00000E+00         0.00000E+00        -0.31468E+07
 
   -0.85060E+07        -0.34384E+06         0.00000E+00
   -0.34384E+06        -0.14852E+08         0.00000E+00
    0.00000E+00         0.00000E+00        -0.46716E+07
 
   -0.81610E+07        -0.91228E+06         0.00000E+00
   -0.91228E+06        -0.14874E+08         0.00000E+00
    0.00000E+00         0.00000E+00        -0.46071E+07
 
   -0.77892E+07        -0.13024E+07         0.00000E+00
   -0.13024E+07        -0.14913E+08         0.00000E+00
    0.00000E+00         0.00000E+00        -0.45404E+07
 
   -0.74037E+07        -0.14995E+07         0.00000E+00
   -0.14995E+07        -0.14961E+08         0.00000E+00
    0.00000E+00         0.00000E+00        -0.44730E+07
 
   -0.70150E+07        -0.14961E+07         0.00000E+00
   -0.14961E+07        -0.15015E+08         0.00000E+00
    0.00000E+00         0.00000E+00        -0.44060E+07
 
   -0.66316E+07        -0.12897E+07         0.00000E+00
   -0.12897E+07        -0.15071E+08         0.00000E+00
    0.00000E+00         0.00000E+00        -0.43405E+07
 
   -0.62598E+07        -0.88179E+06         0.00000E+00
   -0.88179E+06        -0.15127E+08         0.00000E+00
    0.00000E+00         0.00000E+00        -0.42775E+07
 
   -0.59036E+07        -0.27661E+06         0.00000E+00
   -0.27661E+06        -0.15185E+08         0.00000E+00
    0.00000E+00         0.00000E+00        -0.42176E+07
 
   -0.55657E+07         0.51989E+06         0.00000E+00
    0.51989E+06        -0.15242E+08         0.00000E+00
    0.00000E+00         0.00000E+00        -0.41616E+07
 
   -0.52476E+07         0.15002E+07         0.00000E+00
    0.15002E+07        -0.15302E+08         0.00000E+00
    0.00000E+00         0.00000E+00        -0.41100E+07
 
   -0.49505E+07         0.26554E+07         0.00000E+00
    0.26554E+07        -0.15365E+08         0.00000E+00
    0.00000E+00         0.00000E+00        -0.40631E+07
 
   -0.46758E+07         0.39748E+07         0.00000E+00
    0.39748E+07        -0.15431E+08         0.00000E+00
    0.00000E+00         0.00000E+00        -0.40214E+07
 
   -0.44255E+07         0.54454E+07         0.00000E+00
    0.54454E+07        -0.15500E+08         0.00000E+00
    0.00000E+00         0.00000E+00        -0.39852E+07
 
   -0.42022E+07         0.70516E+07         0.00000E+00
    0.70516E+07        -0.15572E+08         0.00000E+00
    0.00000E+00         0.00000E+00        -0.39548E+07
 
   -0.40089E+07         0.87744E+07         0.00000E+00
    0.87744E+07        -0.15644E+08         0.00000E+00
    0.00000E+00         0.00000E+00        -0.39306E+07
 
   -0.11762E+08        -0.35978E+06         0.00000E+00
   -0.35978E+06        -0.17448E+08         0.00000E+00
    0.00000E+00         0.00000E+00        -0.58420E+07
 
   -0.11245E+08        -0.95274E+06         0.00000E+00
   -0.95274E+06        -0.17483E+08         0.00000E+00
    0.00000E+00         0.00000E+00        -0.57455E+07
 
   -0.10683E+08        -0.13588E+07         0.00000E+00
   -0.13588E+07        -0.17542E+08         0.00000E+00
    0.00000E+00         0.00000E+00        -0.56449E+07
 
   -0.10097E+08        -0.15651E+07         0.00000E+00
   -0.15651E+07        -0.17616E+08         0.00000E+00
    0.00000E+00         0.00000E+00        -0.55425E+07
 
   -0.95039E+07        -0.15661E+07         0.00000E+00
   -0.15661E+07        -0.17698E+08         0.00000E+00
    0.00000E+00         0.00000E+00        -0.54404E+07
 
   -0.89171E+07        -0.13615E+07         0.00000E+00
   -0.13615E+07        -0.17784E+08         0.00000E+00
    0.00000E+00         0.00000E+00        -0.53402E+07
 
   -0.83455E+07        -0.95453E+06         0.00000E+00
   -0.95453E+06        -0.17872E+08         0.00000E+00
    0.00000E+00         0.00000E+00        -0.52435E+07
 
   -0.77952E+07        -0.35069E+06         0.00000E+00
   -0.35069E+06        -0.17962E+08         0.00000E+00
    0.00000E+00         0.00000E+00        -0.51514E+07
 
   -0.72701E+07         0.44332E+06         0.00000E+00
    0.44332E+06        -0.18054E+08         0.00000E+00
    0.00000E+00         0.00000E+00        -0.50649E+07
 
   -0.67730E+07         0.14199E+07         0.00000E+00
    0.14199E+07        -0.18151E+08         0.00000E+00
    0.00000E+00         0.00000E+00        -0.49849E+07
 
   -0.63063E+07         0.25706E+07         0.00000E+00
    0.25706E+07        -0.18254E+08         0.00000E+00
    0.00000E+00         0.00000E+00        -0.49121E+07
 
   -0.58733E+07         0.38855E+07         0.00000E+00
    0.38855E+07        -0.18362E+08         0.00000E+00
    0.00000E+00         0.00000E+00        -0.48472E+07
 
   -0.54785E+07         0.53529E+07         0.00000E+00
    0.53529E+07        -0.18476E+08         0.00000E+00
    0.00000E+00         0.00000E+00        -0.47908E+07
 
   -0.51274E+07         0.69580E+07         0.00000E+00
    0.69580E+07        -0.18591E+08         0.00000E+00
    0.00000E+00         0.00000E+00        -0.47437E+07
 
   -0.48269E+07         0.86825E+07         0.00000E+00
    0.86825E+07        -0.18705E+08         0.00000E+00
    0.00000E+00         0.00000E+00        -0.47063E+07
 
   -0.15050E+08        -0.38269E+06         0.00000E+00
   -0.38269E+06        -0.20039E+08         0.00000E+00
    0.00000E+00         0.00000E+00        -0.70180E+07
 
   -0.14349E+08        -0.10102E+07         0.00000E+00
   -0.10102E+07        -0.20086E+08         0.00000E+00
    0.00000E+00         0.00000E+00        -0.68870E+07
 
   -0.13587E+08        -0.14380E+07         0.00000E+00
   -0.14380E+07        -0.20164E+08         0.00000E+00
    0.00000E+00         0.00000E+00        -0.67502E+07
 
   -0.12794E+08        -0.16564E+07         0.00000E+00
   -0.16564E+07        -0.20261E+08         0.00000E+00
    0.00000E+00         0.00000E+00        -0.66109E+07
 
   -0.11992E+08        -0.16632E+07         0.00000E+00
   -0.16632E+07        -0.20367E+08         0.00000E+00
    0.00000E+00         0.00000E+00        -0.64719E+07
 
   -0.11200E+08        -0.14612E+07         0.00000E+00
   -0.14612E+07        -0.20477E+08         0.00000E+00
    0.00000E+00         0.00000E+00        -0.63356E+07
 
   -0.10429E+08        -0.10563E+07         0.00000E+00
   -0.10563E+07        -0.20590E+08         0.00000E+00
    0.00000E+00         0.00000E+00        -0.62039E+07
 
   -0.96860E+07        -0.45558E+06         0.00000E+00
   -0.45558E+06        -0.20707E+08         0.00000E+00
    0.00000E+00         0.00000E+00        -0.60785E+07
 
   -0.89754E+07         0.33333E+06         0.00000E+00
    0.33333E+06        -0.20828E+08         0.00000E+00
    0.00000E+00         0.00000E+00        -0.59607E+07
 
   -0.83005E+07         0.13030E+07         0.00000E+00
    0.13030E+07        -0.20957E+08         0.00000E+00
    0.00000E+00         0.00000E+00        -0.58516E+07
 
   -0.76646E+07         0.24458E+07         0.00000E+00
    0.24458E+07        -0.21096E+08         0.00000E+00
    0.00000E+00         0.00000E+00        -0.57522E+07
 
   -0.70722E+07         0.37535E+07         0.00000E+00
    0.37535E+07        -0.21245E+08         0.00000E+00
    0.00000E+00         0.00000E+00        -0.56635E+07
 
   -0.65302E+07         0.52161E+07         0.00000E+00
    0.52161E+07        -0.21401E+08         0.00000E+00
    0.00000E+00         0.00000E+00        -0.55863E+07
 
   -0.60476E+07         0.68207E+07         0.00000E+00
    0.68207E+07        -0.21561E+08         0.00000E+00
    0.00000E+00         0.00000E+00        -0.55217E+07
 
   -0.56356E+07         0.85503E+07         0.00000E+00
    0.85503E+07        -0.21718E+08         0.00000E+00
    0.00000E+00         0.00000E+00        -0.54707E+07
 
   -0.18385E+08        -0.41205E+06         0.00000E+00
   -0.41205E+06        -0.22629E+08         0.00000E+00
    0.00000E+00         0.00000E+00        -0.82029E+07
 
   -0.17482E+08        -0.10829E+07         0.00000E+00
   -0.10829E+07        -0.22686E+08         0.00000E+00
    0.00000E+00         0.00000E+00        -0.80337E+07
 
   -0.16507E+08        -0.15367E+07         0.00000E+00
   -0.15367E+07        -0.22780E+08         0.00000E+00
    0.00000E+00         0.00000E+00        -0.78575E+07
 
   -0.15498E+08        -0.17686E+07         0.00000E+00
   -0.17686E+07        -0.22894E+08         0.00000E+00
    0.00000E+00         0.00000E+00        -0.76784E+07
 
   -0.14483E+08        -0.17812E+07         0.00000E+00
   -0.17812E+07        -0.23017E+08         0.00000E+00
    0.00000E+00         0.00000E+00        -0.75001E+07
 
   -0.13484E+08        -0.15817E+07         0.00000E+00
   -0.15817E+07        -0.23144E+08         0.00000E+00
    0.00000E+00         0.00000E+00        -0.73257E+07
 
   -0.12514E+08        -0.11795E+07         0.00000E+00
   -0.11795E+07        -0.23273E+08         0.00000E+00
    0.00000E+00         0.00000E+00        -0.71576E+07
 
   -0.11581E+08        -0.58395E+06         0.00000E+00
   -0.58395E+06        -0.23407E+08         0.00000E+00
    0.00000E+00         0.00000E+00        -0.69976E+07
 
   -0.10687E+08         0.19639E+06         0.00000E+00
    0.19639E+06        -0.23550E+08         0.00000E+00
    0.00000E+00         0.00000E+00        -0.68474E+07
 
   -0.98366E+07         0.11545E+07         0.00000E+00
    0.11545E+07        -0.23705E+08         0.00000E+00
    0.00000E+00         0.00000E+00        -0.67082E+07
 
   -0.90316E+07         0.22844E+07         0.00000E+00
    0.22844E+07        -0.23875E+08         0.00000E+00
    0.00000E+00         0.00000E+00        -0.65813E+07
 
   -0.82778E+07         0.35803E+07         0.00000E+00
    0.35803E+07        -0.24061E+08         0.00000E+00
    0.00000E+00         0.00000E+00        -0.64678E+07
 
   -0.75843E+07         0.50349E+07         0.00000E+00
    0.50349E+07        -0.24260E+08         0.00000E+00
    0.00000E+00         0.00000E+00        -0.63689E+07
 
   -0.69639E+07         0.66382E+07         0.00000E+00
    0.66382E+07        -0.24466E+08         0.00000E+00
    0.00000E+00         0.00000E+00        -0.62859E+07
 
   -0.64329E+07         0.83751E+07         0.00000E+00
    0.83751E+07        -0.24668E+08         0.00000E+00
    0.00000E+00         0.00000E+00        -0.62202E+07
 
   -0.21779E+08        -0.44705E+06         0.00000E+00
   -0.44705E+06        -0.25220E+08         0.00000E+00
    0.00000E+00         0.00000E+00        -0.93997E+07
 
   -0.20653E+08        -0.11680E+07         0.00000E+00
   -0.11680E+07        -0.25285E+08         0.00000E+00
    0.00000E+00         0.00000E+00        -0.91875E+07
 
   -0.19448E+08        -0.16499E+07         0.00000E+00
   -0.16499E+07        -0.25390E+08         0.00000E+00
    0.00000E+00         0.00000E+00        -0.89675E+07
 
   -0.18211E+08        -0.18945E+07         0.00000E+00
   -0.18945E+07        -0.25514E+08         0.00000E+00
    0.00000E+00         0.00000E+00        -0.87451E+07
 
   -0.16978E+08        -0.19110E+07         0.00000E+00
   -0.19110E+07        -0.25645E+08         0.00000E+00
    0.00000E+00         0.00000E+00        -0.85245E+07
 
   -0.15771E+08        -0.17127E+07         0.00000E+00
   -0.17127E+07        -0.25777E+08         0.00000E+00
    0.00000E+00         0.00000E+00        -0.83096E+07
 
   -0.14605E+08        -0.13136E+07         0.00000E+00
   -0.13136E+07        -0.25910E+08         0.00000E+00
    0.00000E+00         0.00000E+00        -0.81031E+07
 
   -0.13485E+08        -0.72586E+06         0.00000E+00
   -0.72586E+06        -0.26050E+08         0.00000E+00
    0.00000E+00         0.00000E+00        -0.79070E+07
 
   -0.12413E+08         0.41160E+05         0.00000E+00
    0.41160E+05        -0.26203E+08         0.00000E+00
    0.00000E+00         0.00000E+00        -0.77232E+07
 
   -0.11389E+08         0.98125E+06         0.00000E+00
    0.98125E+06        -0.26375E+08         0.00000E+00
    0.00000E+00         0.00000E+00        -0.75528E+07
 
   -0.10416E+08         0.20908E+07         0.00000E+00
    0.20908E+07        -0.26570E+08         0.00000E+00
    0.00000E+00         0.00000E+00        -0.73972E+07
 
   -0.94977E+07         0.33675E+07         0.00000E+00
    0.33675E+07        -0.26791E+08         0.00000E+00
    0.00000E+00         0.00000E+00        -0.72577E+07
 
   -0.86463E+07         0.48084E+07         0.00000E+00
    0.48084E+07        -0.27032E+08         0.00000E+00
    0.00000E+00         0.00000E+00        -0.71357E+07
 
   -0.78785E+07         0.64074E+07         0.00000E+00
    0.64074E+07        -0.27286E+08         0.00000E+00
    0.00000E+00         0.00000E+00        -0.70329E+07
 
   -0.72169E+07         0.81528E+07         0.00000E+00
    0.81528E+07        -0.27539E+08         0.00000E+00
    0.00000E+00         0.00000E+00        -0.69512E+07
 
   -0.25242E+08        -0.48669E+06         0.00000E+00
   -0.48669E+06        -0.27812E+08         0.00000E+00
    0.00000E+00         0.00000E+00        -0.10611E+08
 
   -0.23865E+08        -0.12619E+07         0.00000E+00
   -0.12619E+07        -0.27882E+08         0.00000E+00
    0.00000E+00         0.00000E+00        -0.10350E+08
 
   -0.22410E+08        -0.17708E+07         0.00000E+00
   -0.17708E+07        -0.27993E+08         0.00000E+00
    0.00000E+00         0.00000E+00        -0.10080E+08
 
   -0.20933E+08        -0.20241E+07         0.00000E+00
   -0.20241E+07        -0.28118E+08         0.00000E+00
    0.00000E+00         0.00000E+00        -0.98100E+07
 
   -0.19475E+08        -0.20404E+07         0.00000E+00
   -0.20404E+07        -0.28243E+08         0.00000E+00
    0.00000E+00         0.00000E+00        -0.95437E+07
 
   -0.18062E+08        -0.18408E+07         0.00000E+00
   -0.18408E+07        -0.28366E+08         0.00000E+00
    0.00000E+00         0.00000E+00        -0.92855E+07
 
   -0.16704E+08        -0.14450E+07         0.00000E+00
   -0.14450E+07        -0.28488E+08         0.00000E+00
    0.00000E+00         0.00000E+00        -0.90385E+07
 
   -0.15405E+08        -0.86855E+06         0.00000E+00
   -0.86855E+06        -0.28619E+08         0.00000E+00
    0.00000E+00         0.00000E+00        -0.88048E+07
 
   -0.14161E+08        -0.12143E+06         0.00000E+00
   -0.12143E+06        -0.28769E+08         0.00000E+00
    0.00000E+00         0.00000E+00        -0.85860E+07
 
   -0.12969E+08         0.79156E+06         0.00000E+00
    0.79156E+06        -0.28947E+08         0.00000E+00
    0.00000E+00         0.00000E+00        -0.83833E+07
 
   -0.11828E+08         0.18701E+07         0.00000E+00
    0.18701E+07        -0.29161E+08         0.00000E+00
    0.00000E+00         0.00000E+00        -0.81978E+07
 
   -0.10742E+08         0.31169E+07         0.00000E+00
    0.31169E+07        -0.29412E+08         0.00000E+00
    0.00000E+00         0.00000E+00        -0.80308E+07
 
   -0.97240E+07         0.45347E+07         0.00000E+00
    0.45347E+07        -0.29696E+08         0.00000E+00
    0.00000E+00         0.00000E+00        -0.78840E+07
 
   -0.87953E+07         0.61237E+07         0.00000E+00
    0.61237E+07        -0.30002E+08         0.00000E+00
    0.00000E+00         0.00000E+00        -0.77595E+07
 
   -0.79865E+07         0.78772E+07         0.00000E+00
    0.78772E+07        -0.30312E+08         0.00000E+00
    0.00000E+00         0.00000E+00        -0.76597E+07
 
   -0.28782E+08        -0.52976E+06         0.00000E+00
   -0.52976E+06        -0.30408E+08         0.00000E+00
    0.00000E+00         0.00000E+00        -0.11838E+08
 
   -0.27120E+08        -0.13599E+07         0.00000E+00
   -0.13599E+07        -0.30480E+08         0.00000E+00
    0.00000E+00         0.00000E+00        -0.11520E+08
 
   -0.25388E+08        -0.18903E+07         0.00000E+00
   -0.18903E+07        -0.30588E+08         0.00000E+00
    0.00000E+00         0.00000E+00        -0.11195E+08
 
   -0.23657E+08        -0.21444E+07         0.00000E+00
   -0.21444E+07        -0.30700E+08         0.00000E+00
    0.00000E+00         0.00000E+00        -0.10871E+08
 
   -0.21971E+08        -0.21534E+07         0.00000E+00
   -0.21534E+07        -0.30804E+08         0.00000E+00
    0.00000E+00         0.00000E+00        -0.10555E+08
 
   -0.20355E+08        -0.19487E+07         0.00000E+00
   -0.19487E+07        -0.30899E+08         0.00000E+00
    0.00000E+00         0.00000E+00        -0.10251E+08
 
   -0.18815E+08        -0.15568E+07         0.00000E+00
   -0.15568E+07        -0.30991E+08         0.00000E+00
    0.00000E+00         0.00000E+00        -0.99613E+07
 
   -0.17347E+08        -0.99651E+06         0.00000E+00
   -0.99651E+06        -0.31096E+08         0.00000E+00
    0.00000E+00         0.00000E+00        -0.96886E+07
 
   -0.15942E+08        -0.27820E+06         0.00000E+00
   -0.27820E+06        -0.31227E+08         0.00000E+00
    0.00000E+00         0.00000E+00        -0.94337E+07
 
   -0.14589E+08         0.59543E+06         0.00000E+00
    0.59543E+06        -0.31399E+08         0.00000E+00
    0.00000E+00         0.00000E+00        -0.91975E+07
 
   -0.13283E+08         0.16285E+07         0.00000E+00
    0.16285E+07        -0.31621E+08         0.00000E+00
    0.00000E+00         0.00000E+00        -0.89808E+07
 
   -0.12025E+08         0.28300E+07         0.00000E+00
    0.28300E+07        -0.31899E+08         0.00000E+00
    0.00000E+00         0.00000E+00        -0.87847E+07
 
   -0.10829E+08         0.42110E+07         0.00000E+00
    0.42110E+07        -0.32227E+08         0.00000E+00
    0.00000E+00         0.00000E+00        -0.86111E+07
 
   -0.97207E+07         0.57803E+07         0.00000E+00
    0.57803E+07        -0.32592E+08         0.00000E+00
    0.00000E+00         0.00000E+00        -0.84624E+07
 
   -0.87409E+07         0.75389E+07         0.00000E+00
    0.75389E+07        -0.32968E+08         0.00000E+00
    0.00000E+00         0.00000E+00        -0.83418E+07
 
   -0.32404E+08        -0.57481E+06         0.00000E+00
   -0.57481E+06        -0.33007E+08         0.00000E+00
    0.00000E+00         0.00000E+00        -0.13082E+08
 
   -0.30412E+08        -0.14556E+07         0.00000E+00
   -0.14556E+07        -0.33078E+08         0.00000E+00
    0.00000E+00         0.00000E+00        -0.12698E+08
 
   -0.28375E+08        -0.19961E+07         0.00000E+00
   -0.19961E+07        -0.33171E+08         0.00000E+00
    0.00000E+00         0.00000E+00        -0.12309E+08
 
   -0.26376E+08        -0.22379E+07         0.00000E+00
   -0.22379E+07        -0.33254E+08         0.00000E+00
    0.00000E+00         0.00000E+00        -0.11926E+08
 
   -0.24462E+08        -0.22296E+07         0.00000E+00
   -0.22296E+07        -0.33315E+08         0.00000E+00
    0.00000E+00         0.00000E+00        -0.11555E+08
 
   -0.22652E+08        -0.20154E+07         0.00000E+00
   -0.20154E+07        -0.33358E+08         0.00000E+00
    0.00000E+00         0.00000E+00        -0.11202E+08
 
   -0.20943E+08        -0.16289E+07         0.00000E+00
   -0.16289E+07        -0.33398E+08         0.00000E+00
    0.00000E+00         0.00000E+00        -0.10868E+08
 
   -0.19322E+08        -0.10918E+07         0.00000E+00
   -0.10918E+07        -0.33456E+08         0.00000E+00
    0.00000E+00         0.00000E+00        -0.10556E+08
 
   -0.17769E+08        -0.41406E+06         0.00000E+00
   -0.41406E+06        -0.33551E+08         0.00000E+00
    0.00000E+00         0.00000E+00        -0.10264E+08
 
   -0.16265E+08         0.40440E+06         0.00000E+00
    0.40440E+06        -0.33703E+08         0.00000E+00
    0.00000E+00         0.00000E+00        -0.99936E+07
 
   -0.14798E+08         0.13729E+07         0.00000E+00
    0.13729E+07        -0.33925E+08         0.00000E+00
    0.00000E+00         0.00000E+00        -0.97446E+07
 
   -0.13365E+08         0.25084E+07         0.00000E+00
    0.25084E+07        -0.34224E+08         0.00000E+00
    0.00000E+00         0.00000E+00        -0.95177E+07
 
   -0.11976E+08         0.38328E+07         0.00000E+00
    0.38328E+07        -0.34598E+08         0.00000E+00
    0.00000E+00         0.00000E+00        -0.93148E+07
 
   -0.10664E+08         0.53673E+07         0.00000E+00
    0.53673E+07        -0.35029E+08         0.00000E+00
    0.00000E+00         0.00000E+00        -0.91387E+07
 
   -0.94809E+07         0.71246E+07         0.00000E+00
    0.71246E+07        -0.35486E+08         0.00000E+00
    0.00000E+00         0.00000E+00        -0.89934E+07
 
   -0.36105E+08        -0.62010E+06         0.00000E+00
   -0.62010E+06        -0.35612E+08         0.00000E+00
    0.00000E+00         0.00000E+00        -0.14343E+08
 
   -0.33729E+08        -0.15402E+07         0.00000E+00
   -0.15402E+07        -0.35674E+08         0.00000E+00
    0.00000E+00         0.00000E+00        -0.13881E+08
 
   -0.31353E+08        -0.20708E+07         0.00000E+00
   -0.20708E+07        -0.35738E+08         0.00000E+00
    0.00000E+00         0.00000E+00        -0.13418E+08
 
   -0.29075E+08        -0.22811E+07         0.00000E+00
   -0.22811E+07        -0.35767E+08         0.00000E+00
    0.00000E+00         0.00000E+00        -0.12968E+08
 
   -0.26939E+08        -0.22431E+07         0.00000E+00
   -0.22431E+07        -0.35755E+08         0.00000E+00
    0.00000E+00         0.00000E+00        -0.12539E+08
 
   -0.24951E+08        -0.20157E+07         0.00000E+00
   -0.20157E+07        -0.35719E+08         0.00000E+00
    0.00000E+00         0.00000E+00        -0.12134E+08
 
   -0.23095E+08        -0.16388E+07         0.00000E+00
   -0.16388E+07        -0.35682E+08         0.00000E+00
    0.00000E+00         0.00000E+00        -0.11755E+08
 
   -0.21340E+08        -0.11350E+07         0.00000E+00
   -0.11350E+07        -0.35672E+08         0.00000E+00
    0.00000E+00         0.00000E+00        -0.11403E+08
 
   -0.19658E+08        -0.51288E+06         0.00000E+00
   -0.51288E+06        -0.35714E+08         0.00000E+00
    0.00000E+00         0.00000E+00        -0.11074E+08
 
   -0.18018E+08         0.23111E+06         0.00000E+00
    0.23111E+06        -0.35831E+08         0.00000E+00
    0.00000E+00         0.00000E+00        -0.10770E+08
 
   -0.16398E+08         0.11116E+07         0.00000E+00
    0.11116E+07        -0.36041E+08         0.00000E+00
    0.00000E+00         0.00000E+00        -0.10488E+08
 
   -0.14786E+08         0.21542E+07         0.00000E+00
    0.21542E+07        -0.36357E+08         0.00000E+00
    0.00000E+00         0.00000E+00        -0.10229E+08
 
   -0.13189E+08         0.33943E+07         0.00000E+00
    0.33943E+07        -0.36778E+08         0.00000E+00
    0.00000E+00         0.00000E+00        -0.99934E+07
 
   -0.11641E+08         0.48710E+07         0.00000E+00
    0.48710E+07        -0.37287E+08         0.00000E+00
    0.00000E+00         0.00000E+00        -0.97857E+07
 
   -0.10209E+08         0.66156E+07         0.00000E+00
    0.66156E+07        -0.37844E+08         0.00000E+00
    0.00000E+00         0.00000E+00        -0.96106E+07
 
   -0.39880E+08        -0.66331E+06         0.00000E+00
   -0.66331E+06        -0.38220E+08         0.00000E+00
    0.00000E+00         0.00000E+00        -0.15620E+08
 
   -0.37049E+08        -0.16004E+07         0.00000E+00
   -0.16004E+07        -0.38264E+08         0.00000E+00
    0.00000E+00         0.00000E+00        -0.15063E+08
 
   -0.34298E+08        -0.20887E+07         0.00000E+00
   -0.20887E+07        -0.38273E+08         0.00000E+00
    0.00000E+00         0.00000E+00        -0.14514E+08
 
   -0.31737E+08        -0.22417E+07         0.00000E+00
   -0.22417E+07        -0.38213E+08         0.00000E+00
    0.00000E+00         0.00000E+00        -0.13990E+08
 
   -0.29396E+08        -0.21624E+07         0.00000E+00
   -0.21624E+07        -0.38094E+08         0.00000E+00
    0.00000E+00         0.00000E+00        -0.13498E+08
 
   -0.27256E+08        -0.19225E+07         0.00000E+00
   -0.19225E+07        -0.37948E+08         0.00000E+00
    0.00000E+00         0.00000E+00        -0.13041E+08
 
   -0.25278E+08        -0.15642E+07         0.00000E+00
   -0.15642E+07        -0.37810E+08         0.00000E+00
    0.00000E+00         0.00000E+00        -0.12618E+08
 
   -0.23417E+08        -0.11079E+07         0.00000E+00
   -0.11079E+07        -0.37714E+08         0.00000E+00
    0.00000E+00         0.00000E+00        -0.12226E+08
 
   -0.21628E+08        -0.55918E+06         0.00000E+00
   -0.55918E+06        -0.37687E+08         0.00000E+00
    0.00000E+00         0.00000E+00        -0.11863E+08
 
   -0.19871E+08         0.88591E+05         0.00000E+00
    0.88591E+05        -0.37755E+08         0.00000E+00
    0.00000E+00         0.00000E+00        -0.11525E+08
 
   -0.18110E+08         0.85410E+06         0.00000E+00
    0.85410E+06        -0.37942E+08         0.00000E+00
    0.00000E+00         0.00000E+00        -0.11210E+08
 
   -0.16321E+08         0.17708E+07         0.00000E+00
    0.17708E+07        -0.38266E+08         0.00000E+00
    0.00000E+00         0.00000E+00        -0.10917E+08
 
   -0.14499E+08         0.28890E+07         0.00000E+00
    0.28890E+07        -0.38735E+08         0.00000E+00
    0.00000E+00         0.00000E+00        -0.10647E+08
 
   -0.12675E+08         0.42732E+07         0.00000E+00
    0.42732E+07        -0.39335E+08         0.00000E+00
    0.00000E+00         0.00000E+00        -0.10402E+08
 
   -0.10931E+08         0.59849E+07         0.00000E+00
    0.59849E+07        -0.40019E+08         0.00000E+00
    0.00000E+00         0.00000E+00        -0.10190E+08
 
   -0.43710E+08        -0.70074E+06         0.00000E+00
   -0.70074E+06        -0.40832E+08         0.00000E+00
    0.00000E+00         0.00000E+00        -0.16909E+08
 
   -0.40331E+08        -0.16123E+07         0.00000E+00
   -0.16123E+07        -0.40839E+08         0.00000E+00
    0.00000E+00         0.00000E+00        -0.16234E+08
 
   -0.37173E+08        -0.20090E+07         0.00000E+00
   -0.20090E+07        -0.40750E+08         0.00000E+00
    0.00000E+00         0.00000E+00        -0.15585E+08
 
   -0.34344E+08        -0.20766E+07         0.00000E+00
   -0.20766E+07        -0.40549E+08         0.00000E+00
    0.00000E+00         0.00000E+00        -0.14979E+08
 
   -0.31832E+08        -0.19518E+07         0.00000E+00
   -0.19518E+07        -0.40280E+08         0.00000E+00
    0.00000E+00         0.00000E+00        -0.14423E+08
 
   -0.29577E+08        -0.17100E+07         0.00000E+00
   -0.17100E+07        -0.39995E+08         0.00000E+00
    0.00000E+00         0.00000E+00        -0.13914E+08
 
   -0.27509E+08        -0.13868E+07         0.00000E+00
   -0.13868E+07        -0.39739E+08         0.00000E+00
    0.00000E+00         0.00000E+00        -0.13450E+08
 
   -0.25569E+08        -0.99655E+06         0.00000E+00
   -0.99655E+06        -0.39544E+08         0.00000E+00
    0.00000E+00         0.00000E+00        -0.13022E+08
 
   -0.23698E+08        -0.54094E+06         0.00000E+00
   -0.54094E+06        -0.39439E+08         0.00000E+00
    0.00000E+00         0.00000E+00        -0.12627E+08
 
   -0.21847E+08        -0.11371E+05         0.00000E+00
   -0.11371E+05        -0.39450E+08         0.00000E+00
    0.00000E+00         0.00000E+00        -0.12259E+08
 
   -0.19965E+08         0.61198E+06         0.00000E+00
    0.61198E+06        -0.39602E+08         0.00000E+00
    0.00000E+00         0.00000E+00        -0.11913E+08
 
   -0.18010E+08         0.13655E+07         0.00000E+00
    0.13655E+07        -0.39922E+08         0.00000E+00
    0.00000E+00         0.00000E+00        -0.11586E+08
 
   -0.15951E+08         0.23126E+07         0.00000E+00
    0.23126E+07        -0.40433E+08         0.00000E+00
    0.00000E+00         0.00000E+00        -0.11277E+08
 
   -0.13803E+08         0.35508E+07         0.00000E+00
    0.35508E+07        -0.41137E+08         0.00000E+00
    0.00000E+00         0.00000E+00        -0.10988E+08
 
   -0.11660E+08         0.51939E+07         0.00000E+00
    0.51939E+07        -0.41984E+08         0.00000E+00
    0.00000E+00         0.00000E+00        -0.10729E+08
 
   -0.47560E+08        -0.72393E+06         0.00000E+00
   -0.72393E+06        -0.43443E+08         0.00000E+00
    0.00000E+00         0.00000E+00        -0.18200E+08
 
   -0.43508E+08        -0.15272E+07         0.00000E+00
   -0.15272E+07        -0.43368E+08         0.00000E+00
    0.00000E+00         0.00000E+00        -0.17375E+08
 
   -0.39936E+08        -0.17644E+07         0.00000E+00
   -0.17644E+07        -0.43100E+08         0.00000E+00
    0.00000E+00         0.00000E+00        -0.16607E+08
 
   -0.36890E+08        -0.17329E+07         0.00000E+00
   -0.17329E+07        -0.42690E+08         0.00000E+00
    0.00000E+00         0.00000E+00        -0.15916E+08
 
   -0.34261E+08        -0.15804E+07         0.00000E+00
   -0.15804E+07        -0.42235E+08         0.00000E+00
    0.00000E+00         0.00000E+00        -0.15299E+08
 
   -0.31931E+08        -0.13619E+07         0.00000E+00
   -0.13619E+07        -0.41797E+08         0.00000E+00
    0.00000E+00         0.00000E+00        -0.14746E+08
 
   -0.29808E+08        -0.10985E+07         0.00000E+00
   -0.10985E+07        -0.41418E+08         0.00000E+00
    0.00000E+00         0.00000E+00        -0.14245E+08
 
   -0.27815E+08        -0.79620E+06         0.00000E+00
   -0.79620E+06        -0.41125E+08         0.00000E+00
    0.00000E+00         0.00000E+00        -0.13788E+08
 
   -0.25889E+08        -0.45330E+06         0.00000E+00
   -0.45330E+06        -0.40943E+08         0.00000E+00
    0.00000E+00         0.00000E+00        -0.13366E+08
 
   -0.23968E+08        -0.61209E+05         0.00000E+00
   -0.61209E+05        -0.40894E+08         0.00000E+00
    0.00000E+00         0.00000E+00        -0.12972E+08
 
   -0.21991E+08         0.39716E+06         0.00000E+00
    0.39716E+06        -0.41004E+08         0.00000E+00
    0.00000E+00         0.00000E+00        -0.12599E+08
 
   -0.19895E+08         0.95365E+06         0.00000E+00
    0.95365E+06        -0.41306E+08         0.00000E+00
    0.00000E+00         0.00000E+00        -0.12240E+08
 
   -0.17608E+08         0.16702E+07         0.00000E+00
    0.16702E+07        -0.41840E+08         0.00000E+00
    0.00000E+00         0.00000E+00        -0.11890E+08
 
   -0.15090E+08         0.26784E+07         0.00000E+00
    0.26784E+07        -0.42653E+08         0.00000E+00
    0.00000E+00         0.00000E+00        -0.11549E+08
 
   -0.12422E+08         0.41843E+07         0.00000E+00
    0.41843E+07        -0.43711E+08         0.00000E+00
    0.00000E+00         0.00000E+00        -0.11227E+08
 
   -0.51339E+08        -0.70295E+06         0.00000E+00
   -0.70295E+06        -0.46033E+08         0.00000E+00
    0.00000E+00         0.00000E+00        -0.19474E+08
 
   -0.46473E+08        -0.12276E+07         0.00000E+00
   -0.12276E+07        -0.45746E+08         0.00000E+00
    0.00000E+00         0.00000E+00        -0.18444E+08
 
   -0.42568E+08        -0.12606E+07         0.00000E+00
   -0.12606E+07        -0.45160E+08         0.00000E+00
    0.00000E+00         0.00000E+00        -0.17546E+08
 
   -0.39403E+08        -0.11724E+07         0.00000E+00
   -0.11724E+07        -0.44496E+08         0.00000E+00
    0.00000E+00         0.00000E+00        -0.16780E+08
 
   -0.36715E+08        -0.10396E+07         0.00000E+00
   -0.10396E+07        -0.43854E+08         0.00000E+00
    0.00000E+00         0.00000E+00        -0.16114E+08
 
   -0.34349E+08        -0.88283E+06         0.00000E+00
   -0.88283E+06        -0.43278E+08         0.00000E+00
    0.00000E+00         0.00000E+00        -0.15525E+08
 
   -0.32197E+08        -0.70811E+06         0.00000E+00
   -0.70811E+06        -0.42795E+08         0.00000E+00
    0.00000E+00         0.00000E+00        -0.14998E+08
 
   -0.30176E+08        -0.51561E+06         0.00000E+00
   -0.51561E+06        -0.42422E+08         0.00000E+00
    0.00000E+00         0.00000E+00        -0.14520E+08
 
   -0.28215E+08        -0.30224E+06         0.00000E+00
   -0.30224E+06        -0.42177E+08         0.00000E+00
    0.00000E+00         0.00000E+00        -0.14079E+08
 
   -0.26250E+08        -0.61681E+05         0.00000E+00
   -0.61681E+05        -0.42078E+08         0.00000E+00
    0.00000E+00         0.00000E+00        -0.13666E+08
 
   -0.24211E+08         0.21725E+06         0.00000E+00
    0.21725E+06        -0.42149E+08         0.00000E+00
    0.00000E+00         0.00000E+00        -0.13272E+08
 
   -0.22014E+08         0.55527E+06         0.00000E+00
    0.55527E+06        -0.42422E+08         0.00000E+00
    0.00000E+00         0.00000E+00        -0.12887E+08
 
   -0.19552E+08         0.99488E+06         0.00000E+00
    0.99488E+06        -0.42950E+08         0.00000E+00
    0.00000E+00         0.00000E+00        -0.12500E+08
 
   -0.16653E+08         0.16437E+07         0.00000E+00
    0.16437E+07        -0.43822E+08         0.00000E+00
    0.00000E+00         0.00000E+00        -0.12095E+08
 
   -0.13279E+08         0.28576E+07         0.00000E+00
    0.28576E+07        -0.45160E+08         0.00000E+00
    0.00000E+00         0.00000E+00        -0.11688E+08
 
   -0.54802E+08        -0.44173E+06         0.00000E+00
   -0.44173E+06        -0.48367E+08         0.00000E+00
    0.00000E+00         0.00000E+00        -0.20634E+08
 
   -0.49151E+08        -0.50684E+06         0.00000E+00
   -0.50684E+06        -0.47556E+08         0.00000E+00
    0.00000E+00         0.00000E+00        -0.19341E+08
 
   -0.45146E+08        -0.46562E+06         0.00000E+00
   -0.46562E+06        -0.46647E+08         0.00000E+00
    0.00000E+00         0.00000E+00        -0.18358E+08
 
   -0.41943E+08        -0.41761E+06         0.00000E+00
   -0.41761E+06        -0.45792E+08         0.00000E+00
    0.00000E+00         0.00000E+00        -0.17547E+08
 
   -0.39239E+08        -0.36389E+06         0.00000E+00
   -0.36389E+06        -0.45028E+08         0.00000E+00
    0.00000E+00         0.00000E+00        -0.16853E+08
 
   -0.36861E+08        -0.30635E+06         0.00000E+00
   -0.30635E+06        -0.44369E+08         0.00000E+00
    0.00000E+00         0.00000E+00        -0.16246E+08
 
   -0.34698E+08        -0.24488E+06         0.00000E+00
   -0.24488E+06        -0.43825E+08         0.00000E+00
    0.00000E+00         0.00000E+00        -0.15705E+08
 
   -0.32665E+08        -0.17864E+06         0.00000E+00
   -0.17864E+06        -0.43407E+08         0.00000E+00
    0.00000E+00         0.00000E+00        -0.15214E+08
 
   -0.30689E+08        -0.10618E+06         0.00000E+00
   -0.10618E+06        -0.43127E+08         0.00000E+00
    0.00000E+00         0.00000E+00        -0.14763E+08
 
   -0.28703E+08        -0.25162E+05         0.00000E+00
   -0.25162E+05        -0.42998E+08         0.00000E+00
    0.00000E+00         0.00000E+00        -0.14340E+08
 
   -0.26632E+08         0.68249E+05         0.00000E+00
    0.68249E+05        -0.43044E+08         0.00000E+00
    0.00000E+00         0.00000E+00        -0.13935E+08
 
   -0.24386E+08         0.18094E+06         0.00000E+00
    0.18094E+06        -0.43295E+08         0.00000E+00
    0.00000E+00         0.00000E+00        -0.13536E+08
 
   -0.21828E+08         0.32786E+06         0.00000E+00
    0.32786E+06        -0.43805E+08         0.00000E+00
    0.00000E+00         0.00000E+00        -0.13127E+08
 
   -0.18722E+08         0.54296E+06         0.00000E+00
    0.54296E+06        -0.44676E+08         0.00000E+00
    0.00000E+00         0.00000E+00        -0.12680E+08
 
   -0.14393E+08         0.10496E+07         0.00000E+00
    0.10496E+07        -0.46193E+08         0.00000E+00
    0.00000E+00         0.00000E+00        -0.12117E+08
 
TENSORS stresstot double 
   -0.44247E+08         0.11087E+06         0.00000E+00
    0.11087E+06        -0.59124E+08         0.00000E+00
    0.00000E+00         0.00000E+00        -0.62706E+08
 
   -0.44924E+08        -0.13525E+06         0.00000E+00
   -0.13525E+06        -0.59419E+08         0.00000E+00
    0.00000E+00         0.00000E+00        -0.65896E+08
 
   -0.46867E+08        -0.37835E+06         0.00000E+00
   -0.37835E+06        -0.60082E+08         0.00000E+00
    0.00000E+00         0.00000E+00        -0.69567E+08
 
   -0.49203E+08        -0.40437E+06         0.00000E+00
   -0.40437E+06        -0.60999E+08         0.00000E+00
    0.00000E+00         0.00000E+00        -0.73252E+08
 
   -0.52005E+08        -0.63704E+06         0.00000E+00
   -0.63704E+06        -0.62028E+08         0.00000E+00
    0.00000E+00         0.00000E+00        -0.75937E+08
 
   -0.55413E+08        -0.56361E+06         0.00000E+00
   -0.56361E+06        -0.63142E+08         0.00000E+00
    0.00000E+00         0.00000E+00        -0.76864E+08
 
   -0.57957E+08        -0.42278E+06         0.00000E+00
   -0.42278E+06        -0.64070E+08         0.00000E+00
    0.00000E+00         0.00000E+00        -0.77558E+08
 
   -0.60186E+08        -0.30703E+06         0.00000E+00
   -0.30703E+06        -0.64773E+08         0.00000E+00
    0.00000E+00         0.00000E+00        -0.78144E+08
 
   -0.62277E+08        -0.20053E+06         0.00000E+00
   -0.20053E+06        -0.65265E+08         0.00000E+00
    0.00000E+00         0.00000E+00        -0.78661E+08
 
   -0.64340E+08        -0.94696E+05         0.00000E+00
   -0.94696E+05        -0.65551E+08         0.00000E+00
    0.00000E+00         0.00000E+00        -0.79131E+08
 
   -0.66471E+08         0.18296E+05         0.00000E+00
    0.18296E+05        -0.65621E+08         0.00000E+00
    0.00000E+00         0.00000E+00        -0.79571E+08
 
   -0.68777E+08         0.14790E+06         0.00000E+00
    0.14790E+06        -0.65451E+08         0.00000E+00
    0.00000E+00         0.00000E+00        -0.79998E+08
 
   -0.71405E+08         0.31131E+06         0.00000E+00
    0.31131E+06        -0.64990E+08         0.00000E+00
    0.00000E+00         0.00000E+00        -0.80431E+08
 
   -0.74609E+08         0.54563E+06         0.00000E+00
    0.54563E+06        -0.64132E+08         0.00000E+00
    0.00000E+00         0.00000E+00        -0.80900E+08
 
   -0.79114E+08         0.10913E+07         0.00000E+00
    0.10913E+07        -0.62575E+08         0.00000E+00
    0.00000E+00         0.00000E+00        -0.81490E+08
 
   -0.44206E+08         0.17946E+06         0.00000E+00
    0.17946E+06        -0.60645E+08         0.00000E+00
    0.00000E+00         0.00000E+00        -0.66880E+08
 
   -0.45373E+08        -0.23864E+06         0.00000E+00
   -0.23864E+06        -0.60609E+08         0.00000E+00
    0.00000E+00         0.00000E+00        -0.69213E+08
 
   -0.47064E+08        -0.77528E+06         0.00000E+00
   -0.77528E+06        -0.60616E+08         0.00000E+00
    0.00000E+00         0.00000E+00        -0.71896E+08
 
   -0.49410E+08        -0.11643E+07         0.00000E+00
   -0.11643E+07        -0.60868E+08         0.00000E+00
    0.00000E+00         0.00000E+00        -0.73515E+08
 
   -0.52308E+08        -0.15001E+07         0.00000E+00
   -0.15001E+07        -0.61420E+08         0.00000E+00
    0.00000E+00         0.00000E+00        -0.74205E+08
 
   -0.55196E+08        -0.14263E+07         0.00000E+00
   -0.14263E+07        -0.62027E+08         0.00000E+00
    0.00000E+00         0.00000E+00        -0.74904E+08
 
   -0.57745E+08        -0.11457E+07         0.00000E+00
   -0.11457E+07        -0.62652E+08         0.00000E+00
    0.00000E+00         0.00000E+00        -0.75538E+08
 
   -0.59983E+08        -0.85137E+06         0.00000E+00
   -0.85137E+06        -0.63186E+08         0.00000E+00
    0.00000E+00         0.00000E+00        -0.76092E+08
 
   -0.62075E+08        -0.55783E+06         0.00000E+00
   -0.55783E+06        -0.63575E+08         0.00000E+00
    0.00000E+00         0.00000E+00        -0.76588E+08
 
   -0.64127E+08        -0.25381E+06         0.00000E+00
   -0.25381E+06        -0.63791E+08         0.00000E+00
    0.00000E+00         0.00000E+00        -0.77042E+08
 
   -0.66234E+08         0.77827E+05         0.00000E+00
    0.77827E+05        -0.63812E+08         0.00000E+00
    0.00000E+00         0.00000E+00        -0.77467E+08
 
   -0.68492E+08         0.46308E+06         0.00000E+00
    0.46308E+06        -0.63603E+08         0.00000E+00
    0.00000E+00         0.00000E+00        -0.77877E+08
 
   -0.71022E+08         0.94995E+06         0.00000E+00
    0.94995E+06        -0.63112E+08         0.00000E+00
    0.00000E+00         0.00000E+00        -0.78285E+08
 
   -0.74008E+08         0.16553E+07         0.00000E+00
    0.16553E+07        -0.62247E+08         0.00000E+00
    0.00000E+00         0.00000E+00        -0.78709E+08
 
   -0.77489E+08         0.29622E+07         0.00000E+00
    0.29622E+07        -0.60880E+08         0.00000E+00
    0.00000E+00         0.00000E+00        -0.79132E+08
 
   -0.44270E+08        -0.11554E+06         0.00000E+00
   -0.11554E+06        -0.60310E+08         0.00000E+00
    0.00000E+00         0.00000E+00        -0.69347E+08
 
   -0.45761E+08        -0.41598E+06         0.00000E+00
   -0.41598E+06        -0.60463E+08         0.00000E+00
    0.00000E+00         0.00000E+00        -0.70977E+08
 
   -0.47728E+08        -0.97233E+06         0.00000E+00
   -0.97233E+06        -0.60632E+08         0.00000E+00
    0.00000E+00         0.00000E+00        -0.71441E+08
 
   -0.49880E+08        -0.15908E+07         0.00000E+00
   -0.15908E+07        -0.60873E+08         0.00000E+00
    0.00000E+00         0.00000E+00        -0.71919E+08
 
   -0.52440E+08        -0.18846E+07         0.00000E+00
   -0.18846E+07        -0.61145E+08         0.00000E+00
    0.00000E+00         0.00000E+00        -0.72486E+08
 
   -0.55013E+08        -0.18627E+07         0.00000E+00
   -0.18627E+07        -0.61416E+08         0.00000E+00
    0.00000E+00         0.00000E+00        -0.73054E+08
 
   -0.57426E+08        -0.16020E+07         0.00000E+00
   -0.16020E+07        -0.61726E+08         0.00000E+00
    0.00000E+00         0.00000E+00        -0.73598E+08
 
   -0.59633E+08        -0.12282E+07         0.00000E+00
   -0.12282E+07        -0.62033E+08         0.00000E+00
    0.00000E+00         0.00000E+00        -0.74101E+08
 
   -0.61702E+08        -0.80340E+06         0.00000E+00
   -0.80340E+06        -0.62265E+08         0.00000E+00
    0.00000E+00         0.00000E+00        -0.74561E+08
 
   -0.63721E+08        -0.33418E+06         0.00000E+00
   -0.33418E+06        -0.62370E+08         0.00000E+00
    0.00000E+00         0.00000E+00        -0.74985E+08
 
   -0.65771E+08         0.19531E+06         0.00000E+00
    0.19531E+06        -0.62311E+08         0.00000E+00
    0.00000E+00         0.00000E+00        -0.75383E+08
 
   -0.67930E+08         0.82007E+06         0.00000E+00
    0.82007E+06        -0.62048E+08         0.00000E+00
    0.00000E+00         0.00000E+00        -0.75762E+08
 
   -0.70280E+08         0.16079E+07         0.00000E+00
    0.16079E+07        -0.61535E+08         0.00000E+00
    0.00000E+00         0.00000E+00        -0.76130E+08
 
   -0.72864E+08         0.27007E+07         0.00000E+00
    0.27007E+07        -0.60723E+08         0.00000E+00
    0.00000E+00         0.00000E+00        -0.76484E+08
 
   -0.75595E+08         0.43196E+07         0.00000E+00
    0.43196E+07        -0.59651E+08         0.00000E+00
    0.00000E+00         0.00000E+00        -0.76816E+08
 
   -0.44505E+08        -0.21827E+06         0.00000E+00
   -0.21827E+06        -0.60068E+08         0.00000E+00
    0.00000E+00         0.00000E+00        -0.68999E+08
 
   -0.46385E+08        -0.74314E+06         0.00000E+00
   -0.74314E+06        -0.60218E+08         0.00000E+00
    0.00000E+00         0.00000E+00        -0.69405E+08
 
   -0.48286E+08        -0.12751E+07         0.00000E+00
   -0.12751E+07        -0.60509E+08         0.00000E+00
    0.00000E+00         0.00000E+00        -0.69843E+08
 
   -0.50334E+08        -0.17677E+07         0.00000E+00
   -0.17677E+07        -0.60719E+08         0.00000E+00
    0.00000E+00         0.00000E+00        -0.70294E+08
 
   -0.52573E+08        -0.20521E+07         0.00000E+00
   -0.20521E+07        -0.60836E+08         0.00000E+00
    0.00000E+00         0.00000E+00        -0.70765E+08
 
   -0.54874E+08        -0.20520E+07         0.00000E+00
   -0.20520E+07        -0.60944E+08         0.00000E+00
    0.00000E+00         0.00000E+00        -0.71246E+08
 
   -0.57099E+08        -0.18177E+07         0.00000E+00
   -0.18177E+07        -0.61065E+08         0.00000E+00
    0.00000E+00         0.00000E+00        -0.71715E+08
 
   -0.59202E+08        -0.14197E+07         0.00000E+00
   -0.14197E+07        -0.61186E+08         0.00000E+00
    0.00000E+00         0.00000E+00        -0.72159E+08
 
   -0.61201E+08        -0.91234E+06         0.00000E+00
   -0.91234E+06        -0.61265E+08         0.00000E+00
    0.00000E+00         0.00000E+00        -0.72575E+08
 
   -0.63150E+08        -0.31514E+06         0.00000E+00
   -0.31514E+06        -0.61254E+08         0.00000E+00
    0.00000E+00         0.00000E+00        -0.72962E+08
 
   -0.65105E+08         0.38161E+06         0.00000E+00
    0.38161E+06        -0.61113E+08         0.00000E+00
    0.00000E+00         0.00000E+00        -0.73325E+08
 
   -0.67122E+08         0.12126E+07         0.00000E+00
    0.12126E+07        -0.60804E+08         0.00000E+00
    0.00000E+00         0.00000E+00        -0.73666E+08
 
   -0.69234E+08         0.22445E+07         0.00000E+00
    0.22445E+07        -0.60297E+08         0.00000E+00
    0.00000E+00         0.00000E+00        -0.73987E+08
 
   -0.71429E+08         0.35810E+07         0.00000E+00
    0.35810E+07        -0.59590E+08         0.00000E+00
    0.00000E+00         0.00000E+00        -0.74284E+08
 
   -0.73607E+08         0.53426E+07         0.00000E+00
    0.53426E+07        -0.58735E+08         0.00000E+00
    0.00000E+00         0.00000E+00        -0.74549E+08
 
   -0.45065E+08        -0.33434E+06         0.00000E+00
   -0.33434E+06        -0.60041E+08         0.00000E+00
    0.00000E+00         0.00000E+00        -0.67427E+08
 
   -0.46948E+08        -0.94506E+06         0.00000E+00
   -0.94506E+06        -0.60182E+08         0.00000E+00
    0.00000E+00         0.00000E+00        -0.67832E+08
 
   -0.48786E+08        -0.14806E+07         0.00000E+00
   -0.14806E+07        -0.60337E+08         0.00000E+00
    0.00000E+00         0.00000E+00        -0.68230E+08
 
   -0.50698E+08        -0.18899E+07         0.00000E+00
   -0.18899E+07        -0.60459E+08         0.00000E+00
    0.00000E+00         0.00000E+00        -0.68636E+08
 
   -0.52702E+08        -0.21145E+07         0.00000E+00
   -0.21145E+07        -0.60522E+08         0.00000E+00
    0.00000E+00         0.00000E+00        -0.69049E+08
 
   -0.54751E+08        -0.21079E+07         0.00000E+00
   -0.21079E+07        -0.60543E+08         0.00000E+00
    0.00000E+00         0.00000E+00        -0.69463E+08
 
   -0.56773E+08        -0.18771E+07         0.00000E+00
   -0.18771E+07        -0.60551E+08         0.00000E+00
    0.00000E+00         0.00000E+00        -0.69869E+08
 
   -0.58726E+08        -0.14617E+07         0.00000E+00
   -0.14617E+07        -0.60547E+08         0.00000E+00
    0.00000E+00         0.00000E+00        -0.70258E+08
 
   -0.60609E+08        -0.89785E+06         0.00000E+00
   -0.89785E+06        -0.60508E+08         0.00000E+00
    0.00000E+00         0.00000E+00        -0.70627E+08
 
   -0.62447E+08        -0.20353E+06         0.00000E+00
   -0.20353E+06        -0.60402E+08         0.00000E+00
    0.00000E+00         0.00000E+00        -0.70972E+08
 
   -0.64272E+08         0.62614E+06         0.00000E+00
    0.62614E+06        -0.60195E+08         0.00000E+00
    0.00000E+00         0.00000E+00        -0.71296E+08
 
   -0.66114E+08         0.16190E+07         0.00000E+00
    0.16190E+07        -0.59860E+08         0.00000E+00
    0.00000E+00         0.00000E+00        -0.71597E+08
 
   -0.67979E+08         0.28249E+07         0.00000E+00
    0.28249E+07        -0.59383E+08         0.00000E+00
    0.00000E+00         0.00000E+00        -0.71874E+08
 
   -0.69834E+08         0.43101E+07         0.00000E+00
    0.43101E+07        -0.58775E+08         0.00000E+00
    0.00000E+00         0.00000E+00        -0.72124E+08
 
   -0.71594E+08         0.61382E+07         0.00000E+00
    0.61382E+07        -0.58087E+08         0.00000E+00
    0.00000E+00         0.00000E+00        -0.72338E+08
 
   -0.45773E+08        -0.40567E+06         0.00000E+00
   -0.40567E+06        -0.60022E+08         0.00000E+00
    0.00000E+00         0.00000E+00        -0.65895E+08
 
   -0.47530E+08        -0.10732E+07         0.00000E+00
   -0.10732E+07        -0.60094E+08         0.00000E+00
    0.00000E+00         0.00000E+00        -0.66261E+08
 
   -0.49247E+08        -0.15898E+07         0.00000E+00
   -0.15898E+07        -0.60179E+08         0.00000E+00
    0.00000E+00         0.00000E+00        -0.66621E+08
 
   -0.50995E+08        -0.19499E+07         0.00000E+00
   -0.19499E+07        -0.60232E+08         0.00000E+00
    0.00000E+00         0.00000E+00        -0.66981E+08
 
   -0.52793E+08        -0.21227E+07         0.00000E+00
   -0.21227E+07        -0.60240E+08         0.00000E+00
    0.00000E+00         0.00000E+00        -0.67341E+08
 
   -0.54619E+08        -0.20865E+07         0.00000E+00
   -0.20865E+07        -0.60208E+08         0.00000E+00
    0.00000E+00         0.00000E+00        -0.67700E+08
 
   -0.56436E+08        -0.18402E+07         0.00000E+00
   -0.18402E+07        -0.60149E+08         0.00000E+00
    0.00000E+00         0.00000E+00        -0.68051E+08
 
   -0.58216E+08        -0.14014E+07         0.00000E+00
   -0.14014E+07        -0.60066E+08         0.00000E+00
    0.00000E+00         0.00000E+00        -0.68390E+08
 
   -0.59949E+08        -0.79136E+06         0.00000E+00
   -0.79136E+06        -0.59948E+08         0.00000E+00
    0.00000E+00         0.00000E+00        -0.68713E+08
 
   -0.61642E+08        -0.22446E+05         0.00000E+00
   -0.22446E+05        -0.59776E+08         0.00000E+00
    0.00000E+00         0.00000E+00        -0.69017E+08
 
   -0.63309E+08         0.90796E+06         0.00000E+00
    0.90796E+06        -0.59528E+08         0.00000E+00
    0.00000E+00         0.00000E+00        -0.69300E+08
 
   -0.64961E+08         0.20185E+07         0.00000E+00
    0.20185E+07        -0.59186E+08         0.00000E+00
    0.00000E+00         0.00000E+00        -0.69562E+08
 
   -0.66587E+08         0.33414E+07         0.00000E+00
    0.33414E+07        -0.58748E+08         0.00000E+00
    0.00000E+00         0.00000E+00        -0.69799E+08
 
   -0.68152E+08         0.49147E+07         0.00000E+00
    0.49147E+07        -0.58229E+08         0.00000E+00
    0.00000E+00         0.00000E+00        -0.70008E+08
 
   -0.69587E+08         0.67687E+07         0.00000E+00
    0.67687E+07        -0.57669E+08         0.00000E+00
    0.00000E+00         0.00000E+00        -0.70183E+08
 
   -0.46561E+08        -0.43567E+06         0.00000E+00
   -0.43567E+06        -0.60007E+08         0.00000E+00
    0.00000E+00         0.00000E+00        -0.64390E+08
 
   -0.48122E+08        -0.11316E+07         0.00000E+00
   -0.11316E+07        -0.60030E+08         0.00000E+00
    0.00000E+00         0.00000E+00        -0.64707E+08
 
   -0.49673E+08        -0.16339E+07         0.00000E+00
   -0.16339E+07        -0.60054E+08         0.00000E+00
    0.00000E+00         0.00000E+00        -0.65022E+08
 
   -0.51243E+08        -0.19554E+07         0.00000E+00
   -0.19554E+07        -0.60054E+08         0.00000E+00
    0.00000E+00         0.00000E+00        -0.65336E+08
 
   -0.52843E+08        -0.20867E+07         0.00000E+00
   -0.20867E+07        -0.60018E+08         0.00000E+00
    0.00000E+00         0.00000E+00        -0.65648E+08
 
   -0.54462E+08        -0.20169E+07         0.00000E+00
   -0.20169E+07        -0.59947E+08         0.00000E+00
    0.00000E+00         0.00000E+00        -0.65957E+08
 
   -0.56078E+08        -0.17444E+07         0.00000E+00
   -0.17444E+07        -0.59846E+08         0.00000E+00
    0.00000E+00         0.00000E+00        -0.66260E+08
 
   -0.57672E+08        -0.12771E+07         0.00000E+00
   -0.12771E+07        -0.59715E+08         0.00000E+00
    0.00000E+00         0.00000E+00        -0.66552E+08
 
   -0.59233E+08        -0.62618E+06         0.00000E+00
   -0.62618E+06        -0.59551E+08         0.00000E+00
    0.00000E+00         0.00000E+00        -0.66831E+08
 
   -0.60760E+08         0.20089E+06         0.00000E+00
    0.20089E+06        -0.59342E+08         0.00000E+00
    0.00000E+00         0.00000E+00        -0.67094E+08
 
   -0.62252E+08         0.12052E+07         0.00000E+00
    0.12052E+07        -0.59076E+08         0.00000E+00
    0.00000E+00         0.00000E+00        -0.67339E+08
 
   -0.63707E+08         0.23974E+07         0.00000E+00
    0.23974E+07        -0.58744E+08         0.00000E+00
    0.00000E+00         0.00000E+00        -0.67563E+08
 
   -0.65110E+08         0.37954E+07         0.00000E+00
    0.37954E+07        -0.58350E+08         0.00000E+00
    0.00000E+00         0.00000E+00        -0.67765E+08
 
   -0.66426E+08         0.54177E+07         0.00000E+00
    0.54177E+07        -0.57907E+08         0.00000E+00
    0.00000E+00         0.00000E+00        -0.67939E+08
 
   -0.67602E+08         0.72747E+07         0.00000E+00
    0.72747E+07        -0.57449E+08         0.00000E+00
    0.00000E+00         0.00000E+00        -0.68083E+08
 
   -0.47377E+08        -0.43943E+06         0.00000E+00
   -0.43943E+06        -0.59998E+08         0.00000E+00
    0.00000E+00         0.00000E+00        -0.62903E+08
 
   -0.48715E+08        -0.11386E+07         0.00000E+00
   -0.11386E+07        -0.59989E+08         0.00000E+00
    0.00000E+00         0.00000E+00        -0.63169E+08
 
   -0.50074E+08        -0.16264E+07         0.00000E+00
   -0.16264E+07        -0.59970E+08         0.00000E+00
    0.00000E+00         0.00000E+00        -0.63437E+08
 
   -0.51455E+08        -0.19188E+07         0.00000E+00
   -0.19188E+07        -0.59930E+08         0.00000E+00
    0.00000E+00         0.00000E+00        -0.63705E+08
 
   -0.52858E+08        -0.20163E+07         0.00000E+00
   -0.20163E+07        -0.59861E+08         0.00000E+00
    0.00000E+00         0.00000E+00        -0.63972E+08
 
   -0.54276E+08        -0.19150E+07         0.00000E+00
   -0.19150E+07        -0.59763E+08         0.00000E+00
    0.00000E+00         0.00000E+00        -0.64235E+08
 
   -0.55693E+08        -0.16140E+07         0.00000E+00
   -0.16140E+07        -0.59636E+08         0.00000E+00
    0.00000E+00         0.00000E+00        -0.64493E+08
 
   -0.57096E+08        -0.11170E+07         0.00000E+00
   -0.11170E+07        -0.59480E+08         0.00000E+00
    0.00000E+00         0.00000E+00        -0.64742E+08
 
   -0.58474E+08        -0.43013E+06         0.00000E+00
   -0.43013E+06        -0.59294E+08         0.00000E+00
    0.00000E+00         0.00000E+00        -0.64980E+08
 
   -0.59819E+08         0.44219E+06         0.00000E+00
    0.44219E+06        -0.59071E+08         0.00000E+00
    0.00000E+00         0.00000E+00        -0.65204E+08
 
   -0.61127E+08         0.14995E+07         0.00000E+00
    0.14995E+07        -0.58806E+08         0.00000E+00
    0.00000E+00         0.00000E+00        -0.65412E+08
 
   -0.62388E+08         0.27464E+07         0.00000E+00
    0.27464E+07        -0.58497E+08         0.00000E+00
    0.00000E+00         0.00000E+00        -0.65602E+08
 
   -0.63583E+08         0.41900E+07         0.00000E+00
    0.41900E+07        -0.58147E+08         0.00000E+00
    0.00000E+00         0.00000E+00        -0.65771E+08
 
   -0.64682E+08         0.58363E+07         0.00000E+00
    0.58363E+07        -0.57773E+08         0.00000E+00
    0.00000E+00         0.00000E+00        -0.65916E+08
 
   -0.65644E+08         0.76833E+07         0.00000E+00
    0.76833E+07        -0.57397E+08         0.00000E+00
    0.00000E+00         0.00000E+00        -0.66033E+08
 
   -0.48186E+08        -0.42818E+06         0.00000E+00
   -0.42818E+06        -0.59993E+08         0.00000E+00
    0.00000E+00         0.00000E+00        -0.61428E+08
 
   -0.49298E+08        -0.11124E+07         0.00000E+00
   -0.11124E+07        -0.59966E+08         0.00000E+00
    0.00000E+00         0.00000E+00        -0.61645E+08
 
   -0.50453E+08        -0.15830E+07         0.00000E+00
   -0.15830E+07        -0.59920E+08         0.00000E+00
    0.00000E+00         0.00000E+00        -0.61867E+08
 
   -0.51637E+08        -0.18519E+07         0.00000E+00
   -0.18519E+07        -0.59854E+08         0.00000E+00
    0.00000E+00         0.00000E+00        -0.62090E+08
 
   -0.52843E+08        -0.19223E+07         0.00000E+00
   -0.19223E+07        -0.59764E+08         0.00000E+00
    0.00000E+00         0.00000E+00        -0.62313E+08
 
   -0.54061E+08        -0.17937E+07         0.00000E+00
   -0.17937E+07        -0.59650E+08         0.00000E+00
    0.00000E+00         0.00000E+00        -0.62533E+08
 
   -0.55280E+08        -0.14662E+07         0.00000E+00
   -0.14662E+07        -0.59511E+08         0.00000E+00
    0.00000E+00         0.00000E+00        -0.62749E+08
 
   -0.56489E+08        -0.94191E+06         0.00000E+00
   -0.94191E+06        -0.59348E+08         0.00000E+00
    0.00000E+00         0.00000E+00        -0.62958E+08
 
   -0.57677E+08        -0.22454E+06         0.00000E+00
   -0.22454E+06        -0.59157E+08         0.00000E+00
    0.00000E+00         0.00000E+00        -0.63157E+08
 
   -0.58836E+08         0.68242E+06         0.00000E+00
    0.68242E+06        -0.58938E+08         0.00000E+00
    0.00000E+00         0.00000E+00        -0.63345E+08
 
   -0.59957E+08         0.17770E+07         0.00000E+00
    0.17770E+07        -0.58689E+08         0.00000E+00
    0.00000E+00         0.00000E+00        -0.63518E+08
 
   -0.61027E+08         0.30591E+07         0.00000E+00
    0.30591E+07        -0.58409E+08         0.00000E+00
    0.00000E+00         0.00000E+00        -0.63676E+08
 
   -0.62029E+08         0.45286E+07         0.00000E+00
    0.45286E+07        -0.58107E+08         0.00000E+00
    0.00000E+00         0.00000E+00        -0.63816E+08
 
   -0.62936E+08         0.61830E+07         0.00000E+00
    0.61830E+07        -0.57793E+08         0.00000E+00
    0.00000E+00         0.00000E+00        -0.63935E+08
 
   -0.63717E+08         0.80130E+07         0.00000E+00
    0.80130E+07        -0.57488E+08         0.00000E+00
    0.00000E+00         0.00000E+00        -0.64029E+08
 
   -0.48968E+08        -0.40940E+06         0.00000E+00
   -0.40940E+06        -0.59991E+08         0.00000E+00
    0.00000E+00         0.00000E+00        -0.59960E+08
 
   -0.49863E+08        -0.10681E+07         0.00000E+00
   -0.10681E+07        -0.59956E+08         0.00000E+00
    0.00000E+00         0.00000E+00        -0.60132E+08
 
   -0.50812E+08        -0.15189E+07         0.00000E+00
   -0.15189E+07        -0.59896E+08         0.00000E+00
    0.00000E+00         0.00000E+00        -0.60310E+08
 
   -0.51796E+08        -0.17675E+07         0.00000E+00
   -0.17675E+07        -0.59818E+08         0.00000E+00
    0.00000E+00         0.00000E+00        -0.60491E+08
 
   -0.52802E+08        -0.18161E+07         0.00000E+00
   -0.18161E+07        -0.59719E+08         0.00000E+00
    0.00000E+00         0.00000E+00        -0.60672E+08
 
   -0.53821E+08        -0.16650E+07         0.00000E+00
   -0.16650E+07        -0.59601E+08         0.00000E+00
    0.00000E+00         0.00000E+00        -0.60852E+08
 
   -0.54842E+08        -0.13148E+07         0.00000E+00
   -0.13148E+07        -0.59463E+08         0.00000E+00
    0.00000E+00         0.00000E+00        -0.61028E+08
 
   -0.55855E+08        -0.76726E+06         0.00000E+00
   -0.76726E+06        -0.59303E+08         0.00000E+00
    0.00000E+00         0.00000E+00        -0.61198E+08
 
   -0.56852E+08        -0.25303E+05         0.00000E+00
   -0.25303E+05        -0.59123E+08         0.00000E+00
    0.00000E+00         0.00000E+00        -0.61361E+08
 
   -0.57822E+08         0.90749E+06         0.00000E+00
    0.90749E+06        -0.58920E+08         0.00000E+00
    0.00000E+00         0.00000E+00        -0.61514E+08
 
   -0.58756E+08         0.20276E+07         0.00000E+00
    0.20276E+07        -0.58696E+08         0.00000E+00
    0.00000E+00         0.00000E+00        -0.61656E+08
 
   -0.59642E+08         0.33312E+07         0.00000E+00
    0.33312E+07        -0.58454E+08         0.00000E+00
    0.00000E+00         0.00000E+00        -0.61784E+08
 
   -0.60463E+08         0.48136E+07         0.00000E+00
    0.48136E+07        -0.58198E+08         0.00000E+00
    0.00000E+00         0.00000E+00        -0.61897E+08
 
   -0.61197E+08         0.64666E+07         0.00000E+00
    0.64666E+07        -0.57941E+08         0.00000E+00
    0.00000E+00         0.00000E+00        -0.61992E+08
 
   -0.61820E+08         0.82767E+07         0.00000E+00
    0.82767E+07        -0.57696E+08         0.00000E+00
    0.00000E+00         0.00000E+00        -0.62068E+08
 
   -0.49715E+08        -0.38813E+06         0.00000E+00
   -0.38813E+06        -0.59990E+08         0.00000E+00
    0.00000E+00         0.00000E+00        -0.58498E+08
 
   -0.50404E+08        -0.10172E+07         0.00000E+00
   -0.10172E+07        -0.59954E+08         0.00000E+00
    0.00000E+00         0.00000E+00        -0.58628E+08
 
   -0.51151E+08        -0.14474E+07         0.00000E+00
   -0.14474E+07        -0.59893E+08         0.00000E+00
    0.00000E+00         0.00000E+00        -0.58765E+08
 
   -0.51935E+08        -0.16781E+07         0.00000E+00
   -0.16781E+07        -0.59813E+08         0.00000E+00
    0.00000E+00         0.00000E+00        -0.58906E+08
 
   -0.52742E+08        -0.17090E+07         0.00000E+00
   -0.17090E+07        -0.59717E+08         0.00000E+00
    0.00000E+00         0.00000E+00        -0.59048E+08
 
   -0.53561E+08        -0.15399E+07         0.00000E+00
   -0.15399E+07        -0.59606E+08         0.00000E+00
    0.00000E+00         0.00000E+00        -0.59189E+08
 
   -0.54383E+08        -0.11714E+07         0.00000E+00
   -0.11714E+07        -0.59478E+08         0.00000E+00
    0.00000E+00         0.00000E+00        -0.59327E+08
 
   -0.55200E+08        -0.60514E+06         0.00000E+00
   -0.60514E+06        -0.59334E+08         0.00000E+00
    0.00000E+00         0.00000E+00        -0.59462E+08
 
   -0.56004E+08         0.15576E+06         0.00000E+00
    0.15576E+06        -0.59174E+08         0.00000E+00
    0.00000E+00         0.00000E+00        -0.59590E+08
 
   -0.56786E+08         0.11072E+07         0.00000E+00
    0.11072E+07        -0.58997E+08         0.00000E+00
    0.00000E+00         0.00000E+00        -0.59711E+08
 
   -0.57536E+08         0.22441E+07         0.00000E+00
    0.22441E+07        -0.58806E+08         0.00000E+00
    0.00000E+00         0.00000E+00        -0.59822E+08
 
   -0.58244E+08         0.35602E+07         0.00000E+00
    0.35602E+07        -0.58604E+08         0.00000E+00
    0.00000E+00         0.00000E+00        -0.59923E+08
 
   -0.58894E+08         0.50472E+07         0.00000E+00
    0.50472E+07        -0.58396E+08         0.00000E+00
    0.00000E+00         0.00000E+00        -0.60011E+08
 
   -0.59470E+08         0.66936E+07         0.00000E+00
    0.66936E+07        -0.58191E+08         0.00000E+00
    0.00000E+00         0.00000E+00        -0.60085E+08
 
   -0.59953E+08         0.84832E+07         0.00000E+00
    0.84832E+07        -0.58000E+08         0.00000E+00
    0.00000E+00         0.00000E+00        -0.60144E+08
 
   -0.50425E+08        -0.36786E+06         0.00000E+00
   -0.36786E+06        -0.59991E+08         0.00000E+00
    0.00000E+00         0.00000E+00        -0.57040E+08
 
   -0.50922E+08        -0.96817E+06         0.00000E+00
   -0.96817E+06        -0.59959E+08         0.00000E+00
    0.00000E+00         0.00000E+00        -0.57133E+08
 
   -0.51473E+08        -0.13789E+07         0.00000E+00
   -0.13789E+07        -0.59904E+08         0.00000E+00
    0.00000E+00         0.00000E+00        -0.57232E+08
 
   -0.52059E+08        -0.15943E+07         0.00000E+00
   -0.15943E+07        -0.59833E+08         0.00000E+00
    0.00000E+00         0.00000E+00        -0.57334E+08
 
   -0.52666E+08        -0.16112E+07         0.00000E+00
   -0.16112E+07        -0.59750E+08         0.00000E+00
    0.00000E+00         0.00000E+00        -0.57439E+08
 
   -0.53285E+08        -0.14282E+07         0.00000E+00
   -0.14282E+07        -0.59654E+08         0.00000E+00
    0.00000E+00         0.00000E+00        -0.57543E+08
 
   -0.53908E+08        -0.10455E+07         0.00000E+00
   -0.10455E+07        -0.59546E+08         0.00000E+00
    0.00000E+00         0.00000E+00        -0.57646E+08
 
   -0.54529E+08        -0.46497E+06         0.00000E+00
   -0.46497E+06        -0.59426E+08         0.00000E+00
    0.00000E+00         0.00000E+00        -0.57746E+08
 
   -0.55140E+08         0.30992E+06         0.00000E+00
    0.30992E+06        -0.59293E+08         0.00000E+00
    0.00000E+00         0.00000E+00        -0.57841E+08
 
   -0.55735E+08         0.12743E+07         0.00000E+00
    0.12743E+07        -0.59150E+08         0.00000E+00
    0.00000E+00         0.00000E+00        -0.57931E+08
 
   -0.56304E+08         0.24218E+07         0.00000E+00
    0.24218E+07        -0.58997E+08         0.00000E+00
    0.00000E+00         0.00000E+00        -0.58014E+08
 
   -0.56839E+08         0.37443E+07         0.00000E+00
    0.37443E+07        -0.58837E+08         0.00000E+00
    0.00000E+00         0.00000E+00        -0.58089E+08
 
   -0.57327E+08         0.52311E+07         0.00000E+00
    0.52311E+07        -0.58677E+08         0.00000E+00
    0.00000E+00         0.00000E+00        -0.58154E+08
 
   -0.57757E+08         0.68686E+07         0.00000E+00
    0.68686E+07        -0.58522E+08         0.00000E+00
    0.00000E+00         0.00000E+00        -0.58209E+08
 
   -0.58112E+08         0.86389E+07         0.00000E+00
    0.86389E+07        -0.58380E+08         0.00000E+00
    0.00000E+00         0.00000E+00        -0.58251E+08
 
   -0.51101E+08        -0.35100E+06         0.00000E+00
   -0.35100E+06        -0.59993E+08         0.00000E+00
    0.00000E+00         0.00000E+00        -0.55586E+08
 
   -0.51419E+08        -0.92716E+06         0.00000E+00
   -0.92716E+06        -0.59968E+08         0.00000E+00
    0.00000E+00         0.00000E+00        -0.55644E+08
 
   -0.51780E+08        -0.13219E+07         0.00000E+00
   -0.13219E+07        -0.59926E+08         0.00000E+00
    0.00000E+00         0.00000E+00        -0.55708E+08
 
   -0.52170E+08        -0.15252E+07         0.00000E+00
   -0.15252E+07        -0.59872E+08         0.00000E+00
    0.00000E+00         0.00000E+00        -0.55775E+08
 
   -0.52578E+08        -0.15314E+07         0.00000E+00
   -0.15314E+07        -0.59808E+08         0.00000E+00
    0.00000E+00         0.00000E+00        -0.55843E+08
 
   -0.52997E+08        -0.13380E+07         0.00000E+00
   -0.13380E+07        -0.59736E+08         0.00000E+00
    0.00000E+00         0.00000E+00        -0.55912E+08
 
   -0.53421E+08        -0.94483E+06         0.00000E+00
   -0.94483E+06        -0.59654E+08         0.00000E+00
    0.00000E+00         0.00000E+00        -0.55981E+08
 
   -0.53846E+08        -0.35396E+06         0.00000E+00
   -0.35396E+06        -0.59564E+08         0.00000E+00
    0.00000E+00         0.00000E+00        -0.56047E+08
 
   -0.54265E+08         0.43079E+06         0.00000E+00
    0.43079E+06        -0.59466E+08         0.00000E+00
    0.00000E+00         0.00000E+00        -0.56111E+08
 
   -0.54674E+08         0.14038E+07         0.00000E+00
    0.14038E+07        -0.59360E+08         0.00000E+00
    0.00000E+00         0.00000E+00        -0.56171E+08
 
   -0.55066E+08         0.25575E+07         0.00000E+00
    0.25575E+07        -0.59248E+08         0.00000E+00
    0.00000E+00         0.00000E+00        -0.56227E+08
 
   -0.55433E+08         0.38825E+07         0.00000E+00
    0.38825E+07        -0.59134E+08         0.00000E+00
    0.00000E+00         0.00000E+00        -0.56277E+08
 
   -0.55766E+08         0.53666E+07         0.00000E+00
    0.53666E+07        -0.59020E+08         0.00000E+00
    0.00000E+00         0.00000E+00        -0.56321E+08
 
   -0.56057E+08         0.69948E+07         0.00000E+00
    0.69948E+07        -0.58912E+08         0.00000E+00
    0.00000E+00         0.00000E+00        -0.56357E+08
 
   -0.56294E+08         0.87485E+07         0.00000E+00
    0.87485E+07        -0.58817E+08         0.00000E+00
    0.00000E+00         0.00000E+00        -0.56386E+08
 
   -0.51752E+08        -0.33925E+06         0.00000E+00
   -0.33925E+06        -0.59996E+08         0.00000E+00
    0.00000E+00         0.00000E+00        -0.54137E+08
 
   -0.51899E+08        -0.89861E+06         0.00000E+00
   -0.89861E+06        -0.59981E+08         0.00000E+00
    0.00000E+00         0.00000E+00        -0.54163E+08
 
   -0.52075E+08        -0.12823E+07         0.00000E+00
   -0.12823E+07        -0.59956E+08         0.00000E+00
    0.00000E+00         0.00000E+00        -0.54193E+08
 
   -0.52271E+08        -0.14773E+07         0.00000E+00
   -0.14773E+07        -0.59923E+08         0.00000E+00
    0.00000E+00         0.00000E+00        -0.54226E+08
 
   -0.52481E+08        -0.14763E+07         0.00000E+00
   -0.14763E+07        -0.59885E+08         0.00000E+00
    0.00000E+00         0.00000E+00        -0.54260E+08
 
   -0.52700E+08        -0.12757E+07         0.00000E+00
   -0.12757E+07        -0.59842E+08         0.00000E+00
    0.00000E+00         0.00000E+00        -0.54294E+08
 
   -0.52925E+08        -0.87530E+06         0.00000E+00
   -0.87530E+06        -0.59792E+08         0.00000E+00
    0.00000E+00         0.00000E+00        -0.54329E+08
 
   -0.53154E+08        -0.27729E+06         0.00000E+00
   -0.27729E+06        -0.59737E+08         0.00000E+00
    0.00000E+00         0.00000E+00        -0.54363E+08
 
   -0.53383E+08         0.51398E+06         0.00000E+00
    0.51398E+06        -0.59676E+08         0.00000E+00
    0.00000E+00         0.00000E+00        -0.54397E+08
 
   -0.53607E+08         0.14922E+07         0.00000E+00
    0.14922E+07        -0.59611E+08         0.00000E+00
    0.00000E+00         0.00000E+00        -0.54428E+08
 
   -0.53824E+08         0.26492E+07         0.00000E+00
    0.26492E+07        -0.59543E+08         0.00000E+00
    0.00000E+00         0.00000E+00        -0.54458E+08
 
   -0.54027E+08         0.39744E+07         0.00000E+00
    0.39744E+07        -0.59473E+08         0.00000E+00
    0.00000E+00         0.00000E+00        -0.54484E+08
 
   -0.54211E+08         0.54549E+07         0.00000E+00
    0.54549E+07        -0.59406E+08         0.00000E+00
    0.00000E+00         0.00000E+00        -0.54507E+08
 
   -0.54369E+08         0.70749E+07         0.00000E+00
    0.70749E+07        -0.59345E+08         0.00000E+00
    0.00000E+00         0.00000E+00        -0.54526E+08
 
   -0.54494E+08         0.88151E+07         0.00000E+00
    0.88151E+07        -0.59293E+08         0.00000E+00
    0.00000E+00         0.00000E+00        -0.54541E+08
 
   -0.52387E+08        -0.33374E+06         0.00000E+00
   -0.33374E+06        -0.59999E+08         0.00000E+00
    0.00000E+00         0.00000E+00        -0.52693E+08
 
   -0.52370E+08        -0.88556E+06         0.00000E+00
   -0.88556E+06        -0.59996E+08         0.00000E+00
    0.00000E+00         0.00000E+00        -0.52689E+08
 
   -0.52364E+08        -0.12644E+07         0.00000E+00
   -0.12644E+07        -0.59990E+08         0.00000E+00
    0.00000E+00         0.00000E+00        -0.52686E+08
 
   -0.52367E+08        -0.14556E+07         0.00000E+00
   -0.14556E+07        -0.59984E+08         0.00000E+00
    0.00000E+00         0.00000E+00        -0.52685E+08
 
   -0.52378E+08        -0.14506E+07         0.00000E+00
   -0.14506E+07        -0.59975E+08         0.00000E+00
    0.00000E+00         0.00000E+00        -0.52685E+08
 
   -0.52397E+08        -0.12457E+07         0.00000E+00
   -0.12457E+07        -0.59964E+08         0.00000E+00
    0.00000E+00         0.00000E+00        -0.52687E+08
 
   -0.52423E+08        -0.84076E+06         0.00000E+00
   -0.84076E+06        -0.59949E+08         0.00000E+00
    0.00000E+00         0.00000E+00        -0.52689E+08
 
   -0.52456E+08        -0.23827E+06         0.00000E+00
   -0.23827E+06        -0.59931E+08         0.00000E+00
    0.00000E+00         0.00000E+00        -0.52691E+08
 
   -0.52495E+08         0.55689E+06         0.00000E+00
    0.55689E+06        -0.59910E+08         0.00000E+00
    0.00000E+00         0.00000E+00        -0.52695E+08
 
   -0.52538E+08         0.15379E+07         0.00000E+00
    0.15379E+07        -0.59887E+08         0.00000E+00
    0.00000E+00         0.00000E+00        -0.52698E+08
 
   -0.52581E+08         0.26960E+07         0.00000E+00
    0.26960E+07        -0.59863E+08         0.00000E+00
    0.00000E+00         0.00000E+00        -0.52702E+08
 
   -0.52624E+08         0.40201E+07         0.00000E+00
    0.40201E+07        -0.59839E+08         0.00000E+00
    0.00000E+00         0.00000E+00        -0.52705E+08
 
   -0.52661E+08         0.54970E+07         0.00000E+00
    0.54970E+07        -0.59818E+08         0.00000E+00
    0.00000E+00         0.00000E+00        -0.52708E+08
 
   -0.52690E+08         0.71103E+07         0.00000E+00
    0.71103E+07        -0.59802E+08         0.00000E+00
    0.00000E+00         0.00000E+00        -0.52711E+08
 
   -0.52707E+08         0.88408E+07         0.00000E+00
    0.88408E+07        -0.59792E+08         0.00000E+00
    0.00000E+00         0.00000E+00        -0.52712E+08
 
   -0.53018E+08        -0.33516E+06         0.00000E+00
   -0.33516E+06        -0.60002E+08         0.00000E+00
    0.00000E+00         0.00000E+00        -0.51255E+08
 
   -0.52838E+08        -0.88985E+06         0.00000E+00
   -0.88985E+06        -0.60011E+08         0.00000E+00
    0.00000E+00         0.00000E+00        -0.51221E+08
 
   -0.52651E+08        -0.12708E+07         0.00000E+00
   -0.12708E+07        -0.60028E+08         0.00000E+00
    0.00000E+00         0.00000E+00        -0.51187E+08
 
   -0.52461E+08        -0.14627E+07         0.00000E+00
   -0.14627E+07        -0.60048E+08         0.00000E+00
    0.00000E+00         0.00000E+00        -0.51152E+08
 
   -0.52272E+08        -0.14570E+07         0.00000E+00
   -0.14570E+07        -0.60071E+08         0.00000E+00
    0.00000E+00         0.00000E+00        -0.51119E+08
 
   -0.52090E+08        -0.12504E+07         0.00000E+00
   -0.12504E+07        -0.60093E+08         0.00000E+00
    0.00000E+00         0.00000E+00        -0.51087E+08
 
   -0.51918E+08        -0.84302E+06         0.00000E+00
   -0.84302E+06        -0.60114E+08         0.00000E+00
    0.00000E+00         0.00000E+00        -0.51056E+08
 
   -0.51756E+08        -0.23824E+06         0.00000E+00
   -0.23824E+06        -0.60134E+08         0.00000E+00
    0.00000E+00         0.00000E+00        -0.51027E+08
 
   -0.51605E+08         0.55860E+06         0.00000E+00
    0.55860E+06        -0.60154E+08         0.00000E+00
    0.00000E+00         0.00000E+00        -0.51001E+08
 
   -0.51467E+08         0.15403E+07         0.00000E+00
    0.15403E+07        -0.60172E+08         0.00000E+00
    0.00000E+00         0.00000E+00        -0.50977E+08
 
   -0.51339E+08         0.26978E+07         0.00000E+00
    0.26978E+07        -0.60192E+08         0.00000E+00
    0.00000E+00         0.00000E+00        -0.50955E+08
 
   -0.51222E+08         0.40200E+07         0.00000E+00
    0.40200E+07        -0.60214E+08         0.00000E+00
    0.00000E+00         0.00000E+00        -0.50935E+08
 
   -0.51116E+08         0.54936E+07         0.00000E+00
    0.54936E+07        -0.60238E+08         0.00000E+00
    0.00000E+00         0.00000E+00        -0.50919E+08
 
   -0.51018E+08         0.71024E+07         0.00000E+00
    0.71024E+07        -0.60266E+08         0.00000E+00
    0.00000E+00         0.00000E+00        -0.50905E+08
 
   -0.50930E+08         0.88270E+07         0.00000E+00
    0.88270E+07        -0.60297E+08         0.00000E+00
    0.00000E+00         0.00000E+00        -0.50893E+08
 
   -0.53659E+08        -0.34384E+06         0.00000E+00
   -0.34384E+06        -0.60005E+08         0.00000E+00
    0.00000E+00         0.00000E+00        -0.49825E+08
 
   -0.53314E+08        -0.91228E+06         0.00000E+00
   -0.91228E+06        -0.60028E+08         0.00000E+00
    0.00000E+00         0.00000E+00        -0.49760E+08
 
   -0.52942E+08        -0.13024E+07         0.00000E+00
   -0.13024E+07        -0.60066E+08         0.00000E+00
    0.00000E+00         0.00000E+00        -0.49693E+08
 
   -0.52556E+08        -0.14995E+07         0.00000E+00
   -0.14995E+07        -0.60113E+08         0.00000E+00
    0.00000E+00         0.00000E+00        -0.49625E+08
 
   -0.52167E+08        -0.14961E+07         0.00000E+00
   -0.14961E+07        -0.60167E+08         0.00000E+00
    0.00000E+00         0.00000E+00        -0.49558E+08
 
   -0.51783E+08        -0.12897E+07         0.00000E+00
   -0.12897E+07        -0.60222E+08         0.00000E+00
    0.00000E+00         0.00000E+00        -0.49492E+08
 
   -0.51411E+08        -0.88179E+06         0.00000E+00
   -0.88179E+06        -0.60278E+08         0.00000E+00
    0.00000E+00         0.00000E+00        -0.49428E+08
 
   -0.51054E+08        -0.27661E+06         0.00000E+00
   -0.27661E+06        -0.60335E+08         0.00000E+00
    0.00000E+00         0.00000E+00        -0.49368E+08
 
   -0.50715E+08         0.51989E+06         0.00000E+00
    0.51989E+06        -0.60392E+08         0.00000E+00
    0.00000E+00         0.00000E+00        -0.49311E+08
 
   -0.50397E+08         0.15002E+07         0.00000E+00
    0.15002E+07        -0.60451E+08         0.00000E+00
    0.00000E+00         0.00000E+00        -0.49259E+08
 
   -0.50099E+08         0.26554E+07         0.00000E+00
    0.26554E+07        -0.60514E+08         0.00000E+00
    0.00000E+00         0.00000E+00        -0.49212E+08
 
   -0.49824E+08         0.39748E+07         0.00000E+00
    0.39748E+07        -0.60579E+08         0.00000E+00
    0.00000E+00         0.00000E+00        -0.49170E+08
 
   -0.49574E+08         0.54454E+07         0.00000E+00
    0.54454E+07        -0.60648E+08         0.00000E+00
    0.00000E+00         0.00000E+00        -0.49133E+08
 
   -0.49350E+08         0.70516E+07         0.00000E+00
    0.70516E+07        -0.60720E+08         0.00000E+00
    0.00000E+00         0.00000E+00        -0.49103E+08
 
   -0.49156E+08         0.87744E+07         0.00000E+00
    0.87744E+07        -0.60792E+08         0.00000E+00
    0.00000E+00         0.00000E+00        -0.49078E+08
 
   -0.54323E+08        -0.35978E+06         0.00000E+00
   -0.35978E+06        -0.60009E+08         0.00000E+00
    0.00000E+00         0.00000E+00        -0.48403E+08
 
   -0.53805E+08        -0.95274E+06         0.00000E+00
   -0.95274E+06        -0.60043E+08         0.00000E+00
    0.00000E+00         0.00000E+00        -0.48306E+08
 
   -0.53243E+08        -0.13588E+07         0.00000E+00
   -0.13588E+07        -0.60102E+08         0.00000E+00
    0.00000E+00         0.00000E+00        -0.48205E+08
 
   -0.52657E+08        -0.15651E+07         0.00000E+00
   -0.15651E+07        -0.60176E+08         0.00000E+00
    0.00000E+00         0.00000E+00        -0.48103E+08
 
   -0.52063E+08        -0.15661E+07         0.00000E+00
   -0.15661E+07        -0.60258E+08         0.00000E+00
    0.00000E+00         0.00000E+00        -0.48000E+08
 
   -0.51476E+08        -0.13615E+07         0.00000E+00
   -0.13615E+07        -0.60343E+08         0.00000E+00
    0.00000E+00         0.00000E+00        -0.47899E+08
 
   -0.50904E+08        -0.95453E+06         0.00000E+00
   -0.95453E+06        -0.60430E+08         0.00000E+00
    0.00000E+00         0.00000E+00        -0.47802E+08
 
   -0.50353E+08        -0.35069E+06         0.00000E+00
   -0.35069E+06        -0.60520E+08         0.00000E+00
    0.00000E+00         0.00000E+00        -0.47709E+08
 
   -0.49827E+08         0.44332E+06         0.00000E+00
    0.44332E+06        -0.60612E+08         0.00000E+00
    0.00000E+00         0.00000E+00        -0.47622E+08
 
   -0.49330E+08         0.14199E+07         0.00000E+00
    0.14199E+07        -0.60708E+08         0.00000E+00
    0.00000E+00         0.00000E+00        -0.47542E+08
 
   -0.48863E+08         0.25706E+07         0.00000E+00
    0.25706E+07        -0.60810E+08         0.00000E+00
    0.00000E+00         0.00000E+00        -0.47468E+08
 
   -0.48429E+08         0.38855E+07         0.00000E+00
    0.38855E+07        -0.60918E+08         0.00000E+00
    0.00000E+00         0.00000E+00        -0.47403E+08
 
   -0.48034E+08         0.53529E+07         0.00000E+00
    0.53529E+07        -0.61031E+08         0.00000E+00
    0.00000E+00         0.00000E+00        -0.47346E+08
 
   -0.47683E+08         0.69580E+07         0.00000E+00
    0.69580E+07        -0.61146E+08         0.00000E+00
    0.00000E+00         0.00000E+00        -0.47299E+08
 
   -0.47382E+08         0.86825E+07         0.00000E+00
    0.86825E+07        -0.61260E+08         0.00000E+00
    0.00000E+00         0.00000E+00        -0.47262E+08
 
   -0.55023E+08        -0.38269E+06         0.00000E+00
   -0.38269E+06        -0.60012E+08         0.00000E+00
    0.00000E+00         0.00000E+00        -0.46990E+08
 
   -0.54321E+08        -0.10102E+07         0.00000E+00
   -0.10102E+07        -0.60058E+08         0.00000E+00
    0.00000E+00         0.00000E+00        -0.46859E+08
 
   -0.53559E+08        -0.14380E+07         0.00000E+00
   -0.14380E+07        -0.60136E+08         0.00000E+00
    0.00000E+00         0.00000E+00        -0.46722E+08
 
   -0.52765E+08        -0.16564E+07         0.00000E+00
   -0.16564E+07        -0.60232E+08         0.00000E+00
    0.00000E+00         0.00000E+00        -0.46582E+08
 
   -0.51963E+08        -0.16632E+07         0.00000E+00
   -0.16632E+07        -0.60338E+08         0.00000E+00
    0.00000E+00         0.00000E+00        -0.46443E+08
 
   -0.51171E+08        -0.14612E+07         0.00000E+00
   -0.14612E+07        -0.60448E+08         0.00000E+00
    0.00000E+00         0.00000E+00        -0.46306E+08
 
   -0.50399E+08        -0.10563E+07         0.00000E+00
   -0.10563E+07        -0.60560E+08         0.00000E+00
    0.00000E+00         0.00000E+00        -0.46174E+08
 
   -0.49655E+08        -0.45558E+06         0.00000E+00
   -0.45558E+06        -0.60676E+08         0.00000E+00
    0.00000E+00         0.00000E+00        -0.46048E+08
 
   -0.48944E+08         0.33333E+06         0.00000E+00
    0.33333E+06        -0.60797E+08         0.00000E+00
    0.00000E+00         0.00000E+00        -0.45929E+08
 
   -0.48269E+08         0.13030E+07         0.00000E+00
    0.13030E+07        -0.60926E+08         0.00000E+00
    0.00000E+00         0.00000E+00        -0.45820E+08
 
   -0.47632E+08         0.24458E+07         0.00000E+00
    0.24458E+07        -0.61064E+08         0.00000E+00
    0.00000E+00         0.00000E+00        -0.45720E+08
 
   -0.47039E+08         0.37535E+07         0.00000E+00
    0.37535E+07        -0.61212E+08         0.00000E+00
    0.00000E+00         0.00000E+00        -0.45631E+08
 
   -0.46497E+08         0.52161E+07         0.00000E+00
    0.52161E+07        -0.61368E+08         0.00000E+00
    0.00000E+00         0.00000E+00        -0.45553E+08
 
   -0.46014E+08         0.68207E+07         0.00000E+00
    0.68207E+07        -0.61528E+08         0.00000E+00
    0.00000E+00         0.00000E+00        -0.45488E+08
 
   -0.45602E+08         0.85503E+07         0.00000E+00
    0.85503E+07        -0.61685E+08         0.00000E+00
    0.00000E+00         0.00000E+00        -0.45437E+08
 
   -0.55770E+08        -0.41205E+06         0.00000E+00
   -0.41205E+06        -0.60014E+08         0.00000E+00
    0.00000E+00         0.00000E+00        -0.45588E+08
 
   -0.54867E+08        -0.10829E+07         0.00000E+00
   -0.10829E+07        -0.60071E+08         0.00000E+00
    0.00000E+00         0.00000E+00        -0.45418E+08
 
   -0.53892E+08        -0.15367E+07         0.00000E+00
   -0.15367E+07        -0.60164E+08         0.00000E+00
    0.00000E+00         0.00000E+00        -0.45242E+08
 
   -0.52882E+08        -0.17686E+07         0.00000E+00
   -0.17686E+07        -0.60278E+08         0.00000E+00
    0.00000E+00         0.00000E+00        -0.45062E+08
 
   -0.51867E+08        -0.17812E+07         0.00000E+00
   -0.17812E+07        -0.60401E+08         0.00000E+00
    0.00000E+00         0.00000E+00        -0.44884E+08
 
   -0.50867E+08        -0.15817E+07         0.00000E+00
   -0.15817E+07        -0.60527E+08         0.00000E+00
    0.00000E+00         0.00000E+00        -0.44709E+08
 
   -0.49897E+08        -0.11795E+07         0.00000E+00
   -0.11795E+07        -0.60656E+08         0.00000E+00
    0.00000E+00         0.00000E+00        -0.44540E+08
 
   -0.48963E+08        -0.58395E+06         0.00000E+00
   -0.58395E+06        -0.60789E+08         0.00000E+00
    0.00000E+00         0.00000E+00        -0.44380E+08
 
   -0.48069E+08         0.19639E+06         0.00000E+00
    0.19639E+06        -0.60931E+08         0.00000E+00
    0.00000E+00         0.00000E+00        -0.44229E+08
 
   -0.47217E+08         0.11545E+07         0.00000E+00
    0.11545E+07        -0.61085E+08         0.00000E+00
    0.00000E+00         0.00000E+00        -0.44089E+08
 
   -0.46412E+08         0.22844E+07         0.00000E+00
    0.22844E+07        -0.61255E+08         0.00000E+00
    0.00000E+00         0.00000E+00        -0.43962E+08
 
   -0.45658E+08         0.35803E+07         0.00000E+00
    0.35803E+07        -0.61441E+08         0.00000E+00
    0.00000E+00         0.00000E+00        -0.43848E+08
 
   -0.44964E+08         0.50349E+07         0.00000E+00
    0.50349E+07        -0.61640E+08         0.00000E+00
    0.00000E+00         0.00000E+00        -0.43749E+08
 
   -0.44343E+08         0.66382E+07         0.00000E+00
    0.66382E+07        -0.61845E+08         0.00000E+00
    0.00000E+00         0.00000E+00        -0.43665E+08
 
   -0.43812E+08         0.83751E+07         0.00000E+00
    0.83751E+07        -0.62048E+08         0.00000E+00
    0.00000E+00         0.00000E+00        -0.43600E+08
 
   -0.56576E+08        -0.44705E+06         0.00000E+00
   -0.44705E+06        -0.60017E+08         0.00000E+00
    0.00000E+00         0.00000E+00        -0.44197E+08
 
   -0.55450E+08        -0.11680E+07         0.00000E+00
   -0.11680E+07        -0.60081E+08         0.00000E+00
    0.00000E+00         0.00000E+00        -0.43984E+08
 
   -0.54245E+08        -0.16499E+07         0.00000E+00
   -0.16499E+07        -0.60186E+08         0.00000E+00
    0.00000E+00         0.00000E+00        -0.43764E+08
 
   -0.53007E+08        -0.18945E+07         0.00000E+00
   -0.18945E+07        -0.60310E+08         0.00000E+00
    0.00000E+00         0.00000E+00        -0.43541E+08
 
   -0.51773E+08        -0.19110E+07         0.00000E+00
   -0.19110E+07        -0.60440E+08         0.00000E+00
    0.00000E+00         0.00000E+00        -0.43320E+08
 
   -0.50566E+08        -0.17127E+07         0.00000E+00
   -0.17127E+07        -0.60572E+08         0.00000E+00
    0.00000E+00         0.00000E+00        -0.43105E+08
 
   -0.49399E+08        -0.13136E+07         0.00000E+00
   -0.13136E+07        -0.60705E+08         0.00000E+00
    0.00000E+00         0.00000E+00        -0.42898E+08
 
   -0.48279E+08        -0.72586E+06         0.00000E+00
   -0.72586E+06        -0.60844E+08         0.00000E+00
    0.00000E+00         0.00000E+00        -0.42701E+08
 
   -0.47206E+08         0.41160E+05         0.00000E+00
    0.41160E+05        -0.60996E+08         0.00000E+00
    0.00000E+00         0.00000E+00        -0.42517E+08
 
   -0.46182E+08         0.98125E+06         0.00000E+00
    0.98125E+06        -0.61168E+08         0.00000E+00
    0.00000E+00         0.00000E+00        -0.42346E+08
 
   -0.45208E+08         0.20908E+07         0.00000E+00
    0.20908E+07        -0.61363E+08         0.00000E+00
    0.00000E+00         0.00000E+00        -0.42190E+08
 
   -0.44290E+08         0.33675E+07         0.00000E+00
    0.33675E+07        -0.61583E+08         0.00000E+00
    0.00000E+00         0.00000E+00        -0.42050E+08
 
   -0.43438E+08         0.48084E+07         0.00000E+00
    0.48084E+07        -0.61824E+08         0.00000E+00
    0.00000E+00         0.00000E+00        -0.41927E+08
 
   -0.42670E+08         0.64074E+07         0.00000E+00
    0.64074E+07        -0.62077E+08         0.00000E+00
    0.00000E+00         0.00000E+00        -0.41824E+08
 
   -0.42008E+08         0.81528E+07         0.00000E+00
    0.81528E+07        -0.62330E+08         0.00000E+00
    0.00000E+00         0.00000E+00        -0.41742E+08
 
   -0.57448E+08        -0.48669E+06         0.00000E+00
   -0.48669E+06        -0.60019E+08         0.00000E+00
    0.00000E+00         0.00000E+00        -0.42817E+08
 
   -0.56072E+08        -0.12619E+07         0.00000E+00
   -0.12619E+07        -0.60089E+08         0.00000E+00
    0.00000E+00         0.00000E+00        -0.42556E+08
 
   -0.54616E+08        -0.17708E+07         0.00000E+00
   -0.17708E+07        -0.60199E+08         0.00000E+00
    0.00000E+00         0.00000E+00        -0.42286E+08
 
   -0.53138E+08        -0.20241E+07         0.00000E+00
   -0.20241E+07        -0.60323E+08         0.00000E+00
    0.00000E+00         0.00000E+00        -0.42016E+08
 
   -0.51680E+08        -0.20404E+07         0.00000E+00
   -0.20404E+07        -0.60449E+08         0.00000E+00
    0.00000E+00         0.00000E+00        -0.41749E+08
 
   -0.50266E+08        -0.18408E+07         0.00000E+00
   -0.18408E+07        -0.60570E+08         0.00000E+00
    0.00000E+00         0.00000E+00        -0.41490E+08
 
   -0.48908E+08        -0.14450E+07         0.00000E+00
   -0.14450E+07        -0.60692E+08         0.00000E+00
    0.00000E+00         0.00000E+00        -0.41243E+08
 
   -0.47608E+08        -0.86855E+06         0.00000E+00
   -0.86855E+06        -0.60823E+08         0.00000E+00
    0.00000E+00         0.00000E+00        -0.41008E+08
 
   -0.46364E+08        -0.12143E+06         0.00000E+00
   -0.12143E+06        -0.60972E+08         0.00000E+00
    0.00000E+00         0.00000E+00        -0.40789E+08
 
   -0.45171E+08         0.79156E+06         0.00000E+00
    0.79156E+06        -0.61150E+08         0.00000E+00
    0.00000E+00         0.00000E+00        -0.40586E+08
 
   -0.44030E+08         0.18701E+07         0.00000E+00
    0.18701E+07        -0.61363E+08         0.00000E+00
    0.00000E+00         0.00000E+00        -0.40400E+08
 
   -0.42944E+08         0.31169E+07         0.00000E+00
    0.31169E+07        -0.61613E+08         0.00000E+00
    0.00000E+00         0.00000E+00        -0.40232E+08
 
   -0.41925E+08         0.45347E+07         0.00000E+00
    0.45347E+07        -0.61897E+08         0.00000E+00
    0.00000E+00         0.00000E+00        -0.40085E+08
 
   -0.40996E+08         0.61237E+07         0.00000E+00
    0.61237E+07        -0.62203E+08         0.00000E+00
    0.00000E+00         0.00000E+00        -0.39961E+08
 
   -0.40187E+08         0.78772E+07         0.00000E+00
    0.78772E+07        -0.62513E+08         0.00000E+00
    0.00000E+00         0.00000E+00        -0.39861E+08
 
   -0.58394E+08        -0.52976E+06         0.00000E+00
   -0.52976E+06        -0.60020E+08         0.00000E+00
    0.00000E+00         0.00000E+00        -0.41450E+08
 
   -0.56732E+08        -0.13599E+07         0.00000E+00
   -0.13599E+07        -0.60092E+08         0.00000E+00
    0.00000E+00         0.00000E+00        -0.41132E+08
 
   -0.55000E+08        -0.18903E+07         0.00000E+00
   -0.18903E+07        -0.60199E+08         0.00000E+00
    0.00000E+00         0.00000E+00        -0.40807E+08
 
   -0.53268E+08        -0.21444E+07         0.00000E+00
   -0.21444E+07        -0.60312E+08         0.00000E+00
    0.00000E+00         0.00000E+00        -0.40483E+08
 
   -0.51582E+08        -0.21534E+07         0.00000E+00
   -0.21534E+07        -0.60415E+08         0.00000E+00
    0.00000E+00         0.00000E+00        -0.40166E+08
 
   -0.49966E+08        -0.19487E+07         0.00000E+00
   -0.19487E+07        -0.60509E+08         0.00000E+00
    0.00000E+00         0.00000E+00        -0.39861E+08
 
   -0.48425E+08        -0.15568E+07         0.00000E+00
   -0.15568E+07        -0.60601E+08         0.00000E+00
    0.00000E+00         0.00000E+00        -0.39571E+08
 
   -0.46957E+08        -0.99651E+06         0.00000E+00
   -0.99651E+06        -0.60705E+08         0.00000E+00
    0.00000E+00         0.00000E+00        -0.39298E+08
 
   -0.45550E+08        -0.27820E+06         0.00000E+00
   -0.27820E+06        -0.60835E+08         0.00000E+00
    0.00000E+00         0.00000E+00        -0.39042E+08
 
   -0.44197E+08         0.59543E+06         0.00000E+00
    0.59543E+06        -0.61007E+08         0.00000E+00
    0.00000E+00         0.00000E+00        -0.38806E+08
 
   -0.42890E+08         0.16285E+07         0.00000E+00
    0.16285E+07        -0.61229E+08         0.00000E+00
    0.00000E+00         0.00000E+00        -0.38588E+08
 
   -0.41632E+08         0.28300E+07         0.00000E+00
    0.28300E+07        -0.61506E+08         0.00000E+00
    0.00000E+00         0.00000E+00        -0.38392E+08
 
   -0.40436E+08         0.42110E+07         0.00000E+00
    0.42110E+07        -0.61834E+08         0.00000E+00
    0.00000E+00         0.00000E+00        -0.38218E+08
 
   -0.39327E+08         0.57803E+07         0.00000E+00
    0.57803E+07        -0.62198E+08         0.00000E+00
    0.00000E+00         0.00000E+00        -0.38069E+08
 
   -0.38348E+08         0.75389E+07         0.00000E+00
    0.75389E+07        -0.62575E+08         0.00000E+00
    0.00000E+00         0.00000E+00        -0.37948E+08
 
   -0.59417E+08        -0.57481E+06         0.00000E+00
   -0.57481E+06        -0.60020E+08         0.00000E+00
    0.00000E+00         0.00000E+00        -0.40095E+08
 
   -0.57424E+08        -0.14556E+07         0.00000E+00
   -0.14556E+07        -0.60091E+08         0.00000E+00
    0.00000E+00         0.00000E+00        -0.39711E+08
 
   -0.55387E+08        -0.19961E+07         0.00000E+00
   -0.19961E+07        -0.60184E+08         0.00000E+00
    0.00000E+00         0.00000E+00        -0.39322E+08
 
   -0.53388E+08        -0.22379E+07         0.00000E+00
   -0.22379E+07        -0.60267E+08         0.00000E+00
    0.00000E+00         0.00000E+00        -0.38938E+08
 
   -0.51474E+08        -0.22296E+07         0.00000E+00
   -0.22296E+07        -0.60327E+08         0.00000E+00
    0.00000E+00         0.00000E+00        -0.38567E+08
 
   -0.49663E+08        -0.20154E+07         0.00000E+00
   -0.20154E+07        -0.60369E+08         0.00000E+00
    0.00000E+00         0.00000E+00        -0.38213E+08
 
   -0.47954E+08        -0.16289E+07         0.00000E+00
   -0.16289E+07        -0.60409E+08         0.00000E+00
    0.00000E+00         0.00000E+00        -0.37879E+08
 
   -0.46332E+08        -0.10918E+07         0.00000E+00
   -0.10918E+07        -0.60466E+08         0.00000E+00
    0.00000E+00         0.00000E+00        -0.37566E+08
 
   -0.44778E+08        -0.41406E+06         0.00000E+00
   -0.41406E+06        -0.60561E+08         0.00000E+00
    0.00000E+00         0.00000E+00        -0.37274E+08
 
   -0.43274E+08         0.40440E+06         0.00000E+00
    0.40440E+06        -0.60712E+08         0.00000E+00
    0.00000E+00         0.00000E+00        -0.37003E+08
 
   -0.41807E+08         0.13729E+07         0.00000E+00
    0.13729E+07        -0.60933E+08         0.00000E+00
    0.00000E+00         0.00000E+00        -0.36753E+08
 
   -0.40373E+08         0.25084E+07         0.00000E+00
    0.25084E+07        -0.61232E+08         0.00000E+00
    0.00000E+00         0.00000E+00        -0.36526E+08
 
   -0.38984E+08         0.38328E+07         0.00000E+00
    0.38328E+07        -0.61606E+08         0.00000E+00
    0.00000E+00         0.00000E+00        -0.36323E+08
 
   -0.37672E+08         0.53673E+07         0.00000E+00
    0.53673E+07        -0.62037E+08         0.00000E+00
    0.00000E+00         0.00000E+00        -0.36146E+08
 
   -0.36489E+08         0.71246E+07         0.00000E+00
    0.71246E+07        -0.62494E+08         0.00000E+00
    0.00000E+00         0.00000E+00        -0.36001E+08
 
   -0.60514E+08        -0.62010E+06         0.00000E+00
   -0.62010E+06        -0.60020E+08         0.00000E+00
    0.00000E+00         0.00000E+00        -0.38752E+08
 
   -0.58137E+08        -0.15402E+07         0.00000E+00
   -0.15402E+07        -0.60082E+08         0.00000E+00
    0.00000E+00         0.00000E+00        -0.38289E+08
 
   -0.55761E+08        -0.20708E+07         0.00000E+00
   -0.20708E+07        -0.60146E+08         0.00000E+00
    0.00000E+00         0.00000E+00        -0.37826E+08
 
   -0.53482E+08        -0.22811E+07         0.00000E+00
   -0.22811E+07        -0.60174E+08         0.00000E+00
    0.00000E+00         0.00000E+00        -0.37376E+08
 
   -0.51346E+08        -0.22431E+07         0.00000E+00
   -0.22431E+07        -0.60163E+08         0.00000E+00
    0.00000E+00         0.00000E+00        -0.36946E+08
 
   -0.49358E+08        -0.20157E+07         0.00000E+00
   -0.20157E+07        -0.60126E+08         0.00000E+00
    0.00000E+00         0.00000E+00        -0.36541E+08
 
   -0.47501E+08        -0.16388E+07         0.00000E+00
   -0.16388E+07        -0.60089E+08         0.00000E+00
    0.00000E+00         0.00000E+00        -0.36162E+08
 
   -0.45746E+08        -0.11350E+07         0.00000E+00
   -0.11350E+07        -0.60078E+08         0.00000E+00
    0.00000E+00         0.00000E+00        -0.35808E+08
 
   -0.44063E+08        -0.51288E+06         0.00000E+00
   -0.51288E+06        -0.60120E+08         0.00000E+00
    0.00000E+00         0.00000E+00        -0.35480E+08
 
   -0.42423E+08         0.23111E+06         0.00000E+00
    0.23111E+06        -0.60236E+08         0.00000E+00
    0.00000E+00         0.00000E+00        -0.35175E+08
 
   -0.40802E+08         0.11116E+07         0.00000E+00
    0.11116E+07        -0.60446E+08         0.00000E+00
    0.00000E+00         0.00000E+00        -0.34892E+08
 
   -0.39190E+08         0.21542E+07         0.00000E+00
    0.21542E+07        -0.60761E+08         0.00000E+00
    0.00000E+00         0.00000E+00        -0.34633E+08
 
   -0.37593E+08         0.33943E+07         0.00000E+00
    0.33943E+07        -0.61182E+08         0.00000E+00
    0.00000E+00         0.00000E+00        -0.34397E+08
 
   -0.36045E+08         0.48710E+07         0.00000E+00
    0.48710E+07        -0.61691E+08         0.00000E+00
    0.00000E+00         0.00000E+00        -0.34189E+08
 
   -0.34612E+08         0.66156E+07         0.00000E+00
    0.66156E+07        -0.62248E+08         0.00000E+00
    0.00000E+00         0.00000E+00        -0.34014E+08
 
   -0.61678E+08        -0.66331E+06         0.00000E+00
   -0.66331E+06        -0.60019E+08         0.00000E+00
    0.00000E+00         0.00000E+00        -0.37419E+08
 
   -0.58847E+08        -0.16004E+07         0.00000E+00
   -0.16004E+07        -0.60062E+08         0.00000E+00
    0.00000E+00         0.00000E+00        -0.36861E+08
 
   -0.56096E+08        -0.20887E+07         0.00000E+00
   -0.20887E+07        -0.60071E+08         0.00000E+00
    0.00000E+00         0.00000E+00        -0.36312E+08
 
   -0.53535E+08        -0.22417E+07         0.00000E+00
   -0.22417E+07        -0.60011E+08         0.00000E+00
    0.00000E+00         0.00000E+00        -0.35788E+08
 
   -0.51193E+08        -0.21624E+07         0.00000E+00
   -0.21624E+07        -0.59891E+08         0.00000E+00
    0.00000E+00         0.00000E+00        -0.35295E+08
 
   -0.49053E+08        -0.19225E+07         0.00000E+00
   -0.19225E+07        -0.59745E+08         0.00000E+00
    0.00000E+00         0.00000E+00        -0.34838E+08
 
   -0.47075E+08        -0.15642E+07         0.00000E+00
   -0.15642E+07        -0.59607E+08         0.00000E+00
    0.00000E+00         0.00000E+00        -0.34414E+08
 
   -0.45213E+08        -0.11079E+07         0.00000E+00
   -0.11079E+07        -0.59510E+08         0.00000E+00
    0.00000E+00         0.00000E+00        -0.34022E+08
 
   -0.43423E+08        -0.55918E+06         0.00000E+00
   -0.55918E+06        -0.59482E+08         0.00000E+00
    0.00000E+00         0.00000E+00        -0.33658E+08
 
   -0.41666E+08         0.88591E+05         0.00000E+00
    0.88591E+05        -0.59551E+08         0.00000E+00
    0.00000E+00         0.00000E+00        -0.33320E+08
 
   -0.39905E+08         0.85410E+06         0.00000E+00
    0.85410E+06        -0.59737E+08         0.00000E+00
    0.00000E+00         0.00000E+00        -0.33005E+08
 
   -0.38116E+08         0.17708E+07         0.00000E+00
    0.17708E+07        -0.60060E+08         0.00000E+00
    0.00000E+00         0.00000E+00        -0.32712E+08
 
   -0.36293E+08         0.28890E+07         0.00000E+00
    0.28890E+07        -0.60529E+08         0.00000E+00
    0.00000E+00         0.00000E+00        -0.32441E+08
 
   -0.34469E+08         0.42732E+07         0.00000E+00
    0.42732E+07        -0.61129E+08         0.00000E+00
    0.00000E+00         0.00000E+00        -0.32196E+08
 
   -0.32725E+08         0.59849E+07         0.00000E+00
    0.59849E+07        -0.61812E+08         0.00000E+00
    0.00000E+00         0.00000E+00        -0.31984E+08
 
   -0.62894E+08        -0.70074E+06         0.00000E+00
   -0.70074E+06        -0.60016E+08         0.00000E+00
    0.00000E+00         0.00000E+00        -0.36092E+08
 
   -0.59515E+08        -0.16123E+07         0.00000E+00
   -0.16123E+07        -0.60022E+08         0.00000E+00
    0.00000E+00         0.00000E+00        -0.35417E+08
 
   -0.56356E+08        -0.20090E+07         0.00000E+00
   -0.20090E+07        -0.59933E+08         0.00000E+00
    0.00000E+00         0.00000E+00        -0.34767E+08
 
   -0.53527E+08        -0.20766E+07         0.00000E+00
   -0.20766E+07        -0.59732E+08         0.00000E+00
    0.00000E+00         0.00000E+00        -0.34161E+08
 
   -0.51014E+08        -0.19518E+07         0.00000E+00
   -0.19518E+07        -0.59462E+08         0.00000E+00
    0.00000E+00         0.00000E+00        -0.33605E+08
 
   -0.48758E+08        -0.17100E+07         0.00000E+00
   -0.17100E+07        -0.59177E+08         0.00000E+00
    0.00000E+00         0.00000E+00        -0.33096E+08
 
   -0.46691E+08        -0.13868E+07         0.00000E+00
   -0.13868E+07        -0.58920E+08         0.00000E+00
    0.00000E+00         0.00000E+00        -0.32631E+08
 
   -0.44750E+08        -0.99655E+06         0.00000E+00
   -0.99655E+06        -0.58725E+08         0.00000E+00
    0.00000E+00         0.00000E+00        -0.32203E+08
 
   -0.42879E+08        -0.54094E+06         0.00000E+00
   -0.54094E+06        -0.58619E+08         0.00000E+00
    0.00000E+00         0.00000E+00        -0.31808E+08
 
   -0.41027E+08        -0.11371E+05         0.00000E+00
   -0.11371E+05        -0.58630E+08         0.00000E+00
    0.00000E+00         0.00000E+00        -0.31439E+08
 
   -0.39145E+08         0.61198E+06         0.00000E+00
    0.61198E+06        -0.58782E+08         0.00000E+00
    0.00000E+00         0.00000E+00        -0.31093E+08
 
   -0.37189E+08         0.13655E+07         0.00000E+00
    0.13655E+07        -0.59101E+08         0.00000E+00
    0.00000E+00         0.00000E+00        -0.30766E+08
 
   -0.35131E+08         0.23126E+07         0.00000E+00
    0.23126E+07        -0.59613E+08         0.00000E+00
    0.00000E+00         0.00000E+00        -0.30456E+08
 
   -0.32982E+08         0.35508E+07         0.00000E+00
    0.35508E+07        -0.60317E+08         0.00000E+00
    0.00000E+00         0.00000E+00        -0.30167E+08
 
   -0.30839E+08         0.51939E+07         0.00000E+00
    0.51939E+07        -0.61163E+08         0.00000E+00
    0.00000E+00         0.00000E+00        -0.29908E+08
 
   -0.64123E+08        -0.72393E+06         0.00000E+00
   -0.72393E+06        -0.60006E+08         0.00000E+00
    0.00000E+00         0.00000E+00        -0.34764E+08
 
   -0.60072E+08        -0.15272E+07         0.00000E+00
   -0.15272E+07        -0.59931E+08         0.00000E+00
    0.00000E+00         0.00000E+00        -0.33939E+08
 
   -0.56499E+08        -0.17644E+07         0.00000E+00
   -0.17644E+07        -0.59663E+08         0.00000E+00
    0.00000E+00         0.00000E+00        -0.33170E+08
 
   -0.53453E+08        -0.17329E+07         0.00000E+00
   -0.17329E+07        -0.59253E+08         0.00000E+00
    0.00000E+00         0.00000E+00        -0.32479E+08
 
   -0.50824E+08        -0.15804E+07         0.00000E+00
   -0.15804E+07        -0.58797E+08         0.00000E+00
    0.00000E+00         0.00000E+00        -0.31862E+08
 
   -0.48493E+08        -0.13619E+07         0.00000E+00
   -0.13619E+07        -0.58359E+08         0.00000E+00
    0.00000E+00         0.00000E+00        -0.31308E+08
 
   -0.46370E+08        -0.10985E+07         0.00000E+00
   -0.10985E+07        -0.57979E+08         0.00000E+00
    0.00000E+00         0.00000E+00        -0.30807E+08
 
   -0.44377E+08        -0.79620E+06         0.00000E+00
   -0.79620E+06        -0.57687E+08         0.00000E+00
    0.00000E+00         0.00000E+00        -0.30350E+08
 
   -0.42450E+08        -0.45330E+06         0.00000E+00
   -0.45330E+06        -0.57504E+08         0.00000E+00
    0.00000E+00         0.00000E+00        -0.29928E+08
 
   -0.40529E+08        -0.61209E+05         0.00000E+00
   -0.61209E+05        -0.57455E+08         0.00000E+00
    0.00000E+00         0.00000E+00        -0.29533E+08
 
   -0.38552E+08         0.39716E+06         0.00000E+00
    0.39716E+06        -0.57565E+08         0.00000E+00
    0.00000E+00         0.00000E+00        -0.29160E+08
 
   -0.36456E+08         0.95365E+06         0.00000E+00
    0.95365E+06        -0.57866E+08         0.00000E+00
    0.00000E+00         0.00000E+00        -0.28801E+08
 
   -0.34169E+08         0.16702E+07         0.00000E+00
    0.16702E+07        -0.58400E+08         0.00000E+00
    0.00000E+00         0.00000E+00        -0.28450E+08
 
   -0.31650E+08         0.26784E+07         0.00000E+00
    0.26784E+07        -0.59213E+08         0.00000E+00
    0.00000E+00         0.00000E+00        -0.28109E+08
 
   -0.28982E+08         0.41843E+07         0.00000E+00
    0.41843E+07        -0.60271E+08         0.00000E+00
    0.00000E+00         0.00000E+00        -0.27787E+08
 
   -0.65279E+08        -0.70295E+06         0.00000E+00
   -0.70295E+06        -0.59972E+08         0.00000E+00
    0.00000E+00         0.00000E+00        -0.33414E+08
 
   -0.60413E+08        -0.12276E+07         0.00000E+00
   -0.12276E+07        -0.59686E+08         0.00000E+00
    0.00000E+00         0.00000E+00        -0.32383E+08
 
   -0.56508E+08        -0.12606E+07         0.00000E+00
   -0.12606E+07        -0.59099E+08         0.00000E+00
    0.00000E+00         0.00000E+00        -0.31485E+08
 
   -0.53342E+08        -0.11724E+07         0.00000E+00
   -0.11724E+07        -0.58435E+08         0.00000E+00
    0.00000E+00         0.00000E+00        -0.30719E+08
 
   -0.50654E+08        -0.10396E+07         0.00000E+00
   -0.10396E+07        -0.57793E+08         0.00000E+00
    0.00000E+00         0.00000E+00        -0.30053E+08
 
   -0.48288E+08        -0.88283E+06         0.00000E+00
   -0.88283E+06        -0.57217E+08         0.00000E+00
    0.00000E+00         0.00000E+00        -0.29464E+08
 
   -0.46136E+08        -0.70811E+06         0.00000E+00
   -0.70811E+06        -0.56734E+08         0.00000E+00
    0.00000E+00         0.00000E+00        -0.28937E+08
 
   -0.44114E+08        -0.51561E+06         0.00000E+00
   -0.51561E+06        -0.56361E+08         0.00000E+00
    0.00000E+00         0.00000E+00        -0.28458E+08
 
   -0.42154E+08        -0.30224E+06         0.00000E+00
   -0.30224E+06        -0.56116E+08         0.00000E+00
    0.00000E+00         0.00000E+00        -0.28017E+08
 
   -0.40188E+08        -0.61681E+05         0.00000E+00
   -0.61681E+05        -0.56016E+08         0.00000E+00
    0.00000E+00         0.00000E+00        -0.27604E+08
 
   -0.38149E+08         0.21725E+06         0.00000E+00
    0.21725E+06        -0.56087E+08         0.00000E+00
    0.00000E+00         0.00000E+00        -0.27210E+08
 
   -0.35952E+08         0.55527E+06         0.00000E+00
    0.55527E+06        -0.56360E+08         0.00000E+00
    0.00000E+00         0.00000E+00        -0.26825E+08
 
   -0.33490E+08         0.99488E+06         0.00000E+00
    0.99488E+06        -0.56888E+08         0.00000E+00
    0.00000E+00         0.00000E+00        -0.26438E+08
 
   -0.30591E+08         0.16437E+07         0.00000E+00
    0.16437E+07        -0.57759E+08         0.00000E+00
    0.00000E+00         0.00000E+00        -0.26033E+08
 
   -0.27217E+08         0.28576E+07         0.00000E+00
    0.28576E+07        -0.59098E+08         0.00000E+00
    0.00000E+00         0.00000E+00        -0.25625E+08
 
   -0.66115E+08        -0.44173E+06         0.00000E+00
   -0.44173E+06        -0.59680E+08         0.00000E+00
    0.00000E+00         0.00000E+00        -0.31947E+08
 
   -0.60465E+08        -0.50684E+06         0.00000E+00
   -0.50684E+06        -0.58869E+08         0.00000E+00
    0.00000E+00         0.00000E+00        -0.30655E+08
 
   -0.56459E+08        -0.46562E+06         0.00000E+00
   -0.46562E+06        -0.57960E+08         0.00000E+00
    0.00000E+00         0.00000E+00        -0.29672E+08
 
   -0.53256E+08        -0.41761E+06         0.00000E+00
   -0.41761E+06        -0.57105E+08         0.00000E+00
    0.00000E+00         0.00000E+00        -0.28860E+08
 
   -0.50552E+08        -0.36389E+06         0.00000E+00
   -0.36389E+06        -0.56341E+08         0.00000E+00
    0.00000E+00         0.00000E+00        -0.28167E+08
 
   -0.48175E+08        -0.30635E+06         0.00000E+00
   -0.30635E+06        -0.55682E+08         0.00000E+00
    0.00000E+00         0.00000E+00        -0.27559E+08
 
   -0.46012E+08        -0.24488E+06         0.00000E+00
   -0.24488E+06        -0.55138E+08         0.00000E+00
    0.00000E+00         0.00000E+00        -0.27018E+08
 
   -0.43978E+08        -0.17864E+06         0.00000E+00
   -0.17864E+06        -0.54720E+08         0.00000E+00
    0.00000E+00         0.00000E+00        -0.26528E+08
 
   -0.42002E+08        -0.10618E+06         0.00000E+00
   -0.10618E+06        -0.54440E+08         0.00000E+00
    0.00000E+00         0.00000E+00        -0.26076E+08
 
   -0.40016E+08        -0.25162E+05         0.00000E+00
   -0.25162E+05        -0.54312E+08         0.00000E+00
    0.00000E+00         0.00000E+00        -0.25653E+08
 
   -0.37945E+08         0.68249E+05         0.00000E+00
    0.68249E+05        -0.54357E+08         0.00000E+00
    0.00000E+00         0.00000E+00        -0.25248E+08
 
   -0.35698E+08         0.18094E+06         0.00000E+00
    0.18094E+06        -0.54608E+08         0.00000E+00
    0.00000E+00         0.00000E+00        -0.24849E+08
 
   -0.33141E+08         0.32786E+06         0.00000E+00
    0.32786E+06        -0.55118E+08         0.00000E+00
    0.00000E+00         0.00000E+00        -0.24439E+08
 
   -0.30035E+08         0.54296E+06         0.00000E+00
    0.54296E+06        -0.55989E+08         0.00000E+00
    0.00000E+00         0.00000E+00        -0.23992E+08
 
   -0.25705E+08         0.10496E+07         0.00000E+00
    0.10496E+07        -0.57506E+08         0.00000E+00
    0.00000E+00         0.00000E+00        -0.23430E+08
 
SCALARS stressS double 
LOOKUP_TABLE default
  -55358868.7740042     
  -56746287.1364139     
  -58838583.2817717     
  -61151077.5188483     
  -63323253.0777641     
  -65139258.2858081     
  -66528370.1399081     
  -67701197.4667172     
  -68734228.5244184     
  -69673797.9933692     
  -70554458.7412585     
  -71408594.6611987     
  -72275126.8259280     
  -73213679.3182023     
  -74393144.1656135     
  -57243900.7098674     
  -58398013.5621845     
  -59858752.5654876     
  -61264402.1895377     
  -62644048.3689431     
  -64042250.1432385     
  -65311771.3493045     
  -66420371.0117903     
  -67412445.8564018     
  -68320140.1742506     
  -69170855.1002679     
  -69990469.3252187     
  -70806331.7880334     
  -71654698.3000778     
  -72500160.2901311     
  -57975906.1363982     
  -59067328.1517894     
  -59933825.2373931     
  -60890544.9125194     
  -62023691.0774183     
  -63161140.3364209     
  -64250199.0082016     
  -65255665.2616842     
  -66175645.6324735     
  -67025514.9192361     
  -67821781.3261935     
  -68580270.8116566     
  -69314850.6088254     
  -70023803.6871114     
  -70687081.7727455     
  -57857340.7859636     
  -58669423.2999072     
  -59545766.3183455     
  -60448865.0046306     
  -61391256.0230224     
  -62355003.0531919     
  -63292910.8771633     
  -64182176.9883644     
  -65013490.7347619     
  -65788606.6696195     
  -66514265.1931850     
  -67197137.5385178     
  -67839267.0370671     
  -68434438.7669905     
  -68963536.2002309     
  -57511006.3900481     
  -58320636.8771607     
  -59117357.0617703     
  -59931344.3818972     
  -60757663.0147872     
  -61585393.0057589     
  -62397584.0925527     
  -63177071.1962458     
  -63914679.3575047     
  -64607111.2430013     
  -65254468.5260556     
  -65856958.1769584     
  -66411902.4182266     
  -66911097.2364397     
  -67339812.7197145     
  -57230049.6061810     
  -57961482.6387553     
  -58682202.6209269     
  -59402410.7262403     
  -60124662.6841242     
  -60842292.4978978     
  -61545388.4602515     
  -62223889.7987649     
  -62869799.5942053     
  -63478162.4601738     
  -64045813.3033488     
  -64569643.8420614     
  -65044770.8131734     
  -65463211.4143256     
  -65813386.4450534     
  -56985813.6821376     
  -57619850.4003762     
  -58249684.0609033     
  -58877740.0053871     
  -59503259.8507066     
  -60122146.6916370     
  -60727828.2421338     
  -61313195.4566200     
  -61871854.2443381     
  -62398553.7874609     
  -62888873.9946637     
  -63338331.0696350     
  -63741424.8198333     
  -64090946.5821620     
  -64377839.3896467     
  -56759225.9804396     
  -57291234.9565099     
  -57826895.8017831     
  -58363138.9174655     
  -58897025.2269617     
  -59424474.6165099     
  -59940398.5273424     
  -60439264.4203623     
  -60915705.7535925     
  -61364781.6995985     
  -61781843.3429138     
  -62162136.7293506     
  -62500333.4491510     
  -62790220.3256033     
  -63024704.6274672     
  -56535550.1898824     
  -56969734.2220655     
  -57413108.7833989     
  -57860224.3017054     
  -58306663.8364067     
  -58748131.0444439     
  -59180112.7632231     
  -59597961.0730439     
  -59997073.5271057     
  -60372993.5568691     
  -60721350.2214893     
  -61037673.6681388     
  -61317188.7958528     
  -61554701.7074249     
  -61744674.1912364     
  -56306457.1365146     
  -56650058.2340913     
  -57005985.1780420     
  -57368035.9783203     
  -57731275.9123968     
  -58091360.6467539     
  -58444167.7389071     
  -58785662.2838012     
  -59111884.1282520     
  -59418944.1522529     
  -59702977.7976793     
  -59960058.9144420     
  -60186118.0804436     
  -60376924.7650131     
  -60528182.4121415     
  -56067871.1657099     
  -56328869.5274331     
  -56603176.4417204     
  -56884847.8447416     
  -57169116.5982108     
  -57451928.7357754     
  -57729621.9646980     
  -57998743.1162637     
  -58255956.3812091     
  -58497991.3884195     
  -58721597.7028369     
  -58923500.7803328     
  -59100376.6162216     
  -59248872.4448076     
  -59365697.3868947     
  -55818760.6197509     
  -56004617.1045691     
  -56203030.1885406     
  -56408914.2987863     
  -56618159.1244568     
  -56827312.6289696     
  -57033332.0948172     
  -57233413.1067679     
  -57424882.7246749     
  -57605133.8174679     
  -57771582.8577333     
  -57921645.0152092     
  -58052731.7276293     
  -58162281.7712973     
  -58247835.6140140     
  -55560218.0388027     
  -55677219.8068710     
  -55804693.4608267     
  -55938784.2845020     
  -56076372.7919001     
  -56214860.0060040     
  -56351985.0736805     
  -56485688.1064115     
  -56614016.6548436     
  -56735066.8585938     
  -56846949.8747935     
  -56947778.3599065     
  -57035672.7911116     
  -57108790.4798218     
  -57165379.8094863     
  -55294823.3471370     
  -55347712.7922448     
  -55408022.3408298     
  -55473363.4830879     
  -55541834.3169642     
  -55611875.4026835     
  -55682142.9282147     
  -55751410.1859366     
  -55818499.6460067     
  -55882242.0694530     
  -55941457.0212998     
  -55994949.9060072     
  -56041522.6355026     
  -56079996.6359159     
  -56109247.1563379     
  -55026174.4487656     
  -55017930.5222130     
  -55013416.3956666     
  -55011861.9584061     
  -55012735.0912042     
  -55015646.6856685     
  -55020268.6373084     
  -55026273.1872610     
  -55033295.8334617     
  -55040919.2825646     
  -55048673.3460586     
  -55056045.1534087     
  -55062494.8019888     
  -55067472.7118905     
  -55070435.8536444     
  -54758525.8938220     
  -54690228.4613723     
  -54621632.0119287     
  -54553685.8173193     
  -54487328.1762901     
  -54423425.3741240     
  -54362726.0945539     
  -54305837.1089008     
  -54253220.5623385     
  -54205208.7292485     
  -54162029.4226131     
  -54123834.3678636     
  -54090723.3988849     
  -54062758.7403921     
  -54039965.4083946     
  -54496495.5953294     
  -54367235.6913965     
  -54233590.2679175     
  -54098299.2443634     
  -53963836.7144203     
  -53832372.0143980     
  -53705754.6837328     
  -53585526.7004916     
  -53472959.0530510     
  -53369104.8784105     
  -53274858.6380257     
  -53191010.1065256     
  -53118282.9524703     
  -53057349.9015699     
  -53008819.4191936     
  -54244814.8492907     
  -54051626.7592543     
  -53850180.0989311     
  -53645064.3515491     
  -53440332.1556106     
  -53239471.9743470     
  -53045420.4031902     
  -52860614.5777346     
  -52687076.6887784     
  -52526516.8728873     
  -52380438.0392886     
  -52250226.1464195     
  -52137211.4445543     
  -52042689.7010203     
  -51967896.9442540     
  -54008105.5445704     
  -53745900.4510358     
  -53472049.2621151     
  -53193055.3861570     
  -52914581.1716281     
  -52641421.6072409     
  -52377544.2225479     
  -52126190.8845360     
  -51890025.2538407     
  -51671302.9008543     
  -51472039.0270385     
  -51294150.0585969     
  -51139548.9336182     
  -51010179.0793516     
  -50907978.6257739     
  -53790673.5813438     
  -53452151.6436764     
  -53099369.0366192     
  -52740835.1339593     
  -52383852.3080481     
  -52034479.6013301     
  -51697606.3782515     
  -51377122.0665188     
  -51076151.4675280     
  -50797318.3742397     
  -50543000.6251178     
  -50315543.7551719     
  -50117405.8889640     
  -49951213.3882774     
  -49819715.5993430     
  -53596309.8638633     
  -53171817.9954798     
  -52731549.8344757     
  -52286171.5147989     
  -51844665.2745142     
  -51414273.3090002     
  -51000623.4837091     
  -50608001.9484949     
  -50239716.3776196     
  -49898490.9677756     
  -49586841.8477637     
  -49307390.4348212     
  -49063079.4115905     
  -48857262.7571050     
  -48693652.2196247     
  -53428089.3653670     
  -52905372.9476442     
  -52366869.9864235     
  -51825658.2056298     
  -51292455.9053878     
  -50775545.1565735     
  -50280994.6829260     
  -49813100.0382087     
  -49374937.1599583     
  -48968939.6367486     
  -48597434.9897716     
  -48263092.8763493     
  -47969242.3475300     
  -47720017.2481741     
  -47520297.4179228     
  -53288152.3532953     
  -52651914.1254128     
  -52001952.4161670     
  -51354180.7100816     
  -50721117.8170670     
  -50111821.7161758     
  -49532315.8134357     
  -48986315.9343145     
  -48476066.6086000     
  -48003158.9449396     
  -47569268.4604868     
  -47176777.7182871     
  -46829241.8108015     
  -46531627.7245430     
  -46290264.2552105     
  -53177433.1836993     
  -52408548.0048486     
  -51630970.5439867     
  -50864133.4333020     
  -50122370.1785782     
  -49414993.7048797     
  -48747171.4674443     
  -48121156.4364610     
  -47537528.0531179     
  -46996292.2247821     
  -46497833.8871949     
  -46043755.8280739     
  -45637563.1771062     
  -45285091.7534103     
  -44994503.6724439     
  -53095256.5502520     
  -52169360.2967877     
  -51244359.0313383     
  -50344238.3171624     
  -49484902.2000674     
  -48674825.3931327     
  -47916943.0642272     
  -47210763.5463109     
  -46554120.7380782     
  -45944506.4191218     
  -45380177.0636506     
  -44861207.1070407     
  -44390559.1927162     
  -43974868.1269352     
  -43624674.4289675     
  -53038582.4794549     
  -51923499.6306249     
  -50826579.2955438     
  -49777752.0290317     
  -48793306.0175024     
  -47878498.4990131     
  -47031730.9863735     
  -46248034.5354604     
  -45521283.7890288     
  -44845455.2873013     
  -44215615.5460278     
  -43629211.2252215     
  -43087601.6909916     
  -42597917.2769429     
  -42173711.8865272     
  -53000346.7581267     
  -51651108.0458354     
  -50352060.3522452     
  -49139881.3963401     
  -48027049.2393206     
  -47010520.3568750     
  -46080548.5753125     
  -45225879.4964972     
  -44435375.3779667     
  -43698669.0086817     
  -43006620.7431115     
  -42352136.3090097     
  -41733150.6100458     
  -41155465.1382987     
  -40636859.9633109     
  -52964251.2607178     
  -51313871.1835577     
  -49777603.1621874     
  -48394856.0176784     
  -47160720.3473215     
  -46053428.7229470     
  -45051985.6198925     
  -44137645.2052364     
  -43293863.2157023     
  -42505674.8138179     
  -41759095.4719747     
  -41041003.7633141     
  -40339692.9938367     
  -39657459.0700901     
  -39013151.9760036     
  -52888500.2953840     
  -50827262.6373819     
  -49030632.0386198     
  -47498653.0119950     
  -46166481.6519490     
  -44989784.9604567     
  -43935415.8850176     
  -42977686.4389723     
  -42095349.6504146     
  -41269491.8641667     
  -40481750.5387764     
  -39712356.9539407     
  -38938436.3653583     
  -38127650.8674885     
  -37313340.2737883     
  -52580809.4398891     
  -49996349.8526164     
  -48030412.3606709     
  -46407418.3653323     
  -45019843.1956785     
  -43805238.9964576     
  -42722612.5345527     
  -41741997.8589631     
  -40839389.2150897     
  -39993574.5169792     
  -39183513.5718106     
  -38385209.0711747     
  -37565892.9129967     
  -36671916.7965524     
  -35546968.5415743     
SCALARS 2waySource double 
LOOKUP_TABLE default
  0.000000000000000E+000
  0.000000000000000E+000
  0.000000000000000E+000
  0.000000000000000E+000
  0.000000000000000E+000
  0.000000000000000E+000
  0.000000000000000E+000
  0.000000000000000E+000
  0.000000000000000E+000
  0.000000000000000E+000
  0.000000000000000E+000
  0.000000000000000E+000
  0.000000000000000E+000
  0.000000000000000E+000
  0.000000000000000E+000
  0.000000000000000E+000
  0.000000000000000E+000
  0.000000000000000E+000
  0.000000000000000E+000
  0.000000000000000E+000
  0.000000000000000E+000
  0.000000000000000E+000
  0.000000000000000E+000
  0.000000000000000E+000
  0.000000000000000E+000
  0.000000000000000E+000
  0.000000000000000E+000
  0.000000000000000E+000
  0.000000000000000E+000
  0.000000000000000E+000
  0.000000000000000E+000
  0.000000000000000E+000
  0.000000000000000E+000
  0.000000000000000E+000
  0.000000000000000E+000
  0.000000000000000E+000
  0.000000000000000E+000
  0.000000000000000E+000
  0.000000000000000E+000
  0.000000000000000E+000
  0.000000000000000E+000
  0.000000000000000E+000
  0.000000000000000E+000
  0.000000000000000E+000
  0.000000000000000E+000
  0.000000000000000E+000
  0.000000000000000E+000
  0.000000000000000E+000
  0.000000000000000E+000
  0.000000000000000E+000
  0.000000000000000E+000
  0.000000000000000E+000
  0.000000000000000E+000
  0.000000000000000E+000
  0.000000000000000E+000
  0.000000000000000E+000
  0.000000000000000E+000
  0.000000000000000E+000
  0.000000000000000E+000
  0.000000000000000E+000
  0.000000000000000E+000
  0.000000000000000E+000
  0.000000000000000E+000
  0.000000000000000E+000
  0.000000000000000E+000
  0.000000000000000E+000
  0.000000000000000E+000
  0.000000000000000E+000
  0.000000000000000E+000
  0.000000000000000E+000
  0.000000000000000E+000
  0.000000000000000E+000
  0.000000000000000E+000
  0.000000000000000E+000
  0.000000000000000E+000
  0.000000000000000E+000
  0.000000000000000E+000
  0.000000000000000E+000
  0.000000000000000E+000
  0.000000000000000E+000
  0.000000000000000E+000
  0.000000000000000E+000
  0.000000000000000E+000
  0.000000000000000E+000
  0.000000000000000E+000
  0.000000000000000E+000
  0.000000000000000E+000
  0.000000000000000E+000
  0.000000000000000E+000
  0.000000000000000E+000
  0.000000000000000E+000
  0.000000000000000E+000
  0.000000000000000E+000
  0.000000000000000E+000
  0.000000000000000E+000
  0.000000000000000E+000
  0.000000000000000E+000
  0.000000000000000E+000
  0.000000000000000E+000
  0.000000000000000E+000
  0.000000000000000E+000
  0.000000000000000E+000
  0.000000000000000E+000
  0.000000000000000E+000
  0.000000000000000E+000
  0.000000000000000E+000
  0.000000000000000E+000
  0.000000000000000E+000
  0.000000000000000E+000
  0.000000000000000E+000
  0.000000000000000E+000
  0.000000000000000E+000
  0.000000000000000E+000
  0.000000000000000E+000
  0.000000000000000E+000
  0.000000000000000E+000
  0.000000000000000E+000
  0.000000000000000E+000
  0.000000000000000E+000
  0.000000000000000E+000
  0.000000000000000E+000
  0.000000000000000E+000
  0.000000000000000E+000
  0.000000000000000E+000
  0.000000000000000E+000
  0.000000000000000E+000
  0.000000000000000E+000
  0.000000000000000E+000
  0.000000000000000E+000
  0.000000000000000E+000
  0.000000000000000E+000
  0.000000000000000E+000
  0.000000000000000E+000
  0.000000000000000E+000
  0.000000000000000E+000
  0.000000000000000E+000
  0.000000000000000E+000
  0.000000000000000E+000
  0.000000000000000E+000
  0.000000000000000E+000
  0.000000000000000E+000
  0.000000000000000E+000
  0.000000000000000E+000
  0.000000000000000E+000
  0.000000000000000E+000
  0.000000000000000E+000
  0.000000000000000E+000
  0.000000000000000E+000
  0.000000000000000E+000
  0.000000000000000E+000
  0.000000000000000E+000
  0.000000000000000E+000
  0.000000000000000E+000
  0.000000000000000E+000
  0.000000000000000E+000
  0.000000000000000E+000
  0.000000000000000E+000
  0.000000000000000E+000
  0.000000000000000E+000
  0.000000000000000E+000
  0.000000000000000E+000
  0.000000000000000E+000
  0.000000000000000E+000
  0.000000000000000E+000
  0.000000000000000E+000
  0.000000000000000E+000
  0.000000000000000E+000
  0.000000000000000E+000
  0.000000000000000E+000
  0.000000000000000E+000
  0.000000000000000E+000
  0.000000000000000E+000
  0.000000000000000E+000
  0.000000000000000E+000
  0.000000000000000E+000
  0.000000000000000E+000
  0.000000000000000E+000
  0.000000000000000E+000
  0.000000000000000E+000
  0.000000000000000E+000
  0.000000000000000E+000
  0.000000000000000E+000
  0.000000000000000E+000
  0.000000000000000E+000
  0.000000000000000E+000
  0.000000000000000E+000
  0.000000000000000E+000
  0.000000000000000E+000
  0.000000000000000E+000
  0.000000000000000E+000
  0.000000000000000E+000
  0.000000000000000E+000
  0.000000000000000E+000
  0.000000000000000E+000
  0.000000000000000E+000
  0.000000000000000E+000
  0.000000000000000E+000
  0.000000000000000E+000
  0.000000000000000E+000
  0.000000000000000E+000
  0.000000000000000E+000
  0.000000000000000E+000
  0.000000000000000E+000
  0.000000000000000E+000
  0.000000000000000E+000
  0.000000000000000E+000
  0.000000000000000E+000
  0.000000000000000E+000
  0.000000000000000E+000
  0.000000000000000E+000
  0.000000000000000E+000
  0.000000000000000E+000
  0.000000000000000E+000
  0.000000000000000E+000
  0.000000000000000E+000
  0.000000000000000E+000
  0.000000000000000E+000
  0.000000000000000E+000
  0.000000000000000E+000
  0.000000000000000E+000
  0.000000000000000E+000
  0.000000000000000E+000
  0.000000000000000E+000
  0.000000000000000E+000
  0.000000000000000E+000
  0.000000000000000E+000
  0.000000000000000E+000
  0.000000000000000E+000
  0.000000000000000E+000
  0.000000000000000E+000
  0.000000000000000E+000
  0.000000000000000E+000
  0.000000000000000E+000
  0.000000000000000E+000
  0.000000000000000E+000
  0.000000000000000E+000
  0.000000000000000E+000
  0.000000000000000E+000
  0.000000000000000E+000
  0.000000000000000E+000
  0.000000000000000E+000
  0.000000000000000E+000
  0.000000000000000E+000
  0.000000000000000E+000
  0.000000000000000E+000
  0.000000000000000E+000
  0.000000000000000E+000
  0.000000000000000E+000
  0.000000000000000E+000
  0.000000000000000E+000
  0.000000000000000E+000
  0.000000000000000E+000
  0.000000000000000E+000
  0.000000000000000E+000
  0.000000000000000E+000
  0.000000000000000E+000
  0.000000000000000E+000
  0.000000000000000E+000
  0.000000000000000E+000
  0.000000000000000E+000
  0.000000000000000E+000
  0.000000000000000E+000
  0.000000000000000E+000
  0.000000000000000E+000
  0.000000000000000E+000
  0.000000000000000E+000
  0.000000000000000E+000
  0.000000000000000E+000
  0.000000000000000E+000
  0.000000000000000E+000
  0.000000000000000E+000
  0.000000000000000E+000
  0.000000000000000E+000
  0.000000000000000E+000
  0.000000000000000E+000
  0.000000000000000E+000
  0.000000000000000E+000
  0.000000000000000E+000
  0.000000000000000E+000
  0.000000000000000E+000
  0.000000000000000E+000
  0.000000000000000E+000
  0.000000000000000E+000
  0.000000000000000E+000
  0.000000000000000E+000
  0.000000000000000E+000
  0.000000000000000E+000
  0.000000000000000E+000
  0.000000000000000E+000
  0.000000000000000E+000
  0.000000000000000E+000
  0.000000000000000E+000
  0.000000000000000E+000
  0.000000000000000E+000
  0.000000000000000E+000
  0.000000000000000E+000
  0.000000000000000E+000
  0.000000000000000E+000
  0.000000000000000E+000
  0.000000000000000E+000
  0.000000000000000E+000
  0.000000000000000E+000
  0.000000000000000E+000
  0.000000000000000E+000
  0.000000000000000E+000
  0.000000000000000E+000
  0.000000000000000E+000
  0.000000000000000E+000
  0.000000000000000E+000
  0.000000000000000E+000
  0.000000000000000E+000
  0.000000000000000E+000
  0.000000000000000E+000
  0.000000000000000E+000
  0.000000000000000E+000
  0.000000000000000E+000
  0.000000000000000E+000
  0.000000000000000E+000
  0.000000000000000E+000
  0.000000000000000E+000
  0.000000000000000E+000
  0.000000000000000E+000
  0.000000000000000E+000
  0.000000000000000E+000
  0.000000000000000E+000
  0.000000000000000E+000
  0.000000000000000E+000
  0.000000000000000E+000
  0.000000000000000E+000
  0.000000000000000E+000
  0.000000000000000E+000
  0.000000000000000E+000
  0.000000000000000E+000
  0.000000000000000E+000
  0.000000000000000E+000
  0.000000000000000E+000
  0.000000000000000E+000
  0.000000000000000E+000
  0.000000000000000E+000
  0.000000000000000E+000
  0.000000000000000E+000
  0.000000000000000E+000
  0.000000000000000E+000
  0.000000000000000E+000
  0.000000000000000E+000
  0.000000000000000E+000
  0.000000000000000E+000
  0.000000000000000E+000
  0.000000000000000E+000
  0.000000000000000E+000
  0.000000000000000E+000
  0.000000000000000E+000
  0.000000000000000E+000
  0.000000000000000E+000
  0.000000000000000E+000
  0.000000000000000E+000
  0.000000000000000E+000
  0.000000000000000E+000
  0.000000000000000E+000
  0.000000000000000E+000
  0.000000000000000E+000
  0.000000000000000E+000
  0.000000000000000E+000
  0.000000000000000E+000
  0.000000000000000E+000
  0.000000000000000E+000
  0.000000000000000E+000
  0.000000000000000E+000
  0.000000000000000E+000
  0.000000000000000E+000
  0.000000000000000E+000
  0.000000000000000E+000
  0.000000000000000E+000
  0.000000000000000E+000
  0.000000000000000E+000
  0.000000000000000E+000
  0.000000000000000E+000
  0.000000000000000E+000
  0.000000000000000E+000
  0.000000000000000E+000
  0.000000000000000E+000
  0.000000000000000E+000
  0.000000000000000E+000
  0.000000000000000E+000
  0.000000000000000E+000
  0.000000000000000E+000
  0.000000000000000E+000
  0.000000000000000E+000
  0.000000000000000E+000
  0.000000000000000E+000
  0.000000000000000E+000
  0.000000000000000E+000
  0.000000000000000E+000
  0.000000000000000E+000
  0.000000000000000E+000
  0.000000000000000E+000
  0.000000000000000E+000
  0.000000000000000E+000
  0.000000000000000E+000
  0.000000000000000E+000
  0.000000000000000E+000
  0.000000000000000E+000
  0.000000000000000E+000
  0.000000000000000E+000
  0.000000000000000E+000
  0.000000000000000E+000
  0.000000000000000E+000
  0.000000000000000E+000
  0.000000000000000E+000
  0.000000000000000E+000
  0.000000000000000E+000
  0.000000000000000E+000
  0.000000000000000E+000
  0.000000000000000E+000
  0.000000000000000E+000
  0.000000000000000E+000
  0.000000000000000E+000
  0.000000000000000E+000
  0.000000000000000E+000
  0.000000000000000E+000
  0.000000000000000E+000
  0.000000000000000E+000
  0.000000000000000E+000
  0.000000000000000E+000
  0.000000000000000E+000
  0.000000000000000E+000
  0.000000000000000E+000
  0.000000000000000E+000
  0.000000000000000E+000
  0.000000000000000E+000
  0.000000000000000E+000
  0.000000000000000E+000
  0.000000000000000E+000
  0.000000000000000E+000
  0.000000000000000E+000
  0.000000000000000E+000
  0.000000000000000E+000
  0.000000000000000E+000
  0.000000000000000E+000
  0.000000000000000E+000
  0.000000000000000E+000
  0.000000000000000E+000
  0.000000000000000E+000
  0.000000000000000E+000
  0.000000000000000E+000
  0.000000000000000E+000
  0.000000000000000E+000
  0.000000000000000E+000
  0.000000000000000E+000
  0.000000000000000E+000
SCALARS poroP double 
LOOKUP_TABLE default
  4.324036093766150E-005
  2.758120039050942E-005
  1.528233820764875E-005
  5.475861794800918E-006
  5.867370411388486E-008
  0.000000000000000E+000
  0.000000000000000E+000
  0.000000000000000E+000
  0.000000000000000E+000
  0.000000000000000E+000
  0.000000000000000E+000
  0.000000000000000E+000
  0.000000000000000E+000
  0.000000000000000E+000
  0.000000000000000E+000
  1.934727938973344E-005
  1.064368463930268E-005
  3.123156150731041E-006
  0.000000000000000E+000
  0.000000000000000E+000
  0.000000000000000E+000
  0.000000000000000E+000
  0.000000000000000E+000
  0.000000000000000E+000
  0.000000000000000E+000
  0.000000000000000E+000
  0.000000000000000E+000
  0.000000000000000E+000
  0.000000000000000E+000
  0.000000000000000E+000
  4.137752266584268E-006
  1.068979626933299E-007
  0.000000000000000E+000
  0.000000000000000E+000
  0.000000000000000E+000
  0.000000000000000E+000
  0.000000000000000E+000
  0.000000000000000E+000
  0.000000000000000E+000
  0.000000000000000E+000
  0.000000000000000E+000
  0.000000000000000E+000
  0.000000000000000E+000
  0.000000000000000E+000
  0.000000000000000E+000
  0.000000000000000E+000
  0.000000000000000E+000
  0.000000000000000E+000
  0.000000000000000E+000
  0.000000000000000E+000
  0.000000000000000E+000
  0.000000000000000E+000
  0.000000000000000E+000
  0.000000000000000E+000
  0.000000000000000E+000
  0.000000000000000E+000
  0.000000000000000E+000
  0.000000000000000E+000
  0.000000000000000E+000
  0.000000000000000E+000
  0.000000000000000E+000
  0.000000000000000E+000
  0.000000000000000E+000
  0.000000000000000E+000
  0.000000000000000E+000
  0.000000000000000E+000
  0.000000000000000E+000
  0.000000000000000E+000
  0.000000000000000E+000
  0.000000000000000E+000
  0.000000000000000E+000
  0.000000000000000E+000
  0.000000000000000E+000
  0.000000000000000E+000
  0.000000000000000E+000
  0.000000000000000E+000
  0.000000000000000E+000
  0.000000000000000E+000
  0.000000000000000E+000
  0.000000000000000E+000
  0.000000000000000E+000
  0.000000000000000E+000
  0.000000000000000E+000
  0.000000000000000E+000
  0.000000000000000E+000
  0.000000000000000E+000
  0.000000000000000E+000
  0.000000000000000E+000
  0.000000000000000E+000
  0.000000000000000E+000
  0.000000000000000E+000
  0.000000000000000E+000
  0.000000000000000E+000
  0.000000000000000E+000
  0.000000000000000E+000
  0.000000000000000E+000
  0.000000000000000E+000
  0.000000000000000E+000
  0.000000000000000E+000
  0.000000000000000E+000
  0.000000000000000E+000
  0.000000000000000E+000
  0.000000000000000E+000
  0.000000000000000E+000
  0.000000000000000E+000
  0.000000000000000E+000
  0.000000000000000E+000
  0.000000000000000E+000
  0.000000000000000E+000
  0.000000000000000E+000
  0.000000000000000E+000
  0.000000000000000E+000
  0.000000000000000E+000
  0.000000000000000E+000
  0.000000000000000E+000
  0.000000000000000E+000
  0.000000000000000E+000
  0.000000000000000E+000
  0.000000000000000E+000
  0.000000000000000E+000
  0.000000000000000E+000
  0.000000000000000E+000
  0.000000000000000E+000
  0.000000000000000E+000
  0.000000000000000E+000
  0.000000000000000E+000
  0.000000000000000E+000
  0.000000000000000E+000
  0.000000000000000E+000
  0.000000000000000E+000
  0.000000000000000E+000
  0.000000000000000E+000
  0.000000000000000E+000
  0.000000000000000E+000
  0.000000000000000E+000
  0.000000000000000E+000
  0.000000000000000E+000
  0.000000000000000E+000
  0.000000000000000E+000
  0.000000000000000E+000
  0.000000000000000E+000
  0.000000000000000E+000
  0.000000000000000E+000
  0.000000000000000E+000
  0.000000000000000E+000
  0.000000000000000E+000
  0.000000000000000E+000
  0.000000000000000E+000
  0.000000000000000E+000
  0.000000000000000E+000
  0.000000000000000E+000
  0.000000000000000E+000
  0.000000000000000E+000
  0.000000000000000E+000
  0.000000000000000E+000
  0.000000000000000E+000
  0.000000000000000E+000
  0.000000000000000E+000
  0.000000000000000E+000
  0.000000000000000E+000
  0.000000000000000E+000
  0.000000000000000E+000
  0.000000000000000E+000
  0.000000000000000E+000
  0.000000000000000E+000
  0.000000000000000E+000
  0.000000000000000E+000
  0.000000000000000E+000
  0.000000000000000E+000
  0.000000000000000E+000
  0.000000000000000E+000
  0.000000000000000E+000
  0.000000000000000E+000
  0.000000000000000E+000
  0.000000000000000E+000
  0.000000000000000E+000
  0.000000000000000E+000
  0.000000000000000E+000
  0.000000000000000E+000
  0.000000000000000E+000
  0.000000000000000E+000
  0.000000000000000E+000
  0.000000000000000E+000
  0.000000000000000E+000
  0.000000000000000E+000
  0.000000000000000E+000
  0.000000000000000E+000
  0.000000000000000E+000
  0.000000000000000E+000
  0.000000000000000E+000
  0.000000000000000E+000
  0.000000000000000E+000
  0.000000000000000E+000
  0.000000000000000E+000
  0.000000000000000E+000
  0.000000000000000E+000
  0.000000000000000E+000
  0.000000000000000E+000
  0.000000000000000E+000
  0.000000000000000E+000
  0.000000000000000E+000
  0.000000000000000E+000
  0.000000000000000E+000
  0.000000000000000E+000
  0.000000000000000E+000
  0.000000000000000E+000
  0.000000000000000E+000
  0.000000000000000E+000
  0.000000000000000E+000
  0.000000000000000E+000
  0.000000000000000E+000
  0.000000000000000E+000
  0.000000000000000E+000
  0.000000000000000E+000
  0.000000000000000E+000
  0.000000000000000E+000
  0.000000000000000E+000
  0.000000000000000E+000
  0.000000000000000E+000
  0.000000000000000E+000
  0.000000000000000E+000
  0.000000000000000E+000
  0.000000000000000E+000
  0.000000000000000E+000
  0.000000000000000E+000
  0.000000000000000E+000
  0.000000000000000E+000
  0.000000000000000E+000
  0.000000000000000E+000
  0.000000000000000E+000
  0.000000000000000E+000
  0.000000000000000E+000
  0.000000000000000E+000
  0.000000000000000E+000
  0.000000000000000E+000
  0.000000000000000E+000
  0.000000000000000E+000
  0.000000000000000E+000
  0.000000000000000E+000
  0.000000000000000E+000
  0.000000000000000E+000
  0.000000000000000E+000
  0.000000000000000E+000
  0.000000000000000E+000
  0.000000000000000E+000
  0.000000000000000E+000
  0.000000000000000E+000
  0.000000000000000E+000
  0.000000000000000E+000
  0.000000000000000E+000
  0.000000000000000E+000
  0.000000000000000E+000
  0.000000000000000E+000
  0.000000000000000E+000
  0.000000000000000E+000
  0.000000000000000E+000
  0.000000000000000E+000
  0.000000000000000E+000
  0.000000000000000E+000
  0.000000000000000E+000
  0.000000000000000E+000
  0.000000000000000E+000
  0.000000000000000E+000
  0.000000000000000E+000
  0.000000000000000E+000
  0.000000000000000E+000
  0.000000000000000E+000
  0.000000000000000E+000
  0.000000000000000E+000
  0.000000000000000E+000
  0.000000000000000E+000
  0.000000000000000E+000
  0.000000000000000E+000
  0.000000000000000E+000
  0.000000000000000E+000
  0.000000000000000E+000
  0.000000000000000E+000
  0.000000000000000E+000
  0.000000000000000E+000
  0.000000000000000E+000
  0.000000000000000E+000
  0.000000000000000E+000
  0.000000000000000E+000
  0.000000000000000E+000
  0.000000000000000E+000
  0.000000000000000E+000
  0.000000000000000E+000
  0.000000000000000E+000
  0.000000000000000E+000
  0.000000000000000E+000
  0.000000000000000E+000
  0.000000000000000E+000
  0.000000000000000E+000
  0.000000000000000E+000
  0.000000000000000E+000
  0.000000000000000E+000
  0.000000000000000E+000
  0.000000000000000E+000
  0.000000000000000E+000
  0.000000000000000E+000
  0.000000000000000E+000
  0.000000000000000E+000
  0.000000000000000E+000
  0.000000000000000E+000
  0.000000000000000E+000
  0.000000000000000E+000
  0.000000000000000E+000
  0.000000000000000E+000
  0.000000000000000E+000
  0.000000000000000E+000
  0.000000000000000E+000
  0.000000000000000E+000
  0.000000000000000E+000
  0.000000000000000E+000
  0.000000000000000E+000
  0.000000000000000E+000
  0.000000000000000E+000
  0.000000000000000E+000
  0.000000000000000E+000
  0.000000000000000E+000
  0.000000000000000E+000
  0.000000000000000E+000
  0.000000000000000E+000
  0.000000000000000E+000
  0.000000000000000E+000
  0.000000000000000E+000
  0.000000000000000E+000
  0.000000000000000E+000
  0.000000000000000E+000
  0.000000000000000E+000
  0.000000000000000E+000
  0.000000000000000E+000
  0.000000000000000E+000
  0.000000000000000E+000
  0.000000000000000E+000
  0.000000000000000E+000
  0.000000000000000E+000
  0.000000000000000E+000
  0.000000000000000E+000
  0.000000000000000E+000
  0.000000000000000E+000
  0.000000000000000E+000
  0.000000000000000E+000
  0.000000000000000E+000
  0.000000000000000E+000
  0.000000000000000E+000
  0.000000000000000E+000
  0.000000000000000E+000
  0.000000000000000E+000
  0.000000000000000E+000
  0.000000000000000E+000
  0.000000000000000E+000
  0.000000000000000E+000
  0.000000000000000E+000
  0.000000000000000E+000
  0.000000000000000E+000
  0.000000000000000E+000
  0.000000000000000E+000
  0.000000000000000E+000
  0.000000000000000E+000
  0.000000000000000E+000
  0.000000000000000E+000
  0.000000000000000E+000
  0.000000000000000E+000
  0.000000000000000E+000
  0.000000000000000E+000
  0.000000000000000E+000
  0.000000000000000E+000
  0.000000000000000E+000
  0.000000000000000E+000
  0.000000000000000E+000
  0.000000000000000E+000
  0.000000000000000E+000
  0.000000000000000E+000
  0.000000000000000E+000
  0.000000000000000E+000
  0.000000000000000E+000
  0.000000000000000E+000
  0.000000000000000E+000
  0.000000000000000E+000
  0.000000000000000E+000
  0.000000000000000E+000
  0.000000000000000E+000
  0.000000000000000E+000
  0.000000000000000E+000
  0.000000000000000E+000
  0.000000000000000E+000
  0.000000000000000E+000
  0.000000000000000E+000
  0.000000000000000E+000
  0.000000000000000E+000
  0.000000000000000E+000
  0.000000000000000E+000
  0.000000000000000E+000
  0.000000000000000E+000
  0.000000000000000E+000
  0.000000000000000E+000
  0.000000000000000E+000
  0.000000000000000E+000
  0.000000000000000E+000
  0.000000000000000E+000
  0.000000000000000E+000
  0.000000000000000E+000
  0.000000000000000E+000
  0.000000000000000E+000
  0.000000000000000E+000
  0.000000000000000E+000
  0.000000000000000E+000
  0.000000000000000E+000
  0.000000000000000E+000
  0.000000000000000E+000
  0.000000000000000E+000
  0.000000000000000E+000
  0.000000000000000E+000
  0.000000000000000E+000
  0.000000000000000E+000
  0.000000000000000E+000
  0.000000000000000E+000
  0.000000000000000E+000
  0.000000000000000E+000
  0.000000000000000E+000
  0.000000000000000E+000
  0.000000000000000E+000
  0.000000000000000E+000
  0.000000000000000E+000
  0.000000000000000E+000
  0.000000000000000E+000
  0.000000000000000E+000
  0.000000000000000E+000
  0.000000000000000E+000
  0.000000000000000E+000
  0.000000000000000E+000
  0.000000000000000E+000
  0.000000000000000E+000
  0.000000000000000E+000
  0.000000000000000E+000
  0.000000000000000E+000
  0.000000000000000E+000
  0.000000000000000E+000
  0.000000000000000E+000
  0.000000000000000E+000
  0.000000000000000E+000
  0.000000000000000E+000
  0.000000000000000E+000
  0.000000000000000E+000
  0.000000000000000E+000
  0.000000000000000E+000
  0.000000000000000E+000
  0.000000000000000E+000
  0.000000000000000E+000
SCALARS elementIsPlast double 
LOOKUP_TABLE default
  0.000000000000000E+000
  0.000000000000000E+000
  0.000000000000000E+000
  0.000000000000000E+000
  0.000000000000000E+000
  0.000000000000000E+000
  0.000000000000000E+000
  0.000000000000000E+000
  0.000000000000000E+000
  0.000000000000000E+000
  0.000000000000000E+000
  0.000000000000000E+000
  0.000000000000000E+000
  0.000000000000000E+000
  0.000000000000000E+000
  0.000000000000000E+000
  0.000000000000000E+000
   1.00000000000000     
  0.000000000000000E+000
  0.000000000000000E+000
  0.000000000000000E+000
  0.000000000000000E+000
  0.000000000000000E+000
  0.000000000000000E+000
  0.000000000000000E+000
  0.000000000000000E+000
  0.000000000000000E+000
  0.000000000000000E+000
  0.000000000000000E+000
  0.000000000000000E+000
   1.00000000000000     
   1.00000000000000     
  0.000000000000000E+000
  0.000000000000000E+000
  0.000000000000000E+000
  0.000000000000000E+000
  0.000000000000000E+000
  0.000000000000000E+000
  0.000000000000000E+000
  0.000000000000000E+000
  0.000000000000000E+000
  0.000000000000000E+000
  0.000000000000000E+000
  0.000000000000000E+000
  0.000000000000000E+000
  0.000000000000000E+000
  0.000000000000000E+000
  0.000000000000000E+000
  0.000000000000000E+000
  0.000000000000000E+000
  0.000000000000000E+000
  0.000000000000000E+000
  0.000000000000000E+000
  0.000000000000000E+000
  0.000000000000000E+000
  0.000000000000000E+000
  0.000000000000000E+000
  0.000000000000000E+000
  0.000000000000000E+000
  0.000000000000000E+000
  0.000000000000000E+000
  0.000000000000000E+000
  0.000000000000000E+000
  0.000000000000000E+000
  0.000000000000000E+000
  0.000000000000000E+000
  0.000000000000000E+000
  0.000000000000000E+000
  0.000000000000000E+000
  0.000000000000000E+000
  0.000000000000000E+000
  0.000000000000000E+000
  0.000000000000000E+000
  0.000000000000000E+000
  0.000000000000000E+000
  0.000000000000000E+000
  0.000000000000000E+000
  0.000000000000000E+000
  0.000000000000000E+000
  0.000000000000000E+000
  0.000000000000000E+000
  0.000000000000000E+000
  0.000000000000000E+000
  0.000000000000000E+000
  0.000000000000000E+000
  0.000000000000000E+000
  0.000000000000000E+000
  0.000000000000000E+000
  0.000000000000000E+000
  0.000000000000000E+000
  0.000000000000000E+000
  0.000000000000000E+000
  0.000000000000000E+000
  0.000000000000000E+000
  0.000000000000000E+000
  0.000000000000000E+000
  0.000000000000000E+000
  0.000000000000000E+000
  0.000000000000000E+000
  0.000000000000000E+000
  0.000000000000000E+000
  0.000000000000000E+000
  0.000000000000000E+000
  0.000000000000000E+000
  0.000000000000000E+000
  0.000000000000000E+000
  0.000000000000000E+000
  0.000000000000000E+000
  0.000000000000000E+000
  0.000000000000000E+000
  0.000000000000000E+000
  0.000000000000000E+000
  0.000000000000000E+000
  0.000000000000000E+000
  0.000000000000000E+000
  0.000000000000000E+000
  0.000000000000000E+000
  0.000000000000000E+000
  0.000000000000000E+000
  0.000000000000000E+000
  0.000000000000000E+000
  0.000000000000000E+000
  0.000000000000000E+000
  0.000000000000000E+000
  0.000000000000000E+000
  0.000000000000000E+000
  0.000000000000000E+000
  0.000000000000000E+000
  0.000000000000000E+000
  0.000000000000000E+000
  0.000000000000000E+000
  0.000000000000000E+000
  0.000000000000000E+000
  0.000000000000000E+000
  0.000000000000000E+000
  0.000000000000000E+000
  0.000000000000000E+000
  0.000000000000000E+000
  0.000000000000000E+000
  0.000000000000000E+000
  0.000000000000000E+000
  0.000000000000000E+000
  0.000000000000000E+000
  0.000000000000000E+000
  0.000000000000000E+000
  0.000000000000000E+000
  0.000000000000000E+000
  0.000000000000000E+000
  0.000000000000000E+000
  0.000000000000000E+000
  0.000000000000000E+000
  0.000000000000000E+000
  0.000000000000000E+000
  0.000000000000000E+000
  0.000000000000000E+000
  0.000000000000000E+000
  0.000000000000000E+000
  0.000000000000000E+000
  0.000000000000000E+000
  0.000000000000000E+000
  0.000000000000000E+000
  0.000000000000000E+000
  0.000000000000000E+000
  0.000000000000000E+000
  0.000000000000000E+000
  0.000000000000000E+000
  0.000000000000000E+000
  0.000000000000000E+000
  0.000000000000000E+000
  0.000000000000000E+000
  0.000000000000000E+000
  0.000000000000000E+000
  0.000000000000000E+000
  0.000000000000000E+000
  0.000000000000000E+000
  0.000000000000000E+000
  0.000000000000000E+000
  0.000000000000000E+000
  0.000000000000000E+000
  0.000000000000000E+000
  0.000000000000000E+000
  0.000000000000000E+000
  0.000000000000000E+000
  0.000000000000000E+000
  0.000000000000000E+000
  0.000000000000000E+000
  0.000000000000000E+000
  0.000000000000000E+000
  0.000000000000000E+000
  0.000000000000000E+000
  0.000000000000000E+000
  0.000000000000000E+000
  0.000000000000000E+000
  0.000000000000000E+000
  0.000000000000000E+000
  0.000000000000000E+000
  0.000000000000000E+000
  0.000000000000000E+000
  0.000000000000000E+000
  0.000000000000000E+000
  0.000000000000000E+000
  0.000000000000000E+000
  0.000000000000000E+000
  0.000000000000000E+000
  0.000000000000000E+000
  0.000000000000000E+000
  0.000000000000000E+000
  0.000000000000000E+000
  0.000000000000000E+000
  0.000000000000000E+000
  0.000000000000000E+000
  0.000000000000000E+000
  0.000000000000000E+000
  0.000000000000000E+000
  0.000000000000000E+000
  0.000000000000000E+000
  0.000000000000000E+000
  0.000000000000000E+000
  0.000000000000000E+000
  0.000000000000000E+000
  0.000000000000000E+000
  0.000000000000000E+000
  0.000000000000000E+000
  0.000000000000000E+000
  0.000000000000000E+000
  0.000000000000000E+000
  0.000000000000000E+000
  0.000000000000000E+000
  0.000000000000000E+000
  0.000000000000000E+000
  0.000000000000000E+000
  0.000000000000000E+000
  0.000000000000000E+000
  0.000000000000000E+000
  0.000000000000000E+000
  0.000000000000000E+000
  0.000000000000000E+000
  0.000000000000000E+000
  0.000000000000000E+000
  0.000000000000000E+000
  0.000000000000000E+000
  0.000000000000000E+000
  0.000000000000000E+000
  0.000000000000000E+000
  0.000000000000000E+000
  0.000000000000000E+000
  0.000000000000000E+000
  0.000000000000000E+000
  0.000000000000000E+000
  0.000000000000000E+000
  0.000000000000000E+000
  0.000000000000000E+000
  0.000000000000000E+000
  0.000000000000000E+000
  0.000000000000000E+000
  0.000000000000000E+000
  0.000000000000000E+000
  0.000000000000000E+000
  0.000000000000000E+000
  0.000000000000000E+000
  0.000000000000000E+000
  0.000000000000000E+000
  0.000000000000000E+000
  0.000000000000000E+000
  0.000000000000000E+000
  0.000000000000000E+000
  0.000000000000000E+000
  0.000000000000000E+000
  0.000000000000000E+000
  0.000000000000000E+000
  0.000000000000000E+000
  0.000000000000000E+000
  0.000000000000000E+000
  0.000000000000000E+000
  0.000000000000000E+000
  0.000000000000000E+000
  0.000000000000000E+000
  0.000000000000000E+000
  0.000000000000000E+000
  0.000000000000000E+000
  0.000000000000000E+000
  0.000000000000000E+000
  0.000000000000000E+000
  0.000000000000000E+000
  0.000000000000000E+000
  0.000000000000000E+000
  0.000000000000000E+000
  0.000000000000000E+000
  0.000000000000000E+000
  0.000000000000000E+000
  0.000000000000000E+000
  0.000000000000000E+000
  0.000000000000000E+000
  0.000000000000000E+000
  0.000000000000000E+000
  0.000000000000000E+000
  0.000000000000000E+000
  0.000000000000000E+000
  0.000000000000000E+000
  0.000000000000000E+000
  0.000000000000000E+000
  0.000000000000000E+000
  0.000000000000000E+000
  0.000000000000000E+000
  0.000000000000000E+000
  0.000000000000000E+000
  0.000000000000000E+000
  0.000000000000000E+000
  0.000000000000000E+000
  0.000000000000000E+000
  0.000000000000000E+000
  0.000000000000000E+000
  0.000000000000000E+000
  0.000000000000000E+000
  0.000000000000000E+000
  0.000000000000000E+000
  0.000000000000000E+000
  0.000000000000000E+000
  0.000000000000000E+000
  0.000000000000000E+000
  0.000000000000000E+000
  0.000000000000000E+000
  0.000000000000000E+000
  0.000000000000000E+000
  0.000000000000000E+000
  0.000000000000000E+000
  0.000000000000000E+000
  0.000000000000000E+000
  0.000000000000000E+000
  0.000000000000000E+000
  0.000000000000000E+000
  0.000000000000000E+000
  0.000000000000000E+000
  0.000000000000000E+000
  0.000000000000000E+000
  0.000000000000000E+000
  0.000000000000000E+000
  0.000000000000000E+000
  0.000000000000000E+000
  0.000000000000000E+000
  0.000000000000000E+000
  0.000000000000000E+000
  0.000000000000000E+000
  0.000000000000000E+000
  0.000000000000000E+000
  0.000000000000000E+000
  0.000000000000000E+000
  0.000000000000000E+000
  0.000000000000000E+000
  0.000000000000000E+000
  0.000000000000000E+000
  0.000000000000000E+000
  0.000000000000000E+000
  0.000000000000000E+000
  0.000000000000000E+000
  0.000000000000000E+000
  0.000000000000000E+000
  0.000000000000000E+000
  0.000000000000000E+000
  0.000000000000000E+000
  0.000000000000000E+000
  0.000000000000000E+000
  0.000000000000000E+000
  0.000000000000000E+000
  0.000000000000000E+000
  0.000000000000000E+000
  0.000000000000000E+000
  0.000000000000000E+000
  0.000000000000000E+000
  0.000000000000000E+000
  0.000000000000000E+000
  0.000000000000000E+000
  0.000000000000000E+000
  0.000000000000000E+000
  0.000000000000000E+000
  0.000000000000000E+000
  0.000000000000000E+000
  0.000000000000000E+000
  0.000000000000000E+000
  0.000000000000000E+000
  0.000000000000000E+000
  0.000000000000000E+000
  0.000000000000000E+000
  0.000000000000000E+000
  0.000000000000000E+000
  0.000000000000000E+000
  0.000000000000000E+000
  0.000000000000000E+000
  0.000000000000000E+000
  0.000000000000000E+000
  0.000000000000000E+000
  0.000000000000000E+000
  0.000000000000000E+000
  0.000000000000000E+000
  0.000000000000000E+000
  0.000000000000000E+000
  0.000000000000000E+000
  0.000000000000000E+000
  0.000000000000000E+000
  0.000000000000000E+000
  0.000000000000000E+000
  0.000000000000000E+000
  0.000000000000000E+000
  0.000000000000000E+000
  0.000000000000000E+000
  0.000000000000000E+000
  0.000000000000000E+000
  0.000000000000000E+000
  0.000000000000000E+000
  0.000000000000000E+000
  0.000000000000000E+000
  0.000000000000000E+000
  0.000000000000000E+000
  0.000000000000000E+000
  0.000000000000000E+000
  0.000000000000000E+000
  0.000000000000000E+000
  0.000000000000000E+000
  0.000000000000000E+000
  0.000000000000000E+000
  0.000000000000000E+000
  0.000000000000000E+000
  0.000000000000000E+000
  0.000000000000000E+000
  0.000000000000000E+000
  0.000000000000000E+000
  0.000000000000000E+000
  0.000000000000000E+000
  0.000000000000000E+000
  0.000000000000000E+000
  0.000000000000000E+000
  0.000000000000000E+000
  0.000000000000000E+000
  0.000000000000000E+000
  0.000000000000000E+000
  0.000000000000000E+000
  0.000000000000000E+000
  0.000000000000000E+000
  0.000000000000000E+000
  0.000000000000000E+000
  0.000000000000000E+000
  0.000000000000000E+000
  0.000000000000000E+000
  0.000000000000000E+000
  0.000000000000000E+000
  0.000000000000000E+000
  0.000000000000000E+000
  0.000000000000000E+000
  0.000000000000000E+000
  0.000000000000000E+000
SCALARS poroL double 
LOOKUP_TABLE default
  0.156298856238468     
  0.156272523420570     
  0.156244127991239     
  0.156216530815997     
  0.156194402527140     
  0.156180373072843     
  0.156169686522180     
  0.156160663925134     
  0.156152716817765     
  0.156145488738939     
  0.156138713875310     
  0.156132143107030     
  0.156125477034119     
  0.156118257001938     
  0.156109183914541     
  0.156238759605638     
  0.156221175507520     
  0.156202414023581     
  0.156188473176597     
  0.156177856008779     
  0.156167096978465     
  0.156157328544741     
  0.156148798466514     
  0.156141165071614     
  0.156134181009484     
  0.156127635453507     
  0.156121329310312     
  0.156115052195060     
  0.156108525243259     
  0.156102021013843     
  0.156196244608267     
  0.156183815408650     
  0.156177038624588     
  0.156169674183794     
  0.156160952764906     
  0.156152198643553     
  0.156143817241203     
  0.156136079332604     
  0.156128999415331     
  0.156122459160279     
  0.156116331543378     
  0.156110494812662     
  0.156104842315588     
  0.156099387350103     
  0.156094284351397     
  0.156171407206647     
  0.156165158204577     
  0.156158413432462     
  0.156151462035785     
  0.156144208013814     
  0.156136789706195     
  0.156129570382128     
  0.156122725557036     
  0.156116326891309     
  0.156110360893934     
  0.156104775718807     
  0.156099520068937     
  0.156094578283453     
  0.156089998289143     
  0.156085927337021     
  0.156152551569868     
  0.156146321895217     
  0.156140190099649     
  0.156133924498842     
  0.156127563466795     
  0.156121191333195     
  0.156114938744105     
  0.156108937916298     
  0.156103259536147     
  0.156097929036352     
  0.156092945687847     
  0.156088307958949     
  0.156084036535566     
  0.156080194656181     
  0.156076895806758     
  0.156133307235818     
  0.156127679231093     
  0.156122132288473     
  0.156116588277759     
  0.156111027873944     
  0.156105502655900     
  0.156100089121186     
  0.156094864861174     
  0.156089891541407     
  0.156085207394126     
  0.156080836861407     
  0.156076803947751     
  0.156073146326244     
  0.156069925537269     
  0.156067230810766     
  0.156113912191131     
  0.156109033467164     
  0.156104185782712     
  0.156099350779061     
  0.156094534578394     
  0.156089768966154     
  0.156085104740409     
  0.156080596792781     
  0.156076294480087     
  0.156072238335962     
  0.156068462485968     
  0.156065001540052     
  0.156061897931278     
  0.156059207245143     
  0.156056999293836     
  0.156094526276352     
  0.156090432441238     
  0.156086309266495     
  0.156082180636589     
  0.156078069421158     
  0.156074007253990     
  0.156070033507372     
  0.156066190945276     
  0.156062521029976     
  0.156059061927110     
  0.156055849540949     
  0.156052920575076     
  0.156050316149376     
  0.156048084189857     
  0.156046279386540     
  0.156075271119695     
  0.156071929841669     
  0.156068516659636     
  0.156065073744921     
  0.156061635316649     
  0.156058234656185     
  0.156054906699475     
  0.156051687402605     
  0.156048612353927     
  0.156045716002591     
  0.156043032124904     
  0.156040595247581     
  0.156038442237958     
  0.156036613178309     
  0.156035150790634     
  0.156056214057353     
  0.156053569628456     
  0.156050829218315     
  0.156048040767257     
  0.156045242462428     
  0.156042467942512     
  0.156039749129774     
  0.156037117261049     
  0.156034602984500     
  0.156032236387958     
  0.156030047357329     
  0.156028066240732     
  0.156026324477787     
  0.156024854736428     
  0.156023690179135     
  0.156037384778646     
  0.156035375810855     
  0.156033263342346     
  0.156031093312256     
  0.156028902605850     
  0.156026722618621     
  0.156024581726497     
  0.156022506687591     
  0.156020523346257     
  0.156018657031481     
  0.156016932906599     
  0.156015376308091     
  0.156014012940289     
  0.156012868714990     
  0.156011969051821     
  0.156018784918463     
  0.156017354015910     
  0.156015825434079     
  0.156014238493425     
  0.156012625015784     
  0.156011011758416     
  0.156009422325586     
  0.156007878481299     
  0.156006400968890     
  0.156005010014607     
  0.156003725651200     
  0.156002567908623     
  0.156001556831649     
  0.156000712239274     
  0.156000053150482     
  0.156000395605011     
  0.155999494397582     
  0.155998511579644     
  0.155997476991473     
  0.155996414824320     
  0.155995345266930     
  0.155994285904461     
  0.155993252770368     
  0.155992261063351     
  0.155991325598119     
  0.155990461062100     
  0.155989682118029     
  0.155989003353832     
  0.155988439057637     
  0.155988002798340     
  0.155982182984535     
  0.155981774982731     
  0.155981308871744     
  0.155980803204639     
  0.155980272800141     
  0.155979729845660     
  0.155979184868411     
  0.155978647489769     
  0.155978126945047     
  0.155977632395854     
  0.155977173078213     
  0.155976758323723     
  0.155976397475813     
  0.155976099710872     
  0.155975873772188     
  0.155964102576980     
  0.155964164854704     
  0.155964197428562     
  0.155964206397404     
  0.155964196039320     
  0.155964169536059     
  0.155964129599014     
  0.155964078932100     
  0.155964020514205     
  0.155963957720419     
  0.155963894320998     
  0.155963834401127     
  0.155963782238806     
  0.155963742169460     
  0.155963718459022     
  0.155946102880709     
  0.155946627119372     
  0.155947152655064     
  0.155947672359563     
  0.155948179199054     
  0.155948666697219     
  0.155949129280925     
  0.155949562463473     
  0.155949962862696     
  0.155950328085373     
  0.155950656530080     
  0.155950947167389     
  0.155951199352114     
  0.155951412711620     
  0.155951587140669     
  0.155928128494245     
  0.155929121673828     
  0.155930147586663     
  0.155931185333355     
  0.155932216068241     
  0.155933223292289     
  0.155934192963805     
  0.155935113400731     
  0.155935974996829     
  0.155936769811199     
  0.155937491111751     
  0.155938132958672     
  0.155938689906254     
  0.155939156884525     
  0.155939529299605     
  0.155910122905901     
  0.155911607828079     
  0.155913155270021     
  0.155914730112128     
  0.155916301371020     
  0.155917842403152     
  0.155919330805348     
  0.155920748008471     
  0.155922078625367     
  0.155923309658286     
  0.155924429691803     
  0.155925428197654     
  0.155926295062598     
  0.155927020423569     
  0.155927594859805     
  0.155892031037817     
  0.155894046837040     
  0.155896151201247     
  0.155898294299777     
  0.155900432774707     
  0.155902529936561     
  0.155904555452966     
  0.155906484563084     
  0.155908296942259     
  0.155909975393257     
  0.155911504556271     
  0.155912869819748     
  0.155914056586869     
  0.155915050012825     
  0.155915835277817     
  0.155873801595007     
  0.155876404415455     
  0.155879115895844     
  0.155881870790728     
  0.155884613137207     
  0.155887296527854     
  0.155889883540364     
  0.155892344430365     
  0.155894655321539     
  0.155896796178928     
  0.155898748848367     
  0.155900495414021     
  0.155902017083961     
  0.155903293761026     
  0.155904304388466     
  0.155855389256742     
  0.155858653346990     
  0.155862037736906     
  0.155865460610673     
  0.155868853096429     
  0.155872159691798     
  0.155875337294052     
  0.155878353103131     
  0.155881181829458     
  0.155883802658386     
  0.155886196365388     
  0.155888342907923     
  0.155890219765110     
  0.155891801244498     
  0.155893058891134     
  0.155836756759879     
  0.155840776383446     
  0.155844916368417     
  0.155849076372891     
  0.155853174185821     
  0.155857146311819     
  0.155860946255444     
  0.155864541137546     
  0.155867907441527     
  0.155871026577935     
  0.155873880764094     
  0.155876449580272     
  0.155878707531462     
  0.155880622928816     
  0.155882158339059     
  0.155817876979248     
  0.155822769808491     
  0.155827767118672     
  0.155832746783669     
  0.155837612758804     
  0.155842295584606     
  0.155846749109377     
  0.155850944902602     
  0.155854865829488     
  0.155858499767315     
  0.155861833936832     
  0.155864850118482     
  0.155867521075549     
  0.155869808713763     
  0.155871664463617     
  0.155798735260321     
  0.155804648417681     
  0.155810627355972     
  0.155816522912902     
  0.155822225100875     
  0.155827662499940     
  0.155832795532392     
  0.155837607004244     
  0.155842092570707     
  0.155846252284998     
  0.155850083279961     
  0.155853573323310     
  0.155856695558233     
  0.155859405211039     
  0.155861639622447     
  0.155779332616024     
  0.155786453530159     
  0.155793566498798     
  0.155800487375885     
  0.155807094105897     
  0.155813321709910     
  0.155819147763528     
  0.155824576162796     
  0.155829623659476     
  0.155834309624636     
  0.155838647544959     
  0.155842636930252     
  0.155846255089604     
  0.155849451106916     
  0.155852144043651     
  0.155759691471895     
  0.155768267668316     
  0.155776703145629     
  0.155784768068487     
  0.155792337430255     
  0.155799370982094     
  0.155805881145477     
  0.155811906228511     
  0.155817493412730     
  0.155822689085893     
  0.155827531251224     
  0.155832039613614     
  0.155836203803276     
  0.155839969093569     
  0.155843231385489     
  0.155739868223674     
  0.155750245656850     
  0.155760236100279     
  0.155769557854106     
  0.155778115202295     
  0.155785931708300     
  0.155793082429661     
  0.155799653992895     
  0.155805732110738     
  0.155811396561901     
  0.155816717682904     
  0.155821750086344     
  0.155826509724677     
  0.155830952086957     
  0.155834940585439     
  0.155719992972299     
  0.155732686983315     
  0.155744502482453     
  0.155755136769463     
  0.155764627815904     
  0.155773143154718     
  0.155780844336327     
  0.155787875585895     
  0.155794364184156     
  0.155800425258567     
  0.155806166395911     
  0.155811688549349     
  0.155817081806881     
  0.155822328598695     
  0.155827284121131     
  0.155700394182767     
  0.155716248888257     
  0.155730067708359     
  0.155741850657898     
  0.155752096630134     
  0.155761146683141     
  0.155769255810369     
  0.155776621620074     
  0.155783407555370     
  0.155789759109155     
  0.155795817534564     
  0.155801734902783     
  0.155807687182852     
  0.155813923161017     
  0.155820186543095     
  0.155682559725853     
  0.155702439788012     
  0.155717561848817     
  0.155730045882468     
  0.155740719015115     
  0.155750061621672     
  0.155758389037214     
  0.155765931770252     
  0.155772874480959     
  0.155779380339358     
  0.155785611192934     
  0.155791751635925     
  0.155798053730975     
  0.155804930154511     
  0.155813583373535     
