# vtk DataFile Version 3.0
vtk output
ASCII
DATASET UNSTRUCTURED_GRID
POINTS       496 double 
  0.00000000E+00  3.00000000E+02  0.00000000E+00
  0.00000000E+00  2.80000000E+02  0.00000000E+00
  0.00000000E+00  2.60000000E+02  0.00000000E+00
  0.00000000E+00  2.40000000E+02  0.00000000E+00
  0.00000000E+00  2.20000000E+02  0.00000000E+00
  0.00000000E+00  2.00000000E+02  0.00000000E+00
  0.00000000E+00  1.80000000E+02  0.00000000E+00
  0.00000000E+00  1.60000000E+02  0.00000000E+00
  0.00000000E+00  1.40000000E+02  0.00000000E+00
  0.00000000E+00  1.20000000E+02  0.00000000E+00
  0.00000000E+00  1.00000000E+02  0.00000000E+00
  0.00000000E+00  8.00000000E+01  0.00000000E+00
  0.00000000E+00  6.00000000E+01  0.00000000E+00
  0.00000000E+00  4.00000000E+01  0.00000000E+00
  0.00000000E+00  2.00000000E+01  0.00000000E+00
  0.00000000E+00  4.99600361E-14  0.00000000E+00
  2.00000000E+01  3.00000000E+02  0.00000000E+00
  2.00000000E+01  2.80000000E+02  0.00000000E+00
  2.00000000E+01  2.60000000E+02  0.00000000E+00
  2.00000000E+01  2.40000000E+02  0.00000000E+00
  2.00000000E+01  2.20000000E+02  0.00000000E+00
  2.00000000E+01  2.00000000E+02  0.00000000E+00
  2.00000000E+01  1.80000000E+02  0.00000000E+00
  2.00000000E+01  1.60000000E+02  0.00000000E+00
  2.00000000E+01  1.40000000E+02  0.00000000E+00
  2.00000000E+01  1.20000000E+02  0.00000000E+00
  2.00000000E+01  1.00000000E+02  0.00000000E+00
  2.00000000E+01  8.00000000E+01  0.00000000E+00
  2.00000000E+01  6.00000000E+01  0.00000000E+00
  2.00000000E+01  4.00000000E+01  0.00000000E+00
  2.00000000E+01  2.00000000E+01  0.00000000E+00
  2.00000000E+01  4.99600361E-14  0.00000000E+00
  4.00000000E+01  3.00000000E+02  0.00000000E+00
  4.00000000E+01  2.80000000E+02  0.00000000E+00
  4.00000000E+01  2.60000000E+02  0.00000000E+00
  4.00000000E+01  2.40000000E+02  0.00000000E+00
  4.00000000E+01  2.20000000E+02  0.00000000E+00
  4.00000000E+01  2.00000000E+02  0.00000000E+00
  4.00000000E+01  1.80000000E+02  0.00000000E+00
  4.00000000E+01  1.60000000E+02  0.00000000E+00
  4.00000000E+01  1.40000000E+02  0.00000000E+00
  4.00000000E+01  1.20000000E+02  0.00000000E+00
  4.00000000E+01  1.00000000E+02  0.00000000E+00
  4.00000000E+01  8.00000000E+01  0.00000000E+00
  4.00000000E+01  6.00000000E+01  0.00000000E+00
  4.00000000E+01  4.00000000E+01  0.00000000E+00
  4.00000000E+01  2.00000000E+01  0.00000000E+00
  4.00000000E+01  4.99600361E-14  0.00000000E+00
  6.00000000E+01  3.00000000E+02  0.00000000E+00
  6.00000000E+01  2.80000000E+02  0.00000000E+00
  6.00000000E+01  2.60000000E+02  0.00000000E+00
  6.00000000E+01  2.40000000E+02  0.00000000E+00
  6.00000000E+01  2.20000000E+02  0.00000000E+00
  6.00000000E+01  2.00000000E+02  0.00000000E+00
  6.00000000E+01  1.80000000E+02  0.00000000E+00
  6.00000000E+01  1.60000000E+02  0.00000000E+00
  6.00000000E+01  1.40000000E+02  0.00000000E+00
  6.00000000E+01  1.20000000E+02  0.00000000E+00
  6.00000000E+01  1.00000000E+02  0.00000000E+00
  6.00000000E+01  8.00000000E+01  0.00000000E+00
  6.00000000E+01  6.00000000E+01  0.00000000E+00
  6.00000000E+01  4.00000000E+01  0.00000000E+00
  6.00000000E+01  2.00000000E+01  0.00000000E+00
  6.00000000E+01  4.99600361E-14  0.00000000E+00
  8.00000000E+01  3.00000000E+02  0.00000000E+00
  8.00000000E+01  2.80000000E+02  0.00000000E+00
  8.00000000E+01  2.60000000E+02  0.00000000E+00
  8.00000000E+01  2.40000000E+02  0.00000000E+00
  8.00000000E+01  2.20000000E+02  0.00000000E+00
  8.00000000E+01  2.00000000E+02  0.00000000E+00
  8.00000000E+01  1.80000000E+02  0.00000000E+00
  8.00000000E+01  1.60000000E+02  0.00000000E+00
  8.00000000E+01  1.40000000E+02  0.00000000E+00
  8.00000000E+01  1.20000000E+02  0.00000000E+00
  8.00000000E+01  1.00000000E+02  0.00000000E+00
  8.00000000E+01  8.00000000E+01  0.00000000E+00
  8.00000000E+01  6.00000000E+01  0.00000000E+00
  8.00000000E+01  4.00000000E+01  0.00000000E+00
  8.00000000E+01  2.00000000E+01  0.00000000E+00
  8.00000000E+01  4.99600361E-14  0.00000000E+00
  1.00000000E+02  3.00000000E+02  0.00000000E+00
  1.00000000E+02  2.80000000E+02  0.00000000E+00
  1.00000000E+02  2.60000000E+02  0.00000000E+00
  1.00000000E+02  2.40000000E+02  0.00000000E+00
  1.00000000E+02  2.20000000E+02  0.00000000E+00
  1.00000000E+02  2.00000000E+02  0.00000000E+00
  1.00000000E+02  1.80000000E+02  0.00000000E+00
  1.00000000E+02  1.60000000E+02  0.00000000E+00
  1.00000000E+02  1.40000000E+02  0.00000000E+00
  1.00000000E+02  1.20000000E+02  0.00000000E+00
  1.00000000E+02  1.00000000E+02  0.00000000E+00
  1.00000000E+02  8.00000000E+01  0.00000000E+00
  1.00000000E+02  6.00000000E+01  0.00000000E+00
  1.00000000E+02  4.00000000E+01  0.00000000E+00
  1.00000000E+02  2.00000000E+01  0.00000000E+00
  1.00000000E+02  4.99600361E-14  0.00000000E+00
  1.20000000E+02  3.00000000E+02  0.00000000E+00
  1.20000000E+02  2.80000000E+02  0.00000000E+00
  1.20000000E+02  2.60000000E+02  0.00000000E+00
  1.20000000E+02  2.40000000E+02  0.00000000E+00
  1.20000000E+02  2.20000000E+02  0.00000000E+00
  1.20000000E+02  2.00000000E+02  0.00000000E+00
  1.20000000E+02  1.80000000E+02  0.00000000E+00
  1.20000000E+02  1.60000000E+02  0.00000000E+00
  1.20000000E+02  1.40000000E+02  0.00000000E+00
  1.20000000E+02  1.20000000E+02  0.00000000E+00
  1.20000000E+02  1.00000000E+02  0.00000000E+00
  1.20000000E+02  8.00000000E+01  0.00000000E+00
  1.20000000E+02  6.00000000E+01  0.00000000E+00
  1.20000000E+02  4.00000000E+01  0.00000000E+00
  1.20000000E+02  2.00000000E+01  0.00000000E+00
  1.20000000E+02  4.99600361E-14  0.00000000E+00
  1.40000000E+02  3.00000000E+02  0.00000000E+00
  1.40000000E+02  2.80000000E+02  0.00000000E+00
  1.40000000E+02  2.60000000E+02  0.00000000E+00
  1.40000000E+02  2.40000000E+02  0.00000000E+00
  1.40000000E+02  2.20000000E+02  0.00000000E+00
  1.40000000E+02  2.00000000E+02  0.00000000E+00
  1.40000000E+02  1.80000000E+02  0.00000000E+00
  1.40000000E+02  1.60000000E+02  0.00000000E+00
  1.40000000E+02  1.40000000E+02  0.00000000E+00
  1.40000000E+02  1.20000000E+02  0.00000000E+00
  1.40000000E+02  1.00000000E+02  0.00000000E+00
  1.40000000E+02  8.00000000E+01  0.00000000E+00
  1.40000000E+02  6.00000000E+01  0.00000000E+00
  1.40000000E+02  4.00000000E+01  0.00000000E+00
  1.40000000E+02  2.00000000E+01  0.00000000E+00
  1.40000000E+02  4.99600361E-14  0.00000000E+00
  1.60000000E+02  3.00000000E+02  0.00000000E+00
  1.60000000E+02  2.80000000E+02  0.00000000E+00
  1.60000000E+02  2.60000000E+02  0.00000000E+00
  1.60000000E+02  2.40000000E+02  0.00000000E+00
  1.60000000E+02  2.20000000E+02  0.00000000E+00
  1.60000000E+02  2.00000000E+02  0.00000000E+00
  1.60000000E+02  1.80000000E+02  0.00000000E+00
  1.60000000E+02  1.60000000E+02  0.00000000E+00
  1.60000000E+02  1.40000000E+02  0.00000000E+00
  1.60000000E+02  1.20000000E+02  0.00000000E+00
  1.60000000E+02  1.00000000E+02  0.00000000E+00
  1.60000000E+02  8.00000000E+01  0.00000000E+00
  1.60000000E+02  6.00000000E+01  0.00000000E+00
  1.60000000E+02  4.00000000E+01  0.00000000E+00
  1.60000000E+02  2.00000000E+01  0.00000000E+00
  1.60000000E+02  4.99600361E-14  0.00000000E+00
  1.80000000E+02  3.00000000E+02  0.00000000E+00
  1.80000000E+02  2.80000000E+02  0.00000000E+00
  1.80000000E+02  2.60000000E+02  0.00000000E+00
  1.80000000E+02  2.40000000E+02  0.00000000E+00
  1.80000000E+02  2.20000000E+02  0.00000000E+00
  1.80000000E+02  2.00000000E+02  0.00000000E+00
  1.80000000E+02  1.80000000E+02  0.00000000E+00
  1.80000000E+02  1.60000000E+02  0.00000000E+00
  1.80000000E+02  1.40000000E+02  0.00000000E+00
  1.80000000E+02  1.20000000E+02  0.00000000E+00
  1.80000000E+02  1.00000000E+02  0.00000000E+00
  1.80000000E+02  8.00000000E+01  0.00000000E+00
  1.80000000E+02  6.00000000E+01  0.00000000E+00
  1.80000000E+02  4.00000000E+01  0.00000000E+00
  1.80000000E+02  2.00000000E+01  0.00000000E+00
  1.80000000E+02  4.99600361E-14  0.00000000E+00
  2.00000000E+02  3.00000000E+02  0.00000000E+00
  2.00000000E+02  2.80000000E+02  0.00000000E+00
  2.00000000E+02  2.60000000E+02  0.00000000E+00
  2.00000000E+02  2.40000000E+02  0.00000000E+00
  2.00000000E+02  2.20000000E+02  0.00000000E+00
  2.00000000E+02  2.00000000E+02  0.00000000E+00
  2.00000000E+02  1.80000000E+02  0.00000000E+00
  2.00000000E+02  1.60000000E+02  0.00000000E+00
  2.00000000E+02  1.40000000E+02  0.00000000E+00
  2.00000000E+02  1.20000000E+02  0.00000000E+00
  2.00000000E+02  1.00000000E+02  0.00000000E+00
  2.00000000E+02  8.00000000E+01  0.00000000E+00
  2.00000000E+02  6.00000000E+01  0.00000000E+00
  2.00000000E+02  4.00000000E+01  0.00000000E+00
  2.00000000E+02  2.00000000E+01  0.00000000E+00
  2.00000000E+02  4.99600361E-14  0.00000000E+00
  2.20000000E+02  3.00000000E+02  0.00000000E+00
  2.20000000E+02  2.80000000E+02  0.00000000E+00
  2.20000000E+02  2.60000000E+02  0.00000000E+00
  2.20000000E+02  2.40000000E+02  0.00000000E+00
  2.20000000E+02  2.20000000E+02  0.00000000E+00
  2.20000000E+02  2.00000000E+02  0.00000000E+00
  2.20000000E+02  1.80000000E+02  0.00000000E+00
  2.20000000E+02  1.60000000E+02  0.00000000E+00
  2.20000000E+02  1.40000000E+02  0.00000000E+00
  2.20000000E+02  1.20000000E+02  0.00000000E+00
  2.20000000E+02  1.00000000E+02  0.00000000E+00
  2.20000000E+02  8.00000000E+01  0.00000000E+00
  2.20000000E+02  6.00000000E+01  0.00000000E+00
  2.20000000E+02  4.00000000E+01  0.00000000E+00
  2.20000000E+02  2.00000000E+01  0.00000000E+00
  2.20000000E+02  4.99600361E-14  0.00000000E+00
  2.40000000E+02  3.00000000E+02  0.00000000E+00
  2.40000000E+02  2.80000000E+02  0.00000000E+00
  2.40000000E+02  2.60000000E+02  0.00000000E+00
  2.40000000E+02  2.40000000E+02  0.00000000E+00
  2.40000000E+02  2.20000000E+02  0.00000000E+00
  2.40000000E+02  2.00000000E+02  0.00000000E+00
  2.40000000E+02  1.80000000E+02  0.00000000E+00
  2.40000000E+02  1.60000000E+02  0.00000000E+00
  2.40000000E+02  1.40000000E+02  0.00000000E+00
  2.40000000E+02  1.20000000E+02  0.00000000E+00
  2.40000000E+02  1.00000000E+02  0.00000000E+00
  2.40000000E+02  8.00000000E+01  0.00000000E+00
  2.40000000E+02  6.00000000E+01  0.00000000E+00
  2.40000000E+02  4.00000000E+01  0.00000000E+00
  2.40000000E+02  2.00000000E+01  0.00000000E+00
  2.40000000E+02  4.99600361E-14  0.00000000E+00
  2.60000000E+02  3.00000000E+02  0.00000000E+00
  2.60000000E+02  2.80000000E+02  0.00000000E+00
  2.60000000E+02  2.60000000E+02  0.00000000E+00
  2.60000000E+02  2.40000000E+02  0.00000000E+00
  2.60000000E+02  2.20000000E+02  0.00000000E+00
  2.60000000E+02  2.00000000E+02  0.00000000E+00
  2.60000000E+02  1.80000000E+02  0.00000000E+00
  2.60000000E+02  1.60000000E+02  0.00000000E+00
  2.60000000E+02  1.40000000E+02  0.00000000E+00
  2.60000000E+02  1.20000000E+02  0.00000000E+00
  2.60000000E+02  1.00000000E+02  0.00000000E+00
  2.60000000E+02  8.00000000E+01  0.00000000E+00
  2.60000000E+02  6.00000000E+01  0.00000000E+00
  2.60000000E+02  4.00000000E+01  0.00000000E+00
  2.60000000E+02  2.00000000E+01  0.00000000E+00
  2.60000000E+02  4.99600361E-14  0.00000000E+00
  2.80000000E+02  3.00000000E+02  0.00000000E+00
  2.80000000E+02  2.80000000E+02  0.00000000E+00
  2.80000000E+02  2.60000000E+02  0.00000000E+00
  2.80000000E+02  2.40000000E+02  0.00000000E+00
  2.80000000E+02  2.20000000E+02  0.00000000E+00
  2.80000000E+02  2.00000000E+02  0.00000000E+00
  2.80000000E+02  1.80000000E+02  0.00000000E+00
  2.80000000E+02  1.60000000E+02  0.00000000E+00
  2.80000000E+02  1.40000000E+02  0.00000000E+00
  2.80000000E+02  1.20000000E+02  0.00000000E+00
  2.80000000E+02  1.00000000E+02  0.00000000E+00
  2.80000000E+02  8.00000000E+01  0.00000000E+00
  2.80000000E+02  6.00000000E+01  0.00000000E+00
  2.80000000E+02  4.00000000E+01  0.00000000E+00
  2.80000000E+02  2.00000000E+01  0.00000000E+00
  2.80000000E+02  4.99600361E-14  0.00000000E+00
  3.00000000E+02  3.00000000E+02  0.00000000E+00
  3.00000000E+02  2.80000000E+02  0.00000000E+00
  3.00000000E+02  2.60000000E+02  0.00000000E+00
  3.00000000E+02  2.40000000E+02  0.00000000E+00
  3.00000000E+02  2.20000000E+02  0.00000000E+00
  3.00000000E+02  2.00000000E+02  0.00000000E+00
  3.00000000E+02  1.80000000E+02  0.00000000E+00
  3.00000000E+02  1.60000000E+02  0.00000000E+00
  3.00000000E+02  1.40000000E+02  0.00000000E+00
  3.00000000E+02  1.20000000E+02  0.00000000E+00
  3.00000000E+02  1.00000000E+02  0.00000000E+00
  3.00000000E+02  8.00000000E+01  0.00000000E+00
  3.00000000E+02  6.00000000E+01  0.00000000E+00
  3.00000000E+02  4.00000000E+01  0.00000000E+00
  3.00000000E+02  2.00000000E+01  0.00000000E+00
  3.00000000E+02  4.99600361E-14  0.00000000E+00
  3.20000000E+02  3.00000000E+02  0.00000000E+00
  3.20000000E+02  2.80000000E+02  0.00000000E+00
  3.20000000E+02  2.60000000E+02  0.00000000E+00
  3.20000000E+02  2.40000000E+02  0.00000000E+00
  3.20000000E+02  2.20000000E+02  0.00000000E+00
  3.20000000E+02  2.00000000E+02  0.00000000E+00
  3.20000000E+02  1.80000000E+02  0.00000000E+00
  3.20000000E+02  1.60000000E+02  0.00000000E+00
  3.20000000E+02  1.40000000E+02  0.00000000E+00
  3.20000000E+02  1.20000000E+02  0.00000000E+00
  3.20000000E+02  1.00000000E+02  0.00000000E+00
  3.20000000E+02  8.00000000E+01  0.00000000E+00
  3.20000000E+02  6.00000000E+01  0.00000000E+00
  3.20000000E+02  4.00000000E+01  0.00000000E+00
  3.20000000E+02  2.00000000E+01  0.00000000E+00
  3.20000000E+02  4.99600361E-14  0.00000000E+00
  3.40000000E+02  3.00000000E+02  0.00000000E+00
  3.40000000E+02  2.80000000E+02  0.00000000E+00
  3.40000000E+02  2.60000000E+02  0.00000000E+00
  3.40000000E+02  2.40000000E+02  0.00000000E+00
  3.40000000E+02  2.20000000E+02  0.00000000E+00
  3.40000000E+02  2.00000000E+02  0.00000000E+00
  3.40000000E+02  1.80000000E+02  0.00000000E+00
  3.40000000E+02  1.60000000E+02  0.00000000E+00
  3.40000000E+02  1.40000000E+02  0.00000000E+00
  3.40000000E+02  1.20000000E+02  0.00000000E+00
  3.40000000E+02  1.00000000E+02  0.00000000E+00
  3.40000000E+02  8.00000000E+01  0.00000000E+00
  3.40000000E+02  6.00000000E+01  0.00000000E+00
  3.40000000E+02  4.00000000E+01  0.00000000E+00
  3.40000000E+02  2.00000000E+01  0.00000000E+00
  3.40000000E+02  4.99600361E-14  0.00000000E+00
  3.60000000E+02  3.00000000E+02  0.00000000E+00
  3.60000000E+02  2.80000000E+02  0.00000000E+00
  3.60000000E+02  2.60000000E+02  0.00000000E+00
  3.60000000E+02  2.40000000E+02  0.00000000E+00
  3.60000000E+02  2.20000000E+02  0.00000000E+00
  3.60000000E+02  2.00000000E+02  0.00000000E+00
  3.60000000E+02  1.80000000E+02  0.00000000E+00
  3.60000000E+02  1.60000000E+02  0.00000000E+00
  3.60000000E+02  1.40000000E+02  0.00000000E+00
  3.60000000E+02  1.20000000E+02  0.00000000E+00
  3.60000000E+02  1.00000000E+02  0.00000000E+00
  3.60000000E+02  8.00000000E+01  0.00000000E+00
  3.60000000E+02  6.00000000E+01  0.00000000E+00
  3.60000000E+02  4.00000000E+01  0.00000000E+00
  3.60000000E+02  2.00000000E+01  0.00000000E+00
  3.60000000E+02  4.99600361E-14  0.00000000E+00
  3.80000000E+02  3.00000000E+02  0.00000000E+00
  3.80000000E+02  2.80000000E+02  0.00000000E+00
  3.80000000E+02  2.60000000E+02  0.00000000E+00
  3.80000000E+02  2.40000000E+02  0.00000000E+00
  3.80000000E+02  2.20000000E+02  0.00000000E+00
  3.80000000E+02  2.00000000E+02  0.00000000E+00
  3.80000000E+02  1.80000000E+02  0.00000000E+00
  3.80000000E+02  1.60000000E+02  0.00000000E+00
  3.80000000E+02  1.40000000E+02  0.00000000E+00
  3.80000000E+02  1.20000000E+02  0.00000000E+00
  3.80000000E+02  1.00000000E+02  0.00000000E+00
  3.80000000E+02  8.00000000E+01  0.00000000E+00
  3.80000000E+02  6.00000000E+01  0.00000000E+00
  3.80000000E+02  4.00000000E+01  0.00000000E+00
  3.80000000E+02  2.00000000E+01  0.00000000E+00
  3.80000000E+02  4.99600361E-14  0.00000000E+00
  4.00000000E+02  3.00000000E+02  0.00000000E+00
  4.00000000E+02  2.80000000E+02  0.00000000E+00
  4.00000000E+02  2.60000000E+02  0.00000000E+00
  4.00000000E+02  2.40000000E+02  0.00000000E+00
  4.00000000E+02  2.20000000E+02  0.00000000E+00
  4.00000000E+02  2.00000000E+02  0.00000000E+00
  4.00000000E+02  1.80000000E+02  0.00000000E+00
  4.00000000E+02  1.60000000E+02  0.00000000E+00
  4.00000000E+02  1.40000000E+02  0.00000000E+00
  4.00000000E+02  1.20000000E+02  0.00000000E+00
  4.00000000E+02  1.00000000E+02  0.00000000E+00
  4.00000000E+02  8.00000000E+01  0.00000000E+00
  4.00000000E+02  6.00000000E+01  0.00000000E+00
  4.00000000E+02  4.00000000E+01  0.00000000E+00
  4.00000000E+02  2.00000000E+01  0.00000000E+00
  4.00000000E+02  4.99600361E-14  0.00000000E+00
  4.20000000E+02  3.00000000E+02  0.00000000E+00
  4.20000000E+02  2.80000000E+02  0.00000000E+00
  4.20000000E+02  2.60000000E+02  0.00000000E+00
  4.20000000E+02  2.40000000E+02  0.00000000E+00
  4.20000000E+02  2.20000000E+02  0.00000000E+00
  4.20000000E+02  2.00000000E+02  0.00000000E+00
  4.20000000E+02  1.80000000E+02  0.00000000E+00
  4.20000000E+02  1.60000000E+02  0.00000000E+00
  4.20000000E+02  1.40000000E+02  0.00000000E+00
  4.20000000E+02  1.20000000E+02  0.00000000E+00
  4.20000000E+02  1.00000000E+02  0.00000000E+00
  4.20000000E+02  8.00000000E+01  0.00000000E+00
  4.20000000E+02  6.00000000E+01  0.00000000E+00
  4.20000000E+02  4.00000000E+01  0.00000000E+00
  4.20000000E+02  2.00000000E+01  0.00000000E+00
  4.20000000E+02  4.99600361E-14  0.00000000E+00
  4.40000000E+02  3.00000000E+02  0.00000000E+00
  4.40000000E+02  2.80000000E+02  0.00000000E+00
  4.40000000E+02  2.60000000E+02  0.00000000E+00
  4.40000000E+02  2.40000000E+02  0.00000000E+00
  4.40000000E+02  2.20000000E+02  0.00000000E+00
  4.40000000E+02  2.00000000E+02  0.00000000E+00
  4.40000000E+02  1.80000000E+02  0.00000000E+00
  4.40000000E+02  1.60000000E+02  0.00000000E+00
  4.40000000E+02  1.40000000E+02  0.00000000E+00
  4.40000000E+02  1.20000000E+02  0.00000000E+00
  4.40000000E+02  1.00000000E+02  0.00000000E+00
  4.40000000E+02  8.00000000E+01  0.00000000E+00
  4.40000000E+02  6.00000000E+01  0.00000000E+00
  4.40000000E+02  4.00000000E+01  0.00000000E+00
  4.40000000E+02  2.00000000E+01  0.00000000E+00
  4.40000000E+02  4.99600361E-14  0.00000000E+00
  4.60000000E+02  3.00000000E+02  0.00000000E+00
  4.60000000E+02  2.80000000E+02  0.00000000E+00
  4.60000000E+02  2.60000000E+02  0.00000000E+00
  4.60000000E+02  2.40000000E+02  0.00000000E+00
  4.60000000E+02  2.20000000E+02  0.00000000E+00
  4.60000000E+02  2.00000000E+02  0.00000000E+00
  4.60000000E+02  1.80000000E+02  0.00000000E+00
  4.60000000E+02  1.60000000E+02  0.00000000E+00
  4.60000000E+02  1.40000000E+02  0.00000000E+00
  4.60000000E+02  1.20000000E+02  0.00000000E+00
  4.60000000E+02  1.00000000E+02  0.00000000E+00
  4.60000000E+02  8.00000000E+01  0.00000000E+00
  4.60000000E+02  6.00000000E+01  0.00000000E+00
  4.60000000E+02  4.00000000E+01  0.00000000E+00
  4.60000000E+02  2.00000000E+01  0.00000000E+00
  4.60000000E+02  4.99600361E-14  0.00000000E+00
  4.80000000E+02  3.00000000E+02  0.00000000E+00
  4.80000000E+02  2.80000000E+02  0.00000000E+00
  4.80000000E+02  2.60000000E+02  0.00000000E+00
  4.80000000E+02  2.40000000E+02  0.00000000E+00
  4.80000000E+02  2.20000000E+02  0.00000000E+00
  4.80000000E+02  2.00000000E+02  0.00000000E+00
  4.80000000E+02  1.80000000E+02  0.00000000E+00
  4.80000000E+02  1.60000000E+02  0.00000000E+00
  4.80000000E+02  1.40000000E+02  0.00000000E+00
  4.80000000E+02  1.20000000E+02  0.00000000E+00
  4.80000000E+02  1.00000000E+02  0.00000000E+00
  4.80000000E+02  8.00000000E+01  0.00000000E+00
  4.80000000E+02  6.00000000E+01  0.00000000E+00
  4.80000000E+02  4.00000000E+01  0.00000000E+00
  4.80000000E+02  2.00000000E+01  0.00000000E+00
  4.80000000E+02  4.99600361E-14  0.00000000E+00
  5.00000000E+02  3.00000000E+02  0.00000000E+00
  5.00000000E+02  2.80000000E+02  0.00000000E+00
  5.00000000E+02  2.60000000E+02  0.00000000E+00
  5.00000000E+02  2.40000000E+02  0.00000000E+00
  5.00000000E+02  2.20000000E+02  0.00000000E+00
  5.00000000E+02  2.00000000E+02  0.00000000E+00
  5.00000000E+02  1.80000000E+02  0.00000000E+00
  5.00000000E+02  1.60000000E+02  0.00000000E+00
  5.00000000E+02  1.40000000E+02  0.00000000E+00
  5.00000000E+02  1.20000000E+02  0.00000000E+00
  5.00000000E+02  1.00000000E+02  0.00000000E+00
  5.00000000E+02  8.00000000E+01  0.00000000E+00
  5.00000000E+02  6.00000000E+01  0.00000000E+00
  5.00000000E+02  4.00000000E+01  0.00000000E+00
  5.00000000E+02  2.00000000E+01  0.00000000E+00
  5.00000000E+02  4.99600361E-14  0.00000000E+00
  5.20000000E+02  3.00000000E+02  0.00000000E+00
  5.20000000E+02  2.80000000E+02  0.00000000E+00
  5.20000000E+02  2.60000000E+02  0.00000000E+00
  5.20000000E+02  2.40000000E+02  0.00000000E+00
  5.20000000E+02  2.20000000E+02  0.00000000E+00
  5.20000000E+02  2.00000000E+02  0.00000000E+00
  5.20000000E+02  1.80000000E+02  0.00000000E+00
  5.20000000E+02  1.60000000E+02  0.00000000E+00
  5.20000000E+02  1.40000000E+02  0.00000000E+00
  5.20000000E+02  1.20000000E+02  0.00000000E+00
  5.20000000E+02  1.00000000E+02  0.00000000E+00
  5.20000000E+02  8.00000000E+01  0.00000000E+00
  5.20000000E+02  6.00000000E+01  0.00000000E+00
  5.20000000E+02  4.00000000E+01  0.00000000E+00
  5.20000000E+02  2.00000000E+01  0.00000000E+00
  5.20000000E+02  4.99600361E-14  0.00000000E+00
  5.40000000E+02  3.00000000E+02  0.00000000E+00
  5.40000000E+02  2.80000000E+02  0.00000000E+00
  5.40000000E+02  2.60000000E+02  0.00000000E+00
  5.40000000E+02  2.40000000E+02  0.00000000E+00
  5.40000000E+02  2.20000000E+02  0.00000000E+00
  5.40000000E+02  2.00000000E+02  0.00000000E+00
  5.40000000E+02  1.80000000E+02  0.00000000E+00
  5.40000000E+02  1.60000000E+02  0.00000000E+00
  5.40000000E+02  1.40000000E+02  0.00000000E+00
  5.40000000E+02  1.20000000E+02  0.00000000E+00
  5.40000000E+02  1.00000000E+02  0.00000000E+00
  5.40000000E+02  8.00000000E+01  0.00000000E+00
  5.40000000E+02  6.00000000E+01  0.00000000E+00
  5.40000000E+02  4.00000000E+01  0.00000000E+00
  5.40000000E+02  2.00000000E+01  0.00000000E+00
  5.40000000E+02  4.99600361E-14  0.00000000E+00
  5.60000000E+02  3.00000000E+02  0.00000000E+00
  5.60000000E+02  2.80000000E+02  0.00000000E+00
  5.60000000E+02  2.60000000E+02  0.00000000E+00
  5.60000000E+02  2.40000000E+02  0.00000000E+00
  5.60000000E+02  2.20000000E+02  0.00000000E+00
  5.60000000E+02  2.00000000E+02  0.00000000E+00
  5.60000000E+02  1.80000000E+02  0.00000000E+00
  5.60000000E+02  1.60000000E+02  0.00000000E+00
  5.60000000E+02  1.40000000E+02  0.00000000E+00
  5.60000000E+02  1.20000000E+02  0.00000000E+00
  5.60000000E+02  1.00000000E+02  0.00000000E+00
  5.60000000E+02  8.00000000E+01  0.00000000E+00
  5.60000000E+02  6.00000000E+01  0.00000000E+00
  5.60000000E+02  4.00000000E+01  0.00000000E+00
  5.60000000E+02  2.00000000E+01  0.00000000E+00
  5.60000000E+02  4.99600361E-14  0.00000000E+00
  5.80000000E+02  3.00000000E+02  0.00000000E+00
  5.80000000E+02  2.80000000E+02  0.00000000E+00
  5.80000000E+02  2.60000000E+02  0.00000000E+00
  5.80000000E+02  2.40000000E+02  0.00000000E+00
  5.80000000E+02  2.20000000E+02  0.00000000E+00
  5.80000000E+02  2.00000000E+02  0.00000000E+00
  5.80000000E+02  1.80000000E+02  0.00000000E+00
  5.80000000E+02  1.60000000E+02  0.00000000E+00
  5.80000000E+02  1.40000000E+02  0.00000000E+00
  5.80000000E+02  1.20000000E+02  0.00000000E+00
  5.80000000E+02  1.00000000E+02  0.00000000E+00
  5.80000000E+02  8.00000000E+01  0.00000000E+00
  5.80000000E+02  6.00000000E+01  0.00000000E+00
  5.80000000E+02  4.00000000E+01  0.00000000E+00
  5.80000000E+02  2.00000000E+01  0.00000000E+00
  5.80000000E+02  4.99600361E-14  0.00000000E+00
  6.00000000E+02  3.00000000E+02  0.00000000E+00
  6.00000000E+02  2.80000000E+02  0.00000000E+00
  6.00000000E+02  2.60000000E+02  0.00000000E+00
  6.00000000E+02  2.40000000E+02  0.00000000E+00
  6.00000000E+02  2.20000000E+02  0.00000000E+00
  6.00000000E+02  2.00000000E+02  0.00000000E+00
  6.00000000E+02  1.80000000E+02  0.00000000E+00
  6.00000000E+02  1.60000000E+02  0.00000000E+00
  6.00000000E+02  1.40000000E+02  0.00000000E+00
  6.00000000E+02  1.20000000E+02  0.00000000E+00
  6.00000000E+02  1.00000000E+02  0.00000000E+00
  6.00000000E+02  8.00000000E+01  0.00000000E+00
  6.00000000E+02  6.00000000E+01  0.00000000E+00
  6.00000000E+02  4.00000000E+01  0.00000000E+00
  6.00000000E+02  2.00000000E+01  0.00000000E+00
  6.00000000E+02  4.99600361E-14  0.00000000E+00
CELLS       450      2250
         4           0           1          17          16
         4           1           2          18          17
         4           2           3          19          18
         4           3           4          20          19
         4           4           5          21          20
         4           5           6          22          21
         4           6           7          23          22
         4           7           8          24          23
         4           8           9          25          24
         4           9          10          26          25
         4          10          11          27          26
         4          11          12          28          27
         4          12          13          29          28
         4          13          14          30          29
         4          14          15          31          30
         4          16          17          33          32
         4          17          18          34          33
         4          18          19          35          34
         4          19          20          36          35
         4          20          21          37          36
         4          21          22          38          37
         4          22          23          39          38
         4          23          24          40          39
         4          24          25          41          40
         4          25          26          42          41
         4          26          27          43          42
         4          27          28          44          43
         4          28          29          45          44
         4          29          30          46          45
         4          30          31          47          46
         4          32          33          49          48
         4          33          34          50          49
         4          34          35          51          50
         4          35          36          52          51
         4          36          37          53          52
         4          37          38          54          53
         4          38          39          55          54
         4          39          40          56          55
         4          40          41          57          56
         4          41          42          58          57
         4          42          43          59          58
         4          43          44          60          59
         4          44          45          61          60
         4          45          46          62          61
         4          46          47          63          62
         4          48          49          65          64
         4          49          50          66          65
         4          50          51          67          66
         4          51          52          68          67
         4          52          53          69          68
         4          53          54          70          69
         4          54          55          71          70
         4          55          56          72          71
         4          56          57          73          72
         4          57          58          74          73
         4          58          59          75          74
         4          59          60          76          75
         4          60          61          77          76
         4          61          62          78          77
         4          62          63          79          78
         4          64          65          81          80
         4          65          66          82          81
         4          66          67          83          82
         4          67          68          84          83
         4          68          69          85          84
         4          69          70          86          85
         4          70          71          87          86
         4          71          72          88          87
         4          72          73          89          88
         4          73          74          90          89
         4          74          75          91          90
         4          75          76          92          91
         4          76          77          93          92
         4          77          78          94          93
         4          78          79          95          94
         4          80          81          97          96
         4          81          82          98          97
         4          82          83          99          98
         4          83          84         100          99
         4          84          85         101         100
         4          85          86         102         101
         4          86          87         103         102
         4          87          88         104         103
         4          88          89         105         104
         4          89          90         106         105
         4          90          91         107         106
         4          91          92         108         107
         4          92          93         109         108
         4          93          94         110         109
         4          94          95         111         110
         4          96          97         113         112
         4          97          98         114         113
         4          98          99         115         114
         4          99         100         116         115
         4         100         101         117         116
         4         101         102         118         117
         4         102         103         119         118
         4         103         104         120         119
         4         104         105         121         120
         4         105         106         122         121
         4         106         107         123         122
         4         107         108         124         123
         4         108         109         125         124
         4         109         110         126         125
         4         110         111         127         126
         4         112         113         129         128
         4         113         114         130         129
         4         114         115         131         130
         4         115         116         132         131
         4         116         117         133         132
         4         117         118         134         133
         4         118         119         135         134
         4         119         120         136         135
         4         120         121         137         136
         4         121         122         138         137
         4         122         123         139         138
         4         123         124         140         139
         4         124         125         141         140
         4         125         126         142         141
         4         126         127         143         142
         4         128         129         145         144
         4         129         130         146         145
         4         130         131         147         146
         4         131         132         148         147
         4         132         133         149         148
         4         133         134         150         149
         4         134         135         151         150
         4         135         136         152         151
         4         136         137         153         152
         4         137         138         154         153
         4         138         139         155         154
         4         139         140         156         155
         4         140         141         157         156
         4         141         142         158         157
         4         142         143         159         158
         4         144         145         161         160
         4         145         146         162         161
         4         146         147         163         162
         4         147         148         164         163
         4         148         149         165         164
         4         149         150         166         165
         4         150         151         167         166
         4         151         152         168         167
         4         152         153         169         168
         4         153         154         170         169
         4         154         155         171         170
         4         155         156         172         171
         4         156         157         173         172
         4         157         158         174         173
         4         158         159         175         174
         4         160         161         177         176
         4         161         162         178         177
         4         162         163         179         178
         4         163         164         180         179
         4         164         165         181         180
         4         165         166         182         181
         4         166         167         183         182
         4         167         168         184         183
         4         168         169         185         184
         4         169         170         186         185
         4         170         171         187         186
         4         171         172         188         187
         4         172         173         189         188
         4         173         174         190         189
         4         174         175         191         190
         4         176         177         193         192
         4         177         178         194         193
         4         178         179         195         194
         4         179         180         196         195
         4         180         181         197         196
         4         181         182         198         197
         4         182         183         199         198
         4         183         184         200         199
         4         184         185         201         200
         4         185         186         202         201
         4         186         187         203         202
         4         187         188         204         203
         4         188         189         205         204
         4         189         190         206         205
         4         190         191         207         206
         4         192         193         209         208
         4         193         194         210         209
         4         194         195         211         210
         4         195         196         212         211
         4         196         197         213         212
         4         197         198         214         213
         4         198         199         215         214
         4         199         200         216         215
         4         200         201         217         216
         4         201         202         218         217
         4         202         203         219         218
         4         203         204         220         219
         4         204         205         221         220
         4         205         206         222         221
         4         206         207         223         222
         4         208         209         225         224
         4         209         210         226         225
         4         210         211         227         226
         4         211         212         228         227
         4         212         213         229         228
         4         213         214         230         229
         4         214         215         231         230
         4         215         216         232         231
         4         216         217         233         232
         4         217         218         234         233
         4         218         219         235         234
         4         219         220         236         235
         4         220         221         237         236
         4         221         222         238         237
         4         222         223         239         238
         4         224         225         241         240
         4         225         226         242         241
         4         226         227         243         242
         4         227         228         244         243
         4         228         229         245         244
         4         229         230         246         245
         4         230         231         247         246
         4         231         232         248         247
         4         232         233         249         248
         4         233         234         250         249
         4         234         235         251         250
         4         235         236         252         251
         4         236         237         253         252
         4         237         238         254         253
         4         238         239         255         254
         4         240         241         257         256
         4         241         242         258         257
         4         242         243         259         258
         4         243         244         260         259
         4         244         245         261         260
         4         245         246         262         261
         4         246         247         263         262
         4         247         248         264         263
         4         248         249         265         264
         4         249         250         266         265
         4         250         251         267         266
         4         251         252         268         267
         4         252         253         269         268
         4         253         254         270         269
         4         254         255         271         270
         4         256         257         273         272
         4         257         258         274         273
         4         258         259         275         274
         4         259         260         276         275
         4         260         261         277         276
         4         261         262         278         277
         4         262         263         279         278
         4         263         264         280         279
         4         264         265         281         280
         4         265         266         282         281
         4         266         267         283         282
         4         267         268         284         283
         4         268         269         285         284
         4         269         270         286         285
         4         270         271         287         286
         4         272         273         289         288
         4         273         274         290         289
         4         274         275         291         290
         4         275         276         292         291
         4         276         277         293         292
         4         277         278         294         293
         4         278         279         295         294
         4         279         280         296         295
         4         280         281         297         296
         4         281         282         298         297
         4         282         283         299         298
         4         283         284         300         299
         4         284         285         301         300
         4         285         286         302         301
         4         286         287         303         302
         4         288         289         305         304
         4         289         290         306         305
         4         290         291         307         306
         4         291         292         308         307
         4         292         293         309         308
         4         293         294         310         309
         4         294         295         311         310
         4         295         296         312         311
         4         296         297         313         312
         4         297         298         314         313
         4         298         299         315         314
         4         299         300         316         315
         4         300         301         317         316
         4         301         302         318         317
         4         302         303         319         318
         4         304         305         321         320
         4         305         306         322         321
         4         306         307         323         322
         4         307         308         324         323
         4         308         309         325         324
         4         309         310         326         325
         4         310         311         327         326
         4         311         312         328         327
         4         312         313         329         328
         4         313         314         330         329
         4         314         315         331         330
         4         315         316         332         331
         4         316         317         333         332
         4         317         318         334         333
         4         318         319         335         334
         4         320         321         337         336
         4         321         322         338         337
         4         322         323         339         338
         4         323         324         340         339
         4         324         325         341         340
         4         325         326         342         341
         4         326         327         343         342
         4         327         328         344         343
         4         328         329         345         344
         4         329         330         346         345
         4         330         331         347         346
         4         331         332         348         347
         4         332         333         349         348
         4         333         334         350         349
         4         334         335         351         350
         4         336         337         353         352
         4         337         338         354         353
         4         338         339         355         354
         4         339         340         356         355
         4         340         341         357         356
         4         341         342         358         357
         4         342         343         359         358
         4         343         344         360         359
         4         344         345         361         360
         4         345         346         362         361
         4         346         347         363         362
         4         347         348         364         363
         4         348         349         365         364
         4         349         350         366         365
         4         350         351         367         366
         4         352         353         369         368
         4         353         354         370         369
         4         354         355         371         370
         4         355         356         372         371
         4         356         357         373         372
         4         357         358         374         373
         4         358         359         375         374
         4         359         360         376         375
         4         360         361         377         376
         4         361         362         378         377
         4         362         363         379         378
         4         363         364         380         379
         4         364         365         381         380
         4         365         366         382         381
         4         366         367         383         382
         4         368         369         385         384
         4         369         370         386         385
         4         370         371         387         386
         4         371         372         388         387
         4         372         373         389         388
         4         373         374         390         389
         4         374         375         391         390
         4         375         376         392         391
         4         376         377         393         392
         4         377         378         394         393
         4         378         379         395         394
         4         379         380         396         395
         4         380         381         397         396
         4         381         382         398         397
         4         382         383         399         398
         4         384         385         401         400
         4         385         386         402         401
         4         386         387         403         402
         4         387         388         404         403
         4         388         389         405         404
         4         389         390         406         405
         4         390         391         407         406
         4         391         392         408         407
         4         392         393         409         408
         4         393         394         410         409
         4         394         395         411         410
         4         395         396         412         411
         4         396         397         413         412
         4         397         398         414         413
         4         398         399         415         414
         4         400         401         417         416
         4         401         402         418         417
         4         402         403         419         418
         4         403         404         420         419
         4         404         405         421         420
         4         405         406         422         421
         4         406         407         423         422
         4         407         408         424         423
         4         408         409         425         424
         4         409         410         426         425
         4         410         411         427         426
         4         411         412         428         427
         4         412         413         429         428
         4         413         414         430         429
         4         414         415         431         430
         4         416         417         433         432
         4         417         418         434         433
         4         418         419         435         434
         4         419         420         436         435
         4         420         421         437         436
         4         421         422         438         437
         4         422         423         439         438
         4         423         424         440         439
         4         424         425         441         440
         4         425         426         442         441
         4         426         427         443         442
         4         427         428         444         443
         4         428         429         445         444
         4         429         430         446         445
         4         430         431         447         446
         4         432         433         449         448
         4         433         434         450         449
         4         434         435         451         450
         4         435         436         452         451
         4         436         437         453         452
         4         437         438         454         453
         4         438         439         455         454
         4         439         440         456         455
         4         440         441         457         456
         4         441         442         458         457
         4         442         443         459         458
         4         443         444         460         459
         4         444         445         461         460
         4         445         446         462         461
         4         446         447         463         462
         4         448         449         465         464
         4         449         450         466         465
         4         450         451         467         466
         4         451         452         468         467
         4         452         453         469         468
         4         453         454         470         469
         4         454         455         471         470
         4         455         456         472         471
         4         456         457         473         472
         4         457         458         474         473
         4         458         459         475         474
         4         459         460         476         475
         4         460         461         477         476
         4         461         462         478         477
         4         462         463         479         478
         4         464         465         481         480
         4         465         466         482         481
         4         466         467         483         482
         4         467         468         484         483
         4         468         469         485         484
         4         469         470         486         485
         4         470         471         487         486
         4         471         472         488         487
         4         472         473         489         488
         4         473         474         490         489
         4         474         475         491         490
         4         475         476         492         491
         4         476         477         493         492
         4         477         478         494         493
         4         478         479         495         494
CELL_TYPES        450
9
9
9
9
9
9
9
9
9
9
9
9
9
9
9
9
9
9
9
9
9
9
9
9
9
9
9
9
9
9
9
9
9
9
9
9
9
9
9
9
9
9
9
9
9
9
9
9
9
9
9
9
9
9
9
9
9
9
9
9
9
9
9
9
9
9
9
9
9
9
9
9
9
9
9
9
9
9
9
9
9
9
9
9
9
9
9
9
9
9
9
9
9
9
9
9
9
9
9
9
9
9
9
9
9
9
9
9
9
9
9
9
9
9
9
9
9
9
9
9
9
9
9
9
9
9
9
9
9
9
9
9
9
9
9
9
9
9
9
9
9
9
9
9
9
9
9
9
9
9
9
9
9
9
9
9
9
9
9
9
9
9
9
9
9
9
9
9
9
9
9
9
9
9
9
9
9
9
9
9
9
9
9
9
9
9
9
9
9
9
9
9
9
9
9
9
9
9
9
9
9
9
9
9
9
9
9
9
9
9
9
9
9
9
9
9
9
9
9
9
9
9
9
9
9
9
9
9
9
9
9
9
9
9
9
9
9
9
9
9
9
9
9
9
9
9
9
9
9
9
9
9
9
9
9
9
9
9
9
9
9
9
9
9
9
9
9
9
9
9
9
9
9
9
9
9
9
9
9
9
9
9
9
9
9
9
9
9
9
9
9
9
9
9
9
9
9
9
9
9
9
9
9
9
9
9
9
9
9
9
9
9
9
9
9
9
9
9
9
9
9
9
9
9
9
9
9
9
9
9
9
9
9
9
9
9
9
9
9
9
9
9
9
9
9
9
9
9
9
9
9
9
9
9
9
9
9
9
9
9
9
9
9
9
9
9
9
9
9
9
9
9
9
9
9
9
9
9
9
9
9
9
9
9
9
9
9
9
9
9
9
9
9
9
9
9
9
9
9
9
9
9
9
9
9
9
9
9
9
9
9
9
9
9
9
9
9
9
9
9
9
9
9
9
9
9
9
9
9
9
9
9
9
9
9
9
9
9
9
9
9
9
9
9
9
9
9
9
9
9
POINT_DATA       496
SCALARS p double 
LOOKUP_TABLE default
   85000000.0000000     
   85000000.0000000     
   85000000.0000000     
   85000000.0000000     
   85000000.0000000     
   85000000.0000000     
   85000000.0000000     
   85000000.0000000     
   85000000.0000000     
   85000000.0000000     
   85000000.0000000     
   85000000.0000000     
   85000000.0000000     
   85000000.0000000     
   85000000.0000000     
   85000000.0000000     
   76413001.3648459     
   76478042.3401889     
   76576495.2190012     
   76672780.3282149     
   76758682.9969967     
   76833837.9834377     
   76899746.6613114     
   76958249.6031017     
   77011127.2219810     
   77060031.8128620     
   77106513.6661817     
   77152050.2889899     
   77197991.1195369     
   77245175.8886920     
   77292356.1887575     
   77329933.0023279     
   70514359.7848055     
   70550337.8438752     
   70640324.2981323     
   70749411.2955156     
   70859116.5290478     
   70962262.7193968     
   71056941.1676852     
   71143416.4891668     
   71222776.8868933     
   71296361.6429807     
   71365482.2167301     
   71431188.6785327     
   71493858.1513175     
   71552191.3031765     
   71600935.7658726     
   71622711.7795422     
   66358027.7035745     
   66377176.9623038     
   66435270.1015044     
   66520410.0565006     
   66617447.2042481     
   66716647.8479746     
   66812931.9180869     
   66904066.9218679     
   66989325.4734110     
   67068650.6656318     
   67142112.9093993     
   67209445.4756429     
   67269466.2794432     
   67319256.3820017     
   67352813.8748307     
   67363111.4336399     
   63381251.7519104     
   63385435.4301005     
   63412281.0257877     
   63463766.5864129     
   63532598.1289132     
   63610591.8339819     
   63691653.0952312     
   63771815.9958950     
   63848610.2624512     
   63920397.6225431     
   63985811.5637301     
   64043275.3055860     
   64090583.0112455     
   64124643.4380388     
   64142281.9732300     
   64144086.0181519     
   61189433.5973020     
   61183027.4138063     
   61184106.8957502     
   61203678.1697565     
   61240983.2742172     
   61291087.6699324     
   61348595.8905431     
   61408973.3131265     
   61468678.1424696     
   61524886.4708213     
   61575128.7332555     
   61616980.3189271     
   61647935.9355277     
   61665785.3441909     
   61670171.3252033     
   61666328.4692881     
   59511191.8297269     
   59497730.8857206     
   59479626.5900509     
   59472722.3607066     
   59481054.9950470     
   59502905.0740040     
   59534423.4262401     
   59571419.6647571     
   59610037.4479644     
   59646871.3698410     
   59678882.1099198     
   59703330.9938484     
   59717943.2023556     
   59721598.4054114     
   59715979.6034245     
   59708607.8516804     
   58158126.7133835     
   58140237.0690131     
   58108665.5113045     
   58081368.7005918     
   58065469.6706719     
   58061899.6783629     
   58068538.2064947     
   58082063.9496777     
   58098897.5227214     
   58115610.7329373     
   58129096.5783516     
   58136727.8698884     
   58136712.6176206     
   58128877.0853378     
   58116120.8630162     
   58106711.5522321     
   56998314.8152398     
   56977821.6622966     
   56937236.1481498     
   56894982.0666755     
   56859957.6631122     
   56835053.4477692     
   56819737.0466752     
   56811760.5929483     
   56808186.2835156     
   56805965.6232188     
   56802292.2030492     
   56794918.7998452     
   56782611.3861208     
   56765901.8611723     
   56748272.5696063     
   56737824.9498934     
   55938218.4030079     
   55916349.3249044     
   55870027.6321761     
   55817233.1525276     
   55767731.6955188     
   55725757.9220009     
   55692098.5804310     
   55665583.3289106     
   55644083.1253783     
   55625161.1555686     
   55606529.4360288     
   55586454.7178499     
   55564242.1215419     
   55540903.8627499     
   55520082.7061414     
   55509233.7229060     
   54910419.8117937     
   54887980.4892188     
   54838258.3063457     
   54778335.9640790     
   54718264.0102279     
   54663139.8790608     
   54614780.5482300     
   54572989.9513690     
   54536475.9244153     
   54503505.8104308     
   54472403.2444009     
   54441986.9064821     
   54412040.3732095     
   54383881.0604381     
   54361062.1970576     
   54350191.9334800     
   53865316.3683368     
   53842825.6298054     
   53791335.8420411     
   53726849.7496520     
   53659351.1391788     
   53594449.4426004     
   53534731.0308854     
   53480825.3373336     
   53432220.3804052     
   53387883.8047091     
   53346756.5417046     
   53308186.5755889     
   53272361.4615829     
   53240780.5721661     
   53216780.9287715     
   53206094.1379738     
   52765532.2099432     
   52743319.8406893     
   52691195.4726760     
   52624049.0810441     
   52551599.0204588     
   52479721.3015269     
   52411554.0861018     
   52348393.6319732     
   52290407.5089795     
   52237202.0141282     
   52188287.4175063     
   52143484.7961527     
   52103311.3744144     
   52069367.5437289     
   52044728.3240390     
   52034315.9306135     
   51582199.7381719     
   51560475.8290418     
   51508509.6876977     
   51440121.4168791     
   51364659.7316312     
   51288098.5154393     
   51213952.6286761     
   51144034.5821465     
   51079073.8609192     
   51019224.6575198     
   50964490.6498654     
   50915094.6744989     
   50871815.6612406     
   50836304.8025182     
   50811377.9677256     
   50801262.7737528     
   50292532.7007490     
   50271436.5718291     
   50220202.6240432     
   50151654.7516884     
   50074721.6050895     
   49995357.9832625     
   49917315.8519951     
   49842788.8352749     
   49772949.6113081     
   49708399.3562041     
   49649548.5582875     
   49596946.9147277     
   49551575.4853676     
   49515106.4729330     
   49490125.1551880     
   49480295.3112648     
   48878294.0182276     
   48857928.8046211     
   48807872.7398930     
   48740031.0768461     
   48662888.4658657     
   48582295.9969367     
   48502130.1890528     
   48424847.6008478     
   48351952.6492980     
   48284393.7608223     
   48222901.5660182     
   48168280.7274711     
   48121663.1693908     
   48084724.5935039     
   48059858.3371816     
   48050291.3389535     
   47324883.4390421     
   47305340.4744105     
   47256845.9682113     
   47190452.0515219     
   47114184.1312650     
   47033723.1950033     
   46952977.1091752     
   46874562.9717626     
   46800216.4541196     
   46731140.7866698     
   46668305.8778255     
   46612705.7381322     
   46565579.1449012     
   46528594.0100040     
   46503990.2601988     
   46494669.5401775     
   45620851.7631358     
   45602227.3525647     
   45555662.7615194     
   45491401.1413103     
   45416990.8860461     
   45337885.0755118     
   45257943.0019512     
   45179853.6423078     
   45105495.5825262     
   45036244.5924184     
   44973237.6780823     
   44917600.1528494     
   44870639.5261337     
   44834006.5752717     
   44809819.8707156     
   44800745.5204025     
   43757702.5604321     
   43740108.6389672     
   43695857.1904994     
   43634400.0251696     
   43562781.6400194     
   43486171.9421501     
   43408310.8270582     
   43331882.3337237     
   43258831.8215107     
   43190636.6596088     
   43128538.6329147     
   43073744.1340853     
   43027595.8902396     
   42991717.3085989     
   42968127.5455366     
   42959322.3116130     
   41729877.7869224     
   41713447.2464593     
   41671922.5331005     
   41613953.0988439     
   41546040.3975698     
   41473015.3247921     
   41398434.3362285     
   41324910.3497141     
   41254391.3340814     
   41188396.9781839     
   41128221.7158271     
   41075110.4243519     
   41030411.1465745     
   40995707.1121383     
   40972928.1642804     
   40964439.5915670     
   39534846.4948152     
   39519733.5370226     
   39481381.3179420     
   39427597.5745265     
   39364288.9794563     
   39295890.3946742     
   39225717.0170396     
   39156254.7742612     
   39089401.9831057     
   39026673.0731559     
   38969373.1437894     
   38918750.2878614     
   38876130.9550424     
   38843042.0617921     
   38821322.0217053     
   38813221.4435434     
   37173230.0944401     
   37159605.7422664     
   37124892.6171570     
   37075991.7775879     
   37018153.0533623     
   36955358.7428141     
   36890632.2635062     
   36826287.5517543     
   36764133.0716674     
   36705642.0128771     
   36652098.0553588     
   36604724.2653052     
   36564801.3415443     
   36533780.4266001     
   36513394.7919923     
   36505773.7778660     
   34648906.1810727     
   34636948.9749692     
   34606338.3163543     
   34562983.4514553     
   34511409.9526589     
   34455095.4165591     
   34396730.7876110     
   34338425.0753886     
   34281868.9262987     
   34228469.4939919     
   34179466.2900948     
   34136035.7842928     
   34099391.6067630     
   34070887.0168378     
   34052126.2744925     
   34045091.1183120     
   31969037.6289356     
   31958919.4641518     
   31932834.9424293     
   31895604.9800227     
   31850966.2155987     
   31801849.9689358     
   31750587.5280571     
   31699063.4522414     
   31648834.4920076     
   31601226.9530639     
   31557421.5283013     
   31518532.5659480     
   31485688.5013455     
   31460121.3356662     
   31443274.5638368     
   31436939.4149360     
   29143975.5133277     
   29135842.4383287     
   29114619.3927389     
   29083944.4276301     
   29046715.3199353     
   29005294.5815512     
   28961644.4057686     
   28917419.3800130     
   28874036.3961869     
   28832733.3328229     
   28794623.0063212     
   28760746.8732095     
   28732133.7622793     
   28709872.0712690     
   28695208.3131009     
   28689687.5883793     
   26186983.7615497     
   26180931.1918567     
   26164755.7730417     
   26140840.4663858     
   26111226.2295547     
   26077713.7853859     
   26041907.9990101     
   26005240.2746255     
   25968987.3551210     
   25934293.1293761     
   25902194.5249158     
   25873651.5147783     
   25849583.0368898     
   25830916.2087969     
   25818665.2953915     
   25814066.0192297     
   23113729.9399402     
   23109770.7558171     
   23098605.8352548     
   23081345.1901659     
   23059211.2489661     
   23033490.4704385     
   23005463.1753513     
   22976350.3354440     
   22947285.4885476     
   22919306.5818517     
   22893360.5215345     
   22870314.3747529     
   22850970.4679020     
   22836086.8137942     
   22826420.6416555     
   22822835.1884688     
   19941479.3975849     
   19939501.1098909     
   19932995.2921429     
   19921890.4688742     
   19906717.4742338     
   19888342.6027940     
   19867765.5413234     
   19846001.7497987     
   19824022.6091468     
   19802730.5507636     
   19782952.4184716     
   19765440.0849665     
   19750870.2794719     
   19739840.3001235     
   19732852.5443091     
   19730351.9729071     
   16687922.4206222     
   16687618.9223318     
   16684989.6243776     
   16679078.7359512     
   16669981.6951273     
   16658266.0093143     
   16644678.0986001     
   16630001.8197967     
   16614995.6540946     
   16600367.6834415     
   16586768.3677686     
   16574789.2963149     
   16564958.8850140     
   16557722.2800238     
   16553399.0769926     
   16552019.5552319     
   13369549.7123326     
   13370312.3117688     
   13370141.9698476     
   13368002.5163030     
   13363889.1122017     
   13358144.6359416     
   13351220.5630276     
   13343585.9869083     
   13335691.0096510     
   13327954.1497404     
   13320760.2553249     
   13314461.9252631     
   13309378.8648016     
   13305787.5762562     
   13303873.0985175     
   13303627.9269312     
   10000000.0000000     
   10000000.0000000     
   10000000.0000000     
   10000000.0000000     
   10000000.0000000     
   10000000.0000000     
   10000000.0000000     
   10000000.0000000     
   10000000.0000000     
   10000000.0000000     
   10000000.0000000     
   10000000.0000000     
   10000000.0000000     
  10000000.00000000     
   10000000.0000000     
   10000000.0000000     
VECTORS u double 
    0.00000E+00         0.90362E-02         0.00000E+00
    0.00000E+00         0.81955E-02         0.00000E+00
    0.00000E+00         0.73701E-02         0.00000E+00
    0.00000E+00         0.66669E-02         0.00000E+00
    0.00000E+00         0.60615E-02         0.00000E+00
    0.00000E+00         0.55253E-02         0.00000E+00
    0.00000E+00         0.50378E-02         0.00000E+00
    0.00000E+00         0.45826E-02         0.00000E+00
    0.00000E+00         0.41457E-02         0.00000E+00
    0.00000E+00         0.37143E-02         0.00000E+00
    0.00000E+00         0.32749E-02         0.00000E+00
    0.00000E+00         0.28125E-02         0.00000E+00
    0.00000E+00         0.23073E-02         0.00000E+00
    0.00000E+00         0.17292E-02         0.00000E+00
    0.00000E+00         0.10232E-02         0.00000E+00
    0.00000E+00         0.00000E+00         0.00000E+00
    0.39295E-02         0.81429E-02         0.00000E+00
    0.29686E-02         0.76370E-02         0.00000E+00
    0.25730E-02         0.70153E-02         0.00000E+00
    0.23703E-02         0.64164E-02         0.00000E+00
    0.22263E-02         0.58702E-02         0.00000E+00
    0.21087E-02         0.53723E-02         0.00000E+00
    0.20036E-02         0.49115E-02         0.00000E+00
    0.19038E-02         0.44759E-02         0.00000E+00
    0.18041E-02         0.40540E-02         0.00000E+00
    0.16997E-02         0.36338E-02         0.00000E+00
    0.15854E-02         0.32029E-02         0.00000E+00
    0.14531E-02         0.27463E-02         0.00000E+00
    0.12895E-02         0.22442E-02         0.00000E+00
    0.10676E-02         0.16661E-02         0.00000E+00
    0.72536E-03         0.95522E-03         0.00000E+00
    0.00000E+00         0.00000E+00         0.00000E+00
    0.66061E-02         0.66772E-02         0.00000E+00
    0.53808E-02         0.64215E-02         0.00000E+00
    0.46754E-02         0.61050E-02         0.00000E+00
    0.42514E-02         0.57242E-02         0.00000E+00
    0.39514E-02         0.53238E-02         0.00000E+00
    0.37094E-02         0.49274E-02         0.00000E+00
    0.34960E-02         0.45405E-02         0.00000E+00
    0.32951E-02         0.41607E-02         0.00000E+00
    0.30957E-02         0.37818E-02         0.00000E+00
    0.28883E-02         0.33953E-02         0.00000E+00
    0.26621E-02         0.29905E-02         0.00000E+00
    0.24019E-02         0.25536E-02         0.00000E+00
    0.20831E-02         0.20657E-02         0.00000E+00
    0.16601E-02         0.14992E-02         0.00000E+00
    0.10316E-02         0.81417E-03         0.00000E+00
    0.00000E+00         0.00000E+00         0.00000E+00
    0.87433E-02         0.50359E-02         0.00000E+00
    0.73694E-02         0.50008E-02         0.00000E+00
    0.64492E-02         0.49008E-02         0.00000E+00
    0.58174E-02         0.47286E-02         0.00000E+00
    0.53513E-02         0.44999E-02         0.00000E+00
    0.49744E-02         0.42375E-02         0.00000E+00
    0.46447E-02         0.39551E-02         0.00000E+00
    0.43374E-02         0.36581E-02         0.00000E+00
    0.40354E-02         0.33458E-02         0.00000E+00
    0.37240E-02         0.30138E-02         0.00000E+00
    0.33874E-02         0.26541E-02         0.00000E+00
    0.30049E-02         0.22554E-02         0.00000E+00
    0.25452E-02         0.18027E-02         0.00000E+00
    0.19556E-02         0.12779E-02         0.00000E+00
    0.11485E-02         0.67045E-03         0.00000E+00
    0.00000E+00         0.00000E+00         0.00000E+00
    0.10476E-01         0.33730E-02         0.00000E+00
    0.90345E-02         0.34895E-02         0.00000E+00
    0.79622E-02         0.35577E-02         0.00000E+00
    0.71588E-02         0.35553E-02         0.00000E+00
    0.65329E-02         0.34860E-02         0.00000E+00
    0.60168E-02         0.33625E-02         0.00000E+00
    0.55646E-02         0.31978E-02         0.00000E+00
    0.51458E-02         0.29999E-02         0.00000E+00
    0.47378E-02         0.27719E-02         0.00000E+00
    0.43215E-02         0.25124E-02         0.00000E+00
    0.38771E-02         0.22169E-02         0.00000E+00
    0.33806E-02         0.18777E-02         0.00000E+00
    0.27990E-02         0.14861E-02         0.00000E+00
    0.20853E-02         0.10355E-02         0.00000E+00
    0.11761E-02         0.53042E-03         0.00000E+00
    0.00000E+00         0.00000E+00         0.00000E+00
    0.11916E-01         0.17299E-02         0.00000E+00
    0.10447E-01         0.19592E-02         0.00000E+00
    0.92690E-02         0.21526E-02         0.00000E+00
    0.83268E-02         0.22856E-02         0.00000E+00
    0.75576E-02         0.23526E-02         0.00000E+00
    0.69067E-02         0.23588E-02         0.00000E+00
    0.63313E-02         0.23126E-02         0.00000E+00
    0.57988E-02         0.22212E-02         0.00000E+00
    0.52836E-02         0.20889E-02         0.00000E+00
    0.47633E-02         0.19167E-02         0.00000E+00
    0.42155E-02         0.17028E-02         0.00000E+00
    0.36153E-02         0.14439E-02         0.00000E+00
    0.29323E-02         0.11370E-02         0.00000E+00
    0.21293E-02         0.78350E-03         0.00000E+00
    0.11642E-02         0.39495E-03         0.00000E+00
    0.00000E+00         0.00000E+00         0.00000E+00
    0.13144E-01         0.11903E-03         0.00000E+00
    0.11663E-01         0.43563E-03         0.00000E+00
    0.10409E-01         0.72545E-03         0.00000E+00
    0.93555E-02         0.96608E-03         0.00000E+00
    0.84616E-02         0.11478E-02         0.00000E+00
    0.76863E-02         0.12702E-02         0.00000E+00
    0.69923E-02         0.13372E-02         0.00000E+00
    0.63485E-02         0.13539E-02         0.00000E+00
    0.57280E-02         0.13243E-02         0.00000E+00
    0.51071E-02         0.12504E-02         0.00000E+00
    0.44624E-02         0.11327E-02         0.00000E+00
    0.37698E-02         0.97131E-03         0.00000E+00
    0.30032E-02         0.76738E-03         0.00000E+00
    0.21349E-02         0.52660E-03         0.00000E+00
    0.11391E-02         0.26263E-03         0.00000E+00
    0.00000E+00         0.00000E+00         0.00000E+00
    0.14215E-01        -0.14649E-02         0.00000E+00
    0.12726E-01        -0.10762E-02         0.00000E+00
    0.11413E-01        -0.70799E-03         0.00000E+00
    0.10269E-01        -0.37892E-03         0.00000E+00
    0.92678E-02        -0.99523E-04         0.00000E+00
    0.83808E-02         0.12654E-03         0.00000E+00
    0.75770E-02         0.30003E-03         0.00000E+00
    0.68279E-02         0.42371E-03         0.00000E+00
    0.61076E-02         0.50054E-03         0.00000E+00
    0.53920E-02         0.53290E-03         0.00000E+00
    0.46583E-02         0.52259E-03         0.00000E+00
    0.38843E-02         0.47164E-03         0.00000E+00
    0.30480E-02         0.38373E-03         0.00000E+00
    0.21297E-02         0.26618E-03         0.00000E+00
    0.11148E-02         0.13182E-03         0.00000E+00
    0.00000E+00         0.00000E+00         0.00000E+00
    0.15170E-01        -0.30343E-02         0.00000E+00
    0.13667E-01        -0.25815E-02         0.00000E+00
    0.12304E-01        -0.21454E-02         0.00000E+00
    0.11083E-01        -0.17398E-02         0.00000E+00
    0.99905E-02        -0.13743E-02         0.00000E+00
    0.90053E-02        -0.10539E-02         0.00000E+00
    0.81027E-02        -0.77976E-03         0.00000E+00
    0.72574E-02        -0.55090E-03         0.00000E+00
    0.64452E-02        -0.36549E-03         0.00000E+00
    0.56431E-02        -0.22142E-03         0.00000E+00
    0.48293E-02        -0.11642E-03         0.00000E+00
    0.39837E-02        -0.47572E-04         0.00000E+00
    0.30884E-02        -0.10395E-04         0.00000E+00
    0.21290E-02         0.22534E-05         0.00000E+00
    0.10984E-02         0.10238E-05         0.00000E+00
    0.00000E+00         0.00000E+00         0.00000E+00
    0.16031E-01        -0.46041E-02         0.00000E+00
    0.14506E-01        -0.40908E-02         0.00000E+00
    0.13097E-01        -0.35915E-02         0.00000E+00
    0.11810E-01        -0.31157E-02         0.00000E+00
    0.10639E-01        -0.26709E-02         0.00000E+00
    0.95687E-02        -0.22620E-02         0.00000E+00
    0.85792E-02        -0.18911E-02         0.00000E+00
    0.76486E-02        -0.15583E-02         0.00000E+00
    0.67544E-02        -0.12629E-02         0.00000E+00
    0.58752E-02        -0.10032E-02         0.00000E+00
    0.49907E-02        -0.77721E-03         0.00000E+00
    0.40826E-02        -0.58201E-03         0.00000E+00
    0.31360E-02        -0.41349E-03         0.00000E+00
    0.21405E-02        -0.26576E-03         0.00000E+00
    0.10929E-02        -0.13099E-03         0.00000E+00
    0.00000E+00         0.00000E+00         0.00000E+00
    0.16814E-01        -0.61900E-02         0.00000E+00
    0.15258E-01        -0.56163E-02         0.00000E+00
    0.13803E-01        -0.50548E-02         0.00000E+00
    0.12457E-01        -0.45109E-02         0.00000E+00
    0.11218E-01        -0.39896E-02         0.00000E+00
    0.10075E-01        -0.34948E-02         0.00000E+00
    0.90115E-02        -0.30288E-02         0.00000E+00
    0.80072E-02        -0.25924E-02         0.00000E+00
    0.70421E-02        -0.21854E-02         0.00000E+00
    0.60961E-02        -0.18071E-02         0.00000E+00
    0.51502E-02        -0.14560E-02         0.00000E+00
    0.41879E-02        -0.11297E-02         0.00000E+00
    0.31963E-02        -0.82532E-03         0.00000E+00
    0.21671E-02        -0.53878E-03         0.00000E+00
    0.10991E-02        -0.26528E-03         0.00000E+00
    0.00000E+00         0.00000E+00         0.00000E+00
    0.17527E-01        -0.78069E-02         0.00000E+00
    0.15930E-01        -0.71707E-02         0.00000E+00
    0.14428E-01        -0.65453E-02         0.00000E+00
    0.13028E-01        -0.59322E-02         0.00000E+00
    0.11731E-01        -0.53341E-02         0.00000E+00
    0.10527E-01        -0.47535E-02         0.00000E+00
    0.94007E-02        -0.41921E-02         0.00000E+00
    0.83349E-02        -0.36510E-02         0.00000E+00
    0.73105E-02        -0.31307E-02         0.00000E+00
    0.63083E-02        -0.26310E-02         0.00000E+00
    0.53106E-02        -0.21512E-02         0.00000E+00
    0.43019E-02        -0.16902E-02         0.00000E+00
    0.32702E-02        -0.12464E-02         0.00000E+00
    0.22086E-02        -0.81787E-03         0.00000E+00
    0.11162E-02        -0.40273E-03         0.00000E+00
    0.00000E+00         0.00000E+00         0.00000E+00
    0.18169E-01        -0.94685E-02         0.00000E+00
    0.16523E-01        -0.87659E-02         0.00000E+00
    0.14972E-01        -0.80729E-02         0.00000E+00
    0.13524E-01        -0.73876E-02         0.00000E+00
    0.12177E-01        -0.67102E-02         0.00000E+00
    0.10922E-01        -0.60415E-02         0.00000E+00
    0.97456E-02        -0.53827E-02         0.00000E+00
    0.86305E-02        -0.47349E-02         0.00000E+00
    0.75585E-02        -0.40987E-02         0.00000E+00
    0.65110E-02        -0.34748E-02         0.00000E+00
    0.54710E-02        -0.28633E-02         0.00000E+00
    0.44233E-02        -0.22643E-02         0.00000E+00
    0.33565E-02        -0.16778E-02         0.00000E+00
    0.22634E-02        -0.11041E-02         0.00000E+00
    0.11428E-02        -0.54410E-03         0.00000E+00
    0.00000E+00         0.00000E+00         0.00000E+00
    0.18737E-01        -0.11187E-01         0.00000E+00
    0.17034E-01        -0.10413E-01         0.00000E+00
    0.15434E-01        -0.96471E-02         0.00000E+00
    0.13942E-01        -0.88849E-02         0.00000E+00
    0.12553E-01        -0.81238E-02         0.00000E+00
    0.11258E-01        -0.73633E-02         0.00000E+00
    0.10043E-01        -0.66037E-02         0.00000E+00
    0.88907E-02        -0.58459E-02         0.00000E+00
    0.77829E-02        -0.50907E-02         0.00000E+00
    0.67012E-02        -0.43393E-02         0.00000E+00
    0.56284E-02        -0.35930E-02         0.00000E+00
    0.45492E-02        -0.28529E-02         0.00000E+00
    0.34520E-02        -0.21207E-02         0.00000E+00
    0.23288E-02        -0.13986E-02         0.00000E+00
    0.11771E-02        -0.69003E-03         0.00000E+00
    0.00000E+00         0.00000E+00         0.00000E+00
    0.19222E-01        -0.12971E-01         0.00000E+00
    0.17458E-01        -0.12120E-01         0.00000E+00
    0.15809E-01        -0.11276E-01         0.00000E+00
    0.14277E-01        -0.10431E-01         0.00000E+00
    0.12854E-01        -0.95805E-02         0.00000E+00
    0.11530E-01        -0.87232E-02         0.00000E+00
    0.10288E-01        -0.78583E-02         0.00000E+00
    0.91108E-02        -0.69863E-02         0.00000E+00
    0.79792E-02        -0.61084E-02         0.00000E+00
    0.68742E-02        -0.52262E-02         0.00000E+00
    0.57782E-02        -0.43416E-02         0.00000E+00
    0.46753E-02        -0.34572E-02         0.00000E+00
    0.35527E-02        -0.25761E-02         0.00000E+00
    0.24015E-02        -0.17022E-02         0.00000E+00
    0.12171E-02        -0.84098E-03         0.00000E+00
    0.00000E+00         0.00000E+00         0.00000E+00
    0.19613E-01        -0.14829E-01         0.00000E+00
    0.17783E-01        -0.13894E-01         0.00000E+00
    0.16088E-01        -0.12965E-01         0.00000E+00
    0.14521E-01        -0.12030E-01         0.00000E+00
    0.13074E-01        -0.11084E-01         0.00000E+00
    0.11731E-01        -0.10124E-01         0.00000E+00
    0.10475E-01        -0.91489E-02         0.00000E+00
    0.92846E-02        -0.81580E-02         0.00000E+00
    0.81412E-02        -0.71531E-02         0.00000E+00
    0.70242E-02        -0.61362E-02         0.00000E+00
    0.59148E-02        -0.51101E-02         0.00000E+00
    0.47962E-02        -0.40781E-02         0.00000E+00
    0.36541E-02        -0.30447E-02         0.00000E+00
    0.24779E-02        -0.20153E-02         0.00000E+00
    0.12606E-02        -0.99727E-03         0.00000E+00
    0.00000E+00         0.00000E+00         0.00000E+00
    0.19893E-01        -0.16764E-01         0.00000E+00
    0.17998E-01        -0.15739E-01         0.00000E+00
    0.16260E-01        -0.14717E-01         0.00000E+00
    0.14667E-01        -0.13686E-01         0.00000E+00
    0.13205E-01        -0.12638E-01         0.00000E+00
    0.11855E-01        -0.11569E-01         0.00000E+00
    0.10595E-01        -0.10476E-01         0.00000E+00
    0.94053E-02        -0.93614E-02         0.00000E+00
    0.82622E-02        -0.82251E-02         0.00000E+00
    0.71446E-02        -0.70697E-02         0.00000E+00
    0.60321E-02        -0.58985E-02         0.00000E+00
    0.49063E-02        -0.47157E-02         0.00000E+00
    0.37514E-02        -0.35267E-02         0.00000E+00
    0.25542E-02        -0.23382E-02         0.00000E+00
    0.13056E-02        -0.11590E-02         0.00000E+00
    0.00000E+00         0.00000E+00         0.00000E+00
    0.20045E-01        -0.18779E-01         0.00000E+00
    0.18088E-01        -0.17656E-01         0.00000E+00
    0.16313E-01        -0.16534E-01         0.00000E+00
    0.14703E-01        -0.15398E-01         0.00000E+00
    0.13237E-01        -0.14240E-01         0.00000E+00
    0.11892E-01        -0.13055E-01         0.00000E+00
    0.10643E-01        -0.11840E-01         0.00000E+00
    0.94650E-02        -0.10595E-01         0.00000E+00
    0.83346E-02        -0.93229E-02         0.00000E+00
    0.72280E-02        -0.80252E-02         0.00000E+00
    0.61231E-02        -0.67057E-02         0.00000E+00
    0.49995E-02        -0.53691E-02         0.00000E+00
    0.38392E-02        -0.40216E-02         0.00000E+00
    0.26267E-02        -0.26706E-02         0.00000E+00
    0.13499E-02        -0.13260E-02         0.00000E+00
    0.00000E+00         0.00000E+00         0.00000E+00
    0.20049E-01        -0.20869E-01         0.00000E+00
    0.18036E-01        -0.19642E-01         0.00000E+00
    0.16234E-01        -0.18412E-01         0.00000E+00
    0.14618E-01        -0.17163E-01         0.00000E+00
    0.13160E-01        -0.15887E-01         0.00000E+00
    0.11833E-01        -0.14579E-01         0.00000E+00
    0.10607E-01        -0.13235E-01         0.00000E+00
    0.94552E-02        -0.11856E-01         0.00000E+00
    0.83503E-02        -0.10443E-01         0.00000E+00
    0.72667E-02        -0.89997E-02         0.00000E+00
    0.61804E-02        -0.75291E-02         0.00000E+00
    0.50690E-02        -0.60363E-02         0.00000E+00
    0.39119E-02        -0.45278E-02         0.00000E+00
    0.26912E-02        -0.30115E-02         0.00000E+00
    0.13913E-02        -0.14979E-02         0.00000E+00
    0.00000E+00         0.00000E+00         0.00000E+00
    0.19882E-01        -0.23029E-01         0.00000E+00
    0.17824E-01        -0.21690E-01         0.00000E+00
    0.16007E-01        -0.20343E-01         0.00000E+00
    0.14399E-01        -0.18974E-01         0.00000E+00
    0.12964E-01        -0.17573E-01         0.00000E+00
    0.11668E-01        -0.16134E-01         0.00000E+00
    0.10480E-01        -0.14655E-01         0.00000E+00
    0.93670E-02        -0.13137E-01         0.00000E+00
    0.83004E-02        -0.11580E-01         0.00000E+00
    0.72521E-02        -0.99879E-02         0.00000E+00
    0.61960E-02        -0.83643E-02         0.00000E+00
    0.51075E-02        -0.67139E-02         0.00000E+00
    0.39637E-02        -0.50429E-02         0.00000E+00
    0.27433E-02        -0.33594E-02         0.00000E+00
    0.14275E-02        -0.16739E-02         0.00000E+00
    0.00000E+00         0.00000E+00         0.00000E+00
    0.19521E-01        -0.25247E-01         0.00000E+00
    0.17432E-01        -0.23788E-01         0.00000E+00
    0.15616E-01        -0.22318E-01         0.00000E+00
    0.14032E-01        -0.20820E-01         0.00000E+00
    0.12635E-01        -0.19286E-01         0.00000E+00
    0.11387E-01        -0.17709E-01         0.00000E+00
    0.10251E-01        -0.16090E-01         0.00000E+00
    0.91907E-02        -0.14428E-01         0.00000E+00
    0.81754E-02        -0.12724E-01         0.00000E+00
    0.71749E-02        -0.10982E-01         0.00000E+00
    0.61611E-02        -0.92050E-02         0.00000E+00
    0.51072E-02        -0.73968E-02         0.00000E+00
    0.39877E-02        -0.55633E-02         0.00000E+00
    0.27782E-02        -0.37120E-02         0.00000E+00
    0.14559E-02        -0.18530E-02         0.00000E+00
    0.00000E+00         0.00000E+00         0.00000E+00
    0.18941E-01        -0.27506E-01         0.00000E+00
    0.16840E-01        -0.25921E-01         0.00000E+00
    0.15046E-01        -0.24319E-01         0.00000E+00
    0.13504E-01        -0.22684E-01         0.00000E+00
    0.12164E-01        -0.21009E-01         0.00000E+00
    0.10980E-01        -0.19289E-01         0.00000E+00
    0.99099E-02        -0.17524E-01         0.00000E+00
    0.89163E-02        -0.15715E-01         0.00000E+00
    0.79652E-02        -0.13864E-01         0.00000E+00
    0.70249E-02        -0.11972E-01         0.00000E+00
    0.60657E-02        -0.10042E-01         0.00000E+00
    0.50590E-02        -0.80783E-02         0.00000E+00
    0.39765E-02        -0.60841E-02         0.00000E+00
    0.27904E-02        -0.40662E-02         0.00000E+00
    0.14735E-02        -0.20337E-02         0.00000E+00
    0.00000E+00         0.00000E+00         0.00000E+00
    0.18116E-01        -0.29785E-01         0.00000E+00
    0.16029E-01        -0.28066E-01         0.00000E+00
    0.14280E-01        -0.26324E-01         0.00000E+00
    0.12803E-01        -0.24545E-01         0.00000E+00
    0.11539E-01        -0.22723E-01         0.00000E+00
    0.10436E-01        -0.20854E-01         0.00000E+00
    0.94471E-02        -0.18940E-01         0.00000E+00
    0.85333E-02        -0.16983E-01         0.00000E+00
    0.76588E-02        -0.14983E-01         0.00000E+00
    0.67909E-02        -0.12944E-01         0.00000E+00
    0.58990E-02        -0.10865E-01         0.00000E+00
    0.49526E-02        -0.87496E-02         0.00000E+00
    0.39213E-02        -0.65991E-02         0.00000E+00
    0.27734E-02        -0.44181E-02         0.00000E+00
    0.14769E-02        -0.22144E-02         0.00000E+00
    0.00000E+00         0.00000E+00         0.00000E+00
    0.17021E-01        -0.32054E-01         0.00000E+00
    0.14980E-01        -0.30195E-01         0.00000E+00
    0.13304E-01        -0.28307E-01         0.00000E+00
    0.11917E-01        -0.26376E-01         0.00000E+00
    0.10750E-01        -0.24400E-01         0.00000E+00
    0.97448E-02        -0.22378E-01         0.00000E+00
    0.88522E-02        -0.20313E-01         0.00000E+00
    0.80306E-02        -0.18208E-01         0.00000E+00
    0.72442E-02        -0.16064E-01         0.00000E+00
    0.64604E-02        -0.13881E-01         0.00000E+00
    0.56481E-02        -0.11660E-01         0.00000E+00
    0.47761E-02        -0.94002E-02         0.00000E+00
    0.38116E-02        -0.71007E-02         0.00000E+00
    0.27195E-02        -0.47632E-02         0.00000E+00
    0.14620E-02        -0.23929E-02         0.00000E+00
    0.00000E+00         0.00000E+00         0.00000E+00
    0.15633E-01        -0.34279E-01         0.00000E+00
    0.13674E-01        -0.32274E-01         0.00000E+00
    0.12106E-01        -0.30232E-01         0.00000E+00
    0.10837E-01        -0.28143E-01         0.00000E+00
    0.97886E-02        -0.26008E-01         0.00000E+00
    0.88983E-02        -0.23831E-01         0.00000E+00
    0.81148E-02        -0.21615E-01         0.00000E+00
    0.73964E-02        -0.19366E-01         0.00000E+00
    0.67083E-02        -0.17082E-01         0.00000E+00
    0.60190E-02        -0.14765E-01         0.00000E+00
    0.52984E-02        -0.12411E-01         0.00000E+00
    0.45151E-02        -0.10018E-01         0.00000E+00
    0.36350E-02        -0.75800E-02         0.00000E+00
    0.26190E-02        -0.50960E-02         0.00000E+00
    0.14233E-02        -0.25668E-02         0.00000E+00
    0.00000E+00         0.00000E+00         0.00000E+00
    0.13928E-01        -0.36416E-01         0.00000E+00
    0.12097E-01        -0.34260E-01         0.00000E+00
    0.10675E-01        -0.32057E-01         0.00000E+00
    0.95542E-02        -0.29804E-01         0.00000E+00
    0.86472E-02        -0.27508E-01         0.00000E+00
    0.78875E-02        -0.25176E-01         0.00000E+00
    0.72243E-02        -0.22814E-01         0.00000E+00
    0.66181E-02        -0.20427E-01         0.00000E+00
    0.60365E-02        -0.18014E-01         0.00000E+00
    0.54507E-02        -0.15574E-01         0.00000E+00
    0.48328E-02        -0.13101E-01         0.00000E+00
    0.41527E-02        -0.10588E-01         0.00000E+00
    0.33758E-02        -0.80268E-02         0.00000E+00
    0.24599E-02        -0.54101E-02         0.00000E+00
    0.13543E-02        -0.27335E-02         0.00000E+00
    0.00000E+00         0.00000E+00         0.00000E+00
    0.11884E-01        -0.38413E-01         0.00000E+00
    0.10237E-01        -0.36102E-01         0.00000E+00
    0.90059E-02        -0.33732E-01         0.00000E+00
    0.80653E-02        -0.31312E-01         0.00000E+00
    0.73203E-02        -0.28854E-01         0.00000E+00
    0.67041E-02        -0.26371E-01         0.00000E+00
    0.61695E-02        -0.23872E-01         0.00000E+00
    0.56815E-02        -0.21359E-01         0.00000E+00
    0.52123E-02        -0.18831E-01         0.00000E+00
    0.47371E-02        -0.16283E-01         0.00000E+00
    0.42315E-02        -0.13707E-01         0.00000E+00
    0.36685E-02        -0.11094E-01         0.00000E+00
    0.30147E-02        -0.84288E-02         0.00000E+00
    0.22265E-02        -0.56982E-02         0.00000E+00
    0.12459E-02        -0.28898E-02         0.00000E+00
    0.00000E+00         0.00000E+00         0.00000E+00
    0.94816E-02        -0.40206E-01         0.00000E+00
    0.80861E-02        -0.37733E-01         0.00000E+00
    0.70979E-02        -0.35193E-01         0.00000E+00
    0.63690E-02        -0.32605E-01         0.00000E+00
    0.58026E-02        -0.29993E-01         0.00000E+00
    0.53384E-02        -0.27372E-01         0.00000E+00
    0.49371E-02        -0.24751E-01         0.00000E+00
    0.45707E-02        -0.22130E-01         0.00000E+00
    0.42174E-02        -0.19504E-01         0.00000E+00
    0.38578E-02        -0.16868E-01         0.00000E+00
    0.34723E-02        -0.14211E-01         0.00000E+00
    0.30387E-02        -0.11518E-01         0.00000E+00
    0.25278E-02        -0.87723E-02         0.00000E+00
    0.18979E-02        -0.59513E-02         0.00000E+00
    0.10854E-02        -0.30323E-02         0.00000E+00
    0.00000E+00         0.00000E+00         0.00000E+00
    0.67038E-02        -0.41711E-01         0.00000E+00
    0.56482E-02        -0.39073E-01         0.00000E+00
    0.49574E-02        -0.36360E-01         0.00000E+00
    0.44651E-02        -0.33614E-01         0.00000E+00
    0.40868E-02        -0.30867E-01         0.00000E+00
    0.37781E-02        -0.28132E-01         0.00000E+00
    0.35114E-02        -0.25413E-01         0.00000E+00
    0.32676E-02        -0.22707E-01         0.00000E+00
    0.30318E-02        -0.20008E-01         0.00000E+00
    0.27907E-02        -0.17307E-01         0.00000E+00
    0.25308E-02        -0.14590E-01         0.00000E+00
    0.22363E-02        -0.11841E-01         0.00000E+00
    0.18856E-02        -0.90400E-02         0.00000E+00
    0.14452E-02        -0.61578E-02         0.00000E+00
    0.85358E-03        -0.31562E-02         0.00000E+00
    0.00000E+00         0.00000E+00         0.00000E+00
    0.35375E-02        -0.42810E-01         0.00000E+00
    0.29421E-02        -0.40004E-01         0.00000E+00
    0.25941E-02        -0.37131E-01         0.00000E+00
    0.23481E-02        -0.34262E-01         0.00000E+00
    0.21598E-02        -0.31419E-01         0.00000E+00
    0.20062E-02        -0.28608E-01         0.00000E+00
    0.18733E-02        -0.25825E-01         0.00000E+00
    0.17516E-02        -0.23065E-01         0.00000E+00
    0.16336E-02        -0.20320E-01         0.00000E+00
    0.15126E-02        -0.17578E-01         0.00000E+00
    0.13818E-02        -0.14825E-01         0.00000E+00
    0.12329E-02        -0.12044E-01         0.00000E+00
    0.10544E-02        -0.92124E-02         0.00000E+00
    0.82765E-03        -0.62984E-02         0.00000E+00
    0.51641E-03        -0.32542E-02         0.00000E+00
    0.00000E+00         0.00000E+00         0.00000E+00
    0.00000E+00        -0.43294E-01         0.00000E+00
    0.00000E+00        -0.40352E-01         0.00000E+00
    0.00000E+00        -0.37404E-01         0.00000E+00
    0.00000E+00        -0.34487E-01         0.00000E+00
    0.00000E+00        -0.31609E-01         0.00000E+00
    0.00000E+00        -0.28770E-01         0.00000E+00
    0.00000E+00        -0.25965E-01         0.00000E+00
    0.00000E+00        -0.23187E-01         0.00000E+00
    0.00000E+00        -0.20426E-01         0.00000E+00
    0.00000E+00        -0.17670E-01         0.00000E+00
    0.00000E+00        -0.14906E-01         0.00000E+00
    0.00000E+00        -0.12114E-01         0.00000E+00
    0.00000E+00        -0.92723E-02         0.00000E+00
    0.00000E+00        -0.63491E-02         0.00000E+00
    0.00000E+00        -0.32957E-02         0.00000E+00
    0.00000E+00         0.00000E+00         0.00000E+00
CELL_DATA        450
VECTORS vDarcy double 
    0.61311E-07         0.23308E-09         0.00000E+00
    0.60694E-07         0.35263E-09         0.00000E+00
    0.59978E-07         0.34476E-09         0.00000E+00
    0.59314E-07         0.30752E-09         0.00000E+00
    0.58728E-07         0.26901E-09         0.00000E+00
    0.58216E-07         0.23588E-09         0.00000E+00
    0.57764E-07         0.20935E-09         0.00000E+00
    0.57360E-07         0.18920E-09         0.00000E+00
    0.56991E-07         0.17497E-09         0.00000E+00
    0.56645E-07         0.16629E-09         0.00000E+00
    0.56311E-07         0.16290E-09         0.00000E+00
    0.55979E-07         0.16433E-09         0.00000E+00
    0.55641E-07         0.16876E-09         0.00000E+00
    0.55296E-07         0.16872E-09         0.00000E+00
    0.54982E-07         0.13435E-09         0.00000E+00
    0.42339E-07         0.36165E-09         0.00000E+00
    0.42466E-07         0.67451E-09         0.00000E+00
    0.42442E-07         0.73497E-09         0.00000E+00
    0.42304E-07         0.69991E-09         0.00000E+00
    0.42113E-07         0.63790E-09         0.00000E+00
    0.41905E-07         0.57446E-09         0.00000E+00
    0.41698E-07         0.51857E-09         0.00000E+00
    0.41500E-07         0.47296E-09         0.00000E+00
    0.41313E-07         0.43806E-09         0.00000E+00
    0.41141E-07         0.41339E-09         0.00000E+00
    0.40985E-07         0.39778E-09         0.00000E+00
    0.40850E-07         0.38833E-09         0.00000E+00
    0.40746E-07         0.37724E-09         0.00000E+00
    0.40697E-07         0.34291E-09         0.00000E+00
    0.40744E-07         0.21216E-09         0.00000E+00
    0.29802E-07         0.19724E-09         0.00000E+00
    0.29974E-07         0.52977E-09         0.00000E+00
    0.30170E-07         0.69478E-09         0.00000E+00
    0.30297E-07         0.73946E-09         0.00000E+00
    0.30353E-07         0.72366E-09         0.00000E+00
    0.30359E-07         0.68288E-09         0.00000E+00
    0.30334E-07         0.63507E-09         0.00000E+00
    0.30293E-07         0.58857E-09         0.00000E+00
    0.30250E-07         0.54667E-09         0.00000E+00
    0.30211E-07         0.50971E-09         0.00000E+00
    0.30188E-07         0.47556E-09         0.00000E+00
    0.30190E-07         0.43854E-09         0.00000E+00
    0.30228E-07         0.38645E-09         0.00000E+00
    0.30311E-07         0.29414E-09         0.00000E+00
    0.30405E-07         0.11462E-09         0.00000E+00
    0.21345E-07         0.83446E-10         0.00000E+00
    0.21510E-07         0.30375E-09         0.00000E+00
    0.21740E-07         0.48856E-09         0.00000E+00
    0.21959E-07         0.59308E-09         0.00000E+00
    0.22134E-07         0.63352E-09         0.00000E+00
    0.22263E-07         0.63401E-09         0.00000E+00
    0.22355E-07         0.61234E-09         0.00000E+00
    0.22422E-07         0.57925E-09         0.00000E+00
    0.22478E-07         0.54011E-09         0.00000E+00
    0.22532E-07         0.49634E-09         0.00000E+00
    0.22595E-07         0.44600E-09         0.00000E+00
    0.22675E-07         0.38355E-09         0.00000E+00
    0.22775E-07         0.29963E-09         0.00000E+00
    0.22888E-07         0.18294E-09         0.00000E+00
    0.22974E-07         0.43242E-10         0.00000E+00
    0.15710E-07        -0.79457E-11         0.00000E+00
    0.15840E-07         0.99834E-10         0.00000E+00
    0.16045E-07         0.25402E-09         0.00000E+00
    0.16271E-07         0.37940E-09         0.00000E+00
    0.16482E-07         0.45788E-09         0.00000E+00
    0.16665E-07         0.49527E-09         0.00000E+00
    0.16819E-07         0.50228E-09         0.00000E+00
    0.16949E-07         0.48781E-09         0.00000E+00
    0.17065E-07         0.45740E-09         0.00000E+00
    0.17174E-07         0.41328E-09         0.00000E+00
    0.17283E-07         0.35487E-09         0.00000E+00
    0.17397E-07         0.27963E-09         0.00000E+00
    0.17512E-07         0.18547E-09         0.00000E+00
    0.17617E-07         0.78689E-10         0.00000E+00
    0.17685E-07        -0.72842E-11         0.00000E+00
    0.12022E-07        -0.71010E-10         0.00000E+00
    0.12116E-07        -0.60850E-10         0.00000E+00
    0.12279E-07         0.45273E-10         0.00000E+00
    0.12476E-07         0.16311E-09         0.00000E+00
    0.12680E-07         0.25715E-09         0.00000E+00
    0.12873E-07         0.31814E-09         0.00000E+00
    0.13049E-07         0.34795E-09         0.00000E+00
    0.13207E-07         0.35132E-09         0.00000E+00
    0.13351E-07         0.33244E-09         0.00000E+00
    0.13485E-07         0.29387E-09         0.00000E+00
    0.13611E-07         0.23687E-09         0.00000E+00
    0.13731E-07         0.16279E-09         0.00000E+00
    0.13840E-07         0.76823E-10         0.00000E+00
    0.13926E-07        -0.44041E-11         0.00000E+00
    0.13975E-07        -0.40063E-10         0.00000E+00
    0.96863E-08        -0.11203E-09         0.00000E+00
    0.97501E-08        -0.17752E-09         0.00000E+00
    0.98709E-08        -0.12221E-09         0.00000E+00
    0.10030E-07        -0.27037E-10         0.00000E+00
    0.10207E-07         0.65317E-10         0.00000E+00
    0.10386E-07         0.13633E-09         0.00000E+00
    0.10558E-07         0.18050E-09         0.00000E+00
    0.10720E-07         0.19811E-09         0.00000E+00
    0.10869E-07         0.19130E-09         0.00000E+00
    0.11006E-07         0.16253E-09         0.00000E+00
    0.11132E-07         0.11460E-09         0.00000E+00
    0.11244E-07         0.52142E-10         0.00000E+00
    0.11337E-07        -0.14932E-10         0.00000E+00
    0.11404E-07        -0.65635E-10         0.00000E+00
    0.11437E-07        -0.59942E-10         0.00000E+00
    0.82973E-08        -0.13714E-09         0.00000E+00
    0.83387E-08        -0.25781E-09         0.00000E+00
    0.84241E-08        -0.24850E-09         0.00000E+00
    0.85456E-08        -0.18194E-09         0.00000E+00
    0.86899E-08        -0.10173E-09         0.00000E+00
    0.88442E-08        -0.31001E-10         0.00000E+00
    0.89990E-08         0.19824E-10         0.00000E+00
    0.91484E-08         0.47364E-10         0.00000E+00
    0.92886E-08         0.51768E-10         0.00000E+00
    0.94172E-08         0.35049E-10         0.00000E+00
    0.95318E-08         0.92113E-12         0.00000E+00
    0.96290E-08        -0.44013E-10         0.00000E+00
    0.97044E-08        -0.87666E-10         0.00000E+00
    0.97534E-08        -0.10852E-09         0.00000E+00
    0.97745E-08        -0.70921E-10         0.00000E+00
    0.75793E-08        -0.15134E-09         0.00000E+00
    0.76046E-08        -0.31047E-09         0.00000E+00
    0.76626E-08        -0.33955E-09         0.00000E+00
    0.77517E-08        -0.30195E-09         0.00000E+00
    0.78641E-08        -0.23890E-09         0.00000E+00
    0.79904E-08        -0.17494E-09         0.00000E+00
    0.81218E-08        -0.12320E-09         0.00000E+00
    0.82517E-08        -0.89560E-10         0.00000E+00
    0.83751E-08        -0.75514E-10         0.00000E+00
    0.84880E-08        -0.79663E-10         0.00000E+00
    0.85865E-08        -0.98029E-10         0.00000E+00
    0.86671E-08        -0.12328E-09         0.00000E+00
    0.87259E-08        -0.14302E-09         0.00000E+00
    0.87609E-08        -0.13732E-09         0.00000E+00
    0.87737E-08        -0.76055E-10         0.00000E+00
    0.73448E-08        -0.15827E-09         0.00000E+00
    0.73588E-08        -0.34307E-09         0.00000E+00
    0.73963E-08        -0.40262E-09         0.00000E+00
    0.74592E-08        -0.39138E-09         0.00000E+00
    0.75437E-08        -0.34680E-09         0.00000E+00
    0.76430E-08        -0.29294E-09         0.00000E+00
    0.77498E-08        -0.24395E-09         0.00000E+00
    0.78577E-08        -0.20719E-09         0.00000E+00
    0.79612E-08        -0.18532E-09         0.00000E+00
    0.80557E-08        -0.17761E-09         0.00000E+00
    0.81370E-08        -0.18031E-09         0.00000E+00
    0.82014E-08        -0.18626E-09         0.00000E+00
    0.82460E-08        -0.18389E-09         0.00000E+00
    0.82703E-08        -0.15583E-09         0.00000E+00
    0.82775E-08        -0.77556E-10         0.00000E+00
    0.74657E-08        -0.16048E-09         0.00000E+00
    0.74720E-08        -0.36149E-09         0.00000E+00
    0.74944E-08        -0.44432E-09         0.00000E+00
    0.75370E-08        -0.45560E-09         0.00000E+00
    0.75982E-08        -0.42864E-09         0.00000E+00
    0.76735E-08        -0.38596E-09         0.00000E+00
    0.77571E-08        -0.34174E-09         0.00000E+00
    0.78433E-08        -0.30395E-09         0.00000E+00
    0.79268E-08        -0.27605E-09         0.00000E+00
    0.80030E-08        -0.25791E-09         0.00000E+00
    0.80677E-08        -0.24633E-09         0.00000E+00
    0.81177E-08        -0.23484E-09         0.00000E+00
    0.81508E-08        -0.21331E-09         0.00000E+00
    0.81671E-08        -0.16717E-09         0.00000E+00
    0.81706E-08        -0.76969E-10         0.00000E+00
    0.78543E-08        -0.15965E-09         0.00000E+00
    0.78553E-08        -0.37002E-09         0.00000E+00
    0.78668E-08        -0.47007E-09         0.00000E+00
    0.78937E-08        -0.49975E-09         0.00000E+00
    0.79361E-08        -0.48842E-09         0.00000E+00
    0.79909E-08        -0.45664E-09         0.00000E+00
    0.80539E-08        -0.41800E-09         0.00000E+00
    0.81202E-08        -0.38059E-09         0.00000E+00
    0.81852E-08        -0.34827E-09         0.00000E+00
    0.82445E-08        -0.32148E-09         0.00000E+00
    0.82944E-08        -0.29766E-09         0.00000E+00
    0.83320E-08        -0.27133E-09         0.00000E+00
    0.83558E-08        -0.23393E-09         0.00000E+00
    0.83664E-08        -0.17365E-09         0.00000E+00
    0.83676E-08        -0.75326E-10         0.00000E+00
    0.84492E-08        -0.15689E-09         0.00000E+00
    0.84466E-08        -0.37168E-09         0.00000E+00
    0.84502E-08        -0.48394E-09         0.00000E+00
    0.84651E-08        -0.52812E-09         0.00000E+00
    0.84924E-08        -0.52998E-09         0.00000E+00
    0.85302E-08        -0.50810E-09         0.00000E+00
    0.85754E-08        -0.47511E-09         0.00000E+00
    0.86242E-08        -0.43893E-09         0.00000E+00
    0.86727E-08        -0.40361E-09         0.00000E+00
    0.87170E-08        -0.37002E-09         0.00000E+00
    0.87540E-08        -0.33628E-09         0.00000E+00
    0.87813E-08        -0.29791E-09         0.00000E+00
    0.87979E-08        -0.24794E-09         0.00000E+00
    0.88044E-08        -0.17694E-09         0.00000E+00
    0.88042E-08        -0.73277E-10         0.00000E+00
    0.92069E-08        -0.15288E-09         0.00000E+00
    0.92017E-08        -0.36845E-09         0.00000E+00
    0.91994E-08        -0.48888E-09         0.00000E+00
    0.92049E-08        -0.54405E-09         0.00000E+00
    0.92199E-08        -0.55663E-09         0.00000E+00
    0.92436E-08        -0.54328E-09         0.00000E+00
    0.92737E-08        -0.51563E-09         0.00000E+00
    0.93074E-08        -0.48119E-09         0.00000E+00
    0.93414E-08        -0.44405E-09         0.00000E+00
    0.93727E-08        -0.40544E-09         0.00000E+00
    0.93987E-08        -0.36407E-09         0.00000E+00
    0.94174E-08        -0.31643E-09         0.00000E+00
    0.94282E-08        -0.25692E-09         0.00000E+00
    0.94317E-08        -0.17814E-09         0.00000E+00
    0.94307E-08        -0.71188E-10         0.00000E+00
    0.10095E-07        -0.14801E-09         0.00000E+00
    0.10087E-07        -0.36158E-09         0.00000E+00
    0.10080E-07        -0.48685E-09         0.00000E+00
    0.10078E-07        -0.54997E-09         0.00000E+00
    0.10083E-07        -0.57094E-09         0.00000E+00
    0.10095E-07        -0.56469E-09         0.00000E+00
    0.10112E-07        -0.54184E-09         0.00000E+00
    0.10133E-07        -0.50944E-09         0.00000E+00
    0.10154E-07        -0.47151E-09         0.00000E+00
    0.10174E-07        -0.42951E-09         0.00000E+00
    0.10191E-07        -0.38268E-09         0.00000E+00
    0.10202E-07        -0.32830E-09         0.00000E+00
    0.10208E-07        -0.26198E-09         0.00000E+00
    0.10209E-07        -0.17790E-09         0.00000E+00
    0.10208E-07        -0.69223E-10         0.00000E+00
    0.11086E-07        -0.14244E-09         0.00000E+00
    0.11077E-07        -0.35174E-09         0.00000E+00
    0.11066E-07        -0.47909E-09         0.00000E+00
    0.11057E-07        -0.54751E-09         0.00000E+00
    0.11054E-07        -0.57477E-09         0.00000E+00
    0.11055E-07        -0.57425E-09         0.00000E+00
    0.11061E-07        -0.55563E-09         0.00000E+00
    0.11070E-07        -0.52545E-09         0.00000E+00
    0.11080E-07        -0.48759E-09         0.00000E+00
    0.11090E-07        -0.44367E-09         0.00000E+00
    0.11099E-07        -0.39332E-09         0.00000E+00
    0.11104E-07        -0.33452E-09         0.00000E+00
    0.11106E-07        -0.26379E-09         0.00000E+00
    0.11105E-07        -0.17653E-09         0.00000E+00
    0.11103E-07        -0.67397E-10         0.00000E+00
    0.12159E-07        -0.13620E-09         0.00000E+00
    0.12148E-07        -0.33922E-09         0.00000E+00
    0.12133E-07        -0.46623E-09         0.00000E+00
    0.12119E-07        -0.53766E-09         0.00000E+00
    0.12107E-07        -0.56937E-09         0.00000E+00
    0.12099E-07        -0.57336E-09         0.00000E+00
    0.12095E-07        -0.55842E-09         0.00000E+00
    0.12094E-07        -0.53059E-09         0.00000E+00
    0.12094E-07        -0.49356E-09         0.00000E+00
    0.12095E-07        -0.44901E-09         0.00000E+00
    0.12096E-07        -0.39689E-09         0.00000E+00
    0.12096E-07        -0.33570E-09         0.00000E+00
    0.12094E-07        -0.26266E-09         0.00000E+00
    0.12091E-07        -0.17408E-09         0.00000E+00
    0.12088E-07        -0.65631E-10         0.00000E+00
    0.13291E-07        -0.12922E-09         0.00000E+00
    0.13279E-07        -0.32401E-09         0.00000E+00
    0.13260E-07        -0.44852E-09         0.00000E+00
    0.13240E-07        -0.52097E-09         0.00000E+00
    0.13221E-07        -0.55552E-09         0.00000E+00
    0.13205E-07        -0.56297E-09         0.00000E+00
    0.13191E-07        -0.55124E-09         0.00000E+00
    0.13181E-07        -0.52588E-09         0.00000E+00
    0.13172E-07        -0.49034E-09         0.00000E+00
    0.13165E-07        -0.44631E-09         0.00000E+00
    0.13159E-07        -0.39396E-09         0.00000E+00
    0.13153E-07        -0.33216E-09         0.00000E+00
    0.13147E-07        -0.25868E-09         0.00000E+00
    0.13142E-07        -0.17044E-09         0.00000E+00
    0.13139E-07        -0.63782E-10         0.00000E+00
    0.14463E-07        -0.12137E-09         0.00000E+00
    0.14448E-07        -0.30596E-09         0.00000E+00
    0.14426E-07        -0.42598E-09         0.00000E+00
    0.14400E-07        -0.49769E-09         0.00000E+00
    0.14374E-07        -0.53372E-09         0.00000E+00
    0.14350E-07        -0.54374E-09         0.00000E+00
    0.14327E-07        -0.53486E-09         0.00000E+00
    0.14308E-07        -0.51209E-09         0.00000E+00
    0.14291E-07        -0.47864E-09         0.00000E+00
    0.14277E-07        -0.43613E-09         0.00000E+00
    0.14264E-07        -0.38489E-09         0.00000E+00
    0.14253E-07        -0.32404E-09         0.00000E+00
    0.14243E-07        -0.25176E-09         0.00000E+00
    0.14236E-07        -0.16539E-09         0.00000E+00
    0.14232E-07        -0.61684E-10         0.00000E+00
    0.15651E-07        -0.11249E-09         0.00000E+00
    0.15635E-07        -0.28485E-09         0.00000E+00
    0.15608E-07        -0.39852E-09         0.00000E+00
    0.15577E-07        -0.46795E-09         0.00000E+00
    0.15544E-07        -0.50433E-09         0.00000E+00
    0.15512E-07        -0.51621E-09         0.00000E+00
    0.15482E-07        -0.50991E-09         0.00000E+00
    0.15455E-07        -0.48989E-09         0.00000E+00
    0.15430E-07        -0.45906E-09         0.00000E+00
    0.15408E-07        -0.41895E-09         0.00000E+00
    0.15389E-07        -0.36995E-09         0.00000E+00
    0.15373E-07        -0.31140E-09         0.00000E+00
    0.15360E-07        -0.24177E-09         0.00000E+00
    0.15350E-07        -0.15870E-09         0.00000E+00
    0.15345E-07        -0.59161E-10         0.00000E+00
    0.16834E-07        -0.10245E-09         0.00000E+00
    0.16816E-07        -0.26049E-09         0.00000E+00
    0.16785E-07        -0.36609E-09         0.00000E+00
    0.16749E-07        -0.43192E-09         0.00000E+00
    0.16709E-07        -0.46774E-09         0.00000E+00
    0.16670E-07        -0.48096E-09         0.00000E+00
    0.16633E-07        -0.47708E-09         0.00000E+00
    0.16598E-07        -0.45997E-09         0.00000E+00
    0.16567E-07        -0.43222E-09         0.00000E+00
    0.16538E-07        -0.39523E-09         0.00000E+00
    0.16514E-07        -0.34942E-09         0.00000E+00
    0.16493E-07        -0.29432E-09         0.00000E+00
    0.16476E-07        -0.22860E-09         0.00000E+00
    0.16464E-07        -0.15014E-09         0.00000E+00
    0.16457E-07        -0.56059E-10         0.00000E+00
    0.17988E-07        -0.91177E-10         0.00000E+00
    0.17968E-07        -0.23283E-09         0.00000E+00
    0.17934E-07        -0.32882E-09         0.00000E+00
    0.17892E-07        -0.38998E-09         0.00000E+00
    0.17847E-07        -0.42455E-09         0.00000E+00
    0.17802E-07        -0.43876E-09         0.00000E+00
    0.17758E-07        -0.43720E-09         0.00000E+00
    0.17717E-07        -0.42317E-09         0.00000E+00
    0.17680E-07        -0.39887E-09         0.00000E+00
    0.17646E-07        -0.36557E-09         0.00000E+00
    0.17616E-07        -0.32372E-09         0.00000E+00
    0.17590E-07        -0.27297E-09         0.00000E+00
    0.17570E-07        -0.21222E-09         0.00000E+00
    0.17555E-07        -0.13956E-09         0.00000E+00
    0.17548E-07        -0.52252E-10         0.00000E+00
    0.19090E-07        -0.78655E-10         0.00000E+00
    0.19068E-07        -0.20201E-09         0.00000E+00
    0.19031E-07        -0.28714E-09         0.00000E+00
    0.18985E-07        -0.34284E-09         0.00000E+00
    0.18935E-07        -0.37570E-09         0.00000E+00
    0.18885E-07        -0.39068E-09         0.00000E+00
    0.18837E-07        -0.39141E-09         0.00000E+00
    0.18791E-07        -0.38058E-09         0.00000E+00
    0.18748E-07        -0.36000E-09         0.00000E+00
    0.18710E-07        -0.33079E-09         0.00000E+00
    0.18676E-07        -0.29342E-09         0.00000E+00
    0.18646E-07        -0.24769E-09         0.00000E+00
    0.18623E-07        -0.19274E-09         0.00000E+00
    0.18606E-07        -0.12693E-09         0.00000E+00
    0.18597E-07        -0.47660E-10         0.00000E+00
    0.20117E-07        -0.65007E-10         0.00000E+00
    0.20094E-07        -0.16851E-09         0.00000E+00
    0.20054E-07        -0.24189E-09         0.00000E+00
    0.20006E-07        -0.29164E-09         0.00000E+00
    0.19953E-07        -0.32255E-09         0.00000E+00
    0.19900E-07        -0.33815E-09         0.00000E+00
    0.19848E-07        -0.34115E-09         0.00000E+00
    0.19799E-07        -0.33356E-09         0.00000E+00
    0.19753E-07        -0.31682E-09         0.00000E+00
    0.19711E-07        -0.29191E-09         0.00000E+00
    0.19674E-07        -0.25931E-09         0.00000E+00
    0.19641E-07        -0.21902E-09         0.00000E+00
    0.19615E-07        -0.17046E-09         0.00000E+00
    0.19596E-07        -0.11230E-09         0.00000E+00
    0.19586E-07        -0.42255E-10         0.00000E+00
    0.21049E-07        -0.50508E-10         0.00000E+00
    0.21025E-07        -0.13317E-09         0.00000E+00
    0.20985E-07        -0.19440E-09         0.00000E+00
    0.20936E-07        -0.23805E-09         0.00000E+00
    0.20882E-07        -0.26688E-09         0.00000E+00
    0.20828E-07        -0.28301E-09         0.00000E+00
    0.20774E-07        -0.28815E-09         0.00000E+00
    0.20723E-07        -0.28369E-09         0.00000E+00
    0.20676E-07        -0.27075E-09         0.00000E+00
    0.20632E-07        -0.25014E-09         0.00000E+00
    0.20592E-07        -0.22240E-09         0.00000E+00
    0.20558E-07        -0.18771E-09         0.00000E+00
    0.20530E-07        -0.14584E-09         0.00000E+00
    0.20509E-07        -0.95908E-10         0.00000E+00
    0.20498E-07        -0.36063E-10         0.00000E+00
    0.21869E-07        -0.35633E-10         0.00000E+00
    0.21846E-07        -0.97318E-10         0.00000E+00
    0.21807E-07        -0.14658E-09         0.00000E+00
    0.21759E-07        -0.18424E-09         0.00000E+00
    0.21707E-07        -0.21091E-09         0.00000E+00
    0.21653E-07        -0.22731E-09         0.00000E+00
    0.21600E-07        -0.23426E-09         0.00000E+00
    0.21550E-07        -0.23263E-09         0.00000E+00
    0.21502E-07        -0.22323E-09         0.00000E+00
    0.21457E-07        -0.20676E-09         0.00000E+00
    0.21417E-07        -0.18378E-09         0.00000E+00
    0.21382E-07        -0.15466E-09         0.00000E+00
    0.21353E-07        -0.11953E-09         0.00000E+00
    0.21331E-07        -0.78087E-10         0.00000E+00
    0.21319E-07        -0.29162E-10         0.00000E+00
    0.22565E-07        -0.21124E-10         0.00000E+00
    0.22545E-07        -0.62877E-10         0.00000E+00
    0.22509E-07        -0.10095E-09         0.00000E+00
    0.22466E-07        -0.13278E-09         0.00000E+00
    0.22418E-07        -0.15697E-09         0.00000E+00
    0.22367E-07        -0.17303E-09         0.00000E+00
    0.22317E-07        -0.18114E-09         0.00000E+00
    0.22268E-07        -0.18175E-09         0.00000E+00
    0.22220E-07        -0.17546E-09         0.00000E+00
    0.22176E-07        -0.16284E-09         0.00000E+00
    0.22136E-07        -0.14445E-09         0.00000E+00
    0.22101E-07        -0.12079E-09         0.00000E+00
    0.22072E-07        -0.92306E-10         0.00000E+00
    0.22050E-07        -0.59326E-10         0.00000E+00
    0.22038E-07        -0.21681E-10         0.00000E+00
    0.23135E-07        -0.81146E-11         0.00000E+00
    0.23120E-07        -0.32493E-10         0.00000E+00
    0.23092E-07        -0.60536E-10         0.00000E+00
    0.23056E-07        -0.86358E-10         0.00000E+00
    0.23014E-07        -0.10708E-09         0.00000E+00
    0.22968E-07        -0.12160E-09         0.00000E+00
    0.22920E-07        -0.12971E-09         0.00000E+00
    0.22873E-07        -0.13167E-09         0.00000E+00
    0.22826E-07        -0.12788E-09         0.00000E+00
    0.22782E-07        -0.11884E-09         0.00000E+00
    0.22743E-07        -0.10501E-09         0.00000E+00
    0.22708E-07        -0.86892E-10         0.00000E+00
    0.22679E-07        -0.65055E-10         0.00000E+00
    0.22658E-07        -0.40286E-10         0.00000E+00
    0.22646E-07        -0.13821E-10         0.00000E+00
    0.23588E-07         0.16320E-11         0.00000E+00
    0.23582E-07        -0.99548E-11         0.00000E+00
    0.23566E-07        -0.28632E-10         0.00000E+00
    0.23539E-07        -0.46993E-10         0.00000E+00
    0.23504E-07        -0.62120E-10         0.00000E+00
    0.23462E-07        -0.72988E-10         0.00000E+00
    0.23416E-07        -0.79399E-10         0.00000E+00
    0.23368E-07        -0.81508E-10         0.00000E+00
    0.23321E-07        -0.79607E-10         0.00000E+00
    0.23276E-07        -0.74020E-10         0.00000E+00
    0.23235E-07        -0.65070E-10         0.00000E+00
    0.23199E-07        -0.53098E-10         0.00000E+00
    0.23172E-07        -0.38556E-10         0.00000E+00
    0.23153E-07        -0.22213E-10         0.00000E+00
    0.23142E-07        -0.57863E-11         0.00000E+00
    0.23950E-07         0.27098E-11         0.00000E+00
    0.23960E-07        -0.60552E-12         0.00000E+00
    0.23958E-07        -0.76071E-11         0.00000E+00
    0.23941E-07        -0.14629E-10         0.00000E+00
    0.23910E-07        -0.20433E-10         0.00000E+00
    0.23869E-07        -0.24632E-10         0.00000E+00
    0.23820E-07        -0.27163E-10         0.00000E+00
    0.23767E-07        -0.28093E-10         0.00000E+00
    0.23714E-07        -0.27533E-10         0.00000E+00
    0.23663E-07        -0.25603E-10         0.00000E+00
    0.23617E-07        -0.22418E-10         0.00000E+00
    0.23579E-07        -0.18094E-10         0.00000E+00
    0.23550E-07        -0.12785E-10         0.00000E+00
    0.23534E-07        -0.68164E-11         0.00000E+00
    0.23529E-07        -0.87306E-12         0.00000E+00
POINT_DATA        496
VECTORS vDarcyNodal double 
    0.61545E-07         0.00000E+00         0.00000E+00
    0.61063E-07         0.00000E+00         0.00000E+00
    0.60332E-07         0.00000E+00         0.00000E+00
    0.59627E-07         0.00000E+00         0.00000E+00
    0.59002E-07         0.00000E+00         0.00000E+00
    0.58455E-07         0.00000E+00         0.00000E+00
    0.57977E-07         0.00000E+00         0.00000E+00
    0.57552E-07         0.00000E+00         0.00000E+00
    0.57168E-07         0.00000E+00         0.00000E+00
    0.56814E-07         0.00000E+00         0.00000E+00
    0.56476E-07         0.00000E+00         0.00000E+00
    0.56146E-07         0.00000E+00         0.00000E+00
    0.55812E-07        -0.66619E-22         0.00000E+00
    0.55468E-07        -0.83313E-26         0.00000E+00
    0.55122E-07         0.66611E-22         0.00000E+00
    0.54847E-07         0.00000E+00         0.00000E+00
    0.51890E-07         0.46593E-09         0.00000E+00
    0.51751E-07         0.58549E-09         0.00000E+00
    0.51412E-07         0.69719E-09         0.00000E+00
    0.51010E-07         0.65212E-09         0.00000E+00
    0.50609E-07         0.57639E-09         0.00000E+00
    0.50233E-07         0.50477E-09         0.00000E+00
    0.49888E-07         0.44513E-09         0.00000E+00
    0.49574E-07         0.39847E-09         0.00000E+00
    0.49286E-07         0.36410E-09         0.00000E+00
    0.49018E-07         0.34119E-09         0.00000E+00
    0.48767E-07         0.32912E-09         0.00000E+00
    0.48528E-07         0.32716E-09         0.00000E+00
    0.48300E-07         0.33302E-09         0.00000E+00
    0.48087E-07         0.33742E-09         0.00000E+00
    0.47906E-07         0.30303E-09         0.00000E+00
    0.47824E-07         0.26867E-09         0.00000E+00
    0.35989E-07         0.25753E-09         0.00000E+00
    0.36150E-07         0.45078E-09         0.00000E+00
    0.36289E-07         0.71233E-09         0.00000E+00
    0.36323E-07         0.78277E-09         0.00000E+00
    0.36278E-07         0.76142E-09         0.00000E+00
    0.36188E-07         0.70758E-09         0.00000E+00
    0.36076E-07         0.64789E-09         0.00000E+00
    0.35956E-07         0.59305E-09         0.00000E+00
    0.35837E-07         0.54691E-09         0.00000E+00
    0.35726E-07         0.51025E-09         0.00000E+00
    0.35627E-07         0.48205E-09         0.00000E+00
    0.35546E-07         0.45895E-09         0.00000E+00
    0.35493E-07         0.43256E-09         0.00000E+00
    0.35481E-07         0.38275E-09         0.00000E+00
    0.35527E-07         0.25206E-09         0.00000E+00
    0.35623E-07         0.15566E-09         0.00000E+00
    0.25517E-07         0.13700E-09         0.00000E+00
    0.25630E-07         0.27629E-09         0.00000E+00
    0.25853E-07         0.51230E-09         0.00000E+00
    0.26057E-07         0.65153E-09         0.00000E+00
    0.26200E-07         0.70174E-09         0.00000E+00
    0.26287E-07         0.69898E-09         0.00000E+00
    0.26334E-07         0.67009E-09         0.00000E+00
    0.26354E-07         0.63062E-09         0.00000E+00
    0.26362E-07         0.58835E-09         0.00000E+00
    0.26366E-07         0.54615E-09         0.00000E+00
    0.26378E-07         0.50325E-09         0.00000E+00
    0.26406E-07         0.45517E-09         0.00000E+00
    0.26459E-07         0.39245E-09         0.00000E+00
    0.26544E-07         0.29786E-09         0.00000E+00
    0.26654E-07         0.15672E-09         0.00000E+00
    0.26725E-07         0.73597E-10         0.00000E+00
    0.18482E-07         0.29919E-10         0.00000E+00
    0.18573E-07         0.11095E-09         0.00000E+00
    0.18776E-07         0.28007E-09         0.00000E+00
    0.19009E-07         0.43016E-09         0.00000E+00
    0.19221E-07         0.52490E-09         0.00000E+00
    0.19395E-07         0.56858E-09         0.00000E+00
    0.19532E-07         0.57629E-09         0.00000E+00
    0.19641E-07         0.56100E-09         0.00000E+00
    0.19731E-07         0.53103E-09         0.00000E+00
    0.19812E-07         0.49033E-09         0.00000E+00
    0.19894E-07         0.43911E-09         0.00000E+00
    0.19984E-07         0.37439E-09         0.00000E+00
    0.20087E-07         0.29075E-09         0.00000E+00
    0.20201E-07         0.18473E-09         0.00000E+00
    0.20304E-07         0.69469E-10         0.00000E+00
    0.20355E-07         0.12892E-10         0.00000E+00
    0.13834E-07        -0.45800E-10         0.00000E+00
    0.13897E-07        -0.19041E-10         0.00000E+00
    0.14058E-07         0.73816E-10         0.00000E+00
    0.14266E-07         0.20330E-09         0.00000E+00
    0.14481E-07         0.31242E-09         0.00000E+00
    0.14681E-07         0.38460E-09         0.00000E+00
    0.14857E-07         0.42129E-09         0.00000E+00
    0.15010E-07         0.42912E-09         0.00000E+00
    0.15146E-07         0.41420E-09         0.00000E+00
    0.15270E-07         0.38036E-09         0.00000E+00
    0.15389E-07         0.32905E-09         0.00000E+00
    0.15506E-07         0.26013E-09         0.00000E+00
    0.15622E-07         0.17437E-09         0.00000E+00
    0.15730E-07         0.79439E-10         0.00000E+00
    0.15813E-07         0.19404E-11         0.00000E+00
    0.15846E-07        -0.27458E-10         0.00000E+00
    0.10834E-07        -0.96216E-10         0.00000E+00
    0.10875E-07        -0.11281E-09         0.00000E+00
    0.10991E-07        -0.89376E-10         0.00000E+00
    0.11158E-07         0.51035E-11         0.00000E+00
    0.11348E-07         0.10786E-09         0.00000E+00
    0.11539E-07         0.19070E-09         0.00000E+00
    0.11720E-07         0.24481E-09         0.00000E+00
    0.11887E-07         0.27017E-09         0.00000E+00
    0.12040E-07         0.26957E-09         0.00000E+00
    0.12180E-07         0.24596E-09         0.00000E+00
    0.12311E-07         0.20170E-09         0.00000E+00
    0.12433E-07         0.13954E-09         0.00000E+00
    0.12543E-07         0.65256E-10         0.00000E+00
    0.12635E-07        -0.70141E-11         0.00000E+00
    0.12696E-07        -0.46404E-10         0.00000E+00
    0.12716E-07        -0.52666E-10         0.00000E+00
    0.89792E-08        -0.12785E-09         0.00000E+00
    0.90043E-08        -0.17674E-09         0.00000E+00
    0.90845E-08        -0.21035E-09         0.00000E+00
    0.92105E-08        -0.15434E-09         0.00000E+00
    0.93651E-08        -0.69563E-10         0.00000E+00
    0.95317E-08         0.10962E-10         0.00000E+00
    0.96986E-08         0.72039E-10         0.00000E+00
    0.98589E-08         0.10846E-09         0.00000E+00
    0.10009E-07         0.11984E-09         0.00000E+00
    0.10148E-07         0.10788E-09         0.00000E+00
    0.10275E-07         0.75432E-10         0.00000E+00
    0.10389E-07         0.27204E-10         0.00000E+00
    0.10485E-07        -0.28042E-10         0.00000E+00
    0.10557E-07        -0.73550E-10         0.00000E+00
    0.10600E-07        -0.79171E-10         0.00000E+00
    0.10611E-07        -0.67216E-10         0.00000E+00
    0.79312E-08        -0.14643E-09         0.00000E+00
    0.79454E-08        -0.21822E-09         0.00000E+00
    0.79979E-08        -0.29596E-09         0.00000E+00
    0.80888E-08        -0.27608E-09         0.00000E+00
    0.82086E-08        -0.21409E-09         0.00000E+00
    0.83454E-08        -0.14368E-09         0.00000E+00
    0.84891E-08        -0.83206E-10         0.00000E+00
    0.86318E-08        -0.41260E-10         0.00000E+00
    0.87684E-08        -0.20699E-10         0.00000E+00
    0.88954E-08        -0.21052E-10         0.00000E+00
    0.90098E-08        -0.39455E-10         0.00000E+00
    0.91085E-08        -0.70291E-10         0.00000E+00
    0.91876E-08        -0.10363E-09         0.00000E+00
    0.92428E-08        -0.12264E-09         0.00000E+00
    0.92716E-08        -0.10027E-09         0.00000E+00
    0.92767E-08        -0.74626E-10         0.00000E+00
    0.74586E-08        -0.15625E-09         0.00000E+00
    0.74655E-08        -0.24359E-09         0.00000E+00
    0.74980E-08        -0.35406E-09         0.00000E+00
    0.75609E-08        -0.36541E-09         0.00000E+00
    0.76501E-08        -0.32675E-09         0.00000E+00
    0.77578E-08        -0.27015E-09         0.00000E+00
    0.78755E-08        -0.21493E-09         0.00000E+00
    0.79960E-08        -0.17149E-09         0.00000E+00
    0.81134E-08        -0.14437E-09         0.00000E+00
    0.82230E-08        -0.13412E-09         0.00000E+00
    0.83207E-08        -0.13823E-09         0.00000E+00
    0.84028E-08        -0.15102E-09         0.00000E+00
    0.84656E-08        -0.16267E-09         0.00000E+00
    0.85064E-08        -0.15770E-09         0.00000E+00
    0.85249E-08        -0.11310E-09         0.00000E+00
    0.85263E-08        -0.77484E-10         0.00000E+00
    0.74042E-08        -0.16030E-09         0.00000E+00
    0.74063E-08        -0.25775E-09         0.00000E+00
    0.74246E-08        -0.39162E-09         0.00000E+00
    0.74661E-08        -0.42858E-09         0.00000E+00
    0.75302E-08        -0.41143E-09         0.00000E+00
    0.76118E-08        -0.36958E-09         0.00000E+00
    0.77046E-08        -0.32195E-09         0.00000E+00
    0.78022E-08        -0.27964E-09         0.00000E+00
    0.78988E-08        -0.24813E-09         0.00000E+00
    0.79893E-08        -0.22880E-09         0.00000E+00
    0.80694E-08        -0.21968E-09         0.00000E+00
    0.81353E-08        -0.21555E-09         0.00000E+00
    0.81838E-08        -0.20748E-09         0.00000E+00
    0.82131E-08        -0.18203E-09         0.00000E+00
    0.82243E-08        -0.12029E-09         0.00000E+00
    0.82237E-08        -0.77628E-10         0.00000E+00
    0.76604E-08        -0.16065E-09         0.00000E+00
    0.76595E-08        -0.26421E-09         0.00000E+00
    0.76678E-08        -0.41419E-09         0.00000E+00
    0.76934E-08        -0.47135E-09         0.00000E+00
    0.77374E-08        -0.47282E-09         0.00000E+00
    0.77970E-08        -0.44502E-09         0.00000E+00
    0.78675E-08        -0.40574E-09         0.00000E+00
    0.79435E-08        -0.36604E-09         0.00000E+00
    0.80200E-08        -0.33187E-09         0.00000E+00
    0.80921E-08        -0.30516E-09         0.00000E+00
    0.81555E-08        -0.28456E-09         0.00000E+00
    0.82067E-08        -0.26562E-09         0.00000E+00
    0.82430E-08        -0.24067E-09         0.00000E+00
    0.82636E-08        -0.19844E-09         0.00000E+00
    0.82700E-08        -0.12384E-09         0.00000E+00
    0.82683E-08        -0.76309E-10         0.00000E+00
    0.81531E-08        -0.15864E-09         0.00000E+00
    0.81502E-08        -0.26545E-09         0.00000E+00
    0.81517E-08        -0.42590E-09         0.00000E+00
    0.81653E-08        -0.49847E-09         0.00000E+00
    0.81935E-08        -0.51534E-09         0.00000E+00
    0.82349E-08        -0.50004E-09         0.00000E+00
    0.82862E-08        -0.46890E-09         0.00000E+00
    0.83432E-08        -0.43254E-09         0.00000E+00
    0.84013E-08        -0.39698E-09         0.00000E+00
    0.84565E-08        -0.36459E-09         0.00000E+00
    0.85049E-08        -0.33458E-09         0.00000E+00
    0.85434E-08        -0.30337E-09         0.00000E+00
    0.85699E-08        -0.26460E-09         0.00000E+00
    0.85838E-08        -0.20914E-09         0.00000E+00
    0.85870E-08        -0.12513E-09         0.00000E+00
    0.85849E-08        -0.74342E-10         0.00000E+00
    0.88301E-08        -0.15514E-09         0.00000E+00
    0.88259E-08        -0.26311E-09         0.00000E+00
    0.88224E-08        -0.42971E-09         0.00000E+00
    0.88271E-08        -0.51359E-09         0.00000E+00
    0.88429E-08        -0.54275E-09         0.00000E+00
    0.88694E-08        -0.53804E-09         0.00000E+00
    0.89044E-08        -0.51431E-09         0.00000E+00
    0.89447E-08        -0.48150E-09         0.00000E+00
    0.89869E-08        -0.44555E-09         0.00000E+00
    0.90272E-08        -0.40903E-09         0.00000E+00
    0.90625E-08        -0.37171E-09         0.00000E+00
    0.90902E-08        -0.33082E-09         0.00000E+00
    0.91086E-08        -0.28125E-09         0.00000E+00
    0.91175E-08        -0.21573E-09         0.00000E+00
    0.91186E-08        -0.12508E-09         0.00000E+00
    0.91164E-08        -0.72211E-10         0.00000E+00
    0.96532E-08        -0.15063E-09         0.00000E+00
    0.96482E-08        -0.25822E-09         0.00000E+00
    0.96410E-08        -0.42761E-09         0.00000E+00
    0.96387E-08        -0.51934E-09         0.00000E+00
    0.96444E-08        -0.55793E-09         0.00000E+00
    0.96586E-08        -0.56187E-09         0.00000E+00
    0.96798E-08        -0.54460E-09         0.00000E+00
    0.97059E-08        -0.51531E-09         0.00000E+00
    0.97341E-08        -0.47968E-09         0.00000E+00
    0.97614E-08        -0.44046E-09         0.00000E+00
    0.97854E-08        -0.39780E-09         0.00000E+00
    0.98039E-08        -0.34968E-09         0.00000E+00
    0.98156E-08        -0.29210E-09         0.00000E+00
    0.98206E-08        -0.21932E-09         0.00000E+00
    0.98202E-08        -0.12424E-09         0.00000E+00
    0.98182E-08        -0.70166E-10         0.00000E+00
    0.10593E-07        -0.14539E-09         0.00000E+00
    0.10587E-07        -0.25137E-09         0.00000E+00
    0.10577E-07        -0.42082E-09         0.00000E+00
    0.10569E-07        -0.51748E-09         0.00000E+00
    0.10567E-07        -0.56298E-09         0.00000E+00
    0.10570E-07        -0.57376E-09         0.00000E+00
    0.10580E-07        -0.56193E-09         0.00000E+00
    0.10593E-07        -0.53597E-09         0.00000E+00
    0.10609E-07        -0.50126E-09         0.00000E+00
    0.10625E-07        -0.46056E-09         0.00000E+00
    0.10639E-07        -0.41438E-09         0.00000E+00
    0.10650E-07        -0.36129E-09         0.00000E+00
    0.10656E-07        -0.29818E-09         0.00000E+00
    0.10658E-07        -0.22056E-09         0.00000E+00
    0.10656E-07        -0.12288E-09         0.00000E+00
    0.10654E-07        -0.68281E-10         0.00000E+00
    0.11626E-07        -0.13950E-09         0.00000E+00
    0.11619E-07        -0.24282E-09         0.00000E+00
    0.11606E-07        -0.41001E-09         0.00000E+00
    0.11593E-07        -0.50911E-09         0.00000E+00
    0.11583E-07        -0.55929E-09         0.00000E+00
    0.11578E-07        -0.57526E-09         0.00000E+00
    0.11577E-07        -0.56795E-09         0.00000E+00
    0.11579E-07        -0.54511E-09         0.00000E+00
    0.11584E-07        -0.51178E-09         0.00000E+00
    0.11590E-07        -0.47070E-09         0.00000E+00
    0.11596E-07        -0.42261E-09         0.00000E+00
    0.11599E-07        -0.36655E-09         0.00000E+00
    0.11600E-07        -0.30013E-09         0.00000E+00
    0.11599E-07        -0.21976E-09         0.00000E+00
    0.11596E-07        -0.12105E-09         0.00000E+00
    0.11595E-07        -0.66514E-10         0.00000E+00
    0.12729E-07        -0.13291E-09         0.00000E+00
    0.12721E-07        -0.23261E-09         0.00000E+00
    0.12706E-07        -0.39544E-09         0.00000E+00
    0.12688E-07        -0.49478E-09         0.00000E+00
    0.12671E-07        -0.54773E-09         0.00000E+00
    0.12657E-07        -0.56746E-09         0.00000E+00
    0.12647E-07        -0.56383E-09         0.00000E+00
    0.12640E-07        -0.54390E-09         0.00000E+00
    0.12635E-07        -0.51236E-09         0.00000E+00
    0.12632E-07        -0.47186E-09         0.00000E+00
    0.12629E-07        -0.42329E-09         0.00000E+00
    0.12626E-07        -0.36604E-09         0.00000E+00
    0.12622E-07        -0.29824E-09         0.00000E+00
    0.12618E-07        -0.21698E-09         0.00000E+00
    0.12615E-07        -0.11866E-09         0.00000E+00
    0.12613E-07        -0.64747E-10         0.00000E+00
    0.13881E-07        -0.12553E-09         0.00000E+00
    0.13873E-07        -0.22063E-09         0.00000E+00
    0.13855E-07        -0.37710E-09         0.00000E+00
    0.13832E-07        -0.47472E-09         0.00000E+00
    0.13808E-07        -0.52876E-09         0.00000E+00
    0.13787E-07        -0.55103E-09         0.00000E+00
    0.13767E-07        -0.55038E-09         0.00000E+00
    0.13751E-07        -0.53322E-09         0.00000E+00
    0.13737E-07        -0.50385E-09         0.00000E+00
    0.13726E-07        -0.46478E-09         0.00000E+00
    0.13716E-07        -0.41697E-09         0.00000E+00
    0.13707E-07        -0.36008E-09         0.00000E+00
    0.13699E-07        -0.29260E-09         0.00000E+00
    0.13692E-07        -0.21213E-09         0.00000E+00
    0.13687E-07        -0.11556E-09         0.00000E+00
    0.13684E-07        -0.62818E-10         0.00000E+00
    0.15061E-07        -0.11720E-09         0.00000E+00
    0.15052E-07        -0.20670E-09         0.00000E+00
    0.15031E-07        -0.35485E-09         0.00000E+00
    0.15003E-07        -0.44896E-09         0.00000E+00
    0.14974E-07        -0.50265E-09         0.00000E+00
    0.14944E-07        -0.52643E-09         0.00000E+00
    0.14917E-07        -0.52821E-09         0.00000E+00
    0.14892E-07        -0.51373E-09         0.00000E+00
    0.14870E-07        -0.48688E-09         0.00000E+00
    0.14851E-07        -0.44999E-09         0.00000E+00
    0.14834E-07        -0.40404E-09         0.00000E+00
    0.14819E-07        -0.34885E-09         0.00000E+00
    0.14807E-07        -0.28320E-09         0.00000E+00
    0.14797E-07        -0.20502E-09         0.00000E+00
    0.14790E-07        -0.11152E-09         0.00000E+00
    0.14787E-07        -0.60550E-10         0.00000E+00
    0.16248E-07        -0.10778E-09         0.00000E+00
    0.16237E-07        -0.19064E-09         0.00000E+00
    0.16213E-07        -0.32852E-09         0.00000E+00
    0.16181E-07        -0.41751E-09         0.00000E+00
    0.16145E-07        -0.46962E-09         0.00000E+00
    0.16109E-07        -0.49411E-09         0.00000E+00
    0.16074E-07        -0.49791E-09         0.00000E+00
    0.16041E-07        -0.48607E-09         0.00000E+00
    0.16012E-07        -0.46207E-09         0.00000E+00
    0.15985E-07        -0.42801E-09         0.00000E+00
    0.15962E-07        -0.38485E-09         0.00000E+00
    0.15941E-07        -0.33250E-09         0.00000E+00
    0.15924E-07        -0.26998E-09         0.00000E+00
    0.15911E-07        -0.19545E-09         0.00000E+00
    0.15903E-07        -0.10634E-09         0.00000E+00
    0.15900E-07        -0.57773E-10         0.00000E+00
    0.17417E-07        -0.97133E-10         0.00000E+00
    0.17406E-07        -0.17231E-09         0.00000E+00
    0.17378E-07        -0.29806E-09         0.00000E+00
    0.17341E-07        -0.38050E-09         0.00000E+00
    0.17300E-07        -0.43003E-09         0.00000E+00
    0.17257E-07        -0.45460E-09         0.00000E+00
    0.17215E-07        -0.46014E-09         0.00000E+00
    0.17176E-07        -0.45098E-09         0.00000E+00
    0.17140E-07        -0.43012E-09         0.00000E+00
    0.17107E-07        -0.39943E-09         0.00000E+00
    0.17077E-07        -0.35980E-09         0.00000E+00
    0.17052E-07        -0.31124E-09         0.00000E+00
    0.17031E-07        -0.25294E-09         0.00000E+00
    0.17015E-07        -0.18329E-09         0.00000E+00
    0.17004E-07        -0.99856E-10         0.00000E+00
    0.17001E-07        -0.54345E-10         0.00000E+00
    0.18545E-07        -0.85221E-10         0.00000E+00
    0.18533E-07        -0.15170E-09         0.00000E+00
    0.18503E-07        -0.26359E-09         0.00000E+00
    0.18462E-07        -0.33831E-09         0.00000E+00
    0.18415E-07        -0.38450E-09         0.00000E+00
    0.18367E-07        -0.40872E-09         0.00000E+00
    0.18320E-07        -0.41583E-09         0.00000E+00
    0.18275E-07        -0.40940E-09         0.00000E+00
    0.18233E-07        -0.39193E-09         0.00000E+00
    0.18195E-07        -0.36502E-09         0.00000E+00
    0.18161E-07        -0.32949E-09         0.00000E+00
    0.18131E-07        -0.28544E-09         0.00000E+00
    0.18106E-07        -0.23224E-09         0.00000E+00
    0.18087E-07        -0.16849E-09         0.00000E+00
    0.18074E-07        -0.91959E-10         0.00000E+00
    0.18070E-07        -0.50159E-10         0.00000E+00
    0.19611E-07        -0.72090E-10         0.00000E+00
    0.19597E-07        -0.12897E-09         0.00000E+00
    0.19565E-07        -0.22557E-09         0.00000E+00
    0.19521E-07        -0.29168E-09         0.00000E+00
    0.19470E-07        -0.33405E-09         0.00000E+00
    0.19418E-07        -0.35766E-09         0.00000E+00
    0.19367E-07        -0.36626E-09         0.00000E+00
    0.19318E-07        -0.36260E-09         0.00000E+00
    0.19272E-07        -0.34866E-09         0.00000E+00
    0.19229E-07        -0.32578E-09         0.00000E+00
    0.19191E-07        -0.29472E-09         0.00000E+00
    0.19158E-07        -0.25566E-09         0.00000E+00
    0.19130E-07        -0.20819E-09         0.00000E+00
    0.19108E-07        -0.15117E-09         0.00000E+00
    0.19094E-07        -0.82628E-10         0.00000E+00
    0.19088E-07        -0.45161E-10         0.00000E+00
    0.20591E-07        -0.57926E-10         0.00000E+00
    0.20577E-07        -0.10455E-09         0.00000E+00
    0.20543E-07        -0.18483E-09         0.00000E+00
    0.20497E-07        -0.24186E-09         0.00000E+00
    0.20445E-07        -0.28015E-09         0.00000E+00
    0.20391E-07        -0.30304E-09         0.00000E+00
    0.20337E-07        -0.31305E-09         0.00000E+00
    0.20285E-07        -0.31212E-09         0.00000E+00
    0.20237E-07        -0.30173E-09         0.00000E+00
    0.20192E-07        -0.28296E-09         0.00000E+00
    0.20151E-07        -0.25651E-09         0.00000E+00
    0.20115E-07        -0.22267E-09         0.00000E+00
    0.20084E-07        -0.18129E-09         0.00000E+00
    0.20061E-07        -0.13159E-09         0.00000E+00
    0.20045E-07        -0.71932E-10         0.00000E+00
    0.20039E-07        -0.39349E-10         0.00000E+00
    0.21466E-07        -0.43092E-10         0.00000E+00
    0.21452E-07        -0.79132E-10         0.00000E+00
    0.21419E-07        -0.14274E-09         0.00000E+00
    0.21373E-07        -0.19060E-09         0.00000E+00
    0.21321E-07        -0.22479E-09         0.00000E+00
    0.21267E-07        -0.24686E-09         0.00000E+00
    0.21213E-07        -0.25812E-09         0.00000E+00
    0.21161E-07        -0.25973E-09         0.00000E+00
    0.21112E-07        -0.25272E-09         0.00000E+00
    0.21065E-07        -0.23794E-09         0.00000E+00
    0.21023E-07        -0.21604E-09         0.00000E+00
    0.20986E-07        -0.18744E-09         0.00000E+00
    0.20954E-07        -0.15226E-09         0.00000E+00
    0.20929E-07        -0.11016E-09         0.00000E+00
    0.20912E-07        -0.60040E-10         0.00000E+00
    0.20905E-07        -0.32777E-10         0.00000E+00
    0.22224E-07        -0.28177E-10         0.00000E+00
    0.22211E-07        -0.53823E-10         0.00000E+00
    0.22179E-07        -0.10117E-09         0.00000E+00
    0.22137E-07        -0.14023E-09         0.00000E+00
    0.22088E-07        -0.17036E-09         0.00000E+00
    0.22036E-07        -0.19136E-09         0.00000E+00
    0.21984E-07        -0.20346E-09         0.00000E+00
    0.21933E-07        -0.20717E-09         0.00000E+00
    0.21884E-07        -0.20315E-09         0.00000E+00
    0.21838E-07        -0.19206E-09         0.00000E+00
    0.21796E-07        -0.17450E-09         0.00000E+00
    0.21758E-07        -0.15099E-09         0.00000E+00
    0.21725E-07        -0.12193E-09         0.00000E+00
    0.21699E-07        -0.87457E-10         0.00000E+00
    0.21682E-07        -0.47210E-10         0.00000E+00
    0.21675E-07        -0.25548E-10         0.00000E+00
    0.22856E-07        -0.14073E-10         0.00000E+00
    0.22845E-07        -0.30182E-10         0.00000E+00
    0.22819E-07        -0.62658E-10         0.00000E+00
    0.22782E-07        -0.93510E-10         0.00000E+00
    0.22739E-07        -0.11940E-09         0.00000E+00
    0.22692E-07        -0.13865E-09         0.00000E+00
    0.22643E-07        -0.15073E-09         0.00000E+00
    0.22594E-07        -0.15573E-09         0.00000E+00
    0.22546E-07        -0.15407E-09         0.00000E+00
    0.22500E-07        -0.14624E-09         0.00000E+00
    0.22458E-07        -0.13279E-09         0.00000E+00
    0.22421E-07        -0.11426E-09         0.00000E+00
    0.22388E-07        -0.91176E-10         0.00000E+00
    0.22363E-07        -0.64176E-10         0.00000E+00
    0.22345E-07        -0.33798E-10         0.00000E+00
    0.22338E-07        -0.17815E-10         0.00000E+00
    0.23366E-07        -0.21582E-11         0.00000E+00
    0.23360E-07        -0.10430E-10         0.00000E+00
    0.23342E-07        -0.30376E-10         0.00000E+00
    0.23315E-07        -0.53390E-10         0.00000E+00
    0.23279E-07        -0.74052E-10         0.00000E+00
    0.23238E-07        -0.90044E-10         0.00000E+00
    0.23192E-07        -0.10059E-09         0.00000E+00
    0.23144E-07        -0.10565E-09         0.00000E+00
    0.23096E-07        -0.10549E-09         0.00000E+00
    0.23050E-07        -0.10049E-09         0.00000E+00
    0.23008E-07        -0.91067E-10         0.00000E+00
    0.22970E-07        -0.77655E-10         0.00000E+00
    0.22938E-07        -0.60774E-10         0.00000E+00
    0.22913E-07        -0.41167E-10         0.00000E+00
    0.22897E-07        -0.20310E-10         0.00000E+00
    0.22890E-07        -0.98270E-11         0.00000E+00
    0.23770E-07         0.54207E-11         0.00000E+00
    0.23772E-07         0.21048E-11         0.00000E+00
    0.23770E-07        -0.82137E-11         0.00000E+00
    0.23754E-07        -0.22239E-10         0.00000E+00
    0.23726E-07        -0.35066E-10         0.00000E+00
    0.23688E-07        -0.45071E-10         0.00000E+00
    0.23643E-07        -0.51802E-10         0.00000E+00
    0.23593E-07        -0.55263E-10         0.00000E+00
    0.23542E-07        -0.55632E-10         0.00000E+00
    0.23492E-07        -0.53142E-10         0.00000E+00
    0.23446E-07        -0.48027E-10         0.00000E+00
    0.23406E-07        -0.40517E-10         0.00000E+00
    0.23373E-07        -0.30883E-10         0.00000E+00
    0.23349E-07        -0.19604E-10         0.00000E+00
    0.23337E-07        -0.76902E-11         0.00000E+00
    0.23333E-07        -0.17462E-11         0.00000E+00
    0.23947E-07         0.00000E+00         0.00000E+00
    0.23957E-07         0.00000E+00         0.00000E+00
    0.23963E-07        -0.66229E-22         0.00000E+00
    0.23953E-07         0.13656E-25         0.00000E+00
    0.23929E-07         0.70383E-22         0.00000E+00
    0.23891E-07         0.00000E+00         0.00000E+00
    0.23845E-07         0.00000E+00         0.00000E+00
    0.23794E-07        -0.66279E-22         0.00000E+00
    0.23740E-07        -0.66279E-22         0.00000E+00
    0.23688E-07         0.66292E-22         0.00000E+00
    0.23639E-07         0.70436E-22         0.00000E+00
    0.23596E-07        -0.70449E-22         0.00000E+00
    0.23562E-07        -0.41378E-23         0.00000E+00
    0.23539E-07         0.70457E-22         0.00000E+00
    0.23529E-07         0.82899E-23         0.00000E+00
    0.23529E-07         0.00000E+00         0.00000E+00
CELL_DATA        450
TENSORS stressef double 
    0.43155E+08        -0.94797E+06         0.00000E+00
   -0.94797E+06         0.20374E+08         0.00000E+00
    0.00000E+00         0.00000E+00         0.14884E+08
 
    0.38372E+08        -0.12619E+07         0.00000E+00
   -0.12619E+07         0.18411E+08         0.00000E+00
    0.00000E+00         0.00000E+00         0.11357E+08
 
    0.34248E+08        -0.98102E+06         0.00000E+00
   -0.98102E+06         0.16497E+08         0.00000E+00
    0.00000E+00         0.00000E+00         0.10149E+08
 
    0.31749E+08        -0.72568E+06         0.00000E+00
   -0.72568E+06         0.14955E+08         0.00000E+00
    0.00000E+00         0.00000E+00         0.93408E+07
 
    0.29857E+08        -0.55249E+06         0.00000E+00
   -0.55249E+06         0.13766E+08         0.00000E+00
    0.00000E+00         0.00000E+00         0.87246E+07
 
    0.28271E+08        -0.42465E+06         0.00000E+00
   -0.42465E+06         0.12847E+08         0.00000E+00
    0.00000E+00         0.00000E+00         0.82235E+07
 
    0.26846E+08        -0.32430E+06         0.00000E+00
   -0.32430E+06         0.12140E+08         0.00000E+00
    0.00000E+00         0.00000E+00         0.77971E+07
 
    0.25497E+08        -0.24046E+06         0.00000E+00
   -0.24046E+06         0.11608E+08         0.00000E+00
    0.00000E+00         0.00000E+00         0.74209E+07
 
    0.24159E+08        -0.16552E+06         0.00000E+00
   -0.16552E+06         0.11229E+08         0.00000E+00
    0.00000E+00         0.00000E+00         0.70775E+07
 
    0.22768E+08        -0.92798E+05         0.00000E+00
   -0.92798E+05         0.10995E+08         0.00000E+00
    0.00000E+00         0.00000E+00         0.67525E+07
 
    0.21244E+08        -0.14243E+05         0.00000E+00
   -0.14243E+05         0.10911E+08         0.00000E+00
    0.00000E+00         0.00000E+00         0.64310E+07
 
    0.19464E+08         0.83597E+05         0.00000E+00
    0.83597E+05         0.11004E+08         0.00000E+00
    0.00000E+00         0.00000E+00         0.60937E+07
 
    0.17200E+08         0.23319E+06         0.00000E+00
    0.23319E+06         0.11345E+08         0.00000E+00
    0.00000E+00         0.00000E+00         0.57091E+07
 
    0.13957E+08         0.51485E+06         0.00000E+00
    0.51485E+06         0.12124E+08         0.00000E+00
    0.00000E+00         0.00000E+00         0.52161E+07
 
    0.79297E+07         0.16024E+07         0.00000E+00
    0.16024E+07         0.14038E+08         0.00000E+00
    0.00000E+00         0.00000E+00         0.43936E+07
 
    0.34315E+08        -0.12067E+07         0.00000E+00
   -0.12067E+07         0.13220E+08         0.00000E+00
    0.00000E+00         0.00000E+00         0.95070E+07
 
    0.30869E+08        -0.24982E+07         0.00000E+00
   -0.24982E+07         0.13434E+08         0.00000E+00
    0.00000E+00         0.00000E+00         0.88607E+07
 
    0.27484E+08        -0.23786E+07         0.00000E+00
   -0.23786E+07         0.12841E+08         0.00000E+00
    0.00000E+00         0.00000E+00         0.80650E+07
 
    0.24979E+08        -0.19366E+07         0.00000E+00
   -0.19366E+07         0.12013E+08         0.00000E+00
    0.00000E+00         0.00000E+00         0.73984E+07
 
    0.23071E+08        -0.15395E+07         0.00000E+00
   -0.15395E+07         0.11217E+08         0.00000E+00
    0.00000E+00         0.00000E+00         0.68577E+07
 
    0.21483E+08        -0.12125E+07         0.00000E+00
   -0.12125E+07         0.10536E+08         0.00000E+00
    0.00000E+00         0.00000E+00         0.64039E+07
 
    0.20069E+08        -0.93972E+06         0.00000E+00
   -0.93972E+06         0.99862E+07         0.00000E+00
    0.00000E+00         0.00000E+00         0.60110E+07
 
    0.18741E+08        -0.70286E+06         0.00000E+00
   -0.70286E+06         0.95657E+07         0.00000E+00
    0.00000E+00         0.00000E+00         0.56613E+07
 
    0.17432E+08        -0.48508E+06         0.00000E+00
   -0.48508E+06         0.92732E+07         0.00000E+00
    0.00000E+00         0.00000E+00         0.53411E+07
 
    0.16082E+08        -0.26889E+06         0.00000E+00
   -0.26889E+06         0.91127E+07         0.00000E+00
    0.00000E+00         0.00000E+00         0.50389E+07
 
    0.14617E+08        -0.30790E+05         0.00000E+00
   -0.30790E+05         0.90990E+07         0.00000E+00
    0.00000E+00         0.00000E+00         0.47432E+07
 
    0.12934E+08         0.27106E+06         0.00000E+00
    0.27106E+06         0.92671E+07         0.00000E+00
    0.00000E+00         0.00000E+00         0.44402E+07
 
    0.10869E+08         0.72980E+06         0.00000E+00
    0.72980E+06         0.96918E+07         0.00000E+00
    0.00000E+00         0.00000E+00         0.41122E+07
 
    0.81101E+07         0.16157E+07         0.00000E+00
    0.16157E+07         0.10534E+08         0.00000E+00
    0.00000E+00         0.00000E+00         0.37288E+07
 
    0.48656E+07         0.39387E+07         0.00000E+00
    0.39387E+07         0.11999E+08         0.00000E+00
    0.00000E+00         0.00000E+00         0.33728E+07
 
    0.27290E+08        -0.11280E+07         0.00000E+00
   -0.11280E+07         0.85948E+07         0.00000E+00
    0.00000E+00         0.00000E+00         0.71771E+07
 
    0.25133E+08        -0.24356E+07         0.00000E+00
   -0.24356E+07         0.88215E+07         0.00000E+00
    0.00000E+00         0.00000E+00         0.67909E+07
 
    0.22607E+08        -0.27886E+07         0.00000E+00
   -0.27886E+07         0.90212E+07         0.00000E+00
    0.00000E+00         0.00000E+00         0.63257E+07
 
    0.20300E+08        -0.25679E+07         0.00000E+00
   -0.25679E+07         0.89083E+07         0.00000E+00
    0.00000E+00         0.00000E+00         0.58417E+07
 
    0.18393E+08        -0.21814E+07         0.00000E+00
   -0.21814E+07         0.86130E+07         0.00000E+00
    0.00000E+00         0.00000E+00         0.54011E+07
 
    0.16776E+08        -0.17850E+07         0.00000E+00
   -0.17850E+07         0.82727E+07         0.00000E+00
    0.00000E+00         0.00000E+00         0.50098E+07
 
    0.15341E+08        -0.14134E+07         0.00000E+00
   -0.14134E+07         0.79601E+07         0.00000E+00
    0.00000E+00         0.00000E+00         0.46603E+07
 
    0.14006E+08        -0.10656E+07         0.00000E+00
   -0.10656E+07         0.77131E+07         0.00000E+00
    0.00000E+00         0.00000E+00         0.43438E+07
 
    0.12707E+08        -0.72785E+06         0.00000E+00
   -0.72785E+06         0.75549E+07         0.00000E+00
    0.00000E+00         0.00000E+00         0.40524E+07
 
    0.11389E+08        -0.37802E+06         0.00000E+00
   -0.37802E+06         0.75056E+07         0.00000E+00
    0.00000E+00         0.00000E+00         0.37789E+07
 
    0.99923E+07         0.19413E+05         0.00000E+00
    0.19413E+05         0.75902E+07         0.00000E+00
    0.00000E+00         0.00000E+00         0.35165E+07
 
    0.84521E+07         0.52949E+06         0.00000E+00
    0.52949E+06         0.78453E+07         0.00000E+00
    0.00000E+00         0.00000E+00         0.32595E+07
 
    0.66973E+07         0.12877E+07         0.00000E+00
    0.12877E+07         0.83240E+07         0.00000E+00
    0.00000E+00         0.00000E+00         0.30042E+07
 
    0.47806E+07         0.26099E+07         0.00000E+00
    0.26099E+07         0.90713E+07         0.00000E+00
    0.00000E+00         0.00000E+00         0.27704E+07
 
    0.31725E+07         0.49635E+07         0.00000E+00
    0.49635E+07         0.98400E+07         0.00000E+00
    0.00000E+00         0.00000E+00         0.26025E+07
 
    0.21956E+08        -0.87396E+06         0.00000E+00
   -0.87396E+06         0.49932E+07         0.00000E+00
    0.00000E+00         0.00000E+00         0.53899E+07
 
    0.20709E+08        -0.21008E+07         0.00000E+00
   -0.21008E+07         0.53715E+07         0.00000E+00
    0.00000E+00         0.00000E+00         0.52162E+07
 
    0.18837E+08        -0.26353E+07         0.00000E+00
   -0.26353E+07         0.57731E+07         0.00000E+00
    0.00000E+00         0.00000E+00         0.49221E+07
 
    0.16884E+08        -0.26700E+07         0.00000E+00
   -0.26700E+07         0.60368E+07         0.00000E+00
    0.00000E+00         0.00000E+00         0.45841E+07
 
    0.15083E+08        -0.24275E+07         0.00000E+00
   -0.24275E+07         0.61224E+07         0.00000E+00
    0.00000E+00         0.00000E+00         0.42411E+07
 
    0.13482E+08        -0.20726E+07         0.00000E+00
   -0.20726E+07         0.60949E+07         0.00000E+00
    0.00000E+00         0.00000E+00         0.39154E+07
 
    0.12039E+08        -0.16800E+07         0.00000E+00
   -0.16800E+07         0.60256E+07         0.00000E+00
    0.00000E+00         0.00000E+00         0.36128E+07
 
    0.10698E+08        -0.12726E+07         0.00000E+00
   -0.12726E+07         0.59670E+07         0.00000E+00
    0.00000E+00         0.00000E+00         0.33330E+07
 
    0.94108E+07        -0.84733E+06         0.00000E+00
   -0.84733E+06         0.59569E+07         0.00000E+00
    0.00000E+00         0.00000E+00         0.30735E+07
 
    0.81318E+07        -0.38424E+06         0.00000E+00
   -0.38424E+06         0.60260E+07         0.00000E+00
    0.00000E+00         0.00000E+00         0.28316E+07
 
    0.68239E+07         0.15635E+06         0.00000E+00
    0.15635E+06         0.62022E+07         0.00000E+00
    0.00000E+00         0.00000E+00         0.26052E+07
 
    0.54634E+07         0.84607E+06         0.00000E+00
    0.84607E+06         0.65111E+07         0.00000E+00
    0.00000E+00         0.00000E+00         0.23949E+07
 
    0.40778E+07         0.18141E+07         0.00000E+00
    0.18141E+07         0.69630E+07         0.00000E+00
    0.00000E+00         0.00000E+00         0.22082E+07
 
    0.28310E+07         0.32511E+07         0.00000E+00
    0.32511E+07         0.74873E+07         0.00000E+00
    0.00000E+00         0.00000E+00         0.20637E+07
 
    0.21312E+07         0.53249E+07         0.00000E+00
    0.53249E+07         0.78506E+07         0.00000E+00
    0.00000E+00         0.00000E+00         0.19964E+07
 
    0.17976E+08        -0.63909E+06         0.00000E+00
   -0.63909E+06         0.23865E+07         0.00000E+00
    0.00000E+00         0.00000E+00         0.40725E+07
 
    0.17250E+08        -0.16701E+07         0.00000E+00
   -0.16701E+07         0.27190E+07         0.00000E+00
    0.00000E+00         0.00000E+00         0.39938E+07
 
    0.15874E+08        -0.22648E+07         0.00000E+00
   -0.22648E+07         0.31724E+07         0.00000E+00
    0.00000E+00         0.00000E+00         0.38093E+07
 
    0.14256E+08        -0.24571E+07         0.00000E+00
   -0.24571E+07         0.35779E+07         0.00000E+00
    0.00000E+00         0.00000E+00         0.35668E+07
 
    0.12635E+08        -0.23645E+07         0.00000E+00
   -0.23645E+07         0.38731E+07         0.00000E+00
    0.00000E+00         0.00000E+00         0.33017E+07
 
    0.11111E+08        -0.20994E+07         0.00000E+00
   -0.20994E+07         0.40630E+07         0.00000E+00
    0.00000E+00         0.00000E+00         0.30347E+07
 
    0.96984E+07        -0.17369E+07         0.00000E+00
   -0.17369E+07         0.41874E+07         0.00000E+00
    0.00000E+00         0.00000E+00         0.27772E+07
 
    0.83783E+07        -0.13126E+07         0.00000E+00
   -0.13126E+07         0.42906E+07         0.00000E+00
    0.00000E+00         0.00000E+00         0.25338E+07
 
    0.71208E+07        -0.83372E+06         0.00000E+00
   -0.83372E+06         0.44107E+07         0.00000E+00
    0.00000E+00         0.00000E+00         0.23063E+07
 
    0.58989E+07        -0.28666E+06         0.00000E+00
   -0.28666E+06         0.45790E+07         0.00000E+00
    0.00000E+00         0.00000E+00         0.20956E+07
 
    0.46974E+07         0.36291E+06         0.00000E+00
    0.36291E+06         0.48185E+07         0.00000E+00
    0.00000E+00         0.00000E+00         0.19032E+07
 
    0.35279E+07         0.11742E+07         0.00000E+00
    0.11742E+07         0.51385E+07         0.00000E+00
    0.00000E+00         0.00000E+00         0.17333E+07
 
    0.24592E+07         0.22320E+07         0.00000E+00
    0.22320E+07         0.55153E+07         0.00000E+00
    0.00000E+00         0.00000E+00         0.15949E+07
 
    0.16603E+07         0.36240E+07         0.00000E+00
    0.36240E+07         0.58605E+07         0.00000E+00
    0.00000E+00         0.00000E+00         0.15041E+07
 
    0.14263E+07         0.53745E+07         0.00000E+00
    0.53745E+07         0.59955E+07         0.00000E+00
    0.00000E+00         0.00000E+00         0.14844E+07
 
    0.14997E+08        -0.45047E+06         0.00000E+00
   -0.45047E+06         0.42240E+06         0.00000E+00
    0.00000E+00         0.00000E+00         0.30838E+07
 
    0.14532E+08        -0.12653E+07         0.00000E+00
   -0.12653E+07         0.68888E+06         0.00000E+00
    0.00000E+00         0.00000E+00         0.30441E+07
 
    0.13491E+08        -0.18294E+07         0.00000E+00
   -0.18294E+07         0.10959E+07         0.00000E+00
    0.00000E+00         0.00000E+00         0.29175E+07
 
    0.12159E+08        -0.20993E+07         0.00000E+00
   -0.20993E+07         0.15236E+07         0.00000E+00
    0.00000E+00         0.00000E+00         0.27365E+07
 
    0.10735E+08        -0.21138E+07         0.00000E+00
   -0.21138E+07         0.19002E+07         0.00000E+00
    0.00000E+00         0.00000E+00         0.25270E+07
 
    0.93300E+07        -0.19371E+07         0.00000E+00
   -0.19371E+07         0.22059E+07         0.00000E+00
    0.00000E+00         0.00000E+00         0.23072E+07
 
    0.79907E+07        -0.16243E+07         0.00000E+00
   -0.16243E+07         0.24528E+07         0.00000E+00
    0.00000E+00         0.00000E+00         0.20887E+07
 
    0.67246E+07        -0.12097E+07         0.00000E+00
   -0.12097E+07         0.26681E+07         0.00000E+00
    0.00000E+00         0.00000E+00         0.18785E+07
 
    0.55233E+07        -0.70602E+06         0.00000E+00
   -0.70602E+06         0.28806E+07         0.00000E+00
    0.00000E+00         0.00000E+00         0.16808E+07
 
    0.43780E+07        -0.10717E+06         0.00000E+00
   -0.10717E+06         0.31145E+07         0.00000E+00
    0.00000E+00         0.00000E+00         0.14985E+07
 
    0.32920E+07         0.60944E+06         0.00000E+00
    0.60944E+06         0.33843E+07         0.00000E+00
    0.00000E+00         0.00000E+00         0.13353E+07
 
    0.22951E+07         0.14804E+07         0.00000E+00
    0.14804E+07         0.36866E+07         0.00000E+00
    0.00000E+00         0.00000E+00         0.11963E+07
 
    0.14629E+07         0.25468E+07         0.00000E+00
    0.25468E+07         0.39874E+07         0.00000E+00
    0.00000E+00         0.00000E+00         0.10901E+07
 
    0.93345E+06         0.38307E+07         0.00000E+00
    0.38307E+07         0.42096E+07         0.00000E+00
    0.00000E+00         0.00000E+00         0.10286E+07
 
    0.90530E+06         0.52919E+07         0.00000E+00
    0.52919E+07         0.42335E+07         0.00000E+00
    0.00000E+00         0.00000E+00         0.10278E+07
 
    0.12729E+08        -0.30690E+06         0.00000E+00
   -0.30690E+06        -0.11161E+07         0.00000E+00
    0.00000E+00         0.00000E+00         0.23225E+07
 
    0.12366E+08        -0.92347E+06         0.00000E+00
   -0.92347E+06        -0.91824E+06         0.00000E+00
    0.00000E+00         0.00000E+00         0.22895E+07
 
    0.11536E+08        -0.14135E+07         0.00000E+00
   -0.14135E+07        -0.58767E+06         0.00000E+00
    0.00000E+00         0.00000E+00         0.21896E+07
 
    0.10426E+08        -0.17005E+07         0.00000E+00
   -0.17005E+07        -0.20370E+06         0.00000E+00
    0.00000E+00         0.00000E+00         0.20444E+07
 
    0.91877E+07        -0.17760E+07         0.00000E+00
   -0.17760E+07         0.17384E+06         0.00000E+00
    0.00000E+00         0.00000E+00         0.18723E+07
 
    0.79233E+07        -0.16650E+07         0.00000E+00
   -0.16650E+07         0.51524E+06         0.00000E+00
    0.00000E+00         0.00000E+00         0.16877E+07
 
    0.66881E+07        -0.14001E+07         0.00000E+00
   -0.14001E+07         0.81655E+06         0.00000E+00
    0.00000E+00         0.00000E+00         0.15009E+07
 
    0.55064E+07        -0.10069E+07         0.00000E+00
   -0.10069E+07         0.10891E+07         0.00000E+00
    0.00000E+00         0.00000E+00         0.13191E+07
 
    0.43862E+07        -0.49876E+06         0.00000E+00
   -0.49876E+06         0.13497E+07         0.00000E+00
    0.00000E+00         0.00000E+00         0.11472E+07
 
    0.33333E+07         0.12360E+06         0.00000E+00
    0.12360E+06         0.16129E+07         0.00000E+00
    0.00000E+00         0.00000E+00         0.98925E+06
 
    0.23625E+07         0.86966E+06         0.00000E+00
    0.86966E+06         0.18848E+07         0.00000E+00
    0.00000E+00         0.00000E+00         0.84947E+06
 
    0.15093E+07         0.17539E+07         0.00000E+00
    0.17539E+07         0.21557E+07         0.00000E+00
    0.00000E+00         0.00000E+00         0.73300E+06
 
    0.83996E+06         0.27851E+07         0.00000E+00
    0.27851E+07         0.23936E+07         0.00000E+00
    0.00000E+00         0.00000E+00         0.64671E+06
 
    0.45573E+06         0.39473E+07         0.00000E+00
    0.39473E+07         0.25413E+07         0.00000E+00
    0.00000E+00         0.00000E+00         0.59940E+06
 
    0.48298E+06         0.51750E+07         0.00000E+00
    0.51750E+07         0.25244E+07         0.00000E+00
    0.00000E+00         0.00000E+00         0.60148E+06
 
    0.10949E+08        -0.20088E+06         0.00000E+00
   -0.20088E+06        -0.23904E+07         0.00000E+00
    0.00000E+00         0.00000E+00         0.17118E+07
 
    0.10595E+08        -0.65194E+06         0.00000E+00
   -0.65194E+06        -0.22527E+07         0.00000E+00
    0.00000E+00         0.00000E+00         0.16685E+07
 
    0.98873E+07        -0.10543E+07         0.00000E+00
   -0.10543E+07        -0.20050E+07         0.00000E+00
    0.00000E+00         0.00000E+00         0.15764E+07
 
    0.89425E+07        -0.13222E+07         0.00000E+00
   -0.13222E+07        -0.16938E+07         0.00000E+00
    0.00000E+00         0.00000E+00         0.14497E+07
 
    0.78690E+07        -0.14213E+07         0.00000E+00
   -0.14213E+07        -0.13628E+07         0.00000E+00
    0.00000E+00         0.00000E+00         0.13012E+07
 
    0.67490E+07        -0.13500E+07         0.00000E+00
   -0.13500E+07        -0.10407E+07         0.00000E+00
    0.00000E+00         0.00000E+00         0.11416E+07
 
    0.56358E+07        -0.11214E+07         0.00000E+00
   -0.11214E+07        -0.73934E+06         0.00000E+00
    0.00000E+00         0.00000E+00         0.97928E+06
 
    0.45602E+07        -0.75102E+06         0.00000E+00
   -0.75102E+06        -0.45796E+06         0.00000E+00
    0.00000E+00         0.00000E+00         0.82046E+06
 
    0.35401E+07        -0.25015E+06         0.00000E+00
   -0.25015E+06        -0.19007E+06         0.00000E+00
    0.00000E+00         0.00000E+00         0.67000E+06
 
    0.25896E+07         0.37557E+06         0.00000E+00
    0.37557E+06         0.70353E+05         0.00000E+00
    0.00000E+00         0.00000E+00         0.53198E+06
 
    0.17288E+07         0.11246E+07         0.00000E+00
    0.11246E+07         0.32311E+06         0.00000E+00
    0.00000E+00         0.00000E+00         0.41038E+06
 
    0.99124E+06         0.19946E+07         0.00000E+00
    0.19946E+07         0.55693E+06         0.00000E+00
    0.00000E+00         0.00000E+00         0.30963E+06
 
    0.42855E+06         0.29728E+07         0.00000E+00
    0.29728E+07         0.74644E+06         0.00000E+00
    0.00000E+00         0.00000E+00         0.23500E+06
 
    0.10945E+06         0.40239E+07         0.00000E+00
    0.40239E+07         0.85361E+06         0.00000E+00
    0.00000E+00         0.00000E+00         0.19261E+06
 
    0.10920E+06         0.50759E+07         0.00000E+00
    0.50759E+07         0.83680E+06         0.00000E+00
    0.00000E+00         0.00000E+00         0.18920E+06
 
    0.94880E+07        -0.12535E+06         0.00000E+00
   -0.12535E+06        -0.35143E+07         0.00000E+00
    0.00000E+00         0.00000E+00         0.11947E+07
 
    0.90927E+07        -0.44703E+06         0.00000E+00
   -0.44703E+06        -0.34276E+07         0.00000E+00
    0.00000E+00         0.00000E+00         0.11330E+07
 
    0.84486E+07        -0.76560E+06         0.00000E+00
   -0.76560E+06        -0.32590E+07         0.00000E+00
    0.00000E+00         0.00000E+00         0.10379E+07
 
    0.76244E+07        -0.99700E+06         0.00000E+00
   -0.99700E+06        -0.30309E+07         0.00000E+00
    0.00000E+00         0.00000E+00         0.91871E+06
 
    0.66918E+07        -0.10950E+07         0.00000E+00
   -0.10950E+07        -0.27714E+07         0.00000E+00
    0.00000E+00         0.00000E+00         0.78408E+06
 
    0.57114E+07        -0.10415E+07         0.00000E+00
   -0.10415E+07        -0.25034E+07         0.00000E+00
    0.00000E+00         0.00000E+00         0.64159E+06
 
    0.47279E+07        -0.83554E+06         0.00000E+00
   -0.83554E+06        -0.22403E+07         0.00000E+00
    0.00000E+00         0.00000E+00         0.49750E+06
 
    0.37715E+07        -0.48368E+06         0.00000E+00
   -0.48368E+06        -0.19873E+07         0.00000E+00
    0.00000E+00         0.00000E+00         0.35685E+06
 
    0.28631E+07         0.54418E+04         0.00000E+00
    0.54418E+04        -0.17445E+07         0.00000E+00
    0.00000E+00         0.00000E+00         0.22371E+06
 
    0.20199E+07         0.62341E+06         0.00000E+00
    0.62341E+06        -0.15120E+07         0.00000E+00
    0.00000E+00         0.00000E+00         0.10159E+06
 
    0.12624E+07         0.13610E+07         0.00000E+00
    0.13610E+07        -0.12934E+07         0.00000E+00
    0.00000E+00         0.00000E+00        -0.61882E+04
 
    0.61820E+06         0.22045E+07         0.00000E+00
    0.22045E+07        -0.10989E+07         0.00000E+00
    0.00000E+00         0.00000E+00        -0.96144E+05
 
    0.12385E+06         0.31290E+07         0.00000E+00
    0.31290E+07        -0.94637E+06         0.00000E+00
    0.00000E+00         0.00000E+00        -0.16450E+06
 
   -0.17779E+06         0.40907E+07         0.00000E+00
    0.40907E+07        -0.85820E+06         0.00000E+00
    0.00000E+00         0.00000E+00        -0.20720E+06
 
   -0.24671E+06         0.50196E+07         0.00000E+00
    0.50196E+07        -0.85367E+06         0.00000E+00
    0.00000E+00         0.00000E+00        -0.22008E+06
 
    0.82154E+07        -0.74840E+05         0.00000E+00
   -0.74840E+05        -0.45694E+07         0.00000E+00
    0.00000E+00         0.00000E+00         0.72920E+06
 
    0.77548E+07        -0.30235E+06         0.00000E+00
   -0.30235E+06        -0.45260E+07         0.00000E+00
    0.00000E+00         0.00000E+00         0.64576E+06
 
    0.71395E+07        -0.55039E+06         0.00000E+00
   -0.55039E+06        -0.44295E+07         0.00000E+00
    0.00000E+00         0.00000E+00         0.54200E+06
 
    0.64045E+07        -0.74104E+06         0.00000E+00
   -0.74104E+06        -0.42856E+07         0.00000E+00
    0.00000E+00         0.00000E+00         0.42378E+06
 
    0.55922E+07        -0.82417E+06         0.00000E+00
   -0.82417E+06        -0.41088E+07         0.00000E+00
    0.00000E+00         0.00000E+00         0.29669E+06
 
    0.47433E+07        -0.77299E+06         0.00000E+00
   -0.77299E+06        -0.39146E+07         0.00000E+00
    0.00000E+00         0.00000E+00         0.16574E+06
 
    0.38907E+07        -0.57736E+06         0.00000E+00
   -0.57736E+06        -0.37144E+07         0.00000E+00
    0.00000E+00         0.00000E+00         0.35275E+05
 
    0.30596E+07        -0.23745E+06         0.00000E+00
   -0.23745E+06        -0.35151E+07         0.00000E+00
    0.00000E+00         0.00000E+00        -0.91094E+05
 
    0.22688E+07         0.24079E+06         0.00000E+00
    0.24079E+06        -0.33204E+07         0.00000E+00
    0.00000E+00         0.00000E+00        -0.21032E+06
 
    0.15347E+07         0.84766E+06         0.00000E+00
    0.84766E+06        -0.31335E+07         0.00000E+00
    0.00000E+00         0.00000E+00        -0.31976E+06
 
    0.87431E+06         0.15694E+07         0.00000E+00
    0.15694E+07        -0.29590E+07         0.00000E+00
    0.00000E+00         0.00000E+00        -0.41693E+06
 
    0.30777E+06         0.23857E+07         0.00000E+00
    0.23857E+07        -0.28048E+07         0.00000E+00
    0.00000E+00         0.00000E+00        -0.49941E+06
 
   -0.14167E+06         0.32659E+07         0.00000E+00
    0.32659E+07        -0.26818E+07         0.00000E+00
    0.00000E+00         0.00000E+00        -0.56469E+06
 
   -0.45090E+06         0.41639E+07         0.00000E+00
    0.41639E+07        -0.26006E+07         0.00000E+00
    0.00000E+00         0.00000E+00        -0.61030E+06
 
   -0.60384E+06         0.50157E+07         0.00000E+00
    0.50157E+07        -0.25657E+07         0.00000E+00
    0.00000E+00         0.00000E+00        -0.63392E+06
 
    0.70304E+07        -0.45435E+05         0.00000E+00
   -0.45435E+05        -0.56150E+07         0.00000E+00
    0.00000E+00         0.00000E+00         0.28308E+06
 
    0.64972E+07        -0.21160E+06         0.00000E+00
   -0.21160E+06        -0.56087E+07         0.00000E+00
    0.00000E+00         0.00000E+00         0.17770E+06
 
    0.58928E+07        -0.40679E+06         0.00000E+00
   -0.40679E+06        -0.55774E+07         0.00000E+00
    0.00000E+00         0.00000E+00         0.63080E+05
 
    0.52273E+07        -0.56058E+06         0.00000E+00
   -0.56058E+06        -0.55143E+07         0.00000E+00
    0.00000E+00         0.00000E+00        -0.57415E+05
 
    0.45205E+07        -0.62346E+06         0.00000E+00
   -0.62346E+06        -0.54233E+07         0.00000E+00
    0.00000E+00         0.00000E+00        -0.18057E+06
 
    0.37950E+07        -0.56507E+06         0.00000E+00
   -0.56507E+06        -0.53121E+07         0.00000E+00
    0.00000E+00         0.00000E+00        -0.30342E+06
 
    0.30716E+07        -0.37029E+06         0.00000E+00
   -0.37029E+06        -0.51884E+07         0.00000E+00
    0.00000E+00         0.00000E+00        -0.42337E+06
 
    0.23674E+07        -0.35162E+05         0.00000E+00
   -0.35162E+05        -0.50583E+07         0.00000E+00
    0.00000E+00         0.00000E+00        -0.53818E+06
 
    0.16967E+07         0.43642E+06         0.00000E+00
    0.43642E+06        -0.49262E+07         0.00000E+00
    0.00000E+00         0.00000E+00        -0.64591E+06
 
    0.10714E+07         0.10345E+07         0.00000E+00
    0.10345E+07        -0.47958E+07         0.00000E+00
    0.00000E+00         0.00000E+00        -0.74488E+06
 
    0.50362E+06         0.17431E+07         0.00000E+00
    0.17431E+07        -0.46714E+07         0.00000E+00
    0.00000E+00         0.00000E+00        -0.83356E+06
 
    0.54866E+04         0.25390E+07         0.00000E+00
    0.25390E+07        -0.45580E+07         0.00000E+00
    0.00000E+00         0.00000E+00        -0.91050E+06
 
   -0.41112E+06         0.33896E+07         0.00000E+00
    0.33896E+07        -0.44604E+07         0.00000E+00
    0.00000E+00         0.00000E+00        -0.97430E+06
 
   -0.73770E+06         0.42506E+07         0.00000E+00
    0.42506E+07        -0.43808E+07         0.00000E+00
    0.00000E+00         0.00000E+00        -0.10237E+07
 
   -0.97425E+06         0.50648E+07         0.00000E+00
    0.50648E+07        -0.43142E+07         0.00000E+00
    0.00000E+00         0.00000E+00        -0.10577E+07
 
    0.58524E+07        -0.34342E+05         0.00000E+00
   -0.34342E+05        -0.66953E+07         0.00000E+00
    0.00000E+00         0.00000E+00        -0.16856E+06
 
    0.52509E+07        -0.16936E+06         0.00000E+00
   -0.16936E+06        -0.67215E+07         0.00000E+00
    0.00000E+00         0.00000E+00        -0.29411E+06
 
    0.46515E+07        -0.33098E+06         0.00000E+00
   -0.33098E+06        -0.67487E+07         0.00000E+00
    0.00000E+00         0.00000E+00        -0.41942E+06
 
    0.40460E+07        -0.45643E+06         0.00000E+00
   -0.45643E+06        -0.67613E+07         0.00000E+00
    0.00000E+00         0.00000E+00        -0.54307E+06
 
    0.34358E+07        -0.49929E+06         0.00000E+00
   -0.49929E+06        -0.67543E+07         0.00000E+00
    0.00000E+00         0.00000E+00        -0.66371E+06
 
    0.28280E+07        -0.42890E+06         0.00000E+00
   -0.42890E+06        -0.67285E+07         0.00000E+00
    0.00000E+00         0.00000E+00        -0.78011E+06
 
    0.22313E+07        -0.22820E+06         0.00000E+00
   -0.22820E+06        -0.66870E+07         0.00000E+00
    0.00000E+00         0.00000E+00        -0.89115E+06
 
    0.16541E+07         0.10890E+06         0.00000E+00
    0.10890E+06        -0.66335E+07         0.00000E+00
    0.00000E+00         0.00000E+00        -0.99588E+06
 
    0.11040E+07         0.57986E+06         0.00000E+00
    0.57986E+06        -0.65713E+07         0.00000E+00
    0.00000E+00         0.00000E+00        -0.10935E+07
 
    0.58725E+06         0.11750E+07         0.00000E+00
    0.11750E+07        -0.65032E+07         0.00000E+00
    0.00000E+00         0.00000E+00        -0.11832E+07
 
    0.10968E+06         0.18777E+07         0.00000E+00
    0.18777E+07        -0.64319E+07         0.00000E+00
    0.00000E+00         0.00000E+00        -0.12644E+07
 
   -0.32409E+06         0.26643E+07         0.00000E+00
    0.26643E+07        -0.63592E+07         0.00000E+00
    0.00000E+00         0.00000E+00        -0.13367E+07
 
   -0.71162E+06         0.35027E+07         0.00000E+00
    0.35027E+07        -0.62853E+07         0.00000E+00
    0.00000E+00         0.00000E+00        -0.13994E+07
 
   -0.10552E+07         0.43518E+07         0.00000E+00
    0.43518E+07        -0.62063E+07         0.00000E+00
    0.00000E+00         0.00000E+00        -0.14523E+07
 
   -0.13655E+07         0.51618E+07         0.00000E+00
    0.51618E+07        -0.61111E+07         0.00000E+00
    0.00000E+00         0.00000E+00        -0.14953E+07
 
    0.46156E+07        -0.39523E+05         0.00000E+00
   -0.39523E+05        -0.78437E+07         0.00000E+00
    0.00000E+00         0.00000E+00        -0.64562E+06
 
    0.39580E+07        -0.17099E+06         0.00000E+00
   -0.17099E+06        -0.78986E+07         0.00000E+00
    0.00000E+00         0.00000E+00        -0.78812E+06
 
    0.33674E+07        -0.31837E+06         0.00000E+00
   -0.31837E+06        -0.79784E+07         0.00000E+00
    0.00000E+00         0.00000E+00        -0.92221E+06
 
    0.28205E+07        -0.42629E+06         0.00000E+00
   -0.42629E+06        -0.80607E+07         0.00000E+00
    0.00000E+00         0.00000E+00        -0.10480E+07
 
    0.23039E+07        -0.45271E+06         0.00000E+00
   -0.45271E+06        -0.81331E+07         0.00000E+00
    0.00000E+00         0.00000E+00        -0.11659E+07
 
    0.18112E+07        -0.36880E+06         0.00000E+00
   -0.36880E+06        -0.81905E+07         0.00000E+00
    0.00000E+00         0.00000E+00        -0.12759E+07
 
    0.13400E+07        -0.15768E+06         0.00000E+00
   -0.15768E+06        -0.82312E+07         0.00000E+00
    0.00000E+00         0.00000E+00        -0.13783E+07
 
    0.88973E+06         0.18733E+06         0.00000E+00
    0.18733E+06        -0.82559E+07         0.00000E+00
    0.00000E+00         0.00000E+00        -0.14732E+07
 
    0.46067E+06         0.66436E+06         0.00000E+00
    0.66436E+06        -0.82656E+07         0.00000E+00
    0.00000E+00         0.00000E+00        -0.15610E+07
 
    0.52806E+05         0.12642E+07         0.00000E+00
    0.12642E+07        -0.82614E+07         0.00000E+00
    0.00000E+00         0.00000E+00        -0.16417E+07
 
   -0.33455E+06         0.19706E+07         0.00000E+00
    0.19706E+07        -0.82437E+07         0.00000E+00
    0.00000E+00         0.00000E+00        -0.17156E+07
 
   -0.70371E+06         0.27608E+07         0.00000E+00
    0.27608E+07        -0.82114E+07         0.00000E+00
    0.00000E+00         0.00000E+00        -0.17830E+07
 
   -0.10600E+07         0.36047E+07         0.00000E+00
    0.36047E+07        -0.81610E+07         0.00000E+00
    0.00000E+00         0.00000E+00        -0.18442E+07
 
   -0.14136E+07         0.44653E+07         0.00000E+00
    0.44653E+07        -0.80841E+07         0.00000E+00
    0.00000E+00         0.00000E+00        -0.18995E+07
 
   -0.17825E+07         0.52992E+07         0.00000E+00
    0.52992E+07        -0.79661E+07         0.00000E+00
    0.00000E+00         0.00000E+00        -0.19497E+07
 
    0.32644E+07        -0.59393E+05         0.00000E+00
   -0.59393E+05        -0.90862E+07         0.00000E+00
    0.00000E+00         0.00000E+00        -0.11644E+07
 
    0.25697E+07        -0.21244E+06         0.00000E+00
   -0.21244E+06        -0.91668E+07         0.00000E+00
    0.00000E+00         0.00000E+00        -0.13194E+07
 
    0.19990E+07        -0.36400E+06         0.00000E+00
   -0.36400E+06        -0.92937E+07         0.00000E+00
    0.00000E+00         0.00000E+00        -0.14590E+07
 
    0.15163E+07        -0.46587E+06         0.00000E+00
   -0.46587E+06        -0.94390E+07         0.00000E+00
    0.00000E+00         0.00000E+00        -0.15845E+07
 
    0.10957E+07        -0.48115E+06         0.00000E+00
   -0.48115E+06        -0.95845E+07         0.00000E+00
    0.00000E+00         0.00000E+00        -0.16978E+07
 
    0.71917E+06        -0.38424E+06         0.00000E+00
   -0.38424E+06        -0.97197E+07         0.00000E+00
    0.00000E+00         0.00000E+00        -0.18001E+07
 
    0.37422E+06        -0.15988E+06         0.00000E+00
   -0.15988E+06        -0.98387E+07         0.00000E+00
    0.00000E+00         0.00000E+00        -0.18929E+07
 
    0.51914E+05         0.19804E+06         0.00000E+00
    0.19804E+06        -0.99386E+07         0.00000E+00
    0.00000E+00         0.00000E+00        -0.19773E+07
 
   -0.25475E+06         0.68771E+06         0.00000E+00
    0.68771E+06        -0.10018E+08         0.00000E+00
    0.00000E+00         0.00000E+00        -0.20546E+07
 
   -0.55210E+06         0.13003E+07         0.00000E+00
    0.13003E+07        -0.10076E+08         0.00000E+00
    0.00000E+00         0.00000E+00        -0.21257E+07
 
   -0.84696E+06         0.20208E+07         0.00000E+00
    0.20208E+07        -0.10111E+08         0.00000E+00
    0.00000E+00         0.00000E+00        -0.21916E+07
 
   -0.11478E+07         0.28277E+07         0.00000E+00
    0.28277E+07        -0.10118E+08         0.00000E+00
    0.00000E+00         0.00000E+00        -0.22533E+07
 
   -0.14664E+07         0.36939E+07         0.00000E+00
    0.36939E+07        -0.10092E+08         0.00000E+00
    0.00000E+00         0.00000E+00        -0.23117E+07
 
   -0.18189E+07         0.45864E+07         0.00000E+00
    0.45864E+07        -0.10020E+08         0.00000E+00
    0.00000E+00         0.00000E+00        -0.23679E+07
 
   -0.22282E+07         0.54680E+07         0.00000E+00
    0.54680E+07        -0.98866E+07         0.00000E+00
    0.00000E+00         0.00000E+00        -0.24230E+07
 
    0.17516E+07        -0.92585E+05         0.00000E+00
   -0.92585E+05        -0.10444E+08         0.00000E+00
    0.00000E+00         0.00000E+00        -0.17384E+07
 
    0.10444E+07        -0.28991E+06         0.00000E+00
   -0.28991E+06        -0.10547E+08         0.00000E+00
    0.00000E+00         0.00000E+00        -0.19005E+07
 
    0.51089E+06        -0.46260E+06         0.00000E+00
   -0.46260E+06        -0.10716E+08         0.00000E+00
    0.00000E+00         0.00000E+00        -0.20409E+07
 
    0.10384E+06        -0.56953E+06         0.00000E+00
   -0.56953E+06        -0.10917E+08         0.00000E+00
    0.00000E+00         0.00000E+00        -0.21626E+07
 
   -0.21351E+06        -0.57955E+06         0.00000E+00
   -0.57955E+06        -0.11128E+08         0.00000E+00
    0.00000E+00         0.00000E+00        -0.22682E+07
 
   -0.46923E+06        -0.47121E+06         0.00000E+00
   -0.47121E+06        -0.11333E+08         0.00000E+00
    0.00000E+00         0.00000E+00        -0.23604E+07
 
   -0.68470E+06        -0.23193E+06         0.00000E+00
   -0.23193E+06        -0.11523E+08         0.00000E+00
    0.00000E+00         0.00000E+00        -0.24416E+07
 
   -0.87644E+06         0.14294E+06         0.00000E+00
    0.14294E+06        -0.11693E+08         0.00000E+00
    0.00000E+00         0.00000E+00        -0.25138E+07
 
   -0.10580E+07         0.65115E+06         0.00000E+00
    0.65115E+06        -0.11837E+08         0.00000E+00
    0.00000E+00         0.00000E+00        -0.25790E+07
 
   -0.12416E+07         0.12843E+07         0.00000E+00
    0.12843E+07        -0.11953E+08         0.00000E+00
    0.00000E+00         0.00000E+00        -0.26390E+07
 
   -0.14396E+07         0.20284E+07         0.00000E+00
    0.20284E+07        -0.12038E+08         0.00000E+00
    0.00000E+00         0.00000E+00        -0.26955E+07
 
   -0.16658E+07         0.28643E+07         0.00000E+00
    0.28643E+07        -0.12084E+08         0.00000E+00
    0.00000E+00         0.00000E+00        -0.27499E+07
 
   -0.19370E+07         0.37677E+07         0.00000E+00
    0.37677E+07        -0.12082E+08         0.00000E+00
    0.00000E+00         0.00000E+00        -0.28039E+07
 
   -0.22743E+07         0.47098E+07         0.00000E+00
    0.47098E+07        -0.12020E+08         0.00000E+00
    0.00000E+00         0.00000E+00        -0.28589E+07
 
   -0.27043E+07         0.56584E+07         0.00000E+00
    0.56584E+07        -0.11878E+08         0.00000E+00
    0.00000E+00         0.00000E+00        -0.29164E+07
 
    0.36759E+05        -0.13780E+06         0.00000E+00
   -0.13780E+06        -0.11932E+08         0.00000E+00
    0.00000E+00         0.00000E+00        -0.23791E+07
 
   -0.65300E+06        -0.39962E+06         0.00000E+00
   -0.39962E+06        -0.12055E+08         0.00000E+00
    0.00000E+00         0.00000E+00        -0.25417E+07
 
   -0.11267E+07        -0.60846E+06         0.00000E+00
   -0.60846E+06        -0.12260E+08         0.00000E+00
    0.00000E+00         0.00000E+00        -0.26774E+07
 
   -0.14417E+07        -0.73050E+06         0.00000E+00
   -0.73050E+06        -0.12510E+08         0.00000E+00
    0.00000E+00         0.00000E+00        -0.27903E+07
 
   -0.16444E+07        -0.74087E+06         0.00000E+00
   -0.74087E+06        -0.12777E+08         0.00000E+00
    0.00000E+00         0.00000E+00        -0.28843E+07
 
   -0.17715E+07        -0.62302E+06         0.00000E+00
   -0.62302E+06        -0.13043E+08         0.00000E+00
    0.00000E+00         0.00000E+00        -0.29629E+07
 
   -0.18519E+07        -0.36790E+06         0.00000E+00
   -0.36790E+06        -0.13295E+08         0.00000E+00
    0.00000E+00         0.00000E+00        -0.30294E+07
 
   -0.19087E+07         0.27037E+05         0.00000E+00
    0.27037E+05        -0.13525E+08         0.00000E+00
    0.00000E+00         0.00000E+00        -0.30868E+07
 
   -0.19610E+07         0.55865E+06         0.00000E+00
    0.55865E+06        -0.13728E+08         0.00000E+00
    0.00000E+00         0.00000E+00        -0.31377E+07
 
   -0.20260E+07         0.12188E+07         0.00000E+00
    0.12188E+07        -0.13896E+08         0.00000E+00
    0.00000E+00         0.00000E+00        -0.31845E+07
 
   -0.21208E+07         0.19949E+07         0.00000E+00
    0.19949E+07        -0.14026E+08         0.00000E+00
    0.00000E+00         0.00000E+00        -0.32294E+07
 
   -0.22636E+07         0.28700E+07         0.00000E+00
    0.28700E+07        -0.14109E+08         0.00000E+00
    0.00000E+00         0.00000E+00        -0.32745E+07
 
   -0.24756E+07         0.38231E+07         0.00000E+00
    0.38231E+07        -0.14134E+08         0.00000E+00
    0.00000E+00         0.00000E+00        -0.33219E+07
 
   -0.27818E+07         0.48293E+07         0.00000E+00
    0.48293E+07        -0.14085E+08         0.00000E+00
    0.00000E+00         0.00000E+00        -0.33734E+07
 
   -0.32116E+07         0.58609E+07         0.00000E+00
    0.58609E+07        -0.13943E+08         0.00000E+00
    0.00000E+00         0.00000E+00        -0.34309E+07
 
   -0.19147E+07        -0.19369E+06         0.00000E+00
   -0.19369E+06        -0.13565E+08         0.00000E+00
    0.00000E+00         0.00000E+00        -0.30959E+07
 
   -0.25520E+07        -0.53758E+06         0.00000E+00
   -0.53758E+06        -0.13705E+08         0.00000E+00
    0.00000E+00         0.00000E+00        -0.32514E+07
 
   -0.29385E+07        -0.79535E+06         0.00000E+00
   -0.79535E+06        -0.13940E+08         0.00000E+00
    0.00000E+00         0.00000E+00        -0.33757E+07
 
   -0.31408E+07        -0.94094E+06         0.00000E+00
   -0.94094E+06        -0.14230E+08         0.00000E+00
    0.00000E+00         0.00000E+00        -0.34741E+07
 
   -0.32138E+07        -0.95638E+06         0.00000E+00
   -0.95638E+06        -0.14543E+08         0.00000E+00
    0.00000E+00         0.00000E+00        -0.35513E+07
 
   -0.32016E+07        -0.83078E+06         0.00000E+00
   -0.83078E+06        -0.14859E+08         0.00000E+00
    0.00000E+00         0.00000E+00        -0.36121E+07
 
   -0.31394E+07        -0.55932E+06         0.00000E+00
   -0.55932E+06        -0.15162E+08         0.00000E+00
    0.00000E+00         0.00000E+00        -0.36602E+07
 
   -0.30553E+07        -0.14215E+06         0.00000E+00
   -0.14215E+06        -0.15442E+08         0.00000E+00
    0.00000E+00         0.00000E+00        -0.36995E+07
 
   -0.29729E+07         0.41638E+06         0.00000E+00
    0.41638E+06        -0.15692E+08         0.00000E+00
    0.00000E+00         0.00000E+00        -0.37330E+07
 
   -0.29132E+07         0.11084E+07         0.00000E+00
    0.11084E+07        -0.15906E+08         0.00000E+00
    0.00000E+00         0.00000E+00        -0.37638E+07
 
   -0.28969E+07         0.19226E+07         0.00000E+00
    0.19226E+07        -0.16076E+08         0.00000E+00
    0.00000E+00         0.00000E+00        -0.37946E+07
 
   -0.29459E+07         0.28447E+07         0.00000E+00
    0.28447E+07        -0.16194E+08         0.00000E+00
    0.00000E+00         0.00000E+00        -0.38279E+07
 
   -0.30849E+07         0.38569E+07         0.00000E+00
    0.38569E+07        -0.16246E+08         0.00000E+00
    0.00000E+00         0.00000E+00        -0.38661E+07
 
   -0.33422E+07         0.49386E+07         0.00000E+00
    0.49386E+07        -0.16215E+08         0.00000E+00
    0.00000E+00         0.00000E+00        -0.39115E+07
 
   -0.37502E+07         0.60656E+07         0.00000E+00
    0.60656E+07        -0.16081E+08         0.00000E+00
    0.00000E+00         0.00000E+00        -0.39662E+07
 
   -0.41313E+07        -0.25879E+06         0.00000E+00
   -0.25879E+06        -0.15352E+08         0.00000E+00
    0.00000E+00         0.00000E+00        -0.38966E+07
 
   -0.46764E+07        -0.69944E+06         0.00000E+00
   -0.69944E+06        -0.15506E+08         0.00000E+00
    0.00000E+00         0.00000E+00        -0.40364E+07
 
   -0.49437E+07        -0.10163E+07         0.00000E+00
   -0.10163E+07        -0.15764E+08         0.00000E+00
    0.00000E+00         0.00000E+00        -0.41416E+07
 
   -0.50090E+07        -0.11918E+07         0.00000E+00
   -0.11918E+07        -0.16084E+08         0.00000E+00
    0.00000E+00         0.00000E+00        -0.42187E+07
 
   -0.49345E+07        -0.12157E+07         0.00000E+00
   -0.12157E+07        -0.16432E+08         0.00000E+00
    0.00000E+00         0.00000E+00        -0.42734E+07
 
   -0.47704E+07        -0.10835E+07         0.00000E+00
   -0.10835E+07        -0.16785E+08         0.00000E+00
    0.00000E+00         0.00000E+00        -0.43110E+07
 
   -0.45564E+07        -0.79547E+06         0.00000E+00
   -0.79547E+06        -0.17125E+08         0.00000E+00
    0.00000E+00         0.00000E+00        -0.43364E+07
 
   -0.43246E+07        -0.35486E+06         0.00000E+00
   -0.35486E+06        -0.17443E+08         0.00000E+00
    0.00000E+00         0.00000E+00        -0.43535E+07
 
   -0.41012E+07         0.23246E+06         0.00000E+00
    0.23246E+06        -0.17730E+08         0.00000E+00
    0.00000E+00         0.00000E+00        -0.43662E+07
 
   -0.39098E+07         0.95877E+06         0.00000E+00
    0.95877E+06        -0.17980E+08         0.00000E+00
    0.00000E+00         0.00000E+00        -0.43779E+07
 
   -0.37734E+07         0.18145E+07         0.00000E+00
    0.18145E+07        -0.18184E+08         0.00000E+00
    0.00000E+00         0.00000E+00        -0.43915E+07
 
   -0.37166E+07         0.27883E+07         0.00000E+00
    0.27883E+07        -0.18334E+08         0.00000E+00
    0.00000E+00         0.00000E+00        -0.44100E+07
 
   -0.37671E+07         0.38659E+07         0.00000E+00
    0.38659E+07        -0.18414E+08         0.00000E+00
    0.00000E+00         0.00000E+00        -0.44362E+07
 
   -0.39563E+07         0.50308E+07         0.00000E+00
    0.50308E+07        -0.18406E+08         0.00000E+00
    0.00000E+00         0.00000E+00        -0.44725E+07
 
   -0.43197E+07         0.62627E+07         0.00000E+00
    0.62627E+07        -0.18288E+08         0.00000E+00
    0.00000E+00         0.00000E+00        -0.45216E+07
 
   -0.66356E+07        -0.33150E+06         0.00000E+00
   -0.33150E+06        -0.17300E+08         0.00000E+00
    0.00000E+00         0.00000E+00        -0.47871E+07
 
   -0.70438E+07        -0.88034E+06         0.00000E+00
   -0.88034E+06        -0.17463E+08         0.00000E+00
    0.00000E+00         0.00000E+00        -0.49014E+07
 
   -0.71563E+07        -0.12635E+07         0.00000E+00
   -0.12635E+07        -0.17739E+08         0.00000E+00
    0.00000E+00         0.00000E+00        -0.49790E+07
 
   -0.70571E+07        -0.14727E+07         0.00000E+00
   -0.14727E+07        -0.18079E+08         0.00000E+00
    0.00000E+00         0.00000E+00        -0.50271E+07
 
   -0.68151E+07        -0.15067E+07         0.00000E+00
   -0.15067E+07        -0.18448E+08         0.00000E+00
    0.00000E+00         0.00000E+00        -0.50526E+07
 
   -0.64850E+07        -0.13683E+07         0.00000E+00
   -0.13683E+07        -0.18822E+08         0.00000E+00
    0.00000E+00         0.00000E+00        -0.50615E+07
 
   -0.61098E+07        -0.10634E+07         0.00000E+00
   -0.10634E+07        -0.19185E+08         0.00000E+00
    0.00000E+00         0.00000E+00        -0.50590E+07
 
   -0.57231E+07        -0.59917E+06         0.00000E+00
   -0.59917E+06        -0.19525E+08         0.00000E+00
    0.00000E+00         0.00000E+00        -0.50496E+07
 
   -0.53523E+07         0.16905E+05         0.00000E+00
    0.16905E+05        -0.19836E+08         0.00000E+00
    0.00000E+00         0.00000E+00        -0.50376E+07
 
   -0.50218E+07         0.77742E+06         0.00000E+00
    0.77742E+06        -0.20111E+08         0.00000E+00
    0.00000E+00         0.00000E+00        -0.50265E+07
 
   -0.47556E+07         0.16749E+07         0.00000E+00
    0.16749E+07        -0.20342E+08         0.00000E+00
    0.00000E+00         0.00000E+00        -0.50196E+07
 
   -0.45798E+07         0.27012E+07         0.00000E+00
    0.27012E+07        -0.20520E+08         0.00000E+00
    0.00000E+00         0.00000E+00        -0.50200E+07
 
   -0.45246E+07         0.38466E+07         0.00000E+00
    0.38466E+07        -0.20630E+08         0.00000E+00
    0.00000E+00         0.00000E+00        -0.50309E+07
 
   -0.46246E+07         0.50987E+07         0.00000E+00
    0.50987E+07        -0.20651E+08         0.00000E+00
    0.00000E+00         0.00000E+00        -0.50551E+07
 
   -0.49190E+07         0.64418E+07         0.00000E+00
    0.64418E+07        -0.20558E+08         0.00000E+00
    0.00000E+00         0.00000E+00        -0.50954E+07
 
   -0.94439E+07        -0.41000E+06         0.00000E+00
   -0.41000E+06        -0.19413E+08         0.00000E+00
    0.00000E+00         0.00000E+00        -0.57713E+07
 
   -0.96657E+07        -0.10748E+07         0.00000E+00
   -0.10748E+07        -0.19582E+08         0.00000E+00
    0.00000E+00         0.00000E+00        -0.58496E+07
 
   -0.95838E+07        -0.15279E+07         0.00000E+00
   -0.15279E+07        -0.19866E+08         0.00000E+00
    0.00000E+00         0.00000E+00        -0.58899E+07
 
   -0.92904E+07        -0.17718E+07         0.00000E+00
   -0.17718E+07        -0.20213E+08         0.00000E+00
    0.00000E+00         0.00000E+00        -0.59008E+07
 
   -0.88596E+07        -0.18151E+07         0.00000E+00
   -0.18151E+07        -0.20589E+08         0.00000E+00
    0.00000E+00         0.00000E+00        -0.58898E+07
 
   -0.83494E+07        -0.16696E+07         0.00000E+00
   -0.16696E+07        -0.20968E+08         0.00000E+00
    0.00000E+00         0.00000E+00        -0.58635E+07
 
   -0.78038E+07        -0.13477E+07         0.00000E+00
   -0.13477E+07        -0.21335E+08         0.00000E+00
    0.00000E+00         0.00000E+00        -0.58277E+07
 
   -0.72559E+07        -0.86091E+06         0.00000E+00
   -0.86091E+06        -0.21680E+08         0.00000E+00
    0.00000E+00         0.00000E+00        -0.57872E+07
 
   -0.67321E+07        -0.21838E+06         0.00000E+00
   -0.21838E+06        -0.21999E+08         0.00000E+00
    0.00000E+00         0.00000E+00        -0.57462E+07
 
   -0.62554E+07         0.57302E+06         0.00000E+00
    0.57302E+06        -0.22287E+08         0.00000E+00
    0.00000E+00         0.00000E+00        -0.57085E+07
 
   -0.58494E+07         0.15084E+07         0.00000E+00
    0.15084E+07        -0.22538E+08         0.00000E+00
    0.00000E+00         0.00000E+00        -0.56774E+07
 
   -0.55407E+07         0.25839E+07         0.00000E+00
    0.25839E+07        -0.22741E+08         0.00000E+00
    0.00000E+00         0.00000E+00        -0.56563E+07
 
   -0.53610E+07         0.37949E+07         0.00000E+00
    0.37949E+07        -0.22881E+08         0.00000E+00
    0.00000E+00         0.00000E+00        -0.56484E+07
 
   -0.53484E+07         0.51346E+07         0.00000E+00
    0.51346E+07        -0.22936E+08         0.00000E+00
    0.00000E+00         0.00000E+00        -0.56569E+07
 
   -0.55468E+07         0.65917E+07         0.00000E+00
    0.65917E+07        -0.22879E+08         0.00000E+00
    0.00000E+00         0.00000E+00        -0.56851E+07
 
   -0.12565E+08        -0.49232E+06         0.00000E+00
   -0.49232E+06        -0.21692E+08         0.00000E+00
    0.00000E+00         0.00000E+00        -0.68514E+07
 
   -0.12546E+08        -0.12768E+07         0.00000E+00
   -0.12768E+07        -0.21862E+08         0.00000E+00
    0.00000E+00         0.00000E+00        -0.68817E+07
 
   -0.12227E+08        -0.17993E+07         0.00000E+00
   -0.17993E+07        -0.22144E+08         0.00000E+00
    0.00000E+00         0.00000E+00        -0.68744E+07
 
   -0.11708E+08        -0.20749E+07         0.00000E+00
   -0.20749E+07        -0.22486E+08         0.00000E+00
    0.00000E+00         0.00000E+00        -0.68389E+07
 
   -0.11067E+08        -0.21243E+07         0.00000E+00
   -0.21243E+07        -0.22851E+08         0.00000E+00
    0.00000E+00         0.00000E+00        -0.67836E+07
 
   -0.10364E+08        -0.19694E+07         0.00000E+00
   -0.19694E+07        -0.23215E+08         0.00000E+00
    0.00000E+00         0.00000E+00        -0.67157E+07
 
   -0.96402E+07        -0.16304E+07         0.00000E+00
   -0.16304E+07        -0.23565E+08         0.00000E+00
    0.00000E+00         0.00000E+00        -0.66410E+07
 
   -0.89268E+07        -0.11234E+07         0.00000E+00
   -0.11234E+07        -0.23896E+08         0.00000E+00
    0.00000E+00         0.00000E+00        -0.65645E+07
 
   -0.82462E+07        -0.45945E+06         0.00000E+00
   -0.45945E+06        -0.24205E+08         0.00000E+00
    0.00000E+00         0.00000E+00        -0.64903E+07
 
   -0.76178E+07         0.35576E+06         0.00000E+00
    0.35576E+06        -0.24492E+08         0.00000E+00
    0.00000E+00         0.00000E+00        -0.64220E+07
 
   -0.70626E+07         0.13208E+07         0.00000E+00
    0.13208E+07        -0.24752E+08         0.00000E+00
    0.00000E+00         0.00000E+00        -0.63629E+07
 
   -0.66060E+07         0.24370E+07         0.00000E+00
    0.24370E+07        -0.24976E+08         0.00000E+00
    0.00000E+00         0.00000E+00        -0.63165E+07
 
   -0.62812E+07         0.37066E+07         0.00000E+00
    0.37066E+07        -0.25149E+08         0.00000E+00
    0.00000E+00         0.00000E+00        -0.62860E+07
 
   -0.61297E+07         0.51292E+07         0.00000E+00
    0.51292E+07        -0.25246E+08         0.00000E+00
    0.00000E+00         0.00000E+00        -0.62751E+07
 
   -0.62013E+07         0.66998E+07         0.00000E+00
    0.66998E+07        -0.25235E+08         0.00000E+00
    0.00000E+00         0.00000E+00        -0.62873E+07
 
   -0.16002E+08        -0.57629E+06         0.00000E+00
   -0.57629E+06        -0.24134E+08         0.00000E+00
    0.00000E+00         0.00000E+00        -0.80271E+07
 
   -0.15683E+08        -0.14794E+07         0.00000E+00
   -0.14794E+07        -0.24301E+08         0.00000E+00
    0.00000E+00         0.00000E+00        -0.79967E+07
 
   -0.15080E+08        -0.20657E+07         0.00000E+00
   -0.20657E+07        -0.24571E+08         0.00000E+00
    0.00000E+00         0.00000E+00        -0.79303E+07
 
   -0.14302E+08        -0.23658E+07         0.00000E+00
   -0.23658E+07        -0.24891E+08         0.00000E+00
    0.00000E+00         0.00000E+00        -0.78386E+07
 
   -0.13431E+08        -0.24146E+07         0.00000E+00
   -0.24146E+07        -0.25223E+08         0.00000E+00
    0.00000E+00         0.00000E+00        -0.77309E+07
 
   -0.12524E+08        -0.22465E+07         0.00000E+00
   -0.22465E+07        -0.25549E+08         0.00000E+00
    0.00000E+00         0.00000E+00        -0.76145E+07
 
   -0.11619E+08        -0.18904E+07         0.00000E+00
   -0.18904E+07        -0.25858E+08         0.00000E+00
    0.00000E+00         0.00000E+00        -0.74954E+07
 
   -0.10739E+08        -0.13675E+07         0.00000E+00
   -0.13675E+07        -0.26152E+08         0.00000E+00
    0.00000E+00         0.00000E+00        -0.73782E+07
 
   -0.99010E+07        -0.69026E+06         0.00000E+00
   -0.69026E+06        -0.26432E+08         0.00000E+00
    0.00000E+00         0.00000E+00        -0.72667E+07
 
   -0.91176E+07         0.13733E+06         0.00000E+00
    0.13733E+06        -0.26703E+08         0.00000E+00
    0.00000E+00         0.00000E+00        -0.71640E+07
 
   -0.84047E+07         0.11183E+07         0.00000E+00
    0.11183E+07        -0.26962E+08         0.00000E+00
    0.00000E+00         0.00000E+00        -0.70733E+07
 
   -0.77853E+07         0.22610E+07         0.00000E+00
    0.22610E+07        -0.27203E+08         0.00000E+00
    0.00000E+00         0.00000E+00        -0.69976E+07
 
   -0.72925E+07         0.35759E+07         0.00000E+00
    0.35759E+07        -0.27410E+08         0.00000E+00
    0.00000E+00         0.00000E+00        -0.69405E+07
 
   -0.69718E+07         0.50718E+07         0.00000E+00
    0.50718E+07        -0.27557E+08         0.00000E+00
    0.00000E+00         0.00000E+00        -0.69058E+07
 
   -0.68809E+07         0.67513E+07         0.00000E+00
    0.67513E+07        -0.27607E+08         0.00000E+00
    0.00000E+00         0.00000E+00        -0.68977E+07
 
   -0.19747E+08        -0.65960E+06         0.00000E+00
   -0.65960E+06        -0.26734E+08         0.00000E+00
    0.00000E+00         0.00000E+00        -0.92962E+07
 
   -0.19063E+08        -0.16745E+07         0.00000E+00
   -0.16745E+07        -0.26891E+08         0.00000E+00
    0.00000E+00         0.00000E+00        -0.91908E+07
 
   -0.18128E+08        -0.23130E+07         0.00000E+00
   -0.23130E+07        -0.27137E+08         0.00000E+00
    0.00000E+00         0.00000E+00        -0.90529E+07
 
   -0.17059E+08        -0.26246E+07         0.00000E+00
   -0.26246E+07        -0.27415E+08         0.00000E+00
    0.00000E+00         0.00000E+00        -0.88947E+07
 
   -0.15940E+08        -0.26626E+07         0.00000E+00
   -0.26626E+07        -0.27691E+08         0.00000E+00
    0.00000E+00         0.00000E+00        -0.87261E+07
 
   -0.14823E+08        -0.24761E+07         0.00000E+00
   -0.24761E+07        -0.27951E+08         0.00000E+00
    0.00000E+00         0.00000E+00        -0.85547E+07
 
   -0.13737E+08        -0.21036E+07         0.00000E+00
   -0.21036E+07        -0.28193E+08         0.00000E+00
    0.00000E+00         0.00000E+00        -0.83860E+07
 
   -0.12696E+08        -0.15714E+07         0.00000E+00
   -0.15714E+07        -0.28424E+08         0.00000E+00
    0.00000E+00         0.00000E+00        -0.82239E+07
 
   -0.11704E+08        -0.89273E+06         0.00000E+00
   -0.89273E+06        -0.28654E+08         0.00000E+00
    0.00000E+00         0.00000E+00        -0.80715E+07
 
   -0.10766E+08        -0.69127E+05         0.00000E+00
   -0.69127E+05        -0.28890E+08         0.00000E+00
    0.00000E+00         0.00000E+00        -0.79311E+07
 
   -0.98888E+07         0.90822E+06         0.00000E+00
    0.90822E+06        -0.29137E+08         0.00000E+00
    0.00000E+00         0.00000E+00        -0.78051E+07
 
   -0.90915E+07         0.20562E+07         0.00000E+00
    0.20562E+07        -0.29390E+08         0.00000E+00
    0.00000E+00         0.00000E+00        -0.76964E+07
 
   -0.84056E+07         0.33962E+07         0.00000E+00
    0.33962E+07        -0.29635E+08         0.00000E+00
    0.00000E+00         0.00000E+00        -0.76082E+07
 
   -0.78807E+07         0.49491E+07         0.00000E+00
    0.49491E+07        -0.29843E+08         0.00000E+00
    0.00000E+00         0.00000E+00        -0.75448E+07
 
   -0.75842E+07         0.67285E+07         0.00000E+00
    0.67285E+07        -0.29972E+08         0.00000E+00
    0.00000E+00         0.00000E+00        -0.75112E+07
 
   -0.23786E+08        -0.73979E+06         0.00000E+00
   -0.73979E+06        -0.29484E+08         0.00000E+00
    0.00000E+00         0.00000E+00        -0.10654E+08
 
   -0.22664E+08        -0.18526E+07         0.00000E+00
   -0.18526E+07        -0.29624E+08         0.00000E+00
    0.00000E+00         0.00000E+00        -0.10458E+08
 
   -0.21344E+08        -0.25234E+07         0.00000E+00
   -0.25234E+07        -0.29830E+08         0.00000E+00
    0.00000E+00         0.00000E+00        -0.10235E+08
 
   -0.19954E+08        -0.28270E+07         0.00000E+00
   -0.28270E+07        -0.30041E+08         0.00000E+00
    0.00000E+00         0.00000E+00        -0.99991E+07
 
   -0.18576E+08        -0.28402E+07         0.00000E+00
   -0.28402E+07        -0.30231E+08         0.00000E+00
    0.00000E+00         0.00000E+00        -0.97613E+07
 
   -0.17250E+08        -0.26292E+07         0.00000E+00
   -0.26292E+07        -0.30394E+08         0.00000E+00
    0.00000E+00         0.00000E+00        -0.95288E+07
 
   -0.15992E+08        -0.22428E+07         0.00000E+00
   -0.22428E+07        -0.30538E+08         0.00000E+00
    0.00000E+00         0.00000E+00        -0.93061E+07
 
   -0.14800E+08        -0.17111E+07         0.00000E+00
   -0.17111E+07        -0.30680E+08         0.00000E+00
    0.00000E+00         0.00000E+00        -0.90959E+07
 
   -0.13664E+08        -0.10472E+07         0.00000E+00
   -0.10472E+07        -0.30835E+08         0.00000E+00
    0.00000E+00         0.00000E+00        -0.88999E+07
 
   -0.12575E+08        -0.24918E+06         0.00000E+00
   -0.24918E+06        -0.31020E+08         0.00000E+00
    0.00000E+00         0.00000E+00        -0.87191E+07
 
   -0.11532E+08         0.69842E+06         0.00000E+00
    0.69842E+06        -0.31242E+08         0.00000E+00
    0.00000E+00         0.00000E+00        -0.85548E+07
 
   -0.10543E+08         0.18227E+07         0.00000E+00
    0.18227E+07        -0.31503E+08         0.00000E+00
    0.00000E+00         0.00000E+00        -0.84092E+07
 
   -0.96363E+07         0.31590E+07         0.00000E+00
    0.31590E+07        -0.31790E+08         0.00000E+00
    0.00000E+00         0.00000E+00        -0.82853E+07
 
   -0.88657E+07         0.47446E+07         0.00000E+00
    0.47446E+07        -0.32073E+08         0.00000E+00
    0.00000E+00         0.00000E+00        -0.81877E+07
 
   -0.83106E+07         0.66090E+07         0.00000E+00
    0.66090E+07        -0.32301E+08         0.00000E+00
    0.00000E+00         0.00000E+00        -0.81223E+07
 
   -0.28095E+08        -0.81416E+06         0.00000E+00
   -0.81416E+06        -0.32371E+08         0.00000E+00
    0.00000E+00         0.00000E+00        -0.12093E+08
 
   -0.26451E+08        -0.20017E+07         0.00000E+00
   -0.20017E+07        -0.32486E+08         0.00000E+00
    0.00000E+00         0.00000E+00        -0.11788E+08
 
   -0.24692E+08        -0.26738E+07         0.00000E+00
   -0.26738E+07        -0.32630E+08         0.00000E+00
    0.00000E+00         0.00000E+00        -0.11464E+08
 
   -0.22957E+08        -0.29418E+07         0.00000E+00
   -0.29418E+07        -0.32743E+08         0.00000E+00
    0.00000E+00         0.00000E+00        -0.11140E+08
 
   -0.21317E+08        -0.29133E+07         0.00000E+00
   -0.29133E+07        -0.32810E+08         0.00000E+00
    0.00000E+00         0.00000E+00        -0.10825E+08
 
   -0.19795E+08        -0.26734E+07         0.00000E+00
   -0.26734E+07        -0.32839E+08         0.00000E+00
    0.00000E+00         0.00000E+00        -0.10527E+08
 
   -0.18383E+08        -0.22791E+07         0.00000E+00
   -0.22791E+07        -0.32854E+08         0.00000E+00
    0.00000E+00         0.00000E+00        -0.10247E+08
 
   -0.17057E+08        -0.17621E+07         0.00000E+00
   -0.17621E+07        -0.32879E+08         0.00000E+00
    0.00000E+00         0.00000E+00        -0.99873E+07
 
   -0.15792E+08        -0.11336E+07         0.00000E+00
   -0.11336E+07        -0.32939E+08         0.00000E+00
    0.00000E+00         0.00000E+00        -0.97463E+07
 
   -0.14564E+08        -0.38761E+06         0.00000E+00
   -0.38761E+06        -0.33054E+08         0.00000E+00
    0.00000E+00         0.00000E+00        -0.95236E+07
 
   -0.13356E+08         0.49791E+06         0.00000E+00
    0.49791E+06        -0.33239E+08         0.00000E+00
    0.00000E+00         0.00000E+00        -0.93189E+07
 
   -0.12164E+08         0.15610E+07         0.00000E+00
    0.15610E+07        -0.33501E+08         0.00000E+00
    0.00000E+00         0.00000E+00        -0.91330E+07
 
   -0.11008E+08         0.28542E+07         0.00000E+00
    0.28542E+07        -0.33834E+08         0.00000E+00
    0.00000E+00         0.00000E+00        -0.89684E+07
 
   -0.99421E+07         0.44375E+07         0.00000E+00
    0.44375E+07        -0.34208E+08         0.00000E+00
    0.00000E+00         0.00000E+00        -0.88301E+07
 
   -0.90616E+07         0.63643E+07         0.00000E+00
    0.63643E+07        -0.34564E+08         0.00000E+00
    0.00000E+00         0.00000E+00        -0.87251E+07
 
   -0.32638E+08        -0.87953E+06         0.00000E+00
   -0.87953E+06        -0.35380E+08         0.00000E+00
    0.00000E+00         0.00000E+00        -0.13604E+08
 
   -0.30375E+08        -0.21040E+07         0.00000E+00
   -0.21040E+07        -0.35458E+08         0.00000E+00
    0.00000E+00         0.00000E+00        -0.13166E+08
 
   -0.28122E+08        -0.27309E+07         0.00000E+00
   -0.27309E+07        -0.35507E+08         0.00000E+00
    0.00000E+00         0.00000E+00        -0.12726E+08
 
   -0.26028E+08        -0.29279E+07         0.00000E+00
   -0.29279E+07        -0.35478E+08         0.00000E+00
    0.00000E+00         0.00000E+00        -0.12301E+08
 
   -0.24142E+08        -0.28419E+07         0.00000E+00
   -0.28419E+07        -0.35376E+08         0.00000E+00
    0.00000E+00         0.00000E+00        -0.11904E+08
 
   -0.22448E+08        -0.25744E+07         0.00000E+00
   -0.25744E+07        -0.35234E+08         0.00000E+00
    0.00000E+00         0.00000E+00        -0.11536E+08
 
   -0.20908E+08        -0.21848E+07         0.00000E+00
   -0.21848E+07        -0.35090E+08         0.00000E+00
    0.00000E+00         0.00000E+00        -0.11200E+08
 
   -0.19474E+08        -0.17020E+07         0.00000E+00
   -0.17020E+07        -0.34976E+08         0.00000E+00
    0.00000E+00         0.00000E+00        -0.10890E+08
 
   -0.18102E+08        -0.11335E+07         0.00000E+00
   -0.11335E+07        -0.34922E+08         0.00000E+00
    0.00000E+00         0.00000E+00        -0.10605E+08
 
   -0.16750E+08        -0.46944E+06         0.00000E+00
   -0.46944E+06        -0.34952E+08         0.00000E+00
    0.00000E+00         0.00000E+00        -0.10340E+08
 
   -0.15386E+08         0.31711E+06         0.00000E+00
    0.31711E+06        -0.35086E+08         0.00000E+00
    0.00000E+00         0.00000E+00        -0.10094E+08
 
   -0.13986E+08         0.12736E+07         0.00000E+00
    0.12736E+07        -0.35342E+08         0.00000E+00
    0.00000E+00         0.00000E+00        -0.98656E+07
 
   -0.12553E+08         0.24713E+07         0.00000E+00
    0.24713E+07        -0.35724E+08         0.00000E+00
    0.00000E+00         0.00000E+00        -0.96554E+07
 
   -0.11135E+08         0.40018E+07         0.00000E+00
    0.40018E+07        -0.36208E+08         0.00000E+00
    0.00000E+00         0.00000E+00        -0.94685E+07
 
   -0.98426E+07         0.59570E+07         0.00000E+00
    0.59570E+07        -0.36728E+08         0.00000E+00
    0.00000E+00         0.00000E+00        -0.93141E+07
 
   -0.37368E+08        -0.93120E+06         0.00000E+00
   -0.93120E+06        -0.38495E+08         0.00000E+00
    0.00000E+00         0.00000E+00        -0.15172E+08
 
   -0.34360E+08        -0.21296E+07         0.00000E+00
   -0.21296E+07        -0.38511E+08         0.00000E+00
    0.00000E+00         0.00000E+00        -0.14574E+08
 
   -0.31567E+08        -0.26431E+07         0.00000E+00
   -0.26431E+07        -0.38412E+08         0.00000E+00
    0.00000E+00         0.00000E+00        -0.13996E+08
 
   -0.29130E+08        -0.27310E+07         0.00000E+00
   -0.27310E+07        -0.38176E+08         0.00000E+00
    0.00000E+00         0.00000E+00        -0.13461E+08
 
   -0.27034E+08        -0.25821E+07         0.00000E+00
   -0.25821E+07        -0.37853E+08         0.00000E+00
    0.00000E+00         0.00000E+00        -0.12978E+08
 
   -0.25209E+08        -0.23011E+07         0.00000E+00
   -0.23011E+07        -0.37506E+08         0.00000E+00
    0.00000E+00         0.00000E+00        -0.12543E+08
 
   -0.23574E+08        -0.19387E+07         0.00000E+00
   -0.19387E+07        -0.37183E+08         0.00000E+00
    0.00000E+00         0.00000E+00        -0.12151E+08
 
   -0.22061E+08        -0.15155E+07         0.00000E+00
   -0.15155E+07        -0.36919E+08         0.00000E+00
    0.00000E+00         0.00000E+00        -0.11796E+08
 
   -0.20606E+08        -0.10340E+07         0.00000E+00
   -0.10340E+07        -0.36741E+08         0.00000E+00
    0.00000E+00         0.00000E+00        -0.11469E+08
 
   -0.19154E+08        -0.48202E+06         0.00000E+00
   -0.48202E+06        -0.36676E+08         0.00000E+00
    0.00000E+00         0.00000E+00        -0.11166E+08
 
   -0.17652E+08         0.16834E+06         0.00000E+00
    0.16834E+06        -0.36748E+08         0.00000E+00
    0.00000E+00         0.00000E+00        -0.10880E+08
 
   -0.16051E+08         0.96760E+06         0.00000E+00
    0.96760E+06        -0.36985E+08         0.00000E+00
    0.00000E+00         0.00000E+00        -0.10607E+08
 
   -0.14322E+08         0.20027E+07         0.00000E+00
    0.20027E+07        -0.37410E+08         0.00000E+00
    0.00000E+00         0.00000E+00        -0.10347E+08
 
   -0.12486E+08         0.34062E+07         0.00000E+00
    0.34062E+07        -0.38023E+08         0.00000E+00
    0.00000E+00         0.00000E+00        -0.10102E+08
 
   -0.10667E+08         0.53354E+07         0.00000E+00
    0.53354E+07        -0.38755E+08         0.00000E+00
    0.00000E+00         0.00000E+00        -0.98843E+07
 
   -0.42207E+08        -0.95874E+06         0.00000E+00
   -0.95874E+06        -0.41692E+08         0.00000E+00
    0.00000E+00         0.00000E+00        -0.16780E+08
 
   -0.38297E+08        -0.20167E+07         0.00000E+00
   -0.20167E+07        -0.41592E+08         0.00000E+00
    0.00000E+00         0.00000E+00        -0.15978E+08
 
   -0.34956E+08        -0.23261E+07         0.00000E+00
   -0.23261E+07        -0.41244E+08         0.00000E+00
    0.00000E+00         0.00000E+00        -0.15240E+08
 
   -0.32236E+08        -0.22861E+07         0.00000E+00
   -0.22861E+07        -0.40716E+08         0.00000E+00
    0.00000E+00         0.00000E+00        -0.14590E+08
 
   -0.29996E+08        -0.20971E+07         0.00000E+00
   -0.20971E+07        -0.40131E+08         0.00000E+00
    0.00000E+00         0.00000E+00        -0.14025E+08
 
   -0.28086E+08        -0.18362E+07         0.00000E+00
   -0.18362E+07        -0.39564E+08         0.00000E+00
    0.00000E+00         0.00000E+00        -0.13530E+08
 
   -0.26394E+08        -0.15339E+07         0.00000E+00
   -0.15339E+07        -0.39061E+08         0.00000E+00
    0.00000E+00         0.00000E+00        -0.13091E+08
 
   -0.24829E+08        -0.12000E+07         0.00000E+00
   -0.12000E+07        -0.38651E+08         0.00000E+00
    0.00000E+00         0.00000E+00        -0.12696E+08
 
   -0.23317E+08        -0.83222E+06         0.00000E+00
   -0.83222E+06        -0.38356E+08         0.00000E+00
    0.00000E+00         0.00000E+00        -0.12335E+08
 
   -0.21789E+08        -0.41884E+06         0.00000E+00
   -0.41884E+06        -0.38198E+08         0.00000E+00
    0.00000E+00         0.00000E+00        -0.11997E+08
 
   -0.20177E+08         0.64007E+05         0.00000E+00
    0.64007E+05        -0.38202E+08         0.00000E+00
    0.00000E+00         0.00000E+00        -0.11676E+08
 
   -0.18404E+08         0.66013E+06         0.00000E+00
    0.66013E+06        -0.38403E+08         0.00000E+00
    0.00000E+00         0.00000E+00        -0.11361E+08
 
   -0.16385E+08         0.14531E+07         0.00000E+00
    0.14531E+07        -0.38849E+08         0.00000E+00
    0.00000E+00         0.00000E+00        -0.11047E+08
 
   -0.14071E+08         0.26172E+07         0.00000E+00
    0.26172E+07        -0.39597E+08         0.00000E+00
    0.00000E+00         0.00000E+00        -0.10734E+08
 
   -0.11563E+08         0.44245E+07         0.00000E+00
    0.44245E+07        -0.40602E+08         0.00000E+00
    0.00000E+00         0.00000E+00        -0.10433E+08
 
   -0.47017E+08        -0.92443E+06         0.00000E+00
   -0.92443E+06        -0.44932E+08         0.00000E+00
    0.00000E+00         0.00000E+00        -0.18390E+08
 
   -0.42029E+08        -0.16167E+07         0.00000E+00
   -0.16167E+07        -0.44549E+08         0.00000E+00
    0.00000E+00         0.00000E+00        -0.17316E+08
 
   -0.38246E+08        -0.16616E+07         0.00000E+00
   -0.16616E+07        -0.43776E+08         0.00000E+00
    0.00000E+00         0.00000E+00        -0.16405E+08
 
   -0.35370E+08        -0.15478E+07         0.00000E+00
   -0.15478E+07        -0.42905E+08         0.00000E+00
    0.00000E+00         0.00000E+00        -0.15655E+08
 
   -0.33056E+08        -0.13805E+07         0.00000E+00
   -0.13805E+07        -0.42063E+08         0.00000E+00
    0.00000E+00         0.00000E+00        -0.15024E+08
 
   -0.31106E+08        -0.11901E+07         0.00000E+00
   -0.11901E+07        -0.41302E+08         0.00000E+00
    0.00000E+00         0.00000E+00        -0.14482E+08
 
   -0.29383E+08        -0.98653E+06         0.00000E+00
   -0.98653E+06        -0.40650E+08         0.00000E+00
    0.00000E+00         0.00000E+00        -0.14007E+08
 
   -0.27789E+08        -0.77115E+06         0.00000E+00
   -0.77115E+06        -0.40122E+08         0.00000E+00
    0.00000E+00         0.00000E+00        -0.13582E+08
 
   -0.26242E+08        -0.54012E+06         0.00000E+00
   -0.54012E+06        -0.39733E+08         0.00000E+00
    0.00000E+00         0.00000E+00        -0.13195E+08
 
   -0.24665E+08        -0.28479E+06         0.00000E+00
   -0.28479E+06        -0.39498E+08         0.00000E+00
    0.00000E+00         0.00000E+00        -0.12832E+08
 
   -0.22977E+08         0.10428E+05         0.00000E+00
    0.10428E+05        -0.39440E+08         0.00000E+00
    0.00000E+00         0.00000E+00        -0.12483E+08
 
   -0.21079E+08         0.37399E+06         0.00000E+00
    0.37399E+06        -0.39596E+08         0.00000E+00
    0.00000E+00         0.00000E+00        -0.12135E+08
 
   -0.18835E+08         0.86305E+06         0.00000E+00
    0.86305E+06        -0.40029E+08         0.00000E+00
    0.00000E+00         0.00000E+00        -0.11773E+08
 
   -0.16030E+08         0.16189E+07         0.00000E+00
    0.16189E+07        -0.40850E+08         0.00000E+00
    0.00000E+00         0.00000E+00        -0.11376E+08
 
   -0.12608E+08         0.31003E+07         0.00000E+00
    0.31003E+07        -0.42215E+08         0.00000E+00
    0.00000E+00         0.00000E+00        -0.10965E+08
 
   -0.51459E+08        -0.57647E+06         0.00000E+00
   -0.57647E+06        -0.47897E+08         0.00000E+00
    0.00000E+00         0.00000E+00        -0.19871E+08
 
   -0.45444E+08        -0.66585E+06         0.00000E+00
   -0.66585E+06        -0.46833E+08         0.00000E+00
    0.00000E+00         0.00000E+00        -0.18455E+08
 
   -0.41525E+08        -0.61335E+06         0.00000E+00
   -0.61335E+06        -0.45636E+08         0.00000E+00
    0.00000E+00         0.00000E+00        -0.17432E+08
 
   -0.38597E+08        -0.55115E+06         0.00000E+00
   -0.55115E+06        -0.44511E+08         0.00000E+00
    0.00000E+00         0.00000E+00        -0.16622E+08
 
   -0.36262E+08        -0.48288E+06         0.00000E+00
   -0.48288E+06        -0.43501E+08         0.00000E+00
    0.00000E+00         0.00000E+00        -0.15953E+08
 
   -0.34296E+08        -0.41233E+06         0.00000E+00
   -0.41233E+06        -0.42624E+08         0.00000E+00
    0.00000E+00         0.00000E+00        -0.15384E+08
 
   -0.32560E+08        -0.34011E+06         0.00000E+00
   -0.34011E+06        -0.41885E+08         0.00000E+00
    0.00000E+00         0.00000E+00        -0.14889E+08
 
   -0.30951E+08        -0.26551E+06         0.00000E+00
   -0.26551E+06        -0.41290E+08         0.00000E+00
    0.00000E+00         0.00000E+00        -0.14448E+08
 
   -0.29384E+08        -0.18668E+06         0.00000E+00
   -0.18668E+06        -0.40847E+08         0.00000E+00
    0.00000E+00         0.00000E+00        -0.14046E+08
 
   -0.27779E+08        -0.10046E+06         0.00000E+00
   -0.10046E+06        -0.40567E+08         0.00000E+00
    0.00000E+00         0.00000E+00        -0.13669E+08
 
   -0.26051E+08        -0.14888E+04         0.00000E+00
   -0.14888E+04        -0.40471E+08         0.00000E+00
    0.00000E+00         0.00000E+00        -0.13304E+08
 
   -0.24087E+08         0.11973E+06         0.00000E+00
    0.11973E+06        -0.40595E+08         0.00000E+00
    0.00000E+00         0.00000E+00        -0.12936E+08
 
   -0.21719E+08         0.28326E+06         0.00000E+00
    0.28326E+06        -0.41000E+08         0.00000E+00
    0.00000E+00         0.00000E+00        -0.12544E+08
 
   -0.18645E+08         0.53389E+06         0.00000E+00
    0.53389E+06        -0.41818E+08         0.00000E+00
    0.00000E+00         0.00000E+00        -0.12093E+08
 
   -0.14000E+08         0.11575E+07         0.00000E+00
    0.11575E+07        -0.43414E+08         0.00000E+00
    0.00000E+00         0.00000E+00        -0.11483E+08
 
TENSORS stresstot double 
   -0.37568E+08        -0.94797E+06         0.00000E+00
   -0.94797E+06        -0.60349E+08         0.00000E+00
    0.00000E+00         0.00000E+00        -0.65839E+08
 
   -0.42392E+08        -0.12619E+07         0.00000E+00
   -0.12619E+07        -0.62353E+08         0.00000E+00
    0.00000E+00         0.00000E+00        -0.69407E+08
 
   -0.46565E+08        -0.98102E+06         0.00000E+00
   -0.98102E+06        -0.64316E+08         0.00000E+00
    0.00000E+00         0.00000E+00        -0.70663E+08
 
   -0.49109E+08        -0.72568E+06         0.00000E+00
   -0.72568E+06        -0.65903E+08         0.00000E+00
    0.00000E+00         0.00000E+00        -0.71517E+08
 
   -0.51041E+08        -0.55249E+06         0.00000E+00
   -0.55249E+06        -0.67132E+08         0.00000E+00
    0.00000E+00         0.00000E+00        -0.72174E+08
 
   -0.52662E+08        -0.42465E+06         0.00000E+00
   -0.42465E+06        -0.68087E+08         0.00000E+00
    0.00000E+00         0.00000E+00        -0.72710E+08
 
   -0.54119E+08        -0.32430E+06         0.00000E+00
   -0.32430E+06        -0.68825E+08         0.00000E+00
    0.00000E+00         0.00000E+00        -0.73167E+08
 
   -0.55496E+08        -0.24046E+06         0.00000E+00
   -0.24046E+06        -0.69385E+08         0.00000E+00
    0.00000E+00         0.00000E+00        -0.73571E+08
 
   -0.56859E+08        -0.16552E+06         0.00000E+00
   -0.16552E+06        -0.69789E+08         0.00000E+00
    0.00000E+00         0.00000E+00        -0.73940E+08
 
   -0.58274E+08        -0.92798E+05         0.00000E+00
   -0.92798E+05        -0.70047E+08         0.00000E+00
    0.00000E+00         0.00000E+00        -0.74289E+08
 
   -0.59821E+08        -0.14243E+05         0.00000E+00
   -0.14243E+05        -0.70153E+08         0.00000E+00
    0.00000E+00         0.00000E+00        -0.74634E+08
 
   -0.61623E+08         0.83597E+05         0.00000E+00
    0.83597E+05        -0.70083E+08         0.00000E+00
    0.00000E+00         0.00000E+00        -0.74994E+08
 
   -0.63911E+08         0.23319E+06         0.00000E+00
    0.23319E+06        -0.69765E+08         0.00000E+00
    0.00000E+00         0.00000E+00        -0.75402E+08
 
   -0.67178E+08         0.51485E+06         0.00000E+00
    0.51485E+06        -0.69011E+08         0.00000E+00
    0.00000E+00         0.00000E+00        -0.75918E+08
 
   -0.73226E+08         0.16024E+07         0.00000E+00
    0.16024E+07        -0.67117E+08         0.00000E+00
    0.00000E+00         0.00000E+00        -0.76762E+08
 
   -0.39174E+08        -0.12067E+07         0.00000E+00
   -0.12067E+07        -0.60269E+08         0.00000E+00
    0.00000E+00         0.00000E+00        -0.63982E+08
 
   -0.42692E+08        -0.24982E+07         0.00000E+00
   -0.24982E+07        -0.60127E+08         0.00000E+00
    0.00000E+00         0.00000E+00        -0.64701E+08
 
   -0.46175E+08        -0.23786E+07         0.00000E+00
   -0.23786E+07        -0.60819E+08         0.00000E+00
    0.00000E+00         0.00000E+00        -0.65595E+08
 
   -0.48781E+08        -0.19366E+07         0.00000E+00
   -0.19366E+07        -0.61747E+08         0.00000E+00
    0.00000E+00         0.00000E+00        -0.66362E+08
 
   -0.50782E+08        -0.15395E+07         0.00000E+00
   -0.15395E+07        -0.62636E+08         0.00000E+00
    0.00000E+00         0.00000E+00        -0.66996E+08
 
   -0.52455E+08        -0.12125E+07         0.00000E+00
   -0.12125E+07        -0.63402E+08         0.00000E+00
    0.00000E+00         0.00000E+00        -0.67534E+08
 
   -0.53946E+08        -0.93972E+06         0.00000E+00
   -0.93972E+06        -0.64028E+08         0.00000E+00
    0.00000E+00         0.00000E+00        -0.68004E+08
 
   -0.55343E+08        -0.70286E+06         0.00000E+00
   -0.70286E+06        -0.64518E+08         0.00000E+00
    0.00000E+00         0.00000E+00        -0.68423E+08
 
   -0.56715E+08        -0.48508E+06         0.00000E+00
   -0.48508E+06        -0.64874E+08         0.00000E+00
    0.00000E+00         0.00000E+00        -0.68806E+08
 
   -0.58125E+08        -0.26889E+06         0.00000E+00
   -0.26889E+06        -0.65094E+08         0.00000E+00
    0.00000E+00         0.00000E+00        -0.69168E+08
 
   -0.59647E+08        -0.30790E+05         0.00000E+00
   -0.30790E+05        -0.65165E+08         0.00000E+00
    0.00000E+00         0.00000E+00        -0.69521E+08
 
   -0.61385E+08         0.27106E+06         0.00000E+00
    0.27106E+06        -0.65052E+08         0.00000E+00
    0.00000E+00         0.00000E+00        -0.69879E+08
 
   -0.63503E+08         0.72980E+06         0.00000E+00
    0.72980E+06        -0.64680E+08         0.00000E+00
    0.00000E+00         0.00000E+00        -0.70260E+08
 
   -0.66313E+08         0.16157E+07         0.00000E+00
    0.16157E+07        -0.63889E+08         0.00000E+00
    0.00000E+00         0.00000E+00        -0.70694E+08
 
   -0.69596E+08         0.39387E+07         0.00000E+00
    0.39387E+07        -0.62463E+08         0.00000E+00
    0.00000E+00         0.00000E+00        -0.71089E+08
 
   -0.41160E+08        -0.11280E+07         0.00000E+00
   -0.11280E+07        -0.59855E+08         0.00000E+00
    0.00000E+00         0.00000E+00        -0.61273E+08
 
   -0.43368E+08        -0.24356E+07         0.00000E+00
   -0.24356E+07        -0.59679E+08         0.00000E+00
    0.00000E+00         0.00000E+00        -0.61710E+08
 
   -0.45979E+08        -0.27886E+07         0.00000E+00
   -0.27886E+07        -0.59565E+08         0.00000E+00
    0.00000E+00         0.00000E+00        -0.62261E+08
 
   -0.48386E+08        -0.25679E+07         0.00000E+00
   -0.25679E+07        -0.59778E+08         0.00000E+00
    0.00000E+00         0.00000E+00        -0.62845E+08
 
   -0.50396E+08        -0.21814E+07         0.00000E+00
   -0.21814E+07        -0.60176E+08         0.00000E+00
    0.00000E+00         0.00000E+00        -0.63388E+08
 
   -0.52111E+08        -0.17850E+07         0.00000E+00
   -0.17850E+07        -0.60615E+08         0.00000E+00
    0.00000E+00         0.00000E+00        -0.63877E+08
 
   -0.53638E+08        -0.14134E+07         0.00000E+00
   -0.14134E+07        -0.61019E+08         0.00000E+00
    0.00000E+00         0.00000E+00        -0.64319E+08
 
   -0.55059E+08        -0.10656E+07         0.00000E+00
   -0.10656E+07        -0.61352E+08         0.00000E+00
    0.00000E+00         0.00000E+00        -0.64721E+08
 
   -0.56437E+08        -0.72785E+06         0.00000E+00
   -0.72785E+06        -0.61589E+08         0.00000E+00
    0.00000E+00         0.00000E+00        -0.65092E+08
 
   -0.57829E+08        -0.37802E+06         0.00000E+00
   -0.37802E+06        -0.61713E+08         0.00000E+00
    0.00000E+00         0.00000E+00        -0.65439E+08
 
   -0.59295E+08         0.19413E+05         0.00000E+00
    0.19413E+05        -0.61697E+08         0.00000E+00
    0.00000E+00         0.00000E+00        -0.65771E+08
 
   -0.60899E+08         0.52949E+06         0.00000E+00
    0.52949E+06        -0.61506E+08         0.00000E+00
    0.00000E+00         0.00000E+00        -0.66092E+08
 
   -0.62711E+08         0.12877E+07         0.00000E+00
    0.12877E+07        -0.61085E+08         0.00000E+00
    0.00000E+00         0.00000E+00        -0.66404E+08
 
   -0.64676E+08         0.26099E+07         0.00000E+00
    0.26099E+07        -0.60385E+08         0.00000E+00
    0.00000E+00         0.00000E+00        -0.66686E+08
 
   -0.66312E+08         0.49635E+07         0.00000E+00
    0.49635E+07        -0.59645E+08         0.00000E+00
    0.00000E+00         0.00000E+00        -0.66882E+08
 
   -0.42919E+08        -0.87396E+06         0.00000E+00
   -0.87396E+06        -0.59882E+08         0.00000E+00
    0.00000E+00         0.00000E+00        -0.59486E+08
 
   -0.44193E+08        -0.21008E+07         0.00000E+00
   -0.21008E+07        -0.59531E+08         0.00000E+00
    0.00000E+00         0.00000E+00        -0.59686E+08
 
   -0.46121E+08        -0.26353E+07         0.00000E+00
   -0.26353E+07        -0.59185E+08         0.00000E+00
    0.00000E+00         0.00000E+00        -0.60036E+08
 
   -0.48150E+08        -0.26700E+07         0.00000E+00
   -0.26700E+07        -0.58997E+08         0.00000E+00
    0.00000E+00         0.00000E+00        -0.60449E+08
 
   -0.50036E+08        -0.24275E+07         0.00000E+00
   -0.24275E+07        -0.58997E+08         0.00000E+00
    0.00000E+00         0.00000E+00        -0.60878E+08
 
   -0.51726E+08        -0.20726E+07         0.00000E+00
   -0.20726E+07        -0.59113E+08         0.00000E+00
    0.00000E+00         0.00000E+00        -0.61293E+08
 
   -0.53257E+08        -0.16800E+07         0.00000E+00
   -0.16800E+07        -0.59270E+08         0.00000E+00
    0.00000E+00         0.00000E+00        -0.61682E+08
 
   -0.54680E+08        -0.12726E+07         0.00000E+00
   -0.12726E+07        -0.59411E+08         0.00000E+00
    0.00000E+00         0.00000E+00        -0.62045E+08
 
   -0.56046E+08        -0.84733E+06         0.00000E+00
   -0.84733E+06        -0.59500E+08         0.00000E+00
    0.00000E+00         0.00000E+00        -0.62383E+08
 
   -0.57397E+08        -0.38424E+06         0.00000E+00
   -0.38424E+06        -0.59503E+08         0.00000E+00
    0.00000E+00         0.00000E+00        -0.62698E+08
 
   -0.58771E+08         0.15635E+06         0.00000E+00
    0.15635E+06        -0.59393E+08         0.00000E+00
    0.00000E+00         0.00000E+00        -0.62990E+08
 
   -0.60190E+08         0.84607E+06         0.00000E+00
    0.84607E+06        -0.59142E+08         0.00000E+00
    0.00000E+00         0.00000E+00        -0.63258E+08
 
   -0.61623E+08         0.18141E+07         0.00000E+00
    0.18141E+07        -0.58738E+08         0.00000E+00
    0.00000E+00         0.00000E+00        -0.63493E+08
 
   -0.62904E+08         0.32511E+07         0.00000E+00
    0.32511E+07        -0.58247E+08         0.00000E+00
    0.00000E+00         0.00000E+00        -0.63671E+08
 
   -0.63619E+08         0.53249E+07         0.00000E+00
    0.53249E+07        -0.57900E+08         0.00000E+00
    0.00000E+00         0.00000E+00        -0.63754E+08
 
   -0.44309E+08        -0.63909E+06         0.00000E+00
   -0.63909E+06        -0.59898E+08         0.00000E+00
    0.00000E+00         0.00000E+00        -0.58212E+08
 
   -0.45041E+08        -0.16701E+07         0.00000E+00
   -0.16701E+07        -0.59572E+08         0.00000E+00
    0.00000E+00         0.00000E+00        -0.58297E+08
 
   -0.46442E+08        -0.22648E+07         0.00000E+00
   -0.22648E+07        -0.59144E+08         0.00000E+00
    0.00000E+00         0.00000E+00        -0.58507E+08
 
   -0.48104E+08        -0.24571E+07         0.00000E+00
   -0.24571E+07        -0.58782E+08         0.00000E+00
    0.00000E+00         0.00000E+00        -0.58793E+08
 
   -0.49784E+08        -0.23645E+07         0.00000E+00
   -0.23645E+07        -0.58546E+08         0.00000E+00
    0.00000E+00         0.00000E+00        -0.59117E+08
 
   -0.51375E+08        -0.20994E+07         0.00000E+00
   -0.20994E+07        -0.58423E+08         0.00000E+00
    0.00000E+00         0.00000E+00        -0.59451E+08
 
   -0.52857E+08        -0.17369E+07         0.00000E+00
   -0.17369E+07        -0.58368E+08         0.00000E+00
    0.00000E+00         0.00000E+00        -0.59778E+08
 
   -0.54246E+08        -0.13126E+07         0.00000E+00
   -0.13126E+07        -0.58334E+08         0.00000E+00
    0.00000E+00         0.00000E+00        -0.60091E+08
 
   -0.55570E+08        -0.83372E+06         0.00000E+00
   -0.83372E+06        -0.58280E+08         0.00000E+00
    0.00000E+00         0.00000E+00        -0.60384E+08
 
   -0.56853E+08        -0.28666E+06         0.00000E+00
   -0.28666E+06        -0.58173E+08         0.00000E+00
    0.00000E+00         0.00000E+00        -0.60656E+08
 
   -0.58108E+08         0.36291E+06         0.00000E+00
    0.36291E+06        -0.57987E+08         0.00000E+00
    0.00000E+00         0.00000E+00        -0.60902E+08
 
   -0.59322E+08         0.11742E+07         0.00000E+00
    0.11742E+07        -0.57711E+08         0.00000E+00
    0.00000E+00         0.00000E+00        -0.61116E+08
 
   -0.60423E+08         0.22320E+07         0.00000E+00
    0.22320E+07        -0.57367E+08         0.00000E+00
    0.00000E+00         0.00000E+00        -0.61287E+08
 
   -0.61240E+08         0.36240E+07         0.00000E+00
    0.36240E+07        -0.57040E+08         0.00000E+00
    0.00000E+00         0.00000E+00        -0.61397E+08
 
   -0.61479E+08         0.53745E+07         0.00000E+00
    0.53745E+07        -0.56910E+08         0.00000E+00
    0.00000E+00         0.00000E+00        -0.61421E+08
 
   -0.45349E+08        -0.45047E+06         0.00000E+00
   -0.45047E+06        -0.59923E+08         0.00000E+00
    0.00000E+00         0.00000E+00        -0.57262E+08
 
   -0.45804E+08        -0.12653E+07         0.00000E+00
   -0.12653E+07        -0.59647E+08         0.00000E+00
    0.00000E+00         0.00000E+00        -0.57292E+08
 
   -0.46844E+08        -0.18294E+07         0.00000E+00
   -0.18294E+07        -0.59239E+08         0.00000E+00
    0.00000E+00         0.00000E+00        -0.57418E+08
 
   -0.48191E+08        -0.20993E+07         0.00000E+00
   -0.20993E+07        -0.58826E+08         0.00000E+00
    0.00000E+00         0.00000E+00        -0.57613E+08
 
   -0.49644E+08        -0.21138E+07         0.00000E+00
   -0.21138E+07        -0.58479E+08         0.00000E+00
    0.00000E+00         0.00000E+00        -0.57852E+08
 
   -0.51089E+08        -0.19371E+07         0.00000E+00
   -0.19371E+07        -0.58213E+08         0.00000E+00
    0.00000E+00         0.00000E+00        -0.58112E+08
 
   -0.52475E+08        -0.16243E+07         0.00000E+00
   -0.16243E+07        -0.58013E+08         0.00000E+00
    0.00000E+00         0.00000E+00        -0.58377E+08
 
   -0.53790E+08        -0.12097E+07         0.00000E+00
   -0.12097E+07        -0.57847E+08         0.00000E+00
    0.00000E+00         0.00000E+00        -0.58636E+08
 
   -0.55039E+08        -0.70602E+06         0.00000E+00
   -0.70602E+06        -0.57682E+08         0.00000E+00
    0.00000E+00         0.00000E+00        -0.58882E+08
 
   -0.56228E+08        -0.10717E+06         0.00000E+00
   -0.10717E+06        -0.57492E+08         0.00000E+00
    0.00000E+00         0.00000E+00        -0.59108E+08
 
   -0.57352E+08         0.60944E+06         0.00000E+00
    0.60944E+06        -0.57259E+08         0.00000E+00
    0.00000E+00         0.00000E+00        -0.59308E+08
 
   -0.58376E+08         0.14804E+07         0.00000E+00
    0.14804E+07        -0.56985E+08         0.00000E+00
    0.00000E+00         0.00000E+00        -0.59475E+08
 
   -0.59225E+08         0.25468E+07         0.00000E+00
    0.25468E+07        -0.56701E+08         0.00000E+00
    0.00000E+00         0.00000E+00        -0.59598E+08
 
   -0.59760E+08         0.38307E+07         0.00000E+00
    0.38307E+07        -0.56484E+08         0.00000E+00
    0.00000E+00         0.00000E+00        -0.59665E+08
 
   -0.59785E+08         0.52919E+07         0.00000E+00
    0.52919E+07        -0.56457E+08         0.00000E+00
    0.00000E+00         0.00000E+00        -0.59663E+08
 
   -0.46098E+08        -0.30690E+06         0.00000E+00
   -0.30690E+06        -0.59943E+08         0.00000E+00
    0.00000E+00         0.00000E+00        -0.56504E+08
 
   -0.46441E+08        -0.92347E+06         0.00000E+00
   -0.92347E+06        -0.59725E+08         0.00000E+00
    0.00000E+00         0.00000E+00        -0.56517E+08
 
   -0.47250E+08        -0.14135E+07         0.00000E+00
   -0.14135E+07        -0.59373E+08         0.00000E+00
    0.00000E+00         0.00000E+00        -0.56596E+08
 
   -0.48349E+08        -0.17005E+07         0.00000E+00
   -0.17005E+07        -0.58979E+08         0.00000E+00
    0.00000E+00         0.00000E+00        -0.56731E+08
 
   -0.49590E+08        -0.17760E+07         0.00000E+00
   -0.17760E+07        -0.58604E+08         0.00000E+00
    0.00000E+00         0.00000E+00        -0.56906E+08
 
   -0.50869E+08        -0.16650E+07         0.00000E+00
   -0.16650E+07        -0.58277E+08         0.00000E+00
    0.00000E+00         0.00000E+00        -0.57104E+08
 
   -0.52126E+08        -0.14001E+07         0.00000E+00
   -0.14001E+07        -0.57998E+08         0.00000E+00
    0.00000E+00         0.00000E+00        -0.57313E+08
 
   -0.53334E+08        -0.10069E+07         0.00000E+00
   -0.10069E+07        -0.57752E+08         0.00000E+00
    0.00000E+00         0.00000E+00        -0.57522E+08
 
   -0.54482E+08        -0.49876E+06         0.00000E+00
   -0.49876E+06        -0.57518E+08         0.00000E+00
    0.00000E+00         0.00000E+00        -0.57721E+08
 
   -0.55559E+08         0.12360E+06         0.00000E+00
    0.12360E+06        -0.57280E+08         0.00000E+00
    0.00000E+00         0.00000E+00        -0.57903E+08
 
   -0.56550E+08         0.86966E+06         0.00000E+00
    0.86966E+06        -0.57027E+08         0.00000E+00
    0.00000E+00         0.00000E+00        -0.58063E+08
 
   -0.57414E+08         0.17539E+07         0.00000E+00
    0.17539E+07        -0.56768E+08         0.00000E+00
    0.00000E+00         0.00000E+00        -0.58191E+08
 
   -0.58086E+08         0.27851E+07         0.00000E+00
    0.27851E+07        -0.56533E+08         0.00000E+00
    0.00000E+00         0.00000E+00        -0.58280E+08
 
   -0.58465E+08         0.39473E+07         0.00000E+00
    0.39473E+07        -0.56379E+08         0.00000E+00
    0.00000E+00         0.00000E+00        -0.58321E+08
 
   -0.58429E+08         0.51750E+07         0.00000E+00
    0.51750E+07        -0.56387E+08         0.00000E+00
    0.00000E+00         0.00000E+00        -0.58310E+08
 
   -0.46619E+08        -0.20088E+06         0.00000E+00
   -0.20088E+06        -0.59959E+08         0.00000E+00
    0.00000E+00         0.00000E+00        -0.55857E+08
 
   -0.46946E+08        -0.65194E+06         0.00000E+00
   -0.65194E+06        -0.59794E+08         0.00000E+00
    0.00000E+00         0.00000E+00        -0.55872E+08
 
   -0.47618E+08        -0.10543E+07         0.00000E+00
   -0.10543E+07        -0.59511E+08         0.00000E+00
    0.00000E+00         0.00000E+00        -0.55929E+08
 
   -0.48533E+08        -0.13222E+07         0.00000E+00
   -0.13222E+07        -0.59169E+08         0.00000E+00
    0.00000E+00         0.00000E+00        -0.56026E+08
 
   -0.49587E+08        -0.14213E+07         0.00000E+00
   -0.14213E+07        -0.58818E+08         0.00000E+00
    0.00000E+00         0.00000E+00        -0.56154E+08
 
   -0.50697E+08        -0.13500E+07         0.00000E+00
   -0.13500E+07        -0.58487E+08         0.00000E+00
    0.00000E+00         0.00000E+00        -0.56305E+08
 
   -0.51810E+08        -0.11214E+07         0.00000E+00
   -0.11214E+07        -0.58185E+08         0.00000E+00
    0.00000E+00         0.00000E+00        -0.56466E+08
 
   -0.52890E+08        -0.75102E+06         0.00000E+00
   -0.75102E+06        -0.57908E+08         0.00000E+00
    0.00000E+00         0.00000E+00        -0.56630E+08
 
   -0.53917E+08        -0.25015E+06         0.00000E+00
   -0.25015E+06        -0.57647E+08         0.00000E+00
    0.00000E+00         0.00000E+00        -0.56787E+08
 
   -0.54874E+08         0.37557E+06         0.00000E+00
    0.37557E+06        -0.57393E+08         0.00000E+00
    0.00000E+00         0.00000E+00        -0.56931E+08
 
   -0.55737E+08         0.11246E+07         0.00000E+00
    0.11246E+07        -0.57143E+08         0.00000E+00
    0.00000E+00         0.00000E+00        -0.57055E+08
 
   -0.56472E+08         0.19946E+07         0.00000E+00
    0.19946E+07        -0.56906E+08         0.00000E+00
    0.00000E+00         0.00000E+00        -0.57153E+08
 
   -0.57025E+08         0.29728E+07         0.00000E+00
    0.29728E+07        -0.56707E+08         0.00000E+00
    0.00000E+00         0.00000E+00        -0.57219E+08
 
   -0.57330E+08         0.40239E+07         0.00000E+00
    0.40239E+07        -0.56586E+08         0.00000E+00
    0.00000E+00         0.00000E+00        -0.57247E+08
 
   -0.57318E+08         0.50759E+07         0.00000E+00
    0.50759E+07        -0.56590E+08         0.00000E+00
    0.00000E+00         0.00000E+00        -0.57238E+08
 
   -0.46970E+08        -0.12535E+06         0.00000E+00
   -0.12535E+06        -0.59972E+08         0.00000E+00
    0.00000E+00         0.00000E+00        -0.55263E+08
 
   -0.47333E+08        -0.44703E+06         0.00000E+00
   -0.44703E+06        -0.59853E+08         0.00000E+00
    0.00000E+00         0.00000E+00        -0.55292E+08
 
   -0.47931E+08        -0.76560E+06         0.00000E+00
   -0.76560E+06        -0.59639E+08         0.00000E+00
    0.00000E+00         0.00000E+00        -0.55342E+08
 
   -0.48711E+08        -0.99700E+06         0.00000E+00
   -0.99700E+06        -0.59366E+08         0.00000E+00
    0.00000E+00         0.00000E+00        -0.55416E+08
 
   -0.49605E+08        -0.10950E+07         0.00000E+00
   -0.10950E+07        -0.59069E+08         0.00000E+00
    0.00000E+00         0.00000E+00        -0.55513E+08
 
   -0.50557E+08        -0.10415E+07         0.00000E+00
   -0.10415E+07        -0.58772E+08         0.00000E+00
    0.00000E+00         0.00000E+00        -0.55627E+08
 
   -0.51519E+08        -0.83554E+06         0.00000E+00
   -0.83554E+06        -0.58488E+08         0.00000E+00
    0.00000E+00         0.00000E+00        -0.55750E+08
 
   -0.52461E+08        -0.48368E+06         0.00000E+00
   -0.48368E+06        -0.58220E+08         0.00000E+00
    0.00000E+00         0.00000E+00        -0.55876E+08
 
   -0.53358E+08         0.54418E+04         0.00000E+00
    0.54418E+04        -0.57965E+08         0.00000E+00
    0.00000E+00         0.00000E+00        -0.55997E+08
 
   -0.54190E+08         0.62341E+06         0.00000E+00
    0.62341E+06        -0.57722E+08         0.00000E+00
    0.00000E+00         0.00000E+00        -0.56108E+08
 
   -0.54935E+08         0.13610E+07         0.00000E+00
    0.13610E+07        -0.57491E+08         0.00000E+00
    0.00000E+00         0.00000E+00        -0.56204E+08
 
   -0.55564E+08         0.22045E+07         0.00000E+00
    0.22045E+07        -0.57281E+08         0.00000E+00
    0.00000E+00         0.00000E+00        -0.56278E+08
 
   -0.56040E+08         0.31290E+07         0.00000E+00
    0.31290E+07        -0.57110E+08         0.00000E+00
    0.00000E+00         0.00000E+00        -0.56328E+08
 
   -0.56322E+08         0.40907E+07         0.00000E+00
    0.40907E+07        -0.57002E+08         0.00000E+00
    0.00000E+00         0.00000E+00        -0.56351E+08
 
   -0.56376E+08         0.50196E+07         0.00000E+00
    0.50196E+07        -0.56983E+08         0.00000E+00
    0.00000E+00         0.00000E+00        -0.56349E+08
 
   -0.47198E+08        -0.74840E+05         0.00000E+00
   -0.74840E+05        -0.59983E+08         0.00000E+00
    0.00000E+00         0.00000E+00        -0.54684E+08
 
   -0.47623E+08        -0.30235E+06         0.00000E+00
   -0.30235E+06        -0.59904E+08         0.00000E+00
    0.00000E+00         0.00000E+00        -0.54732E+08
 
   -0.48186E+08        -0.55039E+06         0.00000E+00
   -0.55039E+06        -0.59755E+08         0.00000E+00
    0.00000E+00         0.00000E+00        -0.54784E+08
 
   -0.48866E+08        -0.74104E+06         0.00000E+00
   -0.74104E+06        -0.59556E+08         0.00000E+00
    0.00000E+00         0.00000E+00        -0.54847E+08
 
   -0.49626E+08        -0.82417E+06         0.00000E+00
   -0.82417E+06        -0.59328E+08         0.00000E+00
    0.00000E+00         0.00000E+00        -0.54922E+08
 
   -0.50431E+08        -0.77299E+06         0.00000E+00
   -0.77299E+06        -0.59089E+08         0.00000E+00
    0.00000E+00         0.00000E+00        -0.55008E+08
 
   -0.51246E+08        -0.57736E+06         0.00000E+00
   -0.57736E+06        -0.58851E+08         0.00000E+00
    0.00000E+00         0.00000E+00        -0.55101E+08
 
   -0.52045E+08        -0.23745E+06         0.00000E+00
   -0.23745E+06        -0.58620E+08         0.00000E+00
    0.00000E+00         0.00000E+00        -0.55196E+08
 
   -0.52808E+08         0.24079E+06         0.00000E+00
    0.24079E+06        -0.58398E+08         0.00000E+00
    0.00000E+00         0.00000E+00        -0.55288E+08
 
   -0.53517E+08         0.84766E+06         0.00000E+00
    0.84766E+06        -0.58185E+08         0.00000E+00
    0.00000E+00         0.00000E+00        -0.55372E+08
 
   -0.54153E+08         0.15694E+07         0.00000E+00
    0.15694E+07        -0.57986E+08         0.00000E+00
    0.00000E+00         0.00000E+00        -0.55444E+08
 
   -0.54693E+08         0.23857E+07         0.00000E+00
    0.23857E+07        -0.57806E+08         0.00000E+00
    0.00000E+00         0.00000E+00        -0.55501E+08
 
   -0.55117E+08         0.32659E+07         0.00000E+00
    0.32659E+07        -0.57657E+08         0.00000E+00
    0.00000E+00         0.00000E+00        -0.55540E+08
 
   -0.55402E+08         0.41639E+07         0.00000E+00
    0.41639E+07        -0.57552E+08         0.00000E+00
    0.00000E+00         0.00000E+00        -0.55562E+08
 
   -0.55539E+08         0.50157E+07         0.00000E+00
    0.50157E+07        -0.57501E+08         0.00000E+00
    0.00000E+00         0.00000E+00        -0.55569E+08
 
   -0.47346E+08        -0.45435E+05         0.00000E+00
   -0.45435E+05        -0.59992E+08         0.00000E+00
    0.00000E+00         0.00000E+00        -0.54094E+08
 
   -0.47843E+08        -0.21160E+06         0.00000E+00
   -0.21160E+06        -0.59949E+08         0.00000E+00
    0.00000E+00         0.00000E+00        -0.54162E+08
 
   -0.48391E+08        -0.40679E+06         0.00000E+00
   -0.40679E+06        -0.59861E+08         0.00000E+00
    0.00000E+00         0.00000E+00        -0.54221E+08
 
   -0.48993E+08        -0.56058E+06         0.00000E+00
   -0.56058E+06        -0.59735E+08         0.00000E+00
    0.00000E+00         0.00000E+00        -0.54278E+08
 
   -0.49638E+08        -0.62346E+06         0.00000E+00
   -0.62346E+06        -0.59582E+08         0.00000E+00
    0.00000E+00         0.00000E+00        -0.54339E+08
 
   -0.50307E+08        -0.56507E+06         0.00000E+00
   -0.56507E+06        -0.59414E+08         0.00000E+00
    0.00000E+00         0.00000E+00        -0.54405E+08
 
   -0.50979E+08        -0.37029E+06         0.00000E+00
   -0.37029E+06        -0.59239E+08         0.00000E+00
    0.00000E+00         0.00000E+00        -0.54474E+08
 
   -0.51638E+08        -0.35162E+05         0.00000E+00
   -0.35162E+05        -0.59064E+08         0.00000E+00
    0.00000E+00         0.00000E+00        -0.54544E+08
 
   -0.52268E+08         0.43642E+06         0.00000E+00
    0.43642E+06        -0.58891E+08         0.00000E+00
    0.00000E+00         0.00000E+00        -0.54611E+08
 
   -0.52856E+08         0.10345E+07         0.00000E+00
    0.10345E+07        -0.58723E+08         0.00000E+00
    0.00000E+00         0.00000E+00        -0.54673E+08
 
   -0.53389E+08         0.17431E+07         0.00000E+00
    0.17431E+07        -0.58564E+08         0.00000E+00
    0.00000E+00         0.00000E+00        -0.54726E+08
 
   -0.53853E+08         0.25390E+07         0.00000E+00
    0.25390E+07        -0.58417E+08         0.00000E+00
    0.00000E+00         0.00000E+00        -0.54769E+08
 
   -0.54238E+08         0.33896E+07         0.00000E+00
    0.33896E+07        -0.58288E+08         0.00000E+00
    0.00000E+00         0.00000E+00        -0.54802E+08
 
   -0.54538E+08         0.42506E+07         0.00000E+00
    0.42506E+07        -0.58181E+08         0.00000E+00
    0.00000E+00         0.00000E+00        -0.54824E+08
 
   -0.54758E+08         0.50648E+07         0.00000E+00
    0.50648E+07        -0.58098E+08         0.00000E+00
    0.00000E+00         0.00000E+00        -0.54841E+08
 
   -0.47452E+08        -0.34342E+05         0.00000E+00
   -0.34342E+05        -0.60000E+08         0.00000E+00
    0.00000E+00         0.00000E+00        -0.53473E+08
 
   -0.48016E+08        -0.16936E+06         0.00000E+00
   -0.16936E+06        -0.59989E+08         0.00000E+00
    0.00000E+00         0.00000E+00        -0.53561E+08
 
   -0.48557E+08        -0.33098E+06         0.00000E+00
   -0.33098E+06        -0.59957E+08         0.00000E+00
    0.00000E+00         0.00000E+00        -0.53628E+08
 
   -0.49095E+08        -0.45643E+06         0.00000E+00
   -0.45643E+06        -0.59902E+08         0.00000E+00
    0.00000E+00         0.00000E+00        -0.53684E+08
 
   -0.49636E+08        -0.49929E+06         0.00000E+00
   -0.49929E+06        -0.59826E+08         0.00000E+00
    0.00000E+00         0.00000E+00        -0.53735E+08
 
   -0.50177E+08        -0.42890E+06         0.00000E+00
   -0.42890E+06        -0.59734E+08         0.00000E+00
    0.00000E+00         0.00000E+00        -0.53785E+08
 
   -0.50713E+08        -0.22820E+06         0.00000E+00
   -0.22820E+06        -0.59631E+08         0.00000E+00
    0.00000E+00         0.00000E+00        -0.53835E+08
 
   -0.51234E+08         0.10890E+06         0.00000E+00
    0.10890E+06        -0.59521E+08         0.00000E+00
    0.00000E+00         0.00000E+00        -0.53884E+08
 
   -0.51733E+08         0.57986E+06         0.00000E+00
    0.57986E+06        -0.59408E+08         0.00000E+00
    0.00000E+00         0.00000E+00        -0.53930E+08
 
   -0.52203E+08         0.11750E+07         0.00000E+00
    0.11750E+07        -0.59293E+08         0.00000E+00
    0.00000E+00         0.00000E+00        -0.53973E+08
 
   -0.52637E+08         0.18777E+07         0.00000E+00
    0.18777E+07        -0.59179E+08         0.00000E+00
    0.00000E+00         0.00000E+00        -0.54011E+08
 
   -0.53031E+08         0.26643E+07         0.00000E+00
    0.26643E+07        -0.59066E+08         0.00000E+00
    0.00000E+00         0.00000E+00        -0.54043E+08
 
   -0.53383E+08         0.35027E+07         0.00000E+00
    0.35027E+07        -0.58957E+08         0.00000E+00
    0.00000E+00         0.00000E+00        -0.54071E+08
 
   -0.53698E+08         0.43518E+07         0.00000E+00
    0.43518E+07        -0.58849E+08         0.00000E+00
    0.00000E+00         0.00000E+00        -0.54095E+08
 
   -0.53991E+08         0.51618E+07         0.00000E+00
    0.51618E+07        -0.58737E+08         0.00000E+00
    0.00000E+00         0.00000E+00        -0.54121E+08
 
   -0.47547E+08        -0.39523E+05         0.00000E+00
   -0.39523E+05        -0.60007E+08         0.00000E+00
    0.00000E+00         0.00000E+00        -0.52808E+08
 
   -0.48168E+08        -0.17099E+06         0.00000E+00
   -0.17099E+06        -0.60024E+08         0.00000E+00
    0.00000E+00         0.00000E+00        -0.52914E+08
 
   -0.48699E+08        -0.31837E+06         0.00000E+00
   -0.31837E+06        -0.60044E+08         0.00000E+00
    0.00000E+00         0.00000E+00        -0.52988E+08
 
   -0.49175E+08        -0.42629E+06         0.00000E+00
   -0.42629E+06        -0.60056E+08         0.00000E+00
    0.00000E+00         0.00000E+00        -0.53043E+08
 
   -0.49617E+08        -0.45271E+06         0.00000E+00
   -0.45271E+06        -0.60054E+08         0.00000E+00
    0.00000E+00         0.00000E+00        -0.53087E+08
 
   -0.50037E+08        -0.36880E+06         0.00000E+00
   -0.36880E+06        -0.60039E+08         0.00000E+00
    0.00000E+00         0.00000E+00        -0.53124E+08
 
   -0.50440E+08        -0.15768E+06         0.00000E+00
   -0.15768E+06        -0.60011E+08         0.00000E+00
    0.00000E+00         0.00000E+00        -0.53158E+08
 
   -0.50826E+08         0.18733E+06         0.00000E+00
    0.18733E+06        -0.59971E+08         0.00000E+00
    0.00000E+00         0.00000E+00        -0.53189E+08
 
   -0.51196E+08         0.66436E+06         0.00000E+00
    0.66436E+06        -0.59922E+08         0.00000E+00
    0.00000E+00         0.00000E+00        -0.53217E+08
 
   -0.51549E+08         0.12642E+07         0.00000E+00
    0.12642E+07        -0.59864E+08         0.00000E+00
    0.00000E+00         0.00000E+00        -0.53244E+08
 
   -0.51887E+08         0.19706E+07         0.00000E+00
    0.19706E+07        -0.59796E+08         0.00000E+00
    0.00000E+00         0.00000E+00        -0.53268E+08
 
   -0.52212E+08         0.27608E+07         0.00000E+00
    0.27608E+07        -0.59720E+08         0.00000E+00
    0.00000E+00         0.00000E+00        -0.53291E+08
 
   -0.52530E+08         0.36047E+07         0.00000E+00
    0.36047E+07        -0.59631E+08         0.00000E+00
    0.00000E+00         0.00000E+00        -0.53314E+08
 
   -0.52854E+08         0.44653E+07         0.00000E+00
    0.44653E+07        -0.59525E+08         0.00000E+00
    0.00000E+00         0.00000E+00        -0.53340E+08
 
   -0.53205E+08         0.52992E+07         0.00000E+00
    0.52992E+07        -0.59389E+08         0.00000E+00
    0.00000E+00         0.00000E+00        -0.53373E+08
 
   -0.47662E+08        -0.59393E+05         0.00000E+00
   -0.59393E+05        -0.60013E+08         0.00000E+00
    0.00000E+00         0.00000E+00        -0.52091E+08
 
   -0.48320E+08        -0.21244E+06         0.00000E+00
   -0.21244E+06        -0.60057E+08         0.00000E+00
    0.00000E+00         0.00000E+00        -0.52210E+08
 
   -0.48831E+08        -0.36400E+06         0.00000E+00
   -0.36400E+06        -0.60124E+08         0.00000E+00
    0.00000E+00         0.00000E+00        -0.52289E+08
 
   -0.49242E+08        -0.46587E+06         0.00000E+00
   -0.46587E+06        -0.60197E+08         0.00000E+00
    0.00000E+00         0.00000E+00        -0.52342E+08
 
   -0.49585E+08        -0.48115E+06         0.00000E+00
   -0.48115E+06        -0.60265E+08         0.00000E+00
    0.00000E+00         0.00000E+00        -0.52378E+08
 
   -0.49885E+08        -0.38424E+06         0.00000E+00
   -0.38424E+06        -0.60323E+08         0.00000E+00
    0.00000E+00         0.00000E+00        -0.52404E+08
 
   -0.50155E+08        -0.15988E+06         0.00000E+00
   -0.15988E+06        -0.60368E+08         0.00000E+00
    0.00000E+00         0.00000E+00        -0.52422E+08
 
   -0.50408E+08         0.19804E+06         0.00000E+00
    0.19804E+06        -0.60398E+08         0.00000E+00
    0.00000E+00         0.00000E+00        -0.52437E+08
 
   -0.50650E+08         0.68771E+06         0.00000E+00
    0.68771E+06        -0.60413E+08         0.00000E+00
    0.00000E+00         0.00000E+00        -0.52450E+08
 
   -0.50888E+08         0.13003E+07         0.00000E+00
    0.13003E+07        -0.60412E+08         0.00000E+00
    0.00000E+00         0.00000E+00        -0.52461E+08
 
   -0.51128E+08         0.20208E+07         0.00000E+00
    0.20208E+07        -0.60392E+08         0.00000E+00
    0.00000E+00         0.00000E+00        -0.52473E+08
 
   -0.51382E+08         0.28277E+07         0.00000E+00
    0.28277E+07        -0.60352E+08         0.00000E+00
    0.00000E+00         0.00000E+00        -0.52487E+08
 
   -0.51660E+08         0.36939E+07         0.00000E+00
    0.36939E+07        -0.60286E+08         0.00000E+00
    0.00000E+00         0.00000E+00        -0.52505E+08
 
   -0.51982E+08         0.45864E+07         0.00000E+00
    0.45864E+07        -0.60184E+08         0.00000E+00
    0.00000E+00         0.00000E+00        -0.52531E+08
 
   -0.52374E+08         0.54680E+07         0.00000E+00
    0.54680E+07        -0.60032E+08         0.00000E+00
    0.00000E+00         0.00000E+00        -0.52569E+08
 
   -0.47823E+08        -0.92585E+05         0.00000E+00
   -0.92585E+05        -0.60019E+08         0.00000E+00
    0.00000E+00         0.00000E+00        -0.51313E+08
 
   -0.48495E+08        -0.28991E+06         0.00000E+00
   -0.28991E+06        -0.60086E+08         0.00000E+00
    0.00000E+00         0.00000E+00        -0.51440E+08
 
   -0.48969E+08        -0.46260E+06         0.00000E+00
   -0.46260E+06        -0.60195E+08         0.00000E+00
    0.00000E+00         0.00000E+00        -0.51521E+08
 
   -0.49303E+08        -0.56953E+06         0.00000E+00
   -0.56953E+06        -0.60324E+08         0.00000E+00
    0.00000E+00         0.00000E+00        -0.51570E+08
 
   -0.49542E+08        -0.57955E+06         0.00000E+00
   -0.57955E+06        -0.60456E+08         0.00000E+00
    0.00000E+00         0.00000E+00        -0.51597E+08
 
   -0.49719E+08        -0.47121E+06         0.00000E+00
   -0.47121E+06        -0.60582E+08         0.00000E+00
    0.00000E+00         0.00000E+00        -0.51610E+08
 
   -0.49856E+08        -0.23193E+06         0.00000E+00
   -0.23193E+06        -0.60695E+08         0.00000E+00
    0.00000E+00         0.00000E+00        -0.51613E+08
 
   -0.49975E+08         0.14294E+06         0.00000E+00
    0.14294E+06        -0.60791E+08         0.00000E+00
    0.00000E+00         0.00000E+00        -0.51612E+08
 
   -0.50087E+08         0.65115E+06         0.00000E+00
    0.65115E+06        -0.60867E+08         0.00000E+00
    0.00000E+00         0.00000E+00        -0.51608E+08
 
   -0.50208E+08         0.12843E+07         0.00000E+00
    0.12843E+07        -0.60920E+08         0.00000E+00
    0.00000E+00         0.00000E+00        -0.51605E+08
 
   -0.50349E+08         0.20284E+07         0.00000E+00
    0.20284E+07        -0.60947E+08         0.00000E+00
    0.00000E+00         0.00000E+00        -0.51605E+08
 
   -0.50525E+08         0.28643E+07         0.00000E+00
    0.28643E+07        -0.60943E+08         0.00000E+00
    0.00000E+00         0.00000E+00        -0.51610E+08
 
   -0.50755E+08         0.37677E+07         0.00000E+00
    0.37677E+07        -0.60901E+08         0.00000E+00
    0.00000E+00         0.00000E+00        -0.51622E+08
 
   -0.51062E+08         0.47098E+07         0.00000E+00
    0.47098E+07        -0.60807E+08         0.00000E+00
    0.00000E+00         0.00000E+00        -0.51646E+08
 
   -0.51474E+08         0.56584E+07         0.00000E+00
    0.56584E+07        -0.60648E+08         0.00000E+00
    0.00000E+00         0.00000E+00        -0.51687E+08
 
   -0.48055E+08        -0.13780E+06         0.00000E+00
   -0.13780E+06        -0.60024E+08         0.00000E+00
    0.00000E+00         0.00000E+00        -0.50471E+08
 
   -0.48710E+08        -0.39962E+06         0.00000E+00
   -0.39962E+06        -0.60112E+08         0.00000E+00
    0.00000E+00         0.00000E+00        -0.50599E+08
 
   -0.49126E+08        -0.60846E+06         0.00000E+00
   -0.60846E+06        -0.60259E+08         0.00000E+00
    0.00000E+00         0.00000E+00        -0.50676E+08
 
   -0.49369E+08        -0.73050E+06         0.00000E+00
   -0.73050E+06        -0.60437E+08         0.00000E+00
    0.00000E+00         0.00000E+00        -0.50717E+08
 
   -0.49493E+08        -0.74087E+06         0.00000E+00
   -0.74087E+06        -0.60625E+08         0.00000E+00
    0.00000E+00         0.00000E+00        -0.50733E+08
 
   -0.49539E+08        -0.62302E+06         0.00000E+00
   -0.62302E+06        -0.60811E+08         0.00000E+00
    0.00000E+00         0.00000E+00        -0.50731E+08
 
   -0.49541E+08        -0.36790E+06         0.00000E+00
   -0.36790E+06        -0.60984E+08         0.00000E+00
    0.00000E+00         0.00000E+00        -0.50718E+08
 
   -0.49522E+08         0.27037E+05         0.00000E+00
    0.27037E+05        -0.61138E+08         0.00000E+00
    0.00000E+00         0.00000E+00        -0.50700E+08
 
   -0.49503E+08         0.55865E+06         0.00000E+00
    0.55865E+06        -0.61269E+08         0.00000E+00
    0.00000E+00         0.00000E+00        -0.50680E+08
 
   -0.49503E+08         0.12188E+07         0.00000E+00
    0.12188E+07        -0.61373E+08         0.00000E+00
    0.00000E+00         0.00000E+00        -0.50661E+08
 
   -0.49539E+08         0.19949E+07         0.00000E+00
    0.19949E+07        -0.61444E+08         0.00000E+00
    0.00000E+00         0.00000E+00        -0.50647E+08
 
   -0.49631E+08         0.28700E+07         0.00000E+00
    0.28700E+07        -0.61476E+08         0.00000E+00
    0.00000E+00         0.00000E+00        -0.50642E+08
 
   -0.49801E+08         0.38231E+07         0.00000E+00
    0.38231E+07        -0.61459E+08         0.00000E+00
    0.00000E+00         0.00000E+00        -0.50647E+08
 
   -0.50076E+08         0.48293E+07         0.00000E+00
    0.48293E+07        -0.61379E+08         0.00000E+00
    0.00000E+00         0.00000E+00        -0.50668E+08
 
   -0.50489E+08         0.58609E+07         0.00000E+00
    0.58609E+07        -0.61220E+08         0.00000E+00
    0.00000E+00         0.00000E+00        -0.50708E+08
 
   -0.48378E+08        -0.19369E+06         0.00000E+00
   -0.19369E+06        -0.60028E+08         0.00000E+00
    0.00000E+00         0.00000E+00        -0.49559E+08
 
   -0.48982E+08        -0.53758E+06         0.00000E+00
   -0.53758E+06        -0.60135E+08         0.00000E+00
    0.00000E+00         0.00000E+00        -0.49681E+08
 
   -0.49312E+08        -0.79535E+06         0.00000E+00
   -0.79535E+06        -0.60314E+08         0.00000E+00
    0.00000E+00         0.00000E+00        -0.49749E+08
 
   -0.49444E+08        -0.94094E+06         0.00000E+00
   -0.94094E+06        -0.60533E+08         0.00000E+00
    0.00000E+00         0.00000E+00        -0.49777E+08
 
   -0.49439E+08        -0.95638E+06         0.00000E+00
   -0.95638E+06        -0.60769E+08         0.00000E+00
    0.00000E+00         0.00000E+00        -0.49777E+08
 
   -0.49347E+08        -0.83078E+06         0.00000E+00
   -0.83078E+06        -0.61004E+08         0.00000E+00
    0.00000E+00         0.00000E+00        -0.49758E+08
 
   -0.49206E+08        -0.55932E+06         0.00000E+00
   -0.55932E+06        -0.61228E+08         0.00000E+00
    0.00000E+00         0.00000E+00        -0.49727E+08
 
   -0.49045E+08        -0.14215E+06         0.00000E+00
   -0.14215E+06        -0.61432E+08         0.00000E+00
    0.00000E+00         0.00000E+00        -0.49689E+08
 
   -0.48891E+08         0.41638E+06         0.00000E+00
    0.41638E+06        -0.61610E+08         0.00000E+00
    0.00000E+00         0.00000E+00        -0.49651E+08
 
   -0.48765E+08         0.11084E+07         0.00000E+00
    0.11084E+07        -0.61758E+08         0.00000E+00
    0.00000E+00         0.00000E+00        -0.49616E+08
 
   -0.48690E+08         0.19226E+07         0.00000E+00
    0.19226E+07        -0.61869E+08         0.00000E+00
    0.00000E+00         0.00000E+00        -0.49588E+08
 
   -0.48688E+08         0.28447E+07         0.00000E+00
    0.28447E+07        -0.61935E+08         0.00000E+00
    0.00000E+00         0.00000E+00        -0.49570E+08
 
   -0.48785E+08         0.38569E+07         0.00000E+00
    0.38569E+07        -0.61945E+08         0.00000E+00
    0.00000E+00         0.00000E+00        -0.49566E+08
 
   -0.49011E+08         0.49386E+07         0.00000E+00
    0.49386E+07        -0.61884E+08         0.00000E+00
    0.00000E+00         0.00000E+00        -0.49581E+08
 
   -0.49402E+08         0.60656E+07         0.00000E+00
    0.60656E+07        -0.61733E+08         0.00000E+00
    0.00000E+00         0.00000E+00        -0.49618E+08
 
   -0.48811E+08        -0.25879E+06         0.00000E+00
   -0.25879E+06        -0.60032E+08         0.00000E+00
    0.00000E+00         0.00000E+00        -0.48577E+08
 
   -0.49325E+08        -0.69944E+06         0.00000E+00
   -0.69944E+06        -0.60154E+08         0.00000E+00
    0.00000E+00         0.00000E+00        -0.48685E+08
 
   -0.49538E+08        -0.10163E+07         0.00000E+00
   -0.10163E+07        -0.60359E+08         0.00000E+00
    0.00000E+00         0.00000E+00        -0.48736E+08
 
   -0.49535E+08        -0.11918E+07         0.00000E+00
   -0.11918E+07        -0.60611E+08         0.00000E+00
    0.00000E+00         0.00000E+00        -0.48745E+08
 
   -0.49385E+08        -0.12157E+07         0.00000E+00
   -0.12157E+07        -0.60883E+08         0.00000E+00
    0.00000E+00         0.00000E+00        -0.48724E+08
 
   -0.49143E+08        -0.10835E+07         0.00000E+00
   -0.10835E+07        -0.61157E+08         0.00000E+00
    0.00000E+00         0.00000E+00        -0.48684E+08
 
   -0.48851E+08        -0.79547E+06         0.00000E+00
   -0.79547E+06        -0.61420E+08         0.00000E+00
    0.00000E+00         0.00000E+00        -0.48631E+08
 
   -0.48544E+08        -0.35486E+06         0.00000E+00
   -0.35486E+06        -0.61662E+08         0.00000E+00
    0.00000E+00         0.00000E+00        -0.48573E+08
 
   -0.48249E+08         0.23246E+06         0.00000E+00
    0.23246E+06        -0.61878E+08         0.00000E+00
    0.00000E+00         0.00000E+00        -0.48514E+08
 
   -0.47992E+08         0.95877E+06         0.00000E+00
    0.95877E+06        -0.62062E+08         0.00000E+00
    0.00000E+00         0.00000E+00        -0.48460E+08
 
   -0.47797E+08         0.18145E+07         0.00000E+00
    0.18145E+07        -0.62208E+08         0.00000E+00
    0.00000E+00         0.00000E+00        -0.48415E+08
 
   -0.47689E+08         0.27883E+07         0.00000E+00
    0.27883E+07        -0.62306E+08         0.00000E+00
    0.00000E+00         0.00000E+00        -0.48382E+08
 
   -0.47698E+08         0.38659E+07         0.00000E+00
    0.38659E+07        -0.62345E+08         0.00000E+00
    0.00000E+00         0.00000E+00        -0.48367E+08
 
   -0.47857E+08         0.50308E+07         0.00000E+00
    0.50308E+07        -0.62307E+08         0.00000E+00
    0.00000E+00         0.00000E+00        -0.48373E+08
 
   -0.48204E+08         0.62627E+07         0.00000E+00
    0.62627E+07        -0.62173E+08         0.00000E+00
    0.00000E+00         0.00000E+00        -0.48406E+08
 
   -0.49371E+08        -0.33150E+06         0.00000E+00
   -0.33150E+06        -0.60035E+08         0.00000E+00
    0.00000E+00         0.00000E+00        -0.47522E+08
 
   -0.49749E+08        -0.88034E+06         0.00000E+00
   -0.88034E+06        -0.60169E+08         0.00000E+00
    0.00000E+00         0.00000E+00        -0.47607E+08
 
   -0.49810E+08        -0.12635E+07         0.00000E+00
   -0.12635E+07        -0.60393E+08         0.00000E+00
    0.00000E+00         0.00000E+00        -0.47633E+08
 
   -0.49646E+08        -0.14727E+07         0.00000E+00
   -0.14727E+07        -0.60668E+08         0.00000E+00
    0.00000E+00         0.00000E+00        -0.47616E+08
 
   -0.49332E+08        -0.15067E+07         0.00000E+00
   -0.15067E+07        -0.60965E+08         0.00000E+00
    0.00000E+00         0.00000E+00        -0.47570E+08
 
   -0.48927E+08        -0.13683E+07         0.00000E+00
   -0.13683E+07        -0.61264E+08         0.00000E+00
    0.00000E+00         0.00000E+00        -0.47503E+08
 
   -0.48476E+08        -0.10634E+07         0.00000E+00
   -0.10634E+07        -0.61551E+08         0.00000E+00
    0.00000E+00         0.00000E+00        -0.47425E+08
 
   -0.48016E+08        -0.59917E+06         0.00000E+00
   -0.59917E+06        -0.61818E+08         0.00000E+00
    0.00000E+00         0.00000E+00        -0.47342E+08
 
   -0.47575E+08         0.16905E+05         0.00000E+00
    0.16905E+05        -0.62059E+08         0.00000E+00
    0.00000E+00         0.00000E+00        -0.47261E+08
 
   -0.47181E+08         0.77742E+06         0.00000E+00
    0.77742E+06        -0.62270E+08         0.00000E+00
    0.00000E+00         0.00000E+00        -0.47185E+08
 
   -0.46857E+08         0.16749E+07         0.00000E+00
    0.16749E+07        -0.62444E+08         0.00000E+00
    0.00000E+00         0.00000E+00        -0.47121E+08
 
   -0.46632E+08         0.27012E+07         0.00000E+00
    0.27012E+07        -0.62572E+08         0.00000E+00
    0.00000E+00         0.00000E+00        -0.47072E+08
 
   -0.46536E+08         0.38466E+07         0.00000E+00
    0.38466E+07        -0.62641E+08         0.00000E+00
    0.00000E+00         0.00000E+00        -0.47042E+08
 
   -0.46607E+08         0.50987E+07         0.00000E+00
    0.50987E+07        -0.62633E+08         0.00000E+00
    0.00000E+00         0.00000E+00        -0.47037E+08
 
   -0.46885E+08         0.64418E+07         0.00000E+00
    0.64418E+07        -0.62524E+08         0.00000E+00
    0.00000E+00         0.00000E+00        -0.47062E+08
 
   -0.50068E+08        -0.41000E+06         0.00000E+00
   -0.41000E+06        -0.60037E+08         0.00000E+00
    0.00000E+00         0.00000E+00        -0.46396E+08
 
   -0.50262E+08        -0.10748E+07         0.00000E+00
   -0.10748E+07        -0.60179E+08         0.00000E+00
    0.00000E+00         0.00000E+00        -0.46446E+08
 
   -0.50133E+08        -0.15279E+07         0.00000E+00
   -0.15279E+07        -0.60414E+08         0.00000E+00
    0.00000E+00         0.00000E+00        -0.46439E+08
 
   -0.49778E+08        -0.17718E+07         0.00000E+00
   -0.17718E+07        -0.60701E+08         0.00000E+00
    0.00000E+00         0.00000E+00        -0.46389E+08
 
   -0.49279E+08        -0.18151E+07         0.00000E+00
   -0.18151E+07        -0.61009E+08         0.00000E+00
    0.00000E+00         0.00000E+00        -0.46310E+08
 
   -0.48698E+08        -0.16696E+07         0.00000E+00
   -0.16696E+07        -0.61317E+08         0.00000E+00
    0.00000E+00         0.00000E+00        -0.46212E+08
 
   -0.48080E+08        -0.13477E+07         0.00000E+00
   -0.13477E+07        -0.61611E+08         0.00000E+00
    0.00000E+00         0.00000E+00        -0.46104E+08
 
   -0.47462E+08        -0.86091E+06         0.00000E+00
   -0.86091E+06        -0.61887E+08         0.00000E+00
    0.00000E+00         0.00000E+00        -0.45993E+08
 
   -0.46872E+08        -0.21838E+06         0.00000E+00
   -0.21838E+06        -0.62139E+08         0.00000E+00
    0.00000E+00         0.00000E+00        -0.45886E+08
 
   -0.46334E+08         0.57302E+06         0.00000E+00
    0.57302E+06        -0.62365E+08         0.00000E+00
    0.00000E+00         0.00000E+00        -0.45787E+08
 
   -0.45872E+08         0.15084E+07         0.00000E+00
    0.15084E+07        -0.62560E+08         0.00000E+00
    0.00000E+00         0.00000E+00        -0.45700E+08
 
   -0.45516E+08         0.25839E+07         0.00000E+00
    0.25839E+07        -0.62716E+08         0.00000E+00
    0.00000E+00         0.00000E+00        -0.45631E+08
 
   -0.45297E+08         0.37949E+07         0.00000E+00
    0.37949E+07        -0.62817E+08         0.00000E+00
    0.00000E+00         0.00000E+00        -0.45585E+08
 
   -0.45257E+08         0.51346E+07         0.00000E+00
    0.51346E+07        -0.62844E+08         0.00000E+00
    0.00000E+00         0.00000E+00        -0.45565E+08
 
   -0.45440E+08         0.65917E+07         0.00000E+00
    0.65917E+07        -0.62772E+08         0.00000E+00
    0.00000E+00         0.00000E+00        -0.45578E+08
 
   -0.50912E+08        -0.49232E+06         0.00000E+00
   -0.49232E+06        -0.60038E+08         0.00000E+00
    0.00000E+00         0.00000E+00        -0.45198E+08
 
   -0.50868E+08        -0.12768E+07         0.00000E+00
   -0.12768E+07        -0.60184E+08         0.00000E+00
    0.00000E+00         0.00000E+00        -0.45203E+08
 
   -0.50505E+08        -0.17993E+07         0.00000E+00
   -0.17993E+07        -0.60422E+08         0.00000E+00
    0.00000E+00         0.00000E+00        -0.45152E+08
 
   -0.49929E+08        -0.20749E+07         0.00000E+00
   -0.20749E+07        -0.60708E+08         0.00000E+00
    0.00000E+00         0.00000E+00        -0.45060E+08
 
   -0.49225E+08        -0.21243E+07         0.00000E+00
   -0.21243E+07        -0.61009E+08         0.00000E+00
    0.00000E+00         0.00000E+00        -0.44942E+08
 
   -0.48456E+08        -0.19694E+07         0.00000E+00
   -0.19694E+07        -0.61307E+08         0.00000E+00
    0.00000E+00         0.00000E+00        -0.44808E+08
 
   -0.47665E+08        -0.16304E+07         0.00000E+00
   -0.16304E+07        -0.61589E+08         0.00000E+00
    0.00000E+00         0.00000E+00        -0.44666E+08
 
   -0.46886E+08        -0.11234E+07         0.00000E+00
   -0.11234E+07        -0.61855E+08         0.00000E+00
    0.00000E+00         0.00000E+00        -0.44523E+08
 
   -0.46143E+08        -0.45945E+06         0.00000E+00
   -0.45945E+06        -0.62102E+08         0.00000E+00
    0.00000E+00         0.00000E+00        -0.44387E+08
 
   -0.45456E+08         0.35576E+06         0.00000E+00
    0.35576E+06        -0.62330E+08         0.00000E+00
    0.00000E+00         0.00000E+00        -0.44260E+08
 
   -0.44849E+08         0.13208E+07         0.00000E+00
    0.13208E+07        -0.62538E+08         0.00000E+00
    0.00000E+00         0.00000E+00        -0.44149E+08
 
   -0.44347E+08         0.24370E+07         0.00000E+00
    0.24370E+07        -0.62717E+08         0.00000E+00
    0.00000E+00         0.00000E+00        -0.44058E+08
 
   -0.43986E+08         0.37066E+07         0.00000E+00
    0.37066E+07        -0.62853E+08         0.00000E+00
    0.00000E+00         0.00000E+00        -0.43990E+08
 
   -0.43808E+08         0.51292E+07         0.00000E+00
    0.51292E+07        -0.62923E+08         0.00000E+00
    0.00000E+00         0.00000E+00        -0.43953E+08
 
   -0.43865E+08         0.66998E+07         0.00000E+00
    0.66998E+07        -0.62899E+08         0.00000E+00
    0.00000E+00         0.00000E+00        -0.43951E+08
 
   -0.51906E+08        -0.57629E+06         0.00000E+00
   -0.57629E+06        -0.60039E+08         0.00000E+00
    0.00000E+00         0.00000E+00        -0.43932E+08
 
   -0.51565E+08        -0.14794E+07         0.00000E+00
   -0.14794E+07        -0.60183E+08         0.00000E+00
    0.00000E+00         0.00000E+00        -0.43879E+08
 
   -0.50923E+08        -0.20657E+07         0.00000E+00
   -0.20657E+07        -0.60413E+08         0.00000E+00
    0.00000E+00         0.00000E+00        -0.43773E+08
 
   -0.50095E+08        -0.23658E+07         0.00000E+00
   -0.23658E+07        -0.60683E+08         0.00000E+00
    0.00000E+00         0.00000E+00        -0.43631E+08
 
   -0.49166E+08        -0.24146E+07         0.00000E+00
   -0.24146E+07        -0.60958E+08         0.00000E+00
    0.00000E+00         0.00000E+00        -0.43466E+08
 
   -0.48198E+08        -0.22465E+07         0.00000E+00
   -0.22465E+07        -0.61223E+08         0.00000E+00
    0.00000E+00         0.00000E+00        -0.43289E+08
 
   -0.47232E+08        -0.18904E+07         0.00000E+00
   -0.18904E+07        -0.61471E+08         0.00000E+00
    0.00000E+00         0.00000E+00        -0.43108E+08
 
   -0.46292E+08        -0.13675E+07         0.00000E+00
   -0.13675E+07        -0.61705E+08         0.00000E+00
    0.00000E+00         0.00000E+00        -0.42931E+08
 
   -0.45396E+08        -0.69026E+06         0.00000E+00
   -0.69026E+06        -0.61927E+08         0.00000E+00
    0.00000E+00         0.00000E+00        -0.42762E+08
 
   -0.44559E+08         0.13733E+06         0.00000E+00
    0.13733E+06        -0.62144E+08         0.00000E+00
    0.00000E+00         0.00000E+00        -0.42605E+08
 
   -0.43798E+08         0.11183E+07         0.00000E+00
    0.11183E+07        -0.62355E+08         0.00000E+00
    0.00000E+00         0.00000E+00        -0.42466E+08
 
   -0.43137E+08         0.22610E+07         0.00000E+00
    0.22610E+07        -0.62554E+08         0.00000E+00
    0.00000E+00         0.00000E+00        -0.42349E+08
 
   -0.42610E+08         0.35759E+07         0.00000E+00
    0.35759E+07        -0.62727E+08         0.00000E+00
    0.00000E+00         0.00000E+00        -0.42258E+08
 
   -0.42264E+08         0.50718E+07         0.00000E+00
    0.50718E+07        -0.62849E+08         0.00000E+00
    0.00000E+00         0.00000E+00        -0.42198E+08
 
   -0.42160E+08         0.67513E+07         0.00000E+00
    0.67513E+07        -0.62886E+08         0.00000E+00
    0.00000E+00         0.00000E+00        -0.42177E+08
 
   -0.53050E+08        -0.65960E+06         0.00000E+00
   -0.65960E+06        -0.60038E+08         0.00000E+00
    0.00000E+00         0.00000E+00        -0.42600E+08
 
   -0.52346E+08        -0.16745E+07         0.00000E+00
   -0.16745E+07        -0.60175E+08         0.00000E+00
    0.00000E+00         0.00000E+00        -0.42475E+08
 
   -0.51377E+08        -0.23130E+07         0.00000E+00
   -0.23130E+07        -0.60386E+08         0.00000E+00
    0.00000E+00         0.00000E+00        -0.42302E+08
 
   -0.50264E+08        -0.26246E+07         0.00000E+00
   -0.26246E+07        -0.60620E+08         0.00000E+00
    0.00000E+00         0.00000E+00        -0.42100E+08
 
   -0.49094E+08        -0.26626E+07         0.00000E+00
   -0.26626E+07        -0.60846E+08         0.00000E+00
    0.00000E+00         0.00000E+00        -0.41881E+08
 
   -0.47924E+08        -0.24761E+07         0.00000E+00
   -0.24761E+07        -0.61052E+08         0.00000E+00
    0.00000E+00         0.00000E+00        -0.41656E+08
 
   -0.46783E+08        -0.21036E+07         0.00000E+00
   -0.21036E+07        -0.61239E+08         0.00000E+00
    0.00000E+00         0.00000E+00        -0.41432E+08
 
   -0.45688E+08        -0.15714E+07         0.00000E+00
   -0.15714E+07        -0.61416E+08         0.00000E+00
    0.00000E+00         0.00000E+00        -0.41216E+08
 
   -0.44644E+08        -0.89273E+06         0.00000E+00
   -0.89273E+06        -0.61594E+08         0.00000E+00
    0.00000E+00         0.00000E+00        -0.41012E+08
 
   -0.43657E+08        -0.69127E+05         0.00000E+00
   -0.69127E+05        -0.61782E+08         0.00000E+00
    0.00000E+00         0.00000E+00        -0.40823E+08
 
   -0.42737E+08         0.90822E+06         0.00000E+00
    0.90822E+06        -0.61985E+08         0.00000E+00
    0.00000E+00         0.00000E+00        -0.40653E+08
 
   -0.41901E+08         0.20562E+07         0.00000E+00
    0.20562E+07        -0.62200E+08         0.00000E+00
    0.00000E+00         0.00000E+00        -0.40506E+08
 
   -0.41185E+08         0.33962E+07         0.00000E+00
    0.33962E+07        -0.62414E+08         0.00000E+00
    0.00000E+00         0.00000E+00        -0.40387E+08
 
   -0.40637E+08         0.49491E+07         0.00000E+00
    0.49491E+07        -0.62600E+08         0.00000E+00
    0.00000E+00         0.00000E+00        -0.40301E+08
 
   -0.40329E+08         0.67285E+07         0.00000E+00
    0.67285E+07        -0.62716E+08         0.00000E+00
    0.00000E+00         0.00000E+00        -0.40256E+08
 
   -0.54338E+08        -0.73979E+06         0.00000E+00
   -0.73979E+06        -0.60036E+08         0.00000E+00
    0.00000E+00         0.00000E+00        -0.41206E+08
 
   -0.53199E+08        -0.18526E+07         0.00000E+00
   -0.18526E+07        -0.60160E+08         0.00000E+00
    0.00000E+00         0.00000E+00        -0.40993E+08
 
   -0.51851E+08        -0.25234E+07         0.00000E+00
   -0.25234E+07        -0.60336E+08         0.00000E+00
    0.00000E+00         0.00000E+00        -0.40741E+08
 
   -0.50423E+08        -0.28270E+07         0.00000E+00
   -0.28270E+07        -0.60511E+08         0.00000E+00
    0.00000E+00         0.00000E+00        -0.40468E+08
 
   -0.49002E+08        -0.28402E+07         0.00000E+00
   -0.28402E+07        -0.60657E+08         0.00000E+00
    0.00000E+00         0.00000E+00        -0.40188E+08
 
   -0.47630E+08        -0.26292E+07         0.00000E+00
   -0.26292E+07        -0.60773E+08         0.00000E+00
    0.00000E+00         0.00000E+00        -0.39909E+08
 
   -0.46325E+08        -0.22428E+07         0.00000E+00
   -0.22428E+07        -0.60870E+08         0.00000E+00
    0.00000E+00         0.00000E+00        -0.39638E+08
 
   -0.45085E+08        -0.17111E+07         0.00000E+00
   -0.17111E+07        -0.60964E+08         0.00000E+00
    0.00000E+00         0.00000E+00        -0.39381E+08
 
   -0.43903E+08        -0.10472E+07         0.00000E+00
   -0.10472E+07        -0.61075E+08         0.00000E+00
    0.00000E+00         0.00000E+00        -0.39139E+08
 
   -0.42772E+08        -0.24918E+06         0.00000E+00
   -0.24918E+06        -0.61216E+08         0.00000E+00
    0.00000E+00         0.00000E+00        -0.38916E+08
 
   -0.41690E+08         0.69842E+06         0.00000E+00
    0.69842E+06        -0.61400E+08         0.00000E+00
    0.00000E+00         0.00000E+00        -0.38713E+08
 
   -0.40667E+08         0.18227E+07         0.00000E+00
    0.18227E+07        -0.61627E+08         0.00000E+00
    0.00000E+00         0.00000E+00        -0.38533E+08
 
   -0.39733E+08         0.31590E+07         0.00000E+00
    0.31590E+07        -0.61887E+08         0.00000E+00
    0.00000E+00         0.00000E+00        -0.38382E+08
 
   -0.38943E+08         0.47446E+07         0.00000E+00
    0.47446E+07        -0.62150E+08         0.00000E+00
    0.00000E+00         0.00000E+00        -0.38265E+08
 
   -0.38377E+08         0.66090E+07         0.00000E+00
    0.66090E+07        -0.62367E+08         0.00000E+00
    0.00000E+00         0.00000E+00        -0.38189E+08
 
   -0.55757E+08        -0.81416E+06         0.00000E+00
   -0.81416E+06        -0.60033E+08         0.00000E+00
    0.00000E+00         0.00000E+00        -0.39755E+08
 
   -0.54100E+08        -0.20017E+07         0.00000E+00
   -0.20017E+07        -0.60135E+08         0.00000E+00
    0.00000E+00         0.00000E+00        -0.39437E+08
 
   -0.52318E+08        -0.26738E+07         0.00000E+00
   -0.26738E+07        -0.60256E+08         0.00000E+00
    0.00000E+00         0.00000E+00        -0.39090E+08
 
   -0.50552E+08        -0.29418E+07         0.00000E+00
   -0.29418E+07        -0.60339E+08         0.00000E+00
    0.00000E+00         0.00000E+00        -0.38736E+08
 
   -0.48877E+08        -0.29133E+07         0.00000E+00
   -0.29133E+07        -0.60370E+08         0.00000E+00
    0.00000E+00         0.00000E+00        -0.38386E+08
 
   -0.47317E+08        -0.26734E+07         0.00000E+00
   -0.26734E+07        -0.60361E+08         0.00000E+00
    0.00000E+00         0.00000E+00        -0.38048E+08
 
   -0.45864E+08        -0.22791E+07         0.00000E+00
   -0.22791E+07        -0.60335E+08         0.00000E+00
    0.00000E+00         0.00000E+00        -0.37729E+08
 
   -0.44498E+08        -0.17621E+07         0.00000E+00
   -0.17621E+07        -0.60321E+08         0.00000E+00
    0.00000E+00         0.00000E+00        -0.37429E+08
 
   -0.43195E+08        -0.11336E+07         0.00000E+00
   -0.11336E+07        -0.60342E+08         0.00000E+00
    0.00000E+00         0.00000E+00        -0.37149E+08
 
   -0.41930E+08        -0.38761E+06         0.00000E+00
   -0.38761E+06        -0.60420E+08         0.00000E+00
    0.00000E+00         0.00000E+00        -0.36890E+08
 
   -0.40688E+08         0.49791E+06         0.00000E+00
    0.49791E+06        -0.60572E+08         0.00000E+00
    0.00000E+00         0.00000E+00        -0.36652E+08
 
   -0.39468E+08         0.15610E+07         0.00000E+00
    0.15610E+07        -0.60805E+08         0.00000E+00
    0.00000E+00         0.00000E+00        -0.36437E+08
 
   -0.38288E+08         0.28542E+07         0.00000E+00
    0.28542E+07        -0.61115E+08         0.00000E+00
    0.00000E+00         0.00000E+00        -0.36249E+08
 
   -0.37206E+08         0.44375E+07         0.00000E+00
    0.44375E+07        -0.61472E+08         0.00000E+00
    0.00000E+00         0.00000E+00        -0.36094E+08
 
   -0.36316E+08         0.63643E+07         0.00000E+00
    0.63643E+07        -0.61819E+08         0.00000E+00
    0.00000E+00         0.00000E+00        -0.35980E+08
 
   -0.57286E+08        -0.87953E+06         0.00000E+00
   -0.87953E+06        -0.60028E+08         0.00000E+00
    0.00000E+00         0.00000E+00        -0.38252E+08
 
   -0.55013E+08        -0.21040E+07         0.00000E+00
   -0.21040E+07        -0.60096E+08         0.00000E+00
    0.00000E+00         0.00000E+00        -0.37805E+08
 
   -0.52743E+08        -0.27309E+07         0.00000E+00
   -0.27309E+07        -0.60129E+08         0.00000E+00
    0.00000E+00         0.00000E+00        -0.37347E+08
 
   -0.50626E+08        -0.29279E+07         0.00000E+00
   -0.29279E+07        -0.60076E+08         0.00000E+00
    0.00000E+00         0.00000E+00        -0.36899E+08
 
   -0.48712E+08        -0.28419E+07         0.00000E+00
   -0.28419E+07        -0.59946E+08         0.00000E+00
    0.00000E+00         0.00000E+00        -0.36474E+08
 
   -0.46988E+08        -0.25744E+07         0.00000E+00
   -0.25744E+07        -0.59774E+08         0.00000E+00
    0.00000E+00         0.00000E+00        -0.36076E+08
 
   -0.45415E+08        -0.21848E+07         0.00000E+00
   -0.21848E+07        -0.59597E+08         0.00000E+00
    0.00000E+00         0.00000E+00        -0.35707E+08
 
   -0.43948E+08        -0.17020E+07         0.00000E+00
   -0.17020E+07        -0.59451E+08         0.00000E+00
    0.00000E+00         0.00000E+00        -0.35365E+08
 
   -0.42544E+08        -0.11335E+07         0.00000E+00
   -0.11335E+07        -0.59365E+08         0.00000E+00
    0.00000E+00         0.00000E+00        -0.35047E+08
 
   -0.41163E+08        -0.46944E+06         0.00000E+00
   -0.46944E+06        -0.59364E+08         0.00000E+00
    0.00000E+00         0.00000E+00        -0.34753E+08
 
   -0.39771E+08         0.31711E+06         0.00000E+00
    0.31711E+06        -0.59471E+08         0.00000E+00
    0.00000E+00         0.00000E+00        -0.34479E+08
 
   -0.38347E+08         0.12736E+07         0.00000E+00
    0.12736E+07        -0.59703E+08         0.00000E+00
    0.00000E+00         0.00000E+00        -0.34227E+08
 
   -0.36895E+08         0.24713E+07         0.00000E+00
    0.24713E+07        -0.60065E+08         0.00000E+00
    0.00000E+00         0.00000E+00        -0.33997E+08
 
   -0.35463E+08         0.40018E+07         0.00000E+00
    0.40018E+07        -0.60536E+08         0.00000E+00
    0.00000E+00         0.00000E+00        -0.33797E+08
 
   -0.34163E+08         0.59570E+07         0.00000E+00
    0.59570E+07        -0.61048E+08         0.00000E+00
    0.00000E+00         0.00000E+00        -0.33635E+08
 
   -0.58894E+08        -0.93120E+06         0.00000E+00
   -0.93120E+06        -0.60021E+08         0.00000E+00
    0.00000E+00         0.00000E+00        -0.36699E+08
 
   -0.55880E+08        -0.21296E+07         0.00000E+00
   -0.21296E+07        -0.60031E+08         0.00000E+00
    0.00000E+00         0.00000E+00        -0.36094E+08
 
   -0.53076E+08        -0.26431E+07         0.00000E+00
   -0.26431E+07        -0.59921E+08         0.00000E+00
    0.00000E+00         0.00000E+00        -0.35505E+08
 
   -0.50622E+08        -0.27310E+07         0.00000E+00
   -0.27310E+07        -0.59669E+08         0.00000E+00
    0.00000E+00         0.00000E+00        -0.34953E+08
 
   -0.48506E+08        -0.25821E+07         0.00000E+00
   -0.25821E+07        -0.59325E+08         0.00000E+00
    0.00000E+00         0.00000E+00        -0.34449E+08
 
   -0.46657E+08        -0.23011E+07         0.00000E+00
   -0.23011E+07        -0.58955E+08         0.00000E+00
    0.00000E+00         0.00000E+00        -0.33992E+08
 
   -0.44998E+08        -0.19387E+07         0.00000E+00
   -0.19387E+07        -0.58607E+08         0.00000E+00
    0.00000E+00         0.00000E+00        -0.33575E+08
 
   -0.43459E+08        -0.15155E+07         0.00000E+00
   -0.15155E+07        -0.58317E+08         0.00000E+00
    0.00000E+00         0.00000E+00        -0.33194E+08
 
   -0.41979E+08        -0.10340E+07         0.00000E+00
   -0.10340E+07        -0.58115E+08         0.00000E+00
    0.00000E+00         0.00000E+00        -0.32843E+08
 
   -0.40503E+08        -0.48202E+06         0.00000E+00
   -0.48202E+06        -0.58026E+08         0.00000E+00
    0.00000E+00         0.00000E+00        -0.32516E+08
 
   -0.38980E+08         0.16834E+06         0.00000E+00
    0.16834E+06        -0.58076E+08         0.00000E+00
    0.00000E+00         0.00000E+00        -0.32208E+08
 
   -0.37361E+08         0.96760E+06         0.00000E+00
    0.96760E+06        -0.58294E+08         0.00000E+00
    0.00000E+00         0.00000E+00        -0.31917E+08
 
   -0.35617E+08         0.20027E+07         0.00000E+00
    0.20027E+07        -0.58705E+08         0.00000E+00
    0.00000E+00         0.00000E+00        -0.31641E+08
 
   -0.33770E+08         0.34062E+07         0.00000E+00
    0.34062E+07        -0.59307E+08         0.00000E+00
    0.00000E+00         0.00000E+00        -0.31386E+08
 
   -0.31945E+08         0.53354E+07         0.00000E+00
    0.53354E+07        -0.60033E+08         0.00000E+00
    0.00000E+00         0.00000E+00        -0.31162E+08
 
   -0.60521E+08        -0.95874E+06         0.00000E+00
   -0.95874E+06        -0.60006E+08         0.00000E+00
    0.00000E+00         0.00000E+00        -0.35094E+08
 
   -0.56609E+08        -0.20167E+07         0.00000E+00
   -0.20167E+07        -0.59903E+08         0.00000E+00
    0.00000E+00         0.00000E+00        -0.34289E+08
 
   -0.53261E+08        -0.23261E+07         0.00000E+00
   -0.23261E+07        -0.59549E+08         0.00000E+00
    0.00000E+00         0.00000E+00        -0.33545E+08
 
   -0.50531E+08        -0.22861E+07         0.00000E+00
   -0.22861E+07        -0.59010E+08         0.00000E+00
    0.00000E+00         0.00000E+00        -0.32885E+08
 
   -0.48277E+08        -0.20971E+07         0.00000E+00
   -0.20971E+07        -0.58411E+08         0.00000E+00
    0.00000E+00         0.00000E+00        -0.32306E+08
 
   -0.46351E+08        -0.18362E+07         0.00000E+00
   -0.18362E+07        -0.57829E+08         0.00000E+00
    0.00000E+00         0.00000E+00        -0.31795E+08
 
   -0.44641E+08        -0.15339E+07         0.00000E+00
   -0.15339E+07        -0.57308E+08         0.00000E+00
    0.00000E+00         0.00000E+00        -0.31338E+08
 
   -0.43057E+08        -0.12000E+07         0.00000E+00
   -0.12000E+07        -0.56880E+08         0.00000E+00
    0.00000E+00         0.00000E+00        -0.30925E+08
 
   -0.41527E+08        -0.83222E+06         0.00000E+00
   -0.83222E+06        -0.56567E+08         0.00000E+00
    0.00000E+00         0.00000E+00        -0.30545E+08
 
   -0.39982E+08        -0.41884E+06         0.00000E+00
   -0.41884E+06        -0.56391E+08         0.00000E+00
    0.00000E+00         0.00000E+00        -0.30191E+08
 
   -0.38355E+08         0.64007E+05         0.00000E+00
    0.64007E+05        -0.56379E+08         0.00000E+00
    0.00000E+00         0.00000E+00        -0.29853E+08
 
   -0.36568E+08         0.66013E+06         0.00000E+00
    0.66013E+06        -0.56567E+08         0.00000E+00
    0.00000E+00         0.00000E+00        -0.29525E+08
 
   -0.34538E+08         0.14531E+07         0.00000E+00
    0.14531E+07        -0.57003E+08         0.00000E+00
    0.00000E+00         0.00000E+00        -0.29200E+08
 
   -0.32217E+08         0.26172E+07         0.00000E+00
    0.26172E+07        -0.57743E+08         0.00000E+00
    0.00000E+00         0.00000E+00        -0.28879E+08
 
   -0.29706E+08         0.44245E+07         0.00000E+00
    0.44245E+07        -0.58744E+08         0.00000E+00
    0.00000E+00         0.00000E+00        -0.28575E+08
 
   -0.62046E+08        -0.92443E+06         0.00000E+00
   -0.92443E+06        -0.59961E+08         0.00000E+00
    0.00000E+00         0.00000E+00        -0.33419E+08
 
   -0.57057E+08        -0.16167E+07         0.00000E+00
   -0.16167E+07        -0.59577E+08         0.00000E+00
    0.00000E+00         0.00000E+00        -0.32344E+08
 
   -0.53272E+08        -0.16616E+07         0.00000E+00
   -0.16616E+07        -0.58802E+08         0.00000E+00
    0.00000E+00         0.00000E+00        -0.31430E+08
 
   -0.50390E+08        -0.15478E+07         0.00000E+00
   -0.15478E+07        -0.57926E+08         0.00000E+00
    0.00000E+00         0.00000E+00        -0.30675E+08
 
   -0.48069E+08        -0.13805E+07         0.00000E+00
   -0.13805E+07        -0.57075E+08         0.00000E+00
    0.00000E+00         0.00000E+00        -0.30036E+08
 
   -0.46109E+08        -0.11901E+07         0.00000E+00
   -0.11901E+07        -0.56305E+08         0.00000E+00
    0.00000E+00         0.00000E+00        -0.29485E+08
 
   -0.44376E+08        -0.98653E+06         0.00000E+00
   -0.98653E+06        -0.55642E+08         0.00000E+00
    0.00000E+00         0.00000E+00        -0.28999E+08
 
   -0.42770E+08        -0.77115E+06         0.00000E+00
   -0.77115E+06        -0.55103E+08         0.00000E+00
    0.00000E+00         0.00000E+00        -0.28563E+08
 
   -0.41212E+08        -0.54012E+06         0.00000E+00
   -0.54012E+06        -0.54702E+08         0.00000E+00
    0.00000E+00         0.00000E+00        -0.28165E+08
 
   -0.39624E+08        -0.28479E+06         0.00000E+00
   -0.28479E+06        -0.54457E+08         0.00000E+00
    0.00000E+00         0.00000E+00        -0.27791E+08
 
   -0.37926E+08         0.10428E+05         0.00000E+00
    0.10428E+05        -0.54389E+08         0.00000E+00
    0.00000E+00         0.00000E+00        -0.27433E+08
 
   -0.36020E+08         0.37399E+06         0.00000E+00
    0.37399E+06        -0.54537E+08         0.00000E+00
    0.00000E+00         0.00000E+00        -0.27076E+08
 
   -0.33769E+08         0.86305E+06         0.00000E+00
    0.86305E+06        -0.54964E+08         0.00000E+00
    0.00000E+00         0.00000E+00        -0.26707E+08
 
   -0.30960E+08         0.16189E+07         0.00000E+00
    0.16189E+07        -0.55780E+08         0.00000E+00
    0.00000E+00         0.00000E+00        -0.26306E+08
 
   -0.27537E+08         0.31003E+07         0.00000E+00
    0.31003E+07        -0.57144E+08         0.00000E+00
    0.00000E+00         0.00000E+00        -0.25893E+08
 
   -0.63144E+08        -0.57647E+06         0.00000E+00
   -0.57647E+06        -0.59582E+08         0.00000E+00
    0.00000E+00         0.00000E+00        -0.31556E+08
 
   -0.57129E+08        -0.66585E+06         0.00000E+00
   -0.66585E+06        -0.58518E+08         0.00000E+00
    0.00000E+00         0.00000E+00        -0.30140E+08
 
   -0.53210E+08        -0.61335E+06         0.00000E+00
   -0.61335E+06        -0.57321E+08         0.00000E+00
    0.00000E+00         0.00000E+00        -0.29117E+08
 
   -0.50280E+08        -0.55115E+06         0.00000E+00
   -0.55115E+06        -0.56194E+08         0.00000E+00
    0.00000E+00         0.00000E+00        -0.28305E+08
 
   -0.47942E+08        -0.48288E+06         0.00000E+00
   -0.48288E+06        -0.55182E+08         0.00000E+00
    0.00000E+00         0.00000E+00        -0.27633E+08
 
   -0.45974E+08        -0.41233E+06         0.00000E+00
   -0.41233E+06        -0.54301E+08         0.00000E+00
    0.00000E+00         0.00000E+00        -0.27061E+08
 
   -0.44234E+08        -0.34011E+06         0.00000E+00
   -0.34011E+06        -0.53559E+08         0.00000E+00
    0.00000E+00         0.00000E+00        -0.26563E+08
 
   -0.42621E+08        -0.26551E+06         0.00000E+00
   -0.26551E+06        -0.52960E+08         0.00000E+00
    0.00000E+00         0.00000E+00        -0.26118E+08
 
   -0.41050E+08        -0.18668E+06         0.00000E+00
   -0.18668E+06        -0.52513E+08         0.00000E+00
    0.00000E+00         0.00000E+00        -0.25712E+08
 
   -0.39441E+08        -0.10046E+06         0.00000E+00
   -0.10046E+06        -0.52229E+08         0.00000E+00
    0.00000E+00         0.00000E+00        -0.25331E+08
 
   -0.37710E+08        -0.14888E+04         0.00000E+00
   -0.14888E+04        -0.52130E+08         0.00000E+00
    0.00000E+00         0.00000E+00        -0.24963E+08
 
   -0.35743E+08         0.11973E+06         0.00000E+00
    0.11973E+06        -0.52251E+08         0.00000E+00
    0.00000E+00         0.00000E+00        -0.24592E+08
 
   -0.33373E+08         0.28326E+06         0.00000E+00
    0.28326E+06        -0.52654E+08         0.00000E+00
    0.00000E+00         0.00000E+00        -0.24198E+08
 
   -0.30297E+08         0.53389E+06         0.00000E+00
    0.53389E+06        -0.53471E+08         0.00000E+00
    0.00000E+00         0.00000E+00        -0.23745E+08
 
   -0.25652E+08         0.11575E+07         0.00000E+00
    0.11575E+07        -0.55066E+08         0.00000E+00
    0.00000E+00         0.00000E+00        -0.23135E+08
 
SCALARS stressS double 
LOOKUP_TABLE default
  -54585087.0501326     
  -58050450.4767521     
  -60514560.9243323     
  -62176278.1189529     
  -63448901.0134013     
  -64486415.9811350     
  -65370330.0034833     
  -66150621.5067084     
  -66862772.0361671     
  -67536548.3166020     
  -68202564.3866835     
  -68900062.3461436     
  -69692596.3063990     
  -70702115.0425351     
  -72368374.4222696     
  -54474957.8623775     
  -55839900.7532658     
  -57529712.0668456     
  -58963210.9598293     
  -60138023.2087749     
  -61130494.0898343     
  -61992534.0895483     
  -62761321.0020966     
  -63465368.2046030     
  -64129253.3157158     
  -64777422.8092771     
  -65438453.1176353     
  -66147834.5537515     
  -66965037.2672295     
  -67715809.5170076     
  -54095861.8590828     
  -54918983.0681743     
  -55935008.7523912     
  -57003097.2359187     
  -57986578.9266377     
  -58867543.8391535     
  -59658823.8166463     
  -60377343.7440939     
  -61039499.4177493     
  -61660411.0638119     
  -62254053.1083864     
  -62832026.2351822     
  -63400204.1552345     
  -63915528.0157498     
  -64279864.6110572     
  -54095629.2221862     
  -54470183.7693868     
  -55113755.3882803     
  -55865337.3605069     
  -56637112.4433614     
  -57377203.5870349     
  -58069456.7841170     
  -58712380.4320541     
  -59309670.6019612     
  -59866098.2694531     
  -60384724.2716702     
  -60863399.7024201     
  -61284630.9933939     
  -61607415.9689147     
  -61757863.4897034     
  -54139688.8983251     
  -54303670.4800976     
  -54697414.9158689     
  -55226708.2982487     
  -55815466.5893543     
  -56416063.0491124     
  -57000955.9471293     
  -57556973.5013631     
  -58078031.6257031     
  -58560374.3198499     
  -58998942.6851283     
  -59383123.8301399     
  -59692433.1144470     
  -59892438.6238166     
  -59936983.6921507     
  -54177783.9188611     
  -54247830.7377487     
  -54500090.5240602     
  -54876607.9200069     
  -55325097.8028887     
  -55804925.2836904     
  -56288431.9880367     
  -56757715.1024483     
  -57201079.8024001     
  -57609420.9282315     
  -57973050.1644749     
  -58278893.8513355     
  -58508194.1074711     
  -58636148.0491498     
  -58634764.1274666     
  -54181758.0424145     
  -54227553.4639371     
  -54406326.5090071     
  -54686350.3192172     
  -55033200.9450772     
  -55416510.9728994     
  -55812237.3969017     
  -56202435.8570620     
  -56573514.8800629     
  -56914122.7523548     
  -57213076.5355795     
  -57457676.3220462     
  -57632867.4366998     
  -57721851.9538774     
  -57708895.9411732     
  -54145113.4925448     
  -54203960.2425015     
  -54352672.5182528     
  -54575964.5204579     
  -54853110.4063532     
  -55163018.2525226     
  -55486957.5663160     
  -55809314.3412485     
  -56117167.7057147     
  -56399278.7350347     
  -56644999.2445645     
  -56843477.5649566     
  -56983531.3499675     
  -57054571.8915422     
  -57048835.4282329     
  -54068192.7445451     
  -54159315.3992403     
  -54304024.8192068     
  -54497547.1739784     
  -54728968.3568653     
  -54984985.9833489     
  -55252287.6747582     
  -55518699.6900621     
  -55773430.5538378     
  -56006816.1050213     
  -56209925.1538041     
  -56374345.1954292     
  -56492423.9256918     
  -56558182.8613086     
  -56569006.2037873     
  -53954835.3198558     
  -54086625.6958916     
  -54241957.8658087     
  -54422823.1797153     
  -54625347.5004504     
  -54842458.2547338     
  -55065813.5290176     
  -55286971.4418694     
  -55497951.8692311     
  -55691416.1863942     
  -55860710.0321028     
  -55999993.8634482     
  -56104648.6891931     
  -56172083.4619571     
  -56202976.7693348     
  -53810482.9446304     
  -53984696.4487620     
  -54157535.1272837     
  -54335529.4215255     
  -54519934.1122038     
  -54708620.9346655     
  -54897580.8798344     
  -55081981.8273411     
  -55256836.0267477     
  -55417400.6653171     
  -55559461.0024820     
  -55679642.0597877     
  -55775867.5821645     
  -55848037.4112270     
  -55898927.6103758     
  -53641376.1886085     
  -53855388.5655385     
  -54047203.9666359     
  -54226598.8328722     
  -54398696.9591810     
  -54565326.8338521     
  -54726181.4150383     
  -54879725.3358599     
  -55023862.3836970     
  -55156424.2079935     
  -55275565.6317025     
  -55380153.6749756     
  -55470220.2407783     
  -55547515.3538670     
  -55616152.6248637     
  -53454116.5931287     
  -53702118.7546032     
  -53910379.5744426     
  -54091192.8561047     
  -54252733.3625376     
  -54400055.5121627     
  -54535996.4428089     
  -54661940.5573141     
  -54778440.9541885     
  -54885724.1176216     
  -54984121.9440239     
  -55074478.3706150     
  -55158567.5489578     
  -55239539.0136396     
  -55322375.9110755     
  -53255401.9624488     
  -53529002.5602670     
  -53748023.7560960     
  -53926873.8651903     
  -54076246.6037533     
  -54203883.8465693     
  -54315295.2283201     
  -54414404.7264720     
  -54504113.9166743     
  -54586789.3868144     
  -54664693.0617400     
  -54740376.8526467     
  -54817057.0799362     
  -54898970.8277444     
  -54991698.0702684     
  -53051835.2573443     
  -53340348.6916572     
  -53561798.8900538     
  -53732483.9888325     
  -53865260.0772178     
  -53970151.0399662     
  -54054941.8326398     
  -54125736.1002332     
  -54187466.7865978     
  -54244356.9840659     
  -54300334.3214131     
  -54359403.8233998     
  -54425980.8922531     
  -54505178.4315477     
  -54603031.5126582     
  -52849768.2001412     
  -53140344.7168588     
  -53353556.1845627     
  -53507454.7971708     
  -53616803.6347672     
  -53693588.1925773     
  -53747526.0680931     
  -53786563.5703048     
  -53817348.1403496     
  -53845667.7159613     
  -53876850.3758758     
  -53916118.3002720     
  -53968888.6037963     
  -54041009.9948932     
  -54138919.1263651     
  -52655161.8914431     
  -52932846.4310187     
  -53125014.5807919     
  -53251374.7244809     
  -53328395.1360455     
  -53369751.4374395     
  -53386783.9455594     
  -53388958.8384592     
  -53384321.6617868     
  -53379929.3630940     
  -53382246.5503874     
  -53397491.8436875     
  -53431920.2118888     
  -53492026.7411312     
  -53584656.4817981     
  -52473455.8907710     
  -52721219.6181464     
  -52877541.9214742     
  -52963702.4101872     
  -52997698.1355411     
  -52994645.9832107     
  -52967210.5288721     
  -52926053.8077985     
  -52880293.0284332     
  -52837946.3749461     
  -52806344.8925930     
  -52792488.7594613     
  -52803327.9098884     
  -52845949.3732060     
  -52927656.6189660     
  -52309440.5646256     
  -52508200.9596573     
  -52611979.2877337     
  -52643549.2826462     
  -52622272.0602557     
  -52564460.2850286     
  -52483794.3586700     
  -52391786.0070167     
  -52298268.6297716     
  -52211885.1751965     
  -52140541.8580724     
  -52091797.5547521     
  -52073162.4610862     
  -52092284.7996166     
  -52157010.9129646     
  -52167128.5420844     
  -52295751.6715338     
  -52328462.0854058     
  -52289471.7418409     
  -52199350.4432522     
  -52075348.7256016     
  -51931819.9947530     
  -51780729.4511047     
  -51632214.6469592     
  -51495153.0327041     
  -51377691.7642101     
  -51287699.6256832     
  -51233107.1655246     
  -51222108.8805640     
  -51263211.3449570     
  -52049620.5067113     
  -52084875.6930839     
  -52026191.2637427     
  -51899216.4887139     
  -51725589.7819233     
  -51523211.0763192     
  -51306696.3518010     
  -51087979.1766742     
  -50876994.7684897     
  -50682377.1434539     
  -50512108.3855926     
  -50374069.5970903     
  -50276451.5132846     
  -50227990.6440142     
  -50238009.9079254     
  -51958957.1603929     
  -51875362.4881718     
  -51703094.3307185     
  -51469352.8352106     
  -51196728.8795280     
  -50903420.8726601     
  -50603776.3419849     
  -50309066.7936101     
  -50028373.7191597     
  -49769479.4219999     
  -49539686.6577197     
  -49346512.6975718     
  -49198208.3770324     
  -49104054.7896175     
  -49074400.6077083     
  -51895939.5546835     
  -51665385.8910486     
  -51355282.5622661     
  -50994700.9779099     
  -50607088.2508191     
  -50210457.1627109     
  -49818142.1354550     
  -49439894.0312445     
  -49083082.2484037     
  -48753850.7853193     
  -48458157.5204349     
  -48202659.1743370     
  -47995395.8026947     
  -47846194.5796484     
  -47766719.5380520     
  -51859875.0388340     
  -51450827.6127215     
  -50976142.0671687     
  -50467420.0258300     
  -49948826.1677102     
  -49437404.0371403     
  -48944347.3674050     
  -48476684.1391243     
  -48038945.1078501     
  -47634633.9096406     
  -47267498.8536092     
  -46942657.4912658     
  -46667531.5646979     
  -46452473.3352457     
  -46310870.1490075     
  -51848146.6529416     
  -51224048.7023740     
  -50554758.1481588     
  -49875547.2552718     
  -49210868.9859683     
  -48575321.8329863     
  -47976145.3427833     
  -47415967.8748307     
  -46895072.2756103     
  -46413112.0123241     
  -45970533.6395141     
  -45569933.1965520     
  -45217446.0125330     
  -44923798.6613756     
  -44704704.2430500     
  -51855323.9266222     
  -50971491.0543094     
  -50073076.8874100     
  -49200694.1579530     
  -48377509.5859375     
  -47612604.4936291     
  -46906309.7876392     
  -46254638.7657143     
  -45652081.2675478     
  -45093169.8921609     
  -44573701.8583741     
  -44092349.6130996     
  -43652593.9030688     
  -43265099.6374673     
  -42948618.2156517     
  -51871098.6367074     
  -50668459.4354878     
  -49500645.4927343     
  -48414640.0404376     
  -47426972.3294450     
  -46534725.1113284     
  -45726730.9910725     
  -44990118.4392567     
  -44312279.4669661     
  -43681606.6606272     
  -43087988.1681092     
  -42523769.7262907     
  -41987474.5079295     
  -41487365.3866765     
  -41046681.6770213     
  -51873622.0795553     
  -50266889.2985883     
  -48784683.8967304     
  -47475365.7741682     
  -46331504.0353798     
  -45324900.6424849     
  -44429020.0909690     
  -43620650.8639939     
  -42879658.6245490     
  -42188038.1055249     
  -41529017.7483649     
  -40886788.2572195     
  -40247083.6338775     
  -39613019.6481072     
  -39008262.1483321     
  -51808524.4257696     
  -49659357.8231200     
  -47834632.8485658     
  -46330215.9998366     
  -45060157.8253443     
  -43966280.2826895     
  -43005693.1982285     
  -42145680.7268778     
  -41359585.7706776     
  -40623921.1727709     
  -39915932.8835677     
  -39210957.7890531     
  -38480102.5645564     
  -37681989.4622593     
  -36857726.7017821     
  -51427471.6253836     
  -48595830.9679045     
  -46549005.9169732     
  -44926180.2192503     
  -43585664.4169682     
  -42445345.5092379     
  -41451732.0214894     
  -40566178.3418414     
  -39758113.1177007     
  -39000774.3522809     
  -38267684.4598176     
  -37528500.8697430     
  -36741453.9098147     
  -35837752.3810717     
  -34617527.7495035     
SCALARS 2waySource double 
LOOKUP_TABLE default
 -1.096223407873822E-004
  4.747573105071916E-004
  8.641072592606868E-004
  1.093394499503777E-003
  1.253734004563781E-003
  1.373922015283022E-003
  1.469174028399951E-003
  1.548656267364999E-003
  1.618724037837577E-003
  1.684500656667184E-003
  1.750961327261954E-003
  1.824035388710708E-003
  1.912598820927434E-003
  2.031478457812592E-003
  2.237018517313742E-003
  4.534262387572266E-005
  1.983813881273577E-004
  4.210252791529174E-004
  6.017413886328687E-004
  7.384898694538006E-004
  8.462709049978337E-004
  9.343278813539119E-004
  1.009164010678913E-003
  1.075652111908398E-003
  1.137857246861206E-003
  1.199643421033973E-003
  1.265298341478330E-003
  1.340097622229096E-003
  1.433448688059248E-003
  1.550760101322011E-003
  5.342462813490317E-005
  9.876378902832975E-005
  1.969192063964904E-004
  3.114359683854676E-004
  4.128743003633083E-004
  4.990879915438961E-004
  5.728754495686191E-004
  6.372908015517687E-004
  6.951223209109721E-004
  7.488527420036089E-004
  8.007512491918778E-004
  8.528994989525016E-004
  9.072828764509593E-004
  9.640592440345069E-004
  1.017425382026185E-003
  1.036331133137123E-004
  7.085178627657182E-005
  9.900493253733293E-005
  1.544191097375762E-004
  2.176811634473881E-004
  2.784783246092090E-004
  3.341930623341682E-004
  3.847324643702611E-004
  4.307887307180675E-004
  4.732198452019059E-004
  5.127379992781819E-004
  5.496457394629409E-004
  5.832031431835540E-004
  6.103161508484933E-004
  6.219279183994846E-004
  1.516261132744096E-004
  8.249793845007438E-005
  6.491274960068186E-005
  7.890571770571940E-005
  1.086575291585774E-004
  1.445026604853804E-004
  1.812445652846897E-004
  2.165985177760662E-004
  2.495868807366510E-004
  2.797146006649771E-004
  3.064780318579531E-004
  3.289215381196233E-004
  3.450469141127799E-004
  3.507431859329653E-004
  3.385481200647901E-004
  1.913074944558009E-004
  1.074717991181614E-004
  6.408671279551683E-005
  4.975546063117718E-005
  5.378511436855185E-005
  6.800825849911891E-005
  8.705836607275264E-005
  1.076357830417175E-004
  1.277205525349375E-004
  1.458905790408793E-004
  1.608306705150330E-004
  1.709095748874522E-004
  1.737048154679896E-004
  1.654847447770227E-004
  1.408862402045167E-004
  2.214192061506197E-004
  1.346110836075114E-004
  7.795353642338584E-005
  4.575333729689428E-005
  3.122399578188260E-005
  2.828721513500554E-005
  3.221222195139271E-005
  3.958238975962000E-005
  4.793483641578400E-005
  5.535567302586967E-005
  6.010867623050672E-005
  6.030801364196321E-005
  5.362620072315370E-005
  3.709149407053678E-005
  7.168025271833437E-006
  2.428134534081364E-004
  1.587806970679556E-004
  9.659567137510137E-005
  5.393794552713744E-005
  2.685447269136627E-005
  1.111993975362095E-005
  2.966308092436781E-006
 -6.927675122367765E-007
 -2.327325312698664E-006
 -3.986350796675723E-006
 -7.520319633973204E-006
 -1.478505161037602E-005
 -2.779023381448370E-005
 -4.872763408183083E-005
 -7.977009878063767E-005
  2.566917846200560E-004
  1.780144089540311E-004
  1.148456722352323E-004
  6.678812783073879E-005
  3.177590882913456E-005
  7.052680666858924E-006
 -1.019681674870807E-005
 -2.253521787324336E-005
 -3.219109550441567E-005
 -4.110655731308869E-005
 -5.103700949175140E-005
 -6.364800554611932E-005
 -8.056335576733532E-005
 -1.033118473599457E-004
 -1.331116285675652E-004
  2.642526392727614E-004
  1.918363892132669E-004
  1.302470365911074E-004
  8.011763929567611E-005
  4.058530629056875E-005
  9.970012928779798E-006
 -1.372461780499644E-005
 -3.250597580014974E-005
 -4.824753476141051E-005
 -6.265006292093602E-005
 -7.725509342110216E-005
 -9.346486045269867E-005
 -1.125283102703719E-004
 -1.354549442921398E-004
 -1.628233973697232E-004
  2.665803114544737E-004
  2.004865064041119E-004
  1.418362798103804E-004
  9.176566335137982E-005
  5.014447349116851E-005
  1.604440749479427E-005
 -1.188160909028702E-005
 -3.513403004613302E-005
 -5.520675253881605E-005
 -7.350493343549455E-005
 -9.130657375798779E-005
 -1.097344690909214E-004
 -1.297082219043853E-004
 -1.518503902574866E-004
 -1.763289256201339E-004
  2.646360819851108E-004
  2.045266829789675E-004
  1.494619262360966E-004
  1.007744604317126E-004
  5.875616643469042E-005
  2.298281637447931E-005
 -7.403808027093942E-006
 -3.347847227332991E-005
 -5.638130446321600E-005
 -7.722006157220669E-005
 -9.700566469076765E-005
 -1.165988544615561E-004
 -1.366472494480594E-004
 -1.574961925456667E-004
 -1.790640804659390E-004
  2.592696341050653E-004
  2.046444764076363E-004
  1.533991010305298E-004
  1.068880329366496E-004
  6.562389146851350E-005
  2.950605750479636E-005
 -1.970567411829905E-006
 -2.954276941766104E-005
 -5.404665338405150E-005
 -7.632048249111924E-005
 -9.713146989565424E-005
 -1.171128216754910E-004
 -1.366978801396963E-004
 -1.560413300910792E-004
 -1.749230320766980E-004
  2.512319068601771E-004
  2.015536200833516E-004
  1.541332477954921E-004
  1.102489573739394E-004
  7.050504668460256E-005
  3.499617979684310E-005
  3.462171057511615E-006
 -2.457708677041709E-005
 -4.971087447435032E-005
 -7.254946557324012E-005
 -9.365263557322760E-005
 -1.134669344751718E-004
 -1.322639435089294E-004
 -1.500739029938104E-004
 -1.666130648700858E-004
  2.411842860264736E-004
  1.959441790069105E-004
  1.522391598163730E-004
  1.112167269556194E-004
  7.349062582061236E-005
  3.926094359913522E-005
  8.429211496338614E-006
 -1.929755737677925E-005
 -4.431714251250726E-005
 -6.705660281736484E-005
 -8.790817457167874E-005
 -1.071723383546363E-004
 -1.250038340451496E-004
 -1.413578496680371E-004
 -1.559362949314212E-004
  2.297047172490632E-004
  1.884582893474665E-004
  1.483139393734199E-004
  1.102594376186199E-004
  7.486608218843234E-005
  4.237734813031078E-005
  1.279429361506911E-005
 -1.404537038963161E-005
 -3.839663284585244E-005
 -6.054536350550225E-005
 -8.075418955299202E-005
 -9.921405571172975E-005
 -1.159994747564725E-004
 -1.310264267172860E-004
 -1.440136243615486E-004
  2.172924020292610E-004
  1.796793815195091E-004
  1.429403310279883E-004
  1.078892564029622E-004
  7.502320742771872E-005
  4.458725025145975E-005
  1.663690892645537E-005
 -8.903126355636514E-006
 -3.218516822666646E-005
 -5.339005409430366E-005
 -7.268374862918824E-005
 -9.017830448457486E-005
 -1.058965164690995E-004
 -1.197402253819697E-004
 -1.314633411335884E-004
  2.043725142182731E-004
  1.701286431907444E-004
  1.366670194034250E-004
  1.046236257125604E-004
  7.440347394294802E-005
  4.622655964509336E-005
  2.017176079158820E-005
 -3.781403205583088E-006
 -2.571363163310536E-005
 -4.572971894938697E-005
 -6.392560175659138E-005
 -8.035857830907876E-005
 -9.502079761959781E-005
 -1.078165130992540E-004
 -1.185442604803835E-004
  1.913017902980106E-004
  1.602654159167463E-004
  1.299982072884206E-004
  1.009612551181522E-004
  7.346033924194921E-005
  4.767559081415168E-005
  2.368968419655691E-005
  1.515100819020519E-006
 -1.887958919033598E-005
 -3.754473442406271E-005
 -5.452627633667434E-005
 -6.984450735295089E-005
 -8.347544603832296E-005
 -9.533560089050071E-005
 -1.052712404569711E-004
  1.783753118307660E-004
  1.504896914173810E-004
  1.233880411348960E-004
  9.736627610347875E-005
  7.263259959832693E-005
  4.932237403480441E-005
  2.751235701873496E-005
  7.235203410389733E-006
 -1.150557445499298E-005
 -2.872046244818475E-005
 -4.441915892231903E-005
 -5.859684376529679E-005
 -7.122231218983947E-005
 -8.222889752313518E-005
 -9.150921427981234E-005
  1.658344234693922E-004
  1.411456212400063E-004
  1.172372861291219E-004
  9.425652896349418E-005
  7.232378850113231E-005
  5.153355079890475E-005
  3.195560596033055E-005
  1.363800697312518E-005
 -3.387972787557986E-006
 -1.910123928730660E-005
 -3.348338919964700E-005
 -4.651128710199269E-005
 -5.815074825174410E-005
 -6.835237173789333E-005
 -7.705048916998511E-005
  1.538755181102686E-004
  1.325253256346099E-004
  1.118906417337776E-004
  9.199342756905117E-005
  7.288436365040203E-005
  5.462927243976211E-005
  3.729776602963297E-005
  2.095555837692815E-005
  5.660668665249972E-006
 -8.537133829815227E-006
 -2.159475020789704E-005
 -3.347330975031276E-005
 -4.413613714544023E-005
 -5.354833186559781E-005
 -6.167891966172424E-005
  1.426593367938788E-004
  1.248724225792012E-004
  1.076334972250337E-004
  9.087152900322183E-005
  7.459432358639951E-005
  5.885953637008620E-005
  4.375057439767791E-005
  2.935908999286857E-005
  1.577385921086799E-005
  3.074707336193679E-006
 -8.670249865007946E-006
 -1.940569780075795E-005
 -2.909008044799901E-005
 -3.769777602732607E-005
 -4.522365817609988E-005
  1.323204325252279E-004
  1.183845975110369E-004
  1.046868094925041E-004
  9.110592938818261E-005
  7.764408814810666E-005
  6.437978881024273E-005
  5.143060825214674E-005
  3.892709390992439E-005
  2.699637721648188E-005
  1.575271189570593E-005
  5.292229186989798E-006
 -4.310255780848919E-006
 -1.300382158604533E-005
 -2.076512342749544E-005
 -2.760452291699826E-005
  1.229764925429830E-004
  1.132140673779875E-004
  1.031979968583591E-004
  9.281484392390435E-005
  8.211099738450700E-005
  7.122349777105222E-005
  6.032942958051349E-005
  4.961378892603992E-005
  3.925124347760512E-005
  2.939636035750339E-005
  2.017789031650168E-005
  1.169495020831110E-005
  4.013520662079342E-006
 -2.836922413794955E-006
 -8.870693746772509E-006
  1.147372562863562E-004
  1.094636040916765E-004
  1.032238643934972E-004
  9.599296467107021E-005
  8.792762172262403E-005
  7.926888051270362E-005
  7.028051627277842E-005
  6.121667356136896E-005
  5.230749977021755E-005
  4.375332771941642E-005
  3.572132474111268E-005
  2.834078140587728E-005
  2.170026400878782E-005
  1.584326520974828E-005
  1.076564414196942E-005
  1.077127046632936E-004
  1.071729927339006E-004
  1.046976695238583E-004
  1.004680486853814E-004
  9.483637852561783E-005
  8.819636826686212E-005
  8.092092963779629E-005
  7.334183836351891E-005
  6.574793109669855E-005
  5.838795055857032E-005
  5.147269694651097E-005
  4.517310444731407E-005
  3.960608988051805E-005
  3.484237389507618E-005
  3.089687912842263E-005
  1.020197047611192E-004
  1.062838680033252E-004
  1.073646148431029E-004
  1.058283809506101E-004
  1.023236505243921E-004
  9.743368047224069E-005
  9.164545877477087E-005
  8.536521372190527E-005
  7.893567874706280E-005
  7.265083989087545E-005
  6.676699126049871E-005
  6.150763671319938E-005
  5.705770039627728E-005
  5.349039462244694E-005
  5.088884427589239E-005
  9.778405128089862E-005
  1.065522970618343E-004
  1.106529230574272E-004
  1.113046809607982E-004
  1.095310007735100E-004
  1.060860736507924E-004
  1.015503027679946E-004
  9.638645530805144E-005
  9.097687138660292E-005
  8.564959494751959E-005
  8.069892432778557E-005
  7.640359962155424E-005
  7.303969926187817E-005
  7.088018586324374E-005
  6.977899984298306E-005
  9.510713643009426E-005
  1.073043570848233E-004
  1.134222661362058E-004
  1.156197421905861E-004
  1.151447608498547E-004
  1.128492462734774E-004
  1.093610653835993E-004
  1.051691773267331E-004
  1.006728250777505E-004
  9.621472815155461E-005
  9.210803816545488E-005
  8.866454709565246E-005
  8.623336981617573E-005
  8.527722026225790E-005
  8.642931396448033E-005
SCALARS poroP double 
LOOKUP_TABLE default
  5.057277060184347E-006
  0.000000000000000E+000
  0.000000000000000E+000
  0.000000000000000E+000
  0.000000000000000E+000
  0.000000000000000E+000
  0.000000000000000E+000
  0.000000000000000E+000
  0.000000000000000E+000
  0.000000000000000E+000
  0.000000000000000E+000
  0.000000000000000E+000
  0.000000000000000E+000
  0.000000000000000E+000
  0.000000000000000E+000
  0.000000000000000E+000
  0.000000000000000E+000
  0.000000000000000E+000
  0.000000000000000E+000
  0.000000000000000E+000
  0.000000000000000E+000
  0.000000000000000E+000
  0.000000000000000E+000
  0.000000000000000E+000
  0.000000000000000E+000
  0.000000000000000E+000
  0.000000000000000E+000
  0.000000000000000E+000
  0.000000000000000E+000
  0.000000000000000E+000
  0.000000000000000E+000
  0.000000000000000E+000
  0.000000000000000E+000
  0.000000000000000E+000
  0.000000000000000E+000
  0.000000000000000E+000
  0.000000000000000E+000
  0.000000000000000E+000
  0.000000000000000E+000
  0.000000000000000E+000
  0.000000000000000E+000
  0.000000000000000E+000
  0.000000000000000E+000
  0.000000000000000E+000
  0.000000000000000E+000
  0.000000000000000E+000
  0.000000000000000E+000
  0.000000000000000E+000
  0.000000000000000E+000
  0.000000000000000E+000
  0.000000000000000E+000
  0.000000000000000E+000
  0.000000000000000E+000
  0.000000000000000E+000
  0.000000000000000E+000
  0.000000000000000E+000
  0.000000000000000E+000
  0.000000000000000E+000
  0.000000000000000E+000
  0.000000000000000E+000
  0.000000000000000E+000
  0.000000000000000E+000
  0.000000000000000E+000
  0.000000000000000E+000
  0.000000000000000E+000
  0.000000000000000E+000
  0.000000000000000E+000
  0.000000000000000E+000
  0.000000000000000E+000
  0.000000000000000E+000
  0.000000000000000E+000
  0.000000000000000E+000
  0.000000000000000E+000
  0.000000000000000E+000
  0.000000000000000E+000
  0.000000000000000E+000
  0.000000000000000E+000
  0.000000000000000E+000
  0.000000000000000E+000
  0.000000000000000E+000
  0.000000000000000E+000
  0.000000000000000E+000
  0.000000000000000E+000
  0.000000000000000E+000
  0.000000000000000E+000
  0.000000000000000E+000
  0.000000000000000E+000
  0.000000000000000E+000
  0.000000000000000E+000
  0.000000000000000E+000
  0.000000000000000E+000
  0.000000000000000E+000
  0.000000000000000E+000
  0.000000000000000E+000
  0.000000000000000E+000
  0.000000000000000E+000
  0.000000000000000E+000
  0.000000000000000E+000
  0.000000000000000E+000
  0.000000000000000E+000
  0.000000000000000E+000
  0.000000000000000E+000
  0.000000000000000E+000
  0.000000000000000E+000
  0.000000000000000E+000
  0.000000000000000E+000
  0.000000000000000E+000
  0.000000000000000E+000
  0.000000000000000E+000
  0.000000000000000E+000
  0.000000000000000E+000
  0.000000000000000E+000
  0.000000000000000E+000
  0.000000000000000E+000
  0.000000000000000E+000
  0.000000000000000E+000
  0.000000000000000E+000
  0.000000000000000E+000
  0.000000000000000E+000
  0.000000000000000E+000
  0.000000000000000E+000
  0.000000000000000E+000
  0.000000000000000E+000
  0.000000000000000E+000
  0.000000000000000E+000
  0.000000000000000E+000
  0.000000000000000E+000
  0.000000000000000E+000
  0.000000000000000E+000
  0.000000000000000E+000
  0.000000000000000E+000
  0.000000000000000E+000
  0.000000000000000E+000
  0.000000000000000E+000
  0.000000000000000E+000
  0.000000000000000E+000
  0.000000000000000E+000
  0.000000000000000E+000
  0.000000000000000E+000
  0.000000000000000E+000
  0.000000000000000E+000
  0.000000000000000E+000
  0.000000000000000E+000
  0.000000000000000E+000
  0.000000000000000E+000
  0.000000000000000E+000
  0.000000000000000E+000
  0.000000000000000E+000
  0.000000000000000E+000
  0.000000000000000E+000
  0.000000000000000E+000
  0.000000000000000E+000
  0.000000000000000E+000
  0.000000000000000E+000
  0.000000000000000E+000
  0.000000000000000E+000
  0.000000000000000E+000
  0.000000000000000E+000
  0.000000000000000E+000
  0.000000000000000E+000
  0.000000000000000E+000
  0.000000000000000E+000
  0.000000000000000E+000
  0.000000000000000E+000
  0.000000000000000E+000
  0.000000000000000E+000
  0.000000000000000E+000
  0.000000000000000E+000
  0.000000000000000E+000
  0.000000000000000E+000
  0.000000000000000E+000
  0.000000000000000E+000
  0.000000000000000E+000
  0.000000000000000E+000
  0.000000000000000E+000
  0.000000000000000E+000
  0.000000000000000E+000
  0.000000000000000E+000
  0.000000000000000E+000
  0.000000000000000E+000
  0.000000000000000E+000
  0.000000000000000E+000
  0.000000000000000E+000
  0.000000000000000E+000
  0.000000000000000E+000
  0.000000000000000E+000
  0.000000000000000E+000
  0.000000000000000E+000
  0.000000000000000E+000
  0.000000000000000E+000
  0.000000000000000E+000
  0.000000000000000E+000
  0.000000000000000E+000
  0.000000000000000E+000
  0.000000000000000E+000
  0.000000000000000E+000
  0.000000000000000E+000
  0.000000000000000E+000
  0.000000000000000E+000
  0.000000000000000E+000
  0.000000000000000E+000
  0.000000000000000E+000
  0.000000000000000E+000
  0.000000000000000E+000
  0.000000000000000E+000
  0.000000000000000E+000
  0.000000000000000E+000
  0.000000000000000E+000
  0.000000000000000E+000
  0.000000000000000E+000
  0.000000000000000E+000
  0.000000000000000E+000
  0.000000000000000E+000
  0.000000000000000E+000
  0.000000000000000E+000
  0.000000000000000E+000
  0.000000000000000E+000
  0.000000000000000E+000
  0.000000000000000E+000
  0.000000000000000E+000
  0.000000000000000E+000
  0.000000000000000E+000
  0.000000000000000E+000
  0.000000000000000E+000
  0.000000000000000E+000
  0.000000000000000E+000
  0.000000000000000E+000
  0.000000000000000E+000
  0.000000000000000E+000
  0.000000000000000E+000
  0.000000000000000E+000
  0.000000000000000E+000
  0.000000000000000E+000
  0.000000000000000E+000
  0.000000000000000E+000
  0.000000000000000E+000
  0.000000000000000E+000
  0.000000000000000E+000
  0.000000000000000E+000
  0.000000000000000E+000
  0.000000000000000E+000
  0.000000000000000E+000
  0.000000000000000E+000
  0.000000000000000E+000
  0.000000000000000E+000
  0.000000000000000E+000
  0.000000000000000E+000
  0.000000000000000E+000
  0.000000000000000E+000
  0.000000000000000E+000
  0.000000000000000E+000
  0.000000000000000E+000
  0.000000000000000E+000
  0.000000000000000E+000
  0.000000000000000E+000
  0.000000000000000E+000
  0.000000000000000E+000
  0.000000000000000E+000
  0.000000000000000E+000
  0.000000000000000E+000
  0.000000000000000E+000
  0.000000000000000E+000
  0.000000000000000E+000
  0.000000000000000E+000
  0.000000000000000E+000
  0.000000000000000E+000
  0.000000000000000E+000
  0.000000000000000E+000
  0.000000000000000E+000
  0.000000000000000E+000
  0.000000000000000E+000
  0.000000000000000E+000
  0.000000000000000E+000
  0.000000000000000E+000
  0.000000000000000E+000
  0.000000000000000E+000
  0.000000000000000E+000
  0.000000000000000E+000
  0.000000000000000E+000
  0.000000000000000E+000
  0.000000000000000E+000
  0.000000000000000E+000
  0.000000000000000E+000
  0.000000000000000E+000
  0.000000000000000E+000
  0.000000000000000E+000
  0.000000000000000E+000
  0.000000000000000E+000
  0.000000000000000E+000
  0.000000000000000E+000
  0.000000000000000E+000
  0.000000000000000E+000
  0.000000000000000E+000
  0.000000000000000E+000
  0.000000000000000E+000
  0.000000000000000E+000
  0.000000000000000E+000
  0.000000000000000E+000
  0.000000000000000E+000
  0.000000000000000E+000
  0.000000000000000E+000
  0.000000000000000E+000
  0.000000000000000E+000
  0.000000000000000E+000
  0.000000000000000E+000
  0.000000000000000E+000
  0.000000000000000E+000
  0.000000000000000E+000
  0.000000000000000E+000
  0.000000000000000E+000
  0.000000000000000E+000
  0.000000000000000E+000
  0.000000000000000E+000
  0.000000000000000E+000
  0.000000000000000E+000
  0.000000000000000E+000
  0.000000000000000E+000
  0.000000000000000E+000
  0.000000000000000E+000
  0.000000000000000E+000
  0.000000000000000E+000
  0.000000000000000E+000
  0.000000000000000E+000
  0.000000000000000E+000
  0.000000000000000E+000
  0.000000000000000E+000
  0.000000000000000E+000
  0.000000000000000E+000
  0.000000000000000E+000
  0.000000000000000E+000
  0.000000000000000E+000
  0.000000000000000E+000
  0.000000000000000E+000
  0.000000000000000E+000
  0.000000000000000E+000
  0.000000000000000E+000
  0.000000000000000E+000
  0.000000000000000E+000
  0.000000000000000E+000
  0.000000000000000E+000
  0.000000000000000E+000
  0.000000000000000E+000
  0.000000000000000E+000
  0.000000000000000E+000
  0.000000000000000E+000
  0.000000000000000E+000
  0.000000000000000E+000
  0.000000000000000E+000
  0.000000000000000E+000
  0.000000000000000E+000
  0.000000000000000E+000
  0.000000000000000E+000
  0.000000000000000E+000
  0.000000000000000E+000
  0.000000000000000E+000
  0.000000000000000E+000
  0.000000000000000E+000
  0.000000000000000E+000
  0.000000000000000E+000
  0.000000000000000E+000
  0.000000000000000E+000
  0.000000000000000E+000
  0.000000000000000E+000
  0.000000000000000E+000
  0.000000000000000E+000
  0.000000000000000E+000
  0.000000000000000E+000
  0.000000000000000E+000
  0.000000000000000E+000
  0.000000000000000E+000
  0.000000000000000E+000
  0.000000000000000E+000
  0.000000000000000E+000
  0.000000000000000E+000
  0.000000000000000E+000
  0.000000000000000E+000
  0.000000000000000E+000
  0.000000000000000E+000
  0.000000000000000E+000
  0.000000000000000E+000
  0.000000000000000E+000
  0.000000000000000E+000
  0.000000000000000E+000
  0.000000000000000E+000
  0.000000000000000E+000
  0.000000000000000E+000
  0.000000000000000E+000
  0.000000000000000E+000
  0.000000000000000E+000
  0.000000000000000E+000
  0.000000000000000E+000
  0.000000000000000E+000
  0.000000000000000E+000
  0.000000000000000E+000
  0.000000000000000E+000
  0.000000000000000E+000
  0.000000000000000E+000
  0.000000000000000E+000
  0.000000000000000E+000
  0.000000000000000E+000
  0.000000000000000E+000
  0.000000000000000E+000
  0.000000000000000E+000
  0.000000000000000E+000
  0.000000000000000E+000
  0.000000000000000E+000
  0.000000000000000E+000
  0.000000000000000E+000
  0.000000000000000E+000
  0.000000000000000E+000
  0.000000000000000E+000
  0.000000000000000E+000
  0.000000000000000E+000
  0.000000000000000E+000
  0.000000000000000E+000
  0.000000000000000E+000
  0.000000000000000E+000
  0.000000000000000E+000
  0.000000000000000E+000
  0.000000000000000E+000
  0.000000000000000E+000
  0.000000000000000E+000
  0.000000000000000E+000
  0.000000000000000E+000
  0.000000000000000E+000
  0.000000000000000E+000
  0.000000000000000E+000
  0.000000000000000E+000
  0.000000000000000E+000
  0.000000000000000E+000
  0.000000000000000E+000
  0.000000000000000E+000
  0.000000000000000E+000
  0.000000000000000E+000
  0.000000000000000E+000
  0.000000000000000E+000
  0.000000000000000E+000
  0.000000000000000E+000
  0.000000000000000E+000
  0.000000000000000E+000
  0.000000000000000E+000
  0.000000000000000E+000
  0.000000000000000E+000
  0.000000000000000E+000
  0.000000000000000E+000
  0.000000000000000E+000
  0.000000000000000E+000
  0.000000000000000E+000
  0.000000000000000E+000
  0.000000000000000E+000
SCALARS elementIsPlast double 
LOOKUP_TABLE default
   1.00000000000000     
  0.000000000000000E+000
  0.000000000000000E+000
  0.000000000000000E+000
  0.000000000000000E+000
  0.000000000000000E+000
  0.000000000000000E+000
  0.000000000000000E+000
  0.000000000000000E+000
  0.000000000000000E+000
  0.000000000000000E+000
  0.000000000000000E+000
  0.000000000000000E+000
  0.000000000000000E+000
  0.000000000000000E+000
  0.000000000000000E+000
  0.000000000000000E+000
  0.000000000000000E+000
  0.000000000000000E+000
  0.000000000000000E+000
  0.000000000000000E+000
  0.000000000000000E+000
  0.000000000000000E+000
  0.000000000000000E+000
  0.000000000000000E+000
  0.000000000000000E+000
  0.000000000000000E+000
  0.000000000000000E+000
  0.000000000000000E+000
  0.000000000000000E+000
  0.000000000000000E+000
  0.000000000000000E+000
  0.000000000000000E+000
  0.000000000000000E+000
  0.000000000000000E+000
  0.000000000000000E+000
  0.000000000000000E+000
  0.000000000000000E+000
  0.000000000000000E+000
  0.000000000000000E+000
  0.000000000000000E+000
  0.000000000000000E+000
  0.000000000000000E+000
  0.000000000000000E+000
  0.000000000000000E+000
  0.000000000000000E+000
  0.000000000000000E+000
  0.000000000000000E+000
  0.000000000000000E+000
  0.000000000000000E+000
  0.000000000000000E+000
  0.000000000000000E+000
  0.000000000000000E+000
  0.000000000000000E+000
  0.000000000000000E+000
  0.000000000000000E+000
  0.000000000000000E+000
  0.000000000000000E+000
  0.000000000000000E+000
  0.000000000000000E+000
  0.000000000000000E+000
  0.000000000000000E+000
  0.000000000000000E+000
  0.000000000000000E+000
  0.000000000000000E+000
  0.000000000000000E+000
  0.000000000000000E+000
  0.000000000000000E+000
  0.000000000000000E+000
  0.000000000000000E+000
  0.000000000000000E+000
  0.000000000000000E+000
  0.000000000000000E+000
  0.000000000000000E+000
  0.000000000000000E+000
  0.000000000000000E+000
  0.000000000000000E+000
  0.000000000000000E+000
  0.000000000000000E+000
  0.000000000000000E+000
  0.000000000000000E+000
  0.000000000000000E+000
  0.000000000000000E+000
  0.000000000000000E+000
  0.000000000000000E+000
  0.000000000000000E+000
  0.000000000000000E+000
  0.000000000000000E+000
  0.000000000000000E+000
  0.000000000000000E+000
  0.000000000000000E+000
  0.000000000000000E+000
  0.000000000000000E+000
  0.000000000000000E+000
  0.000000000000000E+000
  0.000000000000000E+000
  0.000000000000000E+000
  0.000000000000000E+000
  0.000000000000000E+000
  0.000000000000000E+000
  0.000000000000000E+000
  0.000000000000000E+000
  0.000000000000000E+000
  0.000000000000000E+000
  0.000000000000000E+000
  0.000000000000000E+000
  0.000000000000000E+000
  0.000000000000000E+000
  0.000000000000000E+000
  0.000000000000000E+000
  0.000000000000000E+000
  0.000000000000000E+000
  0.000000000000000E+000
  0.000000000000000E+000
  0.000000000000000E+000
  0.000000000000000E+000
  0.000000000000000E+000
  0.000000000000000E+000
  0.000000000000000E+000
  0.000000000000000E+000
  0.000000000000000E+000
  0.000000000000000E+000
  0.000000000000000E+000
  0.000000000000000E+000
  0.000000000000000E+000
  0.000000000000000E+000
  0.000000000000000E+000
  0.000000000000000E+000
  0.000000000000000E+000
  0.000000000000000E+000
  0.000000000000000E+000
  0.000000000000000E+000
  0.000000000000000E+000
  0.000000000000000E+000
  0.000000000000000E+000
  0.000000000000000E+000
  0.000000000000000E+000
  0.000000000000000E+000
  0.000000000000000E+000
  0.000000000000000E+000
  0.000000000000000E+000
  0.000000000000000E+000
  0.000000000000000E+000
  0.000000000000000E+000
  0.000000000000000E+000
  0.000000000000000E+000
  0.000000000000000E+000
  0.000000000000000E+000
  0.000000000000000E+000
  0.000000000000000E+000
  0.000000000000000E+000
  0.000000000000000E+000
  0.000000000000000E+000
  0.000000000000000E+000
  0.000000000000000E+000
  0.000000000000000E+000
  0.000000000000000E+000
  0.000000000000000E+000
  0.000000000000000E+000
  0.000000000000000E+000
  0.000000000000000E+000
  0.000000000000000E+000
  0.000000000000000E+000
  0.000000000000000E+000
  0.000000000000000E+000
  0.000000000000000E+000
  0.000000000000000E+000
  0.000000000000000E+000
  0.000000000000000E+000
  0.000000000000000E+000
  0.000000000000000E+000
  0.000000000000000E+000
  0.000000000000000E+000
  0.000000000000000E+000
  0.000000000000000E+000
  0.000000000000000E+000
  0.000000000000000E+000
  0.000000000000000E+000
  0.000000000000000E+000
  0.000000000000000E+000
  0.000000000000000E+000
  0.000000000000000E+000
  0.000000000000000E+000
  0.000000000000000E+000
  0.000000000000000E+000
  0.000000000000000E+000
  0.000000000000000E+000
  0.000000000000000E+000
  0.000000000000000E+000
  0.000000000000000E+000
  0.000000000000000E+000
  0.000000000000000E+000
  0.000000000000000E+000
  0.000000000000000E+000
  0.000000000000000E+000
  0.000000000000000E+000
  0.000000000000000E+000
  0.000000000000000E+000
  0.000000000000000E+000
  0.000000000000000E+000
  0.000000000000000E+000
  0.000000000000000E+000
  0.000000000000000E+000
  0.000000000000000E+000
  0.000000000000000E+000
  0.000000000000000E+000
  0.000000000000000E+000
  0.000000000000000E+000
  0.000000000000000E+000
  0.000000000000000E+000
  0.000000000000000E+000
  0.000000000000000E+000
  0.000000000000000E+000
  0.000000000000000E+000
  0.000000000000000E+000
  0.000000000000000E+000
  0.000000000000000E+000
  0.000000000000000E+000
  0.000000000000000E+000
  0.000000000000000E+000
  0.000000000000000E+000
  0.000000000000000E+000
  0.000000000000000E+000
  0.000000000000000E+000
  0.000000000000000E+000
  0.000000000000000E+000
  0.000000000000000E+000
  0.000000000000000E+000
  0.000000000000000E+000
  0.000000000000000E+000
  0.000000000000000E+000
  0.000000000000000E+000
  0.000000000000000E+000
  0.000000000000000E+000
  0.000000000000000E+000
  0.000000000000000E+000
  0.000000000000000E+000
  0.000000000000000E+000
  0.000000000000000E+000
  0.000000000000000E+000
  0.000000000000000E+000
  0.000000000000000E+000
  0.000000000000000E+000
  0.000000000000000E+000
  0.000000000000000E+000
  0.000000000000000E+000
  0.000000000000000E+000
  0.000000000000000E+000
  0.000000000000000E+000
  0.000000000000000E+000
  0.000000000000000E+000
  0.000000000000000E+000
  0.000000000000000E+000
  0.000000000000000E+000
  0.000000000000000E+000
  0.000000000000000E+000
  0.000000000000000E+000
  0.000000000000000E+000
  0.000000000000000E+000
  0.000000000000000E+000
  0.000000000000000E+000
  0.000000000000000E+000
  0.000000000000000E+000
  0.000000000000000E+000
  0.000000000000000E+000
  0.000000000000000E+000
  0.000000000000000E+000
  0.000000000000000E+000
  0.000000000000000E+000
  0.000000000000000E+000
  0.000000000000000E+000
  0.000000000000000E+000
  0.000000000000000E+000
  0.000000000000000E+000
  0.000000000000000E+000
  0.000000000000000E+000
  0.000000000000000E+000
  0.000000000000000E+000
  0.000000000000000E+000
  0.000000000000000E+000
  0.000000000000000E+000
  0.000000000000000E+000
  0.000000000000000E+000
  0.000000000000000E+000
  0.000000000000000E+000
  0.000000000000000E+000
  0.000000000000000E+000
  0.000000000000000E+000
  0.000000000000000E+000
  0.000000000000000E+000
  0.000000000000000E+000
  0.000000000000000E+000
  0.000000000000000E+000
  0.000000000000000E+000
  0.000000000000000E+000
  0.000000000000000E+000
  0.000000000000000E+000
  0.000000000000000E+000
  0.000000000000000E+000
  0.000000000000000E+000
  0.000000000000000E+000
  0.000000000000000E+000
  0.000000000000000E+000
  0.000000000000000E+000
  0.000000000000000E+000
  0.000000000000000E+000
  0.000000000000000E+000
  0.000000000000000E+000
  0.000000000000000E+000
  0.000000000000000E+000
  0.000000000000000E+000
  0.000000000000000E+000
  0.000000000000000E+000
  0.000000000000000E+000
  0.000000000000000E+000
  0.000000000000000E+000
  0.000000000000000E+000
  0.000000000000000E+000
  0.000000000000000E+000
  0.000000000000000E+000
  0.000000000000000E+000
  0.000000000000000E+000
  0.000000000000000E+000
  0.000000000000000E+000
  0.000000000000000E+000
  0.000000000000000E+000
  0.000000000000000E+000
  0.000000000000000E+000
  0.000000000000000E+000
  0.000000000000000E+000
  0.000000000000000E+000
  0.000000000000000E+000
  0.000000000000000E+000
  0.000000000000000E+000
  0.000000000000000E+000
  0.000000000000000E+000
  0.000000000000000E+000
  0.000000000000000E+000
  0.000000000000000E+000
  0.000000000000000E+000
  0.000000000000000E+000
  0.000000000000000E+000
  0.000000000000000E+000
  0.000000000000000E+000
  0.000000000000000E+000
  0.000000000000000E+000
  0.000000000000000E+000
  0.000000000000000E+000
  0.000000000000000E+000
  0.000000000000000E+000
  0.000000000000000E+000
  0.000000000000000E+000
  0.000000000000000E+000
  0.000000000000000E+000
  0.000000000000000E+000
  0.000000000000000E+000
  0.000000000000000E+000
  0.000000000000000E+000
  0.000000000000000E+000
  0.000000000000000E+000
  0.000000000000000E+000
  0.000000000000000E+000
  0.000000000000000E+000
  0.000000000000000E+000
  0.000000000000000E+000
  0.000000000000000E+000
  0.000000000000000E+000
  0.000000000000000E+000
  0.000000000000000E+000
  0.000000000000000E+000
  0.000000000000000E+000
  0.000000000000000E+000
  0.000000000000000E+000
  0.000000000000000E+000
  0.000000000000000E+000
  0.000000000000000E+000
  0.000000000000000E+000
  0.000000000000000E+000
  0.000000000000000E+000
  0.000000000000000E+000
  0.000000000000000E+000
  0.000000000000000E+000
  0.000000000000000E+000
  0.000000000000000E+000
  0.000000000000000E+000
  0.000000000000000E+000
  0.000000000000000E+000
  0.000000000000000E+000
  0.000000000000000E+000
  0.000000000000000E+000
  0.000000000000000E+000
  0.000000000000000E+000
  0.000000000000000E+000
  0.000000000000000E+000
  0.000000000000000E+000
  0.000000000000000E+000
  0.000000000000000E+000
  0.000000000000000E+000
  0.000000000000000E+000
  0.000000000000000E+000
  0.000000000000000E+000
  0.000000000000000E+000
  0.000000000000000E+000
  0.000000000000000E+000
  0.000000000000000E+000
  0.000000000000000E+000
  0.000000000000000E+000
  0.000000000000000E+000
  0.000000000000000E+000
  0.000000000000000E+000
  0.000000000000000E+000
  0.000000000000000E+000
  0.000000000000000E+000
  0.000000000000000E+000
  0.000000000000000E+000
  0.000000000000000E+000
  0.000000000000000E+000
  0.000000000000000E+000
  0.000000000000000E+000
  0.000000000000000E+000
  0.000000000000000E+000
  0.000000000000000E+000
  0.000000000000000E+000
  0.000000000000000E+000
  0.000000000000000E+000
  0.000000000000000E+000
  0.000000000000000E+000
  0.000000000000000E+000
  0.000000000000000E+000
  0.000000000000000E+000
  0.000000000000000E+000
  0.000000000000000E+000
  0.000000000000000E+000
  0.000000000000000E+000
  0.000000000000000E+000
  0.000000000000000E+000
  0.000000000000000E+000
  0.000000000000000E+000
  0.000000000000000E+000
  0.000000000000000E+000
  0.000000000000000E+000
  0.000000000000000E+000
  0.000000000000000E+000
  0.000000000000000E+000
  0.000000000000000E+000
  0.000000000000000E+000
  0.000000000000000E+000
  0.000000000000000E+000
  0.000000000000000E+000
  0.000000000000000E+000
SCALARS poroL double 
LOOKUP_TABLE default
  0.156206116306877     
  0.156174716799331     
  0.156156136599711     
  0.156143704520864     
  0.156134224840244     
  0.156126515232154     
  0.156119955146636     
  0.156114167097689     
  0.156108884751712     
  0.156103885292717     
  0.156098939050785     
  0.156093749600046     
  0.156087832272659     
  0.156080248215206     
  0.156067593829812     
  0.156146261365162     
  0.156136318455169     
  0.156124077236295     
  0.156113821437136     
  0.156105503475757     
  0.156098520792639     
  0.156092477341467     
  0.156087096704217     
  0.156082170816820     
  0.156077521877069     
  0.156072972199256     
  0.156068310145707     
  0.156063265150476     
  0.156057366365534     
  0.156051889805132     
  0.156110416259343     
  0.156104475340256     
  0.156097318039889     
  0.156089873069503     
  0.156083094535758     
  0.156077074246724     
  0.156071696271597     
  0.156066827328452     
  0.156062344455765     
  0.156058136467653     
  0.156054100032398     
  0.156050145872393     
  0.156046219145183     
  0.156042621317813     
  0.156040038681557     
  0.156082921874921     
  0.156080248900850     
  0.156075724435033     
  0.156070524754873     
  0.156065247760080     
  0.156060236558360     
  0.156055582001528     
  0.156051277494087     
  0.156047285195416     
  0.156043562653237     
  0.156040080284938     
  0.156036844560120     
  0.156033971971418     
  0.156031748714985     
  0.156030713152579     
  0.156062654601154     
  0.156061442632394     
  0.156058604178874     
  0.156054873448012     
  0.156050794989519     
  0.156046687839025     
  0.156042725412512     
  0.156038981122516     
  0.156035481626914     
  0.156032239859829     
  0.156029279663810     
  0.156026665921636     
  0.156024536952445     
  0.156023140629972     
  0.156022836409649     
  0.156047442784714     
  0.156046833016989     
  0.156044884176769     
  0.156042100013692     
  0.156038876230388     
  0.156035494828704     
  0.156032134008351     
  0.156028900477228     
  0.156025857988887     
  0.156023054009559     
  0.156020542541342     
  0.156018405028933     
  0.156016770166265     
  0.156015824889388     
  0.156015811597576     
  0.156035731258323     
  0.156035223165770     
  0.156033686686782     
  0.156031452335481     
  0.156028804856996     
  0.156025964850949     
  0.156023091337807     
  0.156020293606071     
  0.156017648764525     
  0.156015219172657     
  0.156013068714249     
  0.156011276941145     
  0.156009949349161     
  0.156009221477196     
  0.156009253530972     
  0.156026334704403     
  0.156025669460425     
  0.156024253004526     
  0.156022303692345     
  0.156020019113143     
  0.156017563760325     
  0.156015065902943     
  0.156012622405738     
  0.156010307671807     
  0.156008184327303     
  0.156006313535525     
  0.156004763577719     
  0.156003615341443     
  0.156002963240025     
  0.156002910746580     
  0.156018380640822     
  0.156017431102251     
  0.156015968037928     
  0.156014134069004     
  0.156012062744809     
  0.156009870582814     
  0.156007653901634     
  0.156005490028020     
  0.156003441680716     
  0.156001562853842     
  0.155999904797195     
  0.155998520858161     
  0.155997469160632     
  0.155996812364528     
  0.155996614209872     
  0.156011218512980     
  0.156009934832633     
  0.156008338506907     
  0.156006519754045     
  0.156004564429817     
  0.156002549892136     
  0.156000542689025     
  0.155998598551082     
  0.155996764266421     
  0.155995080644040     
  0.155993585642647     
  0.155992316824356     
  0.155991312447425     
  0.155990610761497     
  0.155990247429774     
  0.156004355020232     
  0.156002733873985     
  0.156000970460294     
  0.155999116698417     
  0.155997222053889     
  0.155995331956081     
  0.155993486544901     
  0.155991720354393     
  0.155990062965025     
  0.155988540282192     
  0.155987175940881     
  0.155985992321303     
  0.155985010756036     
  0.155984250682911     
  0.155983727728376     
  0.155997406710181     
  0.155995475235621     
  0.155993547335152     
  0.155991645103190     
  0.155989789102052     
  0.155987998362549     
  0.155986289958512     
  0.155984678741375     
  0.155983177431103     
  0.155981796986435     
  0.155980547024623     
  0.155979436018284     
  0.155978471038440     
  0.155977656915295     
  0.155976994824658     
  0.155990067425472     
  0.155987875049638     
  0.155985812225693     
  0.155983876265049     
  0.155982063740613     
  0.155980371354775     
  0.155978796056072     
  0.155977334898759     
  0.155975984892740     
  0.155974742900516     
  0.155973605518773     
  0.155972568832738     
  0.155971627940742     
  0.155970776197276     
  0.155970004194907     
  0.155982086609596     
  0.155979701181676     
  0.155977554602800     
  0.155975622427009     
  0.155973880483501     
  0.155972306133833     
  0.155970878674971     
  0.155969579284584     
  0.155968390753499     
  0.155967297126297     
  0.155966283285674     
  0.155965334471779     
  0.155964435719428     
  0.155963571213630     
  0.155962723594090     
  0.155973255482819     
  0.155970761626873     
  0.155968601087754     
  0.155966729538354     
  0.155965104276427     
  0.155963685568964     
  0.155962437144513     
  0.155961326142877     
  0.155960322746599     
  0.155959399644817     
  0.155958531424002     
  0.155957693944237     
  0.155956863742600     
  0.155956017501601     
  0.155955131623254     
  0.155963398796030     
  0.155960897325230     
  0.155958809571343     
  0.155957072570263     
  0.155955626687019     
  0.155954416872538     
  0.155953393103074     
  0.155952510241144     
  0.155951727521326     
  0.155951007829091     
  0.155950316908473     
  0.155949622606882     
  0.155948894243274     
  0.155948102167733     
  0.155947217563406     
  0.155952370491276     
  0.155949978251601     
  0.155948065968460     
  0.155946552940985     
  0.155945363851430     
  0.155944429851215     
  0.155943688847967     
  0.155943085179417     
  0.155942568866863     
  0.155942094637467     
  0.155941620890856     
  0.155941108763822     
  0.155940521420017     
  0.155939823661061     
  0.155938981921662     
  0.155940052051446     
  0.155937901879752     
  0.155936282987370     
  0.155935097623177     
  0.155934255840388     
  0.155933676397911     
  0.155933286822480     
  0.155933022784902     
  0.155932826993351     
  0.155932647830891     
  0.155932437963515     
  0.155932153124357     
  0.155931751245501     
  0.155931192065014     
  0.155930437286101     
  0.155926352642258     
  0.155924593330328     
  0.155923400414801     
  0.155922659573137     
  0.155922267155891     
  0.155922130944789     
  0.155922169923869     
  0.155922313215021     
  0.155922498427451     
  0.155922669717857     
  0.155922775860529     
  0.155922768598800     
  0.155922601503102     
  0.155922229501792     
  0.155921609180695     
  0.155911210367109     
  0.155910006688362     
  0.155909386550352     
  0.155909219217467     
  0.155909388141007     
  0.155909791658020     
  0.155910342377881     
  0.155910965462763     
  0.155911596163040     
  0.155912177024577     
  0.155912655170221     
  0.155912980008291     
  0.155913101658872     
  0.155912970315072     
  0.155912536665079     
  0.155894594103542     
  0.155894127135465     
  0.155894240573524     
  0.155894786856596     
  0.155895637177005     
  0.155896682219448     
  0.155897830973460     
  0.155899008001296     
  0.155900149752052     
  0.155901200534060     
  0.155902108677327     
  0.155902823323964     
  0.155903292209100     
  0.155903460724473     
  0.155903272446930     
  0.155876505504522     
  0.155876973722496     
  0.155877995824692     
  0.155879406013258     
  0.155881063657014     
  0.155882854103307     
  0.155884686481366     
  0.155886489322021     
  0.155888205035823     
  0.155889784150316     
  0.155891179957239     
  0.155892344042707     
  0.155893223128622     
  0.155893757633368     
  0.155893882276023     
  0.155856980873135     
  0.155858602881026     
  0.155860724291233     
  0.155863158001323     
  0.155865751862597     
  0.155868389298174     
  0.155870985073657     
  0.155873478107348     
  0.155875823213215     
  0.155877983040623     
  0.155879920819398     
  0.155881594253387     
  0.155882950971634     
  0.155883926213216     
  0.155884443371576     
  0.155836092836326     
  0.155839113280359     
  0.155842543145143     
  0.155846168367000     
  0.155849826002721     
  0.155853403385261     
  0.155856829471724     
  0.155860062725315     
  0.155863078943736     
  0.155865860517658     
  0.155868387170306     
  0.155870627830265     
  0.155872534018100     
  0.155874035736429     
  0.155875041594777     
  0.155813952204410     
  0.155818653757666     
  0.155823625245129     
  0.155828616418120     
  0.155833456680716     
  0.155838048602769     
  0.155842349289785     
  0.155846349638282     
  0.155850057232906     
  0.155853483453739     
  0.155856632848771     
  0.155859493043079     
  0.155862024463518     
  0.155864152821621     
  0.155865766942777     
  0.155790711769121     
  0.155797438652574     
  0.155804217768683     
  0.155810749704814     
  0.155816868468059     
  0.155822515687415     
  0.155827699466604     
  0.155832460208444     
  0.155836849129778     
  0.155840916298440     
  0.155844701372120     
  0.155848221386427     
  0.155851456117144     
  0.155854330173865     
  0.155856706758235     
  0.155766577089724     
  0.155775782760098     
  0.155784677413107     
  0.155792905008116     
  0.155800345908613     
  0.155807031079509     
  0.155813055109303     
  0.155818525358511     
  0.155823546591082     
  0.155828215237366     
  0.155832615605245     
  0.155836812531350     
  0.155840822826595     
  0.155844587959141     
  0.155847934103152     
  0.155741850064485     
  0.155754187591835     
  0.155765538881797     
  0.155775531163995     
  0.155784225560846     
  0.155791845095542     
  0.155798600705472     
  0.155804677727648     
  0.155810237465383     
  0.155815424358843     
  0.155820372844566     
  0.155825209433686     
  0.155830048186941     
  0.155834868722325     
  0.155839491489531     
  0.155717079433969     
  0.155733606983723     
  0.155747622464331     
  0.155759154015500     
  0.155768864711829     
  0.155777206131108     
  0.155784512910914     
  0.155791041445313     
  0.155797001279643     
  0.155802577241856     
  0.155807948169828     
  0.155813307226568     
  0.155818879687207     
  0.155824986200351     
  0.155831311563174     
  0.155694288414466     
  0.155716071404635     
  0.155731811770804     
  0.155744283020676     
  0.155754575723231     
  0.155763323044542     
  0.155770938227815     
  0.155777720314672     
  0.155783906139786     
  0.155789703109608     
  0.155795316316041     
  0.155800980456367     
  0.155807017982311     
  0.155813958944520     
  0.155823341134668     
