# vtk DataFile Version 3.0
vtk output
ASCII
DATASET UNSTRUCTURED_GRID
POINTS       496 double 
  0.00000000E+00  3.00000000E+02  0.00000000E+00
  0.00000000E+00  2.80000000E+02  0.00000000E+00
  0.00000000E+00  2.60000000E+02  0.00000000E+00
  0.00000000E+00  2.40000000E+02  0.00000000E+00
  0.00000000E+00  2.20000000E+02  0.00000000E+00
  0.00000000E+00  2.00000000E+02  0.00000000E+00
  0.00000000E+00  1.80000000E+02  0.00000000E+00
  0.00000000E+00  1.60000000E+02  0.00000000E+00
  0.00000000E+00  1.40000000E+02  0.00000000E+00
  0.00000000E+00  1.20000000E+02  0.00000000E+00
  0.00000000E+00  1.00000000E+02  0.00000000E+00
  0.00000000E+00  8.00000000E+01  0.00000000E+00
  0.00000000E+00  6.00000000E+01  0.00000000E+00
  0.00000000E+00  4.00000000E+01  0.00000000E+00
  0.00000000E+00  2.00000000E+01  0.00000000E+00
  0.00000000E+00  4.99600361E-14  0.00000000E+00
  2.00000000E+01  3.00000000E+02  0.00000000E+00
  2.00000000E+01  2.80000000E+02  0.00000000E+00
  2.00000000E+01  2.60000000E+02  0.00000000E+00
  2.00000000E+01  2.40000000E+02  0.00000000E+00
  2.00000000E+01  2.20000000E+02  0.00000000E+00
  2.00000000E+01  2.00000000E+02  0.00000000E+00
  2.00000000E+01  1.80000000E+02  0.00000000E+00
  2.00000000E+01  1.60000000E+02  0.00000000E+00
  2.00000000E+01  1.40000000E+02  0.00000000E+00
  2.00000000E+01  1.20000000E+02  0.00000000E+00
  2.00000000E+01  1.00000000E+02  0.00000000E+00
  2.00000000E+01  8.00000000E+01  0.00000000E+00
  2.00000000E+01  6.00000000E+01  0.00000000E+00
  2.00000000E+01  4.00000000E+01  0.00000000E+00
  2.00000000E+01  2.00000000E+01  0.00000000E+00
  2.00000000E+01  4.99600361E-14  0.00000000E+00
  4.00000000E+01  3.00000000E+02  0.00000000E+00
  4.00000000E+01  2.80000000E+02  0.00000000E+00
  4.00000000E+01  2.60000000E+02  0.00000000E+00
  4.00000000E+01  2.40000000E+02  0.00000000E+00
  4.00000000E+01  2.20000000E+02  0.00000000E+00
  4.00000000E+01  2.00000000E+02  0.00000000E+00
  4.00000000E+01  1.80000000E+02  0.00000000E+00
  4.00000000E+01  1.60000000E+02  0.00000000E+00
  4.00000000E+01  1.40000000E+02  0.00000000E+00
  4.00000000E+01  1.20000000E+02  0.00000000E+00
  4.00000000E+01  1.00000000E+02  0.00000000E+00
  4.00000000E+01  8.00000000E+01  0.00000000E+00
  4.00000000E+01  6.00000000E+01  0.00000000E+00
  4.00000000E+01  4.00000000E+01  0.00000000E+00
  4.00000000E+01  2.00000000E+01  0.00000000E+00
  4.00000000E+01  4.99600361E-14  0.00000000E+00
  6.00000000E+01  3.00000000E+02  0.00000000E+00
  6.00000000E+01  2.80000000E+02  0.00000000E+00
  6.00000000E+01  2.60000000E+02  0.00000000E+00
  6.00000000E+01  2.40000000E+02  0.00000000E+00
  6.00000000E+01  2.20000000E+02  0.00000000E+00
  6.00000000E+01  2.00000000E+02  0.00000000E+00
  6.00000000E+01  1.80000000E+02  0.00000000E+00
  6.00000000E+01  1.60000000E+02  0.00000000E+00
  6.00000000E+01  1.40000000E+02  0.00000000E+00
  6.00000000E+01  1.20000000E+02  0.00000000E+00
  6.00000000E+01  1.00000000E+02  0.00000000E+00
  6.00000000E+01  8.00000000E+01  0.00000000E+00
  6.00000000E+01  6.00000000E+01  0.00000000E+00
  6.00000000E+01  4.00000000E+01  0.00000000E+00
  6.00000000E+01  2.00000000E+01  0.00000000E+00
  6.00000000E+01  4.99600361E-14  0.00000000E+00
  8.00000000E+01  3.00000000E+02  0.00000000E+00
  8.00000000E+01  2.80000000E+02  0.00000000E+00
  8.00000000E+01  2.60000000E+02  0.00000000E+00
  8.00000000E+01  2.40000000E+02  0.00000000E+00
  8.00000000E+01  2.20000000E+02  0.00000000E+00
  8.00000000E+01  2.00000000E+02  0.00000000E+00
  8.00000000E+01  1.80000000E+02  0.00000000E+00
  8.00000000E+01  1.60000000E+02  0.00000000E+00
  8.00000000E+01  1.40000000E+02  0.00000000E+00
  8.00000000E+01  1.20000000E+02  0.00000000E+00
  8.00000000E+01  1.00000000E+02  0.00000000E+00
  8.00000000E+01  8.00000000E+01  0.00000000E+00
  8.00000000E+01  6.00000000E+01  0.00000000E+00
  8.00000000E+01  4.00000000E+01  0.00000000E+00
  8.00000000E+01  2.00000000E+01  0.00000000E+00
  8.00000000E+01  4.99600361E-14  0.00000000E+00
  1.00000000E+02  3.00000000E+02  0.00000000E+00
  1.00000000E+02  2.80000000E+02  0.00000000E+00
  1.00000000E+02  2.60000000E+02  0.00000000E+00
  1.00000000E+02  2.40000000E+02  0.00000000E+00
  1.00000000E+02  2.20000000E+02  0.00000000E+00
  1.00000000E+02  2.00000000E+02  0.00000000E+00
  1.00000000E+02  1.80000000E+02  0.00000000E+00
  1.00000000E+02  1.60000000E+02  0.00000000E+00
  1.00000000E+02  1.40000000E+02  0.00000000E+00
  1.00000000E+02  1.20000000E+02  0.00000000E+00
  1.00000000E+02  1.00000000E+02  0.00000000E+00
  1.00000000E+02  8.00000000E+01  0.00000000E+00
  1.00000000E+02  6.00000000E+01  0.00000000E+00
  1.00000000E+02  4.00000000E+01  0.00000000E+00
  1.00000000E+02  2.00000000E+01  0.00000000E+00
  1.00000000E+02  4.99600361E-14  0.00000000E+00
  1.20000000E+02  3.00000000E+02  0.00000000E+00
  1.20000000E+02  2.80000000E+02  0.00000000E+00
  1.20000000E+02  2.60000000E+02  0.00000000E+00
  1.20000000E+02  2.40000000E+02  0.00000000E+00
  1.20000000E+02  2.20000000E+02  0.00000000E+00
  1.20000000E+02  2.00000000E+02  0.00000000E+00
  1.20000000E+02  1.80000000E+02  0.00000000E+00
  1.20000000E+02  1.60000000E+02  0.00000000E+00
  1.20000000E+02  1.40000000E+02  0.00000000E+00
  1.20000000E+02  1.20000000E+02  0.00000000E+00
  1.20000000E+02  1.00000000E+02  0.00000000E+00
  1.20000000E+02  8.00000000E+01  0.00000000E+00
  1.20000000E+02  6.00000000E+01  0.00000000E+00
  1.20000000E+02  4.00000000E+01  0.00000000E+00
  1.20000000E+02  2.00000000E+01  0.00000000E+00
  1.20000000E+02  4.99600361E-14  0.00000000E+00
  1.40000000E+02  3.00000000E+02  0.00000000E+00
  1.40000000E+02  2.80000000E+02  0.00000000E+00
  1.40000000E+02  2.60000000E+02  0.00000000E+00
  1.40000000E+02  2.40000000E+02  0.00000000E+00
  1.40000000E+02  2.20000000E+02  0.00000000E+00
  1.40000000E+02  2.00000000E+02  0.00000000E+00
  1.40000000E+02  1.80000000E+02  0.00000000E+00
  1.40000000E+02  1.60000000E+02  0.00000000E+00
  1.40000000E+02  1.40000000E+02  0.00000000E+00
  1.40000000E+02  1.20000000E+02  0.00000000E+00
  1.40000000E+02  1.00000000E+02  0.00000000E+00
  1.40000000E+02  8.00000000E+01  0.00000000E+00
  1.40000000E+02  6.00000000E+01  0.00000000E+00
  1.40000000E+02  4.00000000E+01  0.00000000E+00
  1.40000000E+02  2.00000000E+01  0.00000000E+00
  1.40000000E+02  4.99600361E-14  0.00000000E+00
  1.60000000E+02  3.00000000E+02  0.00000000E+00
  1.60000000E+02  2.80000000E+02  0.00000000E+00
  1.60000000E+02  2.60000000E+02  0.00000000E+00
  1.60000000E+02  2.40000000E+02  0.00000000E+00
  1.60000000E+02  2.20000000E+02  0.00000000E+00
  1.60000000E+02  2.00000000E+02  0.00000000E+00
  1.60000000E+02  1.80000000E+02  0.00000000E+00
  1.60000000E+02  1.60000000E+02  0.00000000E+00
  1.60000000E+02  1.40000000E+02  0.00000000E+00
  1.60000000E+02  1.20000000E+02  0.00000000E+00
  1.60000000E+02  1.00000000E+02  0.00000000E+00
  1.60000000E+02  8.00000000E+01  0.00000000E+00
  1.60000000E+02  6.00000000E+01  0.00000000E+00
  1.60000000E+02  4.00000000E+01  0.00000000E+00
  1.60000000E+02  2.00000000E+01  0.00000000E+00
  1.60000000E+02  4.99600361E-14  0.00000000E+00
  1.80000000E+02  3.00000000E+02  0.00000000E+00
  1.80000000E+02  2.80000000E+02  0.00000000E+00
  1.80000000E+02  2.60000000E+02  0.00000000E+00
  1.80000000E+02  2.40000000E+02  0.00000000E+00
  1.80000000E+02  2.20000000E+02  0.00000000E+00
  1.80000000E+02  2.00000000E+02  0.00000000E+00
  1.80000000E+02  1.80000000E+02  0.00000000E+00
  1.80000000E+02  1.60000000E+02  0.00000000E+00
  1.80000000E+02  1.40000000E+02  0.00000000E+00
  1.80000000E+02  1.20000000E+02  0.00000000E+00
  1.80000000E+02  1.00000000E+02  0.00000000E+00
  1.80000000E+02  8.00000000E+01  0.00000000E+00
  1.80000000E+02  6.00000000E+01  0.00000000E+00
  1.80000000E+02  4.00000000E+01  0.00000000E+00
  1.80000000E+02  2.00000000E+01  0.00000000E+00
  1.80000000E+02  4.99600361E-14  0.00000000E+00
  2.00000000E+02  3.00000000E+02  0.00000000E+00
  2.00000000E+02  2.80000000E+02  0.00000000E+00
  2.00000000E+02  2.60000000E+02  0.00000000E+00
  2.00000000E+02  2.40000000E+02  0.00000000E+00
  2.00000000E+02  2.20000000E+02  0.00000000E+00
  2.00000000E+02  2.00000000E+02  0.00000000E+00
  2.00000000E+02  1.80000000E+02  0.00000000E+00
  2.00000000E+02  1.60000000E+02  0.00000000E+00
  2.00000000E+02  1.40000000E+02  0.00000000E+00
  2.00000000E+02  1.20000000E+02  0.00000000E+00
  2.00000000E+02  1.00000000E+02  0.00000000E+00
  2.00000000E+02  8.00000000E+01  0.00000000E+00
  2.00000000E+02  6.00000000E+01  0.00000000E+00
  2.00000000E+02  4.00000000E+01  0.00000000E+00
  2.00000000E+02  2.00000000E+01  0.00000000E+00
  2.00000000E+02  4.99600361E-14  0.00000000E+00
  2.20000000E+02  3.00000000E+02  0.00000000E+00
  2.20000000E+02  2.80000000E+02  0.00000000E+00
  2.20000000E+02  2.60000000E+02  0.00000000E+00
  2.20000000E+02  2.40000000E+02  0.00000000E+00
  2.20000000E+02  2.20000000E+02  0.00000000E+00
  2.20000000E+02  2.00000000E+02  0.00000000E+00
  2.20000000E+02  1.80000000E+02  0.00000000E+00
  2.20000000E+02  1.60000000E+02  0.00000000E+00
  2.20000000E+02  1.40000000E+02  0.00000000E+00
  2.20000000E+02  1.20000000E+02  0.00000000E+00
  2.20000000E+02  1.00000000E+02  0.00000000E+00
  2.20000000E+02  8.00000000E+01  0.00000000E+00
  2.20000000E+02  6.00000000E+01  0.00000000E+00
  2.20000000E+02  4.00000000E+01  0.00000000E+00
  2.20000000E+02  2.00000000E+01  0.00000000E+00
  2.20000000E+02  4.99600361E-14  0.00000000E+00
  2.40000000E+02  3.00000000E+02  0.00000000E+00
  2.40000000E+02  2.80000000E+02  0.00000000E+00
  2.40000000E+02  2.60000000E+02  0.00000000E+00
  2.40000000E+02  2.40000000E+02  0.00000000E+00
  2.40000000E+02  2.20000000E+02  0.00000000E+00
  2.40000000E+02  2.00000000E+02  0.00000000E+00
  2.40000000E+02  1.80000000E+02  0.00000000E+00
  2.40000000E+02  1.60000000E+02  0.00000000E+00
  2.40000000E+02  1.40000000E+02  0.00000000E+00
  2.40000000E+02  1.20000000E+02  0.00000000E+00
  2.40000000E+02  1.00000000E+02  0.00000000E+00
  2.40000000E+02  8.00000000E+01  0.00000000E+00
  2.40000000E+02  6.00000000E+01  0.00000000E+00
  2.40000000E+02  4.00000000E+01  0.00000000E+00
  2.40000000E+02  2.00000000E+01  0.00000000E+00
  2.40000000E+02  4.99600361E-14  0.00000000E+00
  2.60000000E+02  3.00000000E+02  0.00000000E+00
  2.60000000E+02  2.80000000E+02  0.00000000E+00
  2.60000000E+02  2.60000000E+02  0.00000000E+00
  2.60000000E+02  2.40000000E+02  0.00000000E+00
  2.60000000E+02  2.20000000E+02  0.00000000E+00
  2.60000000E+02  2.00000000E+02  0.00000000E+00
  2.60000000E+02  1.80000000E+02  0.00000000E+00
  2.60000000E+02  1.60000000E+02  0.00000000E+00
  2.60000000E+02  1.40000000E+02  0.00000000E+00
  2.60000000E+02  1.20000000E+02  0.00000000E+00
  2.60000000E+02  1.00000000E+02  0.00000000E+00
  2.60000000E+02  8.00000000E+01  0.00000000E+00
  2.60000000E+02  6.00000000E+01  0.00000000E+00
  2.60000000E+02  4.00000000E+01  0.00000000E+00
  2.60000000E+02  2.00000000E+01  0.00000000E+00
  2.60000000E+02  4.99600361E-14  0.00000000E+00
  2.80000000E+02  3.00000000E+02  0.00000000E+00
  2.80000000E+02  2.80000000E+02  0.00000000E+00
  2.80000000E+02  2.60000000E+02  0.00000000E+00
  2.80000000E+02  2.40000000E+02  0.00000000E+00
  2.80000000E+02  2.20000000E+02  0.00000000E+00
  2.80000000E+02  2.00000000E+02  0.00000000E+00
  2.80000000E+02  1.80000000E+02  0.00000000E+00
  2.80000000E+02  1.60000000E+02  0.00000000E+00
  2.80000000E+02  1.40000000E+02  0.00000000E+00
  2.80000000E+02  1.20000000E+02  0.00000000E+00
  2.80000000E+02  1.00000000E+02  0.00000000E+00
  2.80000000E+02  8.00000000E+01  0.00000000E+00
  2.80000000E+02  6.00000000E+01  0.00000000E+00
  2.80000000E+02  4.00000000E+01  0.00000000E+00
  2.80000000E+02  2.00000000E+01  0.00000000E+00
  2.80000000E+02  4.99600361E-14  0.00000000E+00
  3.00000000E+02  3.00000000E+02  0.00000000E+00
  3.00000000E+02  2.80000000E+02  0.00000000E+00
  3.00000000E+02  2.60000000E+02  0.00000000E+00
  3.00000000E+02  2.40000000E+02  0.00000000E+00
  3.00000000E+02  2.20000000E+02  0.00000000E+00
  3.00000000E+02  2.00000000E+02  0.00000000E+00
  3.00000000E+02  1.80000000E+02  0.00000000E+00
  3.00000000E+02  1.60000000E+02  0.00000000E+00
  3.00000000E+02  1.40000000E+02  0.00000000E+00
  3.00000000E+02  1.20000000E+02  0.00000000E+00
  3.00000000E+02  1.00000000E+02  0.00000000E+00
  3.00000000E+02  8.00000000E+01  0.00000000E+00
  3.00000000E+02  6.00000000E+01  0.00000000E+00
  3.00000000E+02  4.00000000E+01  0.00000000E+00
  3.00000000E+02  2.00000000E+01  0.00000000E+00
  3.00000000E+02  4.99600361E-14  0.00000000E+00
  3.20000000E+02  3.00000000E+02  0.00000000E+00
  3.20000000E+02  2.80000000E+02  0.00000000E+00
  3.20000000E+02  2.60000000E+02  0.00000000E+00
  3.20000000E+02  2.40000000E+02  0.00000000E+00
  3.20000000E+02  2.20000000E+02  0.00000000E+00
  3.20000000E+02  2.00000000E+02  0.00000000E+00
  3.20000000E+02  1.80000000E+02  0.00000000E+00
  3.20000000E+02  1.60000000E+02  0.00000000E+00
  3.20000000E+02  1.40000000E+02  0.00000000E+00
  3.20000000E+02  1.20000000E+02  0.00000000E+00
  3.20000000E+02  1.00000000E+02  0.00000000E+00
  3.20000000E+02  8.00000000E+01  0.00000000E+00
  3.20000000E+02  6.00000000E+01  0.00000000E+00
  3.20000000E+02  4.00000000E+01  0.00000000E+00
  3.20000000E+02  2.00000000E+01  0.00000000E+00
  3.20000000E+02  4.99600361E-14  0.00000000E+00
  3.40000000E+02  3.00000000E+02  0.00000000E+00
  3.40000000E+02  2.80000000E+02  0.00000000E+00
  3.40000000E+02  2.60000000E+02  0.00000000E+00
  3.40000000E+02  2.40000000E+02  0.00000000E+00
  3.40000000E+02  2.20000000E+02  0.00000000E+00
  3.40000000E+02  2.00000000E+02  0.00000000E+00
  3.40000000E+02  1.80000000E+02  0.00000000E+00
  3.40000000E+02  1.60000000E+02  0.00000000E+00
  3.40000000E+02  1.40000000E+02  0.00000000E+00
  3.40000000E+02  1.20000000E+02  0.00000000E+00
  3.40000000E+02  1.00000000E+02  0.00000000E+00
  3.40000000E+02  8.00000000E+01  0.00000000E+00
  3.40000000E+02  6.00000000E+01  0.00000000E+00
  3.40000000E+02  4.00000000E+01  0.00000000E+00
  3.40000000E+02  2.00000000E+01  0.00000000E+00
  3.40000000E+02  4.99600361E-14  0.00000000E+00
  3.60000000E+02  3.00000000E+02  0.00000000E+00
  3.60000000E+02  2.80000000E+02  0.00000000E+00
  3.60000000E+02  2.60000000E+02  0.00000000E+00
  3.60000000E+02  2.40000000E+02  0.00000000E+00
  3.60000000E+02  2.20000000E+02  0.00000000E+00
  3.60000000E+02  2.00000000E+02  0.00000000E+00
  3.60000000E+02  1.80000000E+02  0.00000000E+00
  3.60000000E+02  1.60000000E+02  0.00000000E+00
  3.60000000E+02  1.40000000E+02  0.00000000E+00
  3.60000000E+02  1.20000000E+02  0.00000000E+00
  3.60000000E+02  1.00000000E+02  0.00000000E+00
  3.60000000E+02  8.00000000E+01  0.00000000E+00
  3.60000000E+02  6.00000000E+01  0.00000000E+00
  3.60000000E+02  4.00000000E+01  0.00000000E+00
  3.60000000E+02  2.00000000E+01  0.00000000E+00
  3.60000000E+02  4.99600361E-14  0.00000000E+00
  3.80000000E+02  3.00000000E+02  0.00000000E+00
  3.80000000E+02  2.80000000E+02  0.00000000E+00
  3.80000000E+02  2.60000000E+02  0.00000000E+00
  3.80000000E+02  2.40000000E+02  0.00000000E+00
  3.80000000E+02  2.20000000E+02  0.00000000E+00
  3.80000000E+02  2.00000000E+02  0.00000000E+00
  3.80000000E+02  1.80000000E+02  0.00000000E+00
  3.80000000E+02  1.60000000E+02  0.00000000E+00
  3.80000000E+02  1.40000000E+02  0.00000000E+00
  3.80000000E+02  1.20000000E+02  0.00000000E+00
  3.80000000E+02  1.00000000E+02  0.00000000E+00
  3.80000000E+02  8.00000000E+01  0.00000000E+00
  3.80000000E+02  6.00000000E+01  0.00000000E+00
  3.80000000E+02  4.00000000E+01  0.00000000E+00
  3.80000000E+02  2.00000000E+01  0.00000000E+00
  3.80000000E+02  4.99600361E-14  0.00000000E+00
  4.00000000E+02  3.00000000E+02  0.00000000E+00
  4.00000000E+02  2.80000000E+02  0.00000000E+00
  4.00000000E+02  2.60000000E+02  0.00000000E+00
  4.00000000E+02  2.40000000E+02  0.00000000E+00
  4.00000000E+02  2.20000000E+02  0.00000000E+00
  4.00000000E+02  2.00000000E+02  0.00000000E+00
  4.00000000E+02  1.80000000E+02  0.00000000E+00
  4.00000000E+02  1.60000000E+02  0.00000000E+00
  4.00000000E+02  1.40000000E+02  0.00000000E+00
  4.00000000E+02  1.20000000E+02  0.00000000E+00
  4.00000000E+02  1.00000000E+02  0.00000000E+00
  4.00000000E+02  8.00000000E+01  0.00000000E+00
  4.00000000E+02  6.00000000E+01  0.00000000E+00
  4.00000000E+02  4.00000000E+01  0.00000000E+00
  4.00000000E+02  2.00000000E+01  0.00000000E+00
  4.00000000E+02  4.99600361E-14  0.00000000E+00
  4.20000000E+02  3.00000000E+02  0.00000000E+00
  4.20000000E+02  2.80000000E+02  0.00000000E+00
  4.20000000E+02  2.60000000E+02  0.00000000E+00
  4.20000000E+02  2.40000000E+02  0.00000000E+00
  4.20000000E+02  2.20000000E+02  0.00000000E+00
  4.20000000E+02  2.00000000E+02  0.00000000E+00
  4.20000000E+02  1.80000000E+02  0.00000000E+00
  4.20000000E+02  1.60000000E+02  0.00000000E+00
  4.20000000E+02  1.40000000E+02  0.00000000E+00
  4.20000000E+02  1.20000000E+02  0.00000000E+00
  4.20000000E+02  1.00000000E+02  0.00000000E+00
  4.20000000E+02  8.00000000E+01  0.00000000E+00
  4.20000000E+02  6.00000000E+01  0.00000000E+00
  4.20000000E+02  4.00000000E+01  0.00000000E+00
  4.20000000E+02  2.00000000E+01  0.00000000E+00
  4.20000000E+02  4.99600361E-14  0.00000000E+00
  4.40000000E+02  3.00000000E+02  0.00000000E+00
  4.40000000E+02  2.80000000E+02  0.00000000E+00
  4.40000000E+02  2.60000000E+02  0.00000000E+00
  4.40000000E+02  2.40000000E+02  0.00000000E+00
  4.40000000E+02  2.20000000E+02  0.00000000E+00
  4.40000000E+02  2.00000000E+02  0.00000000E+00
  4.40000000E+02  1.80000000E+02  0.00000000E+00
  4.40000000E+02  1.60000000E+02  0.00000000E+00
  4.40000000E+02  1.40000000E+02  0.00000000E+00
  4.40000000E+02  1.20000000E+02  0.00000000E+00
  4.40000000E+02  1.00000000E+02  0.00000000E+00
  4.40000000E+02  8.00000000E+01  0.00000000E+00
  4.40000000E+02  6.00000000E+01  0.00000000E+00
  4.40000000E+02  4.00000000E+01  0.00000000E+00
  4.40000000E+02  2.00000000E+01  0.00000000E+00
  4.40000000E+02  4.99600361E-14  0.00000000E+00
  4.60000000E+02  3.00000000E+02  0.00000000E+00
  4.60000000E+02  2.80000000E+02  0.00000000E+00
  4.60000000E+02  2.60000000E+02  0.00000000E+00
  4.60000000E+02  2.40000000E+02  0.00000000E+00
  4.60000000E+02  2.20000000E+02  0.00000000E+00
  4.60000000E+02  2.00000000E+02  0.00000000E+00
  4.60000000E+02  1.80000000E+02  0.00000000E+00
  4.60000000E+02  1.60000000E+02  0.00000000E+00
  4.60000000E+02  1.40000000E+02  0.00000000E+00
  4.60000000E+02  1.20000000E+02  0.00000000E+00
  4.60000000E+02  1.00000000E+02  0.00000000E+00
  4.60000000E+02  8.00000000E+01  0.00000000E+00
  4.60000000E+02  6.00000000E+01  0.00000000E+00
  4.60000000E+02  4.00000000E+01  0.00000000E+00
  4.60000000E+02  2.00000000E+01  0.00000000E+00
  4.60000000E+02  4.99600361E-14  0.00000000E+00
  4.80000000E+02  3.00000000E+02  0.00000000E+00
  4.80000000E+02  2.80000000E+02  0.00000000E+00
  4.80000000E+02  2.60000000E+02  0.00000000E+00
  4.80000000E+02  2.40000000E+02  0.00000000E+00
  4.80000000E+02  2.20000000E+02  0.00000000E+00
  4.80000000E+02  2.00000000E+02  0.00000000E+00
  4.80000000E+02  1.80000000E+02  0.00000000E+00
  4.80000000E+02  1.60000000E+02  0.00000000E+00
  4.80000000E+02  1.40000000E+02  0.00000000E+00
  4.80000000E+02  1.20000000E+02  0.00000000E+00
  4.80000000E+02  1.00000000E+02  0.00000000E+00
  4.80000000E+02  8.00000000E+01  0.00000000E+00
  4.80000000E+02  6.00000000E+01  0.00000000E+00
  4.80000000E+02  4.00000000E+01  0.00000000E+00
  4.80000000E+02  2.00000000E+01  0.00000000E+00
  4.80000000E+02  4.99600361E-14  0.00000000E+00
  5.00000000E+02  3.00000000E+02  0.00000000E+00
  5.00000000E+02  2.80000000E+02  0.00000000E+00
  5.00000000E+02  2.60000000E+02  0.00000000E+00
  5.00000000E+02  2.40000000E+02  0.00000000E+00
  5.00000000E+02  2.20000000E+02  0.00000000E+00
  5.00000000E+02  2.00000000E+02  0.00000000E+00
  5.00000000E+02  1.80000000E+02  0.00000000E+00
  5.00000000E+02  1.60000000E+02  0.00000000E+00
  5.00000000E+02  1.40000000E+02  0.00000000E+00
  5.00000000E+02  1.20000000E+02  0.00000000E+00
  5.00000000E+02  1.00000000E+02  0.00000000E+00
  5.00000000E+02  8.00000000E+01  0.00000000E+00
  5.00000000E+02  6.00000000E+01  0.00000000E+00
  5.00000000E+02  4.00000000E+01  0.00000000E+00
  5.00000000E+02  2.00000000E+01  0.00000000E+00
  5.00000000E+02  4.99600361E-14  0.00000000E+00
  5.20000000E+02  3.00000000E+02  0.00000000E+00
  5.20000000E+02  2.80000000E+02  0.00000000E+00
  5.20000000E+02  2.60000000E+02  0.00000000E+00
  5.20000000E+02  2.40000000E+02  0.00000000E+00
  5.20000000E+02  2.20000000E+02  0.00000000E+00
  5.20000000E+02  2.00000000E+02  0.00000000E+00
  5.20000000E+02  1.80000000E+02  0.00000000E+00
  5.20000000E+02  1.60000000E+02  0.00000000E+00
  5.20000000E+02  1.40000000E+02  0.00000000E+00
  5.20000000E+02  1.20000000E+02  0.00000000E+00
  5.20000000E+02  1.00000000E+02  0.00000000E+00
  5.20000000E+02  8.00000000E+01  0.00000000E+00
  5.20000000E+02  6.00000000E+01  0.00000000E+00
  5.20000000E+02  4.00000000E+01  0.00000000E+00
  5.20000000E+02  2.00000000E+01  0.00000000E+00
  5.20000000E+02  4.99600361E-14  0.00000000E+00
  5.40000000E+02  3.00000000E+02  0.00000000E+00
  5.40000000E+02  2.80000000E+02  0.00000000E+00
  5.40000000E+02  2.60000000E+02  0.00000000E+00
  5.40000000E+02  2.40000000E+02  0.00000000E+00
  5.40000000E+02  2.20000000E+02  0.00000000E+00
  5.40000000E+02  2.00000000E+02  0.00000000E+00
  5.40000000E+02  1.80000000E+02  0.00000000E+00
  5.40000000E+02  1.60000000E+02  0.00000000E+00
  5.40000000E+02  1.40000000E+02  0.00000000E+00
  5.40000000E+02  1.20000000E+02  0.00000000E+00
  5.40000000E+02  1.00000000E+02  0.00000000E+00
  5.40000000E+02  8.00000000E+01  0.00000000E+00
  5.40000000E+02  6.00000000E+01  0.00000000E+00
  5.40000000E+02  4.00000000E+01  0.00000000E+00
  5.40000000E+02  2.00000000E+01  0.00000000E+00
  5.40000000E+02  4.99600361E-14  0.00000000E+00
  5.60000000E+02  3.00000000E+02  0.00000000E+00
  5.60000000E+02  2.80000000E+02  0.00000000E+00
  5.60000000E+02  2.60000000E+02  0.00000000E+00
  5.60000000E+02  2.40000000E+02  0.00000000E+00
  5.60000000E+02  2.20000000E+02  0.00000000E+00
  5.60000000E+02  2.00000000E+02  0.00000000E+00
  5.60000000E+02  1.80000000E+02  0.00000000E+00
  5.60000000E+02  1.60000000E+02  0.00000000E+00
  5.60000000E+02  1.40000000E+02  0.00000000E+00
  5.60000000E+02  1.20000000E+02  0.00000000E+00
  5.60000000E+02  1.00000000E+02  0.00000000E+00
  5.60000000E+02  8.00000000E+01  0.00000000E+00
  5.60000000E+02  6.00000000E+01  0.00000000E+00
  5.60000000E+02  4.00000000E+01  0.00000000E+00
  5.60000000E+02  2.00000000E+01  0.00000000E+00
  5.60000000E+02  4.99600361E-14  0.00000000E+00
  5.80000000E+02  3.00000000E+02  0.00000000E+00
  5.80000000E+02  2.80000000E+02  0.00000000E+00
  5.80000000E+02  2.60000000E+02  0.00000000E+00
  5.80000000E+02  2.40000000E+02  0.00000000E+00
  5.80000000E+02  2.20000000E+02  0.00000000E+00
  5.80000000E+02  2.00000000E+02  0.00000000E+00
  5.80000000E+02  1.80000000E+02  0.00000000E+00
  5.80000000E+02  1.60000000E+02  0.00000000E+00
  5.80000000E+02  1.40000000E+02  0.00000000E+00
  5.80000000E+02  1.20000000E+02  0.00000000E+00
  5.80000000E+02  1.00000000E+02  0.00000000E+00
  5.80000000E+02  8.00000000E+01  0.00000000E+00
  5.80000000E+02  6.00000000E+01  0.00000000E+00
  5.80000000E+02  4.00000000E+01  0.00000000E+00
  5.80000000E+02  2.00000000E+01  0.00000000E+00
  5.80000000E+02  4.99600361E-14  0.00000000E+00
  6.00000000E+02  3.00000000E+02  0.00000000E+00
  6.00000000E+02  2.80000000E+02  0.00000000E+00
  6.00000000E+02  2.60000000E+02  0.00000000E+00
  6.00000000E+02  2.40000000E+02  0.00000000E+00
  6.00000000E+02  2.20000000E+02  0.00000000E+00
  6.00000000E+02  2.00000000E+02  0.00000000E+00
  6.00000000E+02  1.80000000E+02  0.00000000E+00
  6.00000000E+02  1.60000000E+02  0.00000000E+00
  6.00000000E+02  1.40000000E+02  0.00000000E+00
  6.00000000E+02  1.20000000E+02  0.00000000E+00
  6.00000000E+02  1.00000000E+02  0.00000000E+00
  6.00000000E+02  8.00000000E+01  0.00000000E+00
  6.00000000E+02  6.00000000E+01  0.00000000E+00
  6.00000000E+02  4.00000000E+01  0.00000000E+00
  6.00000000E+02  2.00000000E+01  0.00000000E+00
  6.00000000E+02  4.99600361E-14  0.00000000E+00
CELLS       450      2250
         4           0           1          17          16
         4           1           2          18          17
         4           2           3          19          18
         4           3           4          20          19
         4           4           5          21          20
         4           5           6          22          21
         4           6           7          23          22
         4           7           8          24          23
         4           8           9          25          24
         4           9          10          26          25
         4          10          11          27          26
         4          11          12          28          27
         4          12          13          29          28
         4          13          14          30          29
         4          14          15          31          30
         4          16          17          33          32
         4          17          18          34          33
         4          18          19          35          34
         4          19          20          36          35
         4          20          21          37          36
         4          21          22          38          37
         4          22          23          39          38
         4          23          24          40          39
         4          24          25          41          40
         4          25          26          42          41
         4          26          27          43          42
         4          27          28          44          43
         4          28          29          45          44
         4          29          30          46          45
         4          30          31          47          46
         4          32          33          49          48
         4          33          34          50          49
         4          34          35          51          50
         4          35          36          52          51
         4          36          37          53          52
         4          37          38          54          53
         4          38          39          55          54
         4          39          40          56          55
         4          40          41          57          56
         4          41          42          58          57
         4          42          43          59          58
         4          43          44          60          59
         4          44          45          61          60
         4          45          46          62          61
         4          46          47          63          62
         4          48          49          65          64
         4          49          50          66          65
         4          50          51          67          66
         4          51          52          68          67
         4          52          53          69          68
         4          53          54          70          69
         4          54          55          71          70
         4          55          56          72          71
         4          56          57          73          72
         4          57          58          74          73
         4          58          59          75          74
         4          59          60          76          75
         4          60          61          77          76
         4          61          62          78          77
         4          62          63          79          78
         4          64          65          81          80
         4          65          66          82          81
         4          66          67          83          82
         4          67          68          84          83
         4          68          69          85          84
         4          69          70          86          85
         4          70          71          87          86
         4          71          72          88          87
         4          72          73          89          88
         4          73          74          90          89
         4          74          75          91          90
         4          75          76          92          91
         4          76          77          93          92
         4          77          78          94          93
         4          78          79          95          94
         4          80          81          97          96
         4          81          82          98          97
         4          82          83          99          98
         4          83          84         100          99
         4          84          85         101         100
         4          85          86         102         101
         4          86          87         103         102
         4          87          88         104         103
         4          88          89         105         104
         4          89          90         106         105
         4          90          91         107         106
         4          91          92         108         107
         4          92          93         109         108
         4          93          94         110         109
         4          94          95         111         110
         4          96          97         113         112
         4          97          98         114         113
         4          98          99         115         114
         4          99         100         116         115
         4         100         101         117         116
         4         101         102         118         117
         4         102         103         119         118
         4         103         104         120         119
         4         104         105         121         120
         4         105         106         122         121
         4         106         107         123         122
         4         107         108         124         123
         4         108         109         125         124
         4         109         110         126         125
         4         110         111         127         126
         4         112         113         129         128
         4         113         114         130         129
         4         114         115         131         130
         4         115         116         132         131
         4         116         117         133         132
         4         117         118         134         133
         4         118         119         135         134
         4         119         120         136         135
         4         120         121         137         136
         4         121         122         138         137
         4         122         123         139         138
         4         123         124         140         139
         4         124         125         141         140
         4         125         126         142         141
         4         126         127         143         142
         4         128         129         145         144
         4         129         130         146         145
         4         130         131         147         146
         4         131         132         148         147
         4         132         133         149         148
         4         133         134         150         149
         4         134         135         151         150
         4         135         136         152         151
         4         136         137         153         152
         4         137         138         154         153
         4         138         139         155         154
         4         139         140         156         155
         4         140         141         157         156
         4         141         142         158         157
         4         142         143         159         158
         4         144         145         161         160
         4         145         146         162         161
         4         146         147         163         162
         4         147         148         164         163
         4         148         149         165         164
         4         149         150         166         165
         4         150         151         167         166
         4         151         152         168         167
         4         152         153         169         168
         4         153         154         170         169
         4         154         155         171         170
         4         155         156         172         171
         4         156         157         173         172
         4         157         158         174         173
         4         158         159         175         174
         4         160         161         177         176
         4         161         162         178         177
         4         162         163         179         178
         4         163         164         180         179
         4         164         165         181         180
         4         165         166         182         181
         4         166         167         183         182
         4         167         168         184         183
         4         168         169         185         184
         4         169         170         186         185
         4         170         171         187         186
         4         171         172         188         187
         4         172         173         189         188
         4         173         174         190         189
         4         174         175         191         190
         4         176         177         193         192
         4         177         178         194         193
         4         178         179         195         194
         4         179         180         196         195
         4         180         181         197         196
         4         181         182         198         197
         4         182         183         199         198
         4         183         184         200         199
         4         184         185         201         200
         4         185         186         202         201
         4         186         187         203         202
         4         187         188         204         203
         4         188         189         205         204
         4         189         190         206         205
         4         190         191         207         206
         4         192         193         209         208
         4         193         194         210         209
         4         194         195         211         210
         4         195         196         212         211
         4         196         197         213         212
         4         197         198         214         213
         4         198         199         215         214
         4         199         200         216         215
         4         200         201         217         216
         4         201         202         218         217
         4         202         203         219         218
         4         203         204         220         219
         4         204         205         221         220
         4         205         206         222         221
         4         206         207         223         222
         4         208         209         225         224
         4         209         210         226         225
         4         210         211         227         226
         4         211         212         228         227
         4         212         213         229         228
         4         213         214         230         229
         4         214         215         231         230
         4         215         216         232         231
         4         216         217         233         232
         4         217         218         234         233
         4         218         219         235         234
         4         219         220         236         235
         4         220         221         237         236
         4         221         222         238         237
         4         222         223         239         238
         4         224         225         241         240
         4         225         226         242         241
         4         226         227         243         242
         4         227         228         244         243
         4         228         229         245         244
         4         229         230         246         245
         4         230         231         247         246
         4         231         232         248         247
         4         232         233         249         248
         4         233         234         250         249
         4         234         235         251         250
         4         235         236         252         251
         4         236         237         253         252
         4         237         238         254         253
         4         238         239         255         254
         4         240         241         257         256
         4         241         242         258         257
         4         242         243         259         258
         4         243         244         260         259
         4         244         245         261         260
         4         245         246         262         261
         4         246         247         263         262
         4         247         248         264         263
         4         248         249         265         264
         4         249         250         266         265
         4         250         251         267         266
         4         251         252         268         267
         4         252         253         269         268
         4         253         254         270         269
         4         254         255         271         270
         4         256         257         273         272
         4         257         258         274         273
         4         258         259         275         274
         4         259         260         276         275
         4         260         261         277         276
         4         261         262         278         277
         4         262         263         279         278
         4         263         264         280         279
         4         264         265         281         280
         4         265         266         282         281
         4         266         267         283         282
         4         267         268         284         283
         4         268         269         285         284
         4         269         270         286         285
         4         270         271         287         286
         4         272         273         289         288
         4         273         274         290         289
         4         274         275         291         290
         4         275         276         292         291
         4         276         277         293         292
         4         277         278         294         293
         4         278         279         295         294
         4         279         280         296         295
         4         280         281         297         296
         4         281         282         298         297
         4         282         283         299         298
         4         283         284         300         299
         4         284         285         301         300
         4         285         286         302         301
         4         286         287         303         302
         4         288         289         305         304
         4         289         290         306         305
         4         290         291         307         306
         4         291         292         308         307
         4         292         293         309         308
         4         293         294         310         309
         4         294         295         311         310
         4         295         296         312         311
         4         296         297         313         312
         4         297         298         314         313
         4         298         299         315         314
         4         299         300         316         315
         4         300         301         317         316
         4         301         302         318         317
         4         302         303         319         318
         4         304         305         321         320
         4         305         306         322         321
         4         306         307         323         322
         4         307         308         324         323
         4         308         309         325         324
         4         309         310         326         325
         4         310         311         327         326
         4         311         312         328         327
         4         312         313         329         328
         4         313         314         330         329
         4         314         315         331         330
         4         315         316         332         331
         4         316         317         333         332
         4         317         318         334         333
         4         318         319         335         334
         4         320         321         337         336
         4         321         322         338         337
         4         322         323         339         338
         4         323         324         340         339
         4         324         325         341         340
         4         325         326         342         341
         4         326         327         343         342
         4         327         328         344         343
         4         328         329         345         344
         4         329         330         346         345
         4         330         331         347         346
         4         331         332         348         347
         4         332         333         349         348
         4         333         334         350         349
         4         334         335         351         350
         4         336         337         353         352
         4         337         338         354         353
         4         338         339         355         354
         4         339         340         356         355
         4         340         341         357         356
         4         341         342         358         357
         4         342         343         359         358
         4         343         344         360         359
         4         344         345         361         360
         4         345         346         362         361
         4         346         347         363         362
         4         347         348         364         363
         4         348         349         365         364
         4         349         350         366         365
         4         350         351         367         366
         4         352         353         369         368
         4         353         354         370         369
         4         354         355         371         370
         4         355         356         372         371
         4         356         357         373         372
         4         357         358         374         373
         4         358         359         375         374
         4         359         360         376         375
         4         360         361         377         376
         4         361         362         378         377
         4         362         363         379         378
         4         363         364         380         379
         4         364         365         381         380
         4         365         366         382         381
         4         366         367         383         382
         4         368         369         385         384
         4         369         370         386         385
         4         370         371         387         386
         4         371         372         388         387
         4         372         373         389         388
         4         373         374         390         389
         4         374         375         391         390
         4         375         376         392         391
         4         376         377         393         392
         4         377         378         394         393
         4         378         379         395         394
         4         379         380         396         395
         4         380         381         397         396
         4         381         382         398         397
         4         382         383         399         398
         4         384         385         401         400
         4         385         386         402         401
         4         386         387         403         402
         4         387         388         404         403
         4         388         389         405         404
         4         389         390         406         405
         4         390         391         407         406
         4         391         392         408         407
         4         392         393         409         408
         4         393         394         410         409
         4         394         395         411         410
         4         395         396         412         411
         4         396         397         413         412
         4         397         398         414         413
         4         398         399         415         414
         4         400         401         417         416
         4         401         402         418         417
         4         402         403         419         418
         4         403         404         420         419
         4         404         405         421         420
         4         405         406         422         421
         4         406         407         423         422
         4         407         408         424         423
         4         408         409         425         424
         4         409         410         426         425
         4         410         411         427         426
         4         411         412         428         427
         4         412         413         429         428
         4         413         414         430         429
         4         414         415         431         430
         4         416         417         433         432
         4         417         418         434         433
         4         418         419         435         434
         4         419         420         436         435
         4         420         421         437         436
         4         421         422         438         437
         4         422         423         439         438
         4         423         424         440         439
         4         424         425         441         440
         4         425         426         442         441
         4         426         427         443         442
         4         427         428         444         443
         4         428         429         445         444
         4         429         430         446         445
         4         430         431         447         446
         4         432         433         449         448
         4         433         434         450         449
         4         434         435         451         450
         4         435         436         452         451
         4         436         437         453         452
         4         437         438         454         453
         4         438         439         455         454
         4         439         440         456         455
         4         440         441         457         456
         4         441         442         458         457
         4         442         443         459         458
         4         443         444         460         459
         4         444         445         461         460
         4         445         446         462         461
         4         446         447         463         462
         4         448         449         465         464
         4         449         450         466         465
         4         450         451         467         466
         4         451         452         468         467
         4         452         453         469         468
         4         453         454         470         469
         4         454         455         471         470
         4         455         456         472         471
         4         456         457         473         472
         4         457         458         474         473
         4         458         459         475         474
         4         459         460         476         475
         4         460         461         477         476
         4         461         462         478         477
         4         462         463         479         478
         4         464         465         481         480
         4         465         466         482         481
         4         466         467         483         482
         4         467         468         484         483
         4         468         469         485         484
         4         469         470         486         485
         4         470         471         487         486
         4         471         472         488         487
         4         472         473         489         488
         4         473         474         490         489
         4         474         475         491         490
         4         475         476         492         491
         4         476         477         493         492
         4         477         478         494         493
         4         478         479         495         494
CELL_TYPES        450
9
9
9
9
9
9
9
9
9
9
9
9
9
9
9
9
9
9
9
9
9
9
9
9
9
9
9
9
9
9
9
9
9
9
9
9
9
9
9
9
9
9
9
9
9
9
9
9
9
9
9
9
9
9
9
9
9
9
9
9
9
9
9
9
9
9
9
9
9
9
9
9
9
9
9
9
9
9
9
9
9
9
9
9
9
9
9
9
9
9
9
9
9
9
9
9
9
9
9
9
9
9
9
9
9
9
9
9
9
9
9
9
9
9
9
9
9
9
9
9
9
9
9
9
9
9
9
9
9
9
9
9
9
9
9
9
9
9
9
9
9
9
9
9
9
9
9
9
9
9
9
9
9
9
9
9
9
9
9
9
9
9
9
9
9
9
9
9
9
9
9
9
9
9
9
9
9
9
9
9
9
9
9
9
9
9
9
9
9
9
9
9
9
9
9
9
9
9
9
9
9
9
9
9
9
9
9
9
9
9
9
9
9
9
9
9
9
9
9
9
9
9
9
9
9
9
9
9
9
9
9
9
9
9
9
9
9
9
9
9
9
9
9
9
9
9
9
9
9
9
9
9
9
9
9
9
9
9
9
9
9
9
9
9
9
9
9
9
9
9
9
9
9
9
9
9
9
9
9
9
9
9
9
9
9
9
9
9
9
9
9
9
9
9
9
9
9
9
9
9
9
9
9
9
9
9
9
9
9
9
9
9
9
9
9
9
9
9
9
9
9
9
9
9
9
9
9
9
9
9
9
9
9
9
9
9
9
9
9
9
9
9
9
9
9
9
9
9
9
9
9
9
9
9
9
9
9
9
9
9
9
9
9
9
9
9
9
9
9
9
9
9
9
9
9
9
9
9
9
9
9
9
9
9
9
9
9
9
9
9
9
9
9
9
9
9
9
9
9
9
9
9
9
9
9
9
9
9
9
9
9
9
9
9
9
9
9
9
9
9
9
9
9
9
9
9
9
9
9
9
9
9
9
9
9
9
9
9
9
9
9
9
9
9
9
9
9
9
9
9
POINT_DATA       496
SCALARS p double 
LOOKUP_TABLE default
   90000000.0000000     
   90000000.0000000     
   90000000.0000000     
   90000000.0000000     
   90000000.0000000     
   90000000.0000000     
   90000000.0000000     
   90000000.0000000     
   90000000.0000000     
   90000000.0000000     
   90000000.0000000     
   90000000.0000000     
   90000000.0000000     
   90000000.0000000     
   90000000.0000000     
   90000000.0000000     
   87021250.9003851     
   87020437.6307505     
   87019218.2892654     
   87018198.1806630     
   87017576.1784477     
   87017465.5760972     
   87017819.9735185     
   87018456.0700725     
   87019218.4458789     
   87019997.3783612     
   87020701.8324750     
   87021252.9597261     
   87021582.7164126     
   87021641.0515402     
   87021417.8080941     
   87021083.6349602     
   84042161.3338283     
   84041629.3711824     
   84040734.7442901     
   84040186.5357784     
   84040307.9454592     
   84041065.8366347     
   84042309.6706904     
   84043883.8056642     
   84045616.2137346     
   84047343.0517228     
   84048922.8481745     
   84050233.4578684     
   84051175.3171277     
   84051685.8632284     
   84051788.9836859     
   84051709.8371992     
   81072648.5345882     
   81072631.9512857     
   81072897.3347318     
   81073748.9279964     
   81075225.8923556     
   81077278.9293715     
   81079780.7296271     
   81082562.9271374     
   81085449.9924314     
   81088270.3453906     
   81090865.8710853     
   81093098.6121138     
   81094856.6982040     
   81096069.5557286     
   81096736.0877723     
   81096934.8947565     
   78121332.9003598     
   78121911.8286540     
   78123446.7848119     
   78125791.9427366     
   78128823.9507302     
   78132387.9858976     
   78136317.1357107     
   78140436.4180110     
   78144570.3081700     
   78148551.1138814     
   78152223.6118792     
   78155448.6850943     
   78158107.3606437     
   78160105.6693161     
   78161374.1965706     
   78161844.4911986     
   75194963.8203830     
   75196030.7448409     
   75198706.8496702     
   75202492.8933890     
   75207047.7708903     
   75212108.0318287     
   75217451.3290091     
   75222882.9569516     
   75228227.7964815     
   75233326.3179486     
   75238032.3861989     
   75242210.9997546     
   75245735.1055828     
   75248478.8424255     
   75250300.8700297     
   75251008.0864868     
   72299005.3294331     
   72300469.0901894     
   72304093.0180431     
   72309107.6732030     
   72314986.4412145     
   72321355.0737945     
   72327934.9770197     
   72334509.0158927     
   72340900.3964527     
   72346958.2776143     
   72352547.0682626     
   72357536.9002124     
   72361792.7083458     
   72365158.5759313     
   72367432.6397319     
   72368327.5521484     
   69437806.9855364     
   69439560.7571246     
   69443887.3936708     
   69449823.8205429     
   69456702.9895928     
   69464060.9424473     
   69471570.3625283     
   69478994.6779927     
   69486156.1321495     
   69492912.6150646     
   69499139.3865138     
   69504712.6893265     
   69509492.3648280     
   69513300.3451301     
   69515891.7446494     
   69516915.8974982     
   66614472.8569829     
   66616400.3869324     
   66621151.0167439     
   66627643.4307450     
   66635120.5909706     
   66643058.7976569     
   66651098.0972578     
   66658990.3171248     
   66666560.3196272     
   66673676.2954102     
   66680225.5622984     
   66686092.8461468     
   66691138.2978488     
   66695172.6461368     
   66697927.2006463     
   66699017.2195018     
   63830815.6989834     
   63832797.6428766     
   63837679.7119580     
   63844334.6017717     
   63851966.6579589     
   63860026.2872767     
   63868141.5260042     
   63876064.3167891     
   63883628.4295437     
   63890715.8649345     
   63897228.7898815     
   63903064.3581972     
   63908090.0493112     
   63912117.4619429     
   63914872.9558723     
   63915964.2652359     
   61087367.7401710     
   61089288.2501355     
   61094013.6202658     
   61100437.3767879     
   61107774.4899419     
   61115483.7510289     
   61123203.6557910     
   61130700.1712690     
   61137824.2822561     
   61144477.0053904     
   61150579.5825236     
   61156046.7246061     
   61160761.0159685     
   61164546.9095529     
   61167143.1907802     
   61168173.3895740     
   58383444.5073146     
   58385197.0651478     
   58389498.0078885     
   58395320.8634107     
   58401935.9482009     
   58408842.7192913     
   58415712.3115998     
   58422339.2729056     
   58428601.1282666     
   58434424.1794781     
   58439753.8829641     
   58444528.2222646     
   58448652.6702611     
   58451975.6133680     
   58454263.4887019     
   58455175.3568794     
   55717254.6687781     
   55718746.9416225     
   55722389.3875437     
   55727285.2655209     
   55732798.6230421     
   55738498.0561010     
   55744107.5835096     
   55749464.1865406     
   55754481.2478503     
   55759116.9030527     
   55763346.2177256     
   55767136.1185475     
   55770422.1273537     
   55773086.1602433     
   55774934.9495134     
   55775679.0033146     
   53086047.6700755     
   53087205.2210996     
   53089998.9678846     
   53093700.9103179     
   53097799.5749807     
   53101956.0507168     
   53105964.3027776     
   53109715.7918053     
   53113168.1403654     
   53116317.3774261     
   53119173.1709244     
   53121736.4348565     
   53123978.7649198     
   53125823.3057297     
   53127126.8687697     
   53127663.3819369     
   50486289.7052459     
   50487058.4919210     
   50488864.2308151     
   50491175.2311171     
   50493626.8023827     
   50495989.8876331     
   50498141.3927517     
   50500036.6549024     
   50501684.2247763     
   50503122.9308058     
   50504401.0613577     
   50505557.4478426     
   50506604.2549171     
   50507511.3753726     
   50508192.4739942     
   50508492.9084792     
   47913858.0233517     
   47914205.6880363     
   47914938.8705162     
   47915738.1438028     
   47916399.1167958     
   47916813.4815919     
   47916949.4577151     
   47916832.4284762     
   47916526.3052732     
   47916115.9535471     
   47915690.8745504     
   47915330.2619076     
   47915089.5387984     
   47914988.5241705     
   47915001.4646162     
   47915049.2888824     
   45364243.6026471     
   45364159.6246124     
   45363791.3423597     
   45363036.2692130     
   45361855.1239028     
   45360264.6641329     
   45358327.9282147     
   45356142.9617285     
   45353830.8566689     
   45351523.7352754     
   45349353.1680952     
   45347439.4245279     
   45345881.9117554     
   45344751.1600076     
   45344082.7516456     
   45343873.6595532     
   42832752.7686119     
   42832247.5980452     
   42830802.7773346     
   42828526.9361608     
   42825542.4617943     
   42821989.1230030     
   42818023.4416553     
   42813815.0955110     
   42809541.4036767     
   42805380.7633352     
   42801505.7655619     
   42798076.6159426     
   42795235.4202311     
   42793101.8638417     
   42791770.8127021     
   42791312.3869266     
   40314699.2716889     
   40313802.6038366     
   40311355.9129574     
   40307663.7567190     
   40302999.2609885     
   40297617.2570842     
   40291761.8387440     
   40285669.7529558     
   40279570.8364682     
   40273686.5471459     
   40268227.5056174     
   40263390.8541136     
   40259358.1555101     
   40256294.4961856     
   40254349.4203417     
   40253660.3092213     
   37805579.5566412     
   37804337.9283009     
   37801007.8620055     
   37796066.6929185     
   37789920.8683782     
   37782927.1319030     
   37775407.1187167     
   37767656.8356871     
   37759952.3417363     
   37752552.8110697     
   37745702.0391095     
   37739629.3386509     
   37734550.6745248     
   37730670.8018200     
   37728187.1068091     
   37727295.8017033     
   35301225.3322614     
   35299699.2350403     
   35295640.8758895     
   35289670.8286331     
   35282306.1236978     
   35273987.9141078     
   35265101.8334439     
   35255992.5153742     
   35246973.6516794     
   35238334.8682869     
   35230346.5887089     
   35223263.9378141     
   35217330.6253785     
   35212783.6448696     
   35209859.5312050     
   35208802.8429717     
   32797928.9851504     
   32796189.6930760     
   32791586.6615392     
   32784849.4279216     
   32776578.8028607     
   32767279.4428322     
   32757384.6312945     
   32747274.6915522     
   32737290.4456031     
   32727743.0740195     
   32718921.6291582     
   32711099.3290489     
   32704539.6305238     
   32699502.9579454     
   32696254.8509017     
   32695076.1897076     
   30292538.7894782     
   30290665.0962994     
   30285721.1972191     
   30278508.2222619     
   30269681.1717470     
   30259784.8890234     
   30249281.9161307     
   30238573.6009130     
   30228015.9126829     
   30217931.3913189     
   30208618.5452242     
   30200359.8711828     
   30193429.5222023     
   30188101.5108689     
   30184659.2079990     
   30183406.7716134     
   27782522.1796551     
   27780597.2381854     
   27775528.3000813     
   27768149.1624315     
   27759137.8680217     
   27749054.7046788     
   27738371.8107948     
   27727495.7567539     
   27716784.6451286     
   27706561.2308215     
   27697123.4227954     
   27688753.3594805     
   27681726.0778198     
   27676318.6431060     
   27672820.4714979     
   27671545.4452009     
   25265996.5242564     
   25264104.9827401     
   25259131.3799863     
   25251903.0527247     
   25243089.5076671     
   25233241.2363571     
   25222819.7726054     
   25212220.5327109     
   25201790.1382241     
   25191839.8031269     
   25182656.1795143     
   25174510.8453345     
   25167669.4205902     
   25162401.1147016     
   25158989.3835630     
   25157744.2533309     
   22741727.8238898     
   22739953.4746145     
   22735293.8368289     
   22728531.5280978     
   22720296.4798487     
   22711104.4582165     
   22701386.2856996     
   22691509.7631899     
   22681796.2013297     
   22672533.2170504     
   22663985.2037367     
   22656402.6479851     
   22650031.1913749     
   22645121.1757964     
   22641938.2129616     
   22640775.2950986     
   20209098.5087029     
   20207522.7202736     
   20203389.3887499     
   20197399.7333090     
   20190114.3596876     
   20181990.2845178     
   20173408.0554224     
   20164691.7084068     
   20156123.5294001     
   20147955.4428439     
   20140418.5125684     
   20133731.4921835     
   20128109.4206410     
   20123772.8053738     
   20120957.8918436     
   20119928.2196564     
   17668045.9135562     
   17666747.2835369     
   17663344.2369837     
   17658421.8270976     
   17652443.3178404     
   17645783.8824879     
   17638755.0504233     
   17631621.6561924     
   17624613.5494915     
   17617935.0646133     
   17611773.0802550     
   17606304.3438591     
   17601702.6393523     
   17598147.7858536     
   17595835.4461824     
   17594988.1515869     
   15118973.1111672     
   15118029.0171287     
   15115553.1377100     
   15111982.4410219     
   15107654.9254019     
   15102841.1662827     
   15097766.7411458     
   15092622.3536880     
   15087572.4535481     
   15082762.4018902     
   15078324.6907099     
   15074384.5222499     
   15071065.2621143     
   15068493.7447854     
   15066814.0891421     
   15066197.1406548     
   12562632.6297841     
   12562123.4170123     
   12560772.8799573     
   12558838.7928938     
   12556499.3474090     
   12553903.1084031     
   12551172.1445186     
   12548408.4447151     
   12545698.9883654     
   12543120.0601309     
   12540740.9325572     
   12538627.1457104     
   12536843.5095890     
   12535457.5238083     
   12534539.6038246     
   12534201.3766046     
   10000000.0000000     
   10000000.0000000     
   10000000.0000000     
   10000000.0000000     
   10000000.0000000     
   10000000.0000000     
   10000000.0000000     
   10000000.0000000     
   10000000.0000000     
   10000000.0000000     
   10000000.0000000     
   10000000.0000000     
   10000000.0000000     
  10000000.00000000     
   10000000.0000000     
   10000000.0000000     
VECTORS u double 
    0.00000E+00         0.21149E-01         0.00000E+00
    0.00000E+00         0.20426E-01         0.00000E+00
    0.00000E+00         0.19298E-01         0.00000E+00
    0.00000E+00         0.17926E-01         0.00000E+00
    0.00000E+00         0.16442E-01         0.00000E+00
    0.00000E+00         0.14960E-01         0.00000E+00
    0.00000E+00         0.13525E-01         0.00000E+00
    0.00000E+00         0.12136E-01         0.00000E+00
    0.00000E+00         0.10774E-01         0.00000E+00
    0.00000E+00         0.94171E-02         0.00000E+00
    0.00000E+00         0.80477E-02         0.00000E+00
    0.00000E+00         0.66442E-02         0.00000E+00
    0.00000E+00         0.51815E-02         0.00000E+00
    0.00000E+00         0.36270E-02         0.00000E+00
    0.00000E+00         0.19341E-02         0.00000E+00
    0.00000E+00         0.00000E+00         0.00000E+00
    0.58670E-02         0.20537E-01         0.00000E+00
    0.50353E-02         0.19750E-01         0.00000E+00
    0.41537E-02         0.18667E-01         0.00000E+00
    0.34004E-02         0.17394E-01         0.00000E+00
    0.27651E-02         0.16043E-01         0.00000E+00
    0.23702E-02         0.14675E-01         0.00000E+00
    0.21463E-02         0.13312E-01         0.00000E+00
    0.19661E-02         0.11966E-01         0.00000E+00
    0.18013E-02         0.10633E-01         0.00000E+00
    0.16393E-02         0.92994E-02         0.00000E+00
    0.14714E-02         0.79487E-02         0.00000E+00
    0.12888E-02         0.65614E-02         0.00000E+00
    0.10806E-02         0.51131E-02         0.00000E+00
    0.83007E-03         0.35723E-02         0.00000E+00
    0.50540E-03         0.18925E-02         0.00000E+00
    0.00000E+00         0.00000E+00         0.00000E+00
    0.10055E-01         0.19549E-01         0.00000E+00
    0.86473E-02         0.18529E-01         0.00000E+00
    0.72278E-02         0.17438E-01         0.00000E+00
    0.60354E-02         0.16301E-01         0.00000E+00
    0.51701E-02         0.15132E-01         0.00000E+00
    0.45557E-02         0.13938E-01         0.00000E+00
    0.41046E-02         0.12718E-01         0.00000E+00
    0.37369E-02         0.11477E-01         0.00000E+00
    0.34026E-02         0.10224E-01         0.00000E+00
    0.30766E-02         0.89544E-02         0.00000E+00
    0.27404E-02         0.76582E-02         0.00000E+00
    0.23769E-02         0.63191E-02         0.00000E+00
    0.19651E-02         0.49154E-02         0.00000E+00
    0.14749E-02         0.34187E-02         0.00000E+00
    0.85202E-03         0.17916E-02         0.00000E+00
    0.00000E+00         0.00000E+00         0.00000E+00
    0.13135E-01         0.17878E-01         0.00000E+00
    0.11305E-01         0.16914E-01         0.00000E+00
    0.97306E-02         0.15926E-01         0.00000E+00
    0.84140E-02         0.14941E-01         0.00000E+00
    0.73654E-02         0.13940E-01         0.00000E+00
    0.65466E-02         0.12903E-01         0.00000E+00
    0.58905E-02         0.11828E-01         0.00000E+00
    0.53339E-02         0.10718E-01         0.00000E+00
    0.48274E-02         0.95767E-02         0.00000E+00
    0.43359E-02         0.84041E-02         0.00000E+00
    0.38327E-02         0.71938E-02         0.00000E+00
    0.32926E-02         0.59336E-02         0.00000E+00
    0.26869E-02         0.46060E-02         0.00000E+00
    0.19771E-02         0.31891E-02         0.00000E+00
    0.11074E-02         0.16593E-02         0.00000E+00
    0.00000E+00         0.00000E+00         0.00000E+00
    0.15710E-01         0.15832E-01         0.00000E+00
    0.13719E-01         0.15038E-01         0.00000E+00
    0.12005E-01         0.14220E-01         0.00000E+00
    0.10553E-01         0.13385E-01         0.00000E+00
    0.93436E-02         0.12529E-01         0.00000E+00
    0.83431E-02         0.11640E-01         0.00000E+00
    0.75019E-02         0.10712E-01         0.00000E+00
    0.67670E-02         0.97413E-02         0.00000E+00
    0.60916E-02         0.87303E-02         0.00000E+00
    0.54372E-02         0.76778E-02         0.00000E+00
    0.47712E-02         0.65794E-02         0.00000E+00
    0.40624E-02         0.54261E-02         0.00000E+00
    0.32771E-02         0.42053E-02         0.00000E+00
    0.23743E-02         0.29020E-02         0.00000E+00
    0.13027E-02         0.15025E-02         0.00000E+00
    0.00000E+00         0.00000E+00         0.00000E+00
    0.18054E-01         0.13610E-01         0.00000E+00
    0.15908E-01         0.12980E-01         0.00000E+00
    0.14055E-01         0.12323E-01         0.00000E+00
    0.12465E-01         0.11642E-01         0.00000E+00
    0.11108E-01         0.10934E-01         0.00000E+00
    0.99470E-02         0.10193E-01         0.00000E+00
    0.89400E-02         0.94130E-02         0.00000E+00
    0.80408E-02         0.85894E-02         0.00000E+00
    0.72060E-02         0.77209E-02         0.00000E+00
    0.63960E-02         0.68058E-02         0.00000E+00
    0.55753E-02         0.58405E-02         0.00000E+00
    0.47092E-02         0.48184E-02         0.00000E+00
    0.37616E-02         0.37310E-02         0.00000E+00
    0.26923E-02         0.25693E-02         0.00000E+00
    0.14552E-02         0.13261E-02         0.00000E+00
    0.00000E+00         0.00000E+00         0.00000E+00
    0.20151E-01         0.11228E-01         0.00000E+00
    0.17865E-01         0.10759E-01         0.00000E+00
    0.15882E-01         0.10262E-01         0.00000E+00
    0.14161E-01         0.97368E-02         0.00000E+00
    0.12668E-01         0.91825E-02         0.00000E+00
    0.11364E-01         0.85941E-02         0.00000E+00
    0.10209E-01         0.79665E-02         0.00000E+00
    0.91608E-02         0.72959E-02         0.00000E+00
    0.81793E-02         0.65799E-02         0.00000E+00
    0.72250E-02         0.58159E-02         0.00000E+00
    0.62612E-02         0.50007E-02         0.00000E+00
    0.52518E-02         0.41299E-02         0.00000E+00
    0.41605E-02         0.31981E-02         0.00000E+00
    0.29487E-02         0.22003E-02         0.00000E+00
    0.15758E-02         0.11337E-02         0.00000E+00
    0.00000E+00         0.00000E+00         0.00000E+00
    0.21995E-01         0.87113E-02         0.00000E+00
    0.19589E-01         0.84007E-02         0.00000E+00
    0.17488E-01         0.80627E-02         0.00000E+00
    0.15648E-01         0.76963E-02         0.00000E+00
    0.14032E-01         0.72993E-02         0.00000E+00
    0.12600E-01         0.68681E-02         0.00000E+00
    0.11314E-01         0.63988E-02         0.00000E+00
    0.10133E-01         0.58881E-02         0.00000E+00
    0.90197E-02         0.53332E-02         0.00000E+00
    0.79349E-02         0.47317E-02         0.00000E+00
    0.68419E-02         0.40807E-02         0.00000E+00
    0.57050E-02         0.33774E-02         0.00000E+00
    0.44884E-02         0.26187E-02         0.00000E+00
    0.31561E-02         0.18024E-02         0.00000E+00
    0.16717E-02         0.92835E-03         0.00000E+00
    0.00000E+00         0.00000E+00         0.00000E+00
    0.23586E-01         0.60857E-02         0.00000E+00
    0.21081E-01         0.59312E-02         0.00000E+00
    0.18877E-01         0.57519E-02         0.00000E+00
    0.16932E-01         0.55452E-02         0.00000E+00
    0.15207E-01         0.53086E-02         0.00000E+00
    0.13663E-01         0.50389E-02         0.00000E+00
    0.12262E-01         0.47332E-02         0.00000E+00
    0.10965E-01         0.43885E-02         0.00000E+00
    0.97351E-02         0.40025E-02         0.00000E+00
    0.85349E-02         0.35729E-02         0.00000E+00
    0.73283E-02         0.30977E-02         0.00000E+00
    0.60802E-02         0.25749E-02         0.00000E+00
    0.47564E-02         0.20031E-02         0.00000E+00
    0.33231E-02         0.13819E-02         0.00000E+00
    0.17478E-02         0.71280E-03         0.00000E+00
    0.00000E+00         0.00000E+00         0.00000E+00
    0.24926E-01         0.33745E-02         0.00000E+00
    0.22342E-01         0.33744E-02         0.00000E+00
    0.20053E-01         0.33530E-02         0.00000E+00
    0.18019E-01         0.33066E-02         0.00000E+00
    0.16200E-01         0.32324E-02         0.00000E+00
    0.14560E-01         0.31276E-02         0.00000E+00
    0.13060E-01         0.29898E-02         0.00000E+00
    0.11663E-01         0.28166E-02         0.00000E+00
    0.10333E-01         0.26060E-02         0.00000E+00
    0.90330E-02         0.23562E-02         0.00000E+00
    0.77289E-02         0.20658E-02         0.00000E+00
    0.63864E-02         0.17337E-02         0.00000E+00
    0.49726E-02         0.13595E-02         0.00000E+00
    0.34561E-02         0.94397E-03         0.00000E+00
    0.18075E-02         0.48930E-03         0.00000E+00
    0.00000E+00         0.00000E+00         0.00000E+00
    0.26022E-01         0.59898E-03         0.00000E+00
    0.23378E-01         0.75174E-03         0.00000E+00
    0.21021E-01         0.88714E-03         0.00000E+00
    0.18913E-01         0.10010E-02         0.00000E+00
    0.17017E-01         0.10904E-02         0.00000E+00
    0.15296E-01         0.11529E-02         0.00000E+00
    0.13713E-01         0.11864E-02         0.00000E+00
    0.12233E-01         0.11890E-02         0.00000E+00
    0.10819E-01         0.11591E-02         0.00000E+00
    0.94363E-02         0.10954E-02         0.00000E+00
    0.80510E-02         0.99705E-03         0.00000E+00
    0.66304E-02         0.86350E-03         0.00000E+00
    0.51431E-02         0.69504E-03         0.00000E+00
    0.35598E-02         0.49292E-03         0.00000E+00
    0.18534E-02         0.25980E-03         0.00000E+00
    0.00000E+00         0.00000E+00         0.00000E+00
    0.26880E-01        -0.22223E-02         0.00000E+00
    0.24192E-01        -0.19181E-02         0.00000E+00
    0.21784E-01        -0.16271E-02         0.00000E+00
    0.19619E-01        -0.13534E-02         0.00000E+00
    0.17662E-01        -0.10999E-02         0.00000E+00
    0.15877E-01        -0.86863E-03         0.00000E+00
    0.14228E-01        -0.66145E-03         0.00000E+00
    0.12681E-01        -0.47979E-03         0.00000E+00
    0.11200E-01        -0.32488E-03         0.00000E+00
    0.97505E-02        -0.19762E-03         0.00000E+00
    0.83003E-02        -0.98561E-04         0.00000E+00
    0.68177E-02        -0.27755E-04         0.00000E+00
    0.52726E-02         0.15418E-04         0.00000E+00
    0.36375E-02         0.32462E-04         0.00000E+00
    0.18872E-02         0.26007E-04         0.00000E+00
    0.00000E+00         0.00000E+00         0.00000E+00
    0.27506E-01        -0.50732E-02         0.00000E+00
    0.24792E-01        -0.46189E-02         0.00000E+00
    0.22348E-01        -0.41735E-02         0.00000E+00
    0.20142E-01        -0.37408E-02         0.00000E+00
    0.18140E-01        -0.33231E-02         0.00000E+00
    0.16307E-01        -0.29224E-02         0.00000E+00
    0.14610E-01        -0.25400E-02         0.00000E+00
    0.13012E-01        -0.21770E-02         0.00000E+00
    0.11480E-01        -0.18344E-02         0.00000E+00
    0.99804E-02        -0.15128E-02         0.00000E+00
    0.84815E-02        -0.12125E-02         0.00000E+00
    0.69525E-02        -0.93327E-03         0.00000E+00
    0.53647E-02        -0.67435E-03         0.00000E+00
    0.36918E-02        -0.43426E-03         0.00000E+00
    0.19103E-02        -0.21061E-03         0.00000E+00
    0.00000E+00         0.00000E+00         0.00000E+00
    0.27908E-01        -0.79396E-02         0.00000E+00
    0.25180E-01        -0.73365E-02         0.00000E+00
    0.22716E-01        -0.67382E-02         0.00000E+00
    0.20485E-01        -0.61473E-02         0.00000E+00
    0.18455E-01        -0.55660E-02         0.00000E+00
    0.16591E-01        -0.49956E-02         0.00000E+00
    0.14861E-01        -0.44371E-02         0.00000E+00
    0.13229E-01        -0.38916E-02         0.00000E+00
    0.11663E-01        -0.33595E-02         0.00000E+00
    0.10130E-01        -0.28414E-02         0.00000E+00
    0.85983E-02        -0.23374E-02         0.00000E+00
    0.70382E-02        -0.18472E-02         0.00000E+00
    0.54221E-02        -0.13700E-02         0.00000E+00
    0.37247E-02        -0.90450E-03         0.00000E+00
    0.19236E-02        -0.44876E-03         0.00000E+00
    0.00000E+00         0.00000E+00         0.00000E+00
    0.28090E-01        -0.10809E-01         0.00000E+00
    0.25361E-01        -0.10059E-01         0.00000E+00
    0.22892E-01        -0.93086E-02         0.00000E+00
    0.20651E-01        -0.85608E-02         0.00000E+00
    0.18609E-01        -0.78165E-02         0.00000E+00
    0.16731E-01        -0.70767E-02         0.00000E+00
    0.14985E-01        -0.63421E-02         0.00000E+00
    0.13337E-01        -0.56135E-02         0.00000E+00
    0.11753E-01        -0.48912E-02         0.00000E+00
    0.10203E-01        -0.41756E-02         0.00000E+00
    0.86536E-02        -0.34667E-02         0.00000E+00
    0.70773E-02        -0.27642E-02         0.00000E+00
    0.54468E-02        -0.20676E-02         0.00000E+00
    0.37375E-02        -0.13758E-02         0.00000E+00
    0.19279E-02        -0.68727E-03         0.00000E+00
    0.00000E+00         0.00000E+00         0.00000E+00
    0.28057E-01        -0.13671E-01         0.00000E+00
    0.25340E-01        -0.12774E-01         0.00000E+00
    0.22878E-01        -0.11874E-01         0.00000E+00
    0.20644E-01        -0.10970E-01         0.00000E+00
    0.18606E-01        -0.10064E-01         0.00000E+00
    0.16731E-01        -0.91553E-02         0.00000E+00
    0.14986E-01        -0.82451E-02         0.00000E+00
    0.13337E-01        -0.73336E-02         0.00000E+00
    0.11753E-01        -0.64212E-02         0.00000E+00
    0.10200E-01        -0.55080E-02         0.00000E+00
    0.86495E-02        -0.45943E-02         0.00000E+00
    0.70716E-02        -0.36797E-02         0.00000E+00
    0.54402E-02        -0.27638E-02         0.00000E+00
    0.37312E-02        -0.18459E-02         0.00000E+00
    0.19236E-02        -0.92507E-03         0.00000E+00
    0.00000E+00         0.00000E+00         0.00000E+00
    0.27811E-01        -0.16515E-01         0.00000E+00
    0.25117E-01        -0.15473E-01         0.00000E+00
    0.22677E-01        -0.14423E-01         0.00000E+00
    0.20465E-01        -0.13365E-01         0.00000E+00
    0.18447E-01        -0.12298E-01         0.00000E+00
    0.16591E-01        -0.11222E-01         0.00000E+00
    0.14864E-01        -0.10137E-01         0.00000E+00
    0.13232E-01        -0.90432E-02         0.00000E+00
    0.11663E-01        -0.79416E-02         0.00000E+00
    0.10125E-01        -0.68320E-02         0.00000E+00
    0.85874E-02        -0.57145E-02         0.00000E+00
    0.70223E-02        -0.45890E-02         0.00000E+00
    0.54032E-02        -0.34552E-02         0.00000E+00
    0.37065E-02        -0.23127E-02         0.00000E+00
    0.19112E-02        -0.11611E-02         0.00000E+00
    0.00000E+00         0.00000E+00         0.00000E+00
    0.27353E-01        -0.19330E-01         0.00000E+00
    0.24693E-01        -0.18145E-01         0.00000E+00
    0.22290E-01        -0.16947E-01         0.00000E+00
    0.20115E-01        -0.15736E-01         0.00000E+00
    0.18134E-01        -0.14509E-01         0.00000E+00
    0.16314E-01        -0.13266E-01         0.00000E+00
    0.14621E-01        -0.12008E-01         0.00000E+00
    0.13023E-01        -0.10734E-01         0.00000E+00
    0.11485E-01        -0.94447E-02         0.00000E+00
    0.99770E-02        -0.81406E-02         0.00000E+00
    0.84680E-02        -0.68216E-02         0.00000E+00
    0.69298E-02        -0.54875E-02         0.00000E+00
    0.53363E-02        -0.41384E-02         0.00000E+00
    0.36635E-02        -0.27740E-02         0.00000E+00
    0.18906E-02        -0.13945E-02         0.00000E+00
    0.00000E+00         0.00000E+00         0.00000E+00
    0.26683E-01        -0.22107E-01         0.00000E+00
    0.24069E-01        -0.20779E-01         0.00000E+00
    0.21717E-01        -0.19435E-01         0.00000E+00
    0.19594E-01        -0.18071E-01         0.00000E+00
    0.17667E-01        -0.16686E-01         0.00000E+00
    0.15900E-01        -0.15278E-01         0.00000E+00
    0.14259E-01        -0.13848E-01         0.00000E+00
    0.12710E-01        -0.12396E-01         0.00000E+00
    0.11220E-01        -0.10922E-01         0.00000E+00
    0.97571E-02        -0.94267E-02         0.00000E+00
    0.82913E-02        -0.79096E-02         0.00000E+00
    0.67941E-02        -0.63707E-02         0.00000E+00
    0.52391E-02        -0.48101E-02         0.00000E+00
    0.36021E-02        -0.32277E-02         0.00000E+00
    0.18618E-02        -0.16241E-02         0.00000E+00
    0.00000E+00         0.00000E+00         0.00000E+00
    0.25797E-01        -0.24834E-01         0.00000E+00
    0.23244E-01        -0.23366E-01         0.00000E+00
    0.20957E-01        -0.21876E-01         0.00000E+00
    0.18904E-01        -0.20361E-01         0.00000E+00
    0.17046E-01        -0.18818E-01         0.00000E+00
    0.15349E-01        -0.17248E-01         0.00000E+00
    0.13777E-01        -0.15648E-01         0.00000E+00
    0.12293E-01        -0.14021E-01         0.00000E+00
    0.10867E-01        -0.12366E-01         0.00000E+00
    0.94645E-02        -0.10683E-01         0.00000E+00
    0.80565E-02        -0.89722E-02         0.00000E+00
    0.66143E-02        -0.72335E-02         0.00000E+00
    0.51109E-02        -0.54666E-02         0.00000E+00
    0.35217E-02        -0.36715E-02         0.00000E+00
    0.18244E-02        -0.18488E-02         0.00000E+00
    0.00000E+00         0.00000E+00         0.00000E+00
    0.24693E-01        -0.27499E-01         0.00000E+00
    0.22214E-01        -0.25891E-01         0.00000E+00
    0.20010E-01        -0.24257E-01         0.00000E+00
    0.18042E-01        -0.22592E-01         0.00000E+00
    0.16273E-01        -0.20894E-01         0.00000E+00
    0.14662E-01        -0.19162E-01         0.00000E+00
    0.13174E-01        -0.17396E-01         0.00000E+00
    0.11773E-01        -0.15597E-01         0.00000E+00
    0.10424E-01        -0.13765E-01         0.00000E+00
    0.90976E-02        -0.11900E-01         0.00000E+00
    0.77619E-02        -0.10002E-01         0.00000E+00
    0.63884E-02        -0.80703E-02         0.00000E+00
    0.49500E-02        -0.61038E-02         0.00000E+00
    0.34210E-02        -0.41027E-02         0.00000E+00
    0.17778E-02        -0.20674E-02         0.00000E+00
    0.00000E+00         0.00000E+00         0.00000E+00
    0.23364E-01        -0.30087E-01         0.00000E+00
    0.20976E-01        -0.28341E-01         0.00000E+00
    0.18872E-01        -0.26564E-01         0.00000E+00
    0.17009E-01        -0.24750E-01         0.00000E+00
    0.15345E-01        -0.22898E-01         0.00000E+00
    0.13838E-01        -0.21007E-01         0.00000E+00
    0.12451E-01        -0.19078E-01         0.00000E+00
    0.11146E-01        -0.17112E-01         0.00000E+00
    0.98912E-02        -0.15109E-01         0.00000E+00
    0.86540E-02        -0.13069E-01         0.00000E+00
    0.74045E-02        -0.10991E-01         0.00000E+00
    0.61137E-02        -0.88747E-02         0.00000E+00
    0.47538E-02        -0.67173E-02         0.00000E+00
    0.32980E-02        -0.45186E-02         0.00000E+00
    0.17210E-02        -0.22788E-02         0.00000E+00
    0.00000E+00         0.00000E+00         0.00000E+00
    0.21805E-01        -0.32583E-01         0.00000E+00
    0.19527E-01        -0.30700E-01         0.00000E+00
    0.17542E-01        -0.28781E-01         0.00000E+00
    0.15803E-01        -0.26819E-01         0.00000E+00
    0.14263E-01        -0.24814E-01         0.00000E+00
    0.12877E-01        -0.22767E-01         0.00000E+00
    0.11605E-01        -0.20679E-01         0.00000E+00
    0.10412E-01        -0.18552E-01         0.00000E+00
    0.92640E-02        -0.16385E-01         0.00000E+00
    0.81299E-02        -0.14179E-01         0.00000E+00
    0.69801E-02        -0.11931E-01         0.00000E+00
    0.57858E-02        -0.96397E-02         0.00000E+00
    0.45185E-02        -0.73020E-02         0.00000E+00
    0.31499E-02        -0.49161E-02         0.00000E+00
    0.16524E-02        -0.24815E-02         0.00000E+00
    0.00000E+00         0.00000E+00         0.00000E+00
    0.20007E-01        -0.34966E-01         0.00000E+00
    0.17861E-01        -0.32947E-01         0.00000E+00
    0.16018E-01        -0.30886E-01         0.00000E+00
    0.14424E-01        -0.28778E-01         0.00000E+00
    0.13026E-01        -0.26623E-01         0.00000E+00
    0.11777E-01        -0.24423E-01         0.00000E+00
    0.10636E-01        -0.22181E-01         0.00000E+00
    0.95672E-02        -0.19900E-01         0.00000E+00
    0.85386E-02        -0.17578E-01         0.00000E+00
    0.75201E-02        -0.15216E-01         0.00000E+00
    0.64830E-02        -0.12810E-01         0.00000E+00
    0.53988E-02        -0.10357E-01         0.00000E+00
    0.42387E-02        -0.78521E-02         0.00000E+00
    0.29725E-02        -0.52917E-02         0.00000E+00
    0.15697E-02        -0.26739E-02         0.00000E+00
    0.00000E+00         0.00000E+00         0.00000E+00
    0.17962E-01        -0.37212E-01         0.00000E+00
    0.15974E-01        -0.35060E-01         0.00000E+00
    0.14299E-01        -0.32858E-01         0.00000E+00
    0.12871E-01        -0.30604E-01         0.00000E+00
    0.11634E-01        -0.28301E-01         0.00000E+00
    0.10537E-01        -0.25953E-01         0.00000E+00
    0.95399E-02        -0.23564E-01         0.00000E+00
    0.86075E-02        -0.21137E-01         0.00000E+00
    0.77094E-02        -0.18672E-01         0.00000E+00
    0.68176E-02        -0.16167E-01         0.00000E+00
    0.59052E-02        -0.13617E-01         0.00000E+00
    0.49446E-02        -0.11018E-01         0.00000E+00
    0.39069E-02        -0.83610E-02         0.00000E+00
    0.27601E-02        -0.56414E-02         0.00000E+00
    0.14698E-02        -0.28545E-02         0.00000E+00
    0.00000E+00         0.00000E+00         0.00000E+00
    0.15661E-01        -0.39293E-01         0.00000E+00
    0.13862E-01        -0.37008E-01         0.00000E+00
    0.12382E-01        -0.34665E-01         0.00000E+00
    0.11145E-01        -0.32267E-01         0.00000E+00
    0.10087E-01        -0.29819E-01         0.00000E+00
    0.91568E-02        -0.27329E-01         0.00000E+00
    0.83145E-02        -0.24803E-01         0.00000E+00
    0.75278E-02        -0.22242E-01         0.00000E+00
    0.67691E-02        -0.19647E-01         0.00000E+00
    0.60134E-02        -0.17015E-01         0.00000E+00
    0.52365E-02        -0.14339E-01         0.00000E+00
    0.44125E-02        -0.11611E-01         0.00000E+00
    0.35130E-02        -0.88214E-02         0.00000E+00
    0.25046E-02        -0.59608E-02         0.00000E+00
    0.13481E-02        -0.30212E-02         0.00000E+00
    0.00000E+00         0.00000E+00         0.00000E+00
    0.13095E-01        -0.41175E-01         0.00000E+00
    0.11523E-01        -0.38757E-01         0.00000E+00
    0.10271E-01        -0.36275E-01         0.00000E+00
    0.92490E-02        -0.33734E-01         0.00000E+00
    0.83867E-02        -0.31147E-01         0.00000E+00
    0.76342E-02        -0.28524E-01         0.00000E+00
    0.69550E-02        -0.25872E-01         0.00000E+00
    0.63208E-02        -0.23193E-01         0.00000E+00
    0.57082E-02        -0.20485E-01         0.00000E+00
    0.50963E-02        -0.17743E-01         0.00000E+00
    0.44641E-02        -0.14960E-01         0.00000E+00
    0.37889E-02        -0.12125E-01         0.00000E+00
    0.30439E-02        -0.92247E-02         0.00000E+00
    0.21950E-02        -0.62448E-02         0.00000E+00
    0.11983E-02        -0.31723E-02         0.00000E+00
    0.00000E+00         0.00000E+00         0.00000E+00
    0.10252E-01        -0.42812E-01         0.00000E+00
    0.89561E-02        -0.40263E-01         0.00000E+00
    0.79699E-02        -0.37641E-01         0.00000E+00
    0.71857E-02        -0.34962E-01         0.00000E+00
    0.65327E-02        -0.32246E-01         0.00000E+00
    0.59658E-02        -0.29505E-01         0.00000E+00
    0.54548E-02        -0.26744E-01         0.00000E+00
    0.49774E-02        -0.23965E-01         0.00000E+00
    0.45155E-02        -0.21164E-01         0.00000E+00
    0.40527E-02        -0.18334E-01         0.00000E+00
    0.35725E-02        -0.15466E-01         0.00000E+00
    0.30566E-02        -0.12547E-01         0.00000E+00
    0.24819E-02        -0.95608E-02         0.00000E+00
    0.18159E-02        -0.64871E-02         0.00000E+00
    0.10110E-02        -0.33051E-02         0.00000E+00
    0.00000E+00         0.00000E+00         0.00000E+00
    0.71237E-02        -0.44148E-01         0.00000E+00
    0.61672E-02        -0.41467E-01         0.00000E+00
    0.54865E-02        -0.38707E-01         0.00000E+00
    0.49591E-02        -0.35902E-01         0.00000E+00
    0.45230E-02        -0.33075E-01         0.00000E+00
    0.41452E-02        -0.30237E-01         0.00000E+00
    0.38045E-02        -0.27391E-01         0.00000E+00
    0.34860E-02        -0.24536E-01         0.00000E+00
    0.31771E-02        -0.21665E-01         0.00000E+00
    0.28670E-02        -0.18771E-01         0.00000E+00
    0.25442E-02        -0.15842E-01         0.00000E+00
    0.21958E-02        -0.12864E-01         0.00000E+00
    0.18047E-02        -0.98175E-02         0.00000E+00
    0.13454E-02        -0.66792E-02         0.00000E+00
    0.77140E-03        -0.34165E-02         0.00000E+00
    0.00000E+00         0.00000E+00         0.00000E+00
    0.37020E-02        -0.45096E-01         0.00000E+00
    0.31732E-02        -0.42283E-01         0.00000E+00
    0.28311E-02        -0.39399E-01         0.00000E+00
    0.25676E-02        -0.36497E-01         0.00000E+00
    0.23502E-02        -0.33593E-01         0.00000E+00
    0.21617E-02        -0.30691E-01         0.00000E+00
    0.19916E-02        -0.27790E-01         0.00000E+00
    0.18323E-02        -0.24887E-01         0.00000E+00
    0.16776E-02        -0.21973E-01         0.00000E+00
    0.15221E-02        -0.19039E-01         0.00000E+00
    0.13599E-02        -0.16073E-01         0.00000E+00
    0.11844E-02        -0.13060E-01         0.00000E+00
    0.98652E-03        -0.99803E-02         0.00000E+00
    0.75193E-03        -0.68071E-02         0.00000E+00
    0.45343E-03        -0.35013E-02         0.00000E+00
    0.00000E+00         0.00000E+00         0.00000E+00
    0.00000E+00        -0.45500E-01         0.00000E+00
    0.00000E+00        -0.42584E-01         0.00000E+00
    0.00000E+00        -0.39642E-01         0.00000E+00
    0.00000E+00        -0.36702E-01         0.00000E+00
    0.00000E+00        -0.33769E-01         0.00000E+00
    0.00000E+00        -0.30845E-01         0.00000E+00
    0.00000E+00        -0.27925E-01         0.00000E+00
    0.00000E+00        -0.25005E-01         0.00000E+00
    0.00000E+00        -0.22077E-01         0.00000E+00
    0.00000E+00        -0.19130E-01         0.00000E+00
    0.00000E+00        -0.16152E-01         0.00000E+00
    0.00000E+00        -0.13127E-01         0.00000E+00
    0.00000E+00        -0.10036E-01         0.00000E+00
    0.00000E+00        -0.68526E-02         0.00000E+00
    0.00000E+00        -0.35363E-02         0.00000E+00
    0.00000E+00         0.00000E+00         0.00000E+00
CELL_DATA        450
VECTORS vDarcy double 
    0.21389E-07        -0.29194E-11         0.00000E+00
    0.21387E-07        -0.43753E-11         0.00000E+00
    0.21385E-07        -0.36586E-11         0.00000E+00
    0.21380E-07        -0.22297E-11         0.00000E+00
    0.21374E-07        -0.39631E-12         0.00000E+00
    0.21367E-07         0.12695E-11         0.00000E+00
    0.21359E-07         0.22782E-11         0.00000E+00
    0.21351E-07         0.27300E-11         0.00000E+00
    0.21342E-07         0.27889E-11         0.00000E+00
    0.21334E-07         0.25220E-11         0.00000E+00
    0.21327E-07         0.19728E-11         0.00000E+00
    0.21322E-07         0.11803E-11         0.00000E+00
    0.21318E-07         0.20877E-12         0.00000E+00
    0.21316E-07        -0.79885E-12         0.00000E+00
    0.21315E-07        -0.11956E-11         0.00000E+00
    0.21363E-07        -0.48235E-11         0.00000E+00
    0.21354E-07        -0.75775E-11         0.00000E+00
    0.21345E-07        -0.56199E-11         0.00000E+00
    0.21335E-07        -0.17934E-11         0.00000E+00
    0.21326E-07         0.23186E-11         0.00000E+00
    0.21316E-07         0.57238E-11         0.00000E+00
    0.21306E-07         0.79143E-11         0.00000E+00
    0.21296E-07         0.89319E-11         0.00000E+00
    0.21286E-07         0.89700E-11         0.00000E+00
    0.21277E-07         0.81761E-11         0.00000E+00
    0.21269E-07         0.66630E-11         0.00000E+00
    0.21262E-07         0.45505E-11         0.00000E+00
    0.21256E-07         0.20355E-11         0.00000E+00
    0.21250E-07        -0.42977E-12         0.00000E+00
    0.21246E-07        -0.14786E-11         0.00000E+00
    0.21277E-07        -0.19653E-11         0.00000E+00
    0.21266E-07        -0.22540E-11         0.00000E+00
    0.21255E-07         0.10867E-11         0.00000E+00
    0.21243E-07         0.57244E-11         0.00000E+00
    0.21231E-07         0.10066E-10         0.00000E+00
    0.21218E-07         0.13411E-10         0.00000E+00
    0.21207E-07         0.15595E-10         0.00000E+00
    0.21195E-07         0.16535E-10         0.00000E+00
    0.21185E-07         0.16274E-10         0.00000E+00
    0.21175E-07         0.14942E-10         0.00000E+00
    0.21166E-07         0.12679E-10         0.00000E+00
    0.21158E-07         0.96600E-11         0.00000E+00
    0.21150E-07         0.61655E-11         0.00000E+00
    0.21144E-07         0.27532E-11         0.00000E+00
    0.21139E-07         0.42801E-12         0.00000E+00
    0.21137E-07         0.20140E-11         0.00000E+00
    0.21129E-07         0.64470E-11         0.00000E+00
    0.21116E-07         0.11446E-10         0.00000E+00
    0.21103E-07         0.16143E-10         0.00000E+00
    0.21090E-07         0.20108E-10         0.00000E+00
    0.21077E-07         0.23019E-10         0.00000E+00
    0.21064E-07         0.24700E-10         0.00000E+00
    0.21053E-07         0.25125E-10         0.00000E+00
    0.21042E-07         0.24336E-10         0.00000E+00
    0.21032E-07         0.22426E-10         0.00000E+00
    0.21022E-07         0.19525E-10         0.00000E+00
    0.21014E-07         0.15800E-10         0.00000E+00
    0.21006E-07         0.11486E-10         0.00000E+00
    0.20999E-07         0.69210E-11         0.00000E+00
    0.20995E-07         0.23930E-11         0.00000E+00
    0.20952E-07         0.58925E-11         0.00000E+00
    0.20944E-07         0.15075E-10         0.00000E+00
    0.20933E-07         0.21947E-10         0.00000E+00
    0.20920E-07         0.27155E-10         0.00000E+00
    0.20908E-07         0.30865E-10         0.00000E+00
    0.20895E-07         0.33181E-10         0.00000E+00
    0.20883E-07         0.34174E-10         0.00000E+00
    0.20872E-07         0.33912E-10         0.00000E+00
    0.20862E-07         0.32480E-10         0.00000E+00
    0.20852E-07         0.29971E-10         0.00000E+00
    0.20843E-07         0.26481E-10         0.00000E+00
    0.20835E-07         0.22113E-10         0.00000E+00
    0.20828E-07         0.16959E-10         0.00000E+00
    0.20822E-07         0.11052E-10         0.00000E+00
    0.20818E-07         0.42106E-11         0.00000E+00
    0.20728E-07         0.90574E-11         0.00000E+00
    0.20721E-07         0.22546E-10         0.00000E+00
    0.20712E-07         0.31492E-10         0.00000E+00
    0.20701E-07         0.37332E-10         0.00000E+00
    0.20690E-07         0.40890E-10         0.00000E+00
    0.20679E-07         0.42655E-10         0.00000E+00
    0.20668E-07         0.42946E-10         0.00000E+00
    0.20659E-07         0.41979E-10         0.00000E+00
    0.20650E-07         0.39902E-10         0.00000E+00
    0.20642E-07         0.36817E-10         0.00000E+00
    0.20634E-07         0.32787E-10         0.00000E+00
    0.20627E-07         0.27819E-10         0.00000E+00
    0.20621E-07         0.21845E-10         0.00000E+00
    0.20616E-07         0.14645E-10         0.00000E+00
    0.20613E-07         0.57280E-11         0.00000E+00
    0.20473E-07         0.11512E-10         0.00000E+00
    0.20468E-07         0.28444E-10         0.00000E+00
    0.20460E-07         0.39175E-10         0.00000E+00
    0.20452E-07         0.45636E-10         0.00000E+00
    0.20443E-07         0.49097E-10         0.00000E+00
    0.20435E-07         0.50390E-10         0.00000E+00
    0.20427E-07         0.50061E-10         0.00000E+00
    0.20420E-07         0.48465E-10         0.00000E+00
    0.20413E-07         0.45821E-10         0.00000E+00
    0.20407E-07         0.42246E-10         0.00000E+00
    0.20401E-07         0.37766E-10         0.00000E+00
    0.20396E-07         0.32302E-10         0.00000E+00
    0.20392E-07         0.25646E-10         0.00000E+00
    0.20388E-07         0.17393E-10         0.00000E+00
    0.20386E-07         0.68599E-11         0.00000E+00
    0.20196E-07         0.13167E-10         0.00000E+00
    0.20192E-07         0.32464E-10         0.00000E+00
    0.20187E-07         0.44448E-10         0.00000E+00
    0.20182E-07         0.51338E-10         0.00000E+00
    0.20177E-07         0.54695E-10         0.00000E+00
    0.20171E-07         0.55595E-10         0.00000E+00
    0.20166E-07         0.54761E-10         0.00000E+00
    0.20162E-07         0.52666E-10         0.00000E+00
    0.20158E-07         0.49592E-10         0.00000E+00
    0.20155E-07         0.45670E-10         0.00000E+00
    0.20151E-07         0.40894E-10         0.00000E+00
    0.20148E-07         0.35118E-10         0.00000E+00
    0.20146E-07         0.28030E-10         0.00000E+00
    0.20144E-07         0.19107E-10         0.00000E+00
    0.20142E-07         0.75560E-11         0.00000E+00
    0.19906E-07         0.13978E-10         0.00000E+00
    0.19904E-07         0.34440E-10         0.00000E+00
    0.19902E-07         0.47003E-10         0.00000E+00
    0.19900E-07         0.54015E-10         0.00000E+00
    0.19898E-07         0.57189E-10         0.00000E+00
    0.19896E-07         0.57746E-10         0.00000E+00
    0.19895E-07         0.56529E-10         0.00000E+00
    0.19894E-07         0.54093E-10         0.00000E+00
    0.19893E-07         0.50764E-10         0.00000E+00
    0.19892E-07         0.46683E-10         0.00000E+00
    0.19891E-07         0.41823E-10         0.00000E+00
    0.19891E-07         0.35990E-10         0.00000E+00
    0.19890E-07         0.28808E-10         0.00000E+00
    0.19890E-07         0.19689E-10         0.00000E+00
    0.19889E-07         0.77945E-11         0.00000E+00
    0.19612E-07         0.13949E-10         0.00000E+00
    0.19612E-07         0.34339E-10         0.00000E+00
    0.19613E-07         0.46744E-10         0.00000E+00
    0.19614E-07         0.53499E-10         0.00000E+00
    0.19616E-07         0.56355E-10         0.00000E+00
    0.19617E-07         0.56589E-10         0.00000E+00
    0.19620E-07         0.55101E-10         0.00000E+00
    0.19622E-07         0.52486E-10         0.00000E+00
    0.19624E-07         0.49096E-10         0.00000E+00
    0.19626E-07         0.45076E-10         0.00000E+00
    0.19629E-07         0.40384E-10         0.00000E+00
    0.19630E-07         0.34799E-10         0.00000E+00
    0.19632E-07         0.27915E-10         0.00000E+00
    0.19633E-07         0.19120E-10         0.00000E+00
    0.19633E-07         0.75793E-11         0.00000E+00
    0.19324E-07         0.13125E-10         0.00000E+00
    0.19326E-07         0.32252E-10         0.00000E+00
    0.19329E-07         0.43757E-10         0.00000E+00
    0.19333E-07         0.49850E-10         0.00000E+00
    0.19338E-07         0.52220E-10         0.00000E+00
    0.19343E-07         0.52124E-10         0.00000E+00
    0.19349E-07         0.50457E-10         0.00000E+00
    0.19354E-07         0.47821E-10         0.00000E+00
    0.19360E-07         0.44568E-10         0.00000E+00
    0.19365E-07         0.40839E-10         0.00000E+00
    0.19370E-07         0.36584E-10         0.00000E+00
    0.19374E-07         0.31573E-10         0.00000E+00
    0.19377E-07         0.25393E-10         0.00000E+00
    0.19379E-07         0.17446E-10         0.00000E+00
    0.19381E-07         0.69369E-11         0.00000E+00
    0.19049E-07         0.11591E-10         0.00000E+00
    0.19052E-07         0.28374E-10         0.00000E+00
    0.19057E-07         0.38287E-10         0.00000E+00
    0.19064E-07         0.43322E-10         0.00000E+00
    0.19072E-07         0.45027E-10         0.00000E+00
    0.19080E-07         0.44572E-10         0.00000E+00
    0.19089E-07         0.42801E-10         0.00000E+00
    0.19097E-07         0.40284E-10         0.00000E+00
    0.19106E-07         0.37353E-10         0.00000E+00
    0.19113E-07         0.34140E-10         0.00000E+00
    0.19120E-07         0.30586E-10         0.00000E+00
    0.19127E-07         0.26465E-10         0.00000E+00
    0.19132E-07         0.21381E-10         0.00000E+00
    0.19135E-07         0.14773E-10         0.00000E+00
    0.19137E-07         0.59136E-11         0.00000E+00
    0.18793E-07         0.94626E-11         0.00000E+00
    0.18798E-07         0.22984E-10         0.00000E+00
    0.18805E-07         0.30703E-10         0.00000E+00
    0.18814E-07         0.34324E-10         0.00000E+00
    0.18824E-07         0.35194E-10         0.00000E+00
    0.18835E-07         0.34343E-10         0.00000E+00
    0.18846E-07         0.32523E-10         0.00000E+00
    0.18857E-07         0.30242E-10         0.00000E+00
    0.18868E-07         0.27797E-10         0.00000E+00
    0.18878E-07         0.25298E-10         0.00000E+00
    0.18887E-07         0.22685E-10         0.00000E+00
    0.18895E-07         0.19739E-10         0.00000E+00
    0.18901E-07         0.16098E-10         0.00000E+00
    0.18906E-07         0.11255E-10         0.00000E+00
    0.18909E-07         0.45722E-11         0.00000E+00
    0.18564E-07         0.68770E-11         0.00000E+00
    0.18568E-07         0.16420E-10         0.00000E+00
    0.18577E-07         0.21466E-10         0.00000E+00
    0.18588E-07         0.23384E-10         0.00000E+00
    0.18600E-07         0.23274E-10         0.00000E+00
    0.18613E-07         0.21990E-10         0.00000E+00
    0.18626E-07         0.20158E-10         0.00000E+00
    0.18639E-07         0.18206E-10         0.00000E+00
    0.18651E-07         0.16378E-10         0.00000E+00
    0.18663E-07         0.14757E-10         0.00000E+00
    0.18674E-07         0.13278E-10         0.00000E+00
    0.18683E-07         0.11742E-10         0.00000E+00
    0.18690E-07         0.98228E-11         0.00000E+00
    0.18696E-07         0.70848E-11         0.00000E+00
    0.18699E-07         0.29877E-11         0.00000E+00
    0.18363E-07         0.39845E-11         0.00000E+00
    0.18369E-07         0.90613E-11         0.00000E+00
    0.18378E-07         0.11100E-10         0.00000E+00
    0.18390E-07         0.11109E-10         0.00000E+00
    0.18403E-07         0.99127E-11         0.00000E+00
    0.18417E-07         0.81640E-11         0.00000E+00
    0.18432E-07         0.63465E-11         0.00000E+00
    0.18446E-07         0.47877E-11         0.00000E+00
    0.18460E-07         0.36702E-11         0.00000E+00
    0.18472E-07         0.30446E-11         0.00000E+00
    0.18484E-07         0.28401E-11         0.00000E+00
    0.18494E-07         0.28769E-11         0.00000E+00
    0.18502E-07         0.28770E-11         0.00000E+00
    0.18508E-07         0.24771E-11         0.00000E+00
    0.18511E-07         0.12430E-11         0.00000E+00
    0.18195E-07         0.94080E-12         0.00000E+00
    0.18201E-07         0.13019E-11         0.00000E+00
    0.18210E-07         0.15771E-12         0.00000E+00
    0.18223E-07        -0.18560E-11         0.00000E+00
    0.18237E-07        -0.41964E-11         0.00000E+00
    0.18251E-07        -0.64253E-11         0.00000E+00
    0.18266E-07        -0.82138E-11         0.00000E+00
    0.18281E-07        -0.93423E-11         0.00000E+00
    0.18295E-07        -0.96965E-11         0.00000E+00
    0.18308E-07        -0.92619E-11         0.00000E+00
    0.18320E-07        -0.81155E-11         0.00000E+00
    0.18331E-07        -0.64166E-11         0.00000E+00
    0.18339E-07        -0.43953E-11         0.00000E+00
    0.18345E-07        -0.23389E-11         0.00000E+00
    0.18349E-07        -0.57546E-12         0.00000E+00
    0.18060E-07        -0.21014E-11         0.00000E+00
    0.18066E-07        -0.64672E-11         0.00000E+00
    0.18076E-07        -0.10811E-10         0.00000E+00
    0.18088E-07        -0.14859E-10         0.00000E+00
    0.18102E-07        -0.18349E-10         0.00000E+00
    0.18116E-07        -0.21055E-10         0.00000E+00
    0.18131E-07        -0.22807E-10         0.00000E+00
    0.18146E-07        -0.23494E-10         0.00000E+00
    0.18160E-07        -0.23073E-10         0.00000E+00
    0.18173E-07        -0.21567E-10         0.00000E+00
    0.18184E-07        -0.19061E-10         0.00000E+00
    0.18194E-07        -0.15693E-10         0.00000E+00
    0.18203E-07        -0.11646E-10         0.00000E+00
    0.18209E-07        -0.71333E-11         0.00000E+00
    0.18212E-07        -0.23815E-11         0.00000E+00
    0.17959E-07        -0.49987E-11         0.00000E+00
    0.17965E-07        -0.13877E-10         0.00000E+00
    0.17974E-07        -0.21282E-10         0.00000E+00
    0.17985E-07        -0.27277E-10         0.00000E+00
    0.17998E-07        -0.31865E-10         0.00000E+00
    0.18012E-07        -0.35025E-10         0.00000E+00
    0.18026E-07        -0.36736E-10         0.00000E+00
    0.18040E-07        -0.36994E-10         0.00000E+00
    0.18053E-07        -0.35826E-10         0.00000E+00
    0.18065E-07        -0.33291E-10         0.00000E+00
    0.18076E-07        -0.29482E-10         0.00000E+00
    0.18086E-07        -0.24518E-10         0.00000E+00
    0.18094E-07        -0.18538E-10         0.00000E+00
    0.18099E-07        -0.11686E-10         0.00000E+00
    0.18102E-07        -0.40932E-11         0.00000E+00
    0.17890E-07        -0.76226E-11         0.00000E+00
    0.17895E-07        -0.20594E-10         0.00000E+00
    0.17904E-07        -0.30778E-10         0.00000E+00
    0.17914E-07        -0.38541E-10         0.00000E+00
    0.17926E-07        -0.44123E-10         0.00000E+00
    0.17938E-07        -0.47689E-10         0.00000E+00
    0.17950E-07        -0.49356E-10         0.00000E+00
    0.17963E-07        -0.49219E-10         0.00000E+00
    0.17974E-07        -0.47367E-10         0.00000E+00
    0.17985E-07        -0.43896E-10         0.00000E+00
    0.17995E-07        -0.38903E-10         0.00000E+00
    0.18004E-07        -0.32492E-10         0.00000E+00
    0.18011E-07        -0.24762E-10         0.00000E+00
    0.18016E-07        -0.15794E-10         0.00000E+00
    0.18019E-07        -0.56362E-11         0.00000E+00
    0.17851E-07        -0.98635E-11         0.00000E+00
    0.17855E-07        -0.26332E-10         0.00000E+00
    0.17862E-07        -0.38888E-10         0.00000E+00
    0.17871E-07        -0.48155E-10         0.00000E+00
    0.17881E-07        -0.54578E-10         0.00000E+00
    0.17891E-07        -0.58481E-10         0.00000E+00
    0.17902E-07        -0.60100E-10         0.00000E+00
    0.17912E-07        -0.59617E-10         0.00000E+00
    0.17922E-07        -0.57177E-10         0.00000E+00
    0.17931E-07        -0.52903E-10         0.00000E+00
    0.17939E-07        -0.46902E-10         0.00000E+00
    0.17947E-07        -0.39262E-10         0.00000E+00
    0.17952E-07        -0.30046E-10         0.00000E+00
    0.17957E-07        -0.19282E-10         0.00000E+00
    0.17959E-07        -0.69458E-11         0.00000E+00
    0.17838E-07        -0.11634E-10         0.00000E+00
    0.17841E-07        -0.30860E-10         0.00000E+00
    0.17847E-07        -0.45277E-10         0.00000E+00
    0.17854E-07        -0.55714E-10         0.00000E+00
    0.17862E-07        -0.62780E-10         0.00000E+00
    0.17870E-07        -0.66930E-10         0.00000E+00
    0.17878E-07        -0.68495E-10         0.00000E+00
    0.17886E-07        -0.67728E-10         0.00000E+00
    0.17893E-07        -0.64820E-10         0.00000E+00
    0.17900E-07        -0.59917E-10         0.00000E+00
    0.17907E-07        -0.53129E-10         0.00000E+00
    0.17912E-07        -0.44533E-10         0.00000E+00
    0.17917E-07        -0.34164E-10         0.00000E+00
    0.17920E-07        -0.22003E-10         0.00000E+00
    0.17922E-07        -0.79689E-11         0.00000E+00
    0.17847E-07        -0.12868E-10         0.00000E+00
    0.17850E-07        -0.34005E-10         0.00000E+00
    0.17854E-07        -0.49693E-10         0.00000E+00
    0.17859E-07        -0.60908E-10         0.00000E+00
    0.17864E-07        -0.68387E-10         0.00000E+00
    0.17870E-07        -0.72674E-10         0.00000E+00
    0.17875E-07        -0.74177E-10         0.00000E+00
    0.17880E-07        -0.73197E-10         0.00000E+00
    0.17885E-07        -0.69958E-10         0.00000E+00
    0.17890E-07        -0.64625E-10         0.00000E+00
    0.17894E-07        -0.57310E-10         0.00000E+00
    0.17898E-07        -0.48078E-10         0.00000E+00
    0.17901E-07        -0.36941E-10         0.00000E+00
    0.17903E-07        -0.23846E-10         0.00000E+00
    0.17905E-07        -0.86652E-11         0.00000E+00
    0.17874E-07        -0.13525E-10         0.00000E+00
    0.17877E-07        -0.35654E-10         0.00000E+00
    0.17879E-07        -0.51965E-10         0.00000E+00
    0.17882E-07        -0.63530E-10         0.00000E+00
    0.17884E-07        -0.71162E-10         0.00000E+00
    0.17887E-07        -0.75464E-10         0.00000E+00
    0.17890E-07        -0.76889E-10         0.00000E+00
    0.17892E-07        -0.75770E-10         0.00000E+00
    0.17894E-07        -0.72352E-10         0.00000E+00
    0.17896E-07        -0.66808E-10         0.00000E+00
    0.17898E-07        -0.59251E-10         0.00000E+00
    0.17900E-07        -0.49735E-10         0.00000E+00
    0.17901E-07        -0.38255E-10         0.00000E+00
    0.17902E-07        -0.24733E-10         0.00000E+00
    0.17903E-07        -0.90072E-11         0.00000E+00
    0.17915E-07        -0.13585E-10         0.00000E+00
    0.17916E-07        -0.35750E-10         0.00000E+00
    0.17917E-07        -0.52005E-10         0.00000E+00
    0.17918E-07        -0.63466E-10         0.00000E+00
    0.17918E-07        -0.70973E-10         0.00000E+00
    0.17918E-07        -0.75156E-10         0.00000E+00
    0.17917E-07        -0.76484E-10         0.00000E+00
    0.17917E-07        -0.75301E-10         0.00000E+00
    0.17916E-07        -0.71859E-10         0.00000E+00
    0.17915E-07        -0.66334E-10         0.00000E+00
    0.17915E-07        -0.58836E-10         0.00000E+00
    0.17914E-07        -0.49410E-10         0.00000E+00
    0.17914E-07        -0.38036E-10         0.00000E+00
    0.17914E-07        -0.24620E-10         0.00000E+00
    0.17914E-07        -0.89797E-11         0.00000E+00
    0.17964E-07        -0.13045E-10         0.00000E+00
    0.17965E-07        -0.34283E-10         0.00000E+00
    0.17964E-07        -0.49796E-10         0.00000E+00
    0.17962E-07        -0.60686E-10         0.00000E+00
    0.17960E-07        -0.67783E-10         0.00000E+00
    0.17957E-07        -0.71704E-10         0.00000E+00
    0.17954E-07        -0.72908E-10         0.00000E+00
    0.17950E-07        -0.71733E-10         0.00000E+00
    0.17946E-07        -0.68424E-10         0.00000E+00
    0.17943E-07        -0.63152E-10         0.00000E+00
    0.17940E-07        -0.56020E-10         0.00000E+00
    0.17938E-07        -0.47065E-10         0.00000E+00
    0.17936E-07        -0.36258E-10         0.00000E+00
    0.17935E-07        -0.23493E-10         0.00000E+00
    0.17934E-07        -0.85789E-11         0.00000E+00
    0.18018E-07        -0.11917E-10         0.00000E+00
    0.18018E-07        -0.31283E-10         0.00000E+00
    0.18016E-07        -0.45375E-10         0.00000E+00
    0.18012E-07        -0.55233E-10         0.00000E+00
    0.18007E-07        -0.61631E-10         0.00000E+00
    0.18001E-07        -0.65141E-10         0.00000E+00
    0.17995E-07        -0.66189E-10         0.00000E+00
    0.17988E-07        -0.65088E-10         0.00000E+00
    0.17982E-07        -0.62065E-10         0.00000E+00
    0.17976E-07        -0.57277E-10         0.00000E+00
    0.17971E-07        -0.50817E-10         0.00000E+00
    0.17966E-07        -0.42714E-10         0.00000E+00
    0.17963E-07        -0.32934E-10         0.00000E+00
    0.17960E-07        -0.21364E-10         0.00000E+00
    0.17959E-07        -0.78102E-11         0.00000E+00
    0.18072E-07        -0.10222E-10         0.00000E+00
    0.18071E-07        -0.26805E-10         0.00000E+00
    0.18068E-07        -0.38818E-10         0.00000E+00
    0.18062E-07        -0.47191E-10         0.00000E+00
    0.18055E-07        -0.52605E-10         0.00000E+00
    0.18046E-07        -0.55557E-10         0.00000E+00
    0.18037E-07        -0.56413E-10         0.00000E+00
    0.18028E-07        -0.55445E-10         0.00000E+00
    0.18019E-07        -0.52853E-10         0.00000E+00
    0.18010E-07        -0.48772E-10         0.00000E+00
    0.18002E-07        -0.43281E-10         0.00000E+00
    0.17996E-07        -0.36405E-10         0.00000E+00
    0.17991E-07        -0.28103E-10         0.00000E+00
    0.17988E-07        -0.18260E-10         0.00000E+00
    0.17986E-07        -0.66850E-11         0.00000E+00
    0.18123E-07        -0.79729E-11         0.00000E+00
    0.18122E-07        -0.20904E-10         0.00000E+00
    0.18117E-07        -0.30205E-10         0.00000E+00
    0.18110E-07        -0.36659E-10         0.00000E+00
    0.18100E-07        -0.40817E-10         0.00000E+00
    0.18089E-07        -0.43064E-10         0.00000E+00
    0.18077E-07        -0.43691E-10         0.00000E+00
    0.18065E-07        -0.42913E-10         0.00000E+00
    0.18053E-07        -0.40891E-10         0.00000E+00
    0.18042E-07        -0.37731E-10         0.00000E+00
    0.18033E-07        -0.33495E-10         0.00000E+00
    0.18024E-07        -0.28201E-10         0.00000E+00
    0.18018E-07        -0.21814E-10         0.00000E+00
    0.18013E-07        -0.14215E-10         0.00000E+00
    0.18012E-07        -0.52144E-11         0.00000E+00
    0.18168E-07        -0.51649E-11         0.00000E+00
    0.18168E-07        -0.13602E-10         0.00000E+00
    0.18162E-07        -0.19573E-10         0.00000E+00
    0.18152E-07        -0.23710E-10         0.00000E+00
    0.18140E-07        -0.26356E-10         0.00000E+00
    0.18127E-07        -0.27767E-10         0.00000E+00
    0.18112E-07        -0.28136E-10         0.00000E+00
    0.18098E-07        -0.27610E-10         0.00000E+00
    0.18083E-07        -0.26295E-10         0.00000E+00
    0.18070E-07        -0.24261E-10         0.00000E+00
    0.18058E-07        -0.21548E-10         0.00000E+00
    0.18048E-07        -0.18165E-10         0.00000E+00
    0.18040E-07        -0.14089E-10         0.00000E+00
    0.18035E-07        -0.92485E-11         0.00000E+00
    0.18033E-07        -0.34012E-11         0.00000E+00
    0.18208E-07        -0.18092E-11         0.00000E+00
    0.18207E-07        -0.47998E-11         0.00000E+00
    0.18200E-07        -0.68755E-11         0.00000E+00
    0.18188E-07        -0.83181E-11         0.00000E+00
    0.18174E-07        -0.92328E-11         0.00000E+00
    0.18157E-07        -0.97134E-11         0.00000E+00
    0.18140E-07        -0.98311E-11         0.00000E+00
    0.18123E-07        -0.96393E-11         0.00000E+00
    0.18106E-07        -0.91760E-11         0.00000E+00
    0.18091E-07        -0.84660E-11         0.00000E+00
    0.18076E-07        -0.75225E-11         0.00000E+00
    0.18064E-07        -0.63482E-11         0.00000E+00
    0.18055E-07        -0.49334E-11         0.00000E+00
    0.18049E-07        -0.32677E-11         0.00000E+00
    0.18047E-07        -0.12042E-11         0.00000E+00
POINT_DATA        496
VECTORS vDarcyNodal double 
    0.21386E-07         0.00000E+00         0.00000E+00
    0.21387E-07         0.00000E+00         0.00000E+00
    0.21386E-07         0.00000E+00         0.00000E+00
    0.21383E-07         0.00000E+00         0.00000E+00
    0.21378E-07         0.00000E+00         0.00000E+00
    0.21371E-07         0.00000E+00         0.00000E+00
    0.21364E-07         0.00000E+00         0.00000E+00
    0.21355E-07         0.00000E+00         0.00000E+00
    0.21347E-07         0.00000E+00         0.00000E+00
    0.21338E-07         0.00000E+00         0.00000E+00
    0.21331E-07         0.00000E+00         0.00000E+00
    0.21324E-07         0.00000E+00         0.00000E+00
    0.21320E-07        -0.66660E-22         0.00000E+00
    0.21317E-07        -0.81820E-26         0.00000E+00
    0.21315E-07         0.66652E-22         0.00000E+00
    0.21316E-07         0.00000E+00         0.00000E+00
    0.21375E-07        -0.58355E-11         0.00000E+00
    0.21373E-07        -0.72908E-11         0.00000E+00
    0.21368E-07        -0.80300E-11         0.00000E+00
    0.21362E-07        -0.58861E-11         0.00000E+00
    0.21354E-07        -0.26253E-11         0.00000E+00
    0.21346E-07         0.87313E-12         0.00000E+00
    0.21337E-07         0.35473E-11         0.00000E+00
    0.21328E-07         0.50077E-11         0.00000E+00
    0.21319E-07         0.55184E-11         0.00000E+00
    0.21310E-07         0.53104E-11         0.00000E+00
    0.21302E-07         0.44943E-11         0.00000E+00
    0.21295E-07         0.31528E-11         0.00000E+00
    0.21289E-07         0.13889E-11         0.00000E+00
    0.21285E-07        -0.59003E-12         0.00000E+00
    0.21282E-07        -0.19943E-11         0.00000E+00
    0.21281E-07        -0.23911E-11         0.00000E+00
    0.21321E-07        -0.38133E-11         0.00000E+00
    0.21315E-07        -0.51124E-11         0.00000E+00
    0.21305E-07        -0.51697E-11         0.00000E+00
    0.21295E-07        -0.15291E-11         0.00000E+00
    0.21284E-07         0.31492E-11         0.00000E+00
    0.21273E-07         0.71683E-11         0.00000E+00
    0.21262E-07         0.10090E-10         0.00000E+00
    0.21251E-07         0.11838E-10         0.00000E+00
    0.21240E-07         0.12383E-10         0.00000E+00
    0.21231E-07         0.11835E-10         0.00000E+00
    0.21221E-07         0.10344E-10         0.00000E+00
    0.21213E-07         0.80603E-11         0.00000E+00
    0.21206E-07         0.51968E-11         0.00000E+00
    0.21200E-07         0.21956E-11         0.00000E+00
    0.21194E-07         0.85794E-13         0.00000E+00
    0.21191E-07        -0.56623E-12         0.00000E+00
    0.21209E-07        -0.11881E-12         0.00000E+00
    0.21203E-07         0.89108E-12         0.00000E+00
    0.21192E-07         0.40002E-11         0.00000E+00
    0.21179E-07         0.83384E-11         0.00000E+00
    0.21167E-07         0.12639E-10         0.00000E+00
    0.21154E-07         0.16307E-10         0.00000E+00
    0.21141E-07         0.18915E-10         0.00000E+00
    0.21130E-07         0.20291E-10         0.00000E+00
    0.21119E-07         0.20426E-10         0.00000E+00
    0.21108E-07         0.19380E-10         0.00000E+00
    0.21099E-07         0.17276E-10         0.00000E+00
    0.21090E-07         0.14278E-10         0.00000E+00
    0.21082E-07         0.10628E-10         0.00000E+00
    0.21075E-07         0.67228E-11         0.00000E+00
    0.21069E-07         0.30952E-11         0.00000E+00
    0.21066E-07         0.14221E-11         0.00000E+00
    0.21047E-07         0.41460E-11         0.00000E+00
    0.21042E-07         0.75688E-11         0.00000E+00
    0.21031E-07         0.13892E-10         0.00000E+00
    0.21018E-07         0.19249E-10         0.00000E+00
    0.21005E-07         0.23610E-10         0.00000E+00
    0.20992E-07         0.26819E-10         0.00000E+00
    0.20980E-07         0.28803E-10         0.00000E+00
    0.20968E-07         0.29533E-10         0.00000E+00
    0.20957E-07         0.29034E-10         0.00000E+00
    0.20947E-07         0.27381E-10         0.00000E+00
    0.20937E-07         0.24675E-10         0.00000E+00
    0.20929E-07         0.21046E-10         0.00000E+00
    0.20921E-07         0.16657E-10         0.00000E+00
    0.20914E-07         0.11684E-10         0.00000E+00
    0.20908E-07         0.62185E-11         0.00000E+00
    0.20906E-07         0.33636E-11         0.00000E+00
    0.20842E-07         0.76384E-11         0.00000E+00
    0.20838E-07         0.13398E-10         0.00000E+00
    0.20828E-07         0.23129E-10         0.00000E+00
    0.20817E-07         0.29850E-10         0.00000E+00
    0.20805E-07         0.34407E-10         0.00000E+00
    0.20793E-07         0.37225E-10         0.00000E+00
    0.20781E-07         0.38550E-10         0.00000E+00
    0.20770E-07         0.38552E-10         0.00000E+00
    0.20760E-07         0.37357E-10         0.00000E+00
    0.20751E-07         0.35069E-10         0.00000E+00
    0.20743E-07         0.31776E-10         0.00000E+00
    0.20735E-07         0.27547E-10         0.00000E+00
    0.20728E-07         0.22414E-10         0.00000E+00
    0.20722E-07         0.16326E-10         0.00000E+00
    0.20717E-07         0.90437E-11         0.00000E+00
    0.20715E-07         0.50573E-11         0.00000E+00
    0.20602E-07         0.10476E-10         0.00000E+00
    0.20598E-07         0.18205E-10         0.00000E+00
    0.20591E-07         0.30909E-10         0.00000E+00
    0.20581E-07         0.38973E-10         0.00000E+00
    0.20571E-07         0.43814E-10         0.00000E+00
    0.20561E-07         0.46318E-10         0.00000E+00
    0.20552E-07         0.47049E-10         0.00000E+00
    0.20543E-07         0.46372E-10         0.00000E+00
    0.20535E-07         0.44522E-10         0.00000E+00
    0.20528E-07         0.41649E-10         0.00000E+00
    0.20521E-07         0.37827E-10         0.00000E+00
    0.20515E-07         0.33058E-10         0.00000E+00
    0.20509E-07         0.27250E-10         0.00000E+00
    0.20504E-07         0.20164E-10         0.00000E+00
    0.20500E-07         0.11329E-10         0.00000E+00
    0.20499E-07         0.63985E-11         0.00000E+00
    0.20335E-07         0.12547E-10         0.00000E+00
    0.20333E-07         0.21750E-10         0.00000E+00
    0.20327E-07         0.36710E-10         0.00000E+00
    0.20321E-07         0.45837E-10         0.00000E+00
    0.20313E-07         0.50917E-10         0.00000E+00
    0.20306E-07         0.53168E-10         0.00000E+00
    0.20300E-07         0.53401E-10         0.00000E+00
    0.20294E-07         0.52154E-10         0.00000E+00
    0.20288E-07         0.49763E-10         0.00000E+00
    0.20283E-07         0.46418E-10         0.00000E+00
    0.20279E-07         0.42185E-10         0.00000E+00
    0.20274E-07         0.37010E-10         0.00000E+00
    0.20270E-07         0.30698E-10         0.00000E+00
    0.20267E-07         0.22874E-10         0.00000E+00
    0.20265E-07         0.12923E-10         0.00000E+00
    0.20264E-07         0.73212E-11         0.00000E+00
    0.20051E-07         0.13786E-10         0.00000E+00
    0.20050E-07         0.23881E-10         0.00000E+00
    0.20047E-07         0.40202E-10         0.00000E+00
    0.20043E-07         0.49949E-10         0.00000E+00
    0.20039E-07         0.55116E-10         0.00000E+00
    0.20035E-07         0.57122E-10         0.00000E+00
    0.20032E-07         0.56954E-10         0.00000E+00
    0.20029E-07         0.55274E-10         0.00000E+00
    0.20027E-07         0.52496E-10         0.00000E+00
    0.20024E-07         0.48845E-10         0.00000E+00
    0.20022E-07         0.44379E-10         0.00000E+00
    0.20021E-07         0.39003E-10         0.00000E+00
    0.20019E-07         0.32450E-10         0.00000E+00
    0.20017E-07         0.24262E-10         0.00000E+00
    0.20016E-07         0.13739E-10         0.00000E+00
    0.20016E-07         0.77906E-11         0.00000E+00
    0.19759E-07         0.14171E-10         0.00000E+00
    0.19759E-07         0.24538E-10         0.00000E+00
    0.19758E-07         0.41241E-10         0.00000E+00
    0.19757E-07         0.51069E-10         0.00000E+00
    0.19757E-07         0.56088E-10         0.00000E+00
    0.19757E-07         0.57812E-10         0.00000E+00
    0.19757E-07         0.57320E-10         0.00000E+00
    0.19757E-07         0.55348E-10         0.00000E+00
    0.19758E-07         0.52360E-10         0.00000E+00
    0.19759E-07         0.48602E-10         0.00000E+00
    0.19760E-07         0.44126E-10         0.00000E+00
    0.19760E-07         0.38810E-10         0.00000E+00
    0.19761E-07         0.32348E-10         0.00000E+00
    0.19761E-07         0.24236E-10         0.00000E+00
    0.19761E-07         0.13745E-10         0.00000E+00
    0.19761E-07         0.77984E-11         0.00000E+00
    0.19468E-07         0.13727E-10         0.00000E+00
    0.19468E-07         0.23750E-10         0.00000E+00
    0.19470E-07         0.39843E-10         0.00000E+00
    0.19472E-07         0.49174E-10         0.00000E+00
    0.19475E-07         0.53766E-10         0.00000E+00
    0.19478E-07         0.55132E-10         0.00000E+00
    0.19482E-07         0.54370E-10         0.00000E+00
    0.19486E-07         0.52239E-10         0.00000E+00
    0.19490E-07         0.49222E-10         0.00000E+00
    0.19494E-07         0.45571E-10         0.00000E+00
    0.19497E-07         0.41334E-10         0.00000E+00
    0.19501E-07         0.36373E-10         0.00000E+00
    0.19503E-07         0.30366E-10         0.00000E+00
    0.19505E-07         0.22799E-10         0.00000E+00
    0.19507E-07         0.12955E-10         0.00000E+00
    0.19507E-07         0.73603E-11         0.00000E+00
    0.19186E-07         0.12523E-10         0.00000E+00
    0.19187E-07         0.21627E-10         0.00000E+00
    0.19190E-07         0.36168E-10         0.00000E+00
    0.19195E-07         0.44434E-10         0.00000E+00
    0.19201E-07         0.48305E-10         0.00000E+00
    0.19208E-07         0.49213E-10         0.00000E+00
    0.19215E-07         0.48212E-10         0.00000E+00
    0.19222E-07         0.46040E-10         0.00000E+00
    0.19229E-07         0.43167E-10         0.00000E+00
    0.19236E-07         0.39836E-10         0.00000E+00
    0.19242E-07         0.36090E-10         0.00000E+00
    0.19248E-07         0.31784E-10         0.00000E+00
    0.19253E-07         0.26600E-10         0.00000E+00
    0.19256E-07         0.20040E-10         0.00000E+00
    0.19259E-07         0.11428E-10         0.00000E+00
    0.19260E-07         0.65136E-11         0.00000E+00
    0.18920E-07         0.10660E-10         0.00000E+00
    0.18922E-07         0.18339E-10         0.00000E+00
    0.18927E-07         0.30495E-10         0.00000E+00
    0.18934E-07         0.37176E-10         0.00000E+00
    0.18943E-07         0.40045E-10         0.00000E+00
    0.18953E-07         0.40388E-10         0.00000E+00
    0.18963E-07         0.39163E-10         0.00000E+00
    0.18972E-07         0.37046E-10         0.00000E+00
    0.18982E-07         0.34471E-10         0.00000E+00
    0.18991E-07         0.31657E-10         0.00000E+00
    0.19000E-07         0.28637E-10         0.00000E+00
    0.19007E-07         0.25268E-10         0.00000E+00
    0.19014E-07         0.21247E-10         0.00000E+00
    0.19019E-07         0.16115E-10         0.00000E+00
    0.19022E-07         0.92587E-11         0.00000E+00
    0.19024E-07         0.53138E-11         0.00000E+00
    0.18677E-07         0.82661E-11         0.00000E+00
    0.18680E-07         0.14108E-10         0.00000E+00
    0.18686E-07         0.23193E-10         0.00000E+00
    0.18695E-07         0.27852E-10         0.00000E+00
    0.18706E-07         0.29474E-10         0.00000E+00
    0.18718E-07         0.29151E-10         0.00000E+00
    0.18730E-07         0.27705E-10         0.00000E+00
    0.18742E-07         0.25720E-10         0.00000E+00
    0.18754E-07         0.23570E-10         0.00000E+00
    0.18765E-07         0.21439E-10         0.00000E+00
    0.18776E-07         0.19347E-10         0.00000E+00
    0.18785E-07         0.17157E-10         0.00000E+00
    0.18793E-07         0.14591E-10         0.00000E+00
    0.18799E-07         0.11239E-10         0.00000E+00
    0.18803E-07         0.65693E-11         0.00000E+00
    0.18804E-07         0.38308E-11         0.00000E+00
    0.18462E-07         0.54883E-11         0.00000E+00
    0.18465E-07         0.91896E-11         0.00000E+00
    0.18472E-07         0.14695E-10         0.00000E+00
    0.18483E-07         0.17000E-10         0.00000E+00
    0.18495E-07         0.17186E-10         0.00000E+00
    0.18508E-07         0.16115E-10         0.00000E+00
    0.18522E-07         0.14445E-10         0.00000E+00
    0.18536E-07         0.12646E-10         0.00000E+00
    0.18549E-07         0.11016E-10         0.00000E+00
    0.18562E-07         0.96976E-11         0.00000E+00
    0.18573E-07         0.86898E-11         0.00000E+00
    0.18584E-07         0.78641E-11         0.00000E+00
    0.18593E-07         0.69744E-11         0.00000E+00
    0.18600E-07         0.56690E-11         0.00000E+00
    0.18604E-07         0.35035E-11         0.00000E+00
    0.18606E-07         0.21447E-11         0.00000E+00
    0.18278E-07         0.24812E-11         0.00000E+00
    0.18281E-07         0.38569E-11         0.00000E+00
    0.18289E-07         0.54685E-11         0.00000E+00
    0.18300E-07         0.52109E-11         0.00000E+00
    0.18313E-07         0.38374E-11         0.00000E+00
    0.18327E-07         0.19639E-11         0.00000E+00
    0.18342E-07         0.67610E-13         0.00000E+00
    0.18356E-07        -0.15101E-11         0.00000E+00
    0.18371E-07        -0.25568E-11         0.00000E+00
    0.18384E-07        -0.29813E-11         0.00000E+00
    0.18397E-07        -0.28038E-11         0.00000E+00
    0.18408E-07        -0.21460E-11         0.00000E+00
    0.18417E-07        -0.12195E-11         0.00000E+00
    0.18424E-07        -0.31431E-12         0.00000E+00
    0.18429E-07         0.21685E-12         0.00000E+00
    0.18431E-07         0.34134E-12         0.00000E+00
    0.18126E-07        -0.59916E-12         0.00000E+00
    0.18129E-07        -0.16134E-11         0.00000E+00
    0.18137E-07        -0.40075E-11         0.00000E+00
    0.18149E-07        -0.69075E-11         0.00000E+00
    0.18162E-07        -0.98879E-11         0.00000E+00
    0.18176E-07        -0.12584E-10         0.00000E+00
    0.18191E-07        -0.14705E-10         0.00000E+00
    0.18206E-07        -0.16044E-10         0.00000E+00
    0.18221E-07        -0.16480E-10         0.00000E+00
    0.18234E-07        -0.15976E-10         0.00000E+00
    0.18247E-07        -0.14572E-10         0.00000E+00
    0.18258E-07        -0.12385E-10         0.00000E+00
    0.18267E-07        -0.95915E-11         0.00000E+00
    0.18275E-07        -0.64193E-11         0.00000E+00
    0.18280E-07        -0.31309E-11         0.00000E+00
    0.18281E-07        -0.14921E-11         0.00000E+00
    0.18008E-07        -0.36032E-11         0.00000E+00
    0.18012E-07        -0.69545E-11         0.00000E+00
    0.18019E-07        -0.13270E-10         0.00000E+00
    0.18030E-07        -0.18761E-10         0.00000E+00
    0.18043E-07        -0.23318E-10         0.00000E+00
    0.18057E-07        -0.26818E-10         0.00000E+00
    0.18071E-07        -0.29155E-10         0.00000E+00
    0.18086E-07        -0.30254E-10         0.00000E+00
    0.18100E-07        -0.30085E-10         0.00000E+00
    0.18113E-07        -0.28663E-10         0.00000E+00
    0.18125E-07        -0.26055E-10         0.00000E+00
    0.18136E-07        -0.22367E-10         0.00000E+00
    0.18145E-07        -0.17746E-10         0.00000E+00
    0.18152E-07        -0.12359E-10         0.00000E+00
    0.18156E-07        -0.63835E-11         0.00000E+00
    0.18158E-07        -0.32707E-11         0.00000E+00
    0.17923E-07        -0.63938E-11         0.00000E+00
    0.17926E-07        -0.11920E-10         0.00000E+00
    0.17934E-07        -0.21888E-10         0.00000E+00
    0.17944E-07        -0.29797E-10         0.00000E+00
    0.17956E-07        -0.35823E-10         0.00000E+00
    0.17968E-07        -0.40071E-10         0.00000E+00
    0.17982E-07        -0.42604E-10         0.00000E+00
    0.17995E-07        -0.43474E-10         0.00000E+00
    0.18008E-07        -0.42734E-10         0.00000E+00
    0.18020E-07        -0.40453E-10         0.00000E+00
    0.18031E-07        -0.36718E-10         0.00000E+00
    0.18040E-07        -0.31632E-10         0.00000E+00
    0.18049E-07        -0.25309E-10         0.00000E+00
    0.18055E-07        -0.17864E-10         0.00000E+00
    0.18060E-07        -0.93950E-11         0.00000E+00
    0.18061E-07        -0.49156E-11         0.00000E+00
    0.17869E-07        -0.88510E-11         0.00000E+00
    0.17872E-07        -0.16295E-10         0.00000E+00
    0.17878E-07        -0.29483E-10         0.00000E+00
    0.17887E-07        -0.39521E-10         0.00000E+00
    0.17898E-07        -0.46840E-10         0.00000E+00
    0.17909E-07        -0.51741E-10         0.00000E+00
    0.17920E-07        -0.54440E-10         0.00000E+00
    0.17932E-07        -0.55100E-10         0.00000E+00
    0.17943E-07        -0.53851E-10         0.00000E+00
    0.17953E-07        -0.50809E-10         0.00000E+00
    0.17963E-07        -0.46080E-10         0.00000E+00
    0.17971E-07        -0.39762E-10         0.00000E+00
    0.17979E-07        -0.31944E-10         0.00000E+00
    0.17984E-07        -0.22691E-10         0.00000E+00
    0.17988E-07        -0.12035E-10         0.00000E+00
    0.17990E-07        -0.63567E-11         0.00000E+00
    0.17843E-07        -0.10876E-10         0.00000E+00
    0.17846E-07        -0.19899E-10         0.00000E+00
    0.17851E-07        -0.35736E-10         0.00000E+00
    0.17858E-07        -0.47521E-10         0.00000E+00
    0.17867E-07        -0.55892E-10         0.00000E+00
    0.17876E-07        -0.61317E-10         0.00000E+00
    0.17885E-07        -0.64140E-10         0.00000E+00
    0.17895E-07        -0.64616E-10         0.00000E+00
    0.17904E-07        -0.62942E-10         0.00000E+00
    0.17912E-07        -0.59270E-10         0.00000E+00
    0.17920E-07        -0.53725E-10         0.00000E+00
    0.17926E-07        -0.46401E-10         0.00000E+00
    0.17932E-07        -0.37363E-10         0.00000E+00
    0.17937E-07        -0.26636E-10         0.00000E+00
    0.17940E-07        -0.14192E-10         0.00000E+00
    0.17941E-07        -0.75348E-11         0.00000E+00
    0.17842E-07        -0.12391E-10         0.00000E+00
    0.17844E-07        -0.22594E-10         0.00000E+00
    0.17848E-07        -0.40400E-10         0.00000E+00
    0.17853E-07        -0.53469E-10         0.00000E+00
    0.17860E-07        -0.62601E-10         0.00000E+00
    0.17866E-07        -0.68392E-10         0.00000E+00
    0.17873E-07        -0.71285E-10         0.00000E+00
    0.17880E-07        -0.71607E-10         0.00000E+00
    0.17886E-07        -0.69606E-10         0.00000E+00
    0.17892E-07        -0.65465E-10         0.00000E+00
    0.17898E-07        -0.59320E-10         0.00000E+00
    0.17903E-07        -0.51261E-10         0.00000E+00
    0.17907E-07        -0.41334E-10         0.00000E+00
    0.17910E-07        -0.29531E-10         0.00000E+00
    0.17913E-07        -0.15780E-10         0.00000E+00
    0.17914E-07        -0.84030E-11         0.00000E+00
    0.17860E-07        -0.13345E-10         0.00000E+00
    0.17862E-07        -0.24280E-10         0.00000E+00
    0.17865E-07        -0.43297E-10         0.00000E+00
    0.17868E-07        -0.57131E-10         0.00000E+00
    0.17872E-07        -0.66694E-10         0.00000E+00
    0.17876E-07        -0.72668E-10         0.00000E+00
    0.17880E-07        -0.75566E-10         0.00000E+00
    0.17884E-07        -0.75766E-10         0.00000E+00
    0.17888E-07        -0.73548E-10         0.00000E+00
    0.17892E-07        -0.69117E-10         0.00000E+00
    0.17895E-07        -0.62614E-10         0.00000E+00
    0.17897E-07        -0.54127E-10         0.00000E+00
    0.17900E-07        -0.43685E-10         0.00000E+00
    0.17902E-07        -0.31256E-10         0.00000E+00
    0.17903E-07        -0.16732E-10         0.00000E+00
    0.17904E-07        -0.89274E-11         0.00000E+00
    0.17895E-07        -0.13706E-10         0.00000E+00
    0.17896E-07        -0.24900E-10         0.00000E+00
    0.17897E-07        -0.44322E-10         0.00000E+00
    0.17899E-07        -0.58364E-10         0.00000E+00
    0.17900E-07        -0.67998E-10         0.00000E+00
    0.17902E-07        -0.73957E-10         0.00000E+00
    0.17903E-07        -0.76787E-10         0.00000E+00
    0.17904E-07        -0.76893E-10         0.00000E+00
    0.17905E-07        -0.74574E-10         0.00000E+00
    0.17905E-07        -0.70043E-10         0.00000E+00
    0.17906E-07        -0.63444E-10         0.00000E+00
    0.17907E-07        -0.54859E-10         0.00000E+00
    0.17907E-07        -0.44306E-10         0.00000E+00
    0.17908E-07        -0.31733E-10         0.00000E+00
    0.17908E-07        -0.17009E-10         0.00000E+00
    0.17909E-07        -0.90869E-11         0.00000E+00
    0.17940E-07        -0.13464E-10         0.00000E+00
    0.17940E-07        -0.24435E-10         0.00000E+00
    0.17941E-07        -0.43433E-10         0.00000E+00
    0.17940E-07        -0.57108E-10         0.00000E+00
    0.17940E-07        -0.66441E-10         0.00000E+00
    0.17938E-07        -0.72172E-10         0.00000E+00
    0.17936E-07        -0.74853E-10         0.00000E+00
    0.17934E-07        -0.74891E-10         0.00000E+00
    0.17932E-07        -0.72586E-10         0.00000E+00
    0.17930E-07        -0.68151E-10         0.00000E+00
    0.17928E-07        -0.61726E-10         0.00000E+00
    0.17927E-07        -0.53386E-10         0.00000E+00
    0.17925E-07        -0.43140E-10         0.00000E+00
    0.17924E-07        -0.30924E-10         0.00000E+00
    0.17924E-07        -0.16591E-10         0.00000E+00
    0.17924E-07        -0.88725E-11         0.00000E+00
    0.17992E-07        -0.12626E-10         0.00000E+00
    0.17992E-07        -0.22893E-10         0.00000E+00
    0.17991E-07        -0.40646E-10         0.00000E+00
    0.17989E-07        -0.53375E-10         0.00000E+00
    0.17985E-07        -0.62030E-10         0.00000E+00
    0.17981E-07        -0.67316E-10         0.00000E+00
    0.17977E-07        -0.69760E-10         0.00000E+00
    0.17972E-07        -0.69750E-10         0.00000E+00
    0.17967E-07        -0.67572E-10         0.00000E+00
    0.17962E-07        -0.63427E-10         0.00000E+00
    0.17957E-07        -0.57447E-10         0.00000E+00
    0.17953E-07        -0.49699E-10         0.00000E+00
    0.17950E-07        -0.40183E-10         0.00000E+00
    0.17948E-07        -0.28828E-10         0.00000E+00
    0.17947E-07        -0.15481E-10         0.00000E+00
    0.17946E-07        -0.82854E-11         0.00000E+00
    0.18046E-07        -0.11209E-10         0.00000E+00
    0.18045E-07        -0.20308E-10         0.00000E+00
    0.18044E-07        -0.36013E-10         0.00000E+00
    0.18040E-07        -0.47233E-10         0.00000E+00
    0.18034E-07        -0.54835E-10         0.00000E+00
    0.18027E-07        -0.59457E-10         0.00000E+00
    0.18020E-07        -0.61572E-10         0.00000E+00
    0.18012E-07        -0.61529E-10         0.00000E+00
    0.18004E-07        -0.59583E-10         0.00000E+00
    0.17997E-07        -0.55916E-10         0.00000E+00
    0.17990E-07        -0.50648E-10         0.00000E+00
    0.17983E-07        -0.43833E-10         0.00000E+00
    0.17979E-07        -0.35466E-10         0.00000E+00
    0.17975E-07        -0.25470E-10         0.00000E+00
    0.17973E-07        -0.13693E-10         0.00000E+00
    0.17972E-07        -0.73351E-11         0.00000E+00
    0.18098E-07        -0.92348E-11         0.00000E+00
    0.18098E-07        -0.16719E-10         0.00000E+00
    0.18095E-07        -0.29610E-10         0.00000E+00
    0.18090E-07        -0.38777E-10         0.00000E+00
    0.18082E-07        -0.44962E-10         0.00000E+00
    0.18073E-07        -0.48706E-10         0.00000E+00
    0.18062E-07        -0.50398E-10         0.00000E+00
    0.18052E-07        -0.50330E-10         0.00000E+00
    0.18041E-07        -0.48716E-10         0.00000E+00
    0.18031E-07        -0.45709E-10         0.00000E+00
    0.18022E-07        -0.41407E-10         0.00000E+00
    0.18013E-07        -0.35855E-10         0.00000E+00
    0.18007E-07        -0.29043E-10         0.00000E+00
    0.18002E-07        -0.20893E-10         0.00000E+00
    0.17999E-07        -0.11252E-10         0.00000E+00
    0.17998E-07        -0.60351E-11         0.00000E+00
    0.18147E-07        -0.67115E-11         0.00000E+00
    0.18146E-07        -0.12158E-10         0.00000E+00
    0.18143E-07        -0.21500E-10         0.00000E+00
    0.18136E-07        -0.28089E-10         0.00000E+00
    0.18126E-07        -0.32515E-10         0.00000E+00
    0.18114E-07        -0.35177E-10         0.00000E+00
    0.18101E-07        -0.36358E-10         0.00000E+00
    0.18088E-07        -0.36275E-10         0.00000E+00
    0.18075E-07        -0.35089E-10         0.00000E+00
    0.18062E-07        -0.32914E-10         0.00000E+00
    0.18050E-07        -0.29821E-10         0.00000E+00
    0.18040E-07        -0.25842E-10         0.00000E+00
    0.18032E-07        -0.20972E-10         0.00000E+00
    0.18026E-07        -0.15136E-10         0.00000E+00
    0.18022E-07        -0.81776E-11         0.00000E+00
    0.18021E-07        -0.43939E-11         0.00000E+00
    0.18190E-07        -0.36189E-11         0.00000E+00
    0.18189E-07        -0.66098E-11         0.00000E+00
    0.18185E-07        -0.11677E-10         0.00000E+00
    0.18176E-07        -0.15195E-10         0.00000E+00
    0.18164E-07        -0.17553E-10         0.00000E+00
    0.18150E-07        -0.18948E-10         0.00000E+00
    0.18134E-07        -0.19546E-10         0.00000E+00
    0.18118E-07        -0.19472E-10         0.00000E+00
    0.18102E-07        -0.18817E-10         0.00000E+00
    0.18087E-07        -0.17643E-10         0.00000E+00
    0.18073E-07        -0.15990E-10         0.00000E+00
    0.18061E-07        -0.13872E-10         0.00000E+00
    0.18051E-07        -0.11283E-10         0.00000E+00
    0.18044E-07        -0.82018E-11         0.00000E+00
    0.18040E-07        -0.44722E-11         0.00000E+00
    0.18039E-07        -0.24086E-11         0.00000E+00
    0.18209E-07         0.00000E+00         0.00000E+00
    0.18209E-07         0.00000E+00         0.00000E+00
    0.18204E-07        -0.49661E-22         0.00000E+00
    0.18195E-07         0.99898E-26         0.00000E+00
    0.18181E-07         0.53810E-22         0.00000E+00
    0.18166E-07         0.00000E+00         0.00000E+00
    0.18149E-07         0.00000E+00         0.00000E+00
    0.18132E-07        -0.49700E-22         0.00000E+00
    0.18115E-07        -0.49700E-22         0.00000E+00
    0.18098E-07         0.49711E-22         0.00000E+00
    0.18083E-07         0.53853E-22         0.00000E+00
    0.18070E-07        -0.53864E-22         0.00000E+00
    0.18059E-07        -0.41388E-23         0.00000E+00
    0.18051E-07         0.53871E-22         0.00000E+00
    0.18047E-07         0.82886E-23         0.00000E+00
    0.18046E-07         0.00000E+00         0.00000E+00
CELL_DATA        450
TENSORS stressef double 
    0.44033E+08         0.23678E+06         0.00000E+00
    0.23678E+06         0.29688E+08         0.00000E+00
    0.00000E+00         0.00000E+00         0.27000E+08
 
    0.43909E+08        -0.20477E+05         0.00000E+00
   -0.20477E+05         0.29589E+08         0.00000E+00
    0.00000E+00         0.00000E+00         0.24091E+08
 
    0.42208E+08        -0.39086E+06         0.00000E+00
   -0.39086E+06         0.28969E+08         0.00000E+00
    0.00000E+00         0.00000E+00         0.20334E+08
 
    0.39931E+08        -0.46096E+06         0.00000E+00
   -0.46096E+06         0.27922E+08         0.00000E+00
    0.00000E+00         0.00000E+00         0.16463E+08
 
    0.37398E+08        -0.66454E+06         0.00000E+00
   -0.66454E+06         0.26762E+08         0.00000E+00
    0.00000E+00         0.00000E+00         0.13243E+08
 
    0.33904E+08        -0.66561E+06         0.00000E+00
   -0.66561E+06         0.25525E+08         0.00000E+00
    0.00000E+00         0.00000E+00         0.11886E+08
 
    0.31174E+08        -0.49307E+06         0.00000E+00
   -0.49307E+06         0.24455E+08         0.00000E+00
    0.00000E+00         0.00000E+00         0.11126E+08
 
    0.28869E+08        -0.35510E+06         0.00000E+00
   -0.35510E+06         0.23646E+08         0.00000E+00
    0.00000E+00         0.00000E+00         0.10503E+08
 
    0.26735E+08        -0.23462E+06         0.00000E+00
   -0.23462E+06         0.23076E+08         0.00000E+00
    0.00000E+00         0.00000E+00         0.99624E+07
 
    0.24640E+08        -0.11895E+06         0.00000E+00
   -0.11895E+06         0.22735E+08         0.00000E+00
    0.00000E+00         0.00000E+00         0.94749E+07
 
    0.22476E+08         0.19330E+04         0.00000E+00
    0.19330E+04         0.22626E+08         0.00000E+00
    0.00000E+00         0.00000E+00         0.90204E+07
 
    0.20131E+08         0.13889E+06         0.00000E+00
    0.13889E+06         0.22772E+08         0.00000E+00
    0.00000E+00         0.00000E+00         0.85806E+07
 
    0.17449E+08         0.31058E+06         0.00000E+00
    0.31058E+06         0.23224E+08         0.00000E+00
    0.00000E+00         0.00000E+00         0.81347E+07
 
    0.14161E+08         0.55644E+06         0.00000E+00
    0.55644E+06         0.24092E+08         0.00000E+00
    0.00000E+00         0.00000E+00         0.76507E+07
 
    0.95034E+07         0.11304E+07         0.00000E+00
    0.11304E+07         0.25694E+08         0.00000E+00
    0.00000E+00         0.00000E+00         0.70395E+07
 
    0.41315E+08         0.35199E+06         0.00000E+00
    0.35199E+06         0.24726E+08         0.00000E+00
    0.00000E+00         0.00000E+00         0.19053E+08
 
    0.40369E+08        -0.48604E+05         0.00000E+00
   -0.48604E+05         0.24638E+08         0.00000E+00
    0.00000E+00         0.00000E+00         0.16676E+08
 
    0.38841E+08        -0.74600E+06         0.00000E+00
   -0.74600E+06         0.24657E+08         0.00000E+00
    0.00000E+00         0.00000E+00         0.14075E+08
 
    0.36815E+08        -0.12234E+07         0.00000E+00
   -0.12234E+07         0.24557E+08         0.00000E+00
    0.00000E+00         0.00000E+00         0.12303E+08
 
    0.34001E+08        -0.15569E+07         0.00000E+00
   -0.15569E+07         0.24109E+08         0.00000E+00
    0.00000E+00         0.00000E+00         0.11622E+08
 
    0.31132E+08        -0.15985E+07         0.00000E+00
   -0.15985E+07         0.23523E+08         0.00000E+00
    0.00000E+00         0.00000E+00         0.10931E+08
 
    0.28443E+08        -0.13042E+07         0.00000E+00
   -0.13042E+07         0.22874E+08         0.00000E+00
    0.00000E+00         0.00000E+00         0.10263E+08
 
    0.26122E+08        -0.97303E+06         0.00000E+00
   -0.97303E+06         0.22293E+08         0.00000E+00
    0.00000E+00         0.00000E+00         0.96830E+07
 
    0.23980E+08        -0.64897E+06         0.00000E+00
   -0.64897E+06         0.21857E+08         0.00000E+00
    0.00000E+00         0.00000E+00         0.91676E+07
 
    0.21892E+08        -0.32042E+06         0.00000E+00
   -0.32042E+06         0.21602E+08         0.00000E+00
    0.00000E+00         0.00000E+00         0.86987E+07
 
    0.19752E+08         0.32486E+05         0.00000E+00
    0.32486E+05         0.21553E+08         0.00000E+00
    0.00000E+00         0.00000E+00         0.82610E+07
 
    0.17457E+08         0.43858E+06         0.00000E+00
    0.43858E+06         0.21743E+08         0.00000E+00
    0.00000E+00         0.00000E+00         0.78400E+07
 
    0.14876E+08         0.94953E+06         0.00000E+00
    0.94953E+06         0.22229E+08         0.00000E+00
    0.00000E+00         0.00000E+00         0.74211E+07
 
    0.11818E+08         0.16894E+07         0.00000E+00
    0.16894E+07         0.23106E+08         0.00000E+00
    0.00000E+00         0.00000E+00         0.69848E+07
 
    0.82397E+07         0.30627E+07         0.00000E+00
    0.30627E+07         0.24510E+08         0.00000E+00
    0.00000E+00         0.00000E+00         0.65499E+07
 
    0.38471E+08        -0.79406E+05         0.00000E+00
   -0.79406E+05         0.22087E+08         0.00000E+00
    0.00000E+00         0.00000E+00         0.13280E+08
 
    0.36916E+08        -0.32510E+06         0.00000E+00
   -0.32510E+06         0.21889E+08         0.00000E+00
    0.00000E+00         0.00000E+00         0.11761E+08
 
    0.35179E+08        -0.88349E+06         0.00000E+00
   -0.88349E+06         0.21731E+08         0.00000E+00
    0.00000E+00         0.00000E+00         0.11382E+08
 
    0.33257E+08        -0.15543E+07         0.00000E+00
   -0.15543E+07         0.21540E+08         0.00000E+00
    0.00000E+00         0.00000E+00         0.10959E+08
 
    0.30834E+08        -0.19350E+07         0.00000E+00
   -0.19350E+07         0.21298E+08         0.00000E+00
    0.00000E+00         0.00000E+00         0.10426E+08
 
    0.28279E+08        -0.19933E+07         0.00000E+00
   -0.19933E+07         0.21054E+08         0.00000E+00
    0.00000E+00         0.00000E+00         0.98666E+07
 
    0.25810E+08        -0.17661E+07         0.00000E+00
   -0.17661E+07         0.20779E+08         0.00000E+00
    0.00000E+00         0.00000E+00         0.93178E+07
 
    0.23534E+08        -0.13778E+07         0.00000E+00
   -0.13778E+07         0.20478E+08         0.00000E+00
    0.00000E+00         0.00000E+00         0.88023E+07
 
    0.21415E+08        -0.92567E+06         0.00000E+00
   -0.92567E+06         0.20235E+08         0.00000E+00
    0.00000E+00         0.00000E+00         0.83301E+07
 
    0.19359E+08        -0.42760E+06         0.00000E+00
   -0.42760E+06         0.20113E+08         0.00000E+00
    0.00000E+00         0.00000E+00         0.78945E+07
 
    0.17276E+08         0.13079E+06         0.00000E+00
    0.13079E+06         0.20159E+08         0.00000E+00
    0.00000E+00         0.00000E+00         0.74870E+07
 
    0.15082E+08         0.78641E+06         0.00000E+00
    0.78641E+06         0.20414E+08         0.00000E+00
    0.00000E+00         0.00000E+00         0.70992E+07
 
    0.12691E+08         0.16113E+07         0.00000E+00
    0.16113E+07         0.20928E+08         0.00000E+00
    0.00000E+00         0.00000E+00         0.67237E+07
 
    0.10055E+08         0.27558E+07         0.00000E+00
    0.27558E+07         0.21752E+08         0.00000E+00
    0.00000E+00         0.00000E+00         0.63613E+07
 
    0.72679E+07         0.44537E+07         0.00000E+00
    0.44537E+07         0.22845E+08         0.00000E+00
    0.00000E+00         0.00000E+00         0.60227E+07
 
    0.35286E+08        -0.24029E+06         0.00000E+00
   -0.24029E+06         0.19538E+08         0.00000E+00
    0.00000E+00         0.00000E+00         0.10965E+08
 
    0.33409E+08        -0.71596E+06         0.00000E+00
   -0.71596E+06         0.19352E+08         0.00000E+00
    0.00000E+00         0.00000E+00         0.10552E+08
 
    0.31646E+08        -0.12033E+07         0.00000E+00
   -0.12033E+07         0.19006E+08         0.00000E+00
    0.00000E+00         0.00000E+00         0.10130E+08
 
    0.29780E+08        -0.17284E+07         0.00000E+00
   -0.17284E+07         0.18765E+08         0.00000E+00
    0.00000E+00         0.00000E+00         0.97091E+07
 
    0.27664E+08        -0.20835E+07         0.00000E+00
   -0.20835E+07         0.18647E+08         0.00000E+00
    0.00000E+00         0.00000E+00         0.92621E+07
 
    0.25407E+08        -0.21508E+07         0.00000E+00
   -0.21508E+07         0.18561E+08         0.00000E+00
    0.00000E+00         0.00000E+00         0.87936E+07
 
    0.23170E+08        -0.19552E+07         0.00000E+00
   -0.19552E+07         0.18470E+08         0.00000E+00
    0.00000E+00         0.00000E+00         0.83279E+07
 
    0.21030E+08        -0.15635E+07         0.00000E+00
   -0.15635E+07         0.18374E+08         0.00000E+00
    0.00000E+00         0.00000E+00         0.78807E+07
 
    0.18991E+08        -0.10406E+07         0.00000E+00
   -0.10406E+07         0.18307E+08         0.00000E+00
    0.00000E+00         0.00000E+00         0.74597E+07
 
    0.17010E+08        -0.41794E+06         0.00000E+00
   -0.41794E+06         0.18321E+08         0.00000E+00
    0.00000E+00         0.00000E+00         0.70663E+07
 
    0.15025E+08         0.30960E+06         0.00000E+00
    0.30960E+06         0.18463E+08         0.00000E+00
    0.00000E+00         0.00000E+00         0.66977E+07
 
    0.12980E+08         0.11769E+07         0.00000E+00
    0.11769E+07         0.18774E+08         0.00000E+00
    0.00000E+00         0.00000E+00         0.63509E+07
 
    0.10838E+08         0.22538E+07         0.00000E+00
    0.22538E+07         0.19286E+08         0.00000E+00
    0.00000E+00         0.00000E+00         0.60249E+07
 
    0.86113E+07         0.36498E+07         0.00000E+00
    0.36498E+07         0.20003E+08         0.00000E+00
    0.00000E+00         0.00000E+00         0.57229E+07
 
    0.64072E+07         0.54926E+07         0.00000E+00
    0.54926E+07         0.20869E+08         0.00000E+00
    0.00000E+00         0.00000E+00         0.54552E+07
 
    0.31776E+08        -0.34960E+06         0.00000E+00
   -0.34960E+06         0.16619E+08         0.00000E+00
    0.00000E+00         0.00000E+00         0.96790E+07
 
    0.29952E+08        -0.94918E+06         0.00000E+00
   -0.94918E+06         0.16477E+08         0.00000E+00
    0.00000E+00         0.00000E+00         0.92859E+07
 
    0.28220E+08        -0.14599E+07         0.00000E+00
   -0.14599E+07         0.16295E+08         0.00000E+00
    0.00000E+00         0.00000E+00         0.89030E+07
 
    0.26438E+08        -0.18786E+07         0.00000E+00
   -0.18786E+07         0.16139E+08         0.00000E+00
    0.00000E+00         0.00000E+00         0.85154E+07
 
    0.24541E+08        -0.21450E+07         0.00000E+00
   -0.21450E+07         0.16064E+08         0.00000E+00
    0.00000E+00         0.00000E+00         0.81209E+07
 
    0.22550E+08        -0.21865E+07         0.00000E+00
   -0.21865E+07         0.16052E+08         0.00000E+00
    0.00000E+00         0.00000E+00         0.77204E+07
 
    0.20542E+08        -0.19898E+07         0.00000E+00
   -0.19898E+07         0.16067E+08         0.00000E+00
    0.00000E+00         0.00000E+00         0.73219E+07
 
    0.18578E+08        -0.15869E+07         0.00000E+00
   -0.15869E+07         0.16098E+08         0.00000E+00
    0.00000E+00         0.00000E+00         0.69350E+07
 
    0.16673E+08        -0.10165E+07         0.00000E+00
   -0.10165E+07         0.16158E+08         0.00000E+00
    0.00000E+00         0.00000E+00         0.65662E+07
 
    0.14813E+08        -0.30238E+06         0.00000E+00
   -0.30238E+06         0.16280E+08         0.00000E+00
    0.00000E+00         0.00000E+00         0.62184E+07
 
    0.12966E+08         0.55637E+06         0.00000E+00
    0.55637E+06         0.16498E+08         0.00000E+00
    0.00000E+00         0.00000E+00         0.58927E+07
 
    0.11104E+08         0.15866E+07         0.00000E+00
    0.15866E+07         0.16842E+08         0.00000E+00
    0.00000E+00         0.00000E+00         0.55892E+07
 
    0.92219E+07         0.28401E+07         0.00000E+00
    0.28401E+07         0.17327E+08         0.00000E+00
    0.00000E+00         0.00000E+00         0.53098E+07
 
    0.73522E+07         0.43863E+07         0.00000E+00
    0.43863E+07         0.17942E+08         0.00000E+00
    0.00000E+00         0.00000E+00         0.50588E+07
 
    0.55876E+07         0.62925E+07         0.00000E+00
    0.62925E+07         0.18633E+08         0.00000E+00
    0.00000E+00         0.00000E+00         0.48442E+07
 
    0.28142E+08        -0.41686E+06         0.00000E+00
   -0.41686E+06         0.13727E+08         0.00000E+00
    0.00000E+00         0.00000E+00         0.83738E+07
 
    0.26474E+08        -0.10877E+07         0.00000E+00
   -0.10877E+07         0.13656E+08         0.00000E+00
    0.00000E+00         0.00000E+00         0.80259E+07
 
    0.24856E+08        -0.15984E+07         0.00000E+00
   -0.15984E+07         0.13561E+08         0.00000E+00
    0.00000E+00         0.00000E+00         0.76834E+07
 
    0.23213E+08        -0.19641E+07         0.00000E+00
   -0.19641E+07         0.13493E+08         0.00000E+00
    0.00000E+00         0.00000E+00         0.73411E+07
 
    0.21506E+08        -0.21601E+07         0.00000E+00
   -0.21601E+07         0.13477E+08         0.00000E+00
    0.00000E+00         0.00000E+00         0.69965E+07
 
    0.19741E+08        -0.21545E+07         0.00000E+00
   -0.21545E+07         0.13515E+08         0.00000E+00
    0.00000E+00         0.00000E+00         0.66512E+07
 
    0.17954E+08        -0.19334E+07         0.00000E+00
   -0.19334E+07         0.13594E+08         0.00000E+00
    0.00000E+00         0.00000E+00         0.63094E+07
 
    0.16181E+08        -0.15065E+07         0.00000E+00
   -0.15065E+07         0.13701E+08         0.00000E+00
    0.00000E+00         0.00000E+00         0.59765E+07
 
    0.14444E+08        -0.89397E+06         0.00000E+00
   -0.89397E+06         0.13843E+08         0.00000E+00
    0.00000E+00         0.00000E+00         0.56572E+07
 
    0.12740E+08        -0.10977E+06         0.00000E+00
   -0.10977E+06         0.14035E+08         0.00000E+00
    0.00000E+00         0.00000E+00         0.53551E+07
 
    0.11061E+08         0.84654E+06         0.00000E+00
    0.84654E+06         0.14300E+08         0.00000E+00
    0.00000E+00         0.00000E+00         0.50723E+07
 
    0.94007E+07         0.19928E+07         0.00000E+00
    0.19928E+07         0.14654E+08         0.00000E+00
    0.00000E+00         0.00000E+00         0.48110E+07
 
    0.77688E+07         0.33617E+07         0.00000E+00
    0.33617E+07         0.15102E+08         0.00000E+00
    0.00000E+00         0.00000E+00         0.45742E+07
 
    0.62041E+07         0.49932E+07         0.00000E+00
    0.49932E+07         0.15626E+08         0.00000E+00
    0.00000E+00         0.00000E+00         0.43661E+07
 
    0.47808E+07         0.69192E+07         0.00000E+00
    0.69192E+07         0.16184E+08         0.00000E+00
    0.00000E+00         0.00000E+00         0.41930E+07
 
    0.24460E+08        -0.44531E+06         0.00000E+00
   -0.44531E+06         0.10863E+08         0.00000E+00
    0.00000E+00         0.00000E+00         0.70647E+07
 
    0.23003E+08        -0.11504E+07         0.00000E+00
   -0.11504E+07         0.10842E+08         0.00000E+00
    0.00000E+00         0.00000E+00         0.67691E+07
 
    0.21552E+08        -0.16554E+07         0.00000E+00
   -0.16554E+07         0.10818E+08         0.00000E+00
    0.00000E+00         0.00000E+00         0.64741E+07
 
    0.20076E+08        -0.19831E+07         0.00000E+00
   -0.19831E+07         0.10816E+08         0.00000E+00
    0.00000E+00         0.00000E+00         0.61784E+07
 
    0.18558E+08        -0.21286E+07         0.00000E+00
   -0.21286E+07         0.10853E+08         0.00000E+00
    0.00000E+00         0.00000E+00         0.58822E+07
 
    0.17000E+08        -0.20778E+07         0.00000E+00
   -0.20778E+07         0.10934E+08         0.00000E+00
    0.00000E+00         0.00000E+00         0.55869E+07
 
    0.15423E+08        -0.18221E+07         0.00000E+00
   -0.18221E+07         0.11054E+08         0.00000E+00
    0.00000E+00         0.00000E+00         0.52953E+07
 
    0.13849E+08        -0.13637E+07         0.00000E+00
   -0.13637E+07         0.11207E+08         0.00000E+00
    0.00000E+00         0.00000E+00         0.50112E+07
 
    0.12296E+08        -0.71127E+06         0.00000E+00
   -0.71127E+06         0.11395E+08         0.00000E+00
    0.00000E+00         0.00000E+00         0.47383E+07
 
    0.10771E+08         0.12811E+06         0.00000E+00
    0.12811E+06         0.11627E+08         0.00000E+00
    0.00000E+00         0.00000E+00         0.44797E+07
 
    0.92788E+07         0.11549E+07         0.00000E+00
    0.11549E+07         0.11912E+08         0.00000E+00
    0.00000E+00         0.00000E+00         0.42381E+07
 
    0.78246E+07         0.23793E+07         0.00000E+00
    0.23793E+07         0.12258E+08         0.00000E+00
    0.00000E+00         0.00000E+00         0.40165E+07
 
    0.64274E+07         0.38194E+07         0.00000E+00
    0.38194E+07         0.12662E+08         0.00000E+00
    0.00000E+00         0.00000E+00         0.38179E+07
 
    0.51244E+07         0.54944E+07         0.00000E+00
    0.54944E+07         0.13107E+08         0.00000E+00
    0.00000E+00         0.00000E+00         0.36463E+07
 
    0.39739E+07         0.74153E+07         0.00000E+00
    0.74153E+07         0.13559E+08         0.00000E+00
    0.00000E+00         0.00000E+00         0.35065E+07
 
    0.20787E+08        -0.44799E+06         0.00000E+00
   -0.44799E+06         0.80302E+07         0.00000E+00
    0.00000E+00         0.00000E+00         0.57634E+07
 
    0.19563E+08        -0.11575E+07         0.00000E+00
   -0.11575E+07         0.80431E+07         0.00000E+00
    0.00000E+00         0.00000E+00         0.55212E+07
 
    0.18306E+08        -0.16511E+07         0.00000E+00
   -0.16511E+07         0.80686E+07         0.00000E+00
    0.00000E+00         0.00000E+00         0.52749E+07
 
    0.17016E+08        -0.19500E+07         0.00000E+00
   -0.19500E+07         0.81155E+07         0.00000E+00
    0.00000E+00         0.00000E+00         0.50262E+07
 
    0.15689E+08        -0.20572E+07         0.00000E+00
   -0.20572E+07         0.81933E+07         0.00000E+00
    0.00000E+00         0.00000E+00         0.47765E+07
 
    0.14333E+08        -0.19680E+07         0.00000E+00
   -0.19680E+07         0.83057E+07         0.00000E+00
    0.00000E+00         0.00000E+00         0.45277E+07
 
    0.12959E+08        -0.16778E+07         0.00000E+00
   -0.16778E+07         0.84520E+07         0.00000E+00
    0.00000E+00         0.00000E+00         0.42823E+07
 
    0.11585E+08        -0.11867E+07         0.00000E+00
   -0.11867E+07         0.86300E+07         0.00000E+00
    0.00000E+00         0.00000E+00         0.40431E+07
 
    0.10225E+08        -0.49814E+06         0.00000E+00
   -0.49814E+06         0.88401E+07         0.00000E+00
    0.00000E+00         0.00000E+00         0.38131E+07
 
    0.88912E+07         0.38439E+06         0.00000E+00
    0.38439E+06         0.90854E+07         0.00000E+00
    0.00000E+00         0.00000E+00         0.35953E+07
 
    0.75927E+07         0.14608E+07         0.00000E+00
    0.14608E+07         0.93695E+07         0.00000E+00
    0.00000E+00         0.00000E+00         0.33924E+07
 
    0.63430E+07         0.27354E+07         0.00000E+00
    0.27354E+07         0.96934E+07         0.00000E+00
    0.00000E+00         0.00000E+00         0.32073E+07
 
    0.51636E+07         0.42158E+07         0.00000E+00
    0.42158E+07         0.10051E+08         0.00000E+00
    0.00000E+00         0.00000E+00         0.30429E+07
 
    0.40879E+07         0.59077E+07         0.00000E+00
    0.59077E+07         0.10426E+08         0.00000E+00
    0.00000E+00         0.00000E+00         0.29027E+07
 
    0.31614E+07         0.78095E+07         0.00000E+00
    0.78095E+07         0.10791E+08         0.00000E+00
    0.00000E+00         0.00000E+00         0.27905E+07
 
    0.17161E+08        -0.43506E+06         0.00000E+00
   -0.43506E+06         0.52319E+07         0.00000E+00
    0.00000E+00         0.00000E+00         0.44786E+07
 
    0.16169E+08        -0.11284E+07         0.00000E+00
   -0.11284E+07         0.52652E+07         0.00000E+00
    0.00000E+00         0.00000E+00         0.42869E+07
 
    0.15118E+08        -0.16050E+07         0.00000E+00
   -0.16050E+07         0.53218E+07         0.00000E+00
    0.00000E+00         0.00000E+00         0.40880E+07
 
    0.14024E+08        -0.18796E+07         0.00000E+00
   -0.18796E+07         0.54007E+07         0.00000E+00
    0.00000E+00         0.00000E+00         0.38848E+07
 
    0.12893E+08        -0.19571E+07         0.00000E+00
   -0.19571E+07         0.55050E+07         0.00000E+00
    0.00000E+00         0.00000E+00         0.36796E+07
 
    0.11736E+08        -0.18366E+07         0.00000E+00
   -0.18366E+07         0.56368E+07         0.00000E+00
    0.00000E+00         0.00000E+00         0.34746E+07
 
    0.10564E+08        -0.15161E+07         0.00000E+00
   -0.15161E+07         0.57964E+07         0.00000E+00
    0.00000E+00         0.00000E+00         0.32720E+07
 
    0.93893E+07        -0.99547E+06         0.00000E+00
   -0.99547E+06         0.59831E+07         0.00000E+00
    0.00000E+00         0.00000E+00         0.30745E+07
 
    0.82261E+07        -0.27639E+06         0.00000E+00
   -0.27639E+06         0.61966E+07         0.00000E+00
    0.00000E+00         0.00000E+00         0.28845E+07
 
    0.70865E+07         0.63889E+06         0.00000E+00
    0.63889E+06         0.64373E+07         0.00000E+00
    0.00000E+00         0.00000E+00         0.27048E+07
 
    0.59834E+07         0.17490E+07         0.00000E+00
    0.17490E+07         0.67051E+07         0.00000E+00
    0.00000E+00         0.00000E+00         0.25377E+07
 
    0.49323E+07         0.30540E+07         0.00000E+00
    0.30540E+07         0.69974E+07         0.00000E+00
    0.00000E+00         0.00000E+00         0.23860E+07
 
    0.39547E+07         0.45539E+07         0.00000E+00
    0.45539E+07         0.73064E+07         0.00000E+00
    0.00000E+00         0.00000E+00         0.22522E+07
 
    0.30792E+07         0.62461E+07         0.00000E+00
    0.62461E+07         0.76178E+07         0.00000E+00
    0.00000E+00         0.00000E+00         0.21394E+07
 
    0.23418E+07         0.81211E+07         0.00000E+00
    0.81211E+07         0.79108E+07         0.00000E+00
    0.00000E+00         0.00000E+00         0.20505E+07
 
    0.13605E+08        -0.41379E+06         0.00000E+00
   -0.41379E+06         0.24708E+07         0.00000E+00
    0.00000E+00         0.00000E+00         0.32151E+07
 
    0.12835E+08        -0.10787E+07         0.00000E+00
   -0.10787E+07         0.25141E+07         0.00000E+00
    0.00000E+00         0.00000E+00         0.30698E+07
 
    0.11991E+08        -0.15340E+07         0.00000E+00
   -0.15340E+07         0.25865E+07         0.00000E+00
    0.00000E+00         0.00000E+00         0.29155E+07
 
    0.11095E+08        -0.17870E+07         0.00000E+00
   -0.17870E+07         0.26817E+07         0.00000E+00
    0.00000E+00         0.00000E+00         0.27554E+07
 
    0.10163E+08        -0.18408E+07         0.00000E+00
   -0.18408E+07         0.27984E+07         0.00000E+00
    0.00000E+00         0.00000E+00         0.25923E+07
 
    0.92051E+07        -0.16954E+07         0.00000E+00
   -0.16954E+07         0.29371E+07         0.00000E+00
    0.00000E+00         0.00000E+00         0.24284E+07
 
    0.82327E+07        -0.13501E+07         0.00000E+00
   -0.13501E+07         0.30977E+07         0.00000E+00
    0.00000E+00         0.00000E+00         0.22661E+07
 
    0.72575E+07        -0.80510E+06         0.00000E+00
   -0.80510E+06         0.32799E+07         0.00000E+00
    0.00000E+00         0.00000E+00         0.21075E+07
 
    0.62913E+07        -0.61877E+05         0.00000E+00
   -0.61877E+05         0.34829E+07         0.00000E+00
    0.00000E+00         0.00000E+00         0.19548E+07
 
    0.53464E+07         0.87713E+06         0.00000E+00
    0.87713E+06         0.37057E+07         0.00000E+00
    0.00000E+00         0.00000E+00         0.18104E+07
 
    0.44362E+07         0.20091E+07         0.00000E+00
    0.20091E+07         0.39465E+07         0.00000E+00
    0.00000E+00         0.00000E+00         0.16765E+07
 
    0.35761E+07         0.33305E+07         0.00000E+00
    0.33305E+07         0.42007E+07         0.00000E+00
    0.00000E+00         0.00000E+00         0.15554E+07
 
    0.27860E+07         0.48366E+07         0.00000E+00
    0.48366E+07         0.44605E+07         0.00000E+00
    0.00000E+00         0.00000E+00         0.14493E+07
 
    0.20897E+07         0.65191E+07         0.00000E+00
    0.65191E+07         0.47137E+07         0.00000E+00
    0.00000E+00         0.00000E+00         0.13607E+07
 
    0.15155E+07         0.83640E+07         0.00000E+00
    0.83640E+07         0.49437E+07         0.00000E+00
    0.00000E+00         0.00000E+00         0.12918E+07
 
    0.10129E+08        -0.38937E+06         0.00000E+00
   -0.38937E+06        -0.25243E+06         0.00000E+00
    0.00000E+00         0.00000E+00         0.19753E+07
 
    0.95657E+07        -0.10204E+07         0.00000E+00
   -0.10204E+07        -0.20699E+06         0.00000E+00
    0.00000E+00         0.00000E+00         0.18717E+07
 
    0.89235E+07        -0.14526E+07         0.00000E+00
   -0.14526E+07        -0.13089E+06         0.00000E+00
    0.00000E+00         0.00000E+00         0.17585E+07
 
    0.82271E+07        -0.16860E+07         0.00000E+00
   -0.16860E+07        -0.32904E+05         0.00000E+00
    0.00000E+00         0.00000E+00         0.16388E+07
 
    0.74933E+07        -0.17206E+07         0.00000E+00
   -0.17206E+07         0.83461E+05         0.00000E+00
    0.00000E+00         0.00000E+00         0.15153E+07
 
    0.67344E+07        -0.15558E+07         0.00000E+00
   -0.15558E+07         0.21708E+06         0.00000E+00
    0.00000E+00         0.00000E+00         0.13903E+07
 
    0.59611E+07        -0.11912E+07         0.00000E+00
   -0.11912E+07         0.36748E+06         0.00000E+00
    0.00000E+00         0.00000E+00         0.12657E+07
 
    0.51840E+07        -0.62737E+06         0.00000E+00
   -0.62737E+06         0.53407E+06         0.00000E+00
    0.00000E+00         0.00000E+00         0.11436E+07
 
    0.44137E+07         0.13375E+06         0.00000E+00
    0.13375E+06         0.71588E+06         0.00000E+00
    0.00000E+00         0.00000E+00         0.10259E+07
 
    0.36615E+07         0.10889E+07         0.00000E+00
    0.10889E+07         0.91123E+06         0.00000E+00
    0.00000E+00         0.00000E+00         0.91454E+06
 
    0.29397E+07         0.22338E+07         0.00000E+00
    0.22338E+07         0.11173E+07         0.00000E+00
    0.00000E+00         0.00000E+00         0.81140E+06
 
    0.22629E+07         0.35622E+07         0.00000E+00
    0.35622E+07         0.13292E+07         0.00000E+00
    0.00000E+00         0.00000E+00         0.71842E+06
 
    0.16478E+07         0.50660E+07         0.00000E+00
    0.50660E+07         0.15397E+07         0.00000E+00
    0.00000E+00         0.00000E+00         0.63750E+06
 
    0.11143E+07         0.67335E+07         0.00000E+00
    0.67335E+07         0.17385E+07         0.00000E+00
    0.00000E+00         0.00000E+00         0.57056E+06
 
    0.68427E+06         0.85478E+07         0.00000E+00
    0.85478E+07         0.19127E+07         0.00000E+00
    0.00000E+00         0.00000E+00         0.51940E+06
 
    0.67350E+07        -0.36551E+06         0.00000E+00
   -0.36551E+06        -0.29385E+07         0.00000E+00
    0.00000E+00         0.00000E+00         0.75929E+06
 
    0.63622E+07        -0.96272E+06         0.00000E+00
   -0.96272E+06        -0.28966E+07         0.00000E+00
    0.00000E+00         0.00000E+00         0.69312E+06
 
    0.59142E+07        -0.13724E+07         0.00000E+00
   -0.13724E+07        -0.28263E+07         0.00000E+00
    0.00000E+00         0.00000E+00         0.61758E+06
 
    0.54141E+07        -0.15886E+07         0.00000E+00
   -0.15886E+07        -0.27365E+07         0.00000E+00
    0.00000E+00         0.00000E+00         0.53552E+06
 
    0.48779E+07        -0.16078E+07         0.00000E+00
   -0.16078E+07        -0.26316E+07         0.00000E+00
    0.00000E+00         0.00000E+00         0.44926E+06
 
    0.43175E+07        -0.14282E+07         0.00000E+00
   -0.14282E+07        -0.25135E+07         0.00000E+00
    0.00000E+00         0.00000E+00         0.36080E+06
 
    0.37426E+07        -0.10492E+07         0.00000E+00
   -0.10492E+07        -0.23830E+07         0.00000E+00
    0.00000E+00         0.00000E+00         0.27191E+06
 
    0.31624E+07        -0.47165E+06         0.00000E+00
   -0.47165E+06        -0.22410E+07         0.00000E+00
    0.00000E+00         0.00000E+00         0.18427E+06
 
    0.25861E+07         0.30185E+06         0.00000E+00
    0.30185E+06        -0.20887E+07         0.00000E+00
    0.00000E+00         0.00000E+00         0.99475E+05
 
    0.20234E+07         0.12672E+07         0.00000E+00
    0.12672E+07        -0.19279E+07         0.00000E+00
    0.00000E+00         0.00000E+00         0.19103E+05
 
    0.14854E+07         0.24184E+07         0.00000E+00
    0.24184E+07        -0.17618E+07         0.00000E+00
    0.00000E+00         0.00000E+00        -0.55283E+05
 
    0.98415E+06         0.37477E+07         0.00000E+00
    0.37477E+07        -0.15948E+07         0.00000E+00
    0.00000E+00         0.00000E+00        -0.12213E+06
 
    0.53385E+06         0.52444E+07         0.00000E+00
    0.52444E+07        -0.14334E+07         0.00000E+00
    0.00000E+00         0.00000E+00        -0.17992E+06
 
    0.15019E+06         0.68945E+07         0.00000E+00
    0.68945E+07        -0.12860E+07         0.00000E+00
    0.00000E+00         0.00000E+00        -0.22716E+06
 
   -0.14995E+06         0.86796E+07         0.00000E+00
    0.86796E+07        -0.11624E+07         0.00000E+00
    0.00000E+00         0.00000E+00        -0.26247E+06
 
    0.34174E+07        -0.34485E+06         0.00000E+00
   -0.34485E+06        -0.55893E+07         0.00000E+00
    0.00000E+00         0.00000E+00        -0.43436E+06
 
    0.32204E+07        -0.91238E+06         0.00000E+00
   -0.91238E+06        -0.55551E+07         0.00000E+00
    0.00000E+00         0.00000E+00        -0.46694E+06
 
    0.29587E+07        -0.13025E+07         0.00000E+00
   -0.13025E+07        -0.54978E+07         0.00000E+00
    0.00000E+00         0.00000E+00        -0.50781E+06
 
    0.26511E+07        -0.15045E+07         0.00000E+00
   -0.15045E+07        -0.54248E+07         0.00000E+00
    0.00000E+00         0.00000E+00        -0.55474E+06
 
    0.23110E+07        -0.15119E+07         0.00000E+00
   -0.15119E+07        -0.53404E+07         0.00000E+00
    0.00000E+00         0.00000E+00        -0.60588E+06
 
    0.19481E+07        -0.13214E+07         0.00000E+00
   -0.13214E+07        -0.52463E+07         0.00000E+00
    0.00000E+00         0.00000E+00        -0.65964E+06
 
    0.15706E+07        -0.93210E+06         0.00000E+00
   -0.93210E+06        -0.51436E+07         0.00000E+00
    0.00000E+00         0.00000E+00        -0.71461E+06
 
    0.11858E+07        -0.34524E+06         0.00000E+00
   -0.34524E+06        -0.50333E+07         0.00000E+00
    0.00000E+00         0.00000E+00        -0.76950E+06
 
    0.80124E+06         0.43610E+06         0.00000E+00
    0.43610E+06        -0.49165E+07         0.00000E+00
    0.00000E+00         0.00000E+00        -0.82306E+06
 
    0.42498E+06         0.14069E+07         0.00000E+00
    0.14069E+07        -0.47954E+07         0.00000E+00
    0.00000E+00         0.00000E+00        -0.87408E+06
 
    0.65873E+05         0.25601E+07         0.00000E+00
    0.25601E+07        -0.46726E+07         0.00000E+00
    0.00000E+00         0.00000E+00        -0.92134E+06
 
   -0.26617E+06         0.38863E+07         0.00000E+00
    0.38863E+07        -0.45522E+07         0.00000E+00
    0.00000E+00         0.00000E+00        -0.96368E+06
 
   -0.56011E+06         0.53734E+07         0.00000E+00
    0.53734E+07        -0.44395E+07         0.00000E+00
    0.00000E+00         0.00000E+00        -0.99993E+06
 
   -0.80388E+06         0.70059E+07         0.00000E+00
    0.70059E+07        -0.43410E+07         0.00000E+00
    0.00000E+00         0.00000E+00        -0.10290E+07
 
   -0.98486E+06         0.87646E+07         0.00000E+00
    0.87646E+07        -0.42642E+07         0.00000E+00
    0.00000E+00         0.00000E+00        -0.10498E+07
 
    0.16585E+06        -0.32928E+06         0.00000E+00
   -0.32928E+06        -0.82075E+07         0.00000E+00
    0.00000E+00         0.00000E+00        -0.16083E+07
 
    0.13275E+06        -0.87432E+06         0.00000E+00
   -0.87432E+06        -0.81841E+07         0.00000E+00
    0.00000E+00         0.00000E+00        -0.16103E+07
 
    0.50426E+05        -0.12498E+07         0.00000E+00
   -0.12498E+07        -0.81449E+07         0.00000E+00
    0.00000E+00         0.00000E+00        -0.16189E+07
 
   -0.68234E+05        -0.14412E+07         0.00000E+00
   -0.14412E+07        -0.80952E+07         0.00000E+00
    0.00000E+00         0.00000E+00        -0.16327E+07
 
   -0.21412E+06        -0.14402E+07         0.00000E+00
   -0.14402E+07        -0.80378E+07         0.00000E+00
    0.00000E+00         0.00000E+00        -0.16504E+07
 
   -0.38047E+06        -0.12422E+07         0.00000E+00
   -0.12422E+07        -0.79742E+07         0.00000E+00
    0.00000E+00         0.00000E+00        -0.16709E+07
 
   -0.56170E+06        -0.84616E+06         0.00000E+00
   -0.84616E+06        -0.79052E+07         0.00000E+00
    0.00000E+00         0.00000E+00        -0.16934E+07
 
   -0.75251E+06        -0.25351E+06         0.00000E+00
   -0.25351E+06        -0.78316E+07         0.00000E+00
    0.00000E+00         0.00000E+00        -0.17168E+07
 
   -0.94740E+06         0.53211E+06         0.00000E+00
    0.53211E+06        -0.77548E+07         0.00000E+00
    0.00000E+00         0.00000E+00        -0.17404E+07
 
   -0.11404E+07         0.15049E+07         0.00000E+00
    0.15049E+07        -0.76764E+07         0.00000E+00
    0.00000E+00         0.00000E+00        -0.17634E+07
 
   -0.13247E+07         0.26569E+07         0.00000E+00
    0.26569E+07        -0.75991E+07         0.00000E+00
    0.00000E+00         0.00000E+00        -0.17848E+07
 
   -0.14929E+07         0.39779E+07         0.00000E+00
    0.39779E+07        -0.75261E+07         0.00000E+00
    0.00000E+00         0.00000E+00        -0.18038E+07
 
   -0.16371E+07         0.54546E+07         0.00000E+00
    0.54546E+07        -0.74615E+07         0.00000E+00
    0.00000E+00         0.00000E+00        -0.18197E+07
 
   -0.17485E+07         0.70708E+07         0.00000E+00
    0.70708E+07        -0.74101E+07         0.00000E+00
    0.00000E+00         0.00000E+00        -0.18317E+07
 
   -0.18182E+07         0.88067E+07         0.00000E+00
    0.88067E+07        -0.73772E+07         0.00000E+00
    0.00000E+00         0.00000E+00        -0.18391E+07
 
   -0.30340E+07        -0.32009E+06         0.00000E+00
   -0.32009E+06        -0.10797E+08         0.00000E+00
    0.00000E+00         0.00000E+00        -0.27662E+07
 
   -0.29113E+07        -0.85198E+06         0.00000E+00
   -0.85198E+06        -0.10786E+08         0.00000E+00
    0.00000E+00         0.00000E+00        -0.27395E+07
 
   -0.28190E+07        -0.12189E+07         0.00000E+00
   -0.12189E+07        -0.10769E+08         0.00000E+00
    0.00000E+00         0.00000E+00        -0.27175E+07
 
   -0.27512E+07        -0.14042E+07         0.00000E+00
   -0.14042E+07        -0.10746E+08         0.00000E+00
    0.00000E+00         0.00000E+00        -0.26995E+07
 
   -0.27041E+07        -0.13980E+07         0.00000E+00
   -0.13980E+07        -0.10721E+08         0.00000E+00
    0.00000E+00         0.00000E+00        -0.26849E+07
 
   -0.26748E+07        -0.11955E+07         0.00000E+00
   -0.11955E+07        -0.10692E+08         0.00000E+00
    0.00000E+00         0.00000E+00        -0.26733E+07
 
   -0.26607E+07        -0.79558E+06         0.00000E+00
   -0.79558E+06        -0.10660E+08         0.00000E+00
    0.00000E+00         0.00000E+00        -0.26641E+07
 
   -0.26589E+07        -0.19992E+06         0.00000E+00
   -0.19992E+06        -0.10626E+08         0.00000E+00
    0.00000E+00         0.00000E+00        -0.26570E+07
 
   -0.26662E+07         0.58720E+06         0.00000E+00
    0.58720E+06        -0.10592E+08         0.00000E+00
    0.00000E+00         0.00000E+00        -0.26516E+07
 
   -0.26785E+07         0.15594E+07         0.00000E+00
    0.15594E+07        -0.10558E+08         0.00000E+00
    0.00000E+00         0.00000E+00        -0.26473E+07
 
   -0.26915E+07         0.27082E+07         0.00000E+00
    0.27082E+07        -0.10527E+08         0.00000E+00
    0.00000E+00         0.00000E+00        -0.26437E+07
 
   -0.27002E+07         0.40227E+07         0.00000E+00
    0.40227E+07        -0.10501E+08         0.00000E+00
    0.00000E+00         0.00000E+00        -0.26403E+07
 
   -0.26994E+07         0.54892E+07         0.00000E+00
    0.54892E+07        -0.10484E+08         0.00000E+00
    0.00000E+00         0.00000E+00        -0.26367E+07
 
   -0.26837E+07         0.70912E+07         0.00000E+00
    0.70912E+07        -0.10478E+08         0.00000E+00
    0.00000E+00         0.00000E+00        -0.26324E+07
 
   -0.26477E+07         0.88085E+07         0.00000E+00
    0.88085E+07        -0.10487E+08         0.00000E+00
    0.00000E+00         0.00000E+00        -0.26270E+07
 
   -0.61988E+07        -0.31809E+06         0.00000E+00
   -0.31809E+06        -0.13361E+08         0.00000E+00
    0.00000E+00         0.00000E+00        -0.39121E+07
 
   -0.59241E+07        -0.84750E+06         0.00000E+00
   -0.84750E+06        -0.13365E+08         0.00000E+00
    0.00000E+00         0.00000E+00        -0.38578E+07
 
   -0.56591E+07        -0.12128E+07         0.00000E+00
   -0.12128E+07        -0.13371E+08         0.00000E+00
    0.00000E+00         0.00000E+00        -0.38059E+07
 
   -0.54058E+07        -0.13966E+07         0.00000E+00
   -0.13966E+07        -0.13378E+08         0.00000E+00
    0.00000E+00         0.00000E+00        -0.37568E+07
 
   -0.51660E+07        -0.13886E+07         0.00000E+00
   -0.13886E+07        -0.13386E+08         0.00000E+00
    0.00000E+00         0.00000E+00        -0.37104E+07
 
   -0.49414E+07        -0.11841E+07         0.00000E+00
   -0.11841E+07        -0.13394E+08         0.00000E+00
    0.00000E+00         0.00000E+00        -0.36670E+07
 
   -0.47327E+07        -0.78250E+06         0.00000E+00
   -0.78250E+06        -0.13401E+08         0.00000E+00
    0.00000E+00         0.00000E+00        -0.36267E+07
 
   -0.45397E+07        -0.18607E+06         0.00000E+00
   -0.18607E+06        -0.13408E+08         0.00000E+00
    0.00000E+00         0.00000E+00        -0.35895E+07
 
   -0.43611E+07         0.60037E+06         0.00000E+00
    0.60037E+06        -0.13416E+08         0.00000E+00
    0.00000E+00         0.00000E+00        -0.35555E+07
 
   -0.41952E+07         0.15700E+07         0.00000E+00
    0.15700E+07        -0.13427E+08         0.00000E+00
    0.00000E+00         0.00000E+00        -0.35244E+07
 
   -0.40395E+07         0.27141E+07         0.00000E+00
    0.27141E+07        -0.13442E+08         0.00000E+00
    0.00000E+00         0.00000E+00        -0.34963E+07
 
   -0.38916E+07         0.40215E+07         0.00000E+00
    0.40215E+07        -0.13463E+08         0.00000E+00
    0.00000E+00         0.00000E+00        -0.34710E+07
 
   -0.37490E+07         0.54785E+07         0.00000E+00
    0.54785E+07        -0.13492E+08         0.00000E+00
    0.00000E+00         0.00000E+00        -0.34483E+07
 
   -0.36096E+07         0.70687E+07         0.00000E+00
    0.70687E+07        -0.13531E+08         0.00000E+00
    0.00000E+00         0.00000E+00        -0.34281E+07
 
   -0.34712E+07         0.87719E+07         0.00000E+00
    0.87719E+07        -0.13581E+08         0.00000E+00
    0.00000E+00         0.00000E+00        -0.34104E+07
 
   -0.93465E+07        -0.32368E+06         0.00000E+00
   -0.32368E+06        -0.15906E+08         0.00000E+00
    0.00000E+00         0.00000E+00        -0.50504E+07
 
   -0.89191E+07        -0.86190E+06         0.00000E+00
   -0.86190E+06        -0.15923E+08         0.00000E+00
    0.00000E+00         0.00000E+00        -0.49685E+07
 
   -0.84802E+07        -0.12329E+07         0.00000E+00
   -0.12329E+07        -0.15953E+08         0.00000E+00
    0.00000E+00         0.00000E+00        -0.48867E+07
 
   -0.80400E+07        -0.14197E+07         0.00000E+00
   -0.14197E+07        -0.15991E+08         0.00000E+00
    0.00000E+00         0.00000E+00        -0.48062E+07
 
   -0.76067E+07        -0.14128E+07         0.00000E+00
   -0.14128E+07        -0.16033E+08         0.00000E+00
    0.00000E+00         0.00000E+00        -0.47279E+07
 
   -0.71866E+07        -0.12084E+07         0.00000E+00
   -0.12084E+07        -0.16077E+08         0.00000E+00
    0.00000E+00         0.00000E+00        -0.46527E+07
 
   -0.67839E+07        -0.80693E+06         0.00000E+00
   -0.80693E+06        -0.16122E+08         0.00000E+00
    0.00000E+00         0.00000E+00        -0.45811E+07
 
   -0.64008E+07        -0.21157E+06         0.00000E+00
   -0.21157E+06        -0.16168E+08         0.00000E+00
    0.00000E+00         0.00000E+00        -0.45139E+07
 
   -0.60382E+07         0.57228E+06         0.00000E+00
    0.57228E+06        -0.16218E+08         0.00000E+00
    0.00000E+00         0.00000E+00        -0.44512E+07
 
   -0.56960E+07         0.15375E+07         0.00000E+00
    0.15375E+07        -0.16272E+08         0.00000E+00
    0.00000E+00         0.00000E+00        -0.43935E+07
 
   -0.53736E+07         0.26753E+07         0.00000E+00
    0.26753E+07        -0.16331E+08         0.00000E+00
    0.00000E+00         0.00000E+00        -0.43410E+07
 
   -0.50709E+07         0.39750E+07         0.00000E+00
    0.39750E+07        -0.16398E+08         0.00000E+00
    0.00000E+00         0.00000E+00        -0.42938E+07
 
   -0.47881E+07         0.54234E+07         0.00000E+00
    0.54234E+07        -0.16473E+08         0.00000E+00
    0.00000E+00         0.00000E+00        -0.42522E+07
 
   -0.45262E+07         0.70043E+07         0.00000E+00
    0.70043E+07        -0.16555E+08         0.00000E+00
    0.00000E+00         0.00000E+00        -0.42163E+07
 
   -0.42868E+07         0.86980E+07         0.00000E+00
    0.86980E+07        -0.16645E+08         0.00000E+00
    0.00000E+00         0.00000E+00        -0.41864E+07
 
   -0.12496E+08        -0.33691E+06         0.00000E+00
   -0.33691E+06        -0.18434E+08         0.00000E+00
    0.00000E+00         0.00000E+00        -0.61860E+07
 
   -0.11910E+08        -0.89523E+06         0.00000E+00
   -0.89523E+06        -0.18465E+08         0.00000E+00
    0.00000E+00         0.00000E+00        -0.60751E+07
 
   -0.11292E+08        -0.12790E+07         0.00000E+00
   -0.12790E+07        -0.18519E+08         0.00000E+00
    0.00000E+00         0.00000E+00        -0.59622E+07
 
   -0.10662E+08        -0.14729E+07         0.00000E+00
   -0.14729E+07        -0.18585E+08         0.00000E+00
    0.00000E+00         0.00000E+00        -0.58494E+07
 
   -0.10033E+08        -0.14694E+07         0.00000E+00
   -0.14694E+07        -0.18659E+08         0.00000E+00
    0.00000E+00         0.00000E+00        -0.57383E+07
 
   -0.94163E+07        -0.12667E+07         0.00000E+00
   -0.12667E+07        -0.18736E+08         0.00000E+00
    0.00000E+00         0.00000E+00        -0.56305E+07
 
   -0.88201E+07        -0.86665E+06         0.00000E+00
   -0.86665E+06        -0.18816E+08         0.00000E+00
    0.00000E+00         0.00000E+00        -0.55272E+07
 
   -0.82483E+07        -0.27396E+06         0.00000E+00
   -0.27396E+06        -0.18899E+08         0.00000E+00
    0.00000E+00         0.00000E+00        -0.54294E+07
 
   -0.77034E+07         0.50534E+06         0.00000E+00
    0.50534E+06        -0.18986E+08         0.00000E+00
    0.00000E+00         0.00000E+00        -0.53379E+07
 
   -0.71866E+07         0.14640E+07         0.00000E+00
    0.14640E+07        -0.19080E+08         0.00000E+00
    0.00000E+00         0.00000E+00        -0.52532E+07
 
   -0.66988E+07         0.25938E+07         0.00000E+00
    0.25938E+07        -0.19181E+08         0.00000E+00
    0.00000E+00         0.00000E+00        -0.51760E+07
 
   -0.62420E+07         0.38846E+07         0.00000E+00
    0.38846E+07        -0.19292E+08         0.00000E+00
    0.00000E+00         0.00000E+00        -0.51068E+07
 
   -0.58189E+07         0.53245E+07         0.00000E+00
    0.53245E+07        -0.19411E+08         0.00000E+00
    0.00000E+00         0.00000E+00        -0.50461E+07
 
   -0.54339E+07         0.68982E+07         0.00000E+00
    0.68982E+07        -0.19537E+08         0.00000E+00
    0.00000E+00         0.00000E+00        -0.49943E+07
 
   -0.50924E+07         0.85867E+07         0.00000E+00
    0.85867E+07        -0.19667E+08         0.00000E+00
    0.00000E+00         0.00000E+00        -0.49519E+07
 
   -0.15665E+08        -0.35754E+06         0.00000E+00
   -0.35754E+06        -0.20951E+08         0.00000E+00
    0.00000E+00         0.00000E+00        -0.73232E+07
 
   -0.14910E+08        -0.94661E+06         0.00000E+00
   -0.94661E+06        -0.20995E+08         0.00000E+00
    0.00000E+00         0.00000E+00        -0.71811E+07
 
   -0.14105E+08        -0.13493E+07         0.00000E+00
   -0.13493E+07        -0.21070E+08         0.00000E+00
    0.00000E+00         0.00000E+00        -0.70351E+07
 
   -0.13278E+08        -0.15535E+07         0.00000E+00
   -0.15535E+07        -0.21162E+08         0.00000E+00
    0.00000E+00         0.00000E+00        -0.68880E+07
 
   -0.12450E+08        -0.15549E+07         0.00000E+00
   -0.15549E+07        -0.21263E+08         0.00000E+00
    0.00000E+00         0.00000E+00        -0.67426E+07
 
   -0.11636E+08        -0.13545E+07         0.00000E+00
   -0.13545E+07        -0.21369E+08         0.00000E+00
    0.00000E+00         0.00000E+00        -0.66010E+07
 
   -0.10847E+08        -0.95699E+06         0.00000E+00
   -0.95699E+06        -0.21477E+08         0.00000E+00
    0.00000E+00         0.00000E+00        -0.64648E+07
 
   -0.10088E+08        -0.36858E+06         0.00000E+00
   -0.36858E+06        -0.21590E+08         0.00000E+00
    0.00000E+00         0.00000E+00        -0.63356E+07
 
   -0.93630E+07         0.40383E+06         0.00000E+00
    0.40383E+06        -0.21709E+08         0.00000E+00
    0.00000E+00         0.00000E+00        -0.62144E+07
 
   -0.86734E+07         0.13531E+07         0.00000E+00
    0.13531E+07        -0.21837E+08         0.00000E+00
    0.00000E+00         0.00000E+00        -0.61022E+07
 
   -0.80212E+07         0.24719E+07         0.00000E+00
    0.24719E+07        -0.21978E+08         0.00000E+00
    0.00000E+00         0.00000E+00        -0.59998E+07
 
   -0.74098E+07         0.37516E+07         0.00000E+00
    0.37516E+07        -0.22130E+08         0.00000E+00
    0.00000E+00         0.00000E+00        -0.59079E+07
 
   -0.68446E+07         0.51821E+07         0.00000E+00
    0.51821E+07        -0.22293E+08         0.00000E+00
    0.00000E+00         0.00000E+00        -0.58275E+07
 
   -0.63335E+07         0.67499E+07         0.00000E+00
    0.67499E+07        -0.22463E+08         0.00000E+00
    0.00000E+00         0.00000E+00        -0.57592E+07
 
   -0.58862E+07         0.84373E+07         0.00000E+00
    0.84373E+07        -0.22634E+08         0.00000E+00
    0.00000E+00         0.00000E+00        -0.57040E+07
 
   -0.18871E+08        -0.38503E+06         0.00000E+00
   -0.38503E+06        -0.23461E+08         0.00000E+00
    0.00000E+00         0.00000E+00        -0.84664E+07
 
   -0.17931E+08        -0.10142E+07         0.00000E+00
   -0.10142E+07        -0.23517E+08         0.00000E+00
    0.00000E+00         0.00000E+00        -0.82896E+07
 
   -0.16927E+08        -0.14407E+07         0.00000E+00
   -0.14407E+07        -0.23609E+08         0.00000E+00
    0.00000E+00         0.00000E+00        -0.81072E+07
 
   -0.15895E+08        -0.16568E+07         0.00000E+00
   -0.16568E+07        -0.23722E+08         0.00000E+00
    0.00000E+00         0.00000E+00        -0.79233E+07
 
   -0.14863E+08        -0.16631E+07         0.00000E+00
   -0.16631E+07        -0.23844E+08         0.00000E+00
    0.00000E+00         0.00000E+00        -0.77413E+07
 
   -0.13850E+08        -0.14651E+07         0.00000E+00
   -0.14651E+07        -0.23969E+08         0.00000E+00
    0.00000E+00         0.00000E+00        -0.75639E+07
 
   -0.12869E+08        -0.10707E+07         0.00000E+00
   -0.10707E+07        -0.24098E+08         0.00000E+00
    0.00000E+00         0.00000E+00        -0.73934E+07
 
   -0.11926E+08        -0.48838E+06         0.00000E+00
   -0.48838E+06        -0.24231E+08         0.00000E+00
    0.00000E+00         0.00000E+00        -0.72315E+07
 
   -0.11024E+08         0.27402E+06         0.00000E+00
    0.27402E+06        -0.24374E+08         0.00000E+00
    0.00000E+00         0.00000E+00        -0.70797E+07
 
   -0.10164E+08         0.12098E+07         0.00000E+00
    0.12098E+07        -0.24531E+08         0.00000E+00
    0.00000E+00         0.00000E+00        -0.69390E+07
 
   -0.93479E+07         0.23131E+07         0.00000E+00
    0.23131E+07        -0.24704E+08         0.00000E+00
    0.00000E+00         0.00000E+00        -0.68105E+07
 
   -0.85805E+07         0.35777E+07         0.00000E+00
    0.35777E+07        -0.24895E+08         0.00000E+00
    0.00000E+00         0.00000E+00        -0.66951E+07
 
   -0.78695E+07         0.49963E+07         0.00000E+00
    0.49963E+07        -0.25101E+08         0.00000E+00
    0.00000E+00         0.00000E+00        -0.65941E+07
 
   -0.72265E+07         0.65581E+07         0.00000E+00
    0.65581E+07        -0.25316E+08         0.00000E+00
    0.00000E+00         0.00000E+00        -0.65085E+07
 
   -0.66665E+07         0.82474E+07         0.00000E+00
    0.82474E+07        -0.25531E+08         0.00000E+00
    0.00000E+00         0.00000E+00        -0.64395E+07
 
   -0.22130E+08        -0.41861E+06         0.00000E+00
   -0.41861E+06        -0.25967E+08         0.00000E+00
    0.00000E+00         0.00000E+00        -0.96194E+07
 
   -0.20983E+08        -0.10955E+07         0.00000E+00
   -0.10955E+07        -0.26033E+08         0.00000E+00
    0.00000E+00         0.00000E+00        -0.94031E+07
 
   -0.19763E+08        -0.15482E+07         0.00000E+00
   -0.15482E+07        -0.26139E+08         0.00000E+00
    0.00000E+00         0.00000E+00        -0.91803E+07
 
   -0.18515E+08        -0.17758E+07         0.00000E+00
   -0.17758E+07        -0.26265E+08         0.00000E+00
    0.00000E+00         0.00000E+00        -0.89559E+07
 
   -0.17274E+08        -0.17855E+07         0.00000E+00
   -0.17855E+07        -0.26397E+08         0.00000E+00
    0.00000E+00         0.00000E+00        -0.87342E+07
 
   -0.16062E+08        -0.15885E+07         0.00000E+00
   -0.15885E+07        -0.26532E+08         0.00000E+00
    0.00000E+00         0.00000E+00        -0.85187E+07
 
   -0.14892E+08        -0.11975E+07         0.00000E+00
   -0.11975E+07        -0.26668E+08         0.00000E+00
    0.00000E+00         0.00000E+00        -0.83120E+07
 
   -0.13769E+08        -0.62369E+06         0.00000E+00
   -0.62369E+06        -0.26811E+08         0.00000E+00
    0.00000E+00         0.00000E+00        -0.81161E+07
 
   -0.12694E+08         0.12433E+06         0.00000E+00
    0.12433E+06        -0.26967E+08         0.00000E+00
    0.00000E+00         0.00000E+00        -0.79323E+07
 
   -0.11667E+08         0.10406E+07         0.00000E+00
    0.10406E+07        -0.27143E+08         0.00000E+00
    0.00000E+00         0.00000E+00        -0.77620E+07
 
   -0.10688E+08         0.21216E+07         0.00000E+00
    0.21216E+07        -0.27344E+08         0.00000E+00
    0.00000E+00         0.00000E+00        -0.76063E+07
 
   -0.97620E+07         0.33646E+07         0.00000E+00
    0.33646E+07        -0.27570E+08         0.00000E+00
    0.00000E+00         0.00000E+00        -0.74663E+07
 
   -0.88993E+07         0.47663E+07         0.00000E+00
    0.47663E+07        -0.27818E+08         0.00000E+00
    0.00000E+00         0.00000E+00        -0.73434E+07
 
   -0.81155E+07         0.63200E+07         0.00000E+00
    0.63200E+07        -0.28080E+08         0.00000E+00
    0.00000E+00         0.00000E+00        -0.72391E+07
 
   -0.74320E+07         0.80132E+07         0.00000E+00
    0.80132E+07        -0.28343E+08         0.00000E+00
    0.00000E+00         0.00000E+00        -0.71550E+07
 
   -0.25453E+08        -0.45727E+06         0.00000E+00
   -0.45727E+06        -0.28474E+08         0.00000E+00
    0.00000E+00         0.00000E+00        -0.10785E+08
 
   -0.24072E+08        -0.11868E+07         0.00000E+00
   -0.11868E+07        -0.28546E+08         0.00000E+00
    0.00000E+00         0.00000E+00        -0.10524E+08
 
   -0.22616E+08        -0.16653E+07         0.00000E+00
   -0.16653E+07        -0.28659E+08         0.00000E+00
    0.00000E+00         0.00000E+00        -0.10255E+08
 
   -0.21140E+08        -0.19009E+07         0.00000E+00
   -0.19009E+07        -0.28788E+08         0.00000E+00
    0.00000E+00         0.00000E+00        -0.99856E+07
 
   -0.19685E+08        -0.19100E+07         0.00000E+00
   -0.19100E+07        -0.28919E+08         0.00000E+00
    0.00000E+00         0.00000E+00        -0.97208E+07
 
   -0.18274E+08        -0.17117E+07         0.00000E+00
   -0.17117E+07        -0.29048E+08         0.00000E+00
    0.00000E+00         0.00000E+00        -0.94645E+07
 
   -0.16920E+08        -0.13243E+07         0.00000E+00
   -0.13243E+07        -0.29177E+08         0.00000E+00
    0.00000E+00         0.00000E+00        -0.92195E+07
 
   -0.15624E+08        -0.76212E+06         0.00000E+00
   -0.76212E+06        -0.29314E+08         0.00000E+00
    0.00000E+00         0.00000E+00        -0.89878E+07
 
   -0.14383E+08        -0.34572E+05         0.00000E+00
   -0.34572E+05        -0.29471E+08         0.00000E+00
    0.00000E+00         0.00000E+00        -0.87709E+07
 
   -0.13193E+08         0.85380E+06         0.00000E+00
    0.85380E+06        -0.29656E+08         0.00000E+00
    0.00000E+00         0.00000E+00        -0.85698E+07
 
   -0.12053E+08         0.19026E+07         0.00000E+00
    0.19026E+07        -0.29875E+08         0.00000E+00
    0.00000E+00         0.00000E+00        -0.83856E+07
 
   -0.10965E+08         0.31140E+07         0.00000E+00
    0.31140E+07        -0.30133E+08         0.00000E+00
    0.00000E+00         0.00000E+00        -0.82195E+07
 
   -0.99422E+07         0.44904E+07         0.00000E+00
    0.44904E+07        -0.30423E+08         0.00000E+00
    0.00000E+00         0.00000E+00        -0.80731E+07
 
   -0.90047E+07         0.60311E+07         0.00000E+00
    0.60311E+07        -0.30736E+08         0.00000E+00
    0.00000E+00         0.00000E+00        -0.79481E+07
 
   -0.81816E+07         0.77287E+07         0.00000E+00
    0.77287E+07        -0.31054E+08         0.00000E+00
    0.00000E+00         0.00000E+00        -0.78470E+07
 
   -0.28852E+08        -0.49978E+06         0.00000E+00
   -0.49978E+06        -0.30983E+08         0.00000E+00
    0.00000E+00         0.00000E+00        -0.11967E+08
 
   -0.27202E+08        -0.12833E+07         0.00000E+00
   -0.12833E+07        -0.31058E+08         0.00000E+00
    0.00000E+00         0.00000E+00        -0.11652E+08
 
   -0.25484E+08        -0.17829E+07         0.00000E+00
   -0.17829E+07        -0.31171E+08         0.00000E+00
    0.00000E+00         0.00000E+00        -0.11331E+08
 
   -0.23766E+08        -0.20193E+07         0.00000E+00
   -0.20193E+07        -0.31291E+08         0.00000E+00
    0.00000E+00         0.00000E+00        -0.11011E+08
 
   -0.22093E+08        -0.20211E+07         0.00000E+00
   -0.20211E+07        -0.31403E+08         0.00000E+00
    0.00000E+00         0.00000E+00        -0.10699E+08
 
   -0.20488E+08        -0.18179E+07         0.00000E+00
   -0.18179E+07        -0.31507E+08         0.00000E+00
    0.00000E+00         0.00000E+00        -0.10399E+08
 
   -0.18959E+08        -0.14345E+07         0.00000E+00
   -0.14345E+07        -0.31610E+08         0.00000E+00
    0.00000E+00         0.00000E+00        -0.10114E+08
 
   -0.17500E+08        -0.88851E+06         0.00000E+00
   -0.88851E+06        -0.31724E+08         0.00000E+00
    0.00000E+00         0.00000E+00        -0.98448E+07
 
   -0.16103E+08        -0.18983E+06         0.00000E+00
   -0.18983E+06        -0.31865E+08         0.00000E+00
    0.00000E+00         0.00000E+00        -0.95935E+07
 
   -0.14757E+08         0.65908E+06         0.00000E+00
    0.65908E+06        -0.32046E+08         0.00000E+00
    0.00000E+00         0.00000E+00        -0.93606E+07
 
   -0.13457E+08         0.16621E+07         0.00000E+00
    0.16621E+07        -0.32276E+08         0.00000E+00
    0.00000E+00         0.00000E+00        -0.91466E+07
 
   -0.12204E+08         0.28276E+07         0.00000E+00
    0.28276E+07        -0.32560E+08         0.00000E+00
    0.00000E+00         0.00000E+00        -0.89528E+07
 
   -0.11010E+08         0.41659E+07         0.00000E+00
    0.41659E+07        -0.32894E+08         0.00000E+00
    0.00000E+00         0.00000E+00        -0.87807E+07
 
   -0.99007E+07         0.56850E+07         0.00000E+00
    0.56850E+07        -0.33263E+08         0.00000E+00
    0.00000E+00         0.00000E+00        -0.86328E+07
 
   -0.89150E+07         0.73848E+07         0.00000E+00
    0.73848E+07        -0.33645E+08         0.00000E+00
    0.00000E+00         0.00000E+00        -0.85119E+07
 
   -0.32332E+08        -0.54471E+06         0.00000E+00
   -0.54471E+06        -0.33497E+08         0.00000E+00
    0.00000E+00         0.00000E+00        -0.13166E+08
 
   -0.30370E+08        -0.13789E+07         0.00000E+00
   -0.13789E+07        -0.33571E+08         0.00000E+00
    0.00000E+00         0.00000E+00        -0.12788E+08
 
   -0.28361E+08        -0.18890E+07         0.00000E+00
   -0.18890E+07        -0.33672E+08         0.00000E+00
    0.00000E+00         0.00000E+00        -0.12407E+08
 
   -0.26387E+08        -0.21137E+07         0.00000E+00
   -0.21137E+07        -0.33765E+08         0.00000E+00
    0.00000E+00         0.00000E+00        -0.12030E+08
 
   -0.24495E+08        -0.20988E+07         0.00000E+00
   -0.20988E+07        -0.33837E+08         0.00000E+00
    0.00000E+00         0.00000E+00        -0.11666E+08
 
   -0.22704E+08        -0.18863E+07         0.00000E+00
   -0.18863E+07        -0.33893E+08         0.00000E+00
    0.00000E+00         0.00000E+00        -0.11319E+08
 
   -0.21012E+08        -0.15084E+07         0.00000E+00
   -0.15084E+07        -0.33947E+08         0.00000E+00
    0.00000E+00         0.00000E+00        -0.10992E+08
 
   -0.19405E+08        -0.98532E+06         0.00000E+00
   -0.98532E+06        -0.34019E+08         0.00000E+00
    0.00000E+00         0.00000E+00        -0.10685E+08
 
   -0.17865E+08        -0.32671E+06         0.00000E+00
   -0.32671E+06        -0.34127E+08         0.00000E+00
    0.00000E+00         0.00000E+00        -0.10398E+08
 
   -0.16374E+08         0.46771E+06         0.00000E+00
    0.46771E+06        -0.34290E+08         0.00000E+00
    0.00000E+00         0.00000E+00        -0.10133E+08
 
   -0.14919E+08         0.14069E+07         0.00000E+00
    0.14069E+07        -0.34520E+08         0.00000E+00
    0.00000E+00         0.00000E+00        -0.98879E+07
 
   -0.13496E+08         0.25069E+07         0.00000E+00
    0.25069E+07        -0.34827E+08         0.00000E+00
    0.00000E+00         0.00000E+00        -0.96646E+07
 
   -0.12118E+08         0.37886E+07         0.00000E+00
    0.37886E+07        -0.35205E+08         0.00000E+00
    0.00000E+00         0.00000E+00        -0.94645E+07
 
   -0.10813E+08         0.52720E+07         0.00000E+00
    0.52720E+07        -0.35638E+08         0.00000E+00
    0.00000E+00         0.00000E+00        -0.92903E+07
 
   -0.96332E+07         0.69687E+07         0.00000E+00
    0.69687E+07        -0.36097E+08         0.00000E+00
    0.00000E+00         0.00000E+00        -0.91460E+07
 
   -0.35894E+08        -0.59030E+06         0.00000E+00
   -0.59030E+06        -0.36018E+08         0.00000E+00
    0.00000E+00         0.00000E+00        -0.14382E+08
 
   -0.33566E+08        -0.14650E+07         0.00000E+00
   -0.14650E+07        -0.36084E+08         0.00000E+00
    0.00000E+00         0.00000E+00        -0.13930E+08
 
   -0.31232E+08        -0.19666E+07         0.00000E+00
   -0.19666E+07        -0.36157E+08         0.00000E+00
    0.00000E+00         0.00000E+00        -0.13478E+08
 
   -0.28990E+08        -0.21611E+07         0.00000E+00
   -0.21611E+07        -0.36199E+08         0.00000E+00
    0.00000E+00         0.00000E+00        -0.13038E+08
 
   -0.26885E+08        -0.21178E+07         0.00000E+00
   -0.21178E+07        -0.36203E+08         0.00000E+00
    0.00000E+00         0.00000E+00        -0.12618E+08
 
   -0.24923E+08        -0.18927E+07         0.00000E+00
   -0.18927E+07        -0.36184E+08         0.00000E+00
    0.00000E+00         0.00000E+00        -0.12221E+08
 
   -0.23088E+08        -0.15241E+07         0.00000E+00
   -0.15241E+07        -0.36165E+08         0.00000E+00
    0.00000E+00         0.00000E+00        -0.11851E+08
 
   -0.21353E+08        -0.10337E+07         0.00000E+00
   -0.10337E+07        -0.36172E+08         0.00000E+00
    0.00000E+00         0.00000E+00        -0.11505E+08
 
   -0.19688E+08        -0.42946E+06         0.00000E+00
   -0.42946E+06        -0.36230E+08         0.00000E+00
    0.00000E+00         0.00000E+00        -0.11184E+08
 
   -0.18065E+08         0.29207E+06         0.00000E+00
    0.29207E+06        -0.36360E+08         0.00000E+00
    0.00000E+00         0.00000E+00        -0.10885E+08
 
   -0.16462E+08         0.11450E+07         0.00000E+00
    0.11450E+07        -0.36580E+08         0.00000E+00
    0.00000E+00         0.00000E+00        -0.10609E+08
 
   -0.14868E+08         0.21540E+07         0.00000E+00
    0.21540E+07        -0.36903E+08         0.00000E+00
    0.00000E+00         0.00000E+00        -0.10354E+08
 
   -0.13288E+08         0.33528E+07         0.00000E+00
    0.33528E+07        -0.37327E+08         0.00000E+00
    0.00000E+00         0.00000E+00        -0.10123E+08
 
   -0.11757E+08         0.47789E+07         0.00000E+00
    0.47789E+07        -0.37835E+08         0.00000E+00
    0.00000E+00         0.00000E+00        -0.99185E+07
 
   -0.10339E+08         0.64620E+07         0.00000E+00
    0.64620E+07        -0.38390E+08         0.00000E+00
    0.00000E+00         0.00000E+00        -0.97457E+07
 
   -0.39533E+08        -0.63429E+06         0.00000E+00
   -0.63429E+06        -0.38545E+08         0.00000E+00
    0.00000E+00         0.00000E+00        -0.15616E+08
 
   -0.36768E+08        -0.15283E+07         0.00000E+00
   -0.15283E+07        -0.38594E+08         0.00000E+00
    0.00000E+00         0.00000E+00        -0.15072E+08
 
   -0.34074E+08        -0.19904E+07         0.00000E+00
   -0.19904E+07        -0.38614E+08         0.00000E+00
    0.00000E+00         0.00000E+00        -0.14538E+08
 
   -0.31560E+08        -0.21303E+07         0.00000E+00
   -0.21303E+07        -0.38570E+08         0.00000E+00
    0.00000E+00         0.00000E+00        -0.14026E+08
 
   -0.29258E+08        -0.20471E+07         0.00000E+00
   -0.20471E+07        -0.38471E+08         0.00000E+00
    0.00000E+00         0.00000E+00        -0.13546E+08
 
   -0.27149E+08        -0.18101E+07         0.00000E+00
   -0.18101E+07        -0.38346E+08         0.00000E+00
    0.00000E+00         0.00000E+00        -0.13099E+08
 
   -0.25197E+08        -0.14598E+07         0.00000E+00
   -0.14598E+07        -0.38230E+08         0.00000E+00
    0.00000E+00         0.00000E+00        -0.12685E+08
 
   -0.23358E+08        -0.10157E+07         0.00000E+00
   -0.10157E+07        -0.38154E+08         0.00000E+00
    0.00000E+00         0.00000E+00        -0.12302E+08
 
   -0.21590E+08        -0.48299E+06         0.00000E+00
   -0.48299E+06        -0.38146E+08         0.00000E+00
    0.00000E+00         0.00000E+00        -0.11947E+08
 
   -0.19853E+08         0.14483E+06         0.00000E+00
    0.14483E+06        -0.38230E+08         0.00000E+00
    0.00000E+00         0.00000E+00        -0.11617E+08
 
   -0.18114E+08         0.88580E+06         0.00000E+00
    0.88580E+06        -0.38428E+08         0.00000E+00
    0.00000E+00         0.00000E+00        -0.11309E+08
 
   -0.16349E+08         0.17721E+07         0.00000E+00
    0.17721E+07        -0.38759E+08         0.00000E+00
    0.00000E+00         0.00000E+00        -0.11022E+08
 
   -0.14553E+08         0.28522E+07         0.00000E+00
    0.28522E+07        -0.39229E+08         0.00000E+00
    0.00000E+00         0.00000E+00        -0.10756E+08
 
   -0.12756E+08         0.41880E+07         0.00000E+00
    0.41880E+07        -0.39825E+08         0.00000E+00
    0.00000E+00         0.00000E+00        -0.10516E+08
 
   -0.11038E+08         0.58387E+07         0.00000E+00
    0.58387E+07        -0.40501E+08         0.00000E+00
    0.00000E+00         0.00000E+00        -0.10308E+08
 
   -0.43234E+08        -0.67304E+06         0.00000E+00
   -0.67304E+06        -0.41078E+08         0.00000E+00
    0.00000E+00         0.00000E+00        -0.16862E+08
 
   -0.39940E+08        -0.15456E+07         0.00000E+00
   -0.15456E+07        -0.41091E+08         0.00000E+00
    0.00000E+00         0.00000E+00        -0.16206E+08
 
   -0.36852E+08        -0.19206E+07         0.00000E+00
   -0.19206E+07        -0.41017E+08         0.00000E+00
    0.00000E+00         0.00000E+00        -0.15574E+08
 
   -0.34080E+08        -0.19786E+07         0.00000E+00
   -0.19786E+07        -0.40836E+08         0.00000E+00
    0.00000E+00         0.00000E+00        -0.14983E+08
 
   -0.31613E+08        -0.18520E+07         0.00000E+00
   -0.18520E+07        -0.40591E+08         0.00000E+00
    0.00000E+00         0.00000E+00        -0.14441E+08
 
   -0.29392E+08        -0.16135E+07         0.00000E+00
   -0.16135E+07        -0.40332E+08         0.00000E+00
    0.00000E+00         0.00000E+00        -0.13945E+08
 
   -0.27353E+08        -0.12975E+07         0.00000E+00
   -0.12975E+07        -0.40101E+08         0.00000E+00
    0.00000E+00         0.00000E+00        -0.13491E+08
 
   -0.25437E+08        -0.91778E+06         0.00000E+00
   -0.91778E+06        -0.39931E+08         0.00000E+00
    0.00000E+00         0.00000E+00        -0.13074E+08
 
   -0.23590E+08        -0.47557E+06         0.00000E+00
   -0.47557E+06        -0.39847E+08         0.00000E+00
    0.00000E+00         0.00000E+00        -0.12687E+08
 
   -0.21761E+08         0.37428E+05         0.00000E+00
    0.37428E+05        -0.39875E+08         0.00000E+00
    0.00000E+00         0.00000E+00        -0.12327E+08
 
   -0.19905E+08         0.64041E+06         0.00000E+00
    0.64041E+06        -0.40040E+08         0.00000E+00
    0.00000E+00         0.00000E+00        -0.11989E+08
 
   -0.17979E+08         0.13684E+07         0.00000E+00
    0.13684E+07        -0.40367E+08         0.00000E+00
    0.00000E+00         0.00000E+00        -0.11669E+08
 
   -0.15954E+08         0.22827E+07         0.00000E+00
    0.22827E+07        -0.40878E+08         0.00000E+00
    0.00000E+00         0.00000E+00        -0.11367E+08
 
   -0.13845E+08         0.34770E+07         0.00000E+00
    0.34770E+07        -0.41575E+08         0.00000E+00
    0.00000E+00         0.00000E+00        -0.11084E+08
 
   -0.11743E+08         0.50612E+07         0.00000E+00
    0.50612E+07        -0.42407E+08         0.00000E+00
    0.00000E+00         0.00000E+00        -0.10830E+08
 
   -0.46961E+08        -0.69828E+06         0.00000E+00
   -0.69828E+06        -0.43614E+08         0.00000E+00
    0.00000E+00         0.00000E+00        -0.18115E+08
 
   -0.43015E+08        -0.14692E+07         0.00000E+00
   -0.14692E+07        -0.43549E+08         0.00000E+00
    0.00000E+00         0.00000E+00        -0.17313E+08
 
   -0.39527E+08        -0.16915E+07         0.00000E+00
   -0.16915E+07        -0.43299E+08         0.00000E+00
    0.00000E+00         0.00000E+00        -0.16565E+08
 
   -0.36544E+08        -0.16547E+07         0.00000E+00
   -0.16547E+07        -0.42915E+08         0.00000E+00
    0.00000E+00         0.00000E+00        -0.15892E+08
 
   -0.33963E+08        -0.15021E+07         0.00000E+00
   -0.15021E+07        -0.42489E+08         0.00000E+00
    0.00000E+00         0.00000E+00        -0.15290E+08
 
   -0.31671E+08        -0.12870E+07         0.00000E+00
   -0.12870E+07        -0.42081E+08         0.00000E+00
    0.00000E+00         0.00000E+00        -0.14750E+08
 
   -0.29577E+08        -0.10294E+07         0.00000E+00
   -0.10294E+07        -0.41731E+08         0.00000E+00
    0.00000E+00         0.00000E+00        -0.14262E+08
 
   -0.27610E+08        -0.73522E+06         0.00000E+00
   -0.73522E+06        -0.41465E+08         0.00000E+00
    0.00000E+00         0.00000E+00        -0.13815E+08
 
   -0.25707E+08        -0.40248E+06         0.00000E+00
   -0.40248E+06        -0.41307E+08         0.00000E+00
    0.00000E+00         0.00000E+00        -0.13403E+08
 
   -0.23811E+08        -0.22806E+05         0.00000E+00
   -0.22806E+05        -0.41278E+08         0.00000E+00
    0.00000E+00         0.00000E+00        -0.13018E+08
 
   -0.21863E+08         0.42034E+06         0.00000E+00
    0.42034E+06        -0.41402E+08         0.00000E+00
    0.00000E+00         0.00000E+00        -0.12653E+08
 
   -0.19800E+08         0.95767E+06         0.00000E+00
    0.95767E+06        -0.41710E+08         0.00000E+00
    0.00000E+00         0.00000E+00        -0.12302E+08
 
   -0.17554E+08         0.16490E+07         0.00000E+00
    0.16490E+07        -0.42243E+08         0.00000E+00
    0.00000E+00         0.00000E+00        -0.11960E+08
 
   -0.15088E+08         0.26211E+07         0.00000E+00
    0.26211E+07        -0.43044E+08         0.00000E+00
    0.00000E+00         0.00000E+00        -0.11626E+08
 
   -0.12480E+08         0.40730E+07         0.00000E+00
    0.40730E+07        -0.44080E+08         0.00000E+00
    0.00000E+00         0.00000E+00        -0.11312E+08
 
   -0.50629E+08        -0.68084E+06         0.00000E+00
   -0.68084E+06        -0.46134E+08         0.00000E+00
    0.00000E+00         0.00000E+00        -0.19353E+08
 
   -0.45891E+08        -0.11846E+07         0.00000E+00
   -0.11846E+07        -0.45861E+08         0.00000E+00
    0.00000E+00         0.00000E+00        -0.18350E+08
 
   -0.42079E+08        -0.12110E+07         0.00000E+00
   -0.12110E+07        -0.45302E+08         0.00000E+00
    0.00000E+00         0.00000E+00        -0.17476E+08
 
   -0.38981E+08        -0.11209E+07         0.00000E+00
   -0.11209E+07        -0.44670E+08         0.00000E+00
    0.00000E+00         0.00000E+00        -0.16730E+08
 
   -0.36343E+08        -0.98889E+06         0.00000E+00
   -0.98889E+06        -0.44061E+08         0.00000E+00
    0.00000E+00         0.00000E+00        -0.16081E+08
 
   -0.34014E+08        -0.83468E+06         0.00000E+00
   -0.83468E+06        -0.43519E+08         0.00000E+00
    0.00000E+00         0.00000E+00        -0.15507E+08
 
   -0.31892E+08        -0.66388E+06         0.00000E+00
   -0.66388E+06        -0.43067E+08         0.00000E+00
    0.00000E+00         0.00000E+00        -0.14992E+08
 
   -0.29896E+08        -0.47653E+06         0.00000E+00
   -0.47653E+06        -0.42724E+08         0.00000E+00
    0.00000E+00         0.00000E+00        -0.14524E+08
 
   -0.27959E+08        -0.26952E+06         0.00000E+00
   -0.26952E+06        -0.42504E+08         0.00000E+00
    0.00000E+00         0.00000E+00        -0.14093E+08
 
   -0.26018E+08        -0.36673E+05         0.00000E+00
   -0.36673E+05        -0.42426E+08         0.00000E+00
    0.00000E+00         0.00000E+00        -0.13689E+08
 
   -0.24007E+08         0.23285E+06         0.00000E+00
    0.23285E+06        -0.42511E+08         0.00000E+00
    0.00000E+00         0.00000E+00        -0.13304E+08
 
   -0.21847E+08         0.55905E+06         0.00000E+00
    0.55905E+06        -0.42792E+08         0.00000E+00
    0.00000E+00         0.00000E+00        -0.12928E+08
 
   -0.19432E+08         0.98292E+06         0.00000E+00
    0.98292E+06        -0.43319E+08         0.00000E+00
    0.00000E+00         0.00000E+00        -0.12550E+08
 
   -0.16598E+08         0.16083E+07         0.00000E+00
    0.16083E+07        -0.44176E+08         0.00000E+00
    0.00000E+00         0.00000E+00        -0.12155E+08
 
   -0.13308E+08         0.27788E+07         0.00000E+00
    0.27788E+07        -0.45483E+08         0.00000E+00
    0.00000E+00         0.00000E+00        -0.11758E+08
 
   -0.53998E+08        -0.42932E+06         0.00000E+00
   -0.42932E+06        -0.48408E+08         0.00000E+00
    0.00000E+00         0.00000E+00        -0.20481E+08
 
   -0.48495E+08        -0.48995E+06         0.00000E+00
   -0.48995E+06        -0.47624E+08         0.00000E+00
    0.00000E+00         0.00000E+00        -0.19224E+08
 
   -0.44586E+08        -0.44766E+06         0.00000E+00
   -0.44766E+06        -0.46748E+08         0.00000E+00
    0.00000E+00         0.00000E+00        -0.18267E+08
 
   -0.41450E+08        -0.39940E+06         0.00000E+00
   -0.39940E+06        -0.45930E+08         0.00000E+00
    0.00000E+00         0.00000E+00        -0.17476E+08
 
   -0.38794E+08        -0.34610E+06         0.00000E+00
   -0.34610E+06        -0.45202E+08         0.00000E+00
    0.00000E+00         0.00000E+00        -0.16799E+08
 
   -0.36453E+08        -0.28951E+06         0.00000E+00
   -0.28951E+06        -0.44578E+08         0.00000E+00
    0.00000E+00         0.00000E+00        -0.16206E+08
 
   -0.34318E+08        -0.22941E+06         0.00000E+00
   -0.22941E+06        -0.44068E+08         0.00000E+00
    0.00000E+00         0.00000E+00        -0.15677E+08
 
   -0.32308E+08        -0.16495E+06         0.00000E+00
   -0.16495E+06        -0.43680E+08         0.00000E+00
    0.00000E+00         0.00000E+00        -0.15198E+08
 
   -0.30355E+08        -0.94665E+05         0.00000E+00
   -0.94665E+05        -0.43425E+08         0.00000E+00
    0.00000E+00         0.00000E+00        -0.14756E+08
 
   -0.28392E+08        -0.16275E+05         0.00000E+00
   -0.16275E+05        -0.43318E+08         0.00000E+00
    0.00000E+00         0.00000E+00        -0.14342E+08
 
   -0.26349E+08         0.73939E+05         0.00000E+00
    0.73939E+05        -0.43379E+08         0.00000E+00
    0.00000E+00         0.00000E+00        -0.13946E+08
 
   -0.24139E+08         0.18263E+06         0.00000E+00
    0.18263E+06        -0.43638E+08         0.00000E+00
    0.00000E+00         0.00000E+00        -0.13555E+08
 
   -0.21630E+08         0.32422E+06         0.00000E+00
    0.32422E+06        -0.44146E+08         0.00000E+00
    0.00000E+00         0.00000E+00        -0.13155E+08
 
   -0.18596E+08         0.53147E+06         0.00000E+00
    0.53147E+06        -0.45002E+08         0.00000E+00
    0.00000E+00         0.00000E+00        -0.12720E+08
 
   -0.14383E+08         0.10200E+07         0.00000E+00
    0.10200E+07        -0.46481E+08         0.00000E+00
    0.00000E+00         0.00000E+00        -0.12173E+08
 
TENSORS stresstot double 
   -0.44478E+08         0.23678E+06         0.00000E+00
    0.23678E+06        -0.58822E+08         0.00000E+00
    0.00000E+00         0.00000E+00        -0.61510E+08
 
   -0.44601E+08        -0.20477E+05         0.00000E+00
   -0.20477E+05        -0.58921E+08         0.00000E+00
    0.00000E+00         0.00000E+00        -0.64419E+08
 
   -0.46301E+08        -0.39086E+06         0.00000E+00
   -0.39086E+06        -0.59541E+08         0.00000E+00
    0.00000E+00         0.00000E+00        -0.68175E+08
 
   -0.48578E+08        -0.46096E+06         0.00000E+00
   -0.46096E+06        -0.60587E+08         0.00000E+00
    0.00000E+00         0.00000E+00        -0.72046E+08
 
   -0.51111E+08        -0.66454E+06         0.00000E+00
   -0.66454E+06        -0.61746E+08         0.00000E+00
    0.00000E+00         0.00000E+00        -0.75266E+08
 
   -0.54605E+08        -0.66561E+06         0.00000E+00
   -0.66561E+06        -0.62983E+08         0.00000E+00
    0.00000E+00         0.00000E+00        -0.76623E+08
 
   -0.57335E+08        -0.49307E+06         0.00000E+00
   -0.49307E+06        -0.64054E+08         0.00000E+00
    0.00000E+00         0.00000E+00        -0.77383E+08
 
   -0.59640E+08        -0.35510E+06         0.00000E+00
   -0.35510E+06        -0.64864E+08         0.00000E+00
    0.00000E+00         0.00000E+00        -0.78006E+08
 
   -0.61774E+08        -0.23462E+06         0.00000E+00
   -0.23462E+06        -0.65433E+08         0.00000E+00
    0.00000E+00         0.00000E+00        -0.78547E+08
 
   -0.63871E+08        -0.11895E+06         0.00000E+00
   -0.11895E+06        -0.65775E+08         0.00000E+00
    0.00000E+00         0.00000E+00        -0.79035E+08
 
   -0.66034E+08         0.19330E+04         0.00000E+00
    0.19330E+04        -0.65885E+08         0.00000E+00
    0.00000E+00         0.00000E+00        -0.79490E+08
 
   -0.68379E+08         0.13889E+06         0.00000E+00
    0.13889E+06        -0.65739E+08         0.00000E+00
    0.00000E+00         0.00000E+00        -0.79930E+08
 
   -0.71062E+08         0.31058E+06         0.00000E+00
    0.31058E+06        -0.65287E+08         0.00000E+00
    0.00000E+00         0.00000E+00        -0.80376E+08
 
   -0.74350E+08         0.55644E+06         0.00000E+00
    0.55644E+06        -0.64418E+08         0.00000E+00
    0.00000E+00         0.00000E+00        -0.80860E+08
 
   -0.79007E+08         0.11304E+07         0.00000E+00
    0.11304E+07        -0.62816E+08         0.00000E+00
    0.00000E+00         0.00000E+00        -0.81471E+08
 
   -0.44216E+08         0.35199E+06         0.00000E+00
    0.35199E+06        -0.60805E+08         0.00000E+00
    0.00000E+00         0.00000E+00        -0.66478E+08
 
   -0.45162E+08        -0.48604E+05         0.00000E+00
   -0.48604E+05        -0.60893E+08         0.00000E+00
    0.00000E+00         0.00000E+00        -0.68854E+08
 
   -0.46688E+08        -0.74600E+06         0.00000E+00
   -0.74600E+06        -0.60873E+08         0.00000E+00
    0.00000E+00         0.00000E+00        -0.71454E+08
 
   -0.48714E+08        -0.12234E+07         0.00000E+00
   -0.12234E+07        -0.60972E+08         0.00000E+00
    0.00000E+00         0.00000E+00        -0.73226E+08
 
   -0.51528E+08        -0.15569E+07         0.00000E+00
   -0.15569E+07        -0.61420E+08         0.00000E+00
    0.00000E+00         0.00000E+00        -0.73907E+08
 
   -0.54398E+08        -0.15985E+07         0.00000E+00
   -0.15985E+07        -0.62007E+08         0.00000E+00
    0.00000E+00         0.00000E+00        -0.74599E+08
 
   -0.57088E+08        -0.13042E+07         0.00000E+00
   -0.13042E+07        -0.62656E+08         0.00000E+00
    0.00000E+00         0.00000E+00        -0.75267E+08
 
   -0.59410E+08        -0.97303E+06         0.00000E+00
   -0.97303E+06        -0.63239E+08         0.00000E+00
    0.00000E+00         0.00000E+00        -0.75849E+08
 
   -0.61553E+08        -0.64897E+06         0.00000E+00
   -0.64897E+06        -0.63676E+08         0.00000E+00
    0.00000E+00         0.00000E+00        -0.76365E+08
 
   -0.63642E+08        -0.32042E+06         0.00000E+00
   -0.32042E+06        -0.63932E+08         0.00000E+00
    0.00000E+00         0.00000E+00        -0.76836E+08
 
   -0.65783E+08         0.32486E+05         0.00000E+00
    0.32486E+05        -0.63983E+08         0.00000E+00
    0.00000E+00         0.00000E+00        -0.77274E+08
 
   -0.68079E+08         0.43858E+06         0.00000E+00
    0.43858E+06        -0.63793E+08         0.00000E+00
    0.00000E+00         0.00000E+00        -0.77696E+08
 
   -0.70660E+08         0.94953E+06         0.00000E+00
    0.94953E+06        -0.63308E+08         0.00000E+00
    0.00000E+00         0.00000E+00        -0.78115E+08
 
   -0.73719E+08         0.16894E+07         0.00000E+00
    0.16894E+07        -0.62431E+08         0.00000E+00
    0.00000E+00         0.00000E+00        -0.78552E+08
 
   -0.77297E+08         0.30627E+07         0.00000E+00
    0.30627E+07        -0.61027E+08         0.00000E+00
    0.00000E+00         0.00000E+00        -0.78987E+08
 
   -0.44086E+08        -0.79406E+05         0.00000E+00
   -0.79406E+05        -0.60470E+08         0.00000E+00
    0.00000E+00         0.00000E+00        -0.69278E+08
 
   -0.45641E+08        -0.32510E+06         0.00000E+00
   -0.32510E+06        -0.60668E+08         0.00000E+00
    0.00000E+00         0.00000E+00        -0.70796E+08
 
   -0.47378E+08        -0.88349E+06         0.00000E+00
   -0.88349E+06        -0.60826E+08         0.00000E+00
    0.00000E+00         0.00000E+00        -0.71175E+08
 
   -0.49300E+08        -0.15543E+07         0.00000E+00
   -0.15543E+07        -0.61018E+08         0.00000E+00
    0.00000E+00         0.00000E+00        -0.71598E+08
 
   -0.51724E+08        -0.19350E+07         0.00000E+00
   -0.19350E+07        -0.61260E+08         0.00000E+00
    0.00000E+00         0.00000E+00        -0.72132E+08
 
   -0.54281E+08        -0.19933E+07         0.00000E+00
   -0.19933E+07        -0.61506E+08         0.00000E+00
    0.00000E+00         0.00000E+00        -0.72694E+08
 
   -0.56752E+08        -0.17661E+07         0.00000E+00
   -0.17661E+07        -0.61783E+08         0.00000E+00
    0.00000E+00         0.00000E+00        -0.73244E+08
 
   -0.59031E+08        -0.13778E+07         0.00000E+00
   -0.13778E+07        -0.62087E+08         0.00000E+00
    0.00000E+00         0.00000E+00        -0.73762E+08
 
   -0.61151E+08        -0.92567E+06         0.00000E+00
   -0.92567E+06        -0.62332E+08         0.00000E+00
    0.00000E+00         0.00000E+00        -0.74237E+08
 
   -0.63210E+08        -0.42760E+06         0.00000E+00
   -0.42760E+06        -0.62455E+08         0.00000E+00
    0.00000E+00         0.00000E+00        -0.74674E+08
 
   -0.65295E+08         0.13079E+06         0.00000E+00
    0.13079E+06        -0.62412E+08         0.00000E+00
    0.00000E+00         0.00000E+00        -0.75084E+08
 
   -0.67490E+08         0.78641E+06         0.00000E+00
    0.78641E+06        -0.62159E+08         0.00000E+00
    0.00000E+00         0.00000E+00        -0.75473E+08
 
   -0.69882E+08         0.16113E+07         0.00000E+00
    0.16113E+07        -0.61646E+08         0.00000E+00
    0.00000E+00         0.00000E+00        -0.75850E+08
 
   -0.72519E+08         0.27558E+07         0.00000E+00
    0.27558E+07        -0.60822E+08         0.00000E+00
    0.00000E+00         0.00000E+00        -0.76213E+08
 
   -0.75306E+08         0.44537E+07         0.00000E+00
    0.44537E+07        -0.59729E+08         0.00000E+00
    0.00000E+00         0.00000E+00        -0.76552E+08
 
   -0.44311E+08        -0.24029E+06         0.00000E+00
   -0.24029E+06        -0.60059E+08         0.00000E+00
    0.00000E+00         0.00000E+00        -0.68632E+08
 
   -0.46189E+08        -0.71596E+06         0.00000E+00
   -0.71596E+06        -0.60246E+08         0.00000E+00
    0.00000E+00         0.00000E+00        -0.69046E+08
 
   -0.47953E+08        -0.12033E+07         0.00000E+00
   -0.12033E+07        -0.60593E+08         0.00000E+00
    0.00000E+00         0.00000E+00        -0.69469E+08
 
   -0.49820E+08        -0.17284E+07         0.00000E+00
   -0.17284E+07        -0.60836E+08         0.00000E+00
    0.00000E+00         0.00000E+00        -0.69892E+08
 
   -0.51940E+08        -0.20835E+07         0.00000E+00
   -0.20835E+07        -0.60957E+08         0.00000E+00
    0.00000E+00         0.00000E+00        -0.70341E+08
 
   -0.54199E+08        -0.21508E+07         0.00000E+00
   -0.21508E+07        -0.61046E+08         0.00000E+00
    0.00000E+00         0.00000E+00        -0.70813E+08
 
   -0.56440E+08        -0.19552E+07         0.00000E+00
   -0.19552E+07        -0.61140E+08         0.00000E+00
    0.00000E+00         0.00000E+00        -0.71282E+08
 
   -0.58584E+08        -0.15635E+07         0.00000E+00
   -0.15635E+07        -0.61239E+08         0.00000E+00
    0.00000E+00         0.00000E+00        -0.71733E+08
 
   -0.60625E+08        -0.10406E+07         0.00000E+00
   -0.10406E+07        -0.61309E+08         0.00000E+00
    0.00000E+00         0.00000E+00        -0.72157E+08
 
   -0.62610E+08        -0.41794E+06         0.00000E+00
   -0.41794E+06        -0.61299E+08         0.00000E+00
    0.00000E+00         0.00000E+00        -0.72554E+08
 
   -0.64598E+08         0.30960E+06         0.00000E+00
    0.30960E+06        -0.61160E+08         0.00000E+00
    0.00000E+00         0.00000E+00        -0.72925E+08
 
   -0.66645E+08         0.11769E+07         0.00000E+00
    0.11769E+07        -0.60851E+08         0.00000E+00
    0.00000E+00         0.00000E+00        -0.73274E+08
 
   -0.68789E+08         0.22538E+07         0.00000E+00
    0.22538E+07        -0.60341E+08         0.00000E+00
    0.00000E+00         0.00000E+00        -0.73602E+08
 
   -0.71017E+08         0.36498E+07         0.00000E+00
    0.36498E+07        -0.59625E+08         0.00000E+00
    0.00000E+00         0.00000E+00        -0.73906E+08
 
   -0.73222E+08         0.54926E+07         0.00000E+00
    0.54926E+07        -0.58761E+08         0.00000E+00
    0.00000E+00         0.00000E+00        -0.74174E+08
 
   -0.44883E+08        -0.34960E+06         0.00000E+00
   -0.34960E+06        -0.60039E+08         0.00000E+00
    0.00000E+00         0.00000E+00        -0.66980E+08
 
   -0.46708E+08        -0.94918E+06         0.00000E+00
   -0.94918E+06        -0.60183E+08         0.00000E+00
    0.00000E+00         0.00000E+00        -0.67374E+08
 
   -0.48443E+08        -0.14599E+07         0.00000E+00
   -0.14599E+07        -0.60367E+08         0.00000E+00
    0.00000E+00         0.00000E+00        -0.67760E+08
 
   -0.50228E+08        -0.18786E+07         0.00000E+00
   -0.18786E+07        -0.60527E+08         0.00000E+00
    0.00000E+00         0.00000E+00        -0.68151E+08
 
   -0.52129E+08        -0.21450E+07         0.00000E+00
   -0.21450E+07        -0.60606E+08         0.00000E+00
    0.00000E+00         0.00000E+00        -0.68549E+08
 
   -0.54125E+08        -0.21865E+07         0.00000E+00
   -0.21865E+07        -0.60622E+08         0.00000E+00
    0.00000E+00         0.00000E+00        -0.68954E+08
 
   -0.56137E+08        -0.19898E+07         0.00000E+00
   -0.19898E+07        -0.60612E+08         0.00000E+00
    0.00000E+00         0.00000E+00        -0.69357E+08
 
   -0.58106E+08        -0.15869E+07         0.00000E+00
   -0.15869E+07        -0.60586E+08         0.00000E+00
    0.00000E+00         0.00000E+00        -0.69749E+08
 
   -0.60016E+08        -0.10165E+07         0.00000E+00
   -0.10165E+07        -0.60531E+08         0.00000E+00
    0.00000E+00         0.00000E+00        -0.70122E+08
 
   -0.61880E+08        -0.30238E+06         0.00000E+00
   -0.30238E+06        -0.60413E+08         0.00000E+00
    0.00000E+00         0.00000E+00        -0.70475E+08
 
   -0.63731E+08         0.55637E+06         0.00000E+00
    0.55637E+06        -0.60199E+08         0.00000E+00
    0.00000E+00         0.00000E+00        -0.70804E+08
 
   -0.65596E+08         0.15866E+07         0.00000E+00
    0.15866E+07        -0.59859E+08         0.00000E+00
    0.00000E+00         0.00000E+00        -0.71111E+08
 
   -0.67481E+08         0.28401E+07         0.00000E+00
    0.28401E+07        -0.59376E+08         0.00000E+00
    0.00000E+00         0.00000E+00        -0.71393E+08
 
   -0.69353E+08         0.43863E+07         0.00000E+00
    0.43863E+07        -0.58763E+08         0.00000E+00
    0.00000E+00         0.00000E+00        -0.71646E+08
 
   -0.71119E+08         0.62925E+07         0.00000E+00
    0.62925E+07        -0.58073E+08         0.00000E+00
    0.00000E+00         0.00000E+00        -0.71862E+08
 
   -0.45606E+08        -0.41686E+06         0.00000E+00
   -0.41686E+06        -0.60021E+08         0.00000E+00
    0.00000E+00         0.00000E+00        -0.65374E+08
 
   -0.47276E+08        -0.10877E+07         0.00000E+00
   -0.10877E+07        -0.60094E+08         0.00000E+00
    0.00000E+00         0.00000E+00        -0.65724E+08
 
   -0.48897E+08        -0.15984E+07         0.00000E+00
   -0.15984E+07        -0.60193E+08         0.00000E+00
    0.00000E+00         0.00000E+00        -0.66070E+08
 
   -0.50545E+08        -0.19641E+07         0.00000E+00
   -0.19641E+07        -0.60266E+08         0.00000E+00
    0.00000E+00         0.00000E+00        -0.66417E+08
 
   -0.52258E+08        -0.21601E+07         0.00000E+00
   -0.21601E+07        -0.60287E+08         0.00000E+00
    0.00000E+00         0.00000E+00        -0.66767E+08
 
   -0.54029E+08        -0.21545E+07         0.00000E+00
   -0.21545E+07        -0.60254E+08         0.00000E+00
    0.00000E+00         0.00000E+00        -0.67118E+08
 
   -0.55822E+08        -0.19334E+07         0.00000E+00
   -0.19334E+07        -0.60182E+08         0.00000E+00
    0.00000E+00         0.00000E+00        -0.67466E+08
 
   -0.57600E+08        -0.15065E+07         0.00000E+00
   -0.15065E+07        -0.60081E+08         0.00000E+00
    0.00000E+00         0.00000E+00        -0.67805E+08
 
   -0.59344E+08        -0.89397E+06         0.00000E+00
   -0.89397E+06        -0.59945E+08         0.00000E+00
    0.00000E+00         0.00000E+00        -0.68130E+08
 
   -0.61053E+08        -0.10977E+06         0.00000E+00
   -0.10977E+06        -0.59757E+08         0.00000E+00
    0.00000E+00         0.00000E+00        -0.68438E+08
 
   -0.62736E+08         0.84654E+06         0.00000E+00
    0.84654E+06        -0.59497E+08         0.00000E+00
    0.00000E+00         0.00000E+00        -0.68725E+08
 
   -0.64401E+08         0.19928E+07         0.00000E+00
    0.19928E+07        -0.59147E+08         0.00000E+00
    0.00000E+00         0.00000E+00        -0.68991E+08
 
   -0.66037E+08         0.33617E+07         0.00000E+00
    0.33617E+07        -0.58703E+08         0.00000E+00
    0.00000E+00         0.00000E+00        -0.69231E+08
 
   -0.67604E+08         0.49932E+07         0.00000E+00
    0.49932E+07        -0.58181E+08         0.00000E+00
    0.00000E+00         0.00000E+00        -0.69442E+08
 
   -0.69028E+08         0.69192E+07         0.00000E+00
    0.69192E+07        -0.57625E+08         0.00000E+00
    0.00000E+00         0.00000E+00        -0.69616E+08
 
   -0.46409E+08        -0.44531E+06         0.00000E+00
   -0.44531E+06        -0.60006E+08         0.00000E+00
    0.00000E+00         0.00000E+00        -0.63805E+08
 
   -0.47869E+08        -0.11504E+07         0.00000E+00
   -0.11504E+07        -0.60030E+08         0.00000E+00
    0.00000E+00         0.00000E+00        -0.64103E+08
 
   -0.49325E+08        -0.16554E+07         0.00000E+00
   -0.16554E+07        -0.60059E+08         0.00000E+00
    0.00000E+00         0.00000E+00        -0.64403E+08
 
   -0.50806E+08        -0.19831E+07         0.00000E+00
   -0.19831E+07        -0.60067E+08         0.00000E+00
    0.00000E+00         0.00000E+00        -0.64704E+08
 
   -0.52331E+08        -0.21286E+07         0.00000E+00
   -0.21286E+07        -0.60036E+08         0.00000E+00
    0.00000E+00         0.00000E+00        -0.65007E+08
 
   -0.53896E+08        -0.20778E+07         0.00000E+00
   -0.20778E+07        -0.59962E+08         0.00000E+00
    0.00000E+00         0.00000E+00        -0.65309E+08
 
   -0.55480E+08        -0.18221E+07         0.00000E+00
   -0.18221E+07        -0.59850E+08         0.00000E+00
    0.00000E+00         0.00000E+00        -0.65608E+08
 
   -0.57061E+08        -0.13637E+07         0.00000E+00
   -0.13637E+07        -0.59703E+08         0.00000E+00
    0.00000E+00         0.00000E+00        -0.65899E+08
 
   -0.58621E+08        -0.71127E+06         0.00000E+00
   -0.71127E+06        -0.59521E+08         0.00000E+00
    0.00000E+00         0.00000E+00        -0.66178E+08
 
   -0.60151E+08         0.12811E+06         0.00000E+00
    0.12811E+06        -0.59296E+08         0.00000E+00
    0.00000E+00         0.00000E+00        -0.66443E+08
 
   -0.61650E+08         0.11549E+07         0.00000E+00
    0.11549E+07        -0.59017E+08         0.00000E+00
    0.00000E+00         0.00000E+00        -0.66690E+08
 
   -0.63109E+08         0.23793E+07         0.00000E+00
    0.23793E+07        -0.58676E+08         0.00000E+00
    0.00000E+00         0.00000E+00        -0.66917E+08
 
   -0.64510E+08         0.38194E+07         0.00000E+00
    0.38194E+07        -0.58275E+08         0.00000E+00
    0.00000E+00         0.00000E+00        -0.67120E+08
 
   -0.65816E+08         0.54944E+07         0.00000E+00
    0.54944E+07        -0.57833E+08         0.00000E+00
    0.00000E+00         0.00000E+00        -0.67294E+08
 
   -0.66968E+08         0.74153E+07         0.00000E+00
    0.74153E+07        -0.57383E+08         0.00000E+00
    0.00000E+00         0.00000E+00        -0.67436E+08
 
   -0.47240E+08        -0.44799E+06         0.00000E+00
   -0.44799E+06        -0.59997E+08         0.00000E+00
    0.00000E+00         0.00000E+00        -0.62264E+08
 
   -0.48468E+08        -0.11575E+07         0.00000E+00
   -0.11575E+07        -0.59987E+08         0.00000E+00
    0.00000E+00         0.00000E+00        -0.62509E+08
 
   -0.49730E+08        -0.16511E+07         0.00000E+00
   -0.16511E+07        -0.59967E+08         0.00000E+00
    0.00000E+00         0.00000E+00        -0.62761E+08
 
   -0.51027E+08        -0.19500E+07         0.00000E+00
   -0.19500E+07        -0.59927E+08         0.00000E+00
    0.00000E+00         0.00000E+00        -0.63016E+08
 
   -0.52360E+08        -0.20572E+07         0.00000E+00
   -0.20572E+07        -0.59856E+08         0.00000E+00
    0.00000E+00         0.00000E+00        -0.63273E+08
 
   -0.53725E+08        -0.19680E+07         0.00000E+00
   -0.19680E+07        -0.59752E+08         0.00000E+00
    0.00000E+00         0.00000E+00        -0.63530E+08
 
   -0.55106E+08        -0.16778E+07         0.00000E+00
   -0.16778E+07        -0.59613E+08         0.00000E+00
    0.00000E+00         0.00000E+00        -0.63783E+08
 
   -0.56487E+08        -0.11867E+07         0.00000E+00
   -0.11867E+07        -0.59443E+08         0.00000E+00
    0.00000E+00         0.00000E+00        -0.64030E+08
 
   -0.57854E+08        -0.49814E+06         0.00000E+00
   -0.49814E+06        -0.59240E+08         0.00000E+00
    0.00000E+00         0.00000E+00        -0.64267E+08
 
   -0.59195E+08         0.38439E+06         0.00000E+00
    0.38439E+06        -0.59001E+08         0.00000E+00
    0.00000E+00         0.00000E+00        -0.64491E+08
 
   -0.60500E+08         0.14608E+07         0.00000E+00
    0.14608E+07        -0.58723E+08         0.00000E+00
    0.00000E+00         0.00000E+00        -0.64700E+08
 
   -0.61755E+08         0.27354E+07         0.00000E+00
    0.27354E+07        -0.58404E+08         0.00000E+00
    0.00000E+00         0.00000E+00        -0.64891E+08
 
   -0.62939E+08         0.42158E+07         0.00000E+00
    0.42158E+07        -0.58051E+08         0.00000E+00
    0.00000E+00         0.00000E+00        -0.65059E+08
 
   -0.64018E+08         0.59077E+07         0.00000E+00
    0.59077E+07        -0.57680E+08         0.00000E+00
    0.00000E+00         0.00000E+00        -0.65203E+08
 
   -0.64946E+08         0.78095E+07         0.00000E+00
    0.78095E+07        -0.57316E+08         0.00000E+00
    0.00000E+00         0.00000E+00        -0.65317E+08
 
   -0.48063E+08        -0.43506E+06         0.00000E+00
   -0.43506E+06        -0.59992E+08         0.00000E+00
    0.00000E+00         0.00000E+00        -0.60745E+08
 
   -0.49058E+08        -0.11284E+07         0.00000E+00
   -0.11284E+07        -0.59962E+08         0.00000E+00
    0.00000E+00         0.00000E+00        -0.60940E+08
 
   -0.50114E+08        -0.16050E+07         0.00000E+00
   -0.16050E+07        -0.59911E+08         0.00000E+00
    0.00000E+00         0.00000E+00        -0.61145E+08
 
   -0.51216E+08        -0.18796E+07         0.00000E+00
   -0.18796E+07        -0.59839E+08         0.00000E+00
    0.00000E+00         0.00000E+00        -0.61355E+08
 
   -0.52354E+08        -0.19571E+07         0.00000E+00
   -0.19571E+07        -0.59743E+08         0.00000E+00
    0.00000E+00         0.00000E+00        -0.61568E+08
 
   -0.53520E+08        -0.18366E+07         0.00000E+00
   -0.18366E+07        -0.59619E+08         0.00000E+00
    0.00000E+00         0.00000E+00        -0.61781E+08
 
   -0.54700E+08        -0.15161E+07         0.00000E+00
   -0.15161E+07        -0.59467E+08         0.00000E+00
    0.00000E+00         0.00000E+00        -0.61992E+08
 
   -0.55882E+08        -0.99547E+06         0.00000E+00
   -0.99547E+06        -0.59288E+08         0.00000E+00
    0.00000E+00         0.00000E+00        -0.62197E+08
 
   -0.57053E+08        -0.27639E+06         0.00000E+00
   -0.27639E+06        -0.59082E+08         0.00000E+00
    0.00000E+00         0.00000E+00        -0.62394E+08
 
   -0.58199E+08         0.63889E+06         0.00000E+00
    0.63889E+06        -0.58848E+08         0.00000E+00
    0.00000E+00         0.00000E+00        -0.62581E+08
 
   -0.59308E+08         0.17490E+07         0.00000E+00
    0.17490E+07        -0.58587E+08         0.00000E+00
    0.00000E+00         0.00000E+00        -0.62754E+08
 
   -0.60365E+08         0.30540E+07         0.00000E+00
    0.30540E+07        -0.58300E+08         0.00000E+00
    0.00000E+00         0.00000E+00        -0.62911E+08
 
   -0.61347E+08         0.45539E+07         0.00000E+00
    0.45539E+07        -0.57995E+08         0.00000E+00
    0.00000E+00         0.00000E+00        -0.63049E+08
 
   -0.62226E+08         0.62461E+07         0.00000E+00
    0.62461E+07        -0.57687E+08         0.00000E+00
    0.00000E+00         0.00000E+00        -0.63166E+08
 
   -0.62965E+08         0.81211E+07         0.00000E+00
    0.81211E+07        -0.57396E+08         0.00000E+00
    0.00000E+00         0.00000E+00        -0.63256E+08
 
   -0.48855E+08        -0.41379E+06         0.00000E+00
   -0.41379E+06        -0.59989E+08         0.00000E+00
    0.00000E+00         0.00000E+00        -0.59245E+08
 
   -0.49628E+08        -0.10787E+07         0.00000E+00
   -0.10787E+07        -0.59949E+08         0.00000E+00
    0.00000E+00         0.00000E+00        -0.59394E+08
 
   -0.50478E+08        -0.15340E+07         0.00000E+00
   -0.15340E+07        -0.59883E+08         0.00000E+00
    0.00000E+00         0.00000E+00        -0.59554E+08
 
   -0.51381E+08        -0.17870E+07         0.00000E+00
   -0.17870E+07        -0.59794E+08         0.00000E+00
    0.00000E+00         0.00000E+00        -0.59721E+08
 
   -0.52321E+08        -0.18408E+07         0.00000E+00
   -0.18408E+07        -0.59685E+08         0.00000E+00
    0.00000E+00         0.00000E+00        -0.59892E+08
 
   -0.53287E+08        -0.16954E+07         0.00000E+00
   -0.16954E+07        -0.59555E+08         0.00000E+00
    0.00000E+00         0.00000E+00        -0.60063E+08
 
   -0.54267E+08        -0.13501E+07         0.00000E+00
   -0.13501E+07        -0.59402E+08         0.00000E+00
    0.00000E+00         0.00000E+00        -0.60233E+08
 
   -0.55250E+08        -0.80510E+06         0.00000E+00
   -0.80510E+06        -0.59227E+08         0.00000E+00
    0.00000E+00         0.00000E+00        -0.60400E+08
 
   -0.56223E+08        -0.61877E+05         0.00000E+00
   -0.61877E+05        -0.59031E+08         0.00000E+00
    0.00000E+00         0.00000E+00        -0.60559E+08
 
   -0.57174E+08         0.87713E+06         0.00000E+00
    0.87713E+06        -0.58815E+08         0.00000E+00
    0.00000E+00         0.00000E+00        -0.60710E+08
 
   -0.58091E+08         0.20091E+07         0.00000E+00
    0.20091E+07        -0.58580E+08         0.00000E+00
    0.00000E+00         0.00000E+00        -0.60850E+08
 
   -0.58956E+08         0.33305E+07         0.00000E+00
    0.33305E+07        -0.58331E+08         0.00000E+00
    0.00000E+00         0.00000E+00        -0.60977E+08
 
   -0.59750E+08         0.48366E+07         0.00000E+00
    0.48366E+07        -0.58076E+08         0.00000E+00
    0.00000E+00         0.00000E+00        -0.61087E+08
 
   -0.60450E+08         0.65191E+07         0.00000E+00
    0.65191E+07        -0.57826E+08         0.00000E+00
    0.00000E+00         0.00000E+00        -0.61179E+08
 
   -0.61026E+08         0.83640E+07         0.00000E+00
    0.83640E+07        -0.57598E+08         0.00000E+00
    0.00000E+00         0.00000E+00        -0.61250E+08
 
   -0.49607E+08        -0.38937E+06         0.00000E+00
   -0.38937E+06        -0.59989E+08         0.00000E+00
    0.00000E+00         0.00000E+00        -0.57761E+08
 
   -0.50174E+08        -0.10204E+07         0.00000E+00
   -0.10204E+07        -0.59946E+08         0.00000E+00
    0.00000E+00         0.00000E+00        -0.57868E+08
 
   -0.50821E+08        -0.14526E+07         0.00000E+00
   -0.14526E+07        -0.59876E+08         0.00000E+00
    0.00000E+00         0.00000E+00        -0.57986E+08
 
   -0.51524E+08        -0.16860E+07         0.00000E+00
   -0.16860E+07        -0.59784E+08         0.00000E+00
    0.00000E+00         0.00000E+00        -0.58113E+08
 
   -0.52265E+08        -0.17206E+07         0.00000E+00
   -0.17206E+07        -0.59675E+08         0.00000E+00
    0.00000E+00         0.00000E+00        -0.58243E+08
 
   -0.53031E+08        -0.15558E+07         0.00000E+00
   -0.15558E+07        -0.59549E+08         0.00000E+00
    0.00000E+00         0.00000E+00        -0.58376E+08
 
   -0.53812E+08        -0.11912E+07         0.00000E+00
   -0.11912E+07        -0.59406E+08         0.00000E+00
    0.00000E+00         0.00000E+00        -0.58507E+08
 
   -0.54596E+08        -0.62737E+06         0.00000E+00
   -0.62737E+06        -0.59246E+08         0.00000E+00
    0.00000E+00         0.00000E+00        -0.58636E+08
 
   -0.55373E+08         0.13375E+06         0.00000E+00
    0.13375E+06        -0.59070E+08         0.00000E+00
    0.00000E+00         0.00000E+00        -0.58760E+08
 
   -0.56131E+08         0.10889E+07         0.00000E+00
    0.10889E+07        -0.58881E+08         0.00000E+00
    0.00000E+00         0.00000E+00        -0.58878E+08
 
   -0.56858E+08         0.22338E+07         0.00000E+00
    0.22338E+07        -0.58680E+08         0.00000E+00
    0.00000E+00         0.00000E+00        -0.58986E+08
 
   -0.57540E+08         0.35622E+07         0.00000E+00
    0.35622E+07        -0.58473E+08         0.00000E+00
    0.00000E+00         0.00000E+00        -0.59084E+08
 
   -0.58159E+08         0.50660E+07         0.00000E+00
    0.50660E+07        -0.58267E+08         0.00000E+00
    0.00000E+00         0.00000E+00        -0.59169E+08
 
   -0.58695E+08         0.67335E+07         0.00000E+00
    0.67335E+07        -0.58071E+08         0.00000E+00
    0.00000E+00         0.00000E+00        -0.59239E+08
 
   -0.59127E+08         0.85478E+07         0.00000E+00
    0.85478E+07        -0.57898E+08         0.00000E+00
    0.00000E+00         0.00000E+00        -0.59292E+08
 
   -0.50316E+08        -0.36551E+06         0.00000E+00
   -0.36551E+06        -0.59990E+08         0.00000E+00
    0.00000E+00         0.00000E+00        -0.56292E+08
 
   -0.50692E+08        -0.96272E+06         0.00000E+00
   -0.96272E+06        -0.59951E+08         0.00000E+00
    0.00000E+00         0.00000E+00        -0.56361E+08
 
   -0.51144E+08        -0.13724E+07         0.00000E+00
   -0.13724E+07        -0.59885E+08         0.00000E+00
    0.00000E+00         0.00000E+00        -0.56441E+08
 
   -0.51650E+08        -0.15886E+07         0.00000E+00
   -0.15886E+07        -0.59801E+08         0.00000E+00
    0.00000E+00         0.00000E+00        -0.56529E+08
 
   -0.52193E+08        -0.16078E+07         0.00000E+00
   -0.16078E+07        -0.59702E+08         0.00000E+00
    0.00000E+00         0.00000E+00        -0.56621E+08
 
   -0.52759E+08        -0.14282E+07         0.00000E+00
   -0.14282E+07        -0.59590E+08         0.00000E+00
    0.00000E+00         0.00000E+00        -0.56716E+08
 
   -0.53340E+08        -0.10492E+07         0.00000E+00
   -0.10492E+07        -0.59466E+08         0.00000E+00
    0.00000E+00         0.00000E+00        -0.56811E+08
 
   -0.53926E+08        -0.47165E+06         0.00000E+00
   -0.47165E+06        -0.59330E+08         0.00000E+00
    0.00000E+00         0.00000E+00        -0.56904E+08
 
   -0.54508E+08         0.30185E+06         0.00000E+00
    0.30185E+06        -0.59183E+08         0.00000E+00
    0.00000E+00         0.00000E+00        -0.56995E+08
 
   -0.55076E+08         0.12672E+07         0.00000E+00
    0.12672E+07        -0.59027E+08         0.00000E+00
    0.00000E+00         0.00000E+00        -0.57080E+08
 
   -0.55618E+08         0.24184E+07         0.00000E+00
    0.24184E+07        -0.58865E+08         0.00000E+00
    0.00000E+00         0.00000E+00        -0.57159E+08
 
   -0.56124E+08         0.37477E+07         0.00000E+00
    0.37477E+07        -0.58703E+08         0.00000E+00
    0.00000E+00         0.00000E+00        -0.57230E+08
 
   -0.56577E+08         0.52444E+07         0.00000E+00
    0.52444E+07        -0.58544E+08         0.00000E+00
    0.00000E+00         0.00000E+00        -0.57291E+08
 
   -0.56963E+08         0.68945E+07         0.00000E+00
    0.68945E+07        -0.58400E+08         0.00000E+00
    0.00000E+00         0.00000E+00        -0.57341E+08
 
   -0.57265E+08         0.86796E+07         0.00000E+00
    0.86796E+07        -0.58277E+08         0.00000E+00
    0.00000E+00         0.00000E+00        -0.57377E+08
 
   -0.50985E+08        -0.34485E+06         0.00000E+00
   -0.34485E+06        -0.59992E+08         0.00000E+00
    0.00000E+00         0.00000E+00        -0.54837E+08
 
   -0.51184E+08        -0.91238E+06         0.00000E+00
   -0.91238E+06        -0.59960E+08         0.00000E+00
    0.00000E+00         0.00000E+00        -0.54872E+08
 
   -0.51450E+08        -0.13025E+07         0.00000E+00
   -0.13025E+07        -0.59906E+08         0.00000E+00
    0.00000E+00         0.00000E+00        -0.54916E+08
 
   -0.51762E+08        -0.15045E+07         0.00000E+00
   -0.15045E+07        -0.59838E+08         0.00000E+00
    0.00000E+00         0.00000E+00        -0.54968E+08
 
   -0.52107E+08        -0.15119E+07         0.00000E+00
   -0.15119E+07        -0.59758E+08         0.00000E+00
    0.00000E+00         0.00000E+00        -0.55024E+08
 
   -0.52475E+08        -0.13214E+07         0.00000E+00
   -0.13214E+07        -0.59669E+08         0.00000E+00
    0.00000E+00         0.00000E+00        -0.55082E+08
 
   -0.52857E+08        -0.93210E+06         0.00000E+00
   -0.93210E+06        -0.59571E+08         0.00000E+00
    0.00000E+00         0.00000E+00        -0.55142E+08
 
   -0.53246E+08        -0.34524E+06         0.00000E+00
   -0.34524E+06        -0.59465E+08         0.00000E+00
    0.00000E+00         0.00000E+00        -0.55201E+08
 
   -0.53635E+08         0.43610E+06         0.00000E+00
    0.43610E+06        -0.59352E+08         0.00000E+00
    0.00000E+00         0.00000E+00        -0.55259E+08
 
   -0.54015E+08         0.14069E+07         0.00000E+00
    0.14069E+07        -0.59235E+08         0.00000E+00
    0.00000E+00         0.00000E+00        -0.55314E+08
 
   -0.54377E+08         0.25601E+07         0.00000E+00
    0.25601E+07        -0.59115E+08         0.00000E+00
    0.00000E+00         0.00000E+00        -0.55364E+08
 
   -0.54712E+08         0.38863E+07         0.00000E+00
    0.38863E+07        -0.58998E+08         0.00000E+00
    0.00000E+00         0.00000E+00        -0.55409E+08
 
   -0.55008E+08         0.53734E+07         0.00000E+00
    0.53734E+07        -0.58888E+08         0.00000E+00
    0.00000E+00         0.00000E+00        -0.55448E+08
 
   -0.55254E+08         0.70059E+07         0.00000E+00
    0.70059E+07        -0.58791E+08         0.00000E+00
    0.00000E+00         0.00000E+00        -0.55479E+08
 
   -0.55436E+08         0.87646E+07         0.00000E+00
    0.87646E+07        -0.58716E+08         0.00000E+00
    0.00000E+00         0.00000E+00        -0.55501E+08
 
   -0.51621E+08        -0.32928E+06         0.00000E+00
   -0.32928E+06        -0.59994E+08         0.00000E+00
    0.00000E+00         0.00000E+00        -0.53395E+08
 
   -0.51656E+08        -0.87432E+06         0.00000E+00
   -0.87432E+06        -0.59972E+08         0.00000E+00
    0.00000E+00         0.00000E+00        -0.53399E+08
 
   -0.51741E+08        -0.12498E+07         0.00000E+00
   -0.12498E+07        -0.59936E+08         0.00000E+00
    0.00000E+00         0.00000E+00        -0.53410E+08
 
   -0.51862E+08        -0.14412E+07         0.00000E+00
   -0.14412E+07        -0.59889E+08         0.00000E+00
    0.00000E+00         0.00000E+00        -0.53427E+08
 
   -0.52011E+08        -0.14402E+07         0.00000E+00
   -0.14402E+07        -0.59835E+08         0.00000E+00
    0.00000E+00         0.00000E+00        -0.53448E+08
 
   -0.52181E+08        -0.12422E+07         0.00000E+00
   -0.12422E+07        -0.59775E+08         0.00000E+00
    0.00000E+00         0.00000E+00        -0.53471E+08
 
   -0.52365E+08        -0.84616E+06         0.00000E+00
   -0.84616E+06        -0.59709E+08         0.00000E+00
    0.00000E+00         0.00000E+00        -0.53497E+08
 
   -0.52559E+08        -0.25351E+06         0.00000E+00
   -0.25351E+06        -0.59638E+08         0.00000E+00
    0.00000E+00         0.00000E+00        -0.53523E+08
 
   -0.52756E+08         0.53211E+06         0.00000E+00
    0.53211E+06        -0.59563E+08         0.00000E+00
    0.00000E+00         0.00000E+00        -0.53549E+08
 
   -0.52951E+08         0.15049E+07         0.00000E+00
    0.15049E+07        -0.59487E+08         0.00000E+00
    0.00000E+00         0.00000E+00        -0.53574E+08
 
   -0.53137E+08         0.26569E+07         0.00000E+00
    0.26569E+07        -0.59412E+08         0.00000E+00
    0.00000E+00         0.00000E+00        -0.53597E+08
 
   -0.53307E+08         0.39779E+07         0.00000E+00
    0.39779E+07        -0.59341E+08         0.00000E+00
    0.00000E+00         0.00000E+00        -0.53618E+08
 
   -0.53453E+08         0.54546E+07         0.00000E+00
    0.54546E+07        -0.59277E+08         0.00000E+00
    0.00000E+00         0.00000E+00        -0.53636E+08
 
   -0.53566E+08         0.70708E+07         0.00000E+00
    0.70708E+07        -0.59227E+08         0.00000E+00
    0.00000E+00         0.00000E+00        -0.53649E+08
 
   -0.53636E+08         0.88067E+07         0.00000E+00
    0.88067E+07        -0.59195E+08         0.00000E+00
    0.00000E+00         0.00000E+00        -0.53657E+08
 
   -0.52234E+08        -0.32009E+06         0.00000E+00
   -0.32009E+06        -0.59997E+08         0.00000E+00
    0.00000E+00         0.00000E+00        -0.51967E+08
 
   -0.52113E+08        -0.85198E+06         0.00000E+00
   -0.85198E+06        -0.59988E+08         0.00000E+00
    0.00000E+00         0.00000E+00        -0.51941E+08
 
   -0.52022E+08        -0.12189E+07         0.00000E+00
   -0.12189E+07        -0.59971E+08         0.00000E+00
    0.00000E+00         0.00000E+00        -0.51920E+08
 
   -0.51955E+08        -0.14042E+07         0.00000E+00
   -0.14042E+07        -0.59951E+08         0.00000E+00
    0.00000E+00         0.00000E+00        -0.51904E+08
 
   -0.51910E+08        -0.13980E+07         0.00000E+00
   -0.13980E+07        -0.59926E+08         0.00000E+00
    0.00000E+00         0.00000E+00        -0.51891E+08
 
   -0.51882E+08        -0.11955E+07         0.00000E+00
   -0.11955E+07        -0.59899E+08         0.00000E+00
    0.00000E+00         0.00000E+00        -0.51880E+08
 
   -0.51869E+08        -0.79558E+06         0.00000E+00
   -0.79558E+06        -0.59868E+08         0.00000E+00
    0.00000E+00         0.00000E+00        -0.51872E+08
 
   -0.51868E+08        -0.19992E+06         0.00000E+00
   -0.19992E+06        -0.59835E+08         0.00000E+00
    0.00000E+00         0.00000E+00        -0.51866E+08
 
   -0.51876E+08         0.58720E+06         0.00000E+00
    0.58720E+06        -0.59801E+08         0.00000E+00
    0.00000E+00         0.00000E+00        -0.51861E+08
 
   -0.51888E+08         0.15594E+07         0.00000E+00
    0.15594E+07        -0.59768E+08         0.00000E+00
    0.00000E+00         0.00000E+00        -0.51857E+08
 
   -0.51902E+08         0.27082E+07         0.00000E+00
    0.27082E+07        -0.59737E+08         0.00000E+00
    0.00000E+00         0.00000E+00        -0.51854E+08
 
   -0.51911E+08         0.40227E+07         0.00000E+00
    0.40227E+07        -0.59712E+08         0.00000E+00
    0.00000E+00         0.00000E+00        -0.51851E+08
 
   -0.51910E+08         0.54892E+07         0.00000E+00
    0.54892E+07        -0.59695E+08         0.00000E+00
    0.00000E+00         0.00000E+00        -0.51848E+08
 
   -0.51895E+08         0.70912E+07         0.00000E+00
    0.70912E+07        -0.59690E+08         0.00000E+00
    0.00000E+00         0.00000E+00        -0.51844E+08
 
   -0.51859E+08         0.88085E+07         0.00000E+00
    0.88085E+07        -0.59699E+08         0.00000E+00
    0.00000E+00         0.00000E+00        -0.51839E+08
 
   -0.52838E+08        -0.31809E+06         0.00000E+00
   -0.31809E+06        -0.60001E+08         0.00000E+00
    0.00000E+00         0.00000E+00        -0.50551E+08
 
   -0.52563E+08        -0.84750E+06         0.00000E+00
   -0.84750E+06        -0.60004E+08         0.00000E+00
    0.00000E+00         0.00000E+00        -0.50497E+08
 
   -0.52299E+08        -0.12128E+07         0.00000E+00
   -0.12128E+07        -0.60010E+08         0.00000E+00
    0.00000E+00         0.00000E+00        -0.50445E+08
 
   -0.52045E+08        -0.13966E+07         0.00000E+00
   -0.13966E+07        -0.60017E+08         0.00000E+00
    0.00000E+00         0.00000E+00        -0.50396E+08
 
   -0.51805E+08        -0.13886E+07         0.00000E+00
   -0.13886E+07        -0.60025E+08         0.00000E+00
    0.00000E+00         0.00000E+00        -0.50349E+08
 
   -0.51579E+08        -0.11841E+07         0.00000E+00
   -0.11841E+07        -0.60032E+08         0.00000E+00
    0.00000E+00         0.00000E+00        -0.50305E+08
 
   -0.51370E+08        -0.78250E+06         0.00000E+00
   -0.78250E+06        -0.60038E+08         0.00000E+00
    0.00000E+00         0.00000E+00        -0.50264E+08
 
   -0.51175E+08        -0.18607E+06         0.00000E+00
   -0.18607E+06        -0.60044E+08         0.00000E+00
    0.00000E+00         0.00000E+00        -0.50225E+08
 
   -0.50996E+08         0.60037E+06         0.00000E+00
    0.60037E+06        -0.60051E+08         0.00000E+00
    0.00000E+00         0.00000E+00        -0.50190E+08
 
   -0.50828E+08         0.15700E+07         0.00000E+00
    0.15700E+07        -0.60060E+08         0.00000E+00
    0.00000E+00         0.00000E+00        -0.50158E+08
 
   -0.50671E+08         0.27141E+07         0.00000E+00
    0.27141E+07        -0.60074E+08         0.00000E+00
    0.00000E+00         0.00000E+00        -0.50128E+08
 
   -0.50523E+08         0.40215E+07         0.00000E+00
    0.40215E+07        -0.60094E+08         0.00000E+00
    0.00000E+00         0.00000E+00        -0.50102E+08
 
   -0.50379E+08         0.54785E+07         0.00000E+00
    0.54785E+07        -0.60123E+08         0.00000E+00
    0.00000E+00         0.00000E+00        -0.50078E+08
 
   -0.50239E+08         0.70687E+07         0.00000E+00
    0.70687E+07        -0.60161E+08         0.00000E+00
    0.00000E+00         0.00000E+00        -0.50058E+08
 
   -0.50101E+08         0.87719E+07         0.00000E+00
    0.87719E+07        -0.60210E+08         0.00000E+00
    0.00000E+00         0.00000E+00        -0.50040E+08
 
   -0.53445E+08        -0.32368E+06         0.00000E+00
   -0.32368E+06        -0.60004E+08         0.00000E+00
    0.00000E+00         0.00000E+00        -0.49149E+08
 
   -0.53017E+08        -0.86190E+06         0.00000E+00
   -0.86190E+06        -0.60021E+08         0.00000E+00
    0.00000E+00         0.00000E+00        -0.49066E+08
 
   -0.52577E+08        -0.12329E+07         0.00000E+00
   -0.12329E+07        -0.60050E+08         0.00000E+00
    0.00000E+00         0.00000E+00        -0.48983E+08
 
   -0.52135E+08        -0.14197E+07         0.00000E+00
   -0.14197E+07        -0.60086E+08         0.00000E+00
    0.00000E+00         0.00000E+00        -0.48901E+08
 
   -0.51699E+08        -0.14128E+07         0.00000E+00
   -0.14128E+07        -0.60125E+08         0.00000E+00
    0.00000E+00         0.00000E+00        -0.48820E+08
 
   -0.51276E+08        -0.12084E+07         0.00000E+00
   -0.12084E+07        -0.60166E+08         0.00000E+00
    0.00000E+00         0.00000E+00        -0.48742E+08
 
   -0.50870E+08        -0.80693E+06         0.00000E+00
   -0.80693E+06        -0.60208E+08         0.00000E+00
    0.00000E+00         0.00000E+00        -0.48668E+08
 
   -0.50484E+08        -0.21157E+06         0.00000E+00
   -0.21157E+06        -0.60252E+08         0.00000E+00
    0.00000E+00         0.00000E+00        -0.48597E+08
 
   -0.50118E+08         0.57228E+06         0.00000E+00
    0.57228E+06        -0.60298E+08         0.00000E+00
    0.00000E+00         0.00000E+00        -0.48531E+08
 
   -0.49773E+08         0.15375E+07         0.00000E+00
    0.15375E+07        -0.60349E+08         0.00000E+00
    0.00000E+00         0.00000E+00        -0.48470E+08
 
   -0.49448E+08         0.26753E+07         0.00000E+00
    0.26753E+07        -0.60405E+08         0.00000E+00
    0.00000E+00         0.00000E+00        -0.48415E+08
 
   -0.49143E+08         0.39750E+07         0.00000E+00
    0.39750E+07        -0.60470E+08         0.00000E+00
    0.00000E+00         0.00000E+00        -0.48365E+08
 
   -0.48858E+08         0.54234E+07         0.00000E+00
    0.54234E+07        -0.60543E+08         0.00000E+00
    0.00000E+00         0.00000E+00        -0.48322E+08
 
   -0.48595E+08         0.70043E+07         0.00000E+00
    0.70043E+07        -0.60624E+08         0.00000E+00
    0.00000E+00         0.00000E+00        -0.48285E+08
 
   -0.48355E+08         0.86980E+07         0.00000E+00
    0.86980E+07        -0.60713E+08         0.00000E+00
    0.00000E+00         0.00000E+00        -0.48254E+08
 
   -0.54069E+08        -0.33691E+06         0.00000E+00
   -0.33691E+06        -0.60007E+08         0.00000E+00
    0.00000E+00         0.00000E+00        -0.47759E+08
 
   -0.53482E+08        -0.89523E+06         0.00000E+00
   -0.89523E+06        -0.60038E+08         0.00000E+00
    0.00000E+00         0.00000E+00        -0.47647E+08
 
   -0.52862E+08        -0.12790E+07         0.00000E+00
   -0.12790E+07        -0.60088E+08         0.00000E+00
    0.00000E+00         0.00000E+00        -0.47532E+08
 
   -0.52228E+08        -0.14729E+07         0.00000E+00
   -0.14729E+07        -0.60151E+08         0.00000E+00
    0.00000E+00         0.00000E+00        -0.47416E+08
 
   -0.51595E+08        -0.14694E+07         0.00000E+00
   -0.14694E+07        -0.60221E+08         0.00000E+00
    0.00000E+00         0.00000E+00        -0.47300E+08
 
   -0.50974E+08        -0.12667E+07         0.00000E+00
   -0.12667E+07        -0.60294E+08         0.00000E+00
    0.00000E+00         0.00000E+00        -0.47188E+08
 
   -0.50372E+08        -0.86665E+06         0.00000E+00
   -0.86665E+06        -0.60368E+08         0.00000E+00
    0.00000E+00         0.00000E+00        -0.47080E+08
 
   -0.49795E+08        -0.27396E+06         0.00000E+00
   -0.27396E+06        -0.60446E+08         0.00000E+00
    0.00000E+00         0.00000E+00        -0.46977E+08
 
   -0.49245E+08         0.50534E+06         0.00000E+00
    0.50534E+06        -0.60528E+08         0.00000E+00
    0.00000E+00         0.00000E+00        -0.46880E+08
 
   -0.48724E+08         0.14640E+07         0.00000E+00
    0.14640E+07        -0.60617E+08         0.00000E+00
    0.00000E+00         0.00000E+00        -0.46790E+08
 
   -0.48232E+08         0.25938E+07         0.00000E+00
    0.25938E+07        -0.60714E+08         0.00000E+00
    0.00000E+00         0.00000E+00        -0.46709E+08
 
   -0.47771E+08         0.38846E+07         0.00000E+00
    0.38846E+07        -0.60821E+08         0.00000E+00
    0.00000E+00         0.00000E+00        -0.46636E+08
 
   -0.47345E+08         0.53245E+07         0.00000E+00
    0.53245E+07        -0.60937E+08         0.00000E+00
    0.00000E+00         0.00000E+00        -0.46572E+08
 
   -0.46958E+08         0.68982E+07         0.00000E+00
    0.68982E+07        -0.61061E+08         0.00000E+00
    0.00000E+00         0.00000E+00        -0.46518E+08
 
   -0.46615E+08         0.85867E+07         0.00000E+00
    0.85867E+07        -0.61190E+08         0.00000E+00
    0.00000E+00         0.00000E+00        -0.46475E+08
 
   -0.54725E+08        -0.35754E+06         0.00000E+00
   -0.35754E+06        -0.60011E+08         0.00000E+00
    0.00000E+00         0.00000E+00        -0.46383E+08
 
   -0.53968E+08        -0.94661E+06         0.00000E+00
   -0.94661E+06        -0.60053E+08         0.00000E+00
    0.00000E+00         0.00000E+00        -0.46239E+08
 
   -0.53159E+08        -0.13493E+07         0.00000E+00
   -0.13493E+07        -0.60124E+08         0.00000E+00
    0.00000E+00         0.00000E+00        -0.46089E+08
 
   -0.52327E+08        -0.15535E+07         0.00000E+00
   -0.15535E+07        -0.60211E+08         0.00000E+00
    0.00000E+00         0.00000E+00        -0.45937E+08
 
   -0.51493E+08        -0.15549E+07         0.00000E+00
   -0.15549E+07        -0.60307E+08         0.00000E+00
    0.00000E+00         0.00000E+00        -0.45786E+08
 
   -0.50673E+08        -0.13545E+07         0.00000E+00
   -0.13545E+07        -0.60406E+08         0.00000E+00
    0.00000E+00         0.00000E+00        -0.45638E+08
 
   -0.49877E+08        -0.95699E+06         0.00000E+00
   -0.95699E+06        -0.60507E+08         0.00000E+00
    0.00000E+00         0.00000E+00        -0.45495E+08
 
   -0.49111E+08        -0.36858E+06         0.00000E+00
   -0.36858E+06        -0.60613E+08         0.00000E+00
    0.00000E+00         0.00000E+00        -0.45359E+08
 
   -0.48379E+08         0.40383E+06         0.00000E+00
    0.40383E+06        -0.60725E+08         0.00000E+00
    0.00000E+00         0.00000E+00        -0.45231E+08
 
   -0.47683E+08         0.13531E+07         0.00000E+00
    0.13531E+07        -0.60848E+08         0.00000E+00
    0.00000E+00         0.00000E+00        -0.45112E+08
 
   -0.47025E+08         0.24719E+07         0.00000E+00
    0.24719E+07        -0.60982E+08         0.00000E+00
    0.00000E+00         0.00000E+00        -0.45004E+08
 
   -0.46409E+08         0.37516E+07         0.00000E+00
    0.37516E+07        -0.61129E+08         0.00000E+00
    0.00000E+00         0.00000E+00        -0.44907E+08
 
   -0.45840E+08         0.51821E+07         0.00000E+00
    0.51821E+07        -0.61288E+08         0.00000E+00
    0.00000E+00         0.00000E+00        -0.44823E+08
 
   -0.45326E+08         0.67499E+07         0.00000E+00
    0.67499E+07        -0.61455E+08         0.00000E+00
    0.00000E+00         0.00000E+00        -0.44752E+08
 
   -0.44877E+08         0.84373E+07         0.00000E+00
    0.84373E+07        -0.61625E+08         0.00000E+00
    0.00000E+00         0.00000E+00        -0.44695E+08
 
   -0.55424E+08        -0.38503E+06         0.00000E+00
   -0.38503E+06        -0.60014E+08         0.00000E+00
    0.00000E+00         0.00000E+00        -0.45019E+08
 
   -0.54481E+08        -0.10142E+07         0.00000E+00
   -0.10142E+07        -0.60067E+08         0.00000E+00
    0.00000E+00         0.00000E+00        -0.44840E+08
 
   -0.53472E+08        -0.14407E+07         0.00000E+00
   -0.14407E+07        -0.60155E+08         0.00000E+00
    0.00000E+00         0.00000E+00        -0.44653E+08
 
   -0.52434E+08        -0.16568E+07         0.00000E+00
   -0.16568E+07        -0.60262E+08         0.00000E+00
    0.00000E+00         0.00000E+00        -0.44463E+08
 
   -0.51395E+08        -0.16631E+07         0.00000E+00
   -0.16631E+07        -0.60376E+08         0.00000E+00
    0.00000E+00         0.00000E+00        -0.44274E+08
 
   -0.50374E+08        -0.14651E+07         0.00000E+00
   -0.14651E+07        -0.60494E+08         0.00000E+00
    0.00000E+00         0.00000E+00        -0.44088E+08
 
   -0.49385E+08        -0.10707E+07         0.00000E+00
   -0.10707E+07        -0.60614E+08         0.00000E+00
    0.00000E+00         0.00000E+00        -0.43909E+08
 
   -0.48434E+08        -0.48838E+06         0.00000E+00
   -0.48838E+06        -0.60739E+08         0.00000E+00
    0.00000E+00         0.00000E+00        -0.43739E+08
 
   -0.47524E+08         0.27402E+06         0.00000E+00
    0.27402E+06        -0.60874E+08         0.00000E+00
    0.00000E+00         0.00000E+00        -0.43579E+08
 
   -0.46656E+08         0.12098E+07         0.00000E+00
    0.12098E+07        -0.61023E+08         0.00000E+00
    0.00000E+00         0.00000E+00        -0.43431E+08
 
   -0.45833E+08         0.23131E+07         0.00000E+00
    0.23131E+07        -0.61189E+08         0.00000E+00
    0.00000E+00         0.00000E+00        -0.43295E+08
 
   -0.45059E+08         0.35777E+07         0.00000E+00
    0.35777E+07        -0.61374E+08         0.00000E+00
    0.00000E+00         0.00000E+00        -0.43174E+08
 
   -0.44343E+08         0.49963E+07         0.00000E+00
    0.49963E+07        -0.61575E+08         0.00000E+00
    0.00000E+00         0.00000E+00        -0.43068E+08
 
   -0.43697E+08         0.65581E+07         0.00000E+00
    0.65581E+07        -0.61786E+08         0.00000E+00
    0.00000E+00         0.00000E+00        -0.42979E+08
 
   -0.43135E+08         0.82474E+07         0.00000E+00
    0.82474E+07        -0.62000E+08         0.00000E+00
    0.00000E+00         0.00000E+00        -0.42908E+08
 
   -0.56178E+08        -0.41861E+06         0.00000E+00
   -0.41861E+06        -0.60016E+08         0.00000E+00
    0.00000E+00         0.00000E+00        -0.43668E+08
 
   -0.55029E+08        -0.10955E+07         0.00000E+00
   -0.10955E+07        -0.60079E+08         0.00000E+00
    0.00000E+00         0.00000E+00        -0.43449E+08
 
   -0.53803E+08        -0.15482E+07         0.00000E+00
   -0.15482E+07        -0.60179E+08         0.00000E+00
    0.00000E+00         0.00000E+00        -0.43221E+08
 
   -0.52548E+08        -0.17758E+07         0.00000E+00
   -0.17758E+07        -0.60298E+08         0.00000E+00
    0.00000E+00         0.00000E+00        -0.42989E+08
 
   -0.51299E+08        -0.17855E+07         0.00000E+00
   -0.17855E+07        -0.60422E+08         0.00000E+00
    0.00000E+00         0.00000E+00        -0.42759E+08
 
   -0.50078E+08        -0.15885E+07         0.00000E+00
   -0.15885E+07        -0.60548E+08         0.00000E+00
    0.00000E+00         0.00000E+00        -0.42535E+08
 
   -0.48899E+08        -0.11975E+07         0.00000E+00
   -0.11975E+07        -0.60674E+08         0.00000E+00
    0.00000E+00         0.00000E+00        -0.42318E+08
 
   -0.47766E+08        -0.62369E+06         0.00000E+00
   -0.62369E+06        -0.60808E+08         0.00000E+00
    0.00000E+00         0.00000E+00        -0.42113E+08
 
   -0.46682E+08         0.12433E+06         0.00000E+00
    0.12433E+06        -0.60955E+08         0.00000E+00
    0.00000E+00         0.00000E+00        -0.41920E+08
 
   -0.45646E+08         0.10406E+07         0.00000E+00
    0.10406E+07        -0.61122E+08         0.00000E+00
    0.00000E+00         0.00000E+00        -0.41741E+08
 
   -0.44659E+08         0.21216E+07         0.00000E+00
    0.21216E+07        -0.61315E+08         0.00000E+00
    0.00000E+00         0.00000E+00        -0.41577E+08
 
   -0.43726E+08         0.33646E+07         0.00000E+00
    0.33646E+07        -0.61534E+08         0.00000E+00
    0.00000E+00         0.00000E+00        -0.41430E+08
 
   -0.42858E+08         0.47663E+07         0.00000E+00
    0.47663E+07        -0.61776E+08         0.00000E+00
    0.00000E+00         0.00000E+00        -0.41302E+08
 
   -0.42070E+08         0.63200E+07         0.00000E+00
    0.63200E+07        -0.62034E+08         0.00000E+00
    0.00000E+00         0.00000E+00        -0.41194E+08
 
   -0.41384E+08         0.80132E+07         0.00000E+00
    0.80132E+07        -0.62296E+08         0.00000E+00
    0.00000E+00         0.00000E+00        -0.41108E+08
 
   -0.56998E+08        -0.45727E+06         0.00000E+00
   -0.45727E+06        -0.60018E+08         0.00000E+00
    0.00000E+00         0.00000E+00        -0.42330E+08
 
   -0.55613E+08        -0.11868E+07         0.00000E+00
   -0.11868E+07        -0.60087E+08         0.00000E+00
    0.00000E+00         0.00000E+00        -0.42065E+08
 
   -0.54151E+08        -0.16653E+07         0.00000E+00
   -0.16653E+07        -0.60194E+08         0.00000E+00
    0.00000E+00         0.00000E+00        -0.41790E+08
 
   -0.52667E+08        -0.19009E+07         0.00000E+00
   -0.19009E+07        -0.60316E+08         0.00000E+00
    0.00000E+00         0.00000E+00        -0.41513E+08
 
   -0.51203E+08        -0.19100E+07         0.00000E+00
   -0.19100E+07        -0.60438E+08         0.00000E+00
    0.00000E+00         0.00000E+00        -0.41239E+08
 
   -0.49783E+08        -0.17117E+07         0.00000E+00
   -0.17117E+07        -0.60556E+08         0.00000E+00
    0.00000E+00         0.00000E+00        -0.40973E+08
 
   -0.48419E+08        -0.13243E+07         0.00000E+00
   -0.13243E+07        -0.60675E+08         0.00000E+00
    0.00000E+00         0.00000E+00        -0.40718E+08
 
   -0.47112E+08        -0.76212E+06         0.00000E+00
   -0.76212E+06        -0.60802E+08         0.00000E+00
    0.00000E+00         0.00000E+00        -0.40476E+08
 
   -0.45861E+08        -0.34572E+05         0.00000E+00
   -0.34572E+05        -0.60949E+08         0.00000E+00
    0.00000E+00         0.00000E+00        -0.40249E+08
 
   -0.44662E+08         0.85380E+06         0.00000E+00
    0.85380E+06        -0.61124E+08         0.00000E+00
    0.00000E+00         0.00000E+00        -0.40038E+08
 
   -0.43512E+08         0.19026E+07         0.00000E+00
    0.19026E+07        -0.61335E+08         0.00000E+00
    0.00000E+00         0.00000E+00        -0.39845E+08
 
   -0.42417E+08         0.31140E+07         0.00000E+00
    0.31140E+07        -0.61585E+08         0.00000E+00
    0.00000E+00         0.00000E+00        -0.39672E+08
 
   -0.41389E+08         0.44904E+07         0.00000E+00
    0.44904E+07        -0.61869E+08         0.00000E+00
    0.00000E+00         0.00000E+00        -0.39519E+08
 
   -0.40447E+08         0.60311E+07         0.00000E+00
    0.60311E+07        -0.62178E+08         0.00000E+00
    0.00000E+00         0.00000E+00        -0.39390E+08
 
   -0.39621E+08         0.77287E+07         0.00000E+00
    0.77287E+07        -0.62493E+08         0.00000E+00
    0.00000E+00         0.00000E+00        -0.39287E+08
 
   -0.57889E+08        -0.49978E+06         0.00000E+00
   -0.49978E+06        -0.60020E+08         0.00000E+00
    0.00000E+00         0.00000E+00        -0.41004E+08
 
   -0.56235E+08        -0.12833E+07         0.00000E+00
   -0.12833E+07        -0.60091E+08         0.00000E+00
    0.00000E+00         0.00000E+00        -0.40685E+08
 
   -0.54511E+08        -0.17829E+07         0.00000E+00
   -0.17829E+07        -0.60198E+08         0.00000E+00
    0.00000E+00         0.00000E+00        -0.40358E+08
 
   -0.52785E+08        -0.20193E+07         0.00000E+00
   -0.20193E+07        -0.60309E+08         0.00000E+00
    0.00000E+00         0.00000E+00        -0.40030E+08
 
   -0.51102E+08        -0.20211E+07         0.00000E+00
   -0.20211E+07        -0.60412E+08         0.00000E+00
    0.00000E+00         0.00000E+00        -0.39709E+08
 
   -0.49487E+08        -0.18179E+07         0.00000E+00
   -0.18179E+07        -0.60506E+08         0.00000E+00
    0.00000E+00         0.00000E+00        -0.39398E+08
 
   -0.47947E+08        -0.14345E+07         0.00000E+00
   -0.14345E+07        -0.60598E+08         0.00000E+00
    0.00000E+00         0.00000E+00        -0.39102E+08
 
   -0.46478E+08        -0.88851E+06         0.00000E+00
   -0.88851E+06        -0.60702E+08         0.00000E+00
    0.00000E+00         0.00000E+00        -0.38823E+08
 
   -0.45070E+08        -0.18983E+06         0.00000E+00
   -0.18983E+06        -0.60832E+08         0.00000E+00
    0.00000E+00         0.00000E+00        -0.38561E+08
 
   -0.43714E+08         0.65908E+06         0.00000E+00
    0.65908E+06        -0.61003E+08         0.00000E+00
    0.00000E+00         0.00000E+00        -0.38318E+08
 
   -0.42406E+08         0.16621E+07         0.00000E+00
    0.16621E+07        -0.61225E+08         0.00000E+00
    0.00000E+00         0.00000E+00        -0.38095E+08
 
   -0.41145E+08         0.28276E+07         0.00000E+00
    0.28276E+07        -0.61501E+08         0.00000E+00
    0.00000E+00         0.00000E+00        -0.37894E+08
 
   -0.39945E+08         0.41659E+07         0.00000E+00
    0.41659E+07        -0.61829E+08         0.00000E+00
    0.00000E+00         0.00000E+00        -0.37716E+08
 
   -0.38831E+08         0.56850E+07         0.00000E+00
    0.56850E+07        -0.62194E+08         0.00000E+00
    0.00000E+00         0.00000E+00        -0.37563E+08
 
   -0.37843E+08         0.73848E+07         0.00000E+00
    0.73848E+07        -0.62573E+08         0.00000E+00
    0.00000E+00         0.00000E+00        -0.37440E+08
 
   -0.58855E+08        -0.54471E+06         0.00000E+00
   -0.54471E+06        -0.60020E+08         0.00000E+00
    0.00000E+00         0.00000E+00        -0.39689E+08
 
   -0.56890E+08        -0.13789E+07         0.00000E+00
   -0.13789E+07        -0.60091E+08         0.00000E+00
    0.00000E+00         0.00000E+00        -0.39308E+08
 
   -0.54875E+08        -0.18890E+07         0.00000E+00
   -0.18890E+07        -0.60185E+08         0.00000E+00
    0.00000E+00         0.00000E+00        -0.38920E+08
 
   -0.52893E+08        -0.21137E+07         0.00000E+00
   -0.21137E+07        -0.60270E+08         0.00000E+00
    0.00000E+00         0.00000E+00        -0.38536E+08
 
   -0.50991E+08        -0.20988E+07         0.00000E+00
   -0.20988E+07        -0.60333E+08         0.00000E+00
    0.00000E+00         0.00000E+00        -0.38163E+08
 
   -0.49190E+08        -0.18863E+07         0.00000E+00
   -0.18863E+07        -0.60379E+08         0.00000E+00
    0.00000E+00         0.00000E+00        -0.37805E+08
 
   -0.47488E+08        -0.15084E+07         0.00000E+00
   -0.15084E+07        -0.60422E+08         0.00000E+00
    0.00000E+00         0.00000E+00        -0.37467E+08
 
   -0.45870E+08        -0.98532E+06         0.00000E+00
   -0.98532E+06        -0.60483E+08         0.00000E+00
    0.00000E+00         0.00000E+00        -0.37149E+08
 
   -0.44320E+08        -0.32671E+06         0.00000E+00
   -0.32671E+06        -0.60581E+08         0.00000E+00
    0.00000E+00         0.00000E+00        -0.36853E+08
 
   -0.42819E+08         0.46771E+06         0.00000E+00
    0.46771E+06        -0.60734E+08         0.00000E+00
    0.00000E+00         0.00000E+00        -0.36577E+08
 
   -0.41355E+08         0.14069E+07         0.00000E+00
    0.14069E+07        -0.60956E+08         0.00000E+00
    0.00000E+00         0.00000E+00        -0.36324E+08
 
   -0.39925E+08         0.25069E+07         0.00000E+00
    0.25069E+07        -0.61255E+08         0.00000E+00
    0.00000E+00         0.00000E+00        -0.36093E+08
 
   -0.38540E+08         0.37886E+07         0.00000E+00
    0.37886E+07        -0.61627E+08         0.00000E+00
    0.00000E+00         0.00000E+00        -0.35887E+08
 
   -0.37231E+08         0.52720E+07         0.00000E+00
    0.52720E+07        -0.62056E+08         0.00000E+00
    0.00000E+00         0.00000E+00        -0.35708E+08
 
   -0.36049E+08         0.69687E+07         0.00000E+00
    0.69687E+07        -0.62512E+08         0.00000E+00
    0.00000E+00         0.00000E+00        -0.35561E+08
 
   -0.59897E+08        -0.59030E+06         0.00000E+00
   -0.59030E+06        -0.60021E+08         0.00000E+00
    0.00000E+00         0.00000E+00        -0.38385E+08
 
   -0.57565E+08        -0.14650E+07         0.00000E+00
   -0.14650E+07        -0.60084E+08         0.00000E+00
    0.00000E+00         0.00000E+00        -0.37930E+08
 
   -0.55226E+08        -0.19666E+07         0.00000E+00
   -0.19666E+07        -0.60151E+08         0.00000E+00
    0.00000E+00         0.00000E+00        -0.37472E+08
 
   -0.52976E+08        -0.21611E+07         0.00000E+00
   -0.21611E+07        -0.60185E+08         0.00000E+00
    0.00000E+00         0.00000E+00        -0.37024E+08
 
   -0.50862E+08        -0.21178E+07         0.00000E+00
   -0.21178E+07        -0.60180E+08         0.00000E+00
    0.00000E+00         0.00000E+00        -0.36595E+08
 
   -0.48891E+08        -0.18927E+07         0.00000E+00
   -0.18927E+07        -0.60151E+08         0.00000E+00
    0.00000E+00         0.00000E+00        -0.36189E+08
 
   -0.47045E+08        -0.15241E+07         0.00000E+00
   -0.15241E+07        -0.60122E+08         0.00000E+00
    0.00000E+00         0.00000E+00        -0.35808E+08
 
   -0.45300E+08        -0.10337E+07         0.00000E+00
   -0.10337E+07        -0.60119E+08         0.00000E+00
    0.00000E+00         0.00000E+00        -0.35452E+08
 
   -0.43625E+08        -0.42946E+06         0.00000E+00
   -0.42946E+06        -0.60167E+08         0.00000E+00
    0.00000E+00         0.00000E+00        -0.35121E+08
 
   -0.41993E+08         0.29207E+06         0.00000E+00
    0.29207E+06        -0.60288E+08         0.00000E+00
    0.00000E+00         0.00000E+00        -0.34813E+08
 
   -0.40382E+08         0.11450E+07         0.00000E+00
    0.11450E+07        -0.60500E+08         0.00000E+00
    0.00000E+00         0.00000E+00        -0.34528E+08
 
   -0.38780E+08         0.21540E+07         0.00000E+00
    0.21540E+07        -0.60815E+08         0.00000E+00
    0.00000E+00         0.00000E+00        -0.34266E+08
 
   -0.37195E+08         0.33528E+07         0.00000E+00
    0.33528E+07        -0.61233E+08         0.00000E+00
    0.00000E+00         0.00000E+00        -0.34029E+08
 
   -0.35659E+08         0.47789E+07         0.00000E+00
    0.47789E+07        -0.61738E+08         0.00000E+00
    0.00000E+00         0.00000E+00        -0.33821E+08
 
   -0.34239E+08         0.64620E+07         0.00000E+00
    0.64620E+07        -0.62290E+08         0.00000E+00
    0.00000E+00         0.00000E+00        -0.33646E+08
 
   -0.61008E+08        -0.63429E+06         0.00000E+00
   -0.63429E+06        -0.60019E+08         0.00000E+00
    0.00000E+00         0.00000E+00        -0.37090E+08
 
   -0.58240E+08        -0.15283E+07         0.00000E+00
   -0.15283E+07        -0.60065E+08         0.00000E+00
    0.00000E+00         0.00000E+00        -0.36544E+08
 
   -0.55540E+08        -0.19904E+07         0.00000E+00
   -0.19904E+07        -0.60080E+08         0.00000E+00
    0.00000E+00         0.00000E+00        -0.36004E+08
 
   -0.53019E+08        -0.21303E+07         0.00000E+00
   -0.21303E+07        -0.60029E+08         0.00000E+00
    0.00000E+00         0.00000E+00        -0.35485E+08
 
   -0.50709E+08        -0.20471E+07         0.00000E+00
   -0.20471E+07        -0.59922E+08         0.00000E+00
    0.00000E+00         0.00000E+00        -0.34997E+08
 
   -0.48591E+08        -0.18101E+07         0.00000E+00
   -0.18101E+07        -0.59788E+08         0.00000E+00
    0.00000E+00         0.00000E+00        -0.34541E+08
 
   -0.46630E+08        -0.14598E+07         0.00000E+00
   -0.14598E+07        -0.59663E+08         0.00000E+00
    0.00000E+00         0.00000E+00        -0.34118E+08
 
   -0.44782E+08        -0.10157E+07         0.00000E+00
   -0.10157E+07        -0.59578E+08         0.00000E+00
    0.00000E+00         0.00000E+00        -0.33726E+08
 
   -0.43004E+08        -0.48299E+06         0.00000E+00
   -0.48299E+06        -0.59561E+08         0.00000E+00
    0.00000E+00         0.00000E+00        -0.33362E+08
 
   -0.41259E+08         0.14483E+06         0.00000E+00
    0.14483E+06        -0.59636E+08         0.00000E+00
    0.00000E+00         0.00000E+00        -0.33023E+08
 
   -0.39513E+08         0.88580E+06         0.00000E+00
    0.88580E+06        -0.59827E+08         0.00000E+00
    0.00000E+00         0.00000E+00        -0.32707E+08
 
   -0.37741E+08         0.17721E+07         0.00000E+00
    0.17721E+07        -0.60151E+08         0.00000E+00
    0.00000E+00         0.00000E+00        -0.32414E+08
 
   -0.35940E+08         0.28522E+07         0.00000E+00
    0.28522E+07        -0.60615E+08         0.00000E+00
    0.00000E+00         0.00000E+00        -0.32143E+08
 
   -0.34139E+08         0.41880E+07         0.00000E+00
    0.41880E+07        -0.61208E+08         0.00000E+00
    0.00000E+00         0.00000E+00        -0.31899E+08
 
   -0.32419E+08         0.58387E+07         0.00000E+00
    0.58387E+07        -0.61882E+08         0.00000E+00
    0.00000E+00         0.00000E+00        -0.31689E+08
 
   -0.62172E+08        -0.67304E+06         0.00000E+00
   -0.67304E+06        -0.60016E+08         0.00000E+00
    0.00000E+00         0.00000E+00        -0.35800E+08
 
   -0.58875E+08        -0.15456E+07         0.00000E+00
   -0.15456E+07        -0.60027E+08         0.00000E+00
    0.00000E+00         0.00000E+00        -0.35141E+08
 
   -0.55783E+08        -0.19206E+07         0.00000E+00
   -0.19206E+07        -0.59948E+08         0.00000E+00
    0.00000E+00         0.00000E+00        -0.34504E+08
 
   -0.53005E+08        -0.19786E+07         0.00000E+00
   -0.19786E+07        -0.59761E+08         0.00000E+00
    0.00000E+00         0.00000E+00        -0.33908E+08
 
   -0.50530E+08        -0.18520E+07         0.00000E+00
   -0.18520E+07        -0.59509E+08         0.00000E+00
    0.00000E+00         0.00000E+00        -0.33358E+08
 
   -0.48302E+08        -0.16135E+07         0.00000E+00
   -0.16135E+07        -0.59242E+08         0.00000E+00
    0.00000E+00         0.00000E+00        -0.32855E+08
 
   -0.46256E+08        -0.12975E+07         0.00000E+00
   -0.12975E+07        -0.59003E+08         0.00000E+00
    0.00000E+00         0.00000E+00        -0.32393E+08
 
   -0.44332E+08        -0.91778E+06         0.00000E+00
   -0.91778E+06        -0.58825E+08         0.00000E+00
    0.00000E+00         0.00000E+00        -0.31968E+08
 
   -0.42477E+08        -0.47557E+06         0.00000E+00
   -0.47557E+06        -0.58734E+08         0.00000E+00
    0.00000E+00         0.00000E+00        -0.31574E+08
 
   -0.40641E+08         0.37428E+05         0.00000E+00
    0.37428E+05        -0.58755E+08         0.00000E+00
    0.00000E+00         0.00000E+00        -0.31207E+08
 
   -0.38778E+08         0.64041E+06         0.00000E+00
    0.64041E+06        -0.58913E+08         0.00000E+00
    0.00000E+00         0.00000E+00        -0.30862E+08
 
   -0.36846E+08         0.13684E+07         0.00000E+00
    0.13684E+07        -0.59234E+08         0.00000E+00
    0.00000E+00         0.00000E+00        -0.30537E+08
 
   -0.34817E+08         0.22827E+07         0.00000E+00
    0.22827E+07        -0.59741E+08         0.00000E+00
    0.00000E+00         0.00000E+00        -0.30229E+08
 
   -0.32705E+08         0.34770E+07         0.00000E+00
    0.34770E+07        -0.60434E+08         0.00000E+00
    0.00000E+00         0.00000E+00        -0.29944E+08
 
   -0.30601E+08         0.50612E+07         0.00000E+00
    0.50612E+07        -0.61265E+08         0.00000E+00
    0.00000E+00         0.00000E+00        -0.29688E+08
 
   -0.63354E+08        -0.69828E+06         0.00000E+00
   -0.69828E+06        -0.60007E+08         0.00000E+00
    0.00000E+00         0.00000E+00        -0.34508E+08
 
   -0.59406E+08        -0.14692E+07         0.00000E+00
   -0.14692E+07        -0.59939E+08         0.00000E+00
    0.00000E+00         0.00000E+00        -0.33704E+08
 
   -0.55914E+08        -0.16915E+07         0.00000E+00
   -0.16915E+07        -0.59687E+08         0.00000E+00
    0.00000E+00         0.00000E+00        -0.32953E+08
 
   -0.52927E+08        -0.16547E+07         0.00000E+00
   -0.16547E+07        -0.59298E+08         0.00000E+00
    0.00000E+00         0.00000E+00        -0.32274E+08
 
   -0.50341E+08        -0.15021E+07         0.00000E+00
   -0.15021E+07        -0.58866E+08         0.00000E+00
    0.00000E+00         0.00000E+00        -0.31668E+08
 
   -0.48042E+08        -0.12870E+07         0.00000E+00
   -0.12870E+07        -0.58452E+08         0.00000E+00
    0.00000E+00         0.00000E+00        -0.31122E+08
 
   -0.45942E+08        -0.10294E+07         0.00000E+00
   -0.10294E+07        -0.58096E+08         0.00000E+00
    0.00000E+00         0.00000E+00        -0.30627E+08
 
   -0.43969E+08        -0.73522E+06         0.00000E+00
   -0.73522E+06        -0.57824E+08         0.00000E+00
    0.00000E+00         0.00000E+00        -0.30174E+08
 
   -0.42061E+08        -0.40248E+06         0.00000E+00
   -0.40248E+06        -0.57660E+08         0.00000E+00
    0.00000E+00         0.00000E+00        -0.29756E+08
 
   -0.40159E+08        -0.22806E+05         0.00000E+00
   -0.22806E+05        -0.57625E+08         0.00000E+00
    0.00000E+00         0.00000E+00        -0.29365E+08
 
   -0.38205E+08         0.42034E+06         0.00000E+00
    0.42034E+06        -0.57744E+08         0.00000E+00
    0.00000E+00         0.00000E+00        -0.28996E+08
 
   -0.36138E+08         0.95767E+06         0.00000E+00
    0.95767E+06        -0.58049E+08         0.00000E+00
    0.00000E+00         0.00000E+00        -0.28640E+08
 
   -0.33889E+08         0.16490E+07         0.00000E+00
    0.16490E+07        -0.58578E+08         0.00000E+00
    0.00000E+00         0.00000E+00        -0.28294E+08
 
   -0.31420E+08         0.26211E+07         0.00000E+00
    0.26211E+07        -0.59376E+08         0.00000E+00
    0.00000E+00         0.00000E+00        -0.27959E+08
 
   -0.28811E+08         0.40730E+07         0.00000E+00
    0.40730E+07        -0.60411E+08         0.00000E+00
    0.00000E+00         0.00000E+00        -0.27643E+08
 
   -0.64470E+08        -0.68084E+06         0.00000E+00
   -0.68084E+06        -0.59974E+08         0.00000E+00
    0.00000E+00         0.00000E+00        -0.33193E+08
 
   -0.59730E+08        -0.11846E+07         0.00000E+00
   -0.11846E+07        -0.59700E+08         0.00000E+00
    0.00000E+00         0.00000E+00        -0.32190E+08
 
   -0.55916E+08        -0.12110E+07         0.00000E+00
   -0.12110E+07        -0.59138E+08         0.00000E+00
    0.00000E+00         0.00000E+00        -0.31313E+08
 
   -0.52815E+08        -0.11209E+07         0.00000E+00
   -0.11209E+07        -0.58503E+08         0.00000E+00
    0.00000E+00         0.00000E+00        -0.30564E+08
 
   -0.50173E+08        -0.98889E+06         0.00000E+00
   -0.98889E+06        -0.57891E+08         0.00000E+00
    0.00000E+00         0.00000E+00        -0.29911E+08
 
   -0.47841E+08        -0.83468E+06         0.00000E+00
   -0.83468E+06        -0.57345E+08         0.00000E+00
    0.00000E+00         0.00000E+00        -0.29333E+08
 
   -0.45714E+08        -0.66388E+06         0.00000E+00
   -0.66388E+06        -0.56890E+08         0.00000E+00
    0.00000E+00         0.00000E+00        -0.28814E+08
 
   -0.43714E+08        -0.47653E+06         0.00000E+00
   -0.47653E+06        -0.56543E+08         0.00000E+00
    0.00000E+00         0.00000E+00        -0.28343E+08
 
   -0.41774E+08        -0.26952E+06         0.00000E+00
   -0.26952E+06        -0.56319E+08         0.00000E+00
    0.00000E+00         0.00000E+00        -0.27907E+08
 
   -0.39830E+08        -0.36673E+05         0.00000E+00
   -0.36673E+05        -0.56237E+08         0.00000E+00
    0.00000E+00         0.00000E+00        -0.27500E+08
 
   -0.37815E+08         0.23285E+06         0.00000E+00
    0.23285E+06        -0.56319E+08         0.00000E+00
    0.00000E+00         0.00000E+00        -0.27112E+08
 
   -0.35652E+08         0.55905E+06         0.00000E+00
    0.55905E+06        -0.56598E+08         0.00000E+00
    0.00000E+00         0.00000E+00        -0.26733E+08
 
   -0.33235E+08         0.98292E+06         0.00000E+00
    0.98292E+06        -0.57122E+08         0.00000E+00
    0.00000E+00         0.00000E+00        -0.26353E+08
 
   -0.30399E+08         0.16083E+07         0.00000E+00
    0.16083E+07        -0.57977E+08         0.00000E+00
    0.00000E+00         0.00000E+00        -0.25956E+08
 
   -0.27109E+08         0.27788E+07         0.00000E+00
    0.27788E+07        -0.59283E+08         0.00000E+00
    0.00000E+00         0.00000E+00        -0.25559E+08
 
   -0.65279E+08        -0.42932E+06         0.00000E+00
   -0.42932E+06        -0.59689E+08         0.00000E+00
    0.00000E+00         0.00000E+00        -0.31762E+08
 
   -0.59776E+08        -0.48995E+06         0.00000E+00
   -0.48995E+06        -0.58905E+08         0.00000E+00
    0.00000E+00         0.00000E+00        -0.30505E+08
 
   -0.55866E+08        -0.44766E+06         0.00000E+00
   -0.44766E+06        -0.58028E+08         0.00000E+00
    0.00000E+00         0.00000E+00        -0.29547E+08
 
   -0.52729E+08        -0.39940E+06         0.00000E+00
   -0.39940E+06        -0.57209E+08         0.00000E+00
    0.00000E+00         0.00000E+00        -0.28755E+08
 
   -0.50072E+08        -0.34610E+06         0.00000E+00
   -0.34610E+06        -0.56480E+08         0.00000E+00
    0.00000E+00         0.00000E+00        -0.28077E+08
 
   -0.47730E+08        -0.28951E+06         0.00000E+00
   -0.28951E+06        -0.55854E+08         0.00000E+00
    0.00000E+00         0.00000E+00        -0.27483E+08
 
   -0.45593E+08        -0.22941E+06         0.00000E+00
   -0.22941E+06        -0.55343E+08         0.00000E+00
    0.00000E+00         0.00000E+00        -0.26952E+08
 
   -0.43582E+08        -0.16495E+06         0.00000E+00
   -0.16495E+06        -0.54953E+08         0.00000E+00
    0.00000E+00         0.00000E+00        -0.26471E+08
 
   -0.41627E+08        -0.94665E+05         0.00000E+00
   -0.94665E+05        -0.54697E+08         0.00000E+00
    0.00000E+00         0.00000E+00        -0.26028E+08
 
   -0.39663E+08        -0.16275E+05         0.00000E+00
   -0.16275E+05        -0.54589E+08         0.00000E+00
    0.00000E+00         0.00000E+00        -0.25613E+08
 
   -0.37619E+08         0.73939E+05         0.00000E+00
    0.73939E+05        -0.54649E+08         0.00000E+00
    0.00000E+00         0.00000E+00        -0.25215E+08
 
   -0.35407E+08         0.18263E+06         0.00000E+00
    0.18263E+06        -0.54907E+08         0.00000E+00
    0.00000E+00         0.00000E+00        -0.24824E+08
 
   -0.32898E+08         0.32422E+06         0.00000E+00
    0.32422E+06        -0.55414E+08         0.00000E+00
    0.00000E+00         0.00000E+00        -0.24423E+08
 
   -0.29863E+08         0.53147E+06         0.00000E+00
    0.53147E+06        -0.56270E+08         0.00000E+00
    0.00000E+00         0.00000E+00        -0.23987E+08
 
   -0.25651E+08         0.10200E+07         0.00000E+00
    0.10200E+07        -0.57748E+08         0.00000E+00
    0.00000E+00         0.00000E+00        -0.23440E+08
 
SCALARS stressS double 
LOOKUP_TABLE default
  -54936831.5708745     
  -55980482.4898911     
  -58005536.3508540     
  -60403264.0145648     
  -62707665.7093117     
  -64737166.6478952     
  -66257375.8640796     
  -67503435.2367306     
  -68585018.9061277     
  -69560298.3510716     
  -70469719.5984531     
  -71349412.1444968     
  -72241468.7630751     
  -73209348.0750567     
  -74431537.0825361     
  -57166585.7228684     
  -58302777.2150267     
  -59671624.3393531     
  -60970840.8446471     
  -62285087.4278260     
  -63667737.6461646     
  -65003837.9266015     
  -66165783.2134392     
  -67197868.4106203     
  -68136775.5463320     
  -69013360.9211956     
  -69856066.7427828     
  -70694406.8818193     
  -71567009.0877131     
  -72436750.8322113     
  -57944615.0672683     
  -59035055.6692370     
  -59792821.2142930     
  -60638677.2631803     
  -61705551.1594108     
  -62826951.2767293     
  -63926546.9002343     
  -64959705.0809083     
  -65906476.3776478     
  -66779895.0405626     
  -67596794.5798911     
  -68373917.2718665     
  -69126018.7238820     
  -69851392.8301022     
  -70528966.9088987     
  -57667511.2803482     
  -58493471.9682656     
  -59338086.2217556     
  -60182712.0125705     
  -61079235.2727746     
  -62019283.3995909     
  -62953996.5010083     
  -63851771.3066731     
  -64697297.6579219     
  -65487446.5887529     
  -66227454.1962932     
  -66923563.6754448     
  -67577581.6114983     
  -68182777.0102042     
  -68718880.1512767     
  -57300493.2270190     
  -58088199.1426526     
  -58856637.0224257     
  -59635163.4103876     
  -60428279.3681765     
  -61233697.5875050     
  -62035472.6809878     
  -62814004.4922212     
  -63556299.0548774     
  -64256157.9929353     
  -64911677.8002248     
  -65521966.9000505     
  -66083563.2698346     
  -66587428.4228732     
  -67017770.8300174     
  -57000066.9463550     
  -57697938.5363980     
  -58386782.0255553     
  -59076124.6992845     
  -59770847.5466840     
  -60467267.6984202     
  -61156843.5244732     
  -61828662.7148869     
  -62472902.8309449     
  -63082612.9827763     
  -63653009.6322031     
  -64179738.5352262     
  -64656921.6726992     
  -65075638.6629548     
  -65423316.6530212     
  -56739852.6790552     
  -57333772.5913784     
  -57928613.7751615     
  -58525767.7094460     
  -59124815.5459971     
  -59722482.5379415     
  -60312594.8738110     
  -60887642.0366669     
  -61440158.7970499     
  -61963579.2619634     
  -62452197.4360705     
  -62900397.2808914     
  -63301676.6998828     
  -63647893.0887560     
  -63929069.1391394     
  -56500220.9746161     
  -56987897.9471317     
  -57485834.2232730     
  -57989904.2732259     
  -58496706.9289688     
  -59002043.8472367     
  -59500658.1404031     
  -59986552.7649491     
  -60453584.6210903     
  -60895841.9234960     
  -61307657.4666393     
  -61683295.1513185     
  -62016504.8374861     
  -62300197.6459343     
  -62526432.4447307     
  -56266474.0799622     
  -56653197.4447749     
  -57056628.6639157     
  -57470081.5874270     
  -57888317.9817693     
  -58306478.9477253     
  -58719560.7126061     
  -59122351.3331997     
  -59509556.5143275     
  -59875924.4073601     
  -60216239.8549845     
  -60525187.7221901     
  -60797169.3035322     
  -61026191.9789514     
  -61205938.2895909     
  -56029844.5955268     
  -56323835.2128719     
  -56638176.3841702     
  -56965289.9438590     
  -57299220.0149267     
  -57634840.0877069     
  -57967365.7070389     
  -58292125.1942063     
  -58604493.9309544     
  -58899878.9505402     
  -59173685.8985475     
  -59421251.8523367     
  -59637776.7141943     
  -59818309.3732544     
  -59957840.4158952     
  -55785726.5161511     
  -55996010.5738309     
  -56227791.0993275     
  -56473685.2515239     
  -56727812.7444977     
  -56985235.3487571     
  -57241548.3080541     
  -57492627.3437215     
  -57734490.1110855     
  -57963221.3297480     
  -58174921.6235500     
  -58365666.0593334     
  -58531482.1616886     
  -58668371.0294147     
  -58772394.4262876     
  -55532576.1921220     
  -55667725.8052657     
  -55823468.7656939     
  -55993304.0815226     
  -56171998.3759926     
  -56355190.9100300     
  -56539076.6148430     
  -56720179.7299326     
  -56895206.6362204     
  -57060954.8101148     
  -57214257.2217604     
  -57351951.4161499     
  -57470874.0597889     
  -57567888.8415879     
  -57639955.7034706     
  -55271040.5909667     
  -55338462.2091277     
  -55423967.3226154     
  -55522382.1196869     
  -55629519.0877087     
  -55741902.4398759     
  -55856533.1782026     
  -55970708.2014270     
  -56081892.9655068     
  -56187638.6510940     
  -56285532.9718203     
  -56373176.9853356     
  -56448185.0881791     
  -56508208.8411805     
  -56550985.5202939     
  -55003325.6835259     
  -55008834.4784028     
  -55028724.5750676     
  -55059439.4657498     
  -55098112.9030641     
  -55142382.0983874     
  -55190222.1265845     
  -55239813.9933325     
  -55289449.5517725     
  -55337469.8750965     
  -55382230.8203069     
  -55422089.6894169     
  -55455408.6339746     
  -55480572.1108738     
  -55496016.1944966     
  -54732719.9419255     
  -54680280.3985243     
  -54637709.0637825     
  -54603255.0326913     
  -54575558.9361068     
  -54553530.9660369     
  -54536242.6313601     
  -54522842.1989784     
  -54512497.0923749     
  -54504361.2194689     
  -54497562.1062206     
  -54491201.7643769     
  -54484365.7283619     
  -54476135.7865360     
  -54465602.9124437     
  -54463223.5415100     
  -54354788.2257244     
  -54251250.0927879     
  -54152783.8916818     
  -54059657.3703515     
  -53972157.0778509     
  -53890527.7156986     
  -53814932.5745877     
  -53745436.6430109     
  -53682009.1014740     
  -53624538.8355876     
  -53572855.4001776     
  -53526748.1859075     
  -53485977.8290990     
  -53450275.6591792     
  -54199247.2735812     
  -54034654.6376699     
  -53869861.0303904     
  -53707042.3915525     
  -53548166.4788778     
  -53394952.6625535     
  -53248851.5136943     
  -53111049.3734317     
  -52982496.4410060     
  -52863951.7708574     
  -52756035.5034916     
  -52659277.6836810     
  -52574153.7979870     
  -52501099.2134973     
  -52440497.5552605     
  -53945357.4242519     
  -53722262.1087739     
  -53494056.4536725     
  -53264968.3346618     
  -53038705.5326827     
  -52818437.0450110     
  -52606808.0945665     
  -52405991.1680777     
  -52217766.7713677     
  -52043621.6363929     
  -51884849.1658415     
  -51742636.6053987     
  -51618125.2017331     
  -51512432.8963690     
  -51426633.4552238     
  -53706050.4446252     
  -53419863.5620672     
  -53124155.8171294     
  -52825253.0021922     
  -52528622.9369475     
  -52238865.8145586     
  -51959763.1551939     
  -51694383.0036374     
  -51445227.0518279     
  -51214398.4814462     
  -51003767.0656185     
  -50815109.1485822     
  -50650203.4200890     
  -50510868.3173751     
  -50398933.1770005     
  -53485546.0141490     
  -53129360.4929458     
  -52760059.8808159     
  -52386133.3161356     
  -52014821.1828058     
  -51652101.6177356     
  -51302777.7133874     
  -50970653.6260787     
  -50658771.3285795     
  -50369672.9385655     
  -50105653.7359646     
  -49868974.7497240     
  -49662009.0019870     
  -49487302.0612424     
  -49347536.0310154     
  -53287589.4100761     
  -52852056.4538484     
  -52400977.5678454     
  -51945122.7942150     
  -51493522.1839206     
  -51053436.9367047     
  -50630501.0606432     
  -50229001.1141920     
  -49852240.5952020     
  -49502932.8269129     
  -49183573.3793743     
  -48896751.6226264     
  -48645367.8798694     
  -48432729.1265365     
  -48262506.6822611     
  -53115253.3521183     
  -52588357.7932846     
  -52045066.3780470     
  -51498646.1181215     
  -50959946.9046813     
  -50437354.5994451     
  -49937029.5850108     
  -49463351.9534283     
  -49019473.3250511     
  -48607889.0279247     
  -48230968.6279835     
  -47891399.9551591     
  -47592505.9156985     
  -47338395.2325514     
  -47133916.4172794     
  -52970723.3614366     
  -52337371.7579496     
  -51688922.6060382     
  -51041520.2379173     
  -50407871.4415964     
  -49797209.2947005     
  -49215730.7619950     
  -48667322.5045150     
  -48154389.3390145     
  -47678661.7824694     
  -47241923.5068947     
  -46846625.5186068     
  -46496347.4270675     
  -46196040.0385348     
  -45951988.7666669     
  -52855032.5719466     
  -52096305.0444376     
  -51326805.4950216     
  -50566189.8779465     
  -49829010.3362173     
  -49124818.8950193     
  -48459042.3087262     
  -47834199.4411183     
  -47251124.6470062     
  -46710050.5347527     
  -46211544.4348362     
  -45757332.2836431     
  -45350971.9941179     
  -44998279.0827771     
  -44707334.8539364     
  -52767667.6323246     
  -51859457.1304526     
  -50949376.1508021     
  -50061571.4841340     
  -49212178.9529702     
  -48409983.8509344     
  -47658284.0941705     
  -46956967.1915730     
  -46304232.4547242     
  -45697900.2424368     
  -45136497.8434108     
  -44620290.3043202     
  -44152325.9861885     
  -43739205.4073579     
  -43391319.3938507     
  -52705832.1869211     
  -51616346.9715124     
  -50541511.4629409     
  -49511297.3280933     
  -48542246.1944209     
  -47640037.3947448     
  -46803578.9746034     
  -46028423.2756359     
  -45308939.6814001     
  -44639551.8419836     
  -44015707.4847035     
  -43435136.4094523     
  -42899341.0666811     
  -42415401.5876923     
  -41996618.2491426     
  -52662827.9051793     
  -51347736.0423819     
  -50078333.4855546     
  -48891182.8997743     
  -47799122.4860652     
  -46799748.6309940     
  -45884037.1167932     
  -45041426.7829639     
  -44261417.9136402     
  -43534220.9767499     
  -42851209.5928473     
  -42205719.4342796     
  -41595937.3175250     
  -41027649.5900415     
  -40518223.1042787     
  -52622970.3957402     
  -51016395.3559485     
  -49517780.6483229     
  -48166354.2864314     
  -46957986.4716994     
  -45872000.8683432     
  -44888397.3841391     
  -43989309.0650492     
  -43158969.1028017     
  -42383116.6086621     
  -41648423.5297113     
  -40942386.6036341     
  -40253865.1379473     
  -39585238.7943116     
  -38954879.7820407     
  -52545712.8184644     
  -50539991.3243053     
  -48789113.6897507     
  -47293886.2181981     
  -45991663.1340511     
  -44839726.0534254     
  -43806199.3850766     
  -42866429.0141806     
  -42000051.9850377     
  -41188954.9062736     
  -40415551.4255979     
  -39660893.2788839     
  -38903030.9443891     
  -38110878.2670268     
  -37316752.6071811     
  -52243607.1614323     
  -49728367.9025204     
  -47813586.7182856     
  -46230995.2571328     
  -44876242.4722465     
  -43688885.7541557     
  -42629354.3848220     
  -41668788.3198014     
  -40784107.8463627     
  -39954939.2496321     
  -39161076.2042200     
  -38379456.0352842     
  -37578545.9681433     
  -36706650.9784011     
  -35612954.4503556     
SCALARS 2waySource double 
LOOKUP_TABLE default
  1.694920935473372E-005
  1.049710176453330E-005
  6.967390381169368E-006
  4.779633741197385E-006
  3.388800778369140E-006
  2.489265258285967E-006
  1.895856663928293E-006
  1.485178572678716E-006
  1.167568276673876E-006
  8.702699703942045E-007
  5.250303503328052E-007
  5.579220353629896E-008
 -6.403317374988475E-007
 -1.721703870604493E-006
 -3.654417172099931E-006
  1.748466572447058E-005
  1.369109869375376E-005
  1.099830476631142E-005
  9.269089581695007E-006
  8.138246023753662E-006
  7.395637421610853E-006
  6.900137419052955E-006
  6.554028767979253E-006
  6.284549436782857E-006
  6.032185479782738E-006
  5.741713208646656E-006
  5.353516329364534E-006
  4.794480800192248E-006
  3.949225522507346E-006
  2.698033816316461E-006
  1.703295236398707E-005
  1.542591405900600E-005
  1.398854894700217E-005
  1.293471242765078E-005
  1.221984611311271E-005
  1.174422550170883E-005
  1.142901335711754E-005
  1.121298599856355E-005
  1.104811469222017E-005
  1.089438889364402E-005
  1.071544586500628E-005
  1.047504774383681E-005
  1.013284403160049E-005
  9.651061638151258E-006
  9.016372344504928E-006
  1.633380208492544E-005
  1.636122021520367E-005
  1.610501525798050E-005
  1.581835186748792E-005
  1.559852805808810E-005
  1.545693416744336E-005
  1.537666553654300E-005
  1.533649783676802E-005
  1.531616749535668E-005
  1.529762569371125E-005
  1.526504651298429E-005
  1.520493997311153E-005
  1.510889999372486E-005
  1.498137462454599E-005
  1.486469755713785E-005
  1.553691932401575E-005
  1.682008476376679E-005
  1.755204974708627E-005
  1.798481900034968E-005
  1.827010649332124E-005
  1.848526721500043E-005
  1.866537032393839E-005
  1.882537241906334E-005
  1.897162040176724E-005
  1.910730265267165E-005
  1.923572802493601E-005
  1.936343231248499E-005
  1.950472346235766E-005
  1.969056141764255E-005
  1.998138613310423E-005
  1.470620767159605E-005
  1.694447340373563E-005
  1.846199960103259E-005
  1.950621921950963E-005
  2.025053208467299E-005
  2.080723819984182E-005
  2.124591883046103E-005
  2.160988994248620E-005
  2.192777896839850E-005
  2.222101046271744E-005
  2.250902808004499E-005
  2.281388501384468E-005
  2.316559642881243E-005
  2.360898340659595E-005
  2.421159668576115E-005
  1.388206313863440E-005
  1.681075327084067E-005
  1.891726677164377E-005
  2.044316350244443E-005
  2.156899408259153E-005
  2.242373855603736E-005
  2.309700625495799E-005
  2.365110296420668E-005
  2.413103717663157E-005
  2.457215487065147E-005
  2.500607457272021E-005
  2.546585646103231E-005
  2.599116831589348E-005
  2.663378431906839E-005
  2.746289332095873E-005
  1.309504336788973E-005
  1.647002623774030E-005
  1.897750261821080E-005
  2.084921861229383E-005
  2.226393989464069E-005
  2.335581445388939E-005
  2.422369696744099E-005
  2.494044235293476E-005
  2.556122500454457E-005
  2.613051660375932E-005
  2.668790110129754E-005
  2.727315468324104E-005
  2.793098372746143E-005
  2.871554398953887E-005
  2.969449790840092E-005
  1.236892859832965E-005
  1.596357869877680E-005
  1.869447763318758E-005
  2.077785250919801E-005
  2.238356305416189E-005
  2.364273036979353E-005
  2.465539405435851E-005
  2.549796700738179E-005
  2.623010177114819E-005
  2.690074460485114E-005
  2.755339517106686E-005
  2.823074251501653E-005
  2.897885198646104E-005
  2.985096202727124E-005
  3.091078954578852E-005
  1.172156791766922E-005
  1.532885895117290E-005
  1.811907489367145E-005
  2.028672461273026E-005
  2.198660746555463E-005
  2.334047112536417E-005
  2.444334670347246E-005
  2.536958414452165E-005
  2.617846167014422E-005
  2.691925913885833E-005
  2.763577529264266E-005
  2.837034326952777E-005
  2.916741274147411E-005
  3.007672379283465E-005
  3.115604042582331E-005
  1.116512224549776E-005
  1.460155465069125E-005
  1.730387782688916E-005
  1.943919146278857E-005
  2.114203545495024E-005
  2.251977065457979E-005
  2.365762135215832E-005
  2.462344458944821E-005
  2.547219176747559E-005
  2.625000751807569E-005
  2.699793739801002E-005
  2.775524845083822E-005
  2.856237850316574E-005
  2.946351914122504E-005
  3.050882151363274E-005
  1.070627569664296E-005
  1.381592893848932E-005
  1.630338711660679E-005
  1.830381232612631E-005
  1.992742269055195E-005
  2.126337406179313E-005
  2.238346376632647E-005
  2.334568082004573E-005
  2.419757640440145E-005
  2.497941067116545E-005
  2.572703888339578E-005
  2.647451462524361E-005
  2.725639724617310E-005
  2.810975199601792E-005
  2.907583127589640E-005
  1.034659217052507E-005
  1.300439883704092E-005
  1.517300132341767E-005
  1.695262598600389E-005
  1.842639976676661E-005
  1.966263191033966E-005
  2.071715436740305E-005
  2.163567934623411E-005
  2.245612006517006E-005
  2.321081713373831E-005
  2.392861890800812E-005
  2.463677428202785E-005
  2.536260523138940E-005
  2.613493226786037E-005
  2.698523101320548E-005
  1.008305625083679E-005
  1.219684440050247E-005
  1.396743442832306E-005
  1.545879381925843E-005
  1.672555157596285E-005
  1.781369488616360E-005
  1.876157601526325E-005
  1.960112254303086E-005
  2.035915843242864E-005
  2.105875433566304E-005
  2.172053679977525E-005
  2.236389733097065E-005
  2.300805212066964E-005
  2.367291100574078E-005
  2.437972063691136E-005
  9.908777596618162E-006
  1.141990878135156E-005
  1.273898498738500E-005
  1.389404355951791E-005
  1.491114830177884E-005
  1.581361140457077E-005
  1.662175500665049E-005
  1.735305211651629E-005
  1.802251789065278E-005
  1.864324445727173E-005
  1.922698988035873E-005
  1.978474611190038E-005
  2.032722226223575E-005
  2.086518843114109E-005
  2.140963204985102E-005
  9.813812476830508E-006
  1.069642758054404E-005
  1.153591487222464E-005
  1.232621849626546E-005
  1.306600674558823E-005
  1.375659971693790E-005
  1.440062320796997E-005
  1.500119112727754E-005
  1.556145907016016E-005
  1.608442114992582E-005
  1.657284434018220E-005
  1.702925156492864E-005
  1.745587774917651E-005
  1.785453275393745E-005
  1.822631200076105E-005
  9.786047404822405E-006
  1.004505326170367E-005
  1.040109127230596E-005
  1.081713407006376E-005
  1.126669914302190E-005
  1.173070801426705E-005
  1.219520591714703E-005
  1.264972278118308E-005
  1.308610024796405E-005
  1.349764260121729E-005
  1.387847440587000E-005
  1.422300620277066E-005
  1.452542333778655E-005
  1.477912309674551E-005
  1.497603243863624E-005
  9.812090125527863E-006
  9.480094130554426E-006
  9.370972224784783E-006
  9.420862579722474E-006
  9.581250957124363E-006
  9.815010884411946E-006
  1.009338386552994E-005
  1.039367292302352E-005
  1.069746697388201E-005
  1.098924799495048E-005
  1.125525858802907E-005
  1.148252600224268E-005
  1.165795189783732E-005
  1.176738692404988E-005
  1.179461657734319E-005
  9.878118336099384E-006
  9.011557886343901E-006
  8.474964113730600E-006
  8.182504288180085E-006
  8.067404886464724E-006
  8.077429038320781E-006
  8.171320153931391E-006
  8.315988480937478E-006
  8.484261392047693E-006
  8.653052801697317E-006
  8.801831501046020E-006
  8.911284219616594E-006
  8.962079996407932E-006
  8.933650877252568E-006
  8.802911617270678E-006
  9.970644207160914E-006
  8.645372916171056E-006
  7.735145557484742E-006
  7.137458673830903E-006
  6.771478446659912E-006
  6.573207335213662E-006
  6.491590752053520E-006
  6.485352352895006E-006
  6.520393604725068E-006
  6.567627931223650E-006
  6.601140009228678E-006
  6.596570619912660E-006
  6.529632821433049E-006
  6.374670803424321E-006
  6.103180924703503E-006
  1.007716183256603E-005
  8.383754842327285E-006
  7.166334889235049E-006
  6.311183136638093E-006
  5.727808608768612E-006
  5.344046593350539E-006
  5.102013880095156E-006
  4.954729944778938E-006
  4.863271516499536E-006
  4.794361977100244E-006
  4.718306864425562E-006
  4.607183782609380E-006
  4.433190585927419E-006
  4.167057056878249E-006
  3.776434439043461E-006
  1.018665488327299E-005
  8.225692004569505E-006
  6.776479485147960E-006
  5.719419508053144E-006
  4.958759827925527E-006
  4.417857646430943E-006
  4.035139393670422E-006
  3.760604618494005E-006
  3.552806490206597E-006
  3.376266702233498E-006
  3.199266092699397E-006
  2.991924824518684E-006
  2.724467981507992E-006
  2.365568187317024E-006
  1.880669690805729E-006
  1.028995368913436E-005
  8.167545962376338E-006
  6.567370113696983E-006
  5.368884679618908E-006
  4.475270723623902E-006
  3.809088236722772E-006
  3.308330806595461E-006
  2.922827057768160E-006
  2.611060038720481E-006
  2.337454929231905E-006
  2.070103659520436E-006
  1.778829802864053E-006
  1.433465660550190E-006
  1.002211716930472E-006
  4.499589574927993E-007
  1.037994831291544E-005
  8.203814554939549E-006
  6.535748145217979E-006
  5.258467175905287E-006
  4.277924874253680E-006
  3.519554150154056E-006
  2.924341201398669E-006
  2.444973631641616E-006
  2.042432438143682E-006
  1.683198485866126E-006
  1.337016142545960E-006
  9.750548090778941E-007
  5.683087216830313E-007
  8.606382604509081E-008
 -5.057088370704550E-007
  1.045169274696008E-005
  8.328228161652287E-006
  6.675015861416520E-006
  5.381056766808792E-006
  4.358532035008839E-006
  3.539657967642985E-006
  2.872235639069242E-006
  2.315079629902884E-006
  1.834281623418099E-006
  1.400468382681010E-006
  9.867874573534577E-007
  5.673148726163343E-007
  1.156642566619427E-007
 -3.962990794005235E-007
 -9.999455097253643E-007
  1.050252894430618E-005
  8.535653426554579E-006
  6.978092490799976E-006
  5.726245044319158E-006
  4.702118259089628E-006
  3.849748454494031E-006
  3.128428125963014E-006
  2.506597886649701E-006
  1.957878007808339E-006
  1.458871087464397E-006
  9.876994975175806E-007
  5.227466780787539E-007
  4.162613876506249E-008
 -4.799101790811856E-007
 -1.068968954949586E-006
  1.053253207285154E-005
  8.826332311161534E-006
  7.442639921648614E-006
  6.284100738901627E-006
  5.288827197257409E-006
  4.421041830194711E-006
  3.657555988510567E-006
  2.979454021521291E-006
  2.369654043844003E-006
  1.811994414469540E-006
  1.290767459024649E-006
  7.901341516107732E-007
  2.927837354310053E-007
 -2.201588543667886E-007
 -7.703611734903801E-007
  1.054771601449002E-005
  9.216857766508815E-006
  8.081346884874711E-006
  7.049018310097241E-006
  6.093652806416784E-006
  5.215511517378364E-006
  4.412962477348493E-006
  3.681163916734653E-006
  3.012799612833336E-006
  2.399274762191197E-006
  1.831616612422365E-006
  1.300876893097785E-006
  7.977411696601044E-007
  3.078055921266242E-007
 -1.816060957567433E-007
  1.057292548915262E-005
  9.778796821595095E-006
  8.936906563653083E-006
  8.013353306619691E-006
  7.082987715858566E-006
  6.184403915516191E-006
  5.336902223657535E-006
  4.548113998351408E-006
  3.819300519503444E-006
  3.148621001485391E-006
  2.533384415317404E-006
  1.971780927332812E-006
  1.464084799406452E-006
  1.012864536917077E-006
  5.972125818462829E-007
  1.082436360756524E-005
  1.072608857188735E-005
  1.003804552146836E-005
  9.153369450727358E-006
  8.208002630581694E-006
  7.266474106605645E-006
  6.360945025130372E-006
  5.507214396076734E-006
  4.712470751986344E-006
  3.979794894819767E-006
  3.311242907949332E-006
  2.710526378804486E-006
  2.186152631761584E-006
  1.756883352249771E-006
  1.456102629912065E-006
SCALARS poroP double 
LOOKUP_TABLE default
  5.202765729064762E-005
  3.478438222233338E-005
  2.033922206311786E-005
  8.815568906826070E-006
  1.165087325194126E-006
  0.000000000000000E+000
  0.000000000000000E+000
  0.000000000000000E+000
  0.000000000000000E+000
  0.000000000000000E+000
  0.000000000000000E+000
  0.000000000000000E+000
  0.000000000000000E+000
  0.000000000000000E+000
  0.000000000000000E+000
  2.200123869729448E-005
  1.205615367026657E-005
  4.092008344561555E-006
  7.643721887685024E-008
  0.000000000000000E+000
  0.000000000000000E+000
  0.000000000000000E+000
  0.000000000000000E+000
  0.000000000000000E+000
  0.000000000000000E+000
  0.000000000000000E+000
  0.000000000000000E+000
  0.000000000000000E+000
  0.000000000000000E+000
  0.000000000000000E+000
  3.735757183731499E-006
  0.000000000000000E+000
  0.000000000000000E+000
  0.000000000000000E+000
  0.000000000000000E+000
  0.000000000000000E+000
  0.000000000000000E+000
  0.000000000000000E+000
  0.000000000000000E+000
  0.000000000000000E+000
  0.000000000000000E+000
  0.000000000000000E+000
  0.000000000000000E+000
  0.000000000000000E+000
  0.000000000000000E+000
  0.000000000000000E+000
  0.000000000000000E+000
  0.000000000000000E+000
  0.000000000000000E+000
  0.000000000000000E+000
  0.000000000000000E+000
  0.000000000000000E+000
  0.000000000000000E+000
  0.000000000000000E+000
  0.000000000000000E+000
  0.000000000000000E+000
  0.000000000000000E+000
  0.000000000000000E+000
  0.000000000000000E+000
  0.000000000000000E+000
  0.000000000000000E+000
  0.000000000000000E+000
  0.000000000000000E+000
  0.000000000000000E+000
  0.000000000000000E+000
  0.000000000000000E+000
  0.000000000000000E+000
  0.000000000000000E+000
  0.000000000000000E+000
  0.000000000000000E+000
  0.000000000000000E+000
  0.000000000000000E+000
  0.000000000000000E+000
  0.000000000000000E+000
  0.000000000000000E+000
  0.000000000000000E+000
  0.000000000000000E+000
  0.000000000000000E+000
  0.000000000000000E+000
  0.000000000000000E+000
  0.000000000000000E+000
  0.000000000000000E+000
  0.000000000000000E+000
  0.000000000000000E+000
  0.000000000000000E+000
  0.000000000000000E+000
  0.000000000000000E+000
  0.000000000000000E+000
  0.000000000000000E+000
  0.000000000000000E+000
  0.000000000000000E+000
  0.000000000000000E+000
  0.000000000000000E+000
  0.000000000000000E+000
  0.000000000000000E+000
  0.000000000000000E+000
  0.000000000000000E+000
  0.000000000000000E+000
  0.000000000000000E+000
  0.000000000000000E+000
  0.000000000000000E+000
  0.000000000000000E+000
  0.000000000000000E+000
  0.000000000000000E+000
  0.000000000000000E+000
  0.000000000000000E+000
  0.000000000000000E+000
  0.000000000000000E+000
  0.000000000000000E+000
  0.000000000000000E+000
  0.000000000000000E+000
  0.000000000000000E+000
  0.000000000000000E+000
  0.000000000000000E+000
  0.000000000000000E+000
  0.000000000000000E+000
  0.000000000000000E+000
  0.000000000000000E+000
  0.000000000000000E+000
  0.000000000000000E+000
  0.000000000000000E+000
  0.000000000000000E+000
  0.000000000000000E+000
  0.000000000000000E+000
  0.000000000000000E+000
  0.000000000000000E+000
  0.000000000000000E+000
  0.000000000000000E+000
  0.000000000000000E+000
  0.000000000000000E+000
  0.000000000000000E+000
  0.000000000000000E+000
  0.000000000000000E+000
  0.000000000000000E+000
  0.000000000000000E+000
  0.000000000000000E+000
  0.000000000000000E+000
  0.000000000000000E+000
  0.000000000000000E+000
  0.000000000000000E+000
  0.000000000000000E+000
  0.000000000000000E+000
  0.000000000000000E+000
  0.000000000000000E+000
  0.000000000000000E+000
  0.000000000000000E+000
  0.000000000000000E+000
  0.000000000000000E+000
  0.000000000000000E+000
  0.000000000000000E+000
  0.000000000000000E+000
  0.000000000000000E+000
  0.000000000000000E+000
  0.000000000000000E+000
  0.000000000000000E+000
  0.000000000000000E+000
  0.000000000000000E+000
  0.000000000000000E+000
  0.000000000000000E+000
  0.000000000000000E+000
  0.000000000000000E+000
  0.000000000000000E+000
  0.000000000000000E+000
  0.000000000000000E+000
  0.000000000000000E+000
  0.000000000000000E+000
  0.000000000000000E+000
  0.000000000000000E+000
  0.000000000000000E+000
  0.000000000000000E+000
  0.000000000000000E+000
  0.000000000000000E+000
  0.000000000000000E+000
  0.000000000000000E+000
  0.000000000000000E+000
  0.000000000000000E+000
  0.000000000000000E+000
  0.000000000000000E+000
  0.000000000000000E+000
  0.000000000000000E+000
  0.000000000000000E+000
  0.000000000000000E+000
  0.000000000000000E+000
  0.000000000000000E+000
  0.000000000000000E+000
  0.000000000000000E+000
  0.000000000000000E+000
  0.000000000000000E+000
  0.000000000000000E+000
  0.000000000000000E+000
  0.000000000000000E+000
  0.000000000000000E+000
  0.000000000000000E+000
  0.000000000000000E+000
  0.000000000000000E+000
  0.000000000000000E+000
  0.000000000000000E+000
  0.000000000000000E+000
  0.000000000000000E+000
  0.000000000000000E+000
  0.000000000000000E+000
  0.000000000000000E+000
  0.000000000000000E+000
  0.000000000000000E+000
  0.000000000000000E+000
  0.000000000000000E+000
  0.000000000000000E+000
  0.000000000000000E+000
  0.000000000000000E+000
  0.000000000000000E+000
  0.000000000000000E+000
  0.000000000000000E+000
  0.000000000000000E+000
  0.000000000000000E+000
  0.000000000000000E+000
  0.000000000000000E+000
  0.000000000000000E+000
  0.000000000000000E+000
  0.000000000000000E+000
  0.000000000000000E+000
  0.000000000000000E+000
  0.000000000000000E+000
  0.000000000000000E+000
  0.000000000000000E+000
  0.000000000000000E+000
  0.000000000000000E+000
  0.000000000000000E+000
  0.000000000000000E+000
  0.000000000000000E+000
  0.000000000000000E+000
  0.000000000000000E+000
  0.000000000000000E+000
  0.000000000000000E+000
  0.000000000000000E+000
  0.000000000000000E+000
  0.000000000000000E+000
  0.000000000000000E+000
  0.000000000000000E+000
  0.000000000000000E+000
  0.000000000000000E+000
  0.000000000000000E+000
  0.000000000000000E+000
  0.000000000000000E+000
  0.000000000000000E+000
  0.000000000000000E+000
  0.000000000000000E+000
  0.000000000000000E+000
  0.000000000000000E+000
  0.000000000000000E+000
  0.000000000000000E+000
  0.000000000000000E+000
  0.000000000000000E+000
  0.000000000000000E+000
  0.000000000000000E+000
  0.000000000000000E+000
  0.000000000000000E+000
  0.000000000000000E+000
  0.000000000000000E+000
  0.000000000000000E+000
  0.000000000000000E+000
  0.000000000000000E+000
  0.000000000000000E+000
  0.000000000000000E+000
  0.000000000000000E+000
  0.000000000000000E+000
  0.000000000000000E+000
  0.000000000000000E+000
  0.000000000000000E+000
  0.000000000000000E+000
  0.000000000000000E+000
  0.000000000000000E+000
  0.000000000000000E+000
  0.000000000000000E+000
  0.000000000000000E+000
  0.000000000000000E+000
  0.000000000000000E+000
  0.000000000000000E+000
  0.000000000000000E+000
  0.000000000000000E+000
  0.000000000000000E+000
  0.000000000000000E+000
  0.000000000000000E+000
  0.000000000000000E+000
  0.000000000000000E+000
  0.000000000000000E+000
  0.000000000000000E+000
  0.000000000000000E+000
  0.000000000000000E+000
  0.000000000000000E+000
  0.000000000000000E+000
  0.000000000000000E+000
  0.000000000000000E+000
  0.000000000000000E+000
  0.000000000000000E+000
  0.000000000000000E+000
  0.000000000000000E+000
  0.000000000000000E+000
  0.000000000000000E+000
  0.000000000000000E+000
  0.000000000000000E+000
  0.000000000000000E+000
  0.000000000000000E+000
  0.000000000000000E+000
  0.000000000000000E+000
  0.000000000000000E+000
  0.000000000000000E+000
  0.000000000000000E+000
  0.000000000000000E+000
  0.000000000000000E+000
  0.000000000000000E+000
  0.000000000000000E+000
  0.000000000000000E+000
  0.000000000000000E+000
  0.000000000000000E+000
  0.000000000000000E+000
  0.000000000000000E+000
  0.000000000000000E+000
  0.000000000000000E+000
  0.000000000000000E+000
  0.000000000000000E+000
  0.000000000000000E+000
  0.000000000000000E+000
  0.000000000000000E+000
  0.000000000000000E+000
  0.000000000000000E+000
  0.000000000000000E+000
  0.000000000000000E+000
  0.000000000000000E+000
  0.000000000000000E+000
  0.000000000000000E+000
  0.000000000000000E+000
  0.000000000000000E+000
  0.000000000000000E+000
  0.000000000000000E+000
  0.000000000000000E+000
  0.000000000000000E+000
  0.000000000000000E+000
  0.000000000000000E+000
  0.000000000000000E+000
  0.000000000000000E+000
  0.000000000000000E+000
  0.000000000000000E+000
  0.000000000000000E+000
  0.000000000000000E+000
  0.000000000000000E+000
  0.000000000000000E+000
  0.000000000000000E+000
  0.000000000000000E+000
  0.000000000000000E+000
  0.000000000000000E+000
  0.000000000000000E+000
  0.000000000000000E+000
  0.000000000000000E+000
  0.000000000000000E+000
  0.000000000000000E+000
  0.000000000000000E+000
  0.000000000000000E+000
  0.000000000000000E+000
  0.000000000000000E+000
  0.000000000000000E+000
  0.000000000000000E+000
  0.000000000000000E+000
  0.000000000000000E+000
  0.000000000000000E+000
  0.000000000000000E+000
  0.000000000000000E+000
  0.000000000000000E+000
  0.000000000000000E+000
  0.000000000000000E+000
  0.000000000000000E+000
  0.000000000000000E+000
  0.000000000000000E+000
  0.000000000000000E+000
  0.000000000000000E+000
  0.000000000000000E+000
  0.000000000000000E+000
  0.000000000000000E+000
  0.000000000000000E+000
  0.000000000000000E+000
  0.000000000000000E+000
  0.000000000000000E+000
  0.000000000000000E+000
  0.000000000000000E+000
  0.000000000000000E+000
  0.000000000000000E+000
  0.000000000000000E+000
  0.000000000000000E+000
  0.000000000000000E+000
  0.000000000000000E+000
  0.000000000000000E+000
  0.000000000000000E+000
  0.000000000000000E+000
  0.000000000000000E+000
  0.000000000000000E+000
  0.000000000000000E+000
  0.000000000000000E+000
  0.000000000000000E+000
  0.000000000000000E+000
  0.000000000000000E+000
  0.000000000000000E+000
  0.000000000000000E+000
  0.000000000000000E+000
  0.000000000000000E+000
  0.000000000000000E+000
  0.000000000000000E+000
  0.000000000000000E+000
  0.000000000000000E+000
  0.000000000000000E+000
  0.000000000000000E+000
  0.000000000000000E+000
  0.000000000000000E+000
  0.000000000000000E+000
  0.000000000000000E+000
  0.000000000000000E+000
  0.000000000000000E+000
  0.000000000000000E+000
  0.000000000000000E+000
  0.000000000000000E+000
  0.000000000000000E+000
  0.000000000000000E+000
  0.000000000000000E+000
  0.000000000000000E+000
  0.000000000000000E+000
  0.000000000000000E+000
  0.000000000000000E+000
  0.000000000000000E+000
  0.000000000000000E+000
  0.000000000000000E+000
  0.000000000000000E+000
  0.000000000000000E+000
  0.000000000000000E+000
  0.000000000000000E+000
  0.000000000000000E+000
  0.000000000000000E+000
  0.000000000000000E+000
  0.000000000000000E+000
  0.000000000000000E+000
  0.000000000000000E+000
  0.000000000000000E+000
  0.000000000000000E+000
  0.000000000000000E+000
  0.000000000000000E+000
  0.000000000000000E+000
  0.000000000000000E+000
  0.000000000000000E+000
  0.000000000000000E+000
  0.000000000000000E+000
  0.000000000000000E+000
  0.000000000000000E+000
  0.000000000000000E+000
SCALARS elementIsPlast double 
LOOKUP_TABLE default
  0.000000000000000E+000
  0.000000000000000E+000
  0.000000000000000E+000
  0.000000000000000E+000
  0.000000000000000E+000
  0.000000000000000E+000
  0.000000000000000E+000
  0.000000000000000E+000
  0.000000000000000E+000
  0.000000000000000E+000
  0.000000000000000E+000
  0.000000000000000E+000
  0.000000000000000E+000
  0.000000000000000E+000
  0.000000000000000E+000
  0.000000000000000E+000
  0.000000000000000E+000
  0.000000000000000E+000
  0.000000000000000E+000
  0.000000000000000E+000
  0.000000000000000E+000
  0.000000000000000E+000
  0.000000000000000E+000
  0.000000000000000E+000
  0.000000000000000E+000
  0.000000000000000E+000
  0.000000000000000E+000
  0.000000000000000E+000
  0.000000000000000E+000
  0.000000000000000E+000
  0.000000000000000E+000
  0.000000000000000E+000
  0.000000000000000E+000
  0.000000000000000E+000
  0.000000000000000E+000
  0.000000000000000E+000
  0.000000000000000E+000
  0.000000000000000E+000
  0.000000000000000E+000
  0.000000000000000E+000
  0.000000000000000E+000
  0.000000000000000E+000
  0.000000000000000E+000
  0.000000000000000E+000
  0.000000000000000E+000
  0.000000000000000E+000
  0.000000000000000E+000
  0.000000000000000E+000
  0.000000000000000E+000
  0.000000000000000E+000
  0.000000000000000E+000
  0.000000000000000E+000
  0.000000000000000E+000
  0.000000000000000E+000
  0.000000000000000E+000
  0.000000000000000E+000
  0.000000000000000E+000
  0.000000000000000E+000
  0.000000000000000E+000
  0.000000000000000E+000
  0.000000000000000E+000
  0.000000000000000E+000
  0.000000000000000E+000
  0.000000000000000E+000
  0.000000000000000E+000
  0.000000000000000E+000
  0.000000000000000E+000
  0.000000000000000E+000
  0.000000000000000E+000
  0.000000000000000E+000
  0.000000000000000E+000
  0.000000000000000E+000
  0.000000000000000E+000
  0.000000000000000E+000
  0.000000000000000E+000
  0.000000000000000E+000
  0.000000000000000E+000
  0.000000000000000E+000
  0.000000000000000E+000
  0.000000000000000E+000
  0.000000000000000E+000
  0.000000000000000E+000
  0.000000000000000E+000
  0.000000000000000E+000
  0.000000000000000E+000
  0.000000000000000E+000
  0.000000000000000E+000
  0.000000000000000E+000
  0.000000000000000E+000
  0.000000000000000E+000
  0.000000000000000E+000
  0.000000000000000E+000
  0.000000000000000E+000
  0.000000000000000E+000
  0.000000000000000E+000
  0.000000000000000E+000
  0.000000000000000E+000
  0.000000000000000E+000
  0.000000000000000E+000
  0.000000000000000E+000
  0.000000000000000E+000
  0.000000000000000E+000
  0.000000000000000E+000
  0.000000000000000E+000
  0.000000000000000E+000
  0.000000000000000E+000
  0.000000000000000E+000
  0.000000000000000E+000
  0.000000000000000E+000
  0.000000000000000E+000
  0.000000000000000E+000
  0.000000000000000E+000
  0.000000000000000E+000
  0.000000000000000E+000
  0.000000000000000E+000
  0.000000000000000E+000
  0.000000000000000E+000
  0.000000000000000E+000
  0.000000000000000E+000
  0.000000000000000E+000
  0.000000000000000E+000
  0.000000000000000E+000
  0.000000000000000E+000
  0.000000000000000E+000
  0.000000000000000E+000
  0.000000000000000E+000
  0.000000000000000E+000
  0.000000000000000E+000
  0.000000000000000E+000
  0.000000000000000E+000
  0.000000000000000E+000
  0.000000000000000E+000
  0.000000000000000E+000
  0.000000000000000E+000
  0.000000000000000E+000
  0.000000000000000E+000
  0.000000000000000E+000
  0.000000000000000E+000
  0.000000000000000E+000
  0.000000000000000E+000
  0.000000000000000E+000
  0.000000000000000E+000
  0.000000000000000E+000
  0.000000000000000E+000
  0.000000000000000E+000
  0.000000000000000E+000
  0.000000000000000E+000
  0.000000000000000E+000
  0.000000000000000E+000
  0.000000000000000E+000
  0.000000000000000E+000
  0.000000000000000E+000
  0.000000000000000E+000
  0.000000000000000E+000
  0.000000000000000E+000
  0.000000000000000E+000
  0.000000000000000E+000
  0.000000000000000E+000
  0.000000000000000E+000
  0.000000000000000E+000
  0.000000000000000E+000
  0.000000000000000E+000
  0.000000000000000E+000
  0.000000000000000E+000
  0.000000000000000E+000
  0.000000000000000E+000
  0.000000000000000E+000
  0.000000000000000E+000
  0.000000000000000E+000
  0.000000000000000E+000
  0.000000000000000E+000
  0.000000000000000E+000
  0.000000000000000E+000
  0.000000000000000E+000
  0.000000000000000E+000
  0.000000000000000E+000
  0.000000000000000E+000
  0.000000000000000E+000
  0.000000000000000E+000
  0.000000000000000E+000
  0.000000000000000E+000
  0.000000000000000E+000
  0.000000000000000E+000
  0.000000000000000E+000
  0.000000000000000E+000
  0.000000000000000E+000
  0.000000000000000E+000
  0.000000000000000E+000
  0.000000000000000E+000
  0.000000000000000E+000
  0.000000000000000E+000
  0.000000000000000E+000
  0.000000000000000E+000
  0.000000000000000E+000
  0.000000000000000E+000
  0.000000000000000E+000
  0.000000000000000E+000
  0.000000000000000E+000
  0.000000000000000E+000
  0.000000000000000E+000
  0.000000000000000E+000
  0.000000000000000E+000
  0.000000000000000E+000
  0.000000000000000E+000
  0.000000000000000E+000
  0.000000000000000E+000
  0.000000000000000E+000
  0.000000000000000E+000
  0.000000000000000E+000
  0.000000000000000E+000
  0.000000000000000E+000
  0.000000000000000E+000
  0.000000000000000E+000
  0.000000000000000E+000
  0.000000000000000E+000
  0.000000000000000E+000
  0.000000000000000E+000
  0.000000000000000E+000
  0.000000000000000E+000
  0.000000000000000E+000
  0.000000000000000E+000
  0.000000000000000E+000
  0.000000000000000E+000
  0.000000000000000E+000
  0.000000000000000E+000
  0.000000000000000E+000
  0.000000000000000E+000
  0.000000000000000E+000
  0.000000000000000E+000
  0.000000000000000E+000
  0.000000000000000E+000
  0.000000000000000E+000
  0.000000000000000E+000
  0.000000000000000E+000
  0.000000000000000E+000
  0.000000000000000E+000
  0.000000000000000E+000
  0.000000000000000E+000
  0.000000000000000E+000
  0.000000000000000E+000
  0.000000000000000E+000
  0.000000000000000E+000
  0.000000000000000E+000
  0.000000000000000E+000
  0.000000000000000E+000
  0.000000000000000E+000
  0.000000000000000E+000
  0.000000000000000E+000
  0.000000000000000E+000
  0.000000000000000E+000
  0.000000000000000E+000
  0.000000000000000E+000
  0.000000000000000E+000
  0.000000000000000E+000
  0.000000000000000E+000
  0.000000000000000E+000
  0.000000000000000E+000
  0.000000000000000E+000
  0.000000000000000E+000
  0.000000000000000E+000
  0.000000000000000E+000
  0.000000000000000E+000
  0.000000000000000E+000
  0.000000000000000E+000
  0.000000000000000E+000
  0.000000000000000E+000
  0.000000000000000E+000
  0.000000000000000E+000
  0.000000000000000E+000
  0.000000000000000E+000
  0.000000000000000E+000
  0.000000000000000E+000
  0.000000000000000E+000
  0.000000000000000E+000
  0.000000000000000E+000
  0.000000000000000E+000
  0.000000000000000E+000
  0.000000000000000E+000
  0.000000000000000E+000
  0.000000000000000E+000
  0.000000000000000E+000
  0.000000000000000E+000
  0.000000000000000E+000
  0.000000000000000E+000
  0.000000000000000E+000
  0.000000000000000E+000
  0.000000000000000E+000
  0.000000000000000E+000
  0.000000000000000E+000
  0.000000000000000E+000
  0.000000000000000E+000
  0.000000000000000E+000
  0.000000000000000E+000
  0.000000000000000E+000
  0.000000000000000E+000
  0.000000000000000E+000
  0.000000000000000E+000
  0.000000000000000E+000
  0.000000000000000E+000
  0.000000000000000E+000
  0.000000000000000E+000
  0.000000000000000E+000
  0.000000000000000E+000
  0.000000000000000E+000
  0.000000000000000E+000
  0.000000000000000E+000
  0.000000000000000E+000
  0.000000000000000E+000
  0.000000000000000E+000
  0.000000000000000E+000
  0.000000000000000E+000
  0.000000000000000E+000
  0.000000000000000E+000
  0.000000000000000E+000
  0.000000000000000E+000
  0.000000000000000E+000
  0.000000000000000E+000
  0.000000000000000E+000
  0.000000000000000E+000
  0.000000000000000E+000
  0.000000000000000E+000
  0.000000000000000E+000
  0.000000000000000E+000
  0.000000000000000E+000
  0.000000000000000E+000
  0.000000000000000E+000
  0.000000000000000E+000
  0.000000000000000E+000
  0.000000000000000E+000
  0.000000000000000E+000
  0.000000000000000E+000
  0.000000000000000E+000
  0.000000000000000E+000
  0.000000000000000E+000
  0.000000000000000E+000
  0.000000000000000E+000
  0.000000000000000E+000
  0.000000000000000E+000
  0.000000000000000E+000
  0.000000000000000E+000
  0.000000000000000E+000
  0.000000000000000E+000
  0.000000000000000E+000
  0.000000000000000E+000
  0.000000000000000E+000
  0.000000000000000E+000
  0.000000000000000E+000
  0.000000000000000E+000
  0.000000000000000E+000
  0.000000000000000E+000
  0.000000000000000E+000
  0.000000000000000E+000
  0.000000000000000E+000
  0.000000000000000E+000
  0.000000000000000E+000
  0.000000000000000E+000
  0.000000000000000E+000
  0.000000000000000E+000
  0.000000000000000E+000
  0.000000000000000E+000
  0.000000000000000E+000
  0.000000000000000E+000
  0.000000000000000E+000
  0.000000000000000E+000
  0.000000000000000E+000
  0.000000000000000E+000
  0.000000000000000E+000
  0.000000000000000E+000
  0.000000000000000E+000
  0.000000000000000E+000
  0.000000000000000E+000
  0.000000000000000E+000
  0.000000000000000E+000
  0.000000000000000E+000
  0.000000000000000E+000
  0.000000000000000E+000
  0.000000000000000E+000
  0.000000000000000E+000
  0.000000000000000E+000
  0.000000000000000E+000
  0.000000000000000E+000
  0.000000000000000E+000
  0.000000000000000E+000
  0.000000000000000E+000
  0.000000000000000E+000
  0.000000000000000E+000
  0.000000000000000E+000
  0.000000000000000E+000
  0.000000000000000E+000
  0.000000000000000E+000
  0.000000000000000E+000
  0.000000000000000E+000
  0.000000000000000E+000
  0.000000000000000E+000
  0.000000000000000E+000
  0.000000000000000E+000
  0.000000000000000E+000
  0.000000000000000E+000
  0.000000000000000E+000
  0.000000000000000E+000
  0.000000000000000E+000
  0.000000000000000E+000
  0.000000000000000E+000
  0.000000000000000E+000
  0.000000000000000E+000
  0.000000000000000E+000
  0.000000000000000E+000
  0.000000000000000E+000
  0.000000000000000E+000
  0.000000000000000E+000
  0.000000000000000E+000
  0.000000000000000E+000
  0.000000000000000E+000
  0.000000000000000E+000
  0.000000000000000E+000
  0.000000000000000E+000
  0.000000000000000E+000
  0.000000000000000E+000
  0.000000000000000E+000
  0.000000000000000E+000
  0.000000000000000E+000
  0.000000000000000E+000
  0.000000000000000E+000
  0.000000000000000E+000
  0.000000000000000E+000
  0.000000000000000E+000
  0.000000000000000E+000
  0.000000000000000E+000
  0.000000000000000E+000
  0.000000000000000E+000
  0.000000000000000E+000
  0.000000000000000E+000
  0.000000000000000E+000
  0.000000000000000E+000
  0.000000000000000E+000
  0.000000000000000E+000
  0.000000000000000E+000
  0.000000000000000E+000
  0.000000000000000E+000
  0.000000000000000E+000
  0.000000000000000E+000
  0.000000000000000E+000
  0.000000000000000E+000
  0.000000000000000E+000
  0.000000000000000E+000
  0.000000000000000E+000
  0.000000000000000E+000
  0.000000000000000E+000
  0.000000000000000E+000
  0.000000000000000E+000
SCALARS poroL double 
LOOKUP_TABLE default
  0.156310286046228     
  0.156285010778300     
  0.156254983974114     
  0.156225013104101     
  0.156199635046782     
  0.156182858882612     
  0.156171166870360     
  0.156161584487633     
  0.156153267577307     
  0.156145768280397     
  0.156138775146920     
  0.156132009975189     
  0.156125148747530     
  0.156117703204922     
  0.156108300679063     
  0.156240191885514     
  0.156221500213623     
  0.156202999393715     
  0.156188985870799     
  0.156178800126587     
  0.156168168673985     
  0.156157898303488     
  0.156148969310926     
  0.156141039810475     
  0.156133826659472     
  0.156127091668103     
  0.156120615341308     
  0.156114170110425     
  0.156107458648761     
  0.156100767301798     
  0.156193063855110     
  0.156180937828316     
  0.156175108235934     
  0.156168605308171     
  0.156160407065320     
  0.156151793519345     
  0.156143350672177     
  0.156135420562722     
  0.156128155334794     
  0.156121453503758     
  0.156115184504749     
  0.156109218644227     
  0.156103441754882     
  0.156097866748404     
  0.156092656350323     
  0.156168689384795     
  0.156162340384666     
  0.156155852961737     
  0.156149370658968     
  0.156142493799360     
  0.156135285829197     
  0.156128121367705     
  0.156121242181575     
  0.156114764713708     
  0.156108711778052     
  0.156103041961529     
  0.156097706262797     
  0.156092690024688     
  0.156088044572055     
  0.156083925709741     
  0.156148908204589     
  0.156142860191610     
  0.156136969019963     
  0.156131006736377     
  0.156124937019744     
  0.156118775911793     
  0.156112644609838     
  0.156106692499059     
  0.156101018229456     
  0.156095668272035     
  0.156090656162465     
  0.156085987758752     
  0.156081688795959     
  0.156077827972859     
  0.156074525854470     
  0.156128827309999     
  0.156123476049148     
  0.156118206292946     
  0.156112940646118     
  0.156107638667560     
  0.156102326497342     
  0.156097068084963     
  0.156091945902512     
  0.156087034233586     
  0.156082385407921     
  0.156078035170819     
  0.156074016003025     
  0.156070372074118     
  0.156067170800531     
  0.156064507312570     
  0.156108687368165     
  0.156104140230564     
  0.156099600878471     
  0.156095052980936     
  0.156090495852429     
  0.156085951906162     
  0.156081466595266     
  0.156077096138607     
  0.156072896715833     
  0.156068917769807     
  0.156065202204423     
  0.156061792202960     
  0.156058736609990     
  0.156056096559520     
  0.156053946713995     
  0.156088667994400     
  0.156084941168781     
  0.156081152247632     
  0.156077326295652     
  0.156073484837702     
  0.156069656947713     
  0.156065880809410     
  0.156062200943052     
  0.156058663397842     
  0.156055312665702     
  0.156052191424265     
  0.156049342799217     
  0.156046813623662     
  0.156044656733371     
  0.156042930812083     
  0.156068901135127     
  0.156065952382653     
  0.156062892873280     
  0.156059766805638     
  0.156056609423859     
  0.156053454632533     
  0.156050338560398     
  0.156047299688558     
  0.156044377605485     
  0.156041611824775     
  0.156039041638724     
  0.156036706989736     
  0.156034649694694     
  0.156032914081440     
  0.156031546208621     
  0.156049463251827     
  0.156047227766103     
  0.156044853384181     
  0.156042391064137     
  0.156039881482936     
  0.156037360567056     
  0.156034862782388     
  0.156032422531583     
  0.156030074365112     
  0.156027852856616     
  0.156025792645887     
  0.156023928759113     
  0.156022296939577     
  0.156020933544279     
  0.156019874600265     
  0.156030389214420     
  0.156028796066631     
  0.156027054048983     
  0.156025212937831     
  0.156023313049866     
  0.156021389040467     
  0.156019472619576     
  0.156017594145153     
  0.156015783396444     
  0.156014069902560     
  0.156012483119073     
  0.156011052546915     
  0.156009807706851     
  0.156008777779009     
  0.156007990726386     
  0.156011681420028     
  0.156010663323425     
  0.156009501189349     
  0.156008238700719     
  0.156006911695851     
  0.156005550763520     
  0.156004183301721     
  0.156002834936377     
  0.156001530378680     
  0.156000293888351     
  0.155999149491451     
  0.155998121025911     
  0.155997232000639     
  0.155996505201626     
  0.155995961980739     
  0.155993317484880     
  0.155992816330157     
  0.155992187510078     
  0.155991465492106     
  0.155990678799912     
  0.155989851761988     
  0.155989005998369     
  0.155988161531848     
  0.155987337522705     
  0.155986552690509     
  0.155985825500105     
  0.155985174164431     
  0.155984616480780     
  0.155984169492153     
  0.155983848965620     
  0.155975256342989     
  0.155975226517304     
  0.155975093925077     
  0.155974881816646     
  0.155974609462891     
  0.155974293313924     
  0.155973948018531     
  0.155973587209305     
  0.155973224027820     
  0.155972871413539     
  0.155972542201603     
  0.155972249073356     
  0.155972004390702     
  0.155971819933808     
  0.155971706559337     
  0.155957443331040     
  0.155957853741706     
  0.155958192077348     
  0.155958469075314     
  0.155958693449123     
  0.155958872635299     
  0.155959013441170     
  0.155959122520803     
  0.155959206655856     
  0.155959272857582     
  0.155959328329271     
  0.155959380335473     
  0.155959436020730     
  0.155959502212869     
  0.155959585239397     
  0.155939814563024     
  0.155940649889659     
  0.155941447123567     
  0.155942203640552     
  0.155942916736356     
  0.155943584090808     
  0.155944204119064     
  0.155944776158180     
  0.155945300481305     
  0.155945778167934     
  0.155946210881513     
  0.155946600614493     
  0.155946949458444     
  0.155947259447277     
  0.155947532508708     
  0.155922300797115     
  0.155923562274599     
  0.155924820602314     
  0.155926059213894     
  0.155927263433572     
  0.155928420758667     
  0.155929520968024     
  0.155930556024661     
  0.155931519790375     
  0.155932407608363     
  0.155933215832616     
  0.155933941389688     
  0.155934581452238     
  0.155935133287950     
  0.155935594325750     
  0.155904830908741     
  0.155906536847033     
  0.155908273314555     
  0.155910009344379     
  0.155911717934562     
  0.155913376237462     
  0.155914965457213     
  0.155916470446954     
  0.155917879062433     
  0.155919181373146     
  0.155920368853996     
  0.155921433681970     
  0.155922368248325     
  0.155923164971168     
  0.155923816459824     
  0.155887335033811     
  0.155889521250113     
  0.155891768213377     
  0.155894030074174     
  0.155896267255328     
  0.155898446634785     
  0.155900541236395     
  0.155902529457216     
  0.155904393950633     
  0.155906120336495     
  0.155907695925913     
  0.155909108639286     
  0.155910346270092     
  0.155911396208761     
  0.155912245692173     
  0.155869747419222     
  0.155872467776787     
  0.155875273359108     
  0.155878102752402     
  0.155880903571744     
  0.155883632726014     
  0.155886255860480     
  0.155888746078539     
  0.155891082169920     
  0.155893246624140     
  0.155895223705693     
  0.155896997837649     
  0.155898552499497     
  0.155899869793923     
  0.155900930771459     
  0.155852009010779     
  0.155855336328173     
  0.155858765072159     
  0.155862217142320     
  0.155865627045284     
  0.155868942319375     
  0.155872122595056     
  0.155875137551630     
  0.155877964191652     
  0.155880583874716     
  0.155882979496091     
  0.155885133128908     
  0.155887024394883     
  0.155888629777844     
  0.155889923012857     
  0.155834069825299     
  0.155838097560529     
  0.155842231538455     
  0.155846375063754     
  0.155850449109015     
  0.155854392908618     
  0.155858162300961     
  0.155861726436225     
  0.155865063629853     
  0.155868157035631     
  0.155870990624736     
  0.155873545824101     
  0.155875799134536     
  0.155877721033841     
  0.155879276406444     
  0.155815891211265     
  0.155820736586154     
  0.155825677339342     
  0.155830594991294     
  0.155835396486283     
  0.155840014723350     
  0.155844405384686     
  0.155848541499803     
  0.155852407184277     
  0.155855991514347     
  0.155859283002252     
  0.155862264936070     
  0.155864911896242     
  0.155867187960922     
  0.155869047070826     
  0.155797448251225     
  0.155803257964852     
  0.155809129788298     
  0.155814918307844     
  0.155820516311484     
  0.155825854253739     
  0.155830893728150     
  0.155835618256362     
  0.155840023994672     
  0.155844111497110     
  0.155847878588592     
  0.155851314097247     
  0.155854392744769     
  0.155857071948619     
  0.155859291846419     
  0.155778732908223     
  0.155785693567601     
  0.155792648759989     
  0.155799418335830     
  0.155805882722827     
  0.155811978108364     
  0.155817682307649     
  0.155822998938210     
  0.155827944287579     
  0.155832537333526     
  0.155836791468275     
  0.155840706640169     
  0.155844261382611     
  0.155847406977418     
  0.155850065710711     
  0.155759759564961     
  0.155768116868335     
  0.155776343401222     
  0.155784213755363     
  0.155791604847701     
  0.155798476422125     
  0.155804839769066     
  0.155810731592500     
  0.155816197403202     
  0.155821282086554     
  0.155826022515226     
  0.155830437940605     
  0.155834518596782     
  0.155838211891798     
  0.155841417551198     
  0.155740577120780     
  0.155750673191269     
  0.155760402348546     
  0.155769487783921     
  0.155777834311347     
  0.155785463351440     
  0.155792446784622     
  0.155798867967907     
  0.155804809530638     
  0.155810348458064     
  0.155815552671264     
  0.155820474942613     
  0.155825130737271     
  0.155829477145325     
  0.155833382340946     
  0.155721307526428     
  0.155733650177407     
  0.155745150344326     
  0.155755509779549     
  0.155764763033472     
  0.155773071429552     
  0.155780590723586     
  0.155787459987986     
  0.155793801936651     
  0.155799727555390     
  0.155805340562535     
  0.155810738289140     
  0.155816007594001     
  0.155821131415171     
  0.155825969837883     
  0.155702267128656     
  0.155717685602220     
  0.155731135947101     
  0.155742614289681     
  0.155752604319252     
  0.155761436113359     
  0.155769356100276     
  0.155776554973430     
  0.155783190280700     
  0.155789402170116     
  0.155795326676132     
  0.155801110283316     
  0.155806922569736     
  0.155813003445949     
  0.155819105272657     
  0.155684904475771     
  0.155704248893629     
  0.155718971663076     
  0.155731137225215     
  0.155741548908782     
  0.155750672177378     
  0.155758811852019     
  0.155766190296450     
  0.155772985360890     
  0.155779354046143     
  0.155785452044733     
  0.155791457012527     
  0.155797611763771     
  0.155804314217719     
  0.155812724852267     
