# vtk DataFile Version 3.0
vtk output
ASCII
DATASET UNSTRUCTURED_GRID
POINTS       496 double 
  0.00000000E+00  3.00000000E+02  0.00000000E+00
  0.00000000E+00  2.80000000E+02  0.00000000E+00
  0.00000000E+00  2.60000000E+02  0.00000000E+00
  0.00000000E+00  2.40000000E+02  0.00000000E+00
  0.00000000E+00  2.20000000E+02  0.00000000E+00
  0.00000000E+00  2.00000000E+02  0.00000000E+00
  0.00000000E+00  1.80000000E+02  0.00000000E+00
  0.00000000E+00  1.60000000E+02  0.00000000E+00
  0.00000000E+00  1.40000000E+02  0.00000000E+00
  0.00000000E+00  1.20000000E+02  0.00000000E+00
  0.00000000E+00  1.00000000E+02  0.00000000E+00
  0.00000000E+00  8.00000000E+01  0.00000000E+00
  0.00000000E+00  6.00000000E+01  0.00000000E+00
  0.00000000E+00  4.00000000E+01  0.00000000E+00
  0.00000000E+00  2.00000000E+01  0.00000000E+00
  0.00000000E+00  4.99600361E-14  0.00000000E+00
  2.00000000E+01  3.00000000E+02  0.00000000E+00
  2.00000000E+01  2.80000000E+02  0.00000000E+00
  2.00000000E+01  2.60000000E+02  0.00000000E+00
  2.00000000E+01  2.40000000E+02  0.00000000E+00
  2.00000000E+01  2.20000000E+02  0.00000000E+00
  2.00000000E+01  2.00000000E+02  0.00000000E+00
  2.00000000E+01  1.80000000E+02  0.00000000E+00
  2.00000000E+01  1.60000000E+02  0.00000000E+00
  2.00000000E+01  1.40000000E+02  0.00000000E+00
  2.00000000E+01  1.20000000E+02  0.00000000E+00
  2.00000000E+01  1.00000000E+02  0.00000000E+00
  2.00000000E+01  8.00000000E+01  0.00000000E+00
  2.00000000E+01  6.00000000E+01  0.00000000E+00
  2.00000000E+01  4.00000000E+01  0.00000000E+00
  2.00000000E+01  2.00000000E+01  0.00000000E+00
  2.00000000E+01  4.99600361E-14  0.00000000E+00
  4.00000000E+01  3.00000000E+02  0.00000000E+00
  4.00000000E+01  2.80000000E+02  0.00000000E+00
  4.00000000E+01  2.60000000E+02  0.00000000E+00
  4.00000000E+01  2.40000000E+02  0.00000000E+00
  4.00000000E+01  2.20000000E+02  0.00000000E+00
  4.00000000E+01  2.00000000E+02  0.00000000E+00
  4.00000000E+01  1.80000000E+02  0.00000000E+00
  4.00000000E+01  1.60000000E+02  0.00000000E+00
  4.00000000E+01  1.40000000E+02  0.00000000E+00
  4.00000000E+01  1.20000000E+02  0.00000000E+00
  4.00000000E+01  1.00000000E+02  0.00000000E+00
  4.00000000E+01  8.00000000E+01  0.00000000E+00
  4.00000000E+01  6.00000000E+01  0.00000000E+00
  4.00000000E+01  4.00000000E+01  0.00000000E+00
  4.00000000E+01  2.00000000E+01  0.00000000E+00
  4.00000000E+01  4.99600361E-14  0.00000000E+00
  6.00000000E+01  3.00000000E+02  0.00000000E+00
  6.00000000E+01  2.80000000E+02  0.00000000E+00
  6.00000000E+01  2.60000000E+02  0.00000000E+00
  6.00000000E+01  2.40000000E+02  0.00000000E+00
  6.00000000E+01  2.20000000E+02  0.00000000E+00
  6.00000000E+01  2.00000000E+02  0.00000000E+00
  6.00000000E+01  1.80000000E+02  0.00000000E+00
  6.00000000E+01  1.60000000E+02  0.00000000E+00
  6.00000000E+01  1.40000000E+02  0.00000000E+00
  6.00000000E+01  1.20000000E+02  0.00000000E+00
  6.00000000E+01  1.00000000E+02  0.00000000E+00
  6.00000000E+01  8.00000000E+01  0.00000000E+00
  6.00000000E+01  6.00000000E+01  0.00000000E+00
  6.00000000E+01  4.00000000E+01  0.00000000E+00
  6.00000000E+01  2.00000000E+01  0.00000000E+00
  6.00000000E+01  4.99600361E-14  0.00000000E+00
  8.00000000E+01  3.00000000E+02  0.00000000E+00
  8.00000000E+01  2.80000000E+02  0.00000000E+00
  8.00000000E+01  2.60000000E+02  0.00000000E+00
  8.00000000E+01  2.40000000E+02  0.00000000E+00
  8.00000000E+01  2.20000000E+02  0.00000000E+00
  8.00000000E+01  2.00000000E+02  0.00000000E+00
  8.00000000E+01  1.80000000E+02  0.00000000E+00
  8.00000000E+01  1.60000000E+02  0.00000000E+00
  8.00000000E+01  1.40000000E+02  0.00000000E+00
  8.00000000E+01  1.20000000E+02  0.00000000E+00
  8.00000000E+01  1.00000000E+02  0.00000000E+00
  8.00000000E+01  8.00000000E+01  0.00000000E+00
  8.00000000E+01  6.00000000E+01  0.00000000E+00
  8.00000000E+01  4.00000000E+01  0.00000000E+00
  8.00000000E+01  2.00000000E+01  0.00000000E+00
  8.00000000E+01  4.99600361E-14  0.00000000E+00
  1.00000000E+02  3.00000000E+02  0.00000000E+00
  1.00000000E+02  2.80000000E+02  0.00000000E+00
  1.00000000E+02  2.60000000E+02  0.00000000E+00
  1.00000000E+02  2.40000000E+02  0.00000000E+00
  1.00000000E+02  2.20000000E+02  0.00000000E+00
  1.00000000E+02  2.00000000E+02  0.00000000E+00
  1.00000000E+02  1.80000000E+02  0.00000000E+00
  1.00000000E+02  1.60000000E+02  0.00000000E+00
  1.00000000E+02  1.40000000E+02  0.00000000E+00
  1.00000000E+02  1.20000000E+02  0.00000000E+00
  1.00000000E+02  1.00000000E+02  0.00000000E+00
  1.00000000E+02  8.00000000E+01  0.00000000E+00
  1.00000000E+02  6.00000000E+01  0.00000000E+00
  1.00000000E+02  4.00000000E+01  0.00000000E+00
  1.00000000E+02  2.00000000E+01  0.00000000E+00
  1.00000000E+02  4.99600361E-14  0.00000000E+00
  1.20000000E+02  3.00000000E+02  0.00000000E+00
  1.20000000E+02  2.80000000E+02  0.00000000E+00
  1.20000000E+02  2.60000000E+02  0.00000000E+00
  1.20000000E+02  2.40000000E+02  0.00000000E+00
  1.20000000E+02  2.20000000E+02  0.00000000E+00
  1.20000000E+02  2.00000000E+02  0.00000000E+00
  1.20000000E+02  1.80000000E+02  0.00000000E+00
  1.20000000E+02  1.60000000E+02  0.00000000E+00
  1.20000000E+02  1.40000000E+02  0.00000000E+00
  1.20000000E+02  1.20000000E+02  0.00000000E+00
  1.20000000E+02  1.00000000E+02  0.00000000E+00
  1.20000000E+02  8.00000000E+01  0.00000000E+00
  1.20000000E+02  6.00000000E+01  0.00000000E+00
  1.20000000E+02  4.00000000E+01  0.00000000E+00
  1.20000000E+02  2.00000000E+01  0.00000000E+00
  1.20000000E+02  4.99600361E-14  0.00000000E+00
  1.40000000E+02  3.00000000E+02  0.00000000E+00
  1.40000000E+02  2.80000000E+02  0.00000000E+00
  1.40000000E+02  2.60000000E+02  0.00000000E+00
  1.40000000E+02  2.40000000E+02  0.00000000E+00
  1.40000000E+02  2.20000000E+02  0.00000000E+00
  1.40000000E+02  2.00000000E+02  0.00000000E+00
  1.40000000E+02  1.80000000E+02  0.00000000E+00
  1.40000000E+02  1.60000000E+02  0.00000000E+00
  1.40000000E+02  1.40000000E+02  0.00000000E+00
  1.40000000E+02  1.20000000E+02  0.00000000E+00
  1.40000000E+02  1.00000000E+02  0.00000000E+00
  1.40000000E+02  8.00000000E+01  0.00000000E+00
  1.40000000E+02  6.00000000E+01  0.00000000E+00
  1.40000000E+02  4.00000000E+01  0.00000000E+00
  1.40000000E+02  2.00000000E+01  0.00000000E+00
  1.40000000E+02  4.99600361E-14  0.00000000E+00
  1.60000000E+02  3.00000000E+02  0.00000000E+00
  1.60000000E+02  2.80000000E+02  0.00000000E+00
  1.60000000E+02  2.60000000E+02  0.00000000E+00
  1.60000000E+02  2.40000000E+02  0.00000000E+00
  1.60000000E+02  2.20000000E+02  0.00000000E+00
  1.60000000E+02  2.00000000E+02  0.00000000E+00
  1.60000000E+02  1.80000000E+02  0.00000000E+00
  1.60000000E+02  1.60000000E+02  0.00000000E+00
  1.60000000E+02  1.40000000E+02  0.00000000E+00
  1.60000000E+02  1.20000000E+02  0.00000000E+00
  1.60000000E+02  1.00000000E+02  0.00000000E+00
  1.60000000E+02  8.00000000E+01  0.00000000E+00
  1.60000000E+02  6.00000000E+01  0.00000000E+00
  1.60000000E+02  4.00000000E+01  0.00000000E+00
  1.60000000E+02  2.00000000E+01  0.00000000E+00
  1.60000000E+02  4.99600361E-14  0.00000000E+00
  1.80000000E+02  3.00000000E+02  0.00000000E+00
  1.80000000E+02  2.80000000E+02  0.00000000E+00
  1.80000000E+02  2.60000000E+02  0.00000000E+00
  1.80000000E+02  2.40000000E+02  0.00000000E+00
  1.80000000E+02  2.20000000E+02  0.00000000E+00
  1.80000000E+02  2.00000000E+02  0.00000000E+00
  1.80000000E+02  1.80000000E+02  0.00000000E+00
  1.80000000E+02  1.60000000E+02  0.00000000E+00
  1.80000000E+02  1.40000000E+02  0.00000000E+00
  1.80000000E+02  1.20000000E+02  0.00000000E+00
  1.80000000E+02  1.00000000E+02  0.00000000E+00
  1.80000000E+02  8.00000000E+01  0.00000000E+00
  1.80000000E+02  6.00000000E+01  0.00000000E+00
  1.80000000E+02  4.00000000E+01  0.00000000E+00
  1.80000000E+02  2.00000000E+01  0.00000000E+00
  1.80000000E+02  4.99600361E-14  0.00000000E+00
  2.00000000E+02  3.00000000E+02  0.00000000E+00
  2.00000000E+02  2.80000000E+02  0.00000000E+00
  2.00000000E+02  2.60000000E+02  0.00000000E+00
  2.00000000E+02  2.40000000E+02  0.00000000E+00
  2.00000000E+02  2.20000000E+02  0.00000000E+00
  2.00000000E+02  2.00000000E+02  0.00000000E+00
  2.00000000E+02  1.80000000E+02  0.00000000E+00
  2.00000000E+02  1.60000000E+02  0.00000000E+00
  2.00000000E+02  1.40000000E+02  0.00000000E+00
  2.00000000E+02  1.20000000E+02  0.00000000E+00
  2.00000000E+02  1.00000000E+02  0.00000000E+00
  2.00000000E+02  8.00000000E+01  0.00000000E+00
  2.00000000E+02  6.00000000E+01  0.00000000E+00
  2.00000000E+02  4.00000000E+01  0.00000000E+00
  2.00000000E+02  2.00000000E+01  0.00000000E+00
  2.00000000E+02  4.99600361E-14  0.00000000E+00
  2.20000000E+02  3.00000000E+02  0.00000000E+00
  2.20000000E+02  2.80000000E+02  0.00000000E+00
  2.20000000E+02  2.60000000E+02  0.00000000E+00
  2.20000000E+02  2.40000000E+02  0.00000000E+00
  2.20000000E+02  2.20000000E+02  0.00000000E+00
  2.20000000E+02  2.00000000E+02  0.00000000E+00
  2.20000000E+02  1.80000000E+02  0.00000000E+00
  2.20000000E+02  1.60000000E+02  0.00000000E+00
  2.20000000E+02  1.40000000E+02  0.00000000E+00
  2.20000000E+02  1.20000000E+02  0.00000000E+00
  2.20000000E+02  1.00000000E+02  0.00000000E+00
  2.20000000E+02  8.00000000E+01  0.00000000E+00
  2.20000000E+02  6.00000000E+01  0.00000000E+00
  2.20000000E+02  4.00000000E+01  0.00000000E+00
  2.20000000E+02  2.00000000E+01  0.00000000E+00
  2.20000000E+02  4.99600361E-14  0.00000000E+00
  2.40000000E+02  3.00000000E+02  0.00000000E+00
  2.40000000E+02  2.80000000E+02  0.00000000E+00
  2.40000000E+02  2.60000000E+02  0.00000000E+00
  2.40000000E+02  2.40000000E+02  0.00000000E+00
  2.40000000E+02  2.20000000E+02  0.00000000E+00
  2.40000000E+02  2.00000000E+02  0.00000000E+00
  2.40000000E+02  1.80000000E+02  0.00000000E+00
  2.40000000E+02  1.60000000E+02  0.00000000E+00
  2.40000000E+02  1.40000000E+02  0.00000000E+00
  2.40000000E+02  1.20000000E+02  0.00000000E+00
  2.40000000E+02  1.00000000E+02  0.00000000E+00
  2.40000000E+02  8.00000000E+01  0.00000000E+00
  2.40000000E+02  6.00000000E+01  0.00000000E+00
  2.40000000E+02  4.00000000E+01  0.00000000E+00
  2.40000000E+02  2.00000000E+01  0.00000000E+00
  2.40000000E+02  4.99600361E-14  0.00000000E+00
  2.60000000E+02  3.00000000E+02  0.00000000E+00
  2.60000000E+02  2.80000000E+02  0.00000000E+00
  2.60000000E+02  2.60000000E+02  0.00000000E+00
  2.60000000E+02  2.40000000E+02  0.00000000E+00
  2.60000000E+02  2.20000000E+02  0.00000000E+00
  2.60000000E+02  2.00000000E+02  0.00000000E+00
  2.60000000E+02  1.80000000E+02  0.00000000E+00
  2.60000000E+02  1.60000000E+02  0.00000000E+00
  2.60000000E+02  1.40000000E+02  0.00000000E+00
  2.60000000E+02  1.20000000E+02  0.00000000E+00
  2.60000000E+02  1.00000000E+02  0.00000000E+00
  2.60000000E+02  8.00000000E+01  0.00000000E+00
  2.60000000E+02  6.00000000E+01  0.00000000E+00
  2.60000000E+02  4.00000000E+01  0.00000000E+00
  2.60000000E+02  2.00000000E+01  0.00000000E+00
  2.60000000E+02  4.99600361E-14  0.00000000E+00
  2.80000000E+02  3.00000000E+02  0.00000000E+00
  2.80000000E+02  2.80000000E+02  0.00000000E+00
  2.80000000E+02  2.60000000E+02  0.00000000E+00
  2.80000000E+02  2.40000000E+02  0.00000000E+00
  2.80000000E+02  2.20000000E+02  0.00000000E+00
  2.80000000E+02  2.00000000E+02  0.00000000E+00
  2.80000000E+02  1.80000000E+02  0.00000000E+00
  2.80000000E+02  1.60000000E+02  0.00000000E+00
  2.80000000E+02  1.40000000E+02  0.00000000E+00
  2.80000000E+02  1.20000000E+02  0.00000000E+00
  2.80000000E+02  1.00000000E+02  0.00000000E+00
  2.80000000E+02  8.00000000E+01  0.00000000E+00
  2.80000000E+02  6.00000000E+01  0.00000000E+00
  2.80000000E+02  4.00000000E+01  0.00000000E+00
  2.80000000E+02  2.00000000E+01  0.00000000E+00
  2.80000000E+02  4.99600361E-14  0.00000000E+00
  3.00000000E+02  3.00000000E+02  0.00000000E+00
  3.00000000E+02  2.80000000E+02  0.00000000E+00
  3.00000000E+02  2.60000000E+02  0.00000000E+00
  3.00000000E+02  2.40000000E+02  0.00000000E+00
  3.00000000E+02  2.20000000E+02  0.00000000E+00
  3.00000000E+02  2.00000000E+02  0.00000000E+00
  3.00000000E+02  1.80000000E+02  0.00000000E+00
  3.00000000E+02  1.60000000E+02  0.00000000E+00
  3.00000000E+02  1.40000000E+02  0.00000000E+00
  3.00000000E+02  1.20000000E+02  0.00000000E+00
  3.00000000E+02  1.00000000E+02  0.00000000E+00
  3.00000000E+02  8.00000000E+01  0.00000000E+00
  3.00000000E+02  6.00000000E+01  0.00000000E+00
  3.00000000E+02  4.00000000E+01  0.00000000E+00
  3.00000000E+02  2.00000000E+01  0.00000000E+00
  3.00000000E+02  4.99600361E-14  0.00000000E+00
  3.20000000E+02  3.00000000E+02  0.00000000E+00
  3.20000000E+02  2.80000000E+02  0.00000000E+00
  3.20000000E+02  2.60000000E+02  0.00000000E+00
  3.20000000E+02  2.40000000E+02  0.00000000E+00
  3.20000000E+02  2.20000000E+02  0.00000000E+00
  3.20000000E+02  2.00000000E+02  0.00000000E+00
  3.20000000E+02  1.80000000E+02  0.00000000E+00
  3.20000000E+02  1.60000000E+02  0.00000000E+00
  3.20000000E+02  1.40000000E+02  0.00000000E+00
  3.20000000E+02  1.20000000E+02  0.00000000E+00
  3.20000000E+02  1.00000000E+02  0.00000000E+00
  3.20000000E+02  8.00000000E+01  0.00000000E+00
  3.20000000E+02  6.00000000E+01  0.00000000E+00
  3.20000000E+02  4.00000000E+01  0.00000000E+00
  3.20000000E+02  2.00000000E+01  0.00000000E+00
  3.20000000E+02  4.99600361E-14  0.00000000E+00
  3.40000000E+02  3.00000000E+02  0.00000000E+00
  3.40000000E+02  2.80000000E+02  0.00000000E+00
  3.40000000E+02  2.60000000E+02  0.00000000E+00
  3.40000000E+02  2.40000000E+02  0.00000000E+00
  3.40000000E+02  2.20000000E+02  0.00000000E+00
  3.40000000E+02  2.00000000E+02  0.00000000E+00
  3.40000000E+02  1.80000000E+02  0.00000000E+00
  3.40000000E+02  1.60000000E+02  0.00000000E+00
  3.40000000E+02  1.40000000E+02  0.00000000E+00
  3.40000000E+02  1.20000000E+02  0.00000000E+00
  3.40000000E+02  1.00000000E+02  0.00000000E+00
  3.40000000E+02  8.00000000E+01  0.00000000E+00
  3.40000000E+02  6.00000000E+01  0.00000000E+00
  3.40000000E+02  4.00000000E+01  0.00000000E+00
  3.40000000E+02  2.00000000E+01  0.00000000E+00
  3.40000000E+02  4.99600361E-14  0.00000000E+00
  3.60000000E+02  3.00000000E+02  0.00000000E+00
  3.60000000E+02  2.80000000E+02  0.00000000E+00
  3.60000000E+02  2.60000000E+02  0.00000000E+00
  3.60000000E+02  2.40000000E+02  0.00000000E+00
  3.60000000E+02  2.20000000E+02  0.00000000E+00
  3.60000000E+02  2.00000000E+02  0.00000000E+00
  3.60000000E+02  1.80000000E+02  0.00000000E+00
  3.60000000E+02  1.60000000E+02  0.00000000E+00
  3.60000000E+02  1.40000000E+02  0.00000000E+00
  3.60000000E+02  1.20000000E+02  0.00000000E+00
  3.60000000E+02  1.00000000E+02  0.00000000E+00
  3.60000000E+02  8.00000000E+01  0.00000000E+00
  3.60000000E+02  6.00000000E+01  0.00000000E+00
  3.60000000E+02  4.00000000E+01  0.00000000E+00
  3.60000000E+02  2.00000000E+01  0.00000000E+00
  3.60000000E+02  4.99600361E-14  0.00000000E+00
  3.80000000E+02  3.00000000E+02  0.00000000E+00
  3.80000000E+02  2.80000000E+02  0.00000000E+00
  3.80000000E+02  2.60000000E+02  0.00000000E+00
  3.80000000E+02  2.40000000E+02  0.00000000E+00
  3.80000000E+02  2.20000000E+02  0.00000000E+00
  3.80000000E+02  2.00000000E+02  0.00000000E+00
  3.80000000E+02  1.80000000E+02  0.00000000E+00
  3.80000000E+02  1.60000000E+02  0.00000000E+00
  3.80000000E+02  1.40000000E+02  0.00000000E+00
  3.80000000E+02  1.20000000E+02  0.00000000E+00
  3.80000000E+02  1.00000000E+02  0.00000000E+00
  3.80000000E+02  8.00000000E+01  0.00000000E+00
  3.80000000E+02  6.00000000E+01  0.00000000E+00
  3.80000000E+02  4.00000000E+01  0.00000000E+00
  3.80000000E+02  2.00000000E+01  0.00000000E+00
  3.80000000E+02  4.99600361E-14  0.00000000E+00
  4.00000000E+02  3.00000000E+02  0.00000000E+00
  4.00000000E+02  2.80000000E+02  0.00000000E+00
  4.00000000E+02  2.60000000E+02  0.00000000E+00
  4.00000000E+02  2.40000000E+02  0.00000000E+00
  4.00000000E+02  2.20000000E+02  0.00000000E+00
  4.00000000E+02  2.00000000E+02  0.00000000E+00
  4.00000000E+02  1.80000000E+02  0.00000000E+00
  4.00000000E+02  1.60000000E+02  0.00000000E+00
  4.00000000E+02  1.40000000E+02  0.00000000E+00
  4.00000000E+02  1.20000000E+02  0.00000000E+00
  4.00000000E+02  1.00000000E+02  0.00000000E+00
  4.00000000E+02  8.00000000E+01  0.00000000E+00
  4.00000000E+02  6.00000000E+01  0.00000000E+00
  4.00000000E+02  4.00000000E+01  0.00000000E+00
  4.00000000E+02  2.00000000E+01  0.00000000E+00
  4.00000000E+02  4.99600361E-14  0.00000000E+00
  4.20000000E+02  3.00000000E+02  0.00000000E+00
  4.20000000E+02  2.80000000E+02  0.00000000E+00
  4.20000000E+02  2.60000000E+02  0.00000000E+00
  4.20000000E+02  2.40000000E+02  0.00000000E+00
  4.20000000E+02  2.20000000E+02  0.00000000E+00
  4.20000000E+02  2.00000000E+02  0.00000000E+00
  4.20000000E+02  1.80000000E+02  0.00000000E+00
  4.20000000E+02  1.60000000E+02  0.00000000E+00
  4.20000000E+02  1.40000000E+02  0.00000000E+00
  4.20000000E+02  1.20000000E+02  0.00000000E+00
  4.20000000E+02  1.00000000E+02  0.00000000E+00
  4.20000000E+02  8.00000000E+01  0.00000000E+00
  4.20000000E+02  6.00000000E+01  0.00000000E+00
  4.20000000E+02  4.00000000E+01  0.00000000E+00
  4.20000000E+02  2.00000000E+01  0.00000000E+00
  4.20000000E+02  4.99600361E-14  0.00000000E+00
  4.40000000E+02  3.00000000E+02  0.00000000E+00
  4.40000000E+02  2.80000000E+02  0.00000000E+00
  4.40000000E+02  2.60000000E+02  0.00000000E+00
  4.40000000E+02  2.40000000E+02  0.00000000E+00
  4.40000000E+02  2.20000000E+02  0.00000000E+00
  4.40000000E+02  2.00000000E+02  0.00000000E+00
  4.40000000E+02  1.80000000E+02  0.00000000E+00
  4.40000000E+02  1.60000000E+02  0.00000000E+00
  4.40000000E+02  1.40000000E+02  0.00000000E+00
  4.40000000E+02  1.20000000E+02  0.00000000E+00
  4.40000000E+02  1.00000000E+02  0.00000000E+00
  4.40000000E+02  8.00000000E+01  0.00000000E+00
  4.40000000E+02  6.00000000E+01  0.00000000E+00
  4.40000000E+02  4.00000000E+01  0.00000000E+00
  4.40000000E+02  2.00000000E+01  0.00000000E+00
  4.40000000E+02  4.99600361E-14  0.00000000E+00
  4.60000000E+02  3.00000000E+02  0.00000000E+00
  4.60000000E+02  2.80000000E+02  0.00000000E+00
  4.60000000E+02  2.60000000E+02  0.00000000E+00
  4.60000000E+02  2.40000000E+02  0.00000000E+00
  4.60000000E+02  2.20000000E+02  0.00000000E+00
  4.60000000E+02  2.00000000E+02  0.00000000E+00
  4.60000000E+02  1.80000000E+02  0.00000000E+00
  4.60000000E+02  1.60000000E+02  0.00000000E+00
  4.60000000E+02  1.40000000E+02  0.00000000E+00
  4.60000000E+02  1.20000000E+02  0.00000000E+00
  4.60000000E+02  1.00000000E+02  0.00000000E+00
  4.60000000E+02  8.00000000E+01  0.00000000E+00
  4.60000000E+02  6.00000000E+01  0.00000000E+00
  4.60000000E+02  4.00000000E+01  0.00000000E+00
  4.60000000E+02  2.00000000E+01  0.00000000E+00
  4.60000000E+02  4.99600361E-14  0.00000000E+00
  4.80000000E+02  3.00000000E+02  0.00000000E+00
  4.80000000E+02  2.80000000E+02  0.00000000E+00
  4.80000000E+02  2.60000000E+02  0.00000000E+00
  4.80000000E+02  2.40000000E+02  0.00000000E+00
  4.80000000E+02  2.20000000E+02  0.00000000E+00
  4.80000000E+02  2.00000000E+02  0.00000000E+00
  4.80000000E+02  1.80000000E+02  0.00000000E+00
  4.80000000E+02  1.60000000E+02  0.00000000E+00
  4.80000000E+02  1.40000000E+02  0.00000000E+00
  4.80000000E+02  1.20000000E+02  0.00000000E+00
  4.80000000E+02  1.00000000E+02  0.00000000E+00
  4.80000000E+02  8.00000000E+01  0.00000000E+00
  4.80000000E+02  6.00000000E+01  0.00000000E+00
  4.80000000E+02  4.00000000E+01  0.00000000E+00
  4.80000000E+02  2.00000000E+01  0.00000000E+00
  4.80000000E+02  4.99600361E-14  0.00000000E+00
  5.00000000E+02  3.00000000E+02  0.00000000E+00
  5.00000000E+02  2.80000000E+02  0.00000000E+00
  5.00000000E+02  2.60000000E+02  0.00000000E+00
  5.00000000E+02  2.40000000E+02  0.00000000E+00
  5.00000000E+02  2.20000000E+02  0.00000000E+00
  5.00000000E+02  2.00000000E+02  0.00000000E+00
  5.00000000E+02  1.80000000E+02  0.00000000E+00
  5.00000000E+02  1.60000000E+02  0.00000000E+00
  5.00000000E+02  1.40000000E+02  0.00000000E+00
  5.00000000E+02  1.20000000E+02  0.00000000E+00
  5.00000000E+02  1.00000000E+02  0.00000000E+00
  5.00000000E+02  8.00000000E+01  0.00000000E+00
  5.00000000E+02  6.00000000E+01  0.00000000E+00
  5.00000000E+02  4.00000000E+01  0.00000000E+00
  5.00000000E+02  2.00000000E+01  0.00000000E+00
  5.00000000E+02  4.99600361E-14  0.00000000E+00
  5.20000000E+02  3.00000000E+02  0.00000000E+00
  5.20000000E+02  2.80000000E+02  0.00000000E+00
  5.20000000E+02  2.60000000E+02  0.00000000E+00
  5.20000000E+02  2.40000000E+02  0.00000000E+00
  5.20000000E+02  2.20000000E+02  0.00000000E+00
  5.20000000E+02  2.00000000E+02  0.00000000E+00
  5.20000000E+02  1.80000000E+02  0.00000000E+00
  5.20000000E+02  1.60000000E+02  0.00000000E+00
  5.20000000E+02  1.40000000E+02  0.00000000E+00
  5.20000000E+02  1.20000000E+02  0.00000000E+00
  5.20000000E+02  1.00000000E+02  0.00000000E+00
  5.20000000E+02  8.00000000E+01  0.00000000E+00
  5.20000000E+02  6.00000000E+01  0.00000000E+00
  5.20000000E+02  4.00000000E+01  0.00000000E+00
  5.20000000E+02  2.00000000E+01  0.00000000E+00
  5.20000000E+02  4.99600361E-14  0.00000000E+00
  5.40000000E+02  3.00000000E+02  0.00000000E+00
  5.40000000E+02  2.80000000E+02  0.00000000E+00
  5.40000000E+02  2.60000000E+02  0.00000000E+00
  5.40000000E+02  2.40000000E+02  0.00000000E+00
  5.40000000E+02  2.20000000E+02  0.00000000E+00
  5.40000000E+02  2.00000000E+02  0.00000000E+00
  5.40000000E+02  1.80000000E+02  0.00000000E+00
  5.40000000E+02  1.60000000E+02  0.00000000E+00
  5.40000000E+02  1.40000000E+02  0.00000000E+00
  5.40000000E+02  1.20000000E+02  0.00000000E+00
  5.40000000E+02  1.00000000E+02  0.00000000E+00
  5.40000000E+02  8.00000000E+01  0.00000000E+00
  5.40000000E+02  6.00000000E+01  0.00000000E+00
  5.40000000E+02  4.00000000E+01  0.00000000E+00
  5.40000000E+02  2.00000000E+01  0.00000000E+00
  5.40000000E+02  4.99600361E-14  0.00000000E+00
  5.60000000E+02  3.00000000E+02  0.00000000E+00
  5.60000000E+02  2.80000000E+02  0.00000000E+00
  5.60000000E+02  2.60000000E+02  0.00000000E+00
  5.60000000E+02  2.40000000E+02  0.00000000E+00
  5.60000000E+02  2.20000000E+02  0.00000000E+00
  5.60000000E+02  2.00000000E+02  0.00000000E+00
  5.60000000E+02  1.80000000E+02  0.00000000E+00
  5.60000000E+02  1.60000000E+02  0.00000000E+00
  5.60000000E+02  1.40000000E+02  0.00000000E+00
  5.60000000E+02  1.20000000E+02  0.00000000E+00
  5.60000000E+02  1.00000000E+02  0.00000000E+00
  5.60000000E+02  8.00000000E+01  0.00000000E+00
  5.60000000E+02  6.00000000E+01  0.00000000E+00
  5.60000000E+02  4.00000000E+01  0.00000000E+00
  5.60000000E+02  2.00000000E+01  0.00000000E+00
  5.60000000E+02  4.99600361E-14  0.00000000E+00
  5.80000000E+02  3.00000000E+02  0.00000000E+00
  5.80000000E+02  2.80000000E+02  0.00000000E+00
  5.80000000E+02  2.60000000E+02  0.00000000E+00
  5.80000000E+02  2.40000000E+02  0.00000000E+00
  5.80000000E+02  2.20000000E+02  0.00000000E+00
  5.80000000E+02  2.00000000E+02  0.00000000E+00
  5.80000000E+02  1.80000000E+02  0.00000000E+00
  5.80000000E+02  1.60000000E+02  0.00000000E+00
  5.80000000E+02  1.40000000E+02  0.00000000E+00
  5.80000000E+02  1.20000000E+02  0.00000000E+00
  5.80000000E+02  1.00000000E+02  0.00000000E+00
  5.80000000E+02  8.00000000E+01  0.00000000E+00
  5.80000000E+02  6.00000000E+01  0.00000000E+00
  5.80000000E+02  4.00000000E+01  0.00000000E+00
  5.80000000E+02  2.00000000E+01  0.00000000E+00
  5.80000000E+02  4.99600361E-14  0.00000000E+00
  6.00000000E+02  3.00000000E+02  0.00000000E+00
  6.00000000E+02  2.80000000E+02  0.00000000E+00
  6.00000000E+02  2.60000000E+02  0.00000000E+00
  6.00000000E+02  2.40000000E+02  0.00000000E+00
  6.00000000E+02  2.20000000E+02  0.00000000E+00
  6.00000000E+02  2.00000000E+02  0.00000000E+00
  6.00000000E+02  1.80000000E+02  0.00000000E+00
  6.00000000E+02  1.60000000E+02  0.00000000E+00
  6.00000000E+02  1.40000000E+02  0.00000000E+00
  6.00000000E+02  1.20000000E+02  0.00000000E+00
  6.00000000E+02  1.00000000E+02  0.00000000E+00
  6.00000000E+02  8.00000000E+01  0.00000000E+00
  6.00000000E+02  6.00000000E+01  0.00000000E+00
  6.00000000E+02  4.00000000E+01  0.00000000E+00
  6.00000000E+02  2.00000000E+01  0.00000000E+00
  6.00000000E+02  4.99600361E-14  0.00000000E+00
CELLS       450      2250
         4           0           1          17          16
         4           1           2          18          17
         4           2           3          19          18
         4           3           4          20          19
         4           4           5          21          20
         4           5           6          22          21
         4           6           7          23          22
         4           7           8          24          23
         4           8           9          25          24
         4           9          10          26          25
         4          10          11          27          26
         4          11          12          28          27
         4          12          13          29          28
         4          13          14          30          29
         4          14          15          31          30
         4          16          17          33          32
         4          17          18          34          33
         4          18          19          35          34
         4          19          20          36          35
         4          20          21          37          36
         4          21          22          38          37
         4          22          23          39          38
         4          23          24          40          39
         4          24          25          41          40
         4          25          26          42          41
         4          26          27          43          42
         4          27          28          44          43
         4          28          29          45          44
         4          29          30          46          45
         4          30          31          47          46
         4          32          33          49          48
         4          33          34          50          49
         4          34          35          51          50
         4          35          36          52          51
         4          36          37          53          52
         4          37          38          54          53
         4          38          39          55          54
         4          39          40          56          55
         4          40          41          57          56
         4          41          42          58          57
         4          42          43          59          58
         4          43          44          60          59
         4          44          45          61          60
         4          45          46          62          61
         4          46          47          63          62
         4          48          49          65          64
         4          49          50          66          65
         4          50          51          67          66
         4          51          52          68          67
         4          52          53          69          68
         4          53          54          70          69
         4          54          55          71          70
         4          55          56          72          71
         4          56          57          73          72
         4          57          58          74          73
         4          58          59          75          74
         4          59          60          76          75
         4          60          61          77          76
         4          61          62          78          77
         4          62          63          79          78
         4          64          65          81          80
         4          65          66          82          81
         4          66          67          83          82
         4          67          68          84          83
         4          68          69          85          84
         4          69          70          86          85
         4          70          71          87          86
         4          71          72          88          87
         4          72          73          89          88
         4          73          74          90          89
         4          74          75          91          90
         4          75          76          92          91
         4          76          77          93          92
         4          77          78          94          93
         4          78          79          95          94
         4          80          81          97          96
         4          81          82          98          97
         4          82          83          99          98
         4          83          84         100          99
         4          84          85         101         100
         4          85          86         102         101
         4          86          87         103         102
         4          87          88         104         103
         4          88          89         105         104
         4          89          90         106         105
         4          90          91         107         106
         4          91          92         108         107
         4          92          93         109         108
         4          93          94         110         109
         4          94          95         111         110
         4          96          97         113         112
         4          97          98         114         113
         4          98          99         115         114
         4          99         100         116         115
         4         100         101         117         116
         4         101         102         118         117
         4         102         103         119         118
         4         103         104         120         119
         4         104         105         121         120
         4         105         106         122         121
         4         106         107         123         122
         4         107         108         124         123
         4         108         109         125         124
         4         109         110         126         125
         4         110         111         127         126
         4         112         113         129         128
         4         113         114         130         129
         4         114         115         131         130
         4         115         116         132         131
         4         116         117         133         132
         4         117         118         134         133
         4         118         119         135         134
         4         119         120         136         135
         4         120         121         137         136
         4         121         122         138         137
         4         122         123         139         138
         4         123         124         140         139
         4         124         125         141         140
         4         125         126         142         141
         4         126         127         143         142
         4         128         129         145         144
         4         129         130         146         145
         4         130         131         147         146
         4         131         132         148         147
         4         132         133         149         148
         4         133         134         150         149
         4         134         135         151         150
         4         135         136         152         151
         4         136         137         153         152
         4         137         138         154         153
         4         138         139         155         154
         4         139         140         156         155
         4         140         141         157         156
         4         141         142         158         157
         4         142         143         159         158
         4         144         145         161         160
         4         145         146         162         161
         4         146         147         163         162
         4         147         148         164         163
         4         148         149         165         164
         4         149         150         166         165
         4         150         151         167         166
         4         151         152         168         167
         4         152         153         169         168
         4         153         154         170         169
         4         154         155         171         170
         4         155         156         172         171
         4         156         157         173         172
         4         157         158         174         173
         4         158         159         175         174
         4         160         161         177         176
         4         161         162         178         177
         4         162         163         179         178
         4         163         164         180         179
         4         164         165         181         180
         4         165         166         182         181
         4         166         167         183         182
         4         167         168         184         183
         4         168         169         185         184
         4         169         170         186         185
         4         170         171         187         186
         4         171         172         188         187
         4         172         173         189         188
         4         173         174         190         189
         4         174         175         191         190
         4         176         177         193         192
         4         177         178         194         193
         4         178         179         195         194
         4         179         180         196         195
         4         180         181         197         196
         4         181         182         198         197
         4         182         183         199         198
         4         183         184         200         199
         4         184         185         201         200
         4         185         186         202         201
         4         186         187         203         202
         4         187         188         204         203
         4         188         189         205         204
         4         189         190         206         205
         4         190         191         207         206
         4         192         193         209         208
         4         193         194         210         209
         4         194         195         211         210
         4         195         196         212         211
         4         196         197         213         212
         4         197         198         214         213
         4         198         199         215         214
         4         199         200         216         215
         4         200         201         217         216
         4         201         202         218         217
         4         202         203         219         218
         4         203         204         220         219
         4         204         205         221         220
         4         205         206         222         221
         4         206         207         223         222
         4         208         209         225         224
         4         209         210         226         225
         4         210         211         227         226
         4         211         212         228         227
         4         212         213         229         228
         4         213         214         230         229
         4         214         215         231         230
         4         215         216         232         231
         4         216         217         233         232
         4         217         218         234         233
         4         218         219         235         234
         4         219         220         236         235
         4         220         221         237         236
         4         221         222         238         237
         4         222         223         239         238
         4         224         225         241         240
         4         225         226         242         241
         4         226         227         243         242
         4         227         228         244         243
         4         228         229         245         244
         4         229         230         246         245
         4         230         231         247         246
         4         231         232         248         247
         4         232         233         249         248
         4         233         234         250         249
         4         234         235         251         250
         4         235         236         252         251
         4         236         237         253         252
         4         237         238         254         253
         4         238         239         255         254
         4         240         241         257         256
         4         241         242         258         257
         4         242         243         259         258
         4         243         244         260         259
         4         244         245         261         260
         4         245         246         262         261
         4         246         247         263         262
         4         247         248         264         263
         4         248         249         265         264
         4         249         250         266         265
         4         250         251         267         266
         4         251         252         268         267
         4         252         253         269         268
         4         253         254         270         269
         4         254         255         271         270
         4         256         257         273         272
         4         257         258         274         273
         4         258         259         275         274
         4         259         260         276         275
         4         260         261         277         276
         4         261         262         278         277
         4         262         263         279         278
         4         263         264         280         279
         4         264         265         281         280
         4         265         266         282         281
         4         266         267         283         282
         4         267         268         284         283
         4         268         269         285         284
         4         269         270         286         285
         4         270         271         287         286
         4         272         273         289         288
         4         273         274         290         289
         4         274         275         291         290
         4         275         276         292         291
         4         276         277         293         292
         4         277         278         294         293
         4         278         279         295         294
         4         279         280         296         295
         4         280         281         297         296
         4         281         282         298         297
         4         282         283         299         298
         4         283         284         300         299
         4         284         285         301         300
         4         285         286         302         301
         4         286         287         303         302
         4         288         289         305         304
         4         289         290         306         305
         4         290         291         307         306
         4         291         292         308         307
         4         292         293         309         308
         4         293         294         310         309
         4         294         295         311         310
         4         295         296         312         311
         4         296         297         313         312
         4         297         298         314         313
         4         298         299         315         314
         4         299         300         316         315
         4         300         301         317         316
         4         301         302         318         317
         4         302         303         319         318
         4         304         305         321         320
         4         305         306         322         321
         4         306         307         323         322
         4         307         308         324         323
         4         308         309         325         324
         4         309         310         326         325
         4         310         311         327         326
         4         311         312         328         327
         4         312         313         329         328
         4         313         314         330         329
         4         314         315         331         330
         4         315         316         332         331
         4         316         317         333         332
         4         317         318         334         333
         4         318         319         335         334
         4         320         321         337         336
         4         321         322         338         337
         4         322         323         339         338
         4         323         324         340         339
         4         324         325         341         340
         4         325         326         342         341
         4         326         327         343         342
         4         327         328         344         343
         4         328         329         345         344
         4         329         330         346         345
         4         330         331         347         346
         4         331         332         348         347
         4         332         333         349         348
         4         333         334         350         349
         4         334         335         351         350
         4         336         337         353         352
         4         337         338         354         353
         4         338         339         355         354
         4         339         340         356         355
         4         340         341         357         356
         4         341         342         358         357
         4         342         343         359         358
         4         343         344         360         359
         4         344         345         361         360
         4         345         346         362         361
         4         346         347         363         362
         4         347         348         364         363
         4         348         349         365         364
         4         349         350         366         365
         4         350         351         367         366
         4         352         353         369         368
         4         353         354         370         369
         4         354         355         371         370
         4         355         356         372         371
         4         356         357         373         372
         4         357         358         374         373
         4         358         359         375         374
         4         359         360         376         375
         4         360         361         377         376
         4         361         362         378         377
         4         362         363         379         378
         4         363         364         380         379
         4         364         365         381         380
         4         365         366         382         381
         4         366         367         383         382
         4         368         369         385         384
         4         369         370         386         385
         4         370         371         387         386
         4         371         372         388         387
         4         372         373         389         388
         4         373         374         390         389
         4         374         375         391         390
         4         375         376         392         391
         4         376         377         393         392
         4         377         378         394         393
         4         378         379         395         394
         4         379         380         396         395
         4         380         381         397         396
         4         381         382         398         397
         4         382         383         399         398
         4         384         385         401         400
         4         385         386         402         401
         4         386         387         403         402
         4         387         388         404         403
         4         388         389         405         404
         4         389         390         406         405
         4         390         391         407         406
         4         391         392         408         407
         4         392         393         409         408
         4         393         394         410         409
         4         394         395         411         410
         4         395         396         412         411
         4         396         397         413         412
         4         397         398         414         413
         4         398         399         415         414
         4         400         401         417         416
         4         401         402         418         417
         4         402         403         419         418
         4         403         404         420         419
         4         404         405         421         420
         4         405         406         422         421
         4         406         407         423         422
         4         407         408         424         423
         4         408         409         425         424
         4         409         410         426         425
         4         410         411         427         426
         4         411         412         428         427
         4         412         413         429         428
         4         413         414         430         429
         4         414         415         431         430
         4         416         417         433         432
         4         417         418         434         433
         4         418         419         435         434
         4         419         420         436         435
         4         420         421         437         436
         4         421         422         438         437
         4         422         423         439         438
         4         423         424         440         439
         4         424         425         441         440
         4         425         426         442         441
         4         426         427         443         442
         4         427         428         444         443
         4         428         429         445         444
         4         429         430         446         445
         4         430         431         447         446
         4         432         433         449         448
         4         433         434         450         449
         4         434         435         451         450
         4         435         436         452         451
         4         436         437         453         452
         4         437         438         454         453
         4         438         439         455         454
         4         439         440         456         455
         4         440         441         457         456
         4         441         442         458         457
         4         442         443         459         458
         4         443         444         460         459
         4         444         445         461         460
         4         445         446         462         461
         4         446         447         463         462
         4         448         449         465         464
         4         449         450         466         465
         4         450         451         467         466
         4         451         452         468         467
         4         452         453         469         468
         4         453         454         470         469
         4         454         455         471         470
         4         455         456         472         471
         4         456         457         473         472
         4         457         458         474         473
         4         458         459         475         474
         4         459         460         476         475
         4         460         461         477         476
         4         461         462         478         477
         4         462         463         479         478
         4         464         465         481         480
         4         465         466         482         481
         4         466         467         483         482
         4         467         468         484         483
         4         468         469         485         484
         4         469         470         486         485
         4         470         471         487         486
         4         471         472         488         487
         4         472         473         489         488
         4         473         474         490         489
         4         474         475         491         490
         4         475         476         492         491
         4         476         477         493         492
         4         477         478         494         493
         4         478         479         495         494
CELL_TYPES        450
9
9
9
9
9
9
9
9
9
9
9
9
9
9
9
9
9
9
9
9
9
9
9
9
9
9
9
9
9
9
9
9
9
9
9
9
9
9
9
9
9
9
9
9
9
9
9
9
9
9
9
9
9
9
9
9
9
9
9
9
9
9
9
9
9
9
9
9
9
9
9
9
9
9
9
9
9
9
9
9
9
9
9
9
9
9
9
9
9
9
9
9
9
9
9
9
9
9
9
9
9
9
9
9
9
9
9
9
9
9
9
9
9
9
9
9
9
9
9
9
9
9
9
9
9
9
9
9
9
9
9
9
9
9
9
9
9
9
9
9
9
9
9
9
9
9
9
9
9
9
9
9
9
9
9
9
9
9
9
9
9
9
9
9
9
9
9
9
9
9
9
9
9
9
9
9
9
9
9
9
9
9
9
9
9
9
9
9
9
9
9
9
9
9
9
9
9
9
9
9
9
9
9
9
9
9
9
9
9
9
9
9
9
9
9
9
9
9
9
9
9
9
9
9
9
9
9
9
9
9
9
9
9
9
9
9
9
9
9
9
9
9
9
9
9
9
9
9
9
9
9
9
9
9
9
9
9
9
9
9
9
9
9
9
9
9
9
9
9
9
9
9
9
9
9
9
9
9
9
9
9
9
9
9
9
9
9
9
9
9
9
9
9
9
9
9
9
9
9
9
9
9
9
9
9
9
9
9
9
9
9
9
9
9
9
9
9
9
9
9
9
9
9
9
9
9
9
9
9
9
9
9
9
9
9
9
9
9
9
9
9
9
9
9
9
9
9
9
9
9
9
9
9
9
9
9
9
9
9
9
9
9
9
9
9
9
9
9
9
9
9
9
9
9
9
9
9
9
9
9
9
9
9
9
9
9
9
9
9
9
9
9
9
9
9
9
9
9
9
9
9
9
9
9
9
9
9
9
9
9
9
9
9
9
9
9
9
9
9
9
9
9
9
9
9
9
9
9
9
9
9
9
9
9
9
9
9
9
9
9
9
9
9
9
9
9
9
9
9
9
POINT_DATA       496
SCALARS p double 
LOOKUP_TABLE default
   85000000.0000000     
   85000000.0000000     
   85000000.0000000     
   85000000.0000000     
   85000000.0000000     
   85000000.0000000     
   85000000.0000000     
   85000000.0000000     
   85000000.0000000     
   85000000.0000000     
   85000000.0000000     
   85000000.0000000     
   85000000.0000000     
   85000000.0000000     
   85000000.0000000     
   85000000.0000000     
   82321591.9784509     
   82321161.7881053     
   82320856.6809151     
   82321142.9534844     
   82321967.4963557     
   82323174.6337680     
   82324626.9194905     
   82326204.0936619     
   82327803.0291932     
   82329334.4011595     
   82330718.7080267     
   82331882.7799864     
   82332758.1738927     
   82333285.2813008     
   82333428.4792609     
   82333285.4063250     
   79646936.8369598     
   79647007.8985811     
   79647571.0436192     
   79648878.6719205     
   79650912.1403606     
   79653510.5853038     
   79656472.0774358     
   79659607.7304035     
   79662749.8882407     
   79665751.3371233     
   79668481.1495412     
   79670820.8619760     
   79672664.3230950     
   79673926.0396397     
   79674576.8974969     
   79674731.7448186     
   76983912.3153808     
   76984506.9994316     
   76986189.4448566     
   76988854.7241738     
   76992343.9797124     
   76996445.0469778     
   77000926.2314108     
   77005564.6833287     
   77010160.3834263     
   77014536.6514330     
   77018536.4683170     
   77022018.6246901     
   77024857.0476422     
   77026947.9309715     
   77028227.0850356     
   77028671.6302847     
   74338613.1146662     
   74339695.0605187     
   74342481.0918956     
   74346522.4682413     
   74351474.4353135     
   74357037.0169174     
   74362939.7207481     
   74368941.0394043     
   74374828.8654898     
   74380417.6884235     
   74385542.9898817     
   74390055.3920901     
   74393816.3529343     
   74396695.5546809     
   74398563.9136869     
   74399267.0753652     
   71716194.9088657     
   71717681.8787681     
   71721411.3058363     
   71726648.6827026     
   71732872.2472670     
   71739687.7051369     
   71746782.0010551     
   71753899.2079993     
   71760826.1362855     
   71767381.2430618     
   71773404.3856211     
   71778746.8090342     
   71783260.9172871     
   71786787.5616563     
   71789135.2724960     
   71790043.0101100     
   69120691.9256223     
   69122473.7325533     
   69126897.9345333     
   69133019.8773212     
   69140178.0564885     
   69147898.4537908     
   69155831.6884687     
   69163712.6966691     
   69171333.8865836     
   69178525.4442763     
   69185139.0222118     
   69191032.5360088     
   69196054.0558367     
   69200021.9696233     
   69202697.3200995     
   69203743.9092916     
   66554874.9501187     
   66556824.9204844     
   66561643.4591201     
   66568257.5297003     
   66575916.1641642     
   66584093.5627763     
   66592418.9298613     
   66600626.8588860     
   66608521.8217046     
   66615951.4390127     
   66622784.5861418     
   66628891.3900294     
   66634122.5494010     
   66638285.2766232     
   66641112.9838780     
   66642226.3051224     
   64020167.6851626     
   64022152.9170067     
   64027042.3707723     
   64033715.9978504     
   64041388.5971125     
   64049517.3023113     
   64057730.5965649     
   64065774.9435796     
   64073474.5510981     
   64080700.0662976     
   64087342.6627444     
   64093290.5933263     
   64098405.6705719     
   64102497.3463363     
   64105292.3405522     
   64106398.4132108     
   61516632.2676292     
   61518522.2781583     
   61523160.2448950     
   61529455.6713305     
   61536643.8592893     
   61544201.6854788     
   61551780.3664594     
   61559152.6771205     
   61566171.5298278     
   61572736.7613950     
   61578767.2285133     
   61584175.6670234     
   61588844.1052075     
   61592597.9438347     
   61595177.2273641     
   61596204.2394868     
   59043020.6146272     
   59044694.8076069     
   59048780.2032764     
   59054284.2950925     
   59060513.3898650     
   59066999.5202616     
   59073440.2597758     
   59079649.8430593     
   59085519.5308499     
   59090984.9726268     
   59095998.3670774     
   59100503.4064963     
   59104411.2482304     
   59107576.0713213     
   59109769.1777221     
   59110651.1086010     
   56596885.6902347     
   56598239.5440535     
   56601509.3405352     
   56605858.3127944     
   56610707.3627807     
   56615675.1429343     
   56620527.2722531     
   56625133.8199890     
   56629433.8063012     
   56633405.2465034     
   56637039.2101858     
   56640316.4448186     
   56643185.2900290     
   56645539.8661782     
   56647197.8558865     
   56647877.6006769     
   54174743.3610866     
   54175693.2205686     
   54177935.4587066     
   54180834.2667089     
   54183959.9438915     
   54187043.4491008     
   54189936.5877144     
   54192577.5852879     
   54194961.4648937     
   54197114.4157988     
   54199071.2343436     
   54200854.9253446     
   54202457.6566129     
   54203822.4446944     
   54204825.2034532     
   54205257.0903372     
   51772273.4381825     
   51772759.8237073     
   51773822.7488261     
   51775058.9272267     
   51776212.8758757     
   51777146.5474331     
   51777811.3727674     
   51778223.0012416     
   51778438.7198873     
   51778537.3050899     
   51778600.9263028     
   51778698.6801262     
   51778871.3759457     
   51779117.3092877     
   51779378.9323507     
   51779530.5453207     
   49384547.4125770     
   49384536.8352385     
   49384334.1421127     
   49383786.0610600     
   49382825.5843018     
   49381456.6549266     
   49379738.3383934     
   49377769.2262490     
   49375672.5306148     
   49373582.1063879     
   49371629.4895722     
   49369931.9644443     
   49368581.6641265     
   49367635.7602036     
   49367107.8966481     
   49366961.1585922     
   47006270.2313084     
   47005755.5804769     
   47004267.9293169     
   47001907.6724468     
   46998799.9432918     
   46995093.7617367     
   46990958.0704976     
   46986575.7859370     
   46982136.7204269     
   46977830.0233883     
   46973836.6342531     
   46970322.1402796     
   46967430.3817195     
   46965278.1412026     
   46963951.2869254     
   46963502.8029925     
   44632024.0580675     
   44631023.6943398     
   44628296.8200197     
   44624188.1118957     
   44619008.3722603     
   44613047.0700493     
   44606579.5195773     
   44599870.1168979     
   44593172.8165856     
   44586729.8424352     
   44580769.4744058     
   44575503.6365971     
   44571125.9249323     
   44567810.6567065     
   44565713.4950624     
   44564974.1978477     
   42256503.1380028     
   42255058.8733073     
   42251198.7342131     
   42245490.5223603     
   42238414.9545602     
   42230390.1587062     
   42221788.8975523     
   42212950.1523147     
   42204186.5106110     
   42195788.6462212     
   42188028.0368183     
   42181158.9359955     
   42175420.4984276     
   42171039.8536035     
   42168236.8357529     
   42167231.0078020     
   39874730.4490996     
   39872904.6253709     
   39868070.1181230     
   39860986.5339910     
   39852280.6413473     
   39842481.1190472     
   39832044.4358925     
   39821373.6317811     
   39810831.6578552     
   39800750.8201751     
   39791439.7440212     
   39783189.1351271     
   39776277.4670748     
   39770977.5765622     
   39767565.0037214     
   39766328.7776637     
   37482248.5992984     
   37480120.4892187     
   37474514.2918510     
   37466341.7743069     
   37456345.1893645     
   37445140.4158151     
   37433249.8866884     
   37421127.1632173     
   37409175.0007939     
   37397758.6924289     
   37387216.3581704     
   37377867.6922423     
   37370022.5023802     
   37363990.1877055     
   37360091.1035822     
   37358670.5558301     
   35075279.2706044     
   35072941.0213836     
   35066799.1251192     
   35057871.4937423     
   35046980.1491026     
   35034800.8255421     
   35021901.1779299     
   35008769.5279010     
   34995836.2004910     
   34983489.4887949     
   34972088.1577557     
   34961972.2105367     
   34953473.4314575     
   34946926.9994445     
   34942685.2246340     
   34941134.1858243     
   32650847.3037960     
   32648399.6309214     
   32641980.0844995     
   32632662.3031798     
   32621308.8581077     
   32608625.3853428     
   32595202.1624380     
   32581545.2017183     
   32568099.2010391     
   32555264.6845825     
   32543411.4796408     
   32532890.4269168     
   32524044.9802366     
   32517224.1223293     
   32512797.7654778     
   32511175.4707940     
   30206867.1806594     
   30204414.9949358     
   30197986.3167213     
   30188657.5914196     
   30177290.9121059     
   30164590.7585139     
   30151146.8427572     
   30137465.4890670     
   30123992.3603070     
   30111129.2273054     
   30099247.1292255     
   30088697.9175745     
   30079825.9123802     
   30072981.2103685     
   30068535.9743024     
   30066904.6703975     
   27742191.1512188     
   27739839.2682240     
   27733668.8710376     
   27724705.5676810     
   27713769.9096568     
   27701534.7185675     
   27688566.7490275     
   27675355.9760168     
   27662336.1087552     
   27649899.4441027     
   27638408.4991304     
   27628206.3512336     
   27619627.3539471     
   27613009.8416474     
   27608712.4031248     
   27607135.0154009     
   25256619.5629990     
   25254468.5913065     
   25248811.3800950     
   25240569.9939299     
   25230484.3247710     
   25219167.5132583     
   25207143.2535250     
   25194870.1779386     
   25182758.1232513     
   25171179.7136223     
   25160479.5228083     
   25150982.3984846     
   25143002.3353973     
   25136853.4647030     
   25132865.1306843     
   25131403.0732864     
   22750875.1102278     
   22749017.5186357     
   22744104.4696133     
   22736904.4425370     
   22728042.0735195     
   22718047.6524940     
   22707385.5161861     
   22696470.2889538     
   22685677.1249677     
   22675349.1720085     
   22665803.8215671     
   22657338.6491471     
   22650237.7787276     
   22644779.9509817     
   22641250.6466669     
   22639961.8180970     
   20226543.8443957     
   20225059.9830991     
   20221085.7335341     
   20215191.1440720     
   20207859.5866837     
   20199523.1665879     
   20190575.5234815     
   20181376.8838798     
   20172257.4604304     
   20163520.8251579     
   20155447.5885785     
   20148299.1219553     
   20142321.3709925     
   20137748.8322443     
   20134811.1559535     
   20133748.0877447     
   17685987.1372180     
   17684940.3894733     
   17682046.8767456     
   17677644.6944255     
   17672065.8706668     
   17665639.7440956     
   17658682.4605953     
   17651490.4164977     
   17644337.6300582     
   17637476.4539859     
   17631139.7552961     
   17625543.2834458     
   17620887.1079279     
   17617356.4431388     
   17615118.6592575     
   17614326.6024207     
   15132231.9533466     
   15131659.2391152     
   15129906.9403160     
   15127078.0915993     
   15123371.4273450     
   15119017.6821074     
   15114249.9727981     
   15109288.6074601     
   15104336.9003932     
   15099581.4134710     
   15095193.8791460     
   15091333.1505492     
   15088145.9182976     
   15085763.5177435     
   15084298.6958239     
   15083812.0866137     
   12568853.0672296     
   12568739.3601019     
   12568037.2029299     
   12566724.4133287     
   12564901.1250319     
   12562702.4085989     
   12560262.3865325     
   12557705.5153698     
   12555144.9525451     
   12552683.5909892     
   12550415.8817763     
   12548429.5815533     
   12546806.5537772     
   12545621.5487032     
   12544930.5856930     
   12544772.4834460     
   10000000.0000000     
   10000000.0000000     
   10000000.0000000     
   10000000.0000000     
   10000000.0000000     
   10000000.0000000     
   10000000.0000000     
   10000000.0000000     
   10000000.0000000     
   10000000.0000000     
   10000000.0000000     
   10000000.0000000     
   10000000.0000000     
  10000000.00000000     
   10000000.0000000     
   10000000.0000000     
VECTORS u double 
    0.00000E+00         0.16418E-01         0.00000E+00
    0.00000E+00         0.15509E-01         0.00000E+00
    0.00000E+00         0.14441E-01         0.00000E+00
    0.00000E+00         0.13361E-01         0.00000E+00
    0.00000E+00         0.12315E-01         0.00000E+00
    0.00000E+00         0.11295E-01         0.00000E+00
    0.00000E+00         0.10295E-01         0.00000E+00
    0.00000E+00         0.93047E-02         0.00000E+00
    0.00000E+00         0.83160E-02         0.00000E+00
    0.00000E+00         0.73175E-02         0.00000E+00
    0.00000E+00         0.62956E-02         0.00000E+00
    0.00000E+00         0.52339E-02         0.00000E+00
    0.00000E+00         0.41119E-02         0.00000E+00
    0.00000E+00         0.29015E-02         0.00000E+00
    0.00000E+00         0.15615E-02         0.00000E+00
    0.00000E+00         0.00000E+00         0.00000E+00
    0.40821E-02         0.15920E-01         0.00000E+00
    0.33280E-02         0.15091E-01         0.00000E+00
    0.27971E-02         0.14127E-01         0.00000E+00
    0.25041E-02         0.13123E-01         0.00000E+00
    0.22854E-02         0.12120E-01         0.00000E+00
    0.21029E-02         0.11131E-01         0.00000E+00
    0.19412E-02         0.10153E-01         0.00000E+00
    0.17913E-02         0.91817E-02         0.00000E+00
    0.16462E-02         0.82091E-02         0.00000E+00
    0.15001E-02         0.72246E-02         0.00000E+00
    0.13468E-02         0.62155E-02         0.00000E+00
    0.11793E-02         0.51655E-02         0.00000E+00
    0.98819E-03         0.40544E-02         0.00000E+00
    0.75829E-03         0.28547E-02         0.00000E+00
    0.46090E-03         0.15252E-02         0.00000E+00
    0.00000E+00         0.00000E+00         0.00000E+00
    0.73402E-02         0.14918E-01         0.00000E+00
    0.62269E-02         0.14140E-01         0.00000E+00
    0.54137E-02         0.13322E-01         0.00000E+00
    0.48340E-02         0.12458E-01         0.00000E+00
    0.43914E-02         0.11560E-01         0.00000E+00
    0.40226E-02         0.10650E-01         0.00000E+00
    0.36972E-02         0.97361E-02         0.00000E+00
    0.33963E-02         0.88186E-02         0.00000E+00
    0.31060E-02         0.78927E-02         0.00000E+00
    0.28142E-02         0.69500E-02         0.00000E+00
    0.25089E-02         0.59789E-02         0.00000E+00
    0.21765E-02         0.49646E-02         0.00000E+00
    0.17990E-02         0.38878E-02         0.00000E+00
    0.13495E-02         0.27233E-02         0.00000E+00
    0.77897E-03         0.14375E-02         0.00000E+00
    0.00000E+00         0.00000E+00         0.00000E+00
    0.10259E-01         0.13511E-01         0.00000E+00
    0.88867E-02         0.12876E-01         0.00000E+00
    0.78215E-02         0.12190E-01         0.00000E+00
    0.69937E-02         0.11458E-01         0.00000E+00
    0.63316E-02         0.10686E-01         0.00000E+00
    0.57757E-02         0.98853E-02         0.00000E+00
    0.52852E-02         0.90662E-02         0.00000E+00
    0.48327E-02         0.82317E-02         0.00000E+00
    0.43974E-02         0.73799E-02         0.00000E+00
    0.39614E-02         0.65047E-02         0.00000E+00
    0.35071E-02         0.55966E-02         0.00000E+00
    0.30151E-02         0.46426E-02         0.00000E+00
    0.24610E-02         0.36261E-02         0.00000E+00
    0.18109E-02         0.25267E-02         0.00000E+00
    0.10142E-02         0.13231E-02         0.00000E+00
    0.00000E+00         0.00000E+00         0.00000E+00
    0.12924E-01         0.11833E-01         0.00000E+00
    0.11312E-01         0.11336E-01         0.00000E+00
    0.10019E-01         0.10787E-01         0.00000E+00
    0.89723E-02         0.10191E-01         0.00000E+00
    0.81080E-02         0.95516E-02         0.00000E+00
    0.73709E-02         0.88769E-02         0.00000E+00
    0.67177E-02         0.81732E-02         0.00000E+00
    0.61152E-02         0.74442E-02         0.00000E+00
    0.55370E-02         0.66895E-02         0.00000E+00
    0.49599E-02         0.59051E-02         0.00000E+00
    0.43617E-02         0.50836E-02         0.00000E+00
    0.37183E-02         0.42146E-02         0.00000E+00
    0.30015E-02         0.32849E-02         0.00000E+00
    0.21755E-02         0.22802E-02         0.00000E+00
    0.11940E-02         0.11875E-02         0.00000E+00
    0.00000E+00         0.00000E+00         0.00000E+00
    0.15322E-01         0.99254E-02         0.00000E+00
    0.13504E-01         0.95657E-02         0.00000E+00
    0.12009E-01         0.91576E-02         0.00000E+00
    0.10767E-01         0.87022E-02         0.00000E+00
    0.97194E-02         0.82026E-02         0.00000E+00
    0.88127E-02         0.76634E-02         0.00000E+00
    0.80035E-02         0.70889E-02         0.00000E+00
    0.72557E-02         0.64822E-02         0.00000E+00
    0.65389E-02         0.58435E-02         0.00000E+00
    0.58261E-02         0.51703E-02         0.00000E+00
    0.50912E-02         0.44570E-02         0.00000E+00
    0.43072E-02         0.36959E-02         0.00000E+00
    0.34440E-02         0.28777E-02         0.00000E+00
    0.24667E-02         0.19929E-02         0.00000E+00
    0.13341E-02         0.10343E-02         0.00000E+00
    0.00000E+00         0.00000E+00         0.00000E+00
    0.17451E-01         0.78318E-02         0.00000E+00
    0.15462E-01         0.76089E-02         0.00000E+00
    0.13792E-01         0.73427E-02         0.00000E+00
    0.12379E-01         0.70313E-02         0.00000E+00
    0.11166E-01         0.66759E-02         0.00000E+00
    0.10104E-01         0.62791E-02         0.00000E+00
    0.91486E-02         0.58438E-02         0.00000E+00
    0.82633E-02         0.53723E-02         0.00000E+00
    0.74151E-02         0.48649E-02         0.00000E+00
    0.65742E-02         0.43199E-02         0.00000E+00
    0.57120E-02         0.37338E-02         0.00000E+00
    0.47999E-02         0.31011E-02         0.00000E+00
    0.38072E-02         0.24157E-02         0.00000E+00
    0.27007E-02         0.16719E-02         0.00000E+00
    0.14442E-02         0.86633E-03         0.00000E+00
    0.00000E+00         0.00000E+00         0.00000E+00
    0.19320E-01         0.55886E-02         0.00000E+00
    0.17190E-01         0.55021E-02         0.00000E+00
    0.15372E-01         0.53778E-02         0.00000E+00
    0.13809E-01         0.52119E-02         0.00000E+00
    0.12450E-01         0.50037E-02         0.00000E+00
    0.11247E-01         0.47544E-02         0.00000E+00
    0.10158E-01         0.44657E-02         0.00000E+00
    0.91457E-02         0.41392E-02         0.00000E+00
    0.81756E-02         0.37753E-02         0.00000E+00
    0.72164E-02         0.33729E-02         0.00000E+00
    0.62381E-02         0.29299E-02         0.00000E+00
    0.52111E-02         0.24429E-02         0.00000E+00
    0.41052E-02         0.19081E-02         0.00000E+00
    0.28893E-02         0.13227E-02         0.00000E+00
    0.15315E-02         0.68583E-03         0.00000E+00
    0.00000E+00         0.00000E+00         0.00000E+00
    0.20936E-01         0.32263E-02         0.00000E+00
    0.18692E-01         0.32759E-02         0.00000E+00
    0.16750E-01         0.32932E-02         0.00000E+00
    0.15059E-01         0.32732E-02         0.00000E+00
    0.13572E-01         0.32140E-02         0.00000E+00
    0.12245E-01         0.31157E-02         0.00000E+00
    0.11037E-01         0.29792E-02         0.00000E+00
    0.99092E-02         0.28054E-02         0.00000E+00
    0.88287E-02         0.25947E-02         0.00000E+00
    0.77627E-02         0.23466E-02         0.00000E+00
    0.66806E-02         0.20599E-02         0.00000E+00
    0.55525E-02         0.17327E-02         0.00000E+00
    0.43491E-02         0.13633E-02         0.00000E+00
    0.30413E-02         0.95039E-03         0.00000E+00
    0.16005E-02         0.49485E-03         0.00000E+00
    0.00000E+00         0.00000E+00         0.00000E+00
    0.22308E-01         0.77058E-03         0.00000E+00
    0.19974E-01         0.95579E-03         0.00000E+00
    0.17930E-01         0.11141E-02         0.00000E+00
    0.16132E-01         0.12400E-02         0.00000E+00
    0.14536E-01         0.13310E-02         0.00000E+00
    0.13101E-01         0.13862E-02         0.00000E+00
    0.11788E-01         0.14059E-02         0.00000E+00
    0.10559E-01         0.13907E-02         0.00000E+00
    0.93812E-02         0.13409E-02         0.00000E+00
    0.82212E-02         0.12563E-02         0.00000E+00
    0.70483E-02         0.11365E-02         0.00000E+00
    0.58331E-02         0.98071E-03         0.00000E+00
    0.45471E-02         0.78822E-03         0.00000E+00
    0.31630E-02         0.55920E-03         0.00000E+00
    0.16550E-02         0.29525E-03         0.00000E+00
    0.00000E+00         0.00000E+00         0.00000E+00
    0.23447E-01        -0.17574E-02         0.00000E+00
    0.21042E-01        -0.14368E-02         0.00000E+00
    0.18916E-01        -0.11380E-02         0.00000E+00
    0.17030E-01        -0.86639E-03         0.00000E+00
    0.15343E-01        -0.62481E-03         0.00000E+00
    0.13817E-01        -0.41444E-03         0.00000E+00
    0.12415E-01        -0.23547E-03         0.00000E+00
    0.11100E-01        -0.87634E-04         0.00000E+00
    0.98387E-02         0.29340E-04         0.00000E+00
    0.85982E-02         0.11558E-03         0.00000E+00
    0.73483E-02         0.17101E-03         0.00000E+00
    0.60599E-02         0.19551E-03         0.00000E+00
    0.47054E-02         0.18922E-03         0.00000E+00
    0.32591E-02         0.15298E-03         0.00000E+00
    0.16975E-02         0.88730E-04         0.00000E+00
    0.00000E+00         0.00000E+00         0.00000E+00
    0.24360E-01        -0.43397E-02         0.00000E+00
    0.21902E-01        -0.38840E-02         0.00000E+00
    0.19712E-01        -0.34453E-02         0.00000E+00
    0.17756E-01        -0.30283E-02         0.00000E+00
    0.15996E-01        -0.26359E-02         0.00000E+00
    0.14397E-01        -0.22693E-02         0.00000E+00
    0.12922E-01        -0.19290E-02         0.00000E+00
    0.11536E-01        -0.16148E-02         0.00000E+00
    0.10205E-01        -0.13265E-02         0.00000E+00
    0.88989E-02        -0.10640E-02         0.00000E+00
    0.75860E-02        -0.82700E-03         0.00000E+00
    0.62381E-02        -0.61528E-03         0.00000E+00
    0.48286E-02        -0.42829E-03         0.00000E+00
    0.33331E-02        -0.26492E-03         0.00000E+00
    0.17298E-02        -0.12321E-03         0.00000E+00
    0.00000E+00         0.00000E+00         0.00000E+00
    0.25056E-01        -0.69614E-02         0.00000E+00
    0.22559E-01        -0.63709E-02         0.00000E+00
    0.20322E-01        -0.57927E-02         0.00000E+00
    0.18313E-01        -0.52308E-02         0.00000E+00
    0.16498E-01        -0.46875E-02         0.00000E+00
    0.14842E-01        -0.41640E-02         0.00000E+00
    0.13310E-01        -0.36608E-02         0.00000E+00
    0.11869E-01        -0.31779E-02         0.00000E+00
    0.10485E-01        -0.27151E-02         0.00000E+00
    0.91271E-02        -0.22723E-02         0.00000E+00
    0.77653E-02        -0.18491E-02         0.00000E+00
    0.63716E-02        -0.14450E-02         0.00000E+00
    0.49202E-02        -0.10596E-02         0.00000E+00
    0.33876E-02        -0.69153E-03         0.00000E+00
    0.17533E-02        -0.33920E-03         0.00000E+00
    0.00000E+00         0.00000E+00         0.00000E+00
    0.25541E-01        -0.96096E-02         0.00000E+00
    0.23019E-01        -0.88846E-02         0.00000E+00
    0.20750E-01        -0.81674E-02         0.00000E+00
    0.18705E-01        -0.74609E-02         0.00000E+00
    0.16851E-01        -0.67668E-02         0.00000E+00
    0.15155E-01        -0.60860E-02         0.00000E+00
    0.13583E-01        -0.54190E-02         0.00000E+00
    0.12102E-01        -0.47658E-02         0.00000E+00
    0.10680E-01        -0.41264E-02         0.00000E+00
    0.92856E-02        -0.35005E-02         0.00000E+00
    0.78891E-02        -0.28878E-02         0.00000E+00
    0.64632E-02        -0.22879E-02         0.00000E+00
    0.49825E-02        -0.17004E-02         0.00000E+00
    0.34242E-02        -0.11242E-02         0.00000E+00
    0.17688E-02        -0.55801E-03         0.00000E+00
    0.00000E+00         0.00000E+00         0.00000E+00
    0.25819E-01        -0.12273E-01         0.00000E+00
    0.23284E-01        -0.11414E-01         0.00000E+00
    0.20998E-01        -0.10558E-01         0.00000E+00
    0.18932E-01        -0.97073E-02         0.00000E+00
    0.17055E-01        -0.88626E-02         0.00000E+00
    0.15336E-01        -0.80244E-02         0.00000E+00
    0.13741E-01        -0.71932E-02         0.00000E+00
    0.12237E-01        -0.63688E-02         0.00000E+00
    0.10793E-01        -0.55514E-02         0.00000E+00
    0.93765E-02        -0.47407E-02         0.00000E+00
    0.79596E-02        -0.39366E-02         0.00000E+00
    0.65148E-02        -0.31388E-02         0.00000E+00
    0.50171E-02        -0.23470E-02         0.00000E+00
    0.34442E-02        -0.15605E-02         0.00000E+00
    0.17771E-02        -0.77852E-03         0.00000E+00
    0.00000E+00         0.00000E+00         0.00000E+00
    0.25894E-01        -0.14943E-01         0.00000E+00
    0.23357E-01        -0.13949E-01         0.00000E+00
    0.21067E-01        -0.12955E-01         0.00000E+00
    0.18996E-01        -0.11960E-01         0.00000E+00
    0.17114E-01        -0.10965E-01         0.00000E+00
    0.15388E-01        -0.99694E-02         0.00000E+00
    0.13786E-01        -0.89737E-02         0.00000E+00
    0.12275E-01        -0.79779E-02         0.00000E+00
    0.10824E-01        -0.69819E-02         0.00000E+00
    0.94010E-02        -0.59858E-02         0.00000E+00
    0.79779E-02        -0.49895E-02         0.00000E+00
    0.65275E-02        -0.39929E-02         0.00000E+00
    0.50250E-02        -0.29959E-02         0.00000E+00
    0.34482E-02        -0.19982E-02         0.00000E+00
    0.17784E-02        -0.99967E-03         0.00000E+00
    0.00000E+00         0.00000E+00         0.00000E+00
    0.25767E-01        -0.17608E-01         0.00000E+00
    0.23240E-01        -0.16481E-01         0.00000E+00
    0.20959E-01        -0.15348E-01         0.00000E+00
    0.18898E-01        -0.14210E-01         0.00000E+00
    0.17026E-01        -0.13064E-01         0.00000E+00
    0.15310E-01        -0.11912E-01         0.00000E+00
    0.13718E-01        -0.10752E-01         0.00000E+00
    0.12216E-01        -0.95846E-02         0.00000E+00
    0.10774E-01        -0.84103E-02         0.00000E+00
    0.93596E-02        -0.72290E-02         0.00000E+00
    0.79446E-02        -0.60408E-02         0.00000E+00
    0.65018E-02        -0.48456E-02         0.00000E+00
    0.50065E-02        -0.36437E-02         0.00000E+00
    0.34365E-02        -0.24352E-02         0.00000E+00
    0.17729E-02        -0.12205E-02         0.00000E+00
    0.00000E+00         0.00000E+00         0.00000E+00
    0.25438E-01        -0.20260E-01         0.00000E+00
    0.22931E-01        -0.18999E-01         0.00000E+00
    0.20674E-01        -0.17729E-01         0.00000E+00
    0.18638E-01        -0.16446E-01         0.00000E+00
    0.16793E-01        -0.15151E-01         0.00000E+00
    0.15103E-01        -0.13842E-01         0.00000E+00
    0.13537E-01        -0.12518E-01         0.00000E+00
    0.12061E-01        -0.11180E-01         0.00000E+00
    0.10643E-01        -0.98288E-02         0.00000E+00
    0.92521E-02        -0.84635E-02         0.00000E+00
    0.78594E-02        -0.70847E-02         0.00000E+00
    0.64375E-02        -0.56925E-02         0.00000E+00
    0.49615E-02        -0.42872E-02         0.00000E+00
    0.34089E-02        -0.28694E-02         0.00000E+00
    0.17604E-02        -0.14399E-02         0.00000E+00
    0.00000E+00         0.00000E+00         0.00000E+00
    0.24905E-01        -0.22889E-01         0.00000E+00
    0.22429E-01        -0.21494E-01         0.00000E+00
    0.20210E-01        -0.20086E-01         0.00000E+00
    0.18216E-01        -0.18660E-01         0.00000E+00
    0.16413E-01        -0.17215E-01         0.00000E+00
    0.14767E-01        -0.15750E-01         0.00000E+00
    0.13243E-01        -0.14263E-01         0.00000E+00
    0.11809E-01        -0.12757E-01         0.00000E+00
    0.10431E-01        -0.11229E-01         0.00000E+00
    0.90779E-02        -0.96823E-02         0.00000E+00
    0.77214E-02        -0.81153E-02         0.00000E+00
    0.63336E-02        -0.65287E-02         0.00000E+00
    0.48891E-02        -0.49229E-02         0.00000E+00
    0.33649E-02        -0.32985E-02         0.00000E+00
    0.17408E-02        -0.16569E-02         0.00000E+00
    0.00000E+00         0.00000E+00         0.00000E+00
    0.24163E-01        -0.25484E-01         0.00000E+00
    0.21732E-01        -0.23956E-01         0.00000E+00
    0.19566E-01        -0.22410E-01         0.00000E+00
    0.17629E-01        -0.20841E-01         0.00000E+00
    0.15886E-01        -0.19246E-01         0.00000E+00
    0.14300E-01        -0.17625E-01         0.00000E+00
    0.12835E-01        -0.15978E-01         0.00000E+00
    0.11458E-01        -0.14303E-01         0.00000E+00
    0.10135E-01        -0.12603E-01         0.00000E+00
    0.88352E-02        -0.10878E-01         0.00000E+00
    0.75290E-02        -0.91262E-02         0.00000E+00
    0.61886E-02        -0.73492E-02         0.00000E+00
    0.47880E-02        -0.55470E-02         0.00000E+00
    0.33034E-02        -0.37202E-02         0.00000E+00
    0.17134E-02        -0.18704E-02         0.00000E+00
    0.00000E+00         0.00000E+00         0.00000E+00
    0.23207E-01        -0.28033E-01         0.00000E+00
    0.20836E-01        -0.26372E-01         0.00000E+00
    0.18739E-01        -0.24688E-01         0.00000E+00
    0.16876E-01        -0.22975E-01         0.00000E+00
    0.15210E-01        -0.21232E-01         0.00000E+00
    0.13701E-01        -0.19456E-01         0.00000E+00
    0.12311E-01        -0.17649E-01         0.00000E+00
    0.11007E-01        -0.15810E-01         0.00000E+00
    0.97542E-02        -0.13941E-01         0.00000E+00
    0.85217E-02        -0.12041E-01         0.00000E+00
    0.72797E-02        -0.10110E-01         0.00000E+00
    0.60001E-02        -0.81484E-02         0.00000E+00
    0.46560E-02        -0.61555E-02         0.00000E+00
    0.32228E-02        -0.41319E-02         0.00000E+00
    0.16774E-02        -0.20791E-02         0.00000E+00
    0.00000E+00         0.00000E+00         0.00000E+00
    0.22030E-01        -0.30520E-01         0.00000E+00
    0.19735E-01        -0.28727E-01         0.00000E+00
    0.17725E-01        -0.26905E-01         0.00000E+00
    0.15956E-01        -0.25049E-01         0.00000E+00
    0.14384E-01        -0.23157E-01         0.00000E+00
    0.12968E-01        -0.21228E-01         0.00000E+00
    0.11670E-01        -0.19263E-01         0.00000E+00
    0.10454E-01        -0.17264E-01         0.00000E+00
    0.92855E-02        -0.15230E-01         0.00000E+00
    0.81341E-02        -0.13162E-01         0.00000E+00
    0.69698E-02        -0.11059E-01         0.00000E+00
    0.57643E-02        -0.89198E-02         0.00000E+00
    0.44900E-02        -0.67438E-02         0.00000E+00
    0.31207E-02        -0.45308E-02         0.00000E+00
    0.16315E-02        -0.22819E-02         0.00000E+00
    0.00000E+00         0.00000E+00         0.00000E+00
    0.20623E-01        -0.32930E-01         0.00000E+00
    0.18425E-01        -0.31004E-01         0.00000E+00
    0.16522E-01        -0.29044E-01         0.00000E+00
    0.14865E-01        -0.27045E-01         0.00000E+00
    0.13406E-01        -0.25005E-01         0.00000E+00
    0.12101E-01        -0.22925E-01         0.00000E+00
    0.10910E-01        -0.20806E-01         0.00000E+00
    0.97952E-02        -0.18651E-01         0.00000E+00
    0.87249E-02        -0.16459E-01         0.00000E+00
    0.76677E-02        -0.14230E-01         0.00000E+00
    0.65944E-02        -0.11963E-01         0.00000E+00
    0.54765E-02        -0.96561E-02         0.00000E+00
    0.42856E-02        -0.73067E-02         0.00000E+00
    0.29939E-02        -0.49136E-02         0.00000E+00
    0.15740E-02        -0.24771E-02         0.00000E+00
    0.00000E+00         0.00000E+00         0.00000E+00
    0.18979E-01        -0.35241E-01         0.00000E+00
    0.16900E-01        -0.33183E-01         0.00000E+00
    0.15127E-01        -0.31085E-01         0.00000E+00
    0.13603E-01        -0.28942E-01         0.00000E+00
    0.12276E-01        -0.26755E-01         0.00000E+00
    0.11097E-01        -0.24527E-01         0.00000E+00
    0.10027E-01        -0.22259E-01         0.00000E+00
    0.90275E-02        -0.19953E-01         0.00000E+00
    0.80674E-02        -0.17611E-01         0.00000E+00
    0.71168E-02        -0.15232E-01         0.00000E+00
    0.61471E-02        -0.12812E-01         0.00000E+00
    0.51301E-02        -0.10349E-01         0.00000E+00
    0.40370E-02        -0.78382E-02         0.00000E+00
    0.28380E-02        -0.52767E-02         0.00000E+00
    0.15024E-02        -0.26633E-02         0.00000E+00
    0.00000E+00         0.00000E+00         0.00000E+00
    0.17088E-01        -0.37429E-01         0.00000E+00
    0.15154E-01        -0.35239E-01         0.00000E+00
    0.13536E-01        -0.33002E-01         0.00000E+00
    0.12169E-01        -0.30717E-01         0.00000E+00
    0.10992E-01        -0.28385E-01         0.00000E+00
    0.99554E-02        -0.26011E-01         0.00000E+00
    0.90186E-02        -0.23599E-01         0.00000E+00
    0.81459E-02        -0.21153E-01         0.00000E+00
    0.73069E-02        -0.18671E-01         0.00000E+00
    0.64736E-02        -0.16153E-01         0.00000E+00
    0.56193E-02        -0.13594E-01         0.00000E+00
    0.47166E-02        -0.10989E-01         0.00000E+00
    0.37363E-02        -0.83317E-02         0.00000E+00
    0.26468E-02        -0.56161E-02         0.00000E+00
    0.14135E-02        -0.28387E-02         0.00000E+00
    0.00000E+00         0.00000E+00         0.00000E+00
    0.14938E-01        -0.39464E-01         0.00000E+00
    0.13182E-01        -0.37143E-01         0.00000E+00
    0.11749E-01        -0.34767E-01         0.00000E+00
    0.10561E-01        -0.32339E-01         0.00000E+00
    0.95532E-02        -0.29865E-01         0.00000E+00
    0.86733E-02        -0.27351E-01         0.00000E+00
    0.78813E-02        -0.24804E-01         0.00000E+00
    0.71445E-02        -0.22227E-01         0.00000E+00
    0.64353E-02        -0.19619E-01         0.00000E+00
    0.57288E-02        -0.16976E-01         0.00000E+00
    0.50004E-02        -0.14295E-01         0.00000E+00
    0.42248E-02        -0.11565E-01         0.00000E+00
    0.33732E-02        -0.87794E-02         0.00000E+00
    0.24122E-02        -0.59272E-02         0.00000E+00
    0.13025E-02        -0.30014E-02         0.00000E+00
    0.00000E+00         0.00000E+00         0.00000E+00
    0.12521E-01        -0.41310E-01         0.00000E+00
    0.10982E-01        -0.38858E-01         0.00000E+00
    0.97668E-02        -0.36344E-01         0.00000E+00
    0.87833E-02        -0.33774E-01         0.00000E+00
    0.79608E-02        -0.31162E-01         0.00000E+00
    0.72487E-02        -0.28517E-01         0.00000E+00
    0.66098E-02        -0.25847E-01         0.00000E+00
    0.60157E-02        -0.23153E-01         0.00000E+00
    0.54429E-02        -0.20434E-01         0.00000E+00
    0.48704E-02        -0.17685E-01         0.00000E+00
    0.42773E-02        -0.14900E-01         0.00000E+00
    0.36408E-02        -0.12067E-01         0.00000E+00
    0.29341E-02        -0.91728E-02         0.00000E+00
    0.21228E-02        -0.62046E-02         0.00000E+00
    0.11630E-02        -0.31492E-02         0.00000E+00
    0.00000E+00         0.00000E+00         0.00000E+00
    0.98248E-02        -0.42922E-01         0.00000E+00
    0.85524E-02        -0.40339E-01         0.00000E+00
    0.75929E-02        -0.37686E-01         0.00000E+00
    0.68376E-02        -0.34979E-01         0.00000E+00
    0.62144E-02        -0.32238E-01         0.00000E+00
    0.56778E-02        -0.29476E-01         0.00000E+00
    0.51971E-02        -0.26698E-01         0.00000E+00
    0.47499E-02        -0.23906E-01         0.00000E+00
    0.43179E-02        -0.21096E-01         0.00000E+00
    0.38848E-02        -0.18262E-01         0.00000E+00
    0.34340E-02        -0.15393E-01         0.00000E+00
    0.29472E-02        -0.12479E-01         0.00000E+00
    0.24011E-02        -0.95016E-02         0.00000E+00
    0.17632E-02        -0.64421E-02         0.00000E+00
    0.98542E-03        -0.32798E-02         0.00000E+00
    0.00000E+00         0.00000E+00         0.00000E+00
    0.68410E-02        -0.44241E-01         0.00000E+00
    0.58993E-02        -0.41526E-01         0.00000E+00
    0.52362E-02        -0.38735E-01         0.00000E+00
    0.47278E-02        -0.35902E-01         0.00000E+00
    0.43116E-02        -0.33051E-01         0.00000E+00
    0.39540E-02        -0.30194E-01         0.00000E+00
    0.36336E-02        -0.27332E-01         0.00000E+00
    0.33352E-02        -0.24464E-01         0.00000E+00
    0.30464E-02        -0.21586E-01         0.00000E+00
    0.27561E-02        -0.18688E-01         0.00000E+00
    0.24530E-02        -0.15760E-01         0.00000E+00
    0.21239E-02        -0.12788E-01         0.00000E+00
    0.17520E-02        -0.97532E-02         0.00000E+00
    0.13112E-02        -0.66310E-02         0.00000E+00
    0.75507E-03        -0.33897E-02         0.00000E+00
    0.00000E+00         0.00000E+00         0.00000E+00
    0.35614E-02        -0.45179E-01         0.00000E+00
    0.30398E-02        -0.42333E-01         0.00000E+00
    0.27064E-02        -0.39418E-01         0.00000E+00
    0.24524E-02        -0.36488E-01         0.00000E+00
    0.22449E-02        -0.33560E-01         0.00000E+00
    0.20665E-02        -0.30639E-01         0.00000E+00
    0.19065E-02        -0.27723E-01         0.00000E+00
    0.17573E-02        -0.24808E-01         0.00000E+00
    0.16128E-02        -0.21887E-01         0.00000E+00
    0.14672E-02        -0.18951E-01         0.00000E+00
    0.13148E-02        -0.15987E-01         0.00000E+00
    0.11490E-02        -0.12981E-01         0.00000E+00
    0.96067E-03        -0.99130E-02         0.00000E+00
    0.73536E-03        -0.67570E-02         0.00000E+00
    0.44567E-03        -0.34737E-02         0.00000E+00
    0.00000E+00         0.00000E+00         0.00000E+00
    0.00000E+00        -0.45581E-01         0.00000E+00
    0.00000E+00        -0.42631E-01         0.00000E+00
    0.00000E+00        -0.39658E-01         0.00000E+00
    0.00000E+00        -0.36690E-01         0.00000E+00
    0.00000E+00        -0.33734E-01         0.00000E+00
    0.00000E+00        -0.30790E-01         0.00000E+00
    0.00000E+00        -0.27855E-01         0.00000E+00
    0.00000E+00        -0.24924E-01         0.00000E+00
    0.00000E+00        -0.21988E-01         0.00000E+00
    0.00000E+00        -0.19039E-01         0.00000E+00
    0.00000E+00        -0.16064E-01         0.00000E+00
    0.00000E+00        -0.13047E-01         0.00000E+00
    0.00000E+00        -0.99682E-02         0.00000E+00
    0.00000E+00        -0.68020E-02         0.00000E+00
    0.00000E+00        -0.35085E-02         0.00000E+00
    0.00000E+00         0.00000E+00         0.00000E+00
CELL_DATA        450
VECTORS vDarcy double 
    0.19205E-07        -0.15422E-11         0.00000E+00
    0.19200E-07        -0.10933E-11         0.00000E+00
    0.19194E-07         0.10255E-11         0.00000E+00
    0.19186E-07         0.29531E-11         0.00000E+00
    0.19175E-07         0.43226E-11         0.00000E+00
    0.19163E-07         0.51996E-11         0.00000E+00
    0.19149E-07         0.56460E-11         0.00000E+00
    0.19135E-07         0.57232E-11         0.00000E+00
    0.19122E-07         0.54808E-11         0.00000E+00
    0.19110E-07         0.49539E-11         0.00000E+00
    0.19099E-07         0.41654E-11         0.00000E+00
    0.19089E-07         0.31321E-11         0.00000E+00
    0.19083E-07         0.18858E-11         0.00000E+00
    0.19078E-07         0.51224E-12         0.00000E+00
    0.19075E-07        -0.51172E-12         0.00000E+00
    0.19164E-07        -0.12867E-11         0.00000E+00
    0.19156E-07         0.92434E-12         0.00000E+00
    0.19145E-07         0.57085E-11         0.00000E+00
    0.19133E-07         0.10234E-10         0.00000E+00
    0.19121E-07         0.13625E-10         0.00000E+00
    0.19107E-07         0.15800E-10         0.00000E+00
    0.19094E-07         0.16868E-10         0.00000E+00
    0.19081E-07         0.16967E-10         0.00000E+00
    0.19068E-07         0.16220E-10         0.00000E+00
    0.19056E-07         0.14720E-10         0.00000E+00
    0.19045E-07         0.12535E-10         0.00000E+00
    0.19035E-07         0.97262E-11         0.00000E+00
    0.19028E-07         0.63986E-11         0.00000E+00
    0.19021E-07         0.28400E-11         0.00000E+00
    0.19016E-07         0.42108E-13         0.00000E+00
    0.19075E-07         0.23845E-11         0.00000E+00
    0.19065E-07         0.80417E-11         0.00000E+00
    0.19053E-07         0.14225E-10         0.00000E+00
    0.19040E-07         0.19771E-10         0.00000E+00
    0.19027E-07         0.23980E-10         0.00000E+00
    0.19013E-07         0.26637E-10         0.00000E+00
    0.19000E-07         0.27819E-10         0.00000E+00
    0.18988E-07         0.27687E-10         0.00000E+00
    0.18975E-07         0.26395E-10         0.00000E+00
    0.18964E-07         0.24074E-10         0.00000E+00
    0.18954E-07         0.20825E-10         0.00000E+00
    0.18945E-07         0.16746E-10         0.00000E+00
    0.18936E-07         0.11990E-10         0.00000E+00
    0.18930E-07         0.69020E-11         0.00000E+00
    0.18925E-07         0.21433E-11         0.00000E+00
    0.18942E-07         0.60033E-11         0.00000E+00
    0.18933E-07         0.15997E-10         0.00000E+00
    0.18922E-07         0.24007E-10         0.00000E+00
    0.18909E-07         0.30212E-10         0.00000E+00
    0.18896E-07         0.34582E-10         0.00000E+00
    0.18883E-07         0.37155E-10         0.00000E+00
    0.18871E-07         0.38066E-10         0.00000E+00
    0.18860E-07         0.37503E-10         0.00000E+00
    0.18849E-07         0.35645E-10         0.00000E+00
    0.18839E-07         0.32638E-10         0.00000E+00
    0.18830E-07         0.28592E-10         0.00000E+00
    0.18821E-07         0.23600E-10         0.00000E+00
    0.18814E-07         0.17772E-10         0.00000E+00
    0.18807E-07         0.11254E-10         0.00000E+00
    0.18803E-07         0.41035E-11         0.00000E+00
    0.18772E-07         0.91953E-11         0.00000E+00
    0.18765E-07         0.23319E-10         0.00000E+00
    0.18755E-07         0.33205E-10         0.00000E+00
    0.18744E-07         0.39987E-10         0.00000E+00
    0.18733E-07         0.44285E-10         0.00000E+00
    0.18722E-07         0.46495E-10         0.00000E+00
    0.18712E-07         0.46925E-10         0.00000E+00
    0.18702E-07         0.45834E-10         0.00000E+00
    0.18694E-07         0.43431E-10         0.00000E+00
    0.18685E-07         0.39867E-10         0.00000E+00
    0.18678E-07         0.35239E-10         0.00000E+00
    0.18671E-07         0.29588E-10         0.00000E+00
    0.18665E-07         0.22903E-10         0.00000E+00
    0.18660E-07         0.15073E-10         0.00000E+00
    0.18656E-07         0.57588E-11         0.00000E+00
    0.18574E-07         0.11697E-10         0.00000E+00
    0.18569E-07         0.29173E-10         0.00000E+00
    0.18561E-07         0.40639E-10         0.00000E+00
    0.18552E-07         0.47869E-10         0.00000E+00
    0.18544E-07         0.51992E-10         0.00000E+00
    0.18536E-07         0.53746E-10         0.00000E+00
    0.18529E-07         0.53636E-10         0.00000E+00
    0.18522E-07         0.52023E-10         0.00000E+00
    0.18516E-07         0.49153E-10         0.00000E+00
    0.18510E-07         0.45181E-10         0.00000E+00
    0.18505E-07         0.40170E-10         0.00000E+00
    0.18500E-07         0.34089E-10         0.00000E+00
    0.18495E-07         0.26791E-10         0.00000E+00
    0.18492E-07         0.17955E-10         0.00000E+00
    0.18489E-07         0.69855E-11         0.00000E+00
    0.18356E-07         0.13349E-10         0.00000E+00
    0.18353E-07         0.33060E-10         0.00000E+00
    0.18348E-07         0.45551E-10         0.00000E+00
    0.18343E-07         0.52989E-10         0.00000E+00
    0.18338E-07         0.56850E-10         0.00000E+00
    0.18333E-07         0.58135E-10         0.00000E+00
    0.18329E-07         0.57524E-10         0.00000E+00
    0.18326E-07         0.55472E-10         0.00000E+00
    0.18323E-07         0.52269E-10         0.00000E+00
    0.18320E-07         0.48068E-10         0.00000E+00
    0.18317E-07         0.42895E-10         0.00000E+00
    0.18315E-07         0.36646E-10         0.00000E+00
    0.18313E-07         0.29060E-10         0.00000E+00
    0.18311E-07         0.19668E-10         0.00000E+00
    0.18309E-07         0.77192E-11         0.00000E+00
    0.18128E-07         0.14073E-10         0.00000E+00
    0.18127E-07         0.34714E-10         0.00000E+00
    0.18125E-07         0.47511E-10         0.00000E+00
    0.18124E-07         0.54814E-10         0.00000E+00
    0.18122E-07         0.58295E-10         0.00000E+00
    0.18122E-07         0.59123E-10         0.00000E+00
    0.18122E-07         0.58095E-10         0.00000E+00
    0.18122E-07         0.55741E-10         0.00000E+00
    0.18122E-07         0.52380E-10         0.00000E+00
    0.18122E-07         0.48162E-10         0.00000E+00
    0.18123E-07         0.43081E-10         0.00000E+00
    0.18123E-07         0.36974E-10         0.00000E+00
    0.18123E-07         0.29497E-10         0.00000E+00
    0.18123E-07         0.20092E-10         0.00000E+00
    0.18122E-07         0.79305E-11         0.00000E+00
    0.17901E-07         0.13854E-10         0.00000E+00
    0.17901E-07         0.34059E-10         0.00000E+00
    0.17902E-07         0.46359E-10         0.00000E+00
    0.17904E-07         0.53118E-10         0.00000E+00
    0.17907E-07         0.56066E-10         0.00000E+00
    0.17910E-07         0.56440E-10         0.00000E+00
    0.17914E-07         0.55096E-10         0.00000E+00
    0.17918E-07         0.52598E-10         0.00000E+00
    0.17922E-07         0.49280E-10         0.00000E+00
    0.17925E-07         0.45284E-10         0.00000E+00
    0.17929E-07         0.40577E-10         0.00000E+00
    0.17932E-07         0.34956E-10         0.00000E+00
    0.17934E-07         0.28031E-10         0.00000E+00
    0.17935E-07         0.19201E-10         0.00000E+00
    0.17936E-07         0.76208E-11         0.00000E+00
    0.17682E-07         0.12738E-10         0.00000E+00
    0.17684E-07         0.31175E-10         0.00000E+00
    0.17688E-07         0.42167E-10         0.00000E+00
    0.17693E-07         0.47946E-10         0.00000E+00
    0.17700E-07         0.50183E-10         0.00000E+00
    0.17707E-07         0.50093E-10         0.00000E+00
    0.17714E-07         0.48527E-10         0.00000E+00
    0.17722E-07         0.46048E-10         0.00000E+00
    0.17729E-07         0.42981E-10         0.00000E+00
    0.17736E-07         0.39454E-10         0.00000E+00
    0.17742E-07         0.35415E-10         0.00000E+00
    0.17748E-07         0.30637E-10         0.00000E+00
    0.17752E-07         0.24715E-10         0.00000E+00
    0.17755E-07         0.17048E-10         0.00000E+00
    0.17757E-07         0.68189E-11         0.00000E+00
    0.17481E-07         0.10819E-10         0.00000E+00
    0.17484E-07         0.26278E-10         0.00000E+00
    0.17491E-07         0.35202E-10         0.00000E+00
    0.17499E-07         0.39577E-10         0.00000E+00
    0.17509E-07         0.40918E-10         0.00000E+00
    0.17519E-07         0.40341E-10         0.00000E+00
    0.17530E-07         0.38637E-10         0.00000E+00
    0.17541E-07         0.36326E-10         0.00000E+00
    0.17551E-07         0.33708E-10         0.00000E+00
    0.17561E-07         0.30887E-10         0.00000E+00
    0.17570E-07         0.27796E-10         0.00000E+00
    0.17577E-07         0.24204E-10         0.00000E+00
    0.17584E-07         0.19713E-10         0.00000E+00
    0.17588E-07         0.13754E-10         0.00000E+00
    0.17591E-07         0.55774E-11         0.00000E+00
    0.17305E-07         0.82286E-11         0.00000E+00
    0.17309E-07         0.19688E-10         0.00000E+00
    0.17318E-07         0.25887E-10         0.00000E+00
    0.17329E-07         0.28483E-10         0.00000E+00
    0.17341E-07         0.28755E-10         0.00000E+00
    0.17354E-07         0.27662E-10         0.00000E+00
    0.17368E-07         0.25883E-10         0.00000E+00
    0.17381E-07         0.23870E-10         0.00000E+00
    0.17394E-07         0.21871E-10         0.00000E+00
    0.17406E-07         0.19965E-10         0.00000E+00
    0.17417E-07         0.18072E-10         0.00000E+00
    0.17427E-07         0.15968E-10         0.00000E+00
    0.17435E-07         0.13281E-10         0.00000E+00
    0.17440E-07         0.95010E-11         0.00000E+00
    0.17443E-07         0.39694E-11         0.00000E+00
    0.17160E-07         0.51287E-11         0.00000E+00
    0.17165E-07         0.11802E-10         0.00000E+00
    0.17175E-07         0.14765E-10         0.00000E+00
    0.17188E-07         0.15281E-10         0.00000E+00
    0.17202E-07         0.14344E-10         0.00000E+00
    0.17217E-07         0.12704E-10         0.00000E+00
    0.17233E-07         0.10899E-10         0.00000E+00
    0.17248E-07         0.92817E-11         0.00000E+00
    0.17263E-07         0.80388E-11         0.00000E+00
    0.17277E-07         0.72136E-11         0.00000E+00
    0.17289E-07         0.67173E-11         0.00000E+00
    0.17300E-07         0.63387E-11         0.00000E+00
    0.17309E-07         0.57506E-11         0.00000E+00
    0.17316E-07         0.45140E-11         0.00000E+00
    0.17319E-07         0.20832E-11         0.00000E+00
    0.17050E-07         0.16986E-11         0.00000E+00
    0.17056E-07         0.30709E-11         0.00000E+00
    0.17067E-07         0.24564E-11         0.00000E+00
    0.17080E-07         0.69066E-12         0.00000E+00
    0.17096E-07        -0.15538E-11         0.00000E+00
    0.17112E-07        -0.37607E-11         0.00000E+00
    0.17129E-07        -0.55597E-11         0.00000E+00
    0.17146E-07        -0.67144E-11         0.00000E+00
    0.17162E-07        -0.71101E-11         0.00000E+00
    0.17177E-07        -0.67429E-11         0.00000E+00
    0.17190E-07        -0.57105E-11         0.00000E+00
    0.17202E-07        -0.42035E-11         0.00000E+00
    0.17211E-07        -0.24985E-11         0.00000E+00
    0.17218E-07        -0.95034E-12         0.00000E+00
    0.17222E-07         0.17401E-13         0.00000E+00
    0.16978E-07        -0.18745E-11         0.00000E+00
    0.16984E-07        -0.60327E-11         0.00000E+00
    0.16995E-07        -0.10380E-10         0.00000E+00
    0.17009E-07        -0.14519E-10         0.00000E+00
    0.17025E-07        -0.18113E-10         0.00000E+00
    0.17042E-07        -0.20892E-10         0.00000E+00
    0.17059E-07        -0.22667E-10         0.00000E+00
    0.17076E-07        -0.23325E-10         0.00000E+00
    0.17092E-07        -0.22830E-10         0.00000E+00
    0.17107E-07        -0.21220E-10         0.00000E+00
    0.17121E-07        -0.18601E-10         0.00000E+00
    0.17133E-07        -0.15139E-10         0.00000E+00
    0.17143E-07        -0.11057E-10         0.00000E+00
    0.17150E-07        -0.66191E-11         0.00000E+00
    0.17154E-07        -0.21242E-11         0.00000E+00
    0.16944E-07        -0.54055E-11         0.00000E+00
    0.16950E-07        -0.15037E-10         0.00000E+00
    0.16961E-07        -0.23081E-10         0.00000E+00
    0.16975E-07        -0.29570E-10         0.00000E+00
    0.16990E-07        -0.34494E-10         0.00000E+00
    0.17007E-07        -0.37833E-10         0.00000E+00
    0.17023E-07        -0.39576E-10         0.00000E+00
    0.17040E-07        -0.39735E-10         0.00000E+00
    0.17056E-07        -0.38356E-10         0.00000E+00
    0.17070E-07        -0.35516E-10         0.00000E+00
    0.17084E-07        -0.31329E-10         0.00000E+00
    0.17095E-07        -0.25938E-10         0.00000E+00
    0.17105E-07        -0.19509E-10         0.00000E+00
    0.17112E-07        -0.12217E-10         0.00000E+00
    0.17116E-07        -0.42382E-11         0.00000E+00
    0.16948E-07        -0.87199E-11         0.00000E+00
    0.16954E-07        -0.23496E-10         0.00000E+00
    0.16964E-07        -0.35018E-10         0.00000E+00
    0.16977E-07        -0.43716E-10         0.00000E+00
    0.16991E-07        -0.49891E-10         0.00000E+00
    0.17006E-07        -0.53753E-10         0.00000E+00
    0.17022E-07        -0.55464E-10         0.00000E+00
    0.17037E-07        -0.55154E-10         0.00000E+00
    0.17052E-07        -0.52942E-10         0.00000E+00
    0.17065E-07        -0.48948E-10         0.00000E+00
    0.17077E-07        -0.43290E-10         0.00000E+00
    0.17088E-07        -0.36089E-10         0.00000E+00
    0.17097E-07        -0.27455E-10         0.00000E+00
    0.17103E-07        -0.17481E-10         0.00000E+00
    0.17107E-07        -0.62257E-11         0.00000E+00
    0.16988E-07        -0.11661E-10         0.00000E+00
    0.16993E-07        -0.31006E-10         0.00000E+00
    0.17002E-07        -0.45617E-10         0.00000E+00
    0.17013E-07        -0.56280E-10         0.00000E+00
    0.17026E-07        -0.63567E-10         0.00000E+00
    0.17039E-07        -0.67896E-10         0.00000E+00
    0.17052E-07        -0.69580E-10         0.00000E+00
    0.17065E-07        -0.68854E-10         0.00000E+00
    0.17078E-07        -0.65906E-10         0.00000E+00
    0.17090E-07        -0.60888E-10         0.00000E+00
    0.17101E-07        -0.53927E-10         0.00000E+00
    0.17110E-07        -0.45120E-10         0.00000E+00
    0.17118E-07        -0.34528E-10         0.00000E+00
    0.17123E-07        -0.22170E-10         0.00000E+00
    0.17126E-07        -0.79970E-11         0.00000E+00
    0.17060E-07        -0.14096E-10         0.00000E+00
    0.17064E-07        -0.37222E-10         0.00000E+00
    0.17071E-07        -0.54391E-10         0.00000E+00
    0.17080E-07        -0.66680E-10         0.00000E+00
    0.17090E-07        -0.74889E-10         0.00000E+00
    0.17101E-07        -0.79608E-10         0.00000E+00
    0.17112E-07        -0.81273E-10         0.00000E+00
    0.17122E-07        -0.80208E-10         0.00000E+00
    0.17132E-07        -0.76655E-10         0.00000E+00
    0.17142E-07        -0.70795E-10         0.00000E+00
    0.17151E-07        -0.62759E-10         0.00000E+00
    0.17158E-07        -0.52624E-10         0.00000E+00
    0.17165E-07        -0.40412E-10         0.00000E+00
    0.17169E-07        -0.26075E-10         0.00000E+00
    0.17172E-07        -0.94746E-11         0.00000E+00
    0.17158E-07        -0.15918E-10         0.00000E+00
    0.17161E-07        -0.41872E-10         0.00000E+00
    0.17166E-07        -0.60950E-10         0.00000E+00
    0.17173E-07        -0.74453E-10         0.00000E+00
    0.17180E-07        -0.83354E-10         0.00000E+00
    0.17188E-07        -0.88369E-10         0.00000E+00
    0.17196E-07        -0.90027E-10         0.00000E+00
    0.17203E-07        -0.88715E-10         0.00000E+00
    0.17211E-07        -0.84717E-10         0.00000E+00
    0.17218E-07        -0.78233E-10         0.00000E+00
    0.17224E-07        -0.69397E-10         0.00000E+00
    0.17229E-07        -0.58272E-10         0.00000E+00
    0.17234E-07        -0.44849E-10         0.00000E+00
    0.17237E-07        -0.29026E-10         0.00000E+00
    0.17239E-07        -0.10595E-10         0.00000E+00
    0.17277E-07        -0.17052E-10         0.00000E+00
    0.17279E-07        -0.44758E-10         0.00000E+00
    0.17282E-07        -0.65014E-10         0.00000E+00
    0.17286E-07        -0.79269E-10         0.00000E+00
    0.17290E-07        -0.88603E-10         0.00000E+00
    0.17295E-07        -0.93811E-10         0.00000E+00
    0.17299E-07        -0.95475E-10         0.00000E+00
    0.17304E-07        -0.94021E-10         0.00000E+00
    0.17308E-07        -0.89754E-10         0.00000E+00
    0.17312E-07        -0.82890E-10         0.00000E+00
    0.17316E-07        -0.73562E-10         0.00000E+00
    0.17319E-07        -0.61827E-10         0.00000E+00
    0.17322E-07        -0.47652E-10         0.00000E+00
    0.17324E-07        -0.30901E-10         0.00000E+00
    0.17325E-07        -0.11313E-10         0.00000E+00
    0.17411E-07        -0.17453E-10         0.00000E+00
    0.17412E-07        -0.45767E-10         0.00000E+00
    0.17413E-07        -0.66426E-10         0.00000E+00
    0.17414E-07        -0.80943E-10         0.00000E+00
    0.17415E-07        -0.90437E-10         0.00000E+00
    0.17416E-07        -0.95728E-10         0.00000E+00
    0.17418E-07        -0.97412E-10         0.00000E+00
    0.17419E-07        -0.95924E-10         0.00000E+00
    0.17420E-07        -0.91576E-10         0.00000E+00
    0.17421E-07        -0.84587E-10         0.00000E+00
    0.17422E-07        -0.75092E-10         0.00000E+00
    0.17422E-07        -0.63146E-10         0.00000E+00
    0.17423E-07        -0.48706E-10         0.00000E+00
    0.17424E-07        -0.31621E-10         0.00000E+00
    0.17424E-07        -0.11597E-10         0.00000E+00
    0.17553E-07        -0.17107E-10         0.00000E+00
    0.17553E-07        -0.44867E-10         0.00000E+00
    0.17552E-07        -0.65146E-10         0.00000E+00
    0.17550E-07        -0.79434E-10         0.00000E+00
    0.17548E-07        -0.88818E-10         0.00000E+00
    0.17546E-07        -0.94084E-10         0.00000E+00
    0.17544E-07        -0.95801E-10         0.00000E+00
    0.17542E-07        -0.94385E-10         0.00000E+00
    0.17540E-07        -0.90140E-10         0.00000E+00
    0.17538E-07        -0.83280E-10         0.00000E+00
    0.17536E-07        -0.73942E-10         0.00000E+00
    0.17534E-07        -0.62185E-10         0.00000E+00
    0.17533E-07        -0.47973E-10         0.00000E+00
    0.17532E-07        -0.31156E-10         0.00000E+00
    0.17532E-07        -0.11435E-10         0.00000E+00
    0.17696E-07        -0.16029E-10         0.00000E+00
    0.17695E-07        -0.42108E-10         0.00000E+00
    0.17692E-07        -0.61257E-10         0.00000E+00
    0.17688E-07        -0.74852E-10         0.00000E+00
    0.17683E-07        -0.83871E-10         0.00000E+00
    0.17678E-07        -0.89007E-10         0.00000E+00
    0.17673E-07        -0.90765E-10         0.00000E+00
    0.17667E-07        -0.89518E-10         0.00000E+00
    0.17662E-07        -0.85545E-10         0.00000E+00
    0.17657E-07        -0.79053E-10         0.00000E+00
    0.17653E-07        -0.70180E-10         0.00000E+00
    0.17649E-07        -0.58996E-10         0.00000E+00
    0.17646E-07        -0.45486E-10         0.00000E+00
    0.17644E-07        -0.29523E-10         0.00000E+00
    0.17643E-07        -0.10830E-10         0.00000E+00
    0.17833E-07        -0.14265E-10         0.00000E+00
    0.17832E-07        -0.37621E-10         0.00000E+00
    0.17827E-07        -0.54964E-10         0.00000E+00
    0.17821E-07        -0.67453E-10         0.00000E+00
    0.17814E-07        -0.75873E-10         0.00000E+00
    0.17806E-07        -0.80776E-10         0.00000E+00
    0.17798E-07        -0.82571E-10         0.00000E+00
    0.17790E-07        -0.81570E-10         0.00000E+00
    0.17782E-07        -0.78018E-10         0.00000E+00
    0.17775E-07        -0.72109E-10         0.00000E+00
    0.17768E-07        -0.63981E-10         0.00000E+00
    0.17762E-07        -0.53721E-10         0.00000E+00
    0.17758E-07        -0.41347E-10         0.00000E+00
    0.17755E-07        -0.26782E-10         0.00000E+00
    0.17753E-07        -0.98005E-11         0.00000E+00
    0.17960E-07        -0.11888E-10         0.00000E+00
    0.17958E-07        -0.31622E-10         0.00000E+00
    0.17952E-07        -0.46598E-10         0.00000E+00
    0.17944E-07        -0.57634E-10         0.00000E+00
    0.17935E-07        -0.65247E-10         0.00000E+00
    0.17925E-07        -0.69807E-10         0.00000E+00
    0.17914E-07        -0.71608E-10         0.00000E+00
    0.17904E-07        -0.70898E-10         0.00000E+00
    0.17894E-07        -0.67885E-10         0.00000E+00
    0.17884E-07        -0.62741E-10         0.00000E+00
    0.17876E-07        -0.55605E-10         0.00000E+00
    0.17868E-07        -0.46580E-10         0.00000E+00
    0.17862E-07        -0.35726E-10         0.00000E+00
    0.17858E-07        -0.23035E-10         0.00000E+00
    0.17856E-07        -0.83779E-11         0.00000E+00
    0.18069E-07        -0.90001E-11         0.00000E+00
    0.18067E-07        -0.24429E-10         0.00000E+00
    0.18060E-07        -0.36632E-10         0.00000E+00
    0.18052E-07        -0.45937E-10         0.00000E+00
    0.18041E-07        -0.52534E-10         0.00000E+00
    0.18029E-07        -0.56606E-10         0.00000E+00
    0.18017E-07        -0.58341E-10         0.00000E+00
    0.18005E-07        -0.57925E-10         0.00000E+00
    0.17993E-07        -0.55530E-10         0.00000E+00
    0.17981E-07        -0.51305E-10         0.00000E+00
    0.17971E-07        -0.45381E-10         0.00000E+00
    0.17962E-07        -0.37867E-10         0.00000E+00
    0.17955E-07        -0.28857E-10         0.00000E+00
    0.17950E-07        -0.18432E-10         0.00000E+00
    0.17948E-07        -0.66074E-11         0.00000E+00
    0.18157E-07        -0.57577E-11         0.00000E+00
    0.18155E-07        -0.16521E-10         0.00000E+00
    0.18149E-07        -0.25719E-10         0.00000E+00
    0.18140E-07        -0.33031E-10         0.00000E+00
    0.18128E-07        -0.38353E-10         0.00000E+00
    0.18115E-07        -0.41721E-10         0.00000E+00
    0.18102E-07        -0.43251E-10         0.00000E+00
    0.18088E-07        -0.43081E-10         0.00000E+00
    0.18075E-07        -0.41349E-10         0.00000E+00
    0.18062E-07        -0.38176E-10         0.00000E+00
    0.18050E-07        -0.33669E-10         0.00000E+00
    0.18040E-07        -0.27926E-10         0.00000E+00
    0.18033E-07        -0.21055E-10         0.00000E+00
    0.18027E-07        -0.13185E-10         0.00000E+00
    0.18025E-07        -0.45537E-11         0.00000E+00
    0.18220E-07        -0.24397E-11         0.00000E+00
    0.18219E-07        -0.87258E-11         0.00000E+00
    0.18214E-07        -0.14727E-10         0.00000E+00
    0.18205E-07        -0.19667E-10         0.00000E+00
    0.18194E-07        -0.23308E-10         0.00000E+00
    0.18180E-07        -0.25642E-10         0.00000E+00
    0.18166E-07        -0.26750E-10         0.00000E+00
    0.18151E-07        -0.26732E-10         0.00000E+00
    0.18136E-07        -0.25684E-10         0.00000E+00
    0.18122E-07        -0.23687E-10         0.00000E+00
    0.18110E-07        -0.20813E-10         0.00000E+00
    0.18099E-07        -0.17124E-10         0.00000E+00
    0.18091E-07        -0.12701E-10         0.00000E+00
    0.18086E-07        -0.76757E-11         0.00000E+00
    0.18084E-07        -0.22957E-11         0.00000E+00
    0.18255E-07        -0.40402E-12         0.00000E+00
    0.18258E-07        -0.24957E-11         0.00000E+00
    0.18255E-07        -0.46672E-11         0.00000E+00
    0.18247E-07        -0.64834E-11         0.00000E+00
    0.18236E-07        -0.78196E-11         0.00000E+00
    0.18222E-07        -0.86791E-11         0.00000E+00
    0.18207E-07        -0.90959E-11         0.00000E+00
    0.18191E-07        -0.91101E-11         0.00000E+00
    0.18175E-07        -0.87581E-11         0.00000E+00
    0.18160E-07        -0.80699E-11         0.00000E+00
    0.18146E-07        -0.70691E-11         0.00000E+00
    0.18135E-07        -0.57768E-11         0.00000E+00
    0.18127E-07        -0.42182E-11         0.00000E+00
    0.18122E-07        -0.24598E-11         0.00000E+00
    0.18122E-07        -0.56292E-12         0.00000E+00
POINT_DATA        496
VECTORS vDarcyNodal double 
    0.19204E-07         0.00000E+00         0.00000E+00
    0.19203E-07         0.00000E+00         0.00000E+00
    0.19198E-07         0.00000E+00         0.00000E+00
    0.19191E-07         0.00000E+00         0.00000E+00
    0.19181E-07         0.00000E+00         0.00000E+00
    0.19169E-07         0.00000E+00         0.00000E+00
    0.19156E-07         0.00000E+00         0.00000E+00
    0.19142E-07         0.00000E+00         0.00000E+00
    0.19129E-07         0.00000E+00         0.00000E+00
    0.19116E-07         0.00000E+00         0.00000E+00
    0.19104E-07         0.00000E+00         0.00000E+00
    0.19094E-07         0.00000E+00         0.00000E+00
    0.19085E-07        -0.66637E-22         0.00000E+00
    0.19080E-07        -0.73615E-26         0.00000E+00
    0.19076E-07         0.66630E-22         0.00000E+00
    0.19076E-07         0.00000E+00         0.00000E+00
    0.19185E-07        -0.30835E-11         0.00000E+00
    0.19182E-07        -0.26349E-11         0.00000E+00
    0.19174E-07        -0.67747E-13         0.00000E+00
    0.19165E-07         0.39782E-11         0.00000E+00
    0.19154E-07         0.72750E-11         0.00000E+00
    0.19142E-07         0.95213E-11         0.00000E+00
    0.19128E-07         0.10845E-10         0.00000E+00
    0.19115E-07         0.11368E-10         0.00000E+00
    0.19101E-07         0.11203E-10         0.00000E+00
    0.19089E-07         0.10434E-10         0.00000E+00
    0.19077E-07         0.91185E-11         0.00000E+00
    0.19067E-07         0.72968E-11         0.00000E+00
    0.19058E-07         0.50174E-11         0.00000E+00
    0.19052E-07         0.23978E-11         0.00000E+00
    0.19047E-07         0.50886E-15         0.00000E+00
    0.19046E-07        -0.10234E-11         0.00000E+00
    0.19121E-07         0.50913E-12         0.00000E+00
    0.19116E-07         0.22716E-11         0.00000E+00
    0.19105E-07         0.66996E-11         0.00000E+00
    0.19093E-07         0.11963E-10         0.00000E+00
    0.19080E-07         0.16582E-10         0.00000E+00
    0.19067E-07         0.19902E-10         0.00000E+00
    0.19054E-07         0.21822E-10         0.00000E+00
    0.19041E-07         0.22466E-10         0.00000E+00
    0.19028E-07         0.21983E-10         0.00000E+00
    0.19016E-07         0.20506E-10         0.00000E+00
    0.19004E-07         0.18136E-10         0.00000E+00
    0.18994E-07         0.14964E-10         0.00000E+00
    0.18986E-07         0.11107E-10         0.00000E+00
    0.18978E-07         0.68405E-11         0.00000E+00
    0.18973E-07         0.28815E-11         0.00000E+00
    0.18970E-07         0.11075E-11         0.00000E+00
    0.19010E-07         0.42593E-11         0.00000E+00
    0.19005E-07         0.81538E-11         0.00000E+00
    0.18994E-07         0.15566E-10         0.00000E+00
    0.18981E-07         0.22032E-10         0.00000E+00
    0.18968E-07         0.27167E-10         0.00000E+00
    0.18955E-07         0.30714E-10         0.00000E+00
    0.18942E-07         0.32633E-10         0.00000E+00
    0.18930E-07         0.33039E-10         0.00000E+00
    0.18918E-07         0.32098E-10         0.00000E+00
    0.18907E-07         0.29963E-10         0.00000E+00
    0.18896E-07         0.26762E-10         0.00000E+00
    0.18887E-07         0.22606E-10         0.00000E+00
    0.18879E-07         0.17629E-10         0.00000E+00
    0.18871E-07         0.12051E-10         0.00000E+00
    0.18866E-07         0.61636E-11         0.00000E+00
    0.18863E-07         0.31790E-11         0.00000E+00
    0.18859E-07         0.77468E-11         0.00000E+00
    0.18854E-07         0.13846E-10         0.00000E+00
    0.18844E-07         0.24437E-10         0.00000E+00
    0.18832E-07         0.32185E-10         0.00000E+00
    0.18820E-07         0.37625E-10         0.00000E+00
    0.18808E-07         0.41022E-10         0.00000E+00
    0.18797E-07         0.42587E-10         0.00000E+00
    0.18786E-07         0.42530E-10         0.00000E+00
    0.18776E-07         0.41050E-10         0.00000E+00
    0.18767E-07         0.38319E-10         0.00000E+00
    0.18758E-07         0.34467E-10         0.00000E+00
    0.18750E-07         0.29585E-10         0.00000E+00
    0.18742E-07         0.23743E-10         0.00000E+00
    0.18736E-07         0.16975E-10         0.00000E+00
    0.18731E-07         0.91939E-11         0.00000E+00
    0.18729E-07         0.50278E-11         0.00000E+00
    0.18674E-07         0.10643E-10         0.00000E+00
    0.18671E-07         0.18667E-10         0.00000E+00
    0.18663E-07         0.32085E-10         0.00000E+00
    0.18653E-07         0.41005E-10         0.00000E+00
    0.18643E-07         0.46647E-10         0.00000E+00
    0.18634E-07         0.49757E-10         0.00000E+00
    0.18625E-07         0.50831E-10         0.00000E+00
    0.18616E-07         0.50228E-10         0.00000E+00
    0.18608E-07         0.48213E-10         0.00000E+00
    0.18601E-07         0.44978E-10         0.00000E+00
    0.18594E-07         0.40639E-10         0.00000E+00
    0.18588E-07         0.35240E-10         0.00000E+00
    0.18583E-07         0.28747E-10         0.00000E+00
    0.18578E-07         0.21000E-10         0.00000E+00
    0.18574E-07         0.11637E-10         0.00000E+00
    0.18572E-07         0.64897E-11         0.00000E+00
    0.18466E-07         0.12750E-10         0.00000E+00
    0.18463E-07         0.22202E-10         0.00000E+00
    0.18458E-07         0.37726E-10         0.00000E+00
    0.18451E-07         0.47501E-10         0.00000E+00
    0.18444E-07         0.53214E-10         0.00000E+00
    0.18438E-07         0.55981E-10         0.00000E+00
    0.18432E-07         0.56551E-10         0.00000E+00
    0.18426E-07         0.55431E-10         0.00000E+00
    0.18421E-07         0.52961E-10         0.00000E+00
    0.18417E-07         0.49355E-10         0.00000E+00
    0.18413E-07         0.44712E-10         0.00000E+00
    0.18409E-07         0.39018E-10         0.00000E+00
    0.18406E-07         0.32133E-10         0.00000E+00
    0.18402E-07         0.23745E-10         0.00000E+00
    0.18400E-07         0.13303E-10         0.00000E+00
    0.18399E-07         0.74813E-11         0.00000E+00
    0.18243E-07         0.13949E-10         0.00000E+00
    0.18241E-07         0.24207E-10         0.00000E+00
    0.18238E-07         0.40885E-10         0.00000E+00
    0.18235E-07         0.51038E-10         0.00000E+00
    0.18232E-07         0.56624E-10         0.00000E+00
    0.18229E-07         0.59004E-10         0.00000E+00
    0.18226E-07         0.59108E-10         0.00000E+00
    0.18224E-07         0.57566E-10         0.00000E+00
    0.18223E-07         0.54780E-10         0.00000E+00
    0.18222E-07         0.50981E-10         0.00000E+00
    0.18221E-07         0.46250E-10         0.00000E+00
    0.18220E-07         0.40522E-10         0.00000E+00
    0.18218E-07         0.33573E-10         0.00000E+00
    0.18217E-07         0.24982E-10         0.00000E+00
    0.18216E-07         0.14084E-10         0.00000E+00
    0.18216E-07         0.79570E-11         0.00000E+00
    0.18014E-07         0.14197E-10         0.00000E+00
    0.18014E-07         0.24580E-10         0.00000E+00
    0.18014E-07         0.41340E-10         0.00000E+00
    0.18014E-07         0.51287E-10         0.00000E+00
    0.18014E-07         0.56485E-10         0.00000E+00
    0.18015E-07         0.58415E-10         0.00000E+00
    0.18017E-07         0.58109E-10         0.00000E+00
    0.18019E-07         0.56270E-10         0.00000E+00
    0.18021E-07         0.53341E-10         0.00000E+00
    0.18023E-07         0.49560E-10         0.00000E+00
    0.18025E-07         0.44993E-10         0.00000E+00
    0.18027E-07         0.39532E-10         0.00000E+00
    0.18028E-07         0.32898E-10         0.00000E+00
    0.18029E-07         0.24607E-10         0.00000E+00
    0.18029E-07         0.13939E-10         0.00000E+00
    0.18029E-07         0.79039E-11         0.00000E+00
    0.17791E-07         0.13512E-10         0.00000E+00
    0.17791E-07         0.23333E-10         0.00000E+00
    0.17793E-07         0.39078E-10         0.00000E+00
    0.17797E-07         0.48191E-10         0.00000E+00
    0.17801E-07         0.52700E-10         0.00000E+00
    0.17806E-07         0.54092E-10         0.00000E+00
    0.17811E-07         0.53427E-10         0.00000E+00
    0.17817E-07         0.51424E-10         0.00000E+00
    0.17823E-07         0.48537E-10         0.00000E+00
    0.17828E-07         0.45004E-10         0.00000E+00
    0.17833E-07         0.40869E-10         0.00000E+00
    0.17838E-07         0.36002E-10         0.00000E+00
    0.17841E-07         0.30089E-10         0.00000E+00
    0.17844E-07         0.22625E-10         0.00000E+00
    0.17846E-07         0.12883E-10         0.00000E+00
    0.17847E-07         0.73377E-11         0.00000E+00
    0.17580E-07         0.11965E-10         0.00000E+00
    0.17582E-07         0.20581E-10         0.00000E+00
    0.17586E-07         0.34265E-10         0.00000E+00
    0.17592E-07         0.41923E-10         0.00000E+00
    0.17600E-07         0.45430E-10         0.00000E+00
    0.17608E-07         0.46185E-10         0.00000E+00
    0.17617E-07         0.45195E-10         0.00000E+00
    0.17627E-07         0.43153E-10         0.00000E+00
    0.17636E-07         0.40493E-10         0.00000E+00
    0.17644E-07         0.37433E-10         0.00000E+00
    0.17652E-07         0.34001E-10         0.00000E+00
    0.17659E-07         0.30051E-10         0.00000E+00
    0.17665E-07         0.25263E-10         0.00000E+00
    0.17670E-07         0.19138E-10         0.00000E+00
    0.17673E-07         0.10983E-10         0.00000E+00
    0.17674E-07         0.63001E-11         0.00000E+00
    0.17391E-07         0.96730E-11         0.00000E+00
    0.17394E-07         0.16517E-10         0.00000E+00
    0.17400E-07         0.27216E-10         0.00000E+00
    0.17409E-07         0.32856E-10         0.00000E+00
    0.17419E-07         0.35066E-10         0.00000E+00
    0.17431E-07         0.35076E-10         0.00000E+00
    0.17443E-07         0.33784E-10         0.00000E+00
    0.17455E-07         0.31811E-10         0.00000E+00
    0.17467E-07         0.29542E-10         0.00000E+00
    0.17478E-07         0.27162E-10         0.00000E+00
    0.17489E-07         0.24683E-10         0.00000E+00
    0.17498E-07         0.21950E-10         0.00000E+00
    0.17506E-07         0.18654E-10         0.00000E+00
    0.17512E-07         0.14330E-10         0.00000E+00
    0.17516E-07         0.83484E-11         0.00000E+00
    0.17518E-07         0.48549E-11         0.00000E+00
    0.17231E-07         0.67846E-11         0.00000E+00
    0.17233E-07         0.11400E-10         0.00000E+00
    0.17241E-07         0.18360E-10         0.00000E+00
    0.17252E-07         0.21515E-10         0.00000E+00
    0.17265E-07         0.22174E-10         0.00000E+00
    0.17279E-07         0.21343E-10         0.00000E+00
    0.17293E-07         0.19762E-10         0.00000E+00
    0.17308E-07         0.17943E-10         0.00000E+00
    0.17322E-07         0.16200E-10         0.00000E+00
    0.17335E-07         0.14675E-10         0.00000E+00
    0.17348E-07         0.13356E-10         0.00000E+00
    0.17359E-07         0.12092E-10         0.00000E+00
    0.17368E-07         0.10596E-10         0.00000E+00
    0.17376E-07         0.84533E-11         0.00000E+00
    0.17380E-07         0.51224E-11         0.00000E+00
    0.17382E-07         0.30841E-11         0.00000E+00
    0.17103E-07         0.34732E-11         0.00000E+00
    0.17106E-07         0.55316E-11         0.00000E+00
    0.17115E-07         0.82085E-11         0.00000E+00
    0.17127E-07         0.85334E-11         0.00000E+00
    0.17141E-07         0.74533E-11         0.00000E+00
    0.17157E-07         0.57069E-11         0.00000E+00
    0.17173E-07         0.38431E-11         0.00000E+00
    0.17189E-07         0.22397E-11         0.00000E+00
    0.17205E-07         0.11221E-11         0.00000E+00
    0.17220E-07         0.57907E-12         0.00000E+00
    0.17234E-07         0.57610E-12         0.00000E+00
    0.17246E-07         0.96547E-12         0.00000E+00
    0.17256E-07         0.14944E-11         0.00000E+00
    0.17264E-07         0.18119E-11         0.00000E+00
    0.17270E-07         0.14752E-11         0.00000E+00
    0.17272E-07         0.10825E-11         0.00000E+00
    0.17012E-07        -0.75510E-13         0.00000E+00
    0.17015E-07        -0.76125E-12         0.00000E+00
    0.17024E-07        -0.26798E-11         0.00000E+00
    0.17037E-07        -0.53846E-11         0.00000E+00
    0.17052E-07        -0.83144E-11         0.00000E+00
    0.17069E-07        -0.11019E-10         0.00000E+00
    0.17086E-07        -0.13161E-10         0.00000E+00
    0.17103E-07        -0.14512E-10         0.00000E+00
    0.17119E-07        -0.14945E-10         0.00000E+00
    0.17135E-07        -0.14431E-10         0.00000E+00
    0.17149E-07        -0.13028E-10         0.00000E+00
    0.17162E-07        -0.10878E-10         0.00000E+00
    0.17173E-07        -0.81955E-11         0.00000E+00
    0.17181E-07        -0.52601E-11         0.00000E+00
    0.17187E-07        -0.24078E-11         0.00000E+00
    0.17189E-07        -0.10475E-11         0.00000E+00
    0.16959E-07        -0.36730E-11         0.00000E+00
    0.16963E-07        -0.71451E-11         0.00000E+00
    0.16972E-07        -0.13731E-10         0.00000E+00
    0.16984E-07        -0.19512E-10         0.00000E+00
    0.16999E-07        -0.24315E-10         0.00000E+00
    0.17016E-07        -0.27983E-10         0.00000E+00
    0.17033E-07        -0.30396E-10         0.00000E+00
    0.17050E-07        -0.31479E-10         0.00000E+00
    0.17066E-07        -0.31209E-10         0.00000E+00
    0.17082E-07        -0.29619E-10         0.00000E+00
    0.17096E-07        -0.26792E-10         0.00000E+00
    0.17109E-07        -0.22861E-10         0.00000E+00
    0.17120E-07        -0.17999E-10         0.00000E+00
    0.17128E-07        -0.12415E-10         0.00000E+00
    0.17134E-07        -0.63353E-11         0.00000E+00
    0.17136E-07        -0.32008E-11         0.00000E+00
    0.16945E-07        -0.71375E-11         0.00000E+00
    0.16948E-07        -0.13297E-10         0.00000E+00
    0.16957E-07        -0.24386E-10         0.00000E+00
    0.16969E-07        -0.33137E-10         0.00000E+00
    0.16983E-07        -0.39746E-10         0.00000E+00
    0.16999E-07        -0.44341E-10         0.00000E+00
    0.17015E-07        -0.47011E-10         0.00000E+00
    0.17031E-07        -0.47831E-10         0.00000E+00
    0.17046E-07        -0.46880E-10         0.00000E+00
    0.17061E-07        -0.44252E-10         0.00000E+00
    0.17075E-07        -0.40052E-10         0.00000E+00
    0.17087E-07        -0.34406E-10         0.00000E+00
    0.17097E-07        -0.27447E-10         0.00000E+00
    0.17105E-07        -0.19310E-10         0.00000E+00
    0.17110E-07        -0.10120E-10         0.00000E+00
    0.17112E-07        -0.52754E-11         0.00000E+00
    0.16967E-07        -0.10302E-10         0.00000E+00
    0.16970E-07        -0.18918E-10         0.00000E+00
    0.16978E-07        -0.34126E-10         0.00000E+00
    0.16989E-07        -0.45595E-10         0.00000E+00
    0.17001E-07        -0.53858E-10         0.00000E+00
    0.17015E-07        -0.59301E-10         0.00000E+00
    0.17030E-07        -0.62205E-10         0.00000E+00
    0.17044E-07        -0.62785E-10         0.00000E+00
    0.17058E-07        -0.61214E-10         0.00000E+00
    0.17071E-07        -0.57637E-10         0.00000E+00
    0.17084E-07        -0.52184E-10         0.00000E+00
    0.17094E-07        -0.44972E-10         0.00000E+00
    0.17104E-07        -0.36096E-10         0.00000E+00
    0.17111E-07        -0.25625E-10         0.00000E+00
    0.17116E-07        -0.13587E-10         0.00000E+00
    0.17118E-07        -0.71759E-11         0.00000E+00
    0.17023E-07        -0.13020E-10         0.00000E+00
    0.17025E-07        -0.23748E-10         0.00000E+00
    0.17032E-07        -0.42496E-10         0.00000E+00
    0.17041E-07        -0.56301E-10         0.00000E+00
    0.17052E-07        -0.65987E-10         0.00000E+00
    0.17064E-07        -0.72160E-10         0.00000E+00
    0.17076E-07        -0.75269E-10         0.00000E+00
    0.17088E-07        -0.75646E-10         0.00000E+00
    0.17100E-07        -0.73544E-10         0.00000E+00
    0.17111E-07        -0.69156E-10         0.00000E+00
    0.17121E-07        -0.62630E-10         0.00000E+00
    0.17130E-07        -0.54074E-10         0.00000E+00
    0.17138E-07        -0.43551E-10         0.00000E+00
    0.17144E-07        -0.31073E-10         0.00000E+00
    0.17148E-07        -0.16580E-10         0.00000E+00
    0.17150E-07        -0.88180E-11         0.00000E+00
    0.17108E-07        -0.15171E-10         0.00000E+00
    0.17110E-07        -0.27570E-10         0.00000E+00
    0.17115E-07        -0.49117E-10         0.00000E+00
    0.17122E-07        -0.64769E-10         0.00000E+00
    0.17131E-07        -0.75581E-10         0.00000E+00
    0.17140E-07        -0.82336E-10         0.00000E+00
    0.17149E-07        -0.85611E-10         0.00000E+00
    0.17158E-07        -0.85834E-10         0.00000E+00
    0.17167E-07        -0.83318E-10         0.00000E+00
    0.17176E-07        -0.78293E-10         0.00000E+00
    0.17184E-07        -0.70923E-10         0.00000E+00
    0.17191E-07        -0.61308E-10         0.00000E+00
    0.17197E-07        -0.49484E-10         0.00000E+00
    0.17202E-07        -0.35413E-10         0.00000E+00
    0.17205E-07        -0.18969E-10         0.00000E+00
    0.17206E-07        -0.10131E-10         0.00000E+00
    0.17217E-07        -0.16665E-10         0.00000E+00
    0.17218E-07        -0.30220E-10         0.00000E+00
    0.17222E-07        -0.53704E-10         0.00000E+00
    0.17227E-07        -0.70633E-10         0.00000E+00
    0.17232E-07        -0.82225E-10         0.00000E+00
    0.17238E-07        -0.89386E-10         0.00000E+00
    0.17244E-07        -0.92785E-10         0.00000E+00
    0.17251E-07        -0.92908E-10         0.00000E+00
    0.17257E-07        -0.90114E-10         0.00000E+00
    0.17262E-07        -0.84656E-10         0.00000E+00
    0.17268E-07        -0.76706E-10         0.00000E+00
    0.17272E-07        -0.66361E-10         0.00000E+00
    0.17276E-07        -0.53637E-10         0.00000E+00
    0.17279E-07        -0.38462E-10         0.00000E+00
    0.17282E-07        -0.20653E-10         0.00000E+00
    0.17283E-07        -0.11060E-10         0.00000E+00
    0.17344E-07        -0.17440E-10         0.00000E+00
    0.17344E-07        -0.31590E-10         0.00000E+00
    0.17346E-07        -0.56069E-10         0.00000E+00
    0.17349E-07        -0.73651E-10         0.00000E+00
    0.17351E-07        -0.85647E-10         0.00000E+00
    0.17354E-07        -0.93027E-10         0.00000E+00
    0.17357E-07        -0.96501E-10         0.00000E+00
    0.17360E-07        -0.96587E-10         0.00000E+00
    0.17363E-07        -0.93660E-10         0.00000E+00
    0.17365E-07        -0.87988E-10         0.00000E+00
    0.17368E-07        -0.79746E-10         0.00000E+00
    0.17370E-07        -0.69028E-10         0.00000E+00
    0.17372E-07        -0.55841E-10         0.00000E+00
    0.17373E-07        -0.40091E-10         0.00000E+00
    0.17374E-07        -0.21561E-10         0.00000E+00
    0.17375E-07        -0.11566E-10         0.00000E+00
    0.17482E-07        -0.17467E-10         0.00000E+00
    0.17482E-07        -0.31630E-10         0.00000E+00
    0.17482E-07        -0.56125E-10         0.00000E+00
    0.17482E-07        -0.73718E-10         0.00000E+00
    0.17482E-07        -0.85732E-10         0.00000E+00
    0.17481E-07        -0.93138E-10         0.00000E+00
    0.17481E-07        -0.96640E-10         0.00000E+00
    0.17480E-07        -0.96749E-10         0.00000E+00
    0.17480E-07        -0.93839E-10         0.00000E+00
    0.17479E-07        -0.88175E-10         0.00000E+00
    0.17479E-07        -0.79934E-10         0.00000E+00
    0.17479E-07        -0.69210E-10         0.00000E+00
    0.17478E-07        -0.56011E-10         0.00000E+00
    0.17478E-07        -0.40236E-10         0.00000E+00
    0.17478E-07        -0.21657E-10         0.00000E+00
    0.17478E-07        -0.11628E-10         0.00000E+00
    0.17625E-07        -0.16747E-10         0.00000E+00
    0.17624E-07        -0.30344E-10         0.00000E+00
    0.17623E-07        -0.53888E-10         0.00000E+00
    0.17621E-07        -0.70862E-10         0.00000E+00
    0.17617E-07        -0.82520E-10         0.00000E+00
    0.17614E-07        -0.89765E-10         0.00000E+00
    0.17610E-07        -0.93246E-10         0.00000E+00
    0.17606E-07        -0.93438E-10         0.00000E+00
    0.17603E-07        -0.90686E-10         0.00000E+00
    0.17599E-07        -0.85245E-10         0.00000E+00
    0.17596E-07        -0.77288E-10         0.00000E+00
    0.17593E-07        -0.66917E-10         0.00000E+00
    0.17591E-07        -0.54147E-10         0.00000E+00
    0.17589E-07        -0.38893E-10         0.00000E+00
    0.17588E-07        -0.20934E-10         0.00000E+00
    0.17588E-07        -0.11242E-10         0.00000E+00
    0.17765E-07        -0.15312E-10         0.00000E+00
    0.17765E-07        -0.27793E-10         0.00000E+00
    0.17762E-07        -0.49477E-10         0.00000E+00
    0.17757E-07        -0.65247E-10         0.00000E+00
    0.17752E-07        -0.76204E-10         0.00000E+00
    0.17745E-07        -0.83113E-10         0.00000E+00
    0.17739E-07        -0.86526E-10         0.00000E+00
    0.17732E-07        -0.86845E-10         0.00000E+00
    0.17725E-07        -0.84378E-10         0.00000E+00
    0.17719E-07        -0.79355E-10         0.00000E+00
    0.17713E-07        -0.71946E-10         0.00000E+00
    0.17708E-07        -0.62260E-10         0.00000E+00
    0.17704E-07        -0.50335E-10         0.00000E+00
    0.17700E-07        -0.36116E-10         0.00000E+00
    0.17698E-07        -0.19419E-10         0.00000E+00
    0.17698E-07        -0.10418E-10         0.00000E+00
    0.17898E-07        -0.13219E-10         0.00000E+00
    0.17897E-07        -0.24093E-10         0.00000E+00
    0.17893E-07        -0.43109E-10         0.00000E+00
    0.17886E-07        -0.57170E-10         0.00000E+00
    0.17879E-07        -0.67123E-10         0.00000E+00
    0.17870E-07        -0.73537E-10         0.00000E+00
    0.17861E-07        -0.76823E-10         0.00000E+00
    0.17851E-07        -0.77296E-10         0.00000E+00
    0.17842E-07        -0.75212E-10         0.00000E+00
    0.17833E-07        -0.70774E-10         0.00000E+00
    0.17825E-07        -0.64144E-10         0.00000E+00
    0.17818E-07        -0.55442E-10         0.00000E+00
    0.17812E-07        -0.44733E-10         0.00000E+00
    0.17808E-07        -0.32013E-10         0.00000E+00
    0.17805E-07        -0.17164E-10         0.00000E+00
    0.17804E-07        -0.91827E-11         0.00000E+00
    0.18016E-07        -0.10556E-10         0.00000E+00
    0.18014E-07        -0.19417E-10         0.00000E+00
    0.18010E-07        -0.35112E-10         0.00000E+00
    0.18002E-07        -0.47063E-10         0.00000E+00
    0.17993E-07        -0.55759E-10         0.00000E+00
    0.17983E-07        -0.61517E-10         0.00000E+00
    0.17971E-07        -0.64593E-10         0.00000E+00
    0.17960E-07        -0.65211E-10         0.00000E+00
    0.17949E-07        -0.63572E-10         0.00000E+00
    0.17938E-07        -0.59853E-10         0.00000E+00
    0.17928E-07        -0.54202E-10         0.00000E+00
    0.17919E-07        -0.46744E-10         0.00000E+00
    0.17911E-07        -0.37574E-10         0.00000E+00
    0.17906E-07        -0.26748E-10         0.00000E+00
    0.17902E-07        -0.14250E-10         0.00000E+00
    0.17901E-07        -0.75732E-11         0.00000E+00
    0.18115E-07        -0.74443E-11         0.00000E+00
    0.18113E-07        -0.14013E-10         0.00000E+00
    0.18109E-07        -0.25950E-10         0.00000E+00
    0.18101E-07        -0.35507E-10         0.00000E+00
    0.18090E-07        -0.42713E-10         0.00000E+00
    0.18079E-07        -0.47624E-10         0.00000E+00
    0.18066E-07        -0.50356E-10         0.00000E+00
    0.18053E-07        -0.51057E-10         0.00000E+00
    0.18040E-07        -0.49884E-10         0.00000E+00
    0.18027E-07        -0.46984E-10         0.00000E+00
    0.18016E-07        -0.42485E-10         0.00000E+00
    0.18006E-07        -0.36505E-10         0.00000E+00
    0.17997E-07        -0.29152E-10         0.00000E+00
    0.17991E-07        -0.20542E-10         0.00000E+00
    0.17987E-07        -0.10790E-10         0.00000E+00
    0.17985E-07        -0.56418E-11         0.00000E+00
    0.18190E-07        -0.40717E-11         0.00000E+00
    0.18189E-07        -0.82663E-11         0.00000E+00
    0.18185E-07        -0.16291E-10         0.00000E+00
    0.18178E-07        -0.23244E-10         0.00000E+00
    0.18167E-07        -0.28673E-10         0.00000E+00
    0.18155E-07        -0.32452E-10         0.00000E+00
    0.18141E-07        -0.34618E-10         0.00000E+00
    0.18127E-07        -0.35276E-10         0.00000E+00
    0.18112E-07        -0.34548E-10         0.00000E+00
    0.18098E-07        -0.32543E-10         0.00000E+00
    0.18086E-07        -0.29361E-10         0.00000E+00
    0.18074E-07        -0.25090E-10         0.00000E+00
    0.18065E-07        -0.19829E-10         0.00000E+00
    0.18058E-07        -0.13698E-10         0.00000E+00
    0.18055E-07        -0.69487E-11         0.00000E+00
    0.18053E-07        -0.34657E-11         0.00000E+00
    0.18238E-07        -0.80816E-12         0.00000E+00
    0.18239E-07        -0.29000E-11         0.00000E+00
    0.18237E-07        -0.71636E-11         0.00000E+00
    0.18231E-07        -0.11152E-10         0.00000E+00
    0.18221E-07        -0.14304E-10         0.00000E+00
    0.18209E-07        -0.16500E-10         0.00000E+00
    0.18194E-07        -0.17777E-10         0.00000E+00
    0.18179E-07        -0.18208E-10         0.00000E+00
    0.18163E-07        -0.17870E-10         0.00000E+00
    0.18148E-07        -0.16829E-10         0.00000E+00
    0.18134E-07        -0.15140E-10         0.00000E+00
    0.18122E-07        -0.12847E-10         0.00000E+00
    0.18112E-07        -0.99958E-11         0.00000E+00
    0.18106E-07        -0.66785E-11         0.00000E+00
    0.18103E-07        -0.30230E-11         0.00000E+00
    0.18102E-07        -0.11259E-11         0.00000E+00
    0.18255E-07         0.00000E+00         0.00000E+00
    0.18257E-07         0.00000E+00         0.00000E+00
    0.18257E-07        -0.49665E-22         0.00000E+00
    0.18252E-07         0.97477E-26         0.00000E+00
    0.18242E-07         0.53814E-22         0.00000E+00
    0.18230E-07         0.00000E+00         0.00000E+00
    0.18215E-07         0.00000E+00         0.00000E+00
    0.18199E-07        -0.49703E-22         0.00000E+00
    0.18183E-07        -0.49703E-22         0.00000E+00
    0.18167E-07         0.49713E-22         0.00000E+00
    0.18153E-07         0.53856E-22         0.00000E+00
    0.18140E-07        -0.53866E-22         0.00000E+00
    0.18130E-07        -0.41391E-23         0.00000E+00
    0.18124E-07         0.53872E-22         0.00000E+00
    0.18121E-07         0.82888E-23         0.00000E+00
    0.18121E-07         0.00000E+00         0.00000E+00
CELL_DATA        450
TENSORS stressef double 
    0.44781E+08        -0.95009E+05         0.00000E+00
   -0.95009E+05         0.23961E+08         0.00000E+00
    0.00000E+00         0.00000E+00         0.17281E+08
 
    0.42324E+08        -0.45002E+06         0.00000E+00
   -0.45002E+06         0.23189E+08         0.00000E+00
    0.00000E+00         0.00000E+00         0.13615E+08
 
    0.37843E+08        -0.63234E+06         0.00000E+00
   -0.63234E+06         0.22157E+08         0.00000E+00
    0.00000E+00         0.00000E+00         0.12000E+08
 
    0.34461E+08        -0.52101E+06         0.00000E+00
   -0.52101E+06         0.21101E+08         0.00000E+00
    0.00000E+00         0.00000E+00         0.11112E+08
 
    0.31789E+08        -0.43004E+06         0.00000E+00
   -0.43004E+06         0.20192E+08         0.00000E+00
    0.00000E+00         0.00000E+00         0.10396E+08
 
    0.29501E+08        -0.35227E+06         0.00000E+00
   -0.35227E+06         0.19431E+08         0.00000E+00
    0.00000E+00         0.00000E+00         0.97865E+07
 
    0.27448E+08        -0.27954E+06         0.00000E+00
   -0.27954E+06         0.18812E+08         0.00000E+00
    0.00000E+00         0.00000E+00         0.92520E+07
 
    0.25531E+08        -0.20687E+06         0.00000E+00
   -0.20687E+06         0.18334E+08         0.00000E+00
    0.00000E+00         0.00000E+00         0.87730E+07
 
    0.23674E+08        -0.13081E+06         0.00000E+00
   -0.13081E+06         0.18002E+08         0.00000E+00
    0.00000E+00         0.00000E+00         0.83352E+07
 
    0.21805E+08        -0.47966E+05         0.00000E+00
   -0.47966E+05         0.17828E+08         0.00000E+00
    0.00000E+00         0.00000E+00         0.79267E+07
 
    0.19851E+08         0.46167E+05         0.00000E+00
    0.46167E+05         0.17830E+08         0.00000E+00
    0.00000E+00         0.00000E+00         0.75362E+07
 
    0.17718E+08         0.15900E+06         0.00000E+00
    0.15900E+06         0.18038E+08         0.00000E+00
    0.00000E+00         0.00000E+00         0.71511E+07
 
    0.15269E+08         0.30603E+06         0.00000E+00
    0.30603E+06         0.18504E+08         0.00000E+00
    0.00000E+00         0.00000E+00         0.67545E+07
 
    0.12263E+08         0.52215E+06         0.00000E+00
    0.52215E+06         0.19332E+08         0.00000E+00
    0.00000E+00         0.00000E+00         0.63190E+07
 
    0.80118E+07         0.10349E+07         0.00000E+00
    0.10349E+07         0.20813E+08         0.00000E+00
    0.00000E+00         0.00000E+00         0.57649E+07
 
    0.41961E+08        -0.19143E+06         0.00000E+00
   -0.19143E+06         0.20500E+08         0.00000E+00
    0.00000E+00         0.00000E+00         0.12890E+08
 
    0.38747E+08        -0.10035E+07         0.00000E+00
   -0.10035E+07         0.20550E+08         0.00000E+00
    0.00000E+00         0.00000E+00         0.11859E+08
 
    0.35187E+08        -0.14549E+07         0.00000E+00
   -0.14549E+07         0.20177E+08         0.00000E+00
    0.00000E+00         0.00000E+00         0.11073E+08
 
    0.31922E+08        -0.13751E+07         0.00000E+00
   -0.13751E+07         0.19563E+08         0.00000E+00
    0.00000E+00         0.00000E+00         0.10297E+08
 
    0.29255E+08        -0.11940E+07         0.00000E+00
   -0.11940E+07         0.18891E+08         0.00000E+00
    0.00000E+00         0.00000E+00         0.96291E+07
 
    0.26966E+08        -0.10005E+07         0.00000E+00
   -0.10005E+07         0.18268E+08         0.00000E+00
    0.00000E+00         0.00000E+00         0.90467E+07
 
    0.24915E+08        -0.80198E+06         0.00000E+00
   -0.80198E+06         0.17737E+08         0.00000E+00
    0.00000E+00         0.00000E+00         0.85305E+07
 
    0.23006E+08        -0.59485E+06         0.00000E+00
   -0.59485E+06         0.17321E+08         0.00000E+00
    0.00000E+00         0.00000E+00         0.80653E+07
 
    0.21162E+08        -0.37306E+06         0.00000E+00
   -0.37306E+06         0.17034E+08         0.00000E+00
    0.00000E+00         0.00000E+00         0.76392E+07
 
    0.19313E+08        -0.12828E+06         0.00000E+00
   -0.12828E+06         0.16895E+08         0.00000E+00
    0.00000E+00         0.00000E+00         0.72417E+07
 
    0.17390E+08         0.15214E+06         0.00000E+00
    0.15214E+06         0.16926E+08         0.00000E+00
    0.00000E+00         0.00000E+00         0.68632E+07
 
    0.15307E+08         0.49020E+06         0.00000E+00
    0.49020E+06         0.17159E+08         0.00000E+00
    0.00000E+00         0.00000E+00         0.64933E+07
 
    0.12955E+08         0.92993E+06         0.00000E+00
    0.92993E+06         0.17646E+08         0.00000E+00
    0.00000E+00         0.00000E+00         0.61202E+07
 
    0.10160E+08         0.15816E+07         0.00000E+00
    0.15816E+07         0.18476E+08         0.00000E+00
    0.00000E+00         0.00000E+00         0.57272E+07
 
    0.68819E+07         0.28085E+07         0.00000E+00
    0.28085E+07         0.19775E+08         0.00000E+00
    0.00000E+00         0.00000E+00         0.53314E+07
 
    0.38553E+08        -0.45271E+06         0.00000E+00
   -0.45271E+06         0.18246E+08         0.00000E+00
    0.00000E+00         0.00000E+00         0.11360E+08
 
    0.35384E+08        -0.12605E+07         0.00000E+00
   -0.12605E+07         0.18013E+08         0.00000E+00
    0.00000E+00         0.00000E+00         0.10679E+08
 
    0.32283E+08        -0.17663E+07         0.00000E+00
   -0.17663E+07         0.17799E+08         0.00000E+00
    0.00000E+00         0.00000E+00         0.10016E+08
 
    0.29363E+08        -0.18764E+07         0.00000E+00
   -0.18764E+07         0.17517E+08         0.00000E+00
    0.00000E+00         0.00000E+00         0.93760E+07
 
    0.26786E+08        -0.17406E+07         0.00000E+00
   -0.17406E+07         0.17120E+08         0.00000E+00
    0.00000E+00         0.00000E+00         0.87811E+07
 
    0.24533E+08        -0.15074E+07         0.00000E+00
   -0.15074E+07         0.16693E+08         0.00000E+00
    0.00000E+00         0.00000E+00         0.82451E+07
 
    0.22505E+08        -0.12270E+07         0.00000E+00
   -0.12270E+07         0.16302E+08         0.00000E+00
    0.00000E+00         0.00000E+00         0.77615E+07
 
    0.20620E+08        -0.91202E+06         0.00000E+00
   -0.91202E+06         0.15988E+08         0.00000E+00
    0.00000E+00         0.00000E+00         0.73216E+07
 
    0.18806E+08        -0.56144E+06         0.00000E+00
   -0.56144E+06         0.15780E+08         0.00000E+00
    0.00000E+00         0.00000E+00         0.69170E+07
 
    0.16999E+08        -0.16591E+06         0.00000E+00
   -0.16591E+06         0.15701E+08         0.00000E+00
    0.00000E+00         0.00000E+00         0.65400E+07
 
    0.15138E+08         0.29281E+06         0.00000E+00
    0.29281E+06         0.15779E+08         0.00000E+00
    0.00000E+00         0.00000E+00         0.61833E+07
 
    0.13156E+08         0.84797E+06         0.00000E+00
    0.84797E+06         0.16045E+08         0.00000E+00
    0.00000E+00         0.00000E+00         0.58401E+07
 
    0.10981E+08         0.15635E+07         0.00000E+00
    0.15635E+07         0.16541E+08         0.00000E+00
    0.00000E+00         0.00000E+00         0.55044E+07
 
    0.85730E+07         0.25744E+07         0.00000E+00
    0.25744E+07         0.17313E+08         0.00000E+00
    0.00000E+00         0.00000E+00         0.51772E+07
 
    0.60148E+07         0.40918E+07         0.00000E+00
    0.40918E+07         0.18326E+08         0.00000E+00
    0.00000E+00         0.00000E+00         0.48682E+07
 
    0.34929E+08        -0.57234E+06         0.00000E+00
   -0.57234E+06         0.15628E+08         0.00000E+00
    0.00000E+00         0.00000E+00         0.10111E+08
 
    0.32055E+08        -0.14270E+07         0.00000E+00
   -0.14270E+07         0.15540E+08         0.00000E+00
    0.00000E+00         0.00000E+00         0.95191E+07
 
    0.29304E+08        -0.19399E+07         0.00000E+00
   -0.19399E+07         0.15423E+08         0.00000E+00
    0.00000E+00         0.00000E+00         0.89454E+07
 
    0.26701E+08        -0.21323E+07         0.00000E+00
   -0.21323E+07         0.15273E+08         0.00000E+00
    0.00000E+00         0.00000E+00         0.83948E+07
 
    0.24313E+08        -0.20705E+07         0.00000E+00
   -0.20705E+07         0.15066E+08         0.00000E+00
    0.00000E+00         0.00000E+00         0.78758E+07
 
    0.22155E+08        -0.18469E+07         0.00000E+00
   -0.18469E+07         0.14818E+08         0.00000E+00
    0.00000E+00         0.00000E+00         0.73947E+07
 
    0.20189E+08        -0.15249E+07         0.00000E+00
   -0.15249E+07         0.14575E+08         0.00000E+00
    0.00000E+00         0.00000E+00         0.69528E+07
 
    0.18354E+08        -0.11322E+07         0.00000E+00
   -0.11322E+07         0.14378E+08         0.00000E+00
    0.00000E+00         0.00000E+00         0.65466E+07
 
    0.16594E+08        -0.67501E+06         0.00000E+00
   -0.67501E+06         0.14262E+08         0.00000E+00
    0.00000E+00         0.00000E+00         0.61712E+07
 
    0.14855E+08        -0.14636E+06         0.00000E+00
   -0.14636E+06         0.14253E+08         0.00000E+00
    0.00000E+00         0.00000E+00         0.58217E+07
 
    0.13087E+08         0.47374E+06         0.00000E+00
    0.47374E+06         0.14381E+08         0.00000E+00
    0.00000E+00         0.00000E+00         0.54936E+07
 
    0.11246E+08         0.12226E+07         0.00000E+00
    0.12226E+07         0.14671E+08         0.00000E+00
    0.00000E+00         0.00000E+00         0.51834E+07
 
    0.93028E+07         0.21656E+07         0.00000E+00
    0.21656E+07         0.15147E+08         0.00000E+00
    0.00000E+00         0.00000E+00         0.48901E+07
 
    0.72712E+07         0.34028E+07         0.00000E+00
    0.34028E+07         0.15812E+08         0.00000E+00
    0.00000E+00         0.00000E+00         0.46165E+07
 
    0.52487E+07         0.50518E+07         0.00000E+00
    0.50518E+07         0.16611E+08         0.00000E+00
    0.00000E+00         0.00000E+00         0.43719E+07
 
    0.31221E+08        -0.60341E+06         0.00000E+00
   -0.60341E+06         0.13027E+08         0.00000E+00
    0.00000E+00         0.00000E+00         0.88495E+07
 
    0.28732E+08        -0.14902E+07         0.00000E+00
   -0.14902E+07         0.13015E+08         0.00000E+00
    0.00000E+00         0.00000E+00         0.83494E+07
 
    0.26310E+08        -0.20230E+07         0.00000E+00
   -0.20230E+07         0.12987E+08         0.00000E+00
    0.00000E+00         0.00000E+00         0.78593E+07
 
    0.23992E+08        -0.22549E+07         0.00000E+00
   -0.22549E+07         0.12936E+08         0.00000E+00
    0.00000E+00         0.00000E+00         0.73855E+07
 
    0.21818E+08        -0.22394E+07         0.00000E+00
   -0.22394E+07         0.12852E+08         0.00000E+00
    0.00000E+00         0.00000E+00         0.69339E+07
 
    0.19806E+08        -0.20364E+07         0.00000E+00
   -0.20364E+07         0.12740E+08         0.00000E+00
    0.00000E+00         0.00000E+00         0.65091E+07
 
    0.17941E+08        -0.16965E+07         0.00000E+00
   -0.16965E+07         0.12625E+08         0.00000E+00
    0.00000E+00         0.00000E+00         0.61131E+07
 
    0.16189E+08        -0.12501E+07         0.00000E+00
   -0.12501E+07         0.12538E+08         0.00000E+00
    0.00000E+00         0.00000E+00         0.57455E+07
 
    0.14511E+08        -0.70890E+06         0.00000E+00
   -0.70890E+06         0.12510E+08         0.00000E+00
    0.00000E+00         0.00000E+00         0.54043E+07
 
    0.12866E+08        -0.68952E+05         0.00000E+00
   -0.68952E+05         0.12569E+08         0.00000E+00
    0.00000E+00         0.00000E+00         0.50869E+07
 
    0.11218E+08         0.68754E+06         0.00000E+00
    0.68754E+06         0.12738E+08         0.00000E+00
    0.00000E+00         0.00000E+00         0.47913E+07
 
    0.95443E+07         0.15943E+07         0.00000E+00
    0.15943E+07         0.13037E+08         0.00000E+00
    0.00000E+00         0.00000E+00         0.45162E+07
 
    0.78392E+07         0.27029E+07         0.00000E+00
    0.27029E+07         0.13474E+08         0.00000E+00
    0.00000E+00         0.00000E+00         0.42626E+07
 
    0.61362E+07         0.40797E+07         0.00000E+00
    0.40797E+07         0.14035E+08         0.00000E+00
    0.00000E+00         0.00000E+00         0.40342E+07
 
    0.45206E+07         0.57889E+07         0.00000E+00
    0.57889E+07         0.14669E+08         0.00000E+00
    0.00000E+00         0.00000E+00         0.38379E+07
 
    0.27520E+08        -0.59147E+06         0.00000E+00
   -0.59147E+06         0.10430E+08         0.00000E+00
    0.00000E+00         0.00000E+00         0.75900E+07
 
    0.25418E+08        -0.14800E+07         0.00000E+00
   -0.14800E+07         0.10464E+08         0.00000E+00
    0.00000E+00         0.00000E+00         0.71765E+07
 
    0.23316E+08        -0.20265E+07         0.00000E+00
   -0.20265E+07         0.10502E+08         0.00000E+00
    0.00000E+00         0.00000E+00         0.67637E+07
 
    0.21270E+08        -0.22832E+07         0.00000E+00
   -0.22832E+07         0.10528E+08         0.00000E+00
    0.00000E+00         0.00000E+00         0.63596E+07
 
    0.19317E+08        -0.22957E+07         0.00000E+00
   -0.22957E+07         0.10533E+08         0.00000E+00
    0.00000E+00         0.00000E+00         0.59701E+07
 
    0.17476E+08        -0.21084E+07         0.00000E+00
   -0.21084E+07         0.10522E+08         0.00000E+00
    0.00000E+00         0.00000E+00         0.55995E+07
 
    0.15745E+08        -0.17598E+07         0.00000E+00
   -0.17598E+07         0.10507E+08         0.00000E+00
    0.00000E+00         0.00000E+00         0.52504E+07
 
    0.14107E+08        -0.12764E+07         0.00000E+00
   -0.12764E+07         0.10511E+08         0.00000E+00
    0.00000E+00         0.00000E+00         0.49237E+07
 
    0.12538E+08        -0.67096E+06         0.00000E+00
   -0.67096E+06         0.10558E+08         0.00000E+00
    0.00000E+00         0.00000E+00         0.46192E+07
 
    0.11010E+08         0.57233E+05         0.00000E+00
    0.57233E+05         0.10671E+08         0.00000E+00
    0.00000E+00         0.00000E+00         0.43362E+07
 
    0.95031E+07         0.92151E+06         0.00000E+00
    0.92151E+06         0.10869E+08         0.00000E+00
    0.00000E+00         0.00000E+00         0.40744E+07
 
    0.80061E+07         0.19473E+07         0.00000E+00
    0.19473E+07         0.11164E+08         0.00000E+00
    0.00000E+00         0.00000E+00         0.38340E+07
 
    0.65276E+07         0.31705E+07         0.00000E+00
    0.31705E+07         0.11556E+08         0.00000E+00
    0.00000E+00         0.00000E+00         0.36167E+07
 
    0.51040E+07         0.46313E+07         0.00000E+00
    0.46313E+07         0.12027E+08         0.00000E+00
    0.00000E+00         0.00000E+00         0.34261E+07
 
    0.38048E+07         0.63627E+07         0.00000E+00
    0.63627E+07         0.12533E+08         0.00000E+00
    0.00000E+00         0.00000E+00         0.32676E+07
 
    0.23880E+08        -0.56083E+06         0.00000E+00
   -0.56083E+06         0.78550E+07         0.00000E+00
    0.00000E+00         0.00000E+00         0.63469E+07
 
    0.22133E+08        -0.14237E+07         0.00000E+00
   -0.14237E+07         0.79127E+07         0.00000E+00
    0.00000E+00         0.00000E+00         0.60091E+07
 
    0.20337E+08        -0.19709E+07         0.00000E+00
   -0.19709E+07         0.79929E+07         0.00000E+00
    0.00000E+00         0.00000E+00         0.56660E+07
 
    0.18554E+08        -0.22411E+07         0.00000E+00
   -0.22411E+07         0.80731E+07         0.00000E+00
    0.00000E+00         0.00000E+00         0.53255E+07
 
    0.16824E+08        -0.22706E+07         0.00000E+00
   -0.22706E+07         0.81433E+07         0.00000E+00
    0.00000E+00         0.00000E+00         0.49935E+07
 
    0.15169E+08        -0.20935E+07         0.00000E+00
   -0.20935E+07         0.82034E+07         0.00000E+00
    0.00000E+00         0.00000E+00         0.46745E+07
 
    0.13595E+08        -0.17392E+07         0.00000E+00
   -0.17392E+07         0.82619E+07         0.00000E+00
    0.00000E+00         0.00000E+00         0.43713E+07
 
    0.12095E+08        -0.12295E+07         0.00000E+00
   -0.12295E+07         0.83337E+07         0.00000E+00
    0.00000E+00         0.00000E+00         0.40858E+07
 
    0.10657E+08        -0.57637E+06         0.00000E+00
   -0.57637E+06         0.84367E+07         0.00000E+00
    0.00000E+00         0.00000E+00         0.38188E+07
 
    0.92663E+07         0.21847E+06         0.00000E+00
    0.21847E+06         0.85881E+07         0.00000E+00
    0.00000E+00         0.00000E+00         0.35709E+07
 
    0.79120E+07         0.11631E+07         0.00000E+00
    0.11631E+07         0.88015E+07         0.00000E+00
    0.00000E+00         0.00000E+00         0.33427E+07
 
    0.65930E+07         0.22738E+07         0.00000E+00
    0.22738E+07         0.90836E+07         0.00000E+00
    0.00000E+00         0.00000E+00         0.31353E+07
 
    0.53234E+07         0.35726E+07         0.00000E+00
    0.35726E+07         0.94305E+07         0.00000E+00
    0.00000E+00         0.00000E+00         0.29508E+07
 
    0.41370E+07         0.50812E+07         0.00000E+00
    0.50812E+07         0.98241E+07         0.00000E+00
    0.00000E+00         0.00000E+00         0.27922E+07
 
    0.30891E+07         0.68133E+07         0.00000E+00
    0.68133E+07         0.10231E+08         0.00000E+00
    0.00000E+00         0.00000E+00         0.26640E+07
 
    0.20327E+08        -0.52227E+06         0.00000E+00
   -0.52227E+06         0.53068E+07         0.00000E+00
    0.00000E+00         0.00000E+00         0.51267E+07
 
    0.18895E+08        -0.13424E+07         0.00000E+00
   -0.13424E+07         0.53756E+07         0.00000E+00
    0.00000E+00         0.00000E+00         0.48541E+07
 
    0.17384E+08        -0.18772E+07         0.00000E+00
   -0.18772E+07         0.54791E+07         0.00000E+00
    0.00000E+00         0.00000E+00         0.45727E+07
 
    0.15855E+08        -0.21507E+07         0.00000E+00
   -0.21507E+07         0.55931E+07         0.00000E+00
    0.00000E+00         0.00000E+00         0.42897E+07
 
    0.14349E+08        -0.21891E+07         0.00000E+00
   -0.21891E+07         0.57053E+07         0.00000E+00
    0.00000E+00         0.00000E+00         0.40108E+07
 
    0.12888E+08        -0.20177E+07         0.00000E+00
   -0.20177E+07         0.58128E+07         0.00000E+00
    0.00000E+00         0.00000E+00         0.37402E+07
 
    0.11486E+08        -0.16590E+07         0.00000E+00
   -0.16590E+07         0.59203E+07         0.00000E+00
    0.00000E+00         0.00000E+00         0.34812E+07
 
    0.10142E+08        -0.11304E+07         0.00000E+00
   -0.11304E+07         0.60375E+07         0.00000E+00
    0.00000E+00         0.00000E+00         0.32359E+07
 
    0.88531E+07        -0.44285E+06         0.00000E+00
   -0.44285E+06         0.61766E+07         0.00000E+00
    0.00000E+00         0.00000E+00         0.30059E+07
 
    0.76128E+07         0.40008E+06         0.00000E+00
    0.40008E+06         0.63499E+07         0.00000E+00
    0.00000E+00         0.00000E+00         0.27925E+07
 
    0.64182E+07         0.14015E+07         0.00000E+00
    0.14015E+07         0.65662E+07         0.00000E+00
    0.00000E+00         0.00000E+00         0.25969E+07
 
    0.52737E+07         0.25698E+07         0.00000E+00
    0.25698E+07         0.68287E+07         0.00000E+00
    0.00000E+00         0.00000E+00         0.24205E+07
 
    0.41952E+07         0.39159E+07         0.00000E+00
    0.39159E+07         0.71319E+07         0.00000E+00
    0.00000E+00         0.00000E+00         0.22654E+07
 
    0.32121E+07         0.54485E+07         0.00000E+00
    0.54485E+07         0.74600E+07         0.00000E+00
    0.00000E+00         0.00000E+00         0.21344E+07
 
    0.23677E+07         0.71687E+07         0.00000E+00
    0.71687E+07         0.77866E+07         0.00000E+00
    0.00000E+00         0.00000E+00         0.20309E+07
 
    0.16873E+08        -0.48138E+06         0.00000E+00
   -0.48138E+06         0.27878E+07         0.00000E+00
    0.00000E+00         0.00000E+00         0.39321E+07
 
    0.15718E+08        -0.12503E+07         0.00000E+00
   -0.12503E+07         0.28594E+07         0.00000E+00
    0.00000E+00         0.00000E+00         0.37155E+07
 
    0.14470E+08        -0.17631E+07         0.00000E+00
   -0.17631E+07         0.29719E+07         0.00000E+00
    0.00000E+00         0.00000E+00         0.34884E+07
 
    0.13183E+08        -0.20318E+07         0.00000E+00
   -0.20318E+07         0.31020E+07         0.00000E+00
    0.00000E+00         0.00000E+00         0.32570E+07
 
    0.11897E+08        -0.20728E+07         0.00000E+00
   -0.20728E+07         0.32365E+07         0.00000E+00
    0.00000E+00         0.00000E+00         0.30266E+07
 
    0.10636E+08        -0.19037E+07         0.00000E+00
   -0.19037E+07         0.33705E+07         0.00000E+00
    0.00000E+00         0.00000E+00         0.28013E+07
 
    0.94147E+07        -0.15412E+07         0.00000E+00
   -0.15412E+07         0.35057E+07         0.00000E+00
    0.00000E+00         0.00000E+00         0.25841E+07
 
    0.82396E+07        -0.99929E+06         0.00000E+00
   -0.99929E+06         0.36477E+07         0.00000E+00
    0.00000E+00         0.00000E+00         0.23775E+07
 
    0.71118E+07        -0.28771E+06         0.00000E+00
   -0.28771E+06         0.38048E+07         0.00000E+00
    0.00000E+00         0.00000E+00         0.21833E+07
 
    0.60310E+07         0.58837E+06         0.00000E+00
    0.58837E+06         0.39848E+07         0.00000E+00
    0.00000E+00         0.00000E+00         0.20032E+07
 
    0.49993E+07         0.16280E+07         0.00000E+00
    0.16280E+07         0.41932E+07         0.00000E+00
    0.00000E+00         0.00000E+00         0.18385E+07
 
    0.40242E+07         0.28332E+07         0.00000E+00
    0.28332E+07         0.44307E+07         0.00000E+00
    0.00000E+00         0.00000E+00         0.16910E+07
 
    0.31210E+07         0.42064E+07         0.00000E+00
    0.42064E+07         0.46917E+07         0.00000E+00
    0.00000E+00         0.00000E+00         0.15625E+07
 
    0.23144E+07         0.57473E+07         0.00000E+00
    0.57473E+07         0.49630E+07         0.00000E+00
    0.00000E+00         0.00000E+00         0.14555E+07
 
    0.16381E+07         0.74490E+07         0.00000E+00
    0.74490E+07         0.52242E+07         0.00000E+00
    0.00000E+00         0.00000E+00         0.13725E+07
 
    0.13521E+08        -0.44160E+06         0.00000E+00
   -0.44160E+06         0.29802E+06         0.00000E+00
    0.00000E+00         0.00000E+00         0.27637E+07
 
    0.12609E+08        -0.11571E+07         0.00000E+00
   -0.11571E+07         0.36664E+06         0.00000E+00
    0.00000E+00         0.00000E+00         0.25951E+07
 
    0.11600E+08        -0.16428E+07         0.00000E+00
   -0.16428E+07         0.47746E+06         0.00000E+00
    0.00000E+00         0.00000E+00         0.24155E+07
 
    0.10543E+08        -0.19011E+07         0.00000E+00
   -0.19011E+07         0.60939E+06         0.00000E+00
    0.00000E+00         0.00000E+00         0.22304E+07
 
    0.94721E+07        -0.19400E+07         0.00000E+00
   -0.19400E+07         0.74961E+06         0.00000E+00
    0.00000E+00         0.00000E+00         0.20443E+07
 
    0.84124E+07        -0.17707E+07         0.00000E+00
   -0.17707E+07         0.89222E+06         0.00000E+00
    0.00000E+00         0.00000E+00         0.18609E+07
 
    0.73789E+07        -0.14051E+07         0.00000E+00
   -0.14051E+07         0.10367E+07         0.00000E+00
    0.00000E+00         0.00000E+00         0.16831E+07
 
    0.63803E+07        -0.85399E+06         0.00000E+00
   -0.85399E+06         0.11860E+07         0.00000E+00
    0.00000E+00         0.00000E+00         0.15133E+07
 
    0.54214E+07        -0.12640E+06         0.00000E+00
   -0.12640E+06         0.13450E+07         0.00000E+00
    0.00000E+00         0.00000E+00         0.13533E+07
 
    0.45056E+07         0.77138E+06         0.00000E+00
    0.77138E+06         0.15186E+07         0.00000E+00
    0.00000E+00         0.00000E+00         0.12048E+07
 
    0.36377E+07         0.18353E+07         0.00000E+00
    0.18353E+07         0.17097E+07         0.00000E+00
    0.00000E+00         0.00000E+00         0.10695E+07
 
    0.28261E+07         0.30623E+07         0.00000E+00
    0.30623E+07         0.19179E+07         0.00000E+00
    0.00000E+00         0.00000E+00         0.94879E+06
 
    0.20849E+07         0.44489E+07         0.00000E+00
    0.44489E+07         0.21376E+07         0.00000E+00
    0.00000E+00         0.00000E+00         0.84451E+06
 
    0.14342E+07         0.59884E+07         0.00000E+00
    0.59884E+07         0.23585E+07         0.00000E+00
    0.00000E+00         0.00000E+00         0.75854E+06
 
    0.89998E+06         0.76684E+07         0.00000E+00
    0.76684E+07         0.25649E+07         0.00000E+00
    0.00000E+00         0.00000E+00         0.69297E+06
 
    0.10265E+08        -0.40527E+06         0.00000E+00
   -0.40527E+06        -0.21640E+07         0.00000E+00
    0.00000E+00         0.00000E+00         0.16202E+07
 
    0.95669E+07        -0.10698E+07         0.00000E+00
   -0.10698E+07        -0.21026E+07         0.00000E+00
    0.00000E+00         0.00000E+00         0.14929E+07
 
    0.87775E+07        -0.15273E+07         0.00000E+00
   -0.15273E+07        -0.20016E+07         0.00000E+00
    0.00000E+00         0.00000E+00         0.13552E+07
 
    0.79372E+07        -0.17722E+07         0.00000E+00
   -0.17722E+07        -0.18792E+07         0.00000E+00
    0.00000E+00         0.00000E+00         0.12116E+07
 
    0.70766E+07        -0.18063E+07         0.00000E+00
   -0.18063E+07        -0.17467E+07         0.00000E+00
    0.00000E+00         0.00000E+00         0.10660E+07
 
    0.62173E+07        -0.16351E+07         0.00000E+00
   -0.16351E+07        -0.16104E+07         0.00000E+00
    0.00000E+00         0.00000E+00         0.92139E+06
 
    0.53743E+07        -0.12667E+07         0.00000E+00
   -0.12667E+07        -0.14719E+07         0.00000E+00
    0.00000E+00         0.00000E+00         0.78049E+06
 
    0.45570E+07        -0.70968E+06         0.00000E+00
   -0.70968E+06        -0.13301E+07         0.00000E+00
    0.00000E+00         0.00000E+00         0.64540E+06
 
    0.37719E+07         0.27993E+05         0.00000E+00
    0.27993E+05        -0.11823E+07         0.00000E+00
    0.00000E+00         0.00000E+00         0.51791E+06
 
    0.30239E+07         0.93909E+06         0.00000E+00
    0.93909E+06        -0.10260E+07         0.00000E+00
    0.00000E+00         0.00000E+00         0.39958E+06
 
    0.23190E+07         0.20172E+07         0.00000E+00
    0.20172E+07        -0.85973E+06         0.00000E+00
    0.00000E+00         0.00000E+00         0.29186E+06
 
    0.16657E+07         0.32557E+07         0.00000E+00
    0.32557E+07        -0.68476E+06         0.00000E+00
    0.00000E+00         0.00000E+00         0.19618E+06
 
    0.10758E+07         0.46467E+07         0.00000E+00
    0.46467E+07        -0.50568E+06         0.00000E+00
    0.00000E+00         0.00000E+00         0.11402E+06
 
    0.56530E+06         0.61793E+07         0.00000E+00
    0.61793E+07        -0.33075E+06         0.00000E+00
    0.00000E+00         0.00000E+00         0.46910E+05
 
    0.15389E+06         0.78374E+07         0.00000E+00
    0.78374E+07        -0.17162E+06         0.00000E+00
    0.00000E+00         0.00000E+00        -0.35456E+04
 
    0.70960E+07        -0.37412E+06         0.00000E+00
   -0.37412E+06        -0.46010E+07         0.00000E+00
    0.00000E+00         0.00000E+00         0.49901E+06
 
    0.65873E+07        -0.99375E+06         0.00000E+00
   -0.99375E+06        -0.45499E+07         0.00000E+00
    0.00000E+00         0.00000E+00         0.40748E+06
 
    0.59998E+07        -0.14247E+07         0.00000E+00
   -0.14247E+07        -0.44651E+07         0.00000E+00
    0.00000E+00         0.00000E+00         0.30694E+06
 
    0.53654E+07        -0.16559E+07         0.00000E+00
   -0.16559E+07        -0.43608E+07         0.00000E+00
    0.00000E+00         0.00000E+00         0.20091E+06
 
    0.47088E+07        -0.16839E+07         0.00000E+00
   -0.16839E+07        -0.42468E+07         0.00000E+00
    0.00000E+00         0.00000E+00         0.92407E+05
 
    0.40483E+07        -0.15101E+07         0.00000E+00
   -0.15101E+07        -0.41285E+07         0.00000E+00
    0.00000E+00         0.00000E+00        -0.16023E+05
 
    0.33969E+07        -0.11395E+07         0.00000E+00
   -0.11395E+07        -0.40080E+07         0.00000E+00
    0.00000E+00         0.00000E+00        -0.12223E+06
 
    0.27635E+07        -0.57874E+06         0.00000E+00
   -0.57874E+06        -0.38855E+07         0.00000E+00
    0.00000E+00         0.00000E+00        -0.22441E+06
 
    0.21545E+07         0.16481E+06         0.00000E+00
    0.16481E+06        -0.37597E+07         0.00000E+00
    0.00000E+00         0.00000E+00        -0.32104E+06
 
    0.15756E+07         0.10834E+07         0.00000E+00
    0.10834E+07        -0.36293E+07         0.00000E+00
    0.00000E+00         0.00000E+00        -0.41075E+06
 
    0.10325E+07         0.21688E+07         0.00000E+00
    0.21688E+07        -0.34941E+07         0.00000E+00
    0.00000E+00         0.00000E+00        -0.49232E+06
 
    0.53257E+06         0.34121E+07         0.00000E+00
    0.34121E+07        -0.33553E+07         0.00000E+00
    0.00000E+00         0.00000E+00        -0.56455E+06
 
    0.85562E+05         0.48023E+07         0.00000E+00
    0.48023E+07        -0.32168E+07         0.00000E+00
    0.00000E+00         0.00000E+00        -0.62625E+06
 
   -0.29637E+06         0.63256E+07         0.00000E+00
    0.63256E+07        -0.30847E+07         0.00000E+00
    0.00000E+00         0.00000E+00        -0.67622E+06
 
   -0.59892E+06         0.79635E+07         0.00000E+00
    0.79635E+07        -0.29675E+07         0.00000E+00
    0.00000E+00         0.00000E+00        -0.71328E+06
 
    0.39994E+07        -0.34944E+06         0.00000E+00
   -0.34944E+06        -0.70166E+07         0.00000E+00
    0.00000E+00         0.00000E+00        -0.60344E+06
 
    0.36613E+07        -0.93277E+06         0.00000E+00
   -0.93277E+06        -0.69783E+07         0.00000E+00
    0.00000E+00         0.00000E+00        -0.66340E+06
 
    0.32616E+07        -0.13415E+07         0.00000E+00
   -0.13415E+07        -0.69141E+07         0.00000E+00
    0.00000E+00         0.00000E+00        -0.73049E+06
 
    0.28238E+07        -0.15605E+07         0.00000E+00
   -0.15605E+07        -0.68345E+07         0.00000E+00
    0.00000E+00         0.00000E+00        -0.80215E+06
 
    0.23659E+07        -0.15825E+07         0.00000E+00
   -0.15825E+07        -0.67469E+07         0.00000E+00
    0.00000E+00         0.00000E+00        -0.87620E+06
 
    0.19020E+07        -0.14060E+07         0.00000E+00
   -0.14060E+07        -0.66555E+07         0.00000E+00
    0.00000E+00         0.00000E+00        -0.95071E+06
 
    0.14420E+07        -0.10337E+07         0.00000E+00
   -0.10337E+07        -0.65624E+07         0.00000E+00
    0.00000E+00         0.00000E+00        -0.10241E+07
 
    0.99347E+06        -0.47081E+06         0.00000E+00
   -0.47081E+06        -0.64682E+07         0.00000E+00
    0.00000E+00         0.00000E+00        -0.10949E+07
 
    0.56192E+06         0.27576E+06         0.00000E+00
    0.27576E+06        -0.63723E+07         0.00000E+00
    0.00000E+00         0.00000E+00        -0.11621E+07
 
    0.15219E+06         0.11979E+07         0.00000E+00
    0.11979E+07        -0.62745E+07         0.00000E+00
    0.00000E+00         0.00000E+00        -0.12245E+07
 
   -0.23075E+06         0.22864E+07         0.00000E+00
    0.22864E+07        -0.61749E+07         0.00000E+00
    0.00000E+00         0.00000E+00        -0.12811E+07
 
   -0.58104E+06         0.35304E+07         0.00000E+00
    0.35304E+07        -0.60747E+07         0.00000E+00
    0.00000E+00         0.00000E+00        -0.13311E+07
 
   -0.89147E+06         0.49172E+07         0.00000E+00
    0.49172E+07        -0.59768E+07         0.00000E+00
    0.00000E+00         0.00000E+00        -0.13737E+07
 
   -0.11534E+07         0.64309E+07         0.00000E+00
    0.64309E+07        -0.58855E+07         0.00000E+00
    0.00000E+00         0.00000E+00        -0.14078E+07
 
   -0.13569E+07         0.80517E+07         0.00000E+00
    0.80517E+07        -0.58066E+07         0.00000E+00
    0.00000E+00         0.00000E+00        -0.14327E+07
 
    0.95834E+06        -0.33212E+06         0.00000E+00
   -0.33212E+06        -0.94154E+07         0.00000E+00
    0.00000E+00         0.00000E+00        -0.16914E+07
 
    0.77713E+06        -0.88965E+06         0.00000E+00
   -0.88965E+06        -0.93914E+07         0.00000E+00
    0.00000E+00         0.00000E+00        -0.17229E+07
 
    0.55511E+06        -0.12821E+07         0.00000E+00
   -0.12821E+07        -0.93510E+07         0.00000E+00
    0.00000E+00         0.00000E+00        -0.17592E+07
 
    0.30666E+06        -0.14918E+07         0.00000E+00
   -0.14918E+07        -0.93007E+07         0.00000E+00
    0.00000E+00         0.00000E+00        -0.17988E+07
 
    0.43238E+05        -0.15090E+07         0.00000E+00
   -0.15090E+07        -0.92450E+07         0.00000E+00
    0.00000E+00         0.00000E+00        -0.18403E+07
 
   -0.22631E+06        -0.13303E+07         0.00000E+00
   -0.13303E+07        -0.91867E+07         0.00000E+00
    0.00000E+00         0.00000E+00        -0.18826E+07
 
   -0.49533E+06        -0.95687E+06         0.00000E+00
   -0.95687E+06        -0.91275E+07         0.00000E+00
    0.00000E+00         0.00000E+00        -0.19246E+07
 
   -0.75877E+06        -0.39297E+06         0.00000E+00
   -0.39297E+06        -0.90677E+07         0.00000E+00
    0.00000E+00         0.00000E+00        -0.19653E+07
 
   -0.10126E+07         0.35479E+06         0.00000E+00
    0.35479E+06        -0.90075E+07         0.00000E+00
    0.00000E+00         0.00000E+00        -0.20040E+07
 
   -0.12535E+07         0.12781E+07         0.00000E+00
    0.12781E+07        -0.89468E+07         0.00000E+00
    0.00000E+00         0.00000E+00        -0.20400E+07
 
   -0.14777E+07         0.23670E+07         0.00000E+00
    0.23670E+07        -0.88860E+07         0.00000E+00
    0.00000E+00         0.00000E+00        -0.20727E+07
 
   -0.16813E+07         0.36098E+07         0.00000E+00
    0.36098E+07        -0.88261E+07         0.00000E+00
    0.00000E+00         0.00000E+00        -0.21015E+07
 
   -0.18596E+07         0.49924E+07         0.00000E+00
    0.49924E+07        -0.87689E+07         0.00000E+00
    0.00000E+00         0.00000E+00        -0.21257E+07
 
   -0.20072E+07         0.64978E+07         0.00000E+00
    0.64978E+07        -0.87170E+07         0.00000E+00
    0.00000E+00         0.00000E+00        -0.21448E+07
 
   -0.21182E+07         0.81056E+07         0.00000E+00
    0.81056E+07        -0.86740E+07         0.00000E+00
    0.00000E+00         0.00000E+00        -0.21584E+07
 
   -0.20463E+07        -0.32279E+06         0.00000E+00
   -0.32279E+06        -0.11802E+08         0.00000E+00
    0.00000E+00         0.00000E+00        -0.27697E+07
 
   -0.20789E+07        -0.86619E+06         0.00000E+00
   -0.86619E+06        -0.11794E+08         0.00000E+00
    0.00000E+00         0.00000E+00        -0.27745E+07
 
   -0.21296E+07        -0.12496E+07         0.00000E+00
   -0.12496E+07        -0.11779E+08         0.00000E+00
    0.00000E+00         0.00000E+00        -0.27817E+07
 
   -0.21931E+07        -0.14538E+07         0.00000E+00
   -0.14538E+07        -0.11760E+08         0.00000E+00
    0.00000E+00         0.00000E+00        -0.27907E+07
 
   -0.22649E+07        -0.14681E+07         0.00000E+00
   -0.14681E+07        -0.11740E+08         0.00000E+00
    0.00000E+00         0.00000E+00        -0.28010E+07
 
   -0.23416E+07        -0.12880E+07         0.00000E+00
   -0.12880E+07        -0.11719E+08         0.00000E+00
    0.00000E+00         0.00000E+00        -0.28120E+07
 
   -0.24204E+07        -0.91397E+06         0.00000E+00
   -0.91397E+06        -0.11697E+08         0.00000E+00
    0.00000E+00         0.00000E+00        -0.28234E+07
 
   -0.24989E+07        -0.34984E+06         0.00000E+00
   -0.34984E+06        -0.11675E+08         0.00000E+00
    0.00000E+00         0.00000E+00        -0.28348E+07
 
   -0.25752E+07         0.39795E+06         0.00000E+00
    0.39795E+06        -0.11654E+08         0.00000E+00
    0.00000E+00         0.00000E+00        -0.28458E+07
 
   -0.26476E+07         0.13209E+07         0.00000E+00
    0.13209E+07        -0.11633E+08         0.00000E+00
    0.00000E+00         0.00000E+00        -0.28561E+07
 
   -0.27142E+07         0.24089E+07         0.00000E+00
    0.24089E+07        -0.11613E+08         0.00000E+00
    0.00000E+00         0.00000E+00        -0.28654E+07
 
   -0.27730E+07         0.36496E+07         0.00000E+00
    0.36496E+07        -0.11594E+08         0.00000E+00
    0.00000E+00         0.00000E+00        -0.28734E+07
 
   -0.28219E+07         0.50285E+07         0.00000E+00
    0.50285E+07        -0.11578E+08         0.00000E+00
    0.00000E+00         0.00000E+00        -0.28799E+07
 
   -0.28587E+07         0.65280E+07         0.00000E+00
    0.65280E+07        -0.11565E+08         0.00000E+00
    0.00000E+00         0.00000E+00        -0.28847E+07
 
   -0.28811E+07         0.81273E+07         0.00000E+00
    0.81273E+07        -0.11556E+08         0.00000E+00
    0.00000E+00         0.00000E+00        -0.28874E+07
 
   -0.50346E+07        -0.32172E+06         0.00000E+00
   -0.32172E+06        -0.14183E+08         0.00000E+00
    0.00000E+00         0.00000E+00        -0.38434E+07
 
   -0.49217E+07        -0.86333E+06         0.00000E+00
   -0.86333E+06        -0.14189E+08         0.00000E+00
    0.00000E+00         0.00000E+00        -0.38222E+07
 
   -0.48035E+07        -0.12453E+07         0.00000E+00
   -0.12453E+07        -0.14201E+08         0.00000E+00
    0.00000E+00         0.00000E+00        -0.38009E+07
 
   -0.46836E+07        -0.14485E+07         0.00000E+00
   -0.14485E+07        -0.14215E+08         0.00000E+00
    0.00000E+00         0.00000E+00        -0.37798E+07
 
   -0.45650E+07        -0.14621E+07         0.00000E+00
   -0.14621E+07        -0.14231E+08         0.00000E+00
    0.00000E+00         0.00000E+00        -0.37592E+07
 
   -0.44495E+07        -0.12816E+07         0.00000E+00
   -0.12816E+07        -0.14248E+08         0.00000E+00
    0.00000E+00         0.00000E+00        -0.37395E+07
 
   -0.43384E+07        -0.90748E+06         0.00000E+00
   -0.90748E+06        -0.14265E+08         0.00000E+00
    0.00000E+00         0.00000E+00        -0.37207E+07
 
   -0.42323E+07        -0.34370E+06         0.00000E+00
   -0.34370E+06        -0.14283E+08         0.00000E+00
    0.00000E+00         0.00000E+00        -0.37030E+07
 
   -0.41315E+07         0.40328E+06         0.00000E+00
    0.40328E+06        -0.14301E+08         0.00000E+00
    0.00000E+00         0.00000E+00        -0.36866E+07
 
   -0.40358E+07         0.13250E+07         0.00000E+00
    0.13250E+07        -0.14321E+08         0.00000E+00
    0.00000E+00         0.00000E+00        -0.36714E+07
 
   -0.39454E+07         0.24112E+07         0.00000E+00
    0.24112E+07        -0.14342E+08         0.00000E+00
    0.00000E+00         0.00000E+00        -0.36575E+07
 
   -0.38604E+07         0.36496E+07         0.00000E+00
    0.36496E+07        -0.14365E+08         0.00000E+00
    0.00000E+00         0.00000E+00        -0.36451E+07
 
   -0.37812E+07         0.50257E+07         0.00000E+00
    0.50257E+07        -0.14389E+08         0.00000E+00
    0.00000E+00         0.00000E+00        -0.36341E+07
 
   -0.37085E+07         0.65221E+07         0.00000E+00
    0.65221E+07        -0.14414E+08         0.00000E+00
    0.00000E+00         0.00000E+00        -0.36246E+07
 
   -0.36435E+07         0.81179E+07         0.00000E+00
    0.81179E+07        -0.14440E+08         0.00000E+00
    0.00000E+00         0.00000E+00        -0.36167E+07
 
   -0.80270E+07        -0.32896E+06         0.00000E+00
   -0.32896E+06        -0.16561E+08         0.00000E+00
    0.00000E+00         0.00000E+00        -0.49177E+07
 
   -0.77663E+07        -0.88116E+06         0.00000E+00
   -0.88116E+06        -0.16584E+08         0.00000E+00
    0.00000E+00         0.00000E+00        -0.48700E+07
 
   -0.74775E+07        -0.12695E+07         0.00000E+00
   -0.12695E+07        -0.16621E+08         0.00000E+00
    0.00000E+00         0.00000E+00        -0.48197E+07
 
   -0.71732E+07        -0.14761E+07         0.00000E+00
   -0.14761E+07        -0.16667E+08         0.00000E+00
    0.00000E+00         0.00000E+00        -0.47681E+07
 
   -0.68634E+07        -0.14911E+07         0.00000E+00
   -0.14911E+07        -0.16719E+08         0.00000E+00
    0.00000E+00         0.00000E+00        -0.47164E+07
 
   -0.65556E+07        -0.13111E+07         0.00000E+00
   -0.13111E+07        -0.16772E+08         0.00000E+00
    0.00000E+00         0.00000E+00        -0.46655E+07
 
   -0.62548E+07        -0.93745E+06         0.00000E+00
   -0.93745E+06        -0.16827E+08         0.00000E+00
    0.00000E+00         0.00000E+00        -0.46163E+07
 
   -0.59645E+07        -0.37455E+06         0.00000E+00
   -0.37455E+06        -0.16883E+08         0.00000E+00
    0.00000E+00         0.00000E+00        -0.45694E+07
 
   -0.56869E+07         0.37084E+06         0.00000E+00
    0.37084E+06        -0.16940E+08         0.00000E+00
    0.00000E+00         0.00000E+00        -0.45254E+07
 
   -0.54236E+07         0.12903E+07         0.00000E+00
    0.12903E+07        -0.16999E+08         0.00000E+00
    0.00000E+00         0.00000E+00        -0.44846E+07
 
   -0.51764E+07         0.23739E+07         0.00000E+00
    0.23739E+07        -0.17061E+08         0.00000E+00
    0.00000E+00         0.00000E+00        -0.44474E+07
 
   -0.49474E+07         0.36099E+07         0.00000E+00
    0.36099E+07        -0.17124E+08         0.00000E+00
    0.00000E+00         0.00000E+00        -0.44144E+07
 
   -0.47397E+07         0.49843E+07         0.00000E+00
    0.49843E+07        -0.17189E+08         0.00000E+00
    0.00000E+00         0.00000E+00        -0.43857E+07
 
   -0.45569E+07         0.64803E+07         0.00000E+00
    0.64803E+07        -0.17253E+08         0.00000E+00
    0.00000E+00         0.00000E+00        -0.43619E+07
 
   -0.44038E+07         0.80776E+07         0.00000E+00
    0.80776E+07        -0.17312E+08         0.00000E+00
    0.00000E+00         0.00000E+00        -0.43432E+07
 
   -0.11044E+08        -0.34425E+06         0.00000E+00
   -0.34425E+06        -0.18944E+08         0.00000E+00
    0.00000E+00         0.00000E+00        -0.59975E+07
 
   -0.10628E+08        -0.91895E+06         0.00000E+00
   -0.91895E+06        -0.18980E+08         0.00000E+00
    0.00000E+00         0.00000E+00        -0.59216E+07
 
   -0.10162E+08        -0.13210E+07         0.00000E+00
   -0.13210E+07        -0.19042E+08         0.00000E+00
    0.00000E+00         0.00000E+00        -0.58409E+07
 
   -0.96697E+07        -0.15348E+07         0.00000E+00
   -0.15348E+07        -0.19118E+08         0.00000E+00
    0.00000E+00         0.00000E+00        -0.57575E+07
 
   -0.91664E+07        -0.15530E+07         0.00000E+00
   -0.15530E+07        -0.19201E+08         0.00000E+00
    0.00000E+00         0.00000E+00        -0.56736E+07
 
   -0.86651E+07        -0.13743E+07         0.00000E+00
   -0.13743E+07        -0.19288E+08         0.00000E+00
    0.00000E+00         0.00000E+00        -0.55907E+07
 
   -0.81746E+07        -0.10015E+07         0.00000E+00
   -0.10015E+07        -0.19377E+08         0.00000E+00
    0.00000E+00         0.00000E+00        -0.55103E+07
 
   -0.77006E+07        -0.44012E+06         0.00000E+00
   -0.44012E+06        -0.19467E+08         0.00000E+00
    0.00000E+00         0.00000E+00        -0.54335E+07
 
   -0.72469E+07         0.30264E+06         0.00000E+00
    0.30264E+06        -0.19560E+08         0.00000E+00
    0.00000E+00         0.00000E+00        -0.53613E+07
 
   -0.68164E+07         0.12185E+07         0.00000E+00
    0.12185E+07        -0.19655E+08         0.00000E+00
    0.00000E+00         0.00000E+00        -0.52944E+07
 
   -0.64122E+07         0.22982E+07         0.00000E+00
    0.22982E+07        -0.19755E+08         0.00000E+00
    0.00000E+00         0.00000E+00        -0.52335E+07
 
   -0.60382E+07         0.35310E+07         0.00000E+00
    0.35310E+07        -0.19859E+08         0.00000E+00
    0.00000E+00         0.00000E+00        -0.51794E+07
 
   -0.56999E+07         0.49041E+07         0.00000E+00
    0.49041E+07        -0.19963E+08         0.00000E+00
    0.00000E+00         0.00000E+00        -0.51326E+07
 
   -0.54043E+07         0.64021E+07         0.00000E+00
    0.64021E+07        -0.20066E+08         0.00000E+00
    0.00000E+00         0.00000E+00        -0.50940E+07
 
   -0.51598E+07         0.80054E+07         0.00000E+00
    0.80054E+07        -0.20161E+08         0.00000E+00
    0.00000E+00         0.00000E+00        -0.50641E+07
 
   -0.14104E+08        -0.36711E+06         0.00000E+00
   -0.36711E+06        -0.21334E+08         0.00000E+00
    0.00000E+00         0.00000E+00        -0.70876E+07
 
   -0.13519E+08        -0.97521E+06         0.00000E+00
   -0.97521E+06        -0.21384E+08         0.00000E+00
    0.00000E+00         0.00000E+00        -0.69807E+07
 
   -0.12868E+08        -0.13972E+07         0.00000E+00
   -0.13972E+07        -0.21467E+08         0.00000E+00
    0.00000E+00         0.00000E+00        -0.68670E+07
 
   -0.12180E+08        -0.16213E+07         0.00000E+00
   -0.16213E+07        -0.21568E+08         0.00000E+00
    0.00000E+00         0.00000E+00        -0.67497E+07
 
   -0.11479E+08        -0.16438E+07         0.00000E+00
   -0.16438E+07        -0.21679E+08         0.00000E+00
    0.00000E+00         0.00000E+00        -0.66316E+07
 
   -0.10783E+08        -0.14664E+07         0.00000E+00
   -0.14664E+07        -0.21793E+08         0.00000E+00
    0.00000E+00         0.00000E+00        -0.65152E+07
 
   -0.10103E+08        -0.10947E+07         0.00000E+00
   -0.10947E+07        -0.21909E+08         0.00000E+00
    0.00000E+00         0.00000E+00        -0.64023E+07
 
   -0.94458E+07        -0.53574E+06         0.00000E+00
   -0.53574E+06        -0.22027E+08         0.00000E+00
    0.00000E+00         0.00000E+00        -0.62946E+07
 
   -0.88172E+07         0.20271E+06         0.00000E+00
    0.20271E+06        -0.22149E+08         0.00000E+00
    0.00000E+00         0.00000E+00        -0.61932E+07
 
   -0.82202E+07         0.11127E+07         0.00000E+00
    0.11127E+07        -0.22277E+08         0.00000E+00
    0.00000E+00         0.00000E+00        -0.60994E+07
 
   -0.76584E+07         0.21859E+07         0.00000E+00
    0.21859E+07        -0.22411E+08         0.00000E+00
    0.00000E+00         0.00000E+00        -0.60139E+07
 
   -0.71375E+07         0.34136E+07         0.00000E+00
    0.34136E+07        -0.22552E+08         0.00000E+00
    0.00000E+00         0.00000E+00        -0.59379E+07
 
   -0.66650E+07         0.47848E+07         0.00000E+00
    0.47848E+07        -0.22697E+08         0.00000E+00
    0.00000E+00         0.00000E+00        -0.58723E+07
 
   -0.62516E+07         0.62860E+07         0.00000E+00
    0.62860E+07        -0.22839E+08         0.00000E+00
    0.00000E+00         0.00000E+00        -0.58181E+07
 
   -0.59098E+07         0.78993E+07         0.00000E+00
    0.78993E+07        -0.22972E+08         0.00000E+00
    0.00000E+00         0.00000E+00        -0.57763E+07
 
   -0.17224E+08        -0.39680E+06         0.00000E+00
   -0.39680E+06        -0.23737E+08         0.00000E+00
    0.00000E+00         0.00000E+00        -0.81921E+07
 
   -0.16453E+08        -0.10477E+07         0.00000E+00
   -0.10477E+07        -0.23798E+08         0.00000E+00
    0.00000E+00         0.00000E+00        -0.80502E+07
 
   -0.15602E+08        -0.14942E+07         0.00000E+00
   -0.14942E+07        -0.23898E+08         0.00000E+00
    0.00000E+00         0.00000E+00        -0.79000E+07
 
   -0.14709E+08        -0.17301E+07         0.00000E+00
   -0.17301E+07        -0.24019E+08         0.00000E+00
    0.00000E+00         0.00000E+00        -0.77457E+07
 
   -0.13805E+08        -0.17565E+07         0.00000E+00
   -0.17565E+07        -0.24149E+08         0.00000E+00
    0.00000E+00         0.00000E+00        -0.75910E+07
 
   -0.12912E+08        -0.15801E+07         0.00000E+00
   -0.15801E+07        -0.24282E+08         0.00000E+00
    0.00000E+00         0.00000E+00        -0.74389E+07
 
   -0.12043E+08        -0.12095E+07         0.00000E+00
   -0.12095E+07        -0.24416E+08         0.00000E+00
    0.00000E+00         0.00000E+00        -0.72918E+07
 
   -0.11206E+08        -0.65426E+06         0.00000E+00
   -0.65426E+06        -0.24553E+08         0.00000E+00
    0.00000E+00         0.00000E+00        -0.71516E+07
 
   -0.10404E+08         0.77228E+05         0.00000E+00
    0.77228E+05        -0.24696E+08         0.00000E+00
    0.00000E+00         0.00000E+00        -0.70199E+07
 
   -0.96417E+07         0.97753E+06         0.00000E+00
    0.97753E+06        -0.24848E+08         0.00000E+00
    0.00000E+00         0.00000E+00        -0.68980E+07
 
   -0.89218E+07         0.20402E+07         0.00000E+00
    0.20402E+07        -0.25013E+08         0.00000E+00
    0.00000E+00         0.00000E+00        -0.67869E+07
 
   -0.82509E+07         0.32588E+07         0.00000E+00
    0.32588E+07        -0.25189E+08         0.00000E+00
    0.00000E+00         0.00000E+00        -0.66880E+07
 
   -0.76389E+07         0.46256E+07         0.00000E+00
    0.46256E+07        -0.25373E+08         0.00000E+00
    0.00000E+00         0.00000E+00        -0.66024E+07
 
   -0.71001E+07         0.61299E+07         0.00000E+00
    0.61299E+07        -0.25557E+08         0.00000E+00
    0.00000E+00         0.00000E+00        -0.65314E+07
 
   -0.66521E+07         0.77562E+07         0.00000E+00
    0.77562E+07        -0.25730E+08         0.00000E+00
    0.00000E+00         0.00000E+00        -0.64765E+07
 
   -0.20419E+08        -0.43237E+06         0.00000E+00
   -0.43237E+06        -0.26155E+08         0.00000E+00
    0.00000E+00         0.00000E+00        -0.93148E+07
 
   -0.19438E+08        -0.11332E+07         0.00000E+00
   -0.11332E+07        -0.26225E+08         0.00000E+00
    0.00000E+00         0.00000E+00        -0.91326E+07
 
   -0.18369E+08        -0.16067E+07         0.00000E+00
   -0.16067E+07        -0.26337E+08         0.00000E+00
    0.00000E+00         0.00000E+00        -0.89412E+07
 
   -0.17260E+08        -0.18535E+07         0.00000E+00
   -0.18535E+07        -0.26470E+08         0.00000E+00
    0.00000E+00         0.00000E+00        -0.87460E+07
 
   -0.16147E+08        -0.18820E+07         0.00000E+00
   -0.18820E+07        -0.26610E+08         0.00000E+00
    0.00000E+00         0.00000E+00        -0.85514E+07
 
   -0.15056E+08        -0.17049E+07         0.00000E+00
   -0.17049E+07        -0.26749E+08         0.00000E+00
    0.00000E+00         0.00000E+00        -0.83610E+07
 
   -0.14000E+08        -0.13355E+07         0.00000E+00
   -0.13355E+07        -0.26888E+08         0.00000E+00
    0.00000E+00         0.00000E+00        -0.81776E+07
 
   -0.12985E+08        -0.78590E+06         0.00000E+00
   -0.78590E+06        -0.27031E+08         0.00000E+00
    0.00000E+00         0.00000E+00        -0.80033E+07
 
   -0.12015E+08        -0.65430E+05         0.00000E+00
   -0.65430E+05        -0.27185E+08         0.00000E+00
    0.00000E+00         0.00000E+00        -0.78399E+07
 
   -0.11089E+08         0.81948E+06         0.00000E+00
    0.81948E+06        -0.27354E+08         0.00000E+00
    0.00000E+00         0.00000E+00        -0.76885E+07
 
   -0.10211E+08         0.18648E+07         0.00000E+00
    0.18648E+07        -0.27542E+08         0.00000E+00
    0.00000E+00         0.00000E+00        -0.75506E+07
 
   -0.93861E+07         0.30678E+07         0.00000E+00
    0.30678E+07        -0.27750E+08         0.00000E+00
    0.00000E+00         0.00000E+00        -0.74273E+07
 
   -0.86272E+07         0.44251E+07         0.00000E+00
    0.44251E+07        -0.27973E+08         0.00000E+00
    0.00000E+00         0.00000E+00        -0.73201E+07
 
   -0.79522E+07         0.59302E+07         0.00000E+00
    0.59302E+07        -0.28202E+08         0.00000E+00
    0.00000E+00         0.00000E+00        -0.72308E+07
 
   -0.73849E+07         0.75713E+07         0.00000E+00
    0.75713E+07        -0.28421E+08         0.00000E+00
    0.00000E+00         0.00000E+00        -0.71612E+07
 
   -0.23700E+08        -0.47266E+06         0.00000E+00
   -0.47266E+06        -0.28591E+08         0.00000E+00
    0.00000E+00         0.00000E+00        -0.10458E+08
 
   -0.22480E+08        -0.12278E+07         0.00000E+00
   -0.12278E+07        -0.28667E+08         0.00000E+00
    0.00000E+00         0.00000E+00        -0.10229E+08
 
   -0.21171E+08        -0.17274E+07         0.00000E+00
   -0.17274E+07        -0.28785E+08         0.00000E+00
    0.00000E+00         0.00000E+00        -0.99911E+07
 
   -0.19832E+08        -0.19814E+07         0.00000E+00
   -0.19814E+07        -0.28919E+08         0.00000E+00
    0.00000E+00         0.00000E+00        -0.97501E+07
 
   -0.18505E+08        -0.20078E+07         0.00000E+00
   -0.20078E+07        -0.29054E+08         0.00000E+00
    0.00000E+00         0.00000E+00        -0.95117E+07
 
   -0.17216E+08        -0.18273E+07         0.00000E+00
   -0.18273E+07        -0.29185E+08         0.00000E+00
    0.00000E+00         0.00000E+00        -0.92801E+07
 
   -0.15977E+08        -0.14590E+07         0.00000E+00
   -0.14590E+07        -0.29314E+08         0.00000E+00
    0.00000E+00         0.00000E+00        -0.90581E+07
 
   -0.14791E+08        -0.91810E+06         0.00000E+00
   -0.91810E+06        -0.29448E+08         0.00000E+00
    0.00000E+00         0.00000E+00        -0.88480E+07
 
   -0.13658E+08        -0.21461E+06         0.00000E+00
   -0.21461E+06        -0.29599E+08         0.00000E+00
    0.00000E+00         0.00000E+00        -0.86513E+07
 
   -0.12573E+08         0.64652E+06         0.00000E+00
    0.64652E+06        -0.29773E+08         0.00000E+00
    0.00000E+00         0.00000E+00        -0.84691E+07
 
   -0.11536E+08         0.16647E+07         0.00000E+00
    0.16647E+07        -0.29978E+08         0.00000E+00
    0.00000E+00         0.00000E+00        -0.83028E+07
 
   -0.10553E+08         0.28420E+07         0.00000E+00
    0.28420E+07        -0.30214E+08         0.00000E+00
    0.00000E+00         0.00000E+00        -0.81535E+07
 
   -0.96375E+07         0.41812E+07         0.00000E+00
    0.41812E+07        -0.30477E+08         0.00000E+00
    0.00000E+00         0.00000E+00        -0.80230E+07
 
   -0.88117E+07         0.56819E+07         0.00000E+00
    0.56819E+07        -0.30755E+08         0.00000E+00
    0.00000E+00         0.00000E+00        -0.79133E+07
 
   -0.81072E+07         0.73374E+07         0.00000E+00
    0.73374E+07        -0.31027E+08         0.00000E+00
    0.00000E+00         0.00000E+00        -0.78268E+07
 
   -0.27075E+08        -0.51634E+06         0.00000E+00
   -0.51634E+06        -0.31047E+08         0.00000E+00
    0.00000E+00         0.00000E+00        -0.11624E+08
 
   -0.25579E+08        -0.13266E+07         0.00000E+00
   -0.13266E+07        -0.31124E+08         0.00000E+00
    0.00000E+00         0.00000E+00        -0.11341E+08
 
   -0.24004E+08        -0.18469E+07         0.00000E+00
   -0.18469E+07        -0.31239E+08         0.00000E+00
    0.00000E+00         0.00000E+00        -0.11049E+08
 
   -0.22420E+08        -0.21004E+07         0.00000E+00
   -0.21004E+07        -0.31362E+08         0.00000E+00
    0.00000E+00         0.00000E+00        -0.10756E+08
 
   -0.20874E+08        -0.21179E+07         0.00000E+00
   -0.21179E+07        -0.31475E+08         0.00000E+00
    0.00000E+00         0.00000E+00        -0.10470E+08
 
   -0.19391E+08        -0.19302E+07         0.00000E+00
   -0.19302E+07        -0.31578E+08         0.00000E+00
    0.00000E+00         0.00000E+00        -0.10194E+08
 
   -0.17977E+08        -0.15633E+07         0.00000E+00
   -0.15633E+07        -0.31677E+08         0.00000E+00
    0.00000E+00         0.00000E+00        -0.99309E+07
 
   -0.16631E+08        -0.10356E+07         0.00000E+00
   -0.10356E+07        -0.31786E+08         0.00000E+00
    0.00000E+00         0.00000E+00        -0.96833E+07
 
   -0.15343E+08        -0.35743E+06         0.00000E+00
   -0.35743E+06        -0.31917E+08         0.00000E+00
    0.00000E+00         0.00000E+00        -0.94520E+07
 
   -0.14105E+08         0.46833E+06         0.00000E+00
    0.46833E+06        -0.32085E+08         0.00000E+00
    0.00000E+00         0.00000E+00        -0.92379E+07
 
   -0.12911E+08         0.14455E+07         0.00000E+00
    0.14455E+07        -0.32297E+08         0.00000E+00
    0.00000E+00         0.00000E+00        -0.90417E+07
 
   -0.11765E+08         0.25826E+07         0.00000E+00
    0.25826E+07        -0.32558E+08         0.00000E+00
    0.00000E+00         0.00000E+00        -0.88646E+07
 
   -0.10681E+08         0.38905E+07         0.00000E+00
    0.38905E+07        -0.32862E+08         0.00000E+00
    0.00000E+00         0.00000E+00        -0.87085E+07
 
   -0.96848E+07         0.53775E+07         0.00000E+00
    0.53775E+07        -0.33194E+08         0.00000E+00
    0.00000E+00         0.00000E+00        -0.85758E+07
 
   -0.88184E+07         0.70449E+07         0.00000E+00
    0.70449E+07        -0.33529E+08         0.00000E+00
    0.00000E+00         0.00000E+00        -0.84695E+07
 
   -0.30548E+08        -0.56184E+06         0.00000E+00
   -0.56184E+06        -0.33522E+08         0.00000E+00
    0.00000E+00         0.00000E+00        -0.12814E+08
 
   -0.28732E+08        -0.14229E+07         0.00000E+00
   -0.14229E+07        -0.33597E+08         0.00000E+00
    0.00000E+00         0.00000E+00        -0.12466E+08
 
   -0.26860E+08        -0.19528E+07         0.00000E+00
   -0.19528E+07        -0.33698E+08         0.00000E+00
    0.00000E+00         0.00000E+00        -0.12112E+08
 
   -0.25017E+08        -0.21932E+07         0.00000E+00
   -0.21932E+07        -0.33790E+08         0.00000E+00
    0.00000E+00         0.00000E+00        -0.11761E+08
 
   -0.23251E+08        -0.21919E+07         0.00000E+00
   -0.21919E+07        -0.33860E+08         0.00000E+00
    0.00000E+00         0.00000E+00        -0.11422E+08
 
   -0.21580E+08        -0.19927E+07         0.00000E+00
   -0.19927E+07        -0.33912E+08         0.00000E+00
    0.00000E+00         0.00000E+00        -0.11098E+08
 
   -0.20005E+08        -0.16285E+07         0.00000E+00
   -0.16285E+07        -0.33959E+08         0.00000E+00
    0.00000E+00         0.00000E+00        -0.10793E+08
 
   -0.18512E+08        -0.11207E+07         0.00000E+00
   -0.11207E+07        -0.34021E+08         0.00000E+00
    0.00000E+00         0.00000E+00        -0.10507E+08
 
   -0.17083E+08        -0.47920E+06         0.00000E+00
   -0.47920E+06        -0.34116E+08         0.00000E+00
    0.00000E+00         0.00000E+00        -0.10240E+08
 
   -0.15701E+08         0.29601E+06         0.00000E+00
    0.29601E+06        -0.34263E+08         0.00000E+00
    0.00000E+00         0.00000E+00        -0.99927E+07
 
   -0.14354E+08         0.12139E+07         0.00000E+00
    0.12139E+07        -0.34473E+08         0.00000E+00
    0.00000E+00         0.00000E+00        -0.97654E+07
 
   -0.13040E+08         0.22909E+07         0.00000E+00
    0.22909E+07        -0.34753E+08         0.00000E+00
    0.00000E+00         0.00000E+00        -0.95587E+07
 
   -0.11772E+08         0.35482E+07         0.00000E+00
    0.35482E+07        -0.35100E+08         0.00000E+00
    0.00000E+00         0.00000E+00        -0.93744E+07
 
   -0.10581E+08         0.50070E+07         0.00000E+00
    0.50070E+07        -0.35495E+08         0.00000E+00
    0.00000E+00         0.00000E+00        -0.92152E+07
 
   -0.95190E+07         0.66800E+07         0.00000E+00
    0.66800E+07        -0.35908E+08         0.00000E+00
    0.00000E+00         0.00000E+00        -0.90854E+07
 
   -0.34117E+08        -0.60733E+06         0.00000E+00
   -0.60733E+06        -0.36018E+08         0.00000E+00
    0.00000E+00         0.00000E+00        -0.14027E+08
 
   -0.31924E+08        -0.15079E+07         0.00000E+00
   -0.15079E+07        -0.36083E+08         0.00000E+00
    0.00000E+00         0.00000E+00        -0.13602E+08
 
   -0.29722E+08        -0.20279E+07         0.00000E+00
   -0.20279E+07        -0.36154E+08         0.00000E+00
    0.00000E+00         0.00000E+00        -0.13175E+08
 
   -0.27608E+08        -0.22362E+07         0.00000E+00
   -0.22362E+07        -0.36192E+08         0.00000E+00
    0.00000E+00         0.00000E+00        -0.12760E+08
 
   -0.25626E+08        -0.22043E+07         0.00000E+00
   -0.22043E+07        -0.36190E+08         0.00000E+00
    0.00000E+00         0.00000E+00        -0.12363E+08
 
   -0.23784E+08        -0.19900E+07         0.00000E+00
   -0.19900E+07        -0.36163E+08         0.00000E+00
    0.00000E+00         0.00000E+00        -0.11989E+08
 
   -0.22066E+08        -0.16327E+07         0.00000E+00
   -0.16327E+07        -0.36133E+08         0.00000E+00
    0.00000E+00         0.00000E+00        -0.11640E+08
 
   -0.20445E+08        -0.11546E+07         0.00000E+00
   -0.11546E+07        -0.36127E+08         0.00000E+00
    0.00000E+00         0.00000E+00        -0.11315E+08
 
   -0.18893E+08        -0.56421E+06         0.00000E+00
   -0.56421E+06        -0.36169E+08         0.00000E+00
    0.00000E+00         0.00000E+00        -0.11012E+08
 
   -0.17380E+08         0.14180E+06         0.00000E+00
    0.14180E+06        -0.36280E+08         0.00000E+00
    0.00000E+00         0.00000E+00        -0.10732E+08
 
   -0.15887E+08         0.97765E+06         0.00000E+00
    0.97765E+06        -0.36477E+08         0.00000E+00
    0.00000E+00         0.00000E+00        -0.10473E+08
 
   -0.14402E+08         0.19684E+07         0.00000E+00
    0.19684E+07        -0.36771E+08         0.00000E+00
    0.00000E+00         0.00000E+00        -0.10235E+08
 
   -0.12933E+08         0.31485E+07         0.00000E+00
    0.31485E+07        -0.37162E+08         0.00000E+00
    0.00000E+00         0.00000E+00        -0.10019E+08
 
   -0.11514E+08         0.45565E+07         0.00000E+00
    0.45565E+07        -0.37632E+08         0.00000E+00
    0.00000E+00         0.00000E+00        -0.98293E+07
 
   -0.10212E+08         0.62236E+07         0.00000E+00
    0.62236E+07        -0.38141E+08         0.00000E+00
    0.00000E+00         0.00000E+00        -0.96705E+07
 
   -0.37773E+08        -0.65046E+06         0.00000E+00
   -0.65046E+06        -0.38531E+08         0.00000E+00
    0.00000E+00         0.00000E+00        -0.15261E+08
 
   -0.35134E+08        -0.15683E+07         0.00000E+00
   -0.15683E+07        -0.38578E+08         0.00000E+00
    0.00000E+00         0.00000E+00        -0.14742E+08
 
   -0.32564E+08        -0.20466E+07         0.00000E+00
   -0.20466E+07        -0.38593E+08         0.00000E+00
    0.00000E+00         0.00000E+00        -0.14231E+08
 
   -0.30174E+08        -0.21979E+07         0.00000E+00
   -0.21979E+07        -0.38541E+08         0.00000E+00
    0.00000E+00         0.00000E+00        -0.13743E+08
 
   -0.27993E+08        -0.21239E+07         0.00000E+00
   -0.21239E+07        -0.38432E+08         0.00000E+00
    0.00000E+00         0.00000E+00        -0.13285E+08
 
   -0.26004E+08        -0.18954E+07         0.00000E+00
   -0.18954E+07        -0.38296E+08         0.00000E+00
    0.00000E+00         0.00000E+00        -0.12860E+08
 
   -0.24169E+08        -0.15539E+07         0.00000E+00
   -0.15539E+07        -0.38166E+08         0.00000E+00
    0.00000E+00         0.00000E+00        -0.12467E+08
 
   -0.22445E+08        -0.11194E+07         0.00000E+00
   -0.11194E+07        -0.38073E+08         0.00000E+00
    0.00000E+00         0.00000E+00        -0.12104E+08
 
   -0.20789E+08        -0.59749E+06         0.00000E+00
   -0.59749E+06        -0.38046E+08         0.00000E+00
    0.00000E+00         0.00000E+00        -0.11767E+08
 
   -0.19164E+08         0.18202E+05         0.00000E+00
    0.18202E+05        -0.38108E+08         0.00000E+00
    0.00000E+00         0.00000E+00        -0.11454E+08
 
   -0.17536E+08         0.74593E+06         0.00000E+00
    0.74593E+06        -0.38280E+08         0.00000E+00
    0.00000E+00         0.00000E+00        -0.11163E+08
 
   -0.15880E+08         0.16183E+07         0.00000E+00
    0.16183E+07        -0.38581E+08         0.00000E+00
    0.00000E+00         0.00000E+00        -0.10892E+08
 
   -0.14194E+08         0.26846E+07         0.00000E+00
    0.26846E+07        -0.39017E+08         0.00000E+00
    0.00000E+00         0.00000E+00        -0.10642E+08
 
   -0.12507E+08         0.40079E+07         0.00000E+00
    0.40079E+07        -0.39575E+08         0.00000E+00
    0.00000E+00         0.00000E+00        -0.10416E+08
 
   -0.10902E+08         0.56491E+07         0.00000E+00
    0.56491E+07        -0.40206E+08         0.00000E+00
    0.00000E+00         0.00000E+00        -0.10221E+08
 
   -0.41497E+08        -0.68752E+06         0.00000E+00
   -0.68752E+06        -0.41060E+08         0.00000E+00
    0.00000E+00         0.00000E+00        -0.16511E+08
 
   -0.38319E+08        -0.15807E+07         0.00000E+00
   -0.15807E+07        -0.41068E+08         0.00000E+00
    0.00000E+00         0.00000E+00        -0.15877E+08
 
   -0.35350E+08        -0.19689E+07         0.00000E+00
   -0.19689E+07        -0.40986E+08         0.00000E+00
    0.00000E+00         0.00000E+00        -0.15267E+08
 
   -0.32697E+08        -0.20358E+07         0.00000E+00
   -0.20358E+07        -0.40795E+08         0.00000E+00
    0.00000E+00         0.00000E+00        -0.14698E+08
 
   -0.30349E+08        -0.19161E+07         0.00000E+00
   -0.19161E+07        -0.40536E+08         0.00000E+00
    0.00000E+00         0.00000E+00        -0.14177E+08
 
   -0.28247E+08        -0.16838E+07         0.00000E+00
   -0.16838E+07        -0.40262E+08         0.00000E+00
    0.00000E+00         0.00000E+00        -0.13702E+08
 
   -0.26326E+08        -0.13743E+07         0.00000E+00
   -0.13743E+07        -0.40014E+08         0.00000E+00
    0.00000E+00         0.00000E+00        -0.13268E+08
 
   -0.24525E+08        -0.10017E+07         0.00000E+00
   -0.10017E+07        -0.39824E+08         0.00000E+00
    0.00000E+00         0.00000E+00        -0.12870E+08
 
   -0.22791E+08        -0.56751E+06         0.00000E+00
   -0.56751E+06        -0.39718E+08         0.00000E+00
    0.00000E+00         0.00000E+00        -0.12502E+08
 
   -0.21075E+08        -0.63543E+05         0.00000E+00
   -0.63543E+05        -0.39722E+08         0.00000E+00
    0.00000E+00         0.00000E+00        -0.12159E+08
 
   -0.19330E+08         0.52962E+06         0.00000E+00
    0.52962E+06        -0.39859E+08         0.00000E+00
    0.00000E+00         0.00000E+00        -0.11838E+08
 
   -0.17513E+08         0.12475E+07         0.00000E+00
    0.12475E+07        -0.40154E+08         0.00000E+00
    0.00000E+00         0.00000E+00        -0.11533E+08
 
   -0.15597E+08         0.21520E+07         0.00000E+00
    0.21520E+07        -0.40630E+08         0.00000E+00
    0.00000E+00         0.00000E+00        -0.11245E+08
 
   -0.13595E+08         0.33384E+07         0.00000E+00
    0.33384E+07        -0.41288E+08         0.00000E+00
    0.00000E+00         0.00000E+00        -0.10977E+08
 
   -0.11601E+08         0.49184E+07         0.00000E+00
    0.49184E+07        -0.42077E+08         0.00000E+00
    0.00000E+00         0.00000E+00        -0.10736E+08
 
   -0.45249E+08        -0.71018E+06         0.00000E+00
   -0.71018E+06        -0.43597E+08         0.00000E+00
    0.00000E+00         0.00000E+00        -0.17769E+08
 
   -0.41410E+08        -0.14972E+07         0.00000E+00
   -0.14972E+07        -0.43525E+08         0.00000E+00
    0.00000E+00         0.00000E+00        -0.16987E+08
 
   -0.38035E+08        -0.17291E+07         0.00000E+00
   -0.17291E+07        -0.43265E+08         0.00000E+00
    0.00000E+00         0.00000E+00        -0.16260E+08
 
   -0.35169E+08        -0.16985E+07         0.00000E+00
   -0.16985E+07        -0.42867E+08         0.00000E+00
    0.00000E+00         0.00000E+00        -0.15607E+08
 
   -0.32706E+08        -0.15506E+07         0.00000E+00
   -0.15506E+07        -0.42424E+08         0.00000E+00
    0.00000E+00         0.00000E+00        -0.15026E+08
 
   -0.30531E+08        -0.13396E+07         0.00000E+00
   -0.13396E+07        -0.41998E+08         0.00000E+00
    0.00000E+00         0.00000E+00        -0.14506E+08
 
   -0.28555E+08        -0.10864E+07         0.00000E+00
   -0.10864E+07        -0.41628E+08         0.00000E+00
    0.00000E+00         0.00000E+00        -0.14037E+08
 
   -0.26704E+08        -0.79704E+06         0.00000E+00
   -0.79704E+06        -0.41341E+08         0.00000E+00
    0.00000E+00         0.00000E+00        -0.13609E+08
 
   -0.24916E+08        -0.46983E+06         0.00000E+00
   -0.46983E+06        -0.41158E+08         0.00000E+00
    0.00000E+00         0.00000E+00        -0.13215E+08
 
   -0.23132E+08        -0.96386E+05         0.00000E+00
   -0.96386E+05        -0.41102E+08         0.00000E+00
    0.00000E+00         0.00000E+00        -0.12847E+08
 
   -0.21294E+08         0.34000E+06         0.00000E+00
    0.34000E+06        -0.41197E+08         0.00000E+00
    0.00000E+00         0.00000E+00        -0.12498E+08
 
   -0.19341E+08         0.87044E+06         0.00000E+00
    0.87044E+06        -0.41473E+08         0.00000E+00
    0.00000E+00         0.00000E+00        -0.12163E+08
 
   -0.17203E+08         0.15554E+07         0.00000E+00
    0.15554E+07        -0.41970E+08         0.00000E+00
    0.00000E+00         0.00000E+00        -0.11834E+08
 
   -0.14841E+08         0.25231E+07         0.00000E+00
    0.25231E+07        -0.42732E+08         0.00000E+00
    0.00000E+00         0.00000E+00        -0.11515E+08
 
   -0.12335E+08         0.39746E+07         0.00000E+00
    0.39746E+07        -0.43726E+08         0.00000E+00
    0.00000E+00         0.00000E+00        -0.11212E+08
 
   -0.48941E+08        -0.68915E+06         0.00000E+00
   -0.68915E+06        -0.46122E+08         0.00000E+00
    0.00000E+00         0.00000E+00        -0.19013E+08
 
   -0.44302E+08        -0.12032E+07         0.00000E+00
   -0.12032E+07        -0.45841E+08         0.00000E+00
    0.00000E+00         0.00000E+00        -0.18029E+08
 
   -0.40599E+08        -0.12351E+07         0.00000E+00
   -0.12351E+07        -0.45268E+08         0.00000E+00
    0.00000E+00         0.00000E+00        -0.17173E+08
 
   -0.37615E+08        -0.11486E+07         0.00000E+00
   -0.11486E+07        -0.44620E+08         0.00000E+00
    0.00000E+00         0.00000E+00        -0.16447E+08
 
   -0.35094E+08        -0.10192E+07         0.00000E+00
   -0.10192E+07        -0.43992E+08         0.00000E+00
    0.00000E+00         0.00000E+00        -0.15817E+08
 
   -0.32884E+08        -0.86737E+06         0.00000E+00
   -0.86737E+06        -0.43430E+08         0.00000E+00
    0.00000E+00         0.00000E+00        -0.15263E+08
 
   -0.30879E+08        -0.69904E+06         0.00000E+00
   -0.69904E+06        -0.42957E+08         0.00000E+00
    0.00000E+00         0.00000E+00        -0.14767E+08
 
   -0.28999E+08        -0.51447E+06         0.00000E+00
   -0.51447E+06        -0.42589E+08         0.00000E+00
    0.00000E+00         0.00000E+00        -0.14318E+08
 
   -0.27177E+08        -0.31068E+06         0.00000E+00
   -0.31068E+06        -0.42344E+08         0.00000E+00
    0.00000E+00         0.00000E+00        -0.13904E+08
 
   -0.25349E+08        -0.81471E+05         0.00000E+00
   -0.81471E+05        -0.42237E+08         0.00000E+00
    0.00000E+00         0.00000E+00        -0.13517E+08
 
   -0.23450E+08         0.18410E+06         0.00000E+00
    0.18410E+06        -0.42292E+08         0.00000E+00
    0.00000E+00         0.00000E+00        -0.13148E+08
 
   -0.21398E+08         0.50629E+06         0.00000E+00
    0.50629E+06        -0.42539E+08         0.00000E+00
    0.00000E+00         0.00000E+00        -0.12787E+08
 
   -0.19088E+08         0.92658E+06         0.00000E+00
    0.92658E+06        -0.43030E+08         0.00000E+00
    0.00000E+00         0.00000E+00        -0.12424E+08
 
   -0.16357E+08         0.15498E+07         0.00000E+00
    0.15498E+07        -0.43849E+08         0.00000E+00
    0.00000E+00         0.00000E+00        -0.12041E+08
 
   -0.13164E+08         0.27220E+07         0.00000E+00
    0.27220E+07        -0.45115E+08         0.00000E+00
    0.00000E+00         0.00000E+00        -0.11656E+08
 
   -0.52326E+08        -0.43268E+06         0.00000E+00
   -0.43268E+06        -0.48402E+08         0.00000E+00
    0.00000E+00         0.00000E+00        -0.20146E+08
 
   -0.46918E+08        -0.49661E+06         0.00000E+00
   -0.49661E+06        -0.47608E+08         0.00000E+00
    0.00000E+00         0.00000E+00        -0.18905E+08
 
   -0.43116E+08        -0.45609E+06         0.00000E+00
   -0.45609E+06        -0.46717E+08         0.00000E+00
    0.00000E+00         0.00000E+00        -0.17967E+08
 
   -0.40094E+08        -0.40896E+06         0.00000E+00
   -0.40896E+06        -0.45881E+08         0.00000E+00
    0.00000E+00         0.00000E+00        -0.17195E+08
 
   -0.37555E+08        -0.35648E+06         0.00000E+00
   -0.35648E+06        -0.45133E+08         0.00000E+00
    0.00000E+00         0.00000E+00        -0.16538E+08
 
   -0.35332E+08        -0.30063E+06         0.00000E+00
   -0.30063E+06        -0.44488E+08         0.00000E+00
    0.00000E+00         0.00000E+00        -0.15964E+08
 
   -0.33315E+08        -0.24133E+06         0.00000E+00
   -0.24133E+06        -0.43954E+08         0.00000E+00
    0.00000E+00         0.00000E+00        -0.15454E+08
 
   -0.31422E+08        -0.17777E+06         0.00000E+00
   -0.17777E+06        -0.43542E+08         0.00000E+00
    0.00000E+00         0.00000E+00        -0.14993E+08
 
   -0.29583E+08        -0.10853E+06         0.00000E+00
   -0.10853E+06        -0.43260E+08         0.00000E+00
    0.00000E+00         0.00000E+00        -0.14569E+08
 
   -0.27734E+08        -0.31338E+05         0.00000E+00
   -0.31338E+05        -0.43124E+08         0.00000E+00
    0.00000E+00         0.00000E+00        -0.14172E+08
 
   -0.25802E+08         0.57575E+05         0.00000E+00
    0.57575E+05        -0.43154E+08         0.00000E+00
    0.00000E+00         0.00000E+00        -0.13791E+08
 
   -0.23701E+08         0.16495E+06         0.00000E+00
    0.16495E+06        -0.43379E+08         0.00000E+00
    0.00000E+00         0.00000E+00        -0.13416E+08
 
   -0.21298E+08         0.30537E+06         0.00000E+00
    0.30537E+06        -0.43850E+08         0.00000E+00
    0.00000E+00         0.00000E+00        -0.13030E+08
 
   -0.18364E+08         0.51194E+06         0.00000E+00
    0.51194E+06        -0.44668E+08         0.00000E+00
    0.00000E+00         0.00000E+00        -0.12606E+08
 
   -0.14243E+08         0.10016E+07         0.00000E+00
    0.10016E+07        -0.46109E+08         0.00000E+00
    0.00000E+00         0.00000E+00        -0.12070E+08
 
TENSORS stresstot double 
   -0.38880E+08        -0.95009E+05         0.00000E+00
   -0.95009E+05        -0.59700E+08         0.00000E+00
    0.00000E+00         0.00000E+00        -0.66380E+08
 
   -0.41336E+08        -0.45002E+06         0.00000E+00
   -0.45002E+06        -0.60472E+08         0.00000E+00
    0.00000E+00         0.00000E+00        -0.70045E+08
 
   -0.45817E+08        -0.63234E+06         0.00000E+00
   -0.63234E+06        -0.61504E+08         0.00000E+00
    0.00000E+00         0.00000E+00        -0.71660E+08
 
   -0.49200E+08        -0.52101E+06         0.00000E+00
   -0.52101E+06        -0.62559E+08         0.00000E+00
    0.00000E+00         0.00000E+00        -0.72548E+08
 
   -0.51873E+08        -0.43004E+06         0.00000E+00
   -0.43004E+06        -0.63470E+08         0.00000E+00
    0.00000E+00         0.00000E+00        -0.73265E+08
 
   -0.54160E+08        -0.35227E+06         0.00000E+00
   -0.35227E+06        -0.64231E+08         0.00000E+00
    0.00000E+00         0.00000E+00        -0.73875E+08
 
   -0.56215E+08        -0.27954E+06         0.00000E+00
   -0.27954E+06        -0.64851E+08         0.00000E+00
    0.00000E+00         0.00000E+00        -0.74411E+08
 
   -0.58132E+08        -0.20687E+06         0.00000E+00
   -0.20687E+06        -0.65329E+08         0.00000E+00
    0.00000E+00         0.00000E+00        -0.74890E+08
 
   -0.59991E+08        -0.13081E+06         0.00000E+00
   -0.13081E+06        -0.65662E+08         0.00000E+00
    0.00000E+00         0.00000E+00        -0.75329E+08
 
   -0.61860E+08        -0.47966E+05         0.00000E+00
   -0.47966E+05        -0.65837E+08         0.00000E+00
    0.00000E+00         0.00000E+00        -0.75738E+08
 
   -0.63815E+08         0.46167E+05         0.00000E+00
    0.46167E+05        -0.65836E+08         0.00000E+00
    0.00000E+00         0.00000E+00        -0.76129E+08
 
   -0.65948E+08         0.15900E+06         0.00000E+00
    0.15900E+06        -0.65628E+08         0.00000E+00
    0.00000E+00         0.00000E+00        -0.76515E+08
 
   -0.68398E+08         0.30603E+06         0.00000E+00
    0.30603E+06        -0.65163E+08         0.00000E+00
    0.00000E+00         0.00000E+00        -0.76912E+08
 
   -0.71404E+08         0.52215E+06         0.00000E+00
    0.52215E+06        -0.64334E+08         0.00000E+00
    0.00000E+00         0.00000E+00        -0.77348E+08
 
   -0.75655E+08         0.10349E+07         0.00000E+00
    0.10349E+07        -0.62854E+08         0.00000E+00
    0.00000E+00         0.00000E+00        -0.77902E+08
 
   -0.39023E+08        -0.19143E+06         0.00000E+00
   -0.19143E+06        -0.60484E+08         0.00000E+00
    0.00000E+00         0.00000E+00        -0.68095E+08
 
   -0.42237E+08        -0.10035E+07         0.00000E+00
   -0.10035E+07        -0.60434E+08         0.00000E+00
    0.00000E+00         0.00000E+00        -0.69125E+08
 
   -0.45798E+08        -0.14549E+07         0.00000E+00
   -0.14549E+07        -0.60808E+08         0.00000E+00
    0.00000E+00         0.00000E+00        -0.69912E+08
 
   -0.49063E+08        -0.13751E+07         0.00000E+00
   -0.13751E+07        -0.61423E+08         0.00000E+00
    0.00000E+00         0.00000E+00        -0.70689E+08
 
   -0.51733E+08        -0.11940E+07         0.00000E+00
   -0.11940E+07        -0.62097E+08         0.00000E+00
    0.00000E+00         0.00000E+00        -0.71358E+08
 
   -0.54024E+08        -0.10005E+07         0.00000E+00
   -0.10005E+07        -0.62722E+08         0.00000E+00
    0.00000E+00         0.00000E+00        -0.71943E+08
 
   -0.56077E+08        -0.80198E+06         0.00000E+00
   -0.80198E+06        -0.63255E+08         0.00000E+00
    0.00000E+00         0.00000E+00        -0.72461E+08
 
   -0.57988E+08        -0.59485E+06         0.00000E+00
   -0.59485E+06        -0.63673E+08         0.00000E+00
    0.00000E+00         0.00000E+00        -0.72929E+08
 
   -0.59835E+08        -0.37306E+06         0.00000E+00
   -0.37306E+06        -0.63962E+08         0.00000E+00
    0.00000E+00         0.00000E+00        -0.73357E+08
 
   -0.61685E+08        -0.12828E+06         0.00000E+00
   -0.12828E+06        -0.64103E+08         0.00000E+00
    0.00000E+00         0.00000E+00        -0.73757E+08
 
   -0.63611E+08         0.15214E+06         0.00000E+00
    0.15214E+06        -0.64074E+08         0.00000E+00
    0.00000E+00         0.00000E+00        -0.74137E+08
 
   -0.65695E+08         0.49020E+06         0.00000E+00
    0.49020E+06        -0.63843E+08         0.00000E+00
    0.00000E+00         0.00000E+00        -0.74509E+08
 
   -0.68048E+08         0.92993E+06         0.00000E+00
    0.92993E+06        -0.63357E+08         0.00000E+00
    0.00000E+00         0.00000E+00        -0.74883E+08
 
   -0.70844E+08         0.15816E+07         0.00000E+00
    0.15816E+07        -0.62527E+08         0.00000E+00
    0.00000E+00         0.00000E+00        -0.75277E+08
 
   -0.74122E+08         0.28085E+07         0.00000E+00
    0.28085E+07        -0.61229E+08         0.00000E+00
    0.00000E+00         0.00000E+00        -0.75673E+08
 
   -0.39762E+08        -0.45271E+06         0.00000E+00
   -0.45271E+06        -0.60070E+08         0.00000E+00
    0.00000E+00         0.00000E+00        -0.66956E+08
 
   -0.42932E+08        -0.12605E+07         0.00000E+00
   -0.12605E+07        -0.60303E+08         0.00000E+00
    0.00000E+00         0.00000E+00        -0.67637E+08
 
   -0.46035E+08        -0.17663E+07         0.00000E+00
   -0.17663E+07        -0.60519E+08         0.00000E+00
    0.00000E+00         0.00000E+00        -0.68302E+08
 
   -0.48957E+08        -0.18764E+07         0.00000E+00
   -0.18764E+07        -0.60803E+08         0.00000E+00
    0.00000E+00         0.00000E+00        -0.68944E+08
 
   -0.51538E+08        -0.17406E+07         0.00000E+00
   -0.17406E+07        -0.61204E+08         0.00000E+00
    0.00000E+00         0.00000E+00        -0.69542E+08
 
   -0.53794E+08        -0.15074E+07         0.00000E+00
   -0.15074E+07        -0.61634E+08         0.00000E+00
    0.00000E+00         0.00000E+00        -0.70082E+08
 
   -0.55825E+08        -0.12270E+07         0.00000E+00
   -0.12270E+07        -0.62029E+08         0.00000E+00
    0.00000E+00         0.00000E+00        -0.70569E+08
 
   -0.57715E+08        -0.91202E+06         0.00000E+00
   -0.91202E+06        -0.62346E+08         0.00000E+00
    0.00000E+00         0.00000E+00        -0.71013E+08
 
   -0.59533E+08        -0.56144E+06         0.00000E+00
   -0.56144E+06        -0.62559E+08         0.00000E+00
    0.00000E+00         0.00000E+00        -0.71421E+08
 
   -0.61343E+08        -0.16591E+06         0.00000E+00
   -0.16591E+06        -0.62641E+08         0.00000E+00
    0.00000E+00         0.00000E+00        -0.71802E+08
 
   -0.63207E+08         0.29281E+06         0.00000E+00
    0.29281E+06        -0.62566E+08         0.00000E+00
    0.00000E+00         0.00000E+00        -0.72162E+08
 
   -0.65192E+08         0.84797E+06         0.00000E+00
    0.84797E+06        -0.62303E+08         0.00000E+00
    0.00000E+00         0.00000E+00        -0.72507E+08
 
   -0.67369E+08         0.15635E+07         0.00000E+00
    0.15635E+07        -0.61809E+08         0.00000E+00
    0.00000E+00         0.00000E+00        -0.72845E+08
 
   -0.69778E+08         0.25744E+07         0.00000E+00
    0.25744E+07        -0.61038E+08         0.00000E+00
    0.00000E+00         0.00000E+00        -0.73174E+08
 
   -0.72337E+08         0.40918E+07         0.00000E+00
    0.40918E+07        -0.60025E+08         0.00000E+00
    0.00000E+00         0.00000E+00        -0.73483E+08
 
   -0.40732E+08        -0.57234E+06         0.00000E+00
   -0.57234E+06        -0.60034E+08         0.00000E+00
    0.00000E+00         0.00000E+00        -0.65550E+08
 
   -0.43608E+08        -0.14270E+07         0.00000E+00
   -0.14270E+07        -0.60123E+08         0.00000E+00
    0.00000E+00         0.00000E+00        -0.66144E+08
 
   -0.46362E+08        -0.19399E+07         0.00000E+00
   -0.19399E+07        -0.60243E+08         0.00000E+00
    0.00000E+00         0.00000E+00        -0.66721E+08
 
   -0.48969E+08        -0.21323E+07         0.00000E+00
   -0.21323E+07        -0.60396E+08         0.00000E+00
    0.00000E+00         0.00000E+00        -0.67275E+08
 
   -0.51362E+08        -0.20705E+07         0.00000E+00
   -0.20705E+07        -0.60608E+08         0.00000E+00
    0.00000E+00         0.00000E+00        -0.67799E+08
 
   -0.53524E+08        -0.18469E+07         0.00000E+00
   -0.18469E+07        -0.60861E+08         0.00000E+00
    0.00000E+00         0.00000E+00        -0.68285E+08
 
   -0.55496E+08        -0.15249E+07         0.00000E+00
   -0.15249E+07        -0.61109E+08         0.00000E+00
    0.00000E+00         0.00000E+00        -0.68732E+08
 
   -0.57335E+08        -0.11322E+07         0.00000E+00
   -0.11322E+07        -0.61311E+08         0.00000E+00
    0.00000E+00         0.00000E+00        -0.69143E+08
 
   -0.59101E+08        -0.67501E+06         0.00000E+00
   -0.67501E+06        -0.61433E+08         0.00000E+00
    0.00000E+00         0.00000E+00        -0.69524E+08
 
   -0.60845E+08        -0.14636E+06         0.00000E+00
   -0.14636E+06        -0.61446E+08         0.00000E+00
    0.00000E+00         0.00000E+00        -0.69878E+08
 
   -0.62617E+08         0.47374E+06         0.00000E+00
    0.47374E+06        -0.61323E+08         0.00000E+00
    0.00000E+00         0.00000E+00        -0.70210E+08
 
   -0.64461E+08         0.12226E+07         0.00000E+00
    0.12226E+07        -0.61037E+08         0.00000E+00
    0.00000E+00         0.00000E+00        -0.70524E+08
 
   -0.66408E+08         0.21656E+07         0.00000E+00
    0.21656E+07        -0.60563E+08         0.00000E+00
    0.00000E+00         0.00000E+00        -0.70821E+08
 
   -0.68441E+08         0.34028E+07         0.00000E+00
    0.34028E+07        -0.59901E+08         0.00000E+00
    0.00000E+00         0.00000E+00        -0.71096E+08
 
   -0.70465E+08         0.50518E+07         0.00000E+00
    0.50518E+07        -0.59103E+08         0.00000E+00
    0.00000E+00         0.00000E+00        -0.71342E+08
 
   -0.41807E+08        -0.60341E+06         0.00000E+00
   -0.60341E+06        -0.60001E+08         0.00000E+00
    0.00000E+00         0.00000E+00        -0.64179E+08
 
   -0.44298E+08        -0.14902E+07         0.00000E+00
   -0.14902E+07        -0.60016E+08         0.00000E+00
    0.00000E+00         0.00000E+00        -0.64681E+08
 
   -0.46724E+08        -0.20230E+07         0.00000E+00
   -0.20230E+07        -0.60047E+08         0.00000E+00
    0.00000E+00         0.00000E+00        -0.65175E+08
 
   -0.49048E+08        -0.22549E+07         0.00000E+00
   -0.22549E+07        -0.60104E+08         0.00000E+00
    0.00000E+00         0.00000E+00        -0.65654E+08
 
   -0.51227E+08        -0.22394E+07         0.00000E+00
   -0.22394E+07        -0.60194E+08         0.00000E+00
    0.00000E+00         0.00000E+00        -0.66111E+08
 
   -0.53246E+08        -0.20364E+07         0.00000E+00
   -0.20364E+07        -0.60311E+08         0.00000E+00
    0.00000E+00         0.00000E+00        -0.66542E+08
 
   -0.55117E+08        -0.16965E+07         0.00000E+00
   -0.16965E+07        -0.60433E+08         0.00000E+00
    0.00000E+00         0.00000E+00        -0.66945E+08
 
   -0.56875E+08        -0.12501E+07         0.00000E+00
   -0.12501E+07        -0.60526E+08         0.00000E+00
    0.00000E+00         0.00000E+00        -0.67319E+08
 
   -0.58560E+08        -0.70890E+06         0.00000E+00
   -0.70890E+06        -0.60561E+08         0.00000E+00
    0.00000E+00         0.00000E+00        -0.67667E+08
 
   -0.60211E+08        -0.68952E+05         0.00000E+00
   -0.68952E+05        -0.60508E+08         0.00000E+00
    0.00000E+00         0.00000E+00        -0.67990E+08
 
   -0.61864E+08         0.68754E+06         0.00000E+00
    0.68754E+06        -0.60344E+08         0.00000E+00
    0.00000E+00         0.00000E+00        -0.68291E+08
 
   -0.63542E+08         0.15943E+07         0.00000E+00
    0.15943E+07        -0.60050E+08         0.00000E+00
    0.00000E+00         0.00000E+00        -0.68570E+08
 
   -0.65251E+08         0.27029E+07         0.00000E+00
    0.27029E+07        -0.59616E+08         0.00000E+00
    0.00000E+00         0.00000E+00        -0.68828E+08
 
   -0.66957E+08         0.40797E+07         0.00000E+00
    0.40797E+07        -0.59058E+08         0.00000E+00
    0.00000E+00         0.00000E+00        -0.69059E+08
 
   -0.68574E+08         0.57889E+07         0.00000E+00
    0.57889E+07        -0.58425E+08         0.00000E+00
    0.00000E+00         0.00000E+00        -0.69256E+08
 
   -0.42899E+08        -0.59147E+06         0.00000E+00
   -0.59147E+06        -0.59989E+08         0.00000E+00
    0.00000E+00         0.00000E+00        -0.62829E+08
 
   -0.45004E+08        -0.14800E+07         0.00000E+00
   -0.14800E+07        -0.59958E+08         0.00000E+00
    0.00000E+00         0.00000E+00        -0.63246E+08
 
   -0.47111E+08        -0.20265E+07         0.00000E+00
   -0.20265E+07        -0.59925E+08         0.00000E+00
    0.00000E+00         0.00000E+00        -0.63663E+08
 
   -0.49163E+08        -0.22832E+07         0.00000E+00
   -0.22832E+07        -0.59906E+08         0.00000E+00
    0.00000E+00         0.00000E+00        -0.64074E+08
 
   -0.51123E+08        -0.22957E+07         0.00000E+00
   -0.22957E+07        -0.59907E+08         0.00000E+00
    0.00000E+00         0.00000E+00        -0.64470E+08
 
   -0.52972E+08        -0.21084E+07         0.00000E+00
   -0.21084E+07        -0.59926E+08         0.00000E+00
    0.00000E+00         0.00000E+00        -0.64848E+08
 
   -0.54710E+08        -0.17598E+07         0.00000E+00
   -0.17598E+07        -0.59948E+08         0.00000E+00
    0.00000E+00         0.00000E+00        -0.65205E+08
 
   -0.56355E+08        -0.12764E+07         0.00000E+00
   -0.12764E+07        -0.59951E+08         0.00000E+00
    0.00000E+00         0.00000E+00        -0.65539E+08
 
   -0.57932E+08        -0.67096E+06         0.00000E+00
   -0.67096E+06        -0.59912E+08         0.00000E+00
    0.00000E+00         0.00000E+00        -0.65850E+08
 
   -0.59466E+08         0.57233E+05         0.00000E+00
    0.57233E+05        -0.59805E+08         0.00000E+00
    0.00000E+00         0.00000E+00        -0.66140E+08
 
   -0.60979E+08         0.92151E+06         0.00000E+00
    0.92151E+06        -0.59613E+08         0.00000E+00
    0.00000E+00         0.00000E+00        -0.66408E+08
 
   -0.62481E+08         0.19473E+07         0.00000E+00
    0.19473E+07        -0.59323E+08         0.00000E+00
    0.00000E+00         0.00000E+00        -0.66653E+08
 
   -0.63964E+08         0.31705E+07         0.00000E+00
    0.31705E+07        -0.58935E+08         0.00000E+00
    0.00000E+00         0.00000E+00        -0.66875E+08
 
   -0.65391E+08         0.46313E+07         0.00000E+00
    0.46313E+07        -0.58468E+08         0.00000E+00
    0.00000E+00         0.00000E+00        -0.67069E+08
 
   -0.66692E+08         0.63627E+07         0.00000E+00
    0.63627E+07        -0.57963E+08         0.00000E+00
    0.00000E+00         0.00000E+00        -0.67229E+08
 
   -0.43959E+08        -0.56083E+06         0.00000E+00
   -0.56083E+06        -0.59984E+08         0.00000E+00
    0.00000E+00         0.00000E+00        -0.61492E+08
 
   -0.45709E+08        -0.14237E+07         0.00000E+00
   -0.14237E+07        -0.59929E+08         0.00000E+00
    0.00000E+00         0.00000E+00        -0.61833E+08
 
   -0.47511E+08        -0.19709E+07         0.00000E+00
   -0.19709E+07        -0.59855E+08         0.00000E+00
    0.00000E+00         0.00000E+00        -0.62181E+08
 
   -0.49300E+08        -0.22411E+07         0.00000E+00
   -0.22411E+07        -0.59781E+08         0.00000E+00
    0.00000E+00         0.00000E+00        -0.62529E+08
 
   -0.51038E+08        -0.22706E+07         0.00000E+00
   -0.22706E+07        -0.59719E+08         0.00000E+00
    0.00000E+00         0.00000E+00        -0.62869E+08
 
   -0.52701E+08        -0.20935E+07         0.00000E+00
   -0.20935E+07        -0.59667E+08         0.00000E+00
    0.00000E+00         0.00000E+00        -0.63196E+08
 
   -0.54284E+08        -0.17392E+07         0.00000E+00
   -0.17392E+07        -0.59616E+08         0.00000E+00
    0.00000E+00         0.00000E+00        -0.63507E+08
 
   -0.55791E+08        -0.12295E+07         0.00000E+00
   -0.12295E+07        -0.59552E+08         0.00000E+00
    0.00000E+00         0.00000E+00        -0.63800E+08
 
   -0.57236E+08        -0.57637E+06         0.00000E+00
   -0.57637E+06        -0.59457E+08         0.00000E+00
    0.00000E+00         0.00000E+00        -0.64075E+08
 
   -0.58634E+08         0.21847E+06         0.00000E+00
    0.21847E+06        -0.59313E+08         0.00000E+00
    0.00000E+00         0.00000E+00        -0.64330E+08
 
   -0.59995E+08         0.11631E+07         0.00000E+00
    0.11631E+07        -0.59105E+08         0.00000E+00
    0.00000E+00         0.00000E+00        -0.64564E+08
 
   -0.61320E+08         0.22738E+07         0.00000E+00
    0.22738E+07        -0.58829E+08         0.00000E+00
    0.00000E+00         0.00000E+00        -0.64777E+08
 
   -0.62594E+08         0.35726E+07         0.00000E+00
    0.35726E+07        -0.58487E+08         0.00000E+00
    0.00000E+00         0.00000E+00        -0.64966E+08
 
   -0.63784E+08         0.50812E+07         0.00000E+00
    0.50812E+07        -0.58096E+08         0.00000E+00
    0.00000E+00         0.00000E+00        -0.65128E+08
 
   -0.64833E+08         0.68133E+07         0.00000E+00
    0.68133E+07        -0.57692E+08         0.00000E+00
    0.00000E+00         0.00000E+00        -0.65258E+08
 
   -0.44962E+08        -0.52227E+06         0.00000E+00
   -0.52227E+06        -0.59982E+08         0.00000E+00
    0.00000E+00         0.00000E+00        -0.60162E+08
 
   -0.46397E+08        -0.13424E+07         0.00000E+00
   -0.13424E+07        -0.59916E+08         0.00000E+00
    0.00000E+00         0.00000E+00        -0.60438E+08
 
   -0.47913E+08        -0.18772E+07         0.00000E+00
   -0.18772E+07        -0.59819E+08         0.00000E+00
    0.00000E+00         0.00000E+00        -0.60725E+08
 
   -0.49449E+08        -0.21507E+07         0.00000E+00
   -0.21507E+07        -0.59712E+08         0.00000E+00
    0.00000E+00         0.00000E+00        -0.61015E+08
 
   -0.50964E+08        -0.21891E+07         0.00000E+00
   -0.21891E+07        -0.59607E+08         0.00000E+00
    0.00000E+00         0.00000E+00        -0.61302E+08
 
   -0.52433E+08        -0.20177E+07         0.00000E+00
   -0.20177E+07        -0.59508E+08         0.00000E+00
    0.00000E+00         0.00000E+00        -0.61581E+08
 
   -0.53844E+08        -0.16590E+07         0.00000E+00
   -0.16590E+07        -0.59409E+08         0.00000E+00
    0.00000E+00         0.00000E+00        -0.61848E+08
 
   -0.55195E+08        -0.11304E+07         0.00000E+00
   -0.11304E+07        -0.59300E+08         0.00000E+00
    0.00000E+00         0.00000E+00        -0.62101E+08
 
   -0.56492E+08        -0.44285E+06         0.00000E+00
   -0.44285E+06        -0.59168E+08         0.00000E+00
    0.00000E+00         0.00000E+00        -0.62339E+08
 
   -0.57739E+08         0.40008E+06         0.00000E+00
    0.40008E+06        -0.59002E+08         0.00000E+00
    0.00000E+00         0.00000E+00        -0.62559E+08
 
   -0.58940E+08         0.14015E+07         0.00000E+00
    0.14015E+07        -0.58792E+08         0.00000E+00
    0.00000E+00         0.00000E+00        -0.62761E+08
 
   -0.60090E+08         0.25698E+07         0.00000E+00
    0.25698E+07        -0.58535E+08         0.00000E+00
    0.00000E+00         0.00000E+00        -0.62943E+08
 
   -0.61173E+08         0.39159E+07         0.00000E+00
    0.39159E+07        -0.58236E+08         0.00000E+00
    0.00000E+00         0.00000E+00        -0.63103E+08
 
   -0.62160E+08         0.54485E+07         0.00000E+00
    0.54485E+07        -0.57912E+08         0.00000E+00
    0.00000E+00         0.00000E+00        -0.63237E+08
 
   -0.63006E+08         0.71687E+07         0.00000E+00
    0.71687E+07        -0.57587E+08         0.00000E+00
    0.00000E+00         0.00000E+00        -0.63343E+08
 
   -0.45897E+08        -0.48138E+06         0.00000E+00
   -0.48138E+06        -0.59982E+08         0.00000E+00
    0.00000E+00         0.00000E+00        -0.58837E+08
 
   -0.47054E+08        -0.12503E+07         0.00000E+00
   -0.12503E+07        -0.59913E+08         0.00000E+00
    0.00000E+00         0.00000E+00        -0.59057E+08
 
   -0.48308E+08        -0.17631E+07         0.00000E+00
   -0.17631E+07        -0.59806E+08         0.00000E+00
    0.00000E+00         0.00000E+00        -0.59290E+08
 
   -0.49602E+08        -0.20318E+07         0.00000E+00
   -0.20318E+07        -0.59683E+08         0.00000E+00
    0.00000E+00         0.00000E+00        -0.59528E+08
 
   -0.50896E+08        -0.20728E+07         0.00000E+00
   -0.20728E+07        -0.59556E+08         0.00000E+00
    0.00000E+00         0.00000E+00        -0.59766E+08
 
   -0.52165E+08        -0.19037E+07         0.00000E+00
   -0.19037E+07        -0.59430E+08         0.00000E+00
    0.00000E+00         0.00000E+00        -0.60000E+08
 
   -0.53394E+08        -0.15412E+07         0.00000E+00
   -0.15412E+07        -0.59303E+08         0.00000E+00
    0.00000E+00         0.00000E+00        -0.60225E+08
 
   -0.54576E+08        -0.99929E+06         0.00000E+00
   -0.99929E+06        -0.59168E+08         0.00000E+00
    0.00000E+00         0.00000E+00        -0.60439E+08
 
   -0.55711E+08        -0.28771E+06         0.00000E+00
   -0.28771E+06        -0.59018E+08         0.00000E+00
    0.00000E+00         0.00000E+00        -0.60640E+08
 
   -0.56799E+08         0.58837E+06         0.00000E+00
    0.58837E+06        -0.58845E+08         0.00000E+00
    0.00000E+00         0.00000E+00        -0.60827E+08
 
   -0.57837E+08         0.16280E+07         0.00000E+00
    0.16280E+07        -0.58643E+08         0.00000E+00
    0.00000E+00         0.00000E+00        -0.60997E+08
 
   -0.58817E+08         0.28332E+07         0.00000E+00
    0.28332E+07        -0.58410E+08         0.00000E+00
    0.00000E+00         0.00000E+00        -0.61150E+08
 
   -0.59725E+08         0.42064E+07         0.00000E+00
    0.42064E+07        -0.58154E+08         0.00000E+00
    0.00000E+00         0.00000E+00        -0.61283E+08
 
   -0.60535E+08         0.57473E+07         0.00000E+00
    0.57473E+07        -0.57886E+08         0.00000E+00
    0.00000E+00         0.00000E+00        -0.61393E+08
 
   -0.61213E+08         0.74490E+07         0.00000E+00
    0.74490E+07        -0.57627E+08         0.00000E+00
    0.00000E+00         0.00000E+00        -0.61478E+08
 
   -0.46760E+08        -0.44160E+06         0.00000E+00
   -0.44160E+06        -0.59983E+08         0.00000E+00
    0.00000E+00         0.00000E+00        -0.57517E+08
 
   -0.47675E+08        -0.11571E+07         0.00000E+00
   -0.11571E+07        -0.59917E+08         0.00000E+00
    0.00000E+00         0.00000E+00        -0.57689E+08
 
   -0.48689E+08        -0.16428E+07         0.00000E+00
   -0.16428E+07        -0.59811E+08         0.00000E+00
    0.00000E+00         0.00000E+00        -0.57873E+08
 
   -0.49752E+08        -0.19011E+07         0.00000E+00
   -0.19011E+07        -0.59686E+08         0.00000E+00
    0.00000E+00         0.00000E+00        -0.58065E+08
 
   -0.50830E+08        -0.19400E+07         0.00000E+00
   -0.19400E+07        -0.59552E+08         0.00000E+00
    0.00000E+00         0.00000E+00        -0.58258E+08
 
   -0.51897E+08        -0.17707E+07         0.00000E+00
   -0.17707E+07        -0.59417E+08         0.00000E+00
    0.00000E+00         0.00000E+00        -0.58448E+08
 
   -0.52937E+08        -0.14051E+07         0.00000E+00
   -0.14051E+07        -0.59279E+08         0.00000E+00
    0.00000E+00         0.00000E+00        -0.58633E+08
 
   -0.53942E+08        -0.85399E+06         0.00000E+00
   -0.85399E+06        -0.59137E+08         0.00000E+00
    0.00000E+00         0.00000E+00        -0.58809E+08
 
   -0.54907E+08        -0.12640E+06         0.00000E+00
   -0.12640E+06        -0.58984E+08         0.00000E+00
    0.00000E+00         0.00000E+00        -0.58976E+08
 
   -0.55829E+08         0.77138E+06         0.00000E+00
    0.77138E+06        -0.58816E+08         0.00000E+00
    0.00000E+00         0.00000E+00        -0.59130E+08
 
   -0.56702E+08         0.18353E+07         0.00000E+00
    0.18353E+07        -0.58630E+08         0.00000E+00
    0.00000E+00         0.00000E+00        -0.59270E+08
 
   -0.57518E+08         0.30623E+07         0.00000E+00
    0.30623E+07        -0.58427E+08         0.00000E+00
    0.00000E+00         0.00000E+00        -0.59396E+08
 
   -0.58263E+08         0.44489E+07         0.00000E+00
    0.44489E+07        -0.58211E+08         0.00000E+00
    0.00000E+00         0.00000E+00        -0.59504E+08
 
   -0.58917E+08         0.59884E+07         0.00000E+00
    0.59884E+07        -0.57993E+08         0.00000E+00
    0.00000E+00         0.00000E+00        -0.59593E+08
 
   -0.59453E+08         0.76684E+07         0.00000E+00
    0.76684E+07        -0.57788E+08         0.00000E+00
    0.00000E+00         0.00000E+00        -0.59660E+08
 
   -0.47556E+08        -0.40527E+06         0.00000E+00
   -0.40527E+06        -0.59985E+08         0.00000E+00
    0.00000E+00         0.00000E+00        -0.56200E+08
 
   -0.48256E+08        -0.10698E+07         0.00000E+00
   -0.10698E+07        -0.59926E+08         0.00000E+00
    0.00000E+00         0.00000E+00        -0.56330E+08
 
   -0.49050E+08        -0.15273E+07         0.00000E+00
   -0.15273E+07        -0.59829E+08         0.00000E+00
    0.00000E+00         0.00000E+00        -0.56472E+08
 
   -0.49896E+08        -0.17722E+07         0.00000E+00
   -0.17722E+07        -0.59712E+08         0.00000E+00
    0.00000E+00         0.00000E+00        -0.56621E+08
 
   -0.50762E+08        -0.18063E+07         0.00000E+00
   -0.18063E+07        -0.59585E+08         0.00000E+00
    0.00000E+00         0.00000E+00        -0.56773E+08
 
   -0.51627E+08        -0.16351E+07         0.00000E+00
   -0.16351E+07        -0.59455E+08         0.00000E+00
    0.00000E+00         0.00000E+00        -0.56923E+08
 
   -0.52475E+08        -0.12667E+07         0.00000E+00
   -0.12667E+07        -0.59322E+08         0.00000E+00
    0.00000E+00         0.00000E+00        -0.57069E+08
 
   -0.53298E+08        -0.70968E+06         0.00000E+00
   -0.70968E+06        -0.59185E+08         0.00000E+00
    0.00000E+00         0.00000E+00        -0.57210E+08
 
   -0.54088E+08         0.27993E+05         0.00000E+00
    0.27993E+05        -0.59042E+08         0.00000E+00
    0.00000E+00         0.00000E+00        -0.57342E+08
 
   -0.54840E+08         0.93909E+06         0.00000E+00
    0.93909E+06        -0.58890E+08         0.00000E+00
    0.00000E+00         0.00000E+00        -0.57465E+08
 
   -0.55549E+08         0.20172E+07         0.00000E+00
    0.20172E+07        -0.58728E+08         0.00000E+00
    0.00000E+00         0.00000E+00        -0.57577E+08
 
   -0.56206E+08         0.32557E+07         0.00000E+00
    0.32557E+07        -0.58557E+08         0.00000E+00
    0.00000E+00         0.00000E+00        -0.57676E+08
 
   -0.56799E+08         0.46467E+07         0.00000E+00
    0.46467E+07        -0.58381E+08         0.00000E+00
    0.00000E+00         0.00000E+00        -0.57761E+08
 
   -0.57312E+08         0.61793E+07         0.00000E+00
    0.61793E+07        -0.58208E+08         0.00000E+00
    0.00000E+00         0.00000E+00        -0.57831E+08
 
   -0.57725E+08         0.78374E+07         0.00000E+00
    0.78374E+07        -0.58050E+08         0.00000E+00
    0.00000E+00         0.00000E+00        -0.57882E+08
 
   -0.48290E+08        -0.37412E+06         0.00000E+00
   -0.37412E+06        -0.59987E+08         0.00000E+00
    0.00000E+00         0.00000E+00        -0.54887E+08
 
   -0.48801E+08        -0.99375E+06         0.00000E+00
   -0.99375E+06        -0.59938E+08         0.00000E+00
    0.00000E+00         0.00000E+00        -0.54981E+08
 
   -0.49392E+08        -0.14247E+07         0.00000E+00
   -0.14247E+07        -0.59857E+08         0.00000E+00
    0.00000E+00         0.00000E+00        -0.55085E+08
 
   -0.50030E+08        -0.16559E+07         0.00000E+00
   -0.16559E+07        -0.59756E+08         0.00000E+00
    0.00000E+00         0.00000E+00        -0.55194E+08
 
   -0.50691E+08        -0.16839E+07         0.00000E+00
   -0.16839E+07        -0.59646E+08         0.00000E+00
    0.00000E+00         0.00000E+00        -0.55307E+08
 
   -0.51355E+08        -0.15101E+07         0.00000E+00
   -0.15101E+07        -0.59532E+08         0.00000E+00
    0.00000E+00         0.00000E+00        -0.55419E+08
 
   -0.52010E+08        -0.11395E+07         0.00000E+00
   -0.11395E+07        -0.59415E+08         0.00000E+00
    0.00000E+00         0.00000E+00        -0.55529E+08
 
   -0.52647E+08        -0.57874E+06         0.00000E+00
   -0.57874E+06        -0.59296E+08         0.00000E+00
    0.00000E+00         0.00000E+00        -0.55635E+08
 
   -0.53259E+08         0.16481E+06         0.00000E+00
    0.16481E+06        -0.59173E+08         0.00000E+00
    0.00000E+00         0.00000E+00        -0.55735E+08
 
   -0.53841E+08         0.10834E+07         0.00000E+00
    0.10834E+07        -0.59046E+08         0.00000E+00
    0.00000E+00         0.00000E+00        -0.55827E+08
 
   -0.54387E+08         0.21688E+07         0.00000E+00
    0.21688E+07        -0.58913E+08         0.00000E+00
    0.00000E+00         0.00000E+00        -0.55912E+08
 
   -0.54889E+08         0.34121E+07         0.00000E+00
    0.34121E+07        -0.58777E+08         0.00000E+00
    0.00000E+00         0.00000E+00        -0.55986E+08
 
   -0.55338E+08         0.48023E+07         0.00000E+00
    0.48023E+07        -0.58641E+08         0.00000E+00
    0.00000E+00         0.00000E+00        -0.56050E+08
 
   -0.55722E+08         0.63256E+07         0.00000E+00
    0.63256E+07        -0.58510E+08         0.00000E+00
    0.00000E+00         0.00000E+00        -0.56102E+08
 
   -0.56025E+08         0.79635E+07         0.00000E+00
    0.79635E+07        -0.58394E+08         0.00000E+00
    0.00000E+00         0.00000E+00        -0.56140E+08
 
   -0.48974E+08        -0.34944E+06         0.00000E+00
   -0.34944E+06        -0.59990E+08         0.00000E+00
    0.00000E+00         0.00000E+00        -0.53577E+08
 
   -0.49314E+08        -0.93277E+06         0.00000E+00
   -0.93277E+06        -0.59953E+08         0.00000E+00
    0.00000E+00         0.00000E+00        -0.53638E+08
 
   -0.49715E+08        -0.13415E+07         0.00000E+00
   -0.13415E+07        -0.59891E+08         0.00000E+00
    0.00000E+00         0.00000E+00        -0.53707E+08
 
   -0.50155E+08        -0.15605E+07         0.00000E+00
   -0.15605E+07        -0.59814E+08         0.00000E+00
    0.00000E+00         0.00000E+00        -0.53781E+08
 
   -0.50615E+08        -0.15825E+07         0.00000E+00
   -0.15825E+07        -0.59728E+08         0.00000E+00
    0.00000E+00         0.00000E+00        -0.53857E+08
 
   -0.51081E+08        -0.14060E+07         0.00000E+00
   -0.14060E+07        -0.59638E+08         0.00000E+00
    0.00000E+00         0.00000E+00        -0.53934E+08
 
   -0.51543E+08        -0.10337E+07         0.00000E+00
   -0.10337E+07        -0.59547E+08         0.00000E+00
    0.00000E+00         0.00000E+00        -0.54009E+08
 
   -0.51993E+08        -0.47081E+06         0.00000E+00
   -0.47081E+06        -0.59454E+08         0.00000E+00
    0.00000E+00         0.00000E+00        -0.54081E+08
 
   -0.52425E+08         0.27576E+06         0.00000E+00
    0.27576E+06        -0.59360E+08         0.00000E+00
    0.00000E+00         0.00000E+00        -0.54149E+08
 
   -0.52836E+08         0.11979E+07         0.00000E+00
    0.11979E+07        -0.59263E+08         0.00000E+00
    0.00000E+00         0.00000E+00        -0.54213E+08
 
   -0.53220E+08         0.22864E+07         0.00000E+00
    0.22864E+07        -0.59164E+08         0.00000E+00
    0.00000E+00         0.00000E+00        -0.54270E+08
 
   -0.53571E+08         0.35304E+07         0.00000E+00
    0.35304E+07        -0.59065E+08         0.00000E+00
    0.00000E+00         0.00000E+00        -0.54321E+08
 
   -0.53883E+08         0.49172E+07         0.00000E+00
    0.49172E+07        -0.58968E+08         0.00000E+00
    0.00000E+00         0.00000E+00        -0.54365E+08
 
   -0.54145E+08         0.64309E+07         0.00000E+00
    0.64309E+07        -0.58877E+08         0.00000E+00
    0.00000E+00         0.00000E+00        -0.54400E+08
 
   -0.54349E+08         0.80517E+07         0.00000E+00
    0.80517E+07        -0.58799E+08         0.00000E+00
    0.00000E+00         0.00000E+00        -0.54425E+08
 
   -0.49620E+08        -0.33212E+06         0.00000E+00
   -0.33212E+06        -0.59994E+08         0.00000E+00
    0.00000E+00         0.00000E+00        -0.52270E+08
 
   -0.49802E+08        -0.88965E+06         0.00000E+00
   -0.88965E+06        -0.59970E+08         0.00000E+00
    0.00000E+00         0.00000E+00        -0.52302E+08
 
   -0.50024E+08        -0.12821E+07         0.00000E+00
   -0.12821E+07        -0.59930E+08         0.00000E+00
    0.00000E+00         0.00000E+00        -0.52338E+08
 
   -0.50273E+08        -0.14918E+07         0.00000E+00
   -0.14918E+07        -0.59880E+08         0.00000E+00
    0.00000E+00         0.00000E+00        -0.52378E+08
 
   -0.50536E+08        -0.15090E+07         0.00000E+00
   -0.15090E+07        -0.59824E+08         0.00000E+00
    0.00000E+00         0.00000E+00        -0.52420E+08
 
   -0.50805E+08        -0.13303E+07         0.00000E+00
   -0.13303E+07        -0.59766E+08         0.00000E+00
    0.00000E+00         0.00000E+00        -0.52462E+08
 
   -0.51074E+08        -0.95687E+06         0.00000E+00
   -0.95687E+06        -0.59706E+08         0.00000E+00
    0.00000E+00         0.00000E+00        -0.52503E+08
 
   -0.51336E+08        -0.39297E+06         0.00000E+00
   -0.39297E+06        -0.59645E+08         0.00000E+00
    0.00000E+00         0.00000E+00        -0.52543E+08
 
   -0.51589E+08         0.35479E+06         0.00000E+00
    0.35479E+06        -0.59584E+08         0.00000E+00
    0.00000E+00         0.00000E+00        -0.52581E+08
 
   -0.51829E+08         0.12781E+07         0.00000E+00
    0.12781E+07        -0.59522E+08         0.00000E+00
    0.00000E+00         0.00000E+00        -0.52616E+08
 
   -0.52052E+08         0.23670E+07         0.00000E+00
    0.23670E+07        -0.59461E+08         0.00000E+00
    0.00000E+00         0.00000E+00        -0.52647E+08
 
   -0.52255E+08         0.36098E+07         0.00000E+00
    0.36098E+07        -0.59400E+08         0.00000E+00
    0.00000E+00         0.00000E+00        -0.52675E+08
 
   -0.52433E+08         0.49924E+07         0.00000E+00
    0.49924E+07        -0.59342E+08         0.00000E+00
    0.00000E+00         0.00000E+00        -0.52699E+08
 
   -0.52581E+08         0.64978E+07         0.00000E+00
    0.64978E+07        -0.59290E+08         0.00000E+00
    0.00000E+00         0.00000E+00        -0.52718E+08
 
   -0.52691E+08         0.81056E+07         0.00000E+00
    0.81056E+07        -0.59247E+08         0.00000E+00
    0.00000E+00         0.00000E+00        -0.52732E+08
 
   -0.50242E+08        -0.32279E+06         0.00000E+00
   -0.32279E+06        -0.59998E+08         0.00000E+00
    0.00000E+00         0.00000E+00        -0.50965E+08
 
   -0.50274E+08        -0.86619E+06         0.00000E+00
   -0.86619E+06        -0.59988E+08         0.00000E+00
    0.00000E+00         0.00000E+00        -0.50969E+08
 
   -0.50323E+08        -0.12496E+07         0.00000E+00
   -0.12496E+07        -0.59972E+08         0.00000E+00
    0.00000E+00         0.00000E+00        -0.50975E+08
 
   -0.50385E+08        -0.14538E+07         0.00000E+00
   -0.14538E+07        -0.59952E+08         0.00000E+00
    0.00000E+00         0.00000E+00        -0.50983E+08
 
   -0.50454E+08        -0.14681E+07         0.00000E+00
   -0.14681E+07        -0.59929E+08         0.00000E+00
    0.00000E+00         0.00000E+00        -0.50991E+08
 
   -0.50528E+08        -0.12880E+07         0.00000E+00
   -0.12880E+07        -0.59905E+08         0.00000E+00
    0.00000E+00         0.00000E+00        -0.50999E+08
 
   -0.50604E+08        -0.91397E+06         0.00000E+00
   -0.91397E+06        -0.59881E+08         0.00000E+00
    0.00000E+00         0.00000E+00        -0.51007E+08
 
   -0.50679E+08        -0.34984E+06         0.00000E+00
   -0.34984E+06        -0.59856E+08         0.00000E+00
    0.00000E+00         0.00000E+00        -0.51015E+08
 
   -0.50753E+08         0.39795E+06         0.00000E+00
    0.39795E+06        -0.59831E+08         0.00000E+00
    0.00000E+00         0.00000E+00        -0.51023E+08
 
   -0.50822E+08         0.13209E+07         0.00000E+00
    0.13209E+07        -0.59807E+08         0.00000E+00
    0.00000E+00         0.00000E+00        -0.51030E+08
 
   -0.50886E+08         0.24089E+07         0.00000E+00
    0.24089E+07        -0.59784E+08         0.00000E+00
    0.00000E+00         0.00000E+00        -0.51037E+08
 
   -0.50942E+08         0.36496E+07         0.00000E+00
    0.36496E+07        -0.59763E+08         0.00000E+00
    0.00000E+00         0.00000E+00        -0.51043E+08
 
   -0.50989E+08         0.50285E+07         0.00000E+00
    0.50285E+07        -0.59745E+08         0.00000E+00
    0.00000E+00         0.00000E+00        -0.51047E+08
 
   -0.51025E+08         0.65280E+07         0.00000E+00
    0.65280E+07        -0.59731E+08         0.00000E+00
    0.00000E+00         0.00000E+00        -0.51051E+08
 
   -0.51046E+08         0.81273E+07         0.00000E+00
    0.81273E+07        -0.59721E+08         0.00000E+00
    0.00000E+00         0.00000E+00        -0.51053E+08
 
   -0.50853E+08        -0.32172E+06         0.00000E+00
   -0.32172E+06        -0.60001E+08         0.00000E+00
    0.00000E+00         0.00000E+00        -0.49662E+08
 
   -0.50739E+08        -0.86333E+06         0.00000E+00
   -0.86333E+06        -0.60007E+08         0.00000E+00
    0.00000E+00         0.00000E+00        -0.49640E+08
 
   -0.50618E+08        -0.12453E+07         0.00000E+00
   -0.12453E+07        -0.60016E+08         0.00000E+00
    0.00000E+00         0.00000E+00        -0.49616E+08
 
   -0.50495E+08        -0.14485E+07         0.00000E+00
   -0.14485E+07        -0.60026E+08         0.00000E+00
    0.00000E+00         0.00000E+00        -0.49591E+08
 
   -0.50371E+08        -0.14621E+07         0.00000E+00
   -0.14621E+07        -0.60038E+08         0.00000E+00
    0.00000E+00         0.00000E+00        -0.49566E+08
 
   -0.50251E+08        -0.12816E+07         0.00000E+00
   -0.12816E+07        -0.60049E+08         0.00000E+00
    0.00000E+00         0.00000E+00        -0.49541E+08
 
   -0.50134E+08        -0.90748E+06         0.00000E+00
   -0.90748E+06        -0.60061E+08         0.00000E+00
    0.00000E+00         0.00000E+00        -0.49517E+08
 
   -0.50023E+08        -0.34370E+06         0.00000E+00
   -0.34370E+06        -0.60073E+08         0.00000E+00
    0.00000E+00         0.00000E+00        -0.49493E+08
 
   -0.49916E+08         0.40328E+06         0.00000E+00
    0.40328E+06        -0.60086E+08         0.00000E+00
    0.00000E+00         0.00000E+00        -0.49472E+08
 
   -0.49816E+08         0.13250E+07         0.00000E+00
    0.13250E+07        -0.60101E+08         0.00000E+00
    0.00000E+00         0.00000E+00        -0.49451E+08
 
   -0.49721E+08         0.24112E+07         0.00000E+00
    0.24112E+07        -0.60117E+08         0.00000E+00
    0.00000E+00         0.00000E+00        -0.49433E+08
 
   -0.49631E+08         0.36496E+07         0.00000E+00
    0.36496E+07        -0.60136E+08         0.00000E+00
    0.00000E+00         0.00000E+00        -0.49416E+08
 
   -0.49549E+08         0.50257E+07         0.00000E+00
    0.50257E+07        -0.60157E+08         0.00000E+00
    0.00000E+00         0.00000E+00        -0.49402E+08
 
   -0.49474E+08         0.65221E+07         0.00000E+00
    0.65221E+07        -0.60180E+08         0.00000E+00
    0.00000E+00         0.00000E+00        -0.49390E+08
 
   -0.49408E+08         0.81179E+07         0.00000E+00
    0.81179E+07        -0.60204E+08         0.00000E+00
    0.00000E+00         0.00000E+00        -0.49381E+08
 
   -0.51471E+08        -0.32896E+06         0.00000E+00
   -0.32896E+06        -0.60005E+08         0.00000E+00
    0.00000E+00         0.00000E+00        -0.48361E+08
 
   -0.51208E+08        -0.88116E+06         0.00000E+00
   -0.88116E+06        -0.60025E+08         0.00000E+00
    0.00000E+00         0.00000E+00        -0.48311E+08
 
   -0.50915E+08        -0.12695E+07         0.00000E+00
   -0.12695E+07        -0.60058E+08         0.00000E+00
    0.00000E+00         0.00000E+00        -0.48257E+08
 
   -0.50605E+08        -0.14761E+07         0.00000E+00
   -0.14761E+07        -0.60099E+08         0.00000E+00
    0.00000E+00         0.00000E+00        -0.48200E+08
 
   -0.50289E+08        -0.14911E+07         0.00000E+00
   -0.14911E+07        -0.60144E+08         0.00000E+00
    0.00000E+00         0.00000E+00        -0.48142E+08
 
   -0.49974E+08        -0.13111E+07         0.00000E+00
   -0.13111E+07        -0.60190E+08         0.00000E+00
    0.00000E+00         0.00000E+00        -0.48084E+08
 
   -0.49665E+08        -0.93745E+06         0.00000E+00
   -0.93745E+06        -0.60237E+08         0.00000E+00
    0.00000E+00         0.00000E+00        -0.48027E+08
 
   -0.49367E+08        -0.37455E+06         0.00000E+00
   -0.37455E+06        -0.60285E+08         0.00000E+00
    0.00000E+00         0.00000E+00        -0.47972E+08
 
   -0.49082E+08         0.37084E+06         0.00000E+00
    0.37084E+06        -0.60335E+08         0.00000E+00
    0.00000E+00         0.00000E+00        -0.47920E+08
 
   -0.48811E+08         0.12903E+07         0.00000E+00
    0.12903E+07        -0.60387E+08         0.00000E+00
    0.00000E+00         0.00000E+00        -0.47872E+08
 
   -0.48558E+08         0.23739E+07         0.00000E+00
    0.23739E+07        -0.60442E+08         0.00000E+00
    0.00000E+00         0.00000E+00        -0.47829E+08
 
   -0.48323E+08         0.36099E+07         0.00000E+00
    0.36099E+07        -0.60500E+08         0.00000E+00
    0.00000E+00         0.00000E+00        -0.47790E+08
 
   -0.48111E+08         0.49843E+07         0.00000E+00
    0.49843E+07        -0.60560E+08         0.00000E+00
    0.00000E+00         0.00000E+00        -0.47757E+08
 
   -0.47925E+08         0.64803E+07         0.00000E+00
    0.64803E+07        -0.60621E+08         0.00000E+00
    0.00000E+00         0.00000E+00        -0.47730E+08
 
   -0.47770E+08         0.80776E+07         0.00000E+00
    0.80776E+07        -0.60679E+08         0.00000E+00
    0.00000E+00         0.00000E+00        -0.47710E+08
 
   -0.52109E+08        -0.34425E+06         0.00000E+00
   -0.34425E+06        -0.60009E+08         0.00000E+00
    0.00000E+00         0.00000E+00        -0.47062E+08
 
   -0.51690E+08        -0.91895E+06         0.00000E+00
   -0.91895E+06        -0.60042E+08         0.00000E+00
    0.00000E+00         0.00000E+00        -0.46983E+08
 
   -0.51219E+08        -0.13210E+07         0.00000E+00
   -0.13210E+07        -0.60098E+08         0.00000E+00
    0.00000E+00         0.00000E+00        -0.46897E+08
 
   -0.50719E+08        -0.15348E+07         0.00000E+00
   -0.15348E+07        -0.60167E+08         0.00000E+00
    0.00000E+00         0.00000E+00        -0.46807E+08
 
   -0.50207E+08        -0.15530E+07         0.00000E+00
   -0.15530E+07        -0.60242E+08         0.00000E+00
    0.00000E+00         0.00000E+00        -0.46714E+08
 
   -0.49697E+08        -0.13743E+07         0.00000E+00
   -0.13743E+07        -0.60320E+08         0.00000E+00
    0.00000E+00         0.00000E+00        -0.46622E+08
 
   -0.49197E+08        -0.10015E+07         0.00000E+00
   -0.10015E+07        -0.60399E+08         0.00000E+00
    0.00000E+00         0.00000E+00        -0.46532E+08
 
   -0.48713E+08        -0.44012E+06         0.00000E+00
   -0.44012E+06        -0.60479E+08         0.00000E+00
    0.00000E+00         0.00000E+00        -0.46446E+08
 
   -0.48250E+08         0.30264E+06         0.00000E+00
    0.30264E+06        -0.60562E+08         0.00000E+00
    0.00000E+00         0.00000E+00        -0.46364E+08
 
   -0.47810E+08         0.12185E+07         0.00000E+00
    0.12185E+07        -0.60649E+08         0.00000E+00
    0.00000E+00         0.00000E+00        -0.46288E+08
 
   -0.47398E+08         0.22982E+07         0.00000E+00
    0.22982E+07        -0.60741E+08         0.00000E+00
    0.00000E+00         0.00000E+00        -0.46219E+08
 
   -0.47017E+08         0.35310E+07         0.00000E+00
    0.35310E+07        -0.60838E+08         0.00000E+00
    0.00000E+00         0.00000E+00        -0.46158E+08
 
   -0.46673E+08         0.49041E+07         0.00000E+00
    0.49041E+07        -0.60937E+08         0.00000E+00
    0.00000E+00         0.00000E+00        -0.46106E+08
 
   -0.46374E+08         0.64021E+07         0.00000E+00
    0.64021E+07        -0.61035E+08         0.00000E+00
    0.00000E+00         0.00000E+00        -0.46063E+08
 
   -0.46127E+08         0.80054E+07         0.00000E+00
    0.80054E+07        -0.61128E+08         0.00000E+00
    0.00000E+00         0.00000E+00        -0.46031E+08
 
   -0.52781E+08        -0.36711E+06         0.00000E+00
   -0.36711E+06        -0.60012E+08         0.00000E+00
    0.00000E+00         0.00000E+00        -0.45765E+08
 
   -0.52193E+08        -0.97521E+06         0.00000E+00
   -0.97521E+06        -0.60058E+08         0.00000E+00
    0.00000E+00         0.00000E+00        -0.45655E+08
 
   -0.51535E+08        -0.13972E+07         0.00000E+00
   -0.13972E+07        -0.60134E+08         0.00000E+00
    0.00000E+00         0.00000E+00        -0.45534E+08
 
   -0.50839E+08        -0.16213E+07         0.00000E+00
   -0.16213E+07        -0.60227E+08         0.00000E+00
    0.00000E+00         0.00000E+00        -0.45409E+08
 
   -0.50128E+08        -0.16438E+07         0.00000E+00
   -0.16438E+07        -0.60328E+08         0.00000E+00
    0.00000E+00         0.00000E+00        -0.45281E+08
 
   -0.49421E+08        -0.14664E+07         0.00000E+00
   -0.14664E+07        -0.60432E+08         0.00000E+00
    0.00000E+00         0.00000E+00        -0.45153E+08
 
   -0.48729E+08        -0.10947E+07         0.00000E+00
   -0.10947E+07        -0.60536E+08         0.00000E+00
    0.00000E+00         0.00000E+00        -0.45029E+08
 
   -0.48061E+08        -0.53574E+06         0.00000E+00
   -0.53574E+06        -0.60643E+08         0.00000E+00
    0.00000E+00         0.00000E+00        -0.44910E+08
 
   -0.47422E+08         0.20271E+06         0.00000E+00
    0.20271E+06        -0.60754E+08         0.00000E+00
    0.00000E+00         0.00000E+00        -0.44798E+08
 
   -0.46814E+08         0.11127E+07         0.00000E+00
    0.11127E+07        -0.60871E+08         0.00000E+00
    0.00000E+00         0.00000E+00        -0.44694E+08
 
   -0.46243E+08         0.21859E+07         0.00000E+00
    0.21859E+07        -0.60996E+08         0.00000E+00
    0.00000E+00         0.00000E+00        -0.44599E+08
 
   -0.45714E+08         0.34136E+07         0.00000E+00
    0.34136E+07        -0.61129E+08         0.00000E+00
    0.00000E+00         0.00000E+00        -0.44515E+08
 
   -0.45235E+08         0.47848E+07         0.00000E+00
    0.47848E+07        -0.61267E+08         0.00000E+00
    0.00000E+00         0.00000E+00        -0.44443E+08
 
   -0.44817E+08         0.62860E+07         0.00000E+00
    0.62860E+07        -0.61405E+08         0.00000E+00
    0.00000E+00         0.00000E+00        -0.44384E+08
 
   -0.44473E+08         0.78993E+07         0.00000E+00
    0.78993E+07        -0.61535E+08         0.00000E+00
    0.00000E+00         0.00000E+00        -0.44339E+08
 
   -0.53501E+08        -0.39680E+06         0.00000E+00
   -0.39680E+06        -0.60015E+08         0.00000E+00
    0.00000E+00         0.00000E+00        -0.44470E+08
 
   -0.52727E+08        -0.10477E+07         0.00000E+00
   -0.10477E+07        -0.60072E+08         0.00000E+00
    0.00000E+00         0.00000E+00        -0.44324E+08
 
   -0.51868E+08        -0.14942E+07         0.00000E+00
   -0.14942E+07        -0.60165E+08         0.00000E+00
    0.00000E+00         0.00000E+00        -0.44166E+08
 
   -0.50966E+08        -0.17301E+07         0.00000E+00
   -0.17301E+07        -0.60276E+08         0.00000E+00
    0.00000E+00         0.00000E+00        -0.44003E+08
 
   -0.50051E+08        -0.17565E+07         0.00000E+00
   -0.17565E+07        -0.60395E+08         0.00000E+00
    0.00000E+00         0.00000E+00        -0.43837E+08
 
   -0.49146E+08        -0.15801E+07         0.00000E+00
   -0.15801E+07        -0.60516E+08         0.00000E+00
    0.00000E+00         0.00000E+00        -0.43673E+08
 
   -0.48264E+08        -0.12095E+07         0.00000E+00
   -0.12095E+07        -0.60637E+08         0.00000E+00
    0.00000E+00         0.00000E+00        -0.43513E+08
 
   -0.47414E+08        -0.65426E+06         0.00000E+00
   -0.65426E+06        -0.60761E+08         0.00000E+00
    0.00000E+00         0.00000E+00        -0.43360E+08
 
   -0.46601E+08         0.77228E+05         0.00000E+00
    0.77228E+05        -0.60892E+08         0.00000E+00
    0.00000E+00         0.00000E+00        -0.43217E+08
 
   -0.45827E+08         0.97753E+06         0.00000E+00
    0.97753E+06        -0.61033E+08         0.00000E+00
    0.00000E+00         0.00000E+00        -0.43083E+08
 
   -0.45097E+08         0.20402E+07         0.00000E+00
    0.20402E+07        -0.61188E+08         0.00000E+00
    0.00000E+00         0.00000E+00        -0.42962E+08
 
   -0.44417E+08         0.32588E+07         0.00000E+00
    0.32588E+07        -0.61355E+08         0.00000E+00
    0.00000E+00         0.00000E+00        -0.42854E+08
 
   -0.43798E+08         0.46256E+07         0.00000E+00
    0.46256E+07        -0.61531E+08         0.00000E+00
    0.00000E+00         0.00000E+00        -0.42761E+08
 
   -0.43253E+08         0.61299E+07         0.00000E+00
    0.61299E+07        -0.61710E+08         0.00000E+00
    0.00000E+00         0.00000E+00        -0.42685E+08
 
   -0.42803E+08         0.77562E+07         0.00000E+00
    0.77562E+07        -0.61881E+08         0.00000E+00
    0.00000E+00         0.00000E+00        -0.42627E+08
 
   -0.54280E+08        -0.43237E+06         0.00000E+00
   -0.43237E+06        -0.60017E+08         0.00000E+00
    0.00000E+00         0.00000E+00        -0.43177E+08
 
   -0.53296E+08        -0.11332E+07         0.00000E+00
   -0.11332E+07        -0.60082E+08         0.00000E+00
    0.00000E+00         0.00000E+00        -0.42990E+08
 
   -0.52219E+08        -0.16067E+07         0.00000E+00
   -0.16067E+07        -0.60187E+08         0.00000E+00
    0.00000E+00         0.00000E+00        -0.42791E+08
 
   -0.51099E+08        -0.18535E+07         0.00000E+00
   -0.18535E+07        -0.60310E+08         0.00000E+00
    0.00000E+00         0.00000E+00        -0.42586E+08
 
   -0.49975E+08        -0.18820E+07         0.00000E+00
   -0.18820E+07        -0.60437E+08         0.00000E+00
    0.00000E+00         0.00000E+00        -0.42379E+08
 
   -0.48871E+08        -0.17049E+07         0.00000E+00
   -0.17049E+07        -0.60564E+08         0.00000E+00
    0.00000E+00         0.00000E+00        -0.42176E+08
 
   -0.47802E+08        -0.13355E+07         0.00000E+00
   -0.13355E+07        -0.60690E+08         0.00000E+00
    0.00000E+00         0.00000E+00        -0.41979E+08
 
   -0.46774E+08        -0.78590E+06         0.00000E+00
   -0.78590E+06        -0.60820E+08         0.00000E+00
    0.00000E+00         0.00000E+00        -0.41792E+08
 
   -0.45790E+08        -0.65430E+05         0.00000E+00
   -0.65430E+05        -0.60960E+08         0.00000E+00
    0.00000E+00         0.00000E+00        -0.41616E+08
 
   -0.44853E+08         0.81948E+06         0.00000E+00
    0.81948E+06        -0.61117E+08         0.00000E+00
    0.00000E+00         0.00000E+00        -0.41452E+08
 
   -0.43963E+08         0.18648E+07         0.00000E+00
    0.18648E+07        -0.61295E+08         0.00000E+00
    0.00000E+00         0.00000E+00        -0.41303E+08
 
   -0.43129E+08         0.30678E+07         0.00000E+00
    0.30678E+07        -0.61493E+08         0.00000E+00
    0.00000E+00         0.00000E+00        -0.41170E+08
 
   -0.42363E+08         0.44251E+07         0.00000E+00
    0.44251E+07        -0.61709E+08         0.00000E+00
    0.00000E+00         0.00000E+00        -0.41056E+08
 
   -0.41682E+08         0.59302E+07         0.00000E+00
    0.59302E+07        -0.61932E+08         0.00000E+00
    0.00000E+00         0.00000E+00        -0.40961E+08
 
   -0.41112E+08         0.75713E+07         0.00000E+00
    0.75713E+07        -0.62148E+08         0.00000E+00
    0.00000E+00         0.00000E+00        -0.40888E+08
 
   -0.55127E+08        -0.47266E+06         0.00000E+00
   -0.47266E+06        -0.60019E+08         0.00000E+00
    0.00000E+00         0.00000E+00        -0.41886E+08
 
   -0.53903E+08        -0.12278E+07         0.00000E+00
   -0.12278E+07        -0.60090E+08         0.00000E+00
    0.00000E+00         0.00000E+00        -0.41653E+08
 
   -0.52586E+08        -0.17274E+07         0.00000E+00
   -0.17274E+07        -0.60200E+08         0.00000E+00
    0.00000E+00         0.00000E+00        -0.41406E+08
 
   -0.51237E+08        -0.19814E+07         0.00000E+00
   -0.19814E+07        -0.60324E+08         0.00000E+00
    0.00000E+00         0.00000E+00        -0.41155E+08
 
   -0.49898E+08        -0.20078E+07         0.00000E+00
   -0.20078E+07        -0.60447E+08         0.00000E+00
    0.00000E+00         0.00000E+00        -0.40905E+08
 
   -0.48595E+08        -0.18273E+07         0.00000E+00
   -0.18273E+07        -0.60565E+08         0.00000E+00
    0.00000E+00         0.00000E+00        -0.40660E+08
 
   -0.47343E+08        -0.14590E+07         0.00000E+00
   -0.14590E+07        -0.60680E+08         0.00000E+00
    0.00000E+00         0.00000E+00        -0.40424E+08
 
   -0.46144E+08        -0.91810E+06         0.00000E+00
   -0.91810E+06        -0.60801E+08         0.00000E+00
    0.00000E+00         0.00000E+00        -0.40201E+08
 
   -0.44997E+08        -0.21461E+06         0.00000E+00
   -0.21461E+06        -0.60938E+08         0.00000E+00
    0.00000E+00         0.00000E+00        -0.39991E+08
 
   -0.43900E+08         0.64652E+06         0.00000E+00
    0.64652E+06        -0.61100E+08         0.00000E+00
    0.00000E+00         0.00000E+00        -0.39796E+08
 
   -0.42852E+08         0.16647E+07         0.00000E+00
    0.16647E+07        -0.61294E+08         0.00000E+00
    0.00000E+00         0.00000E+00        -0.39619E+08
 
   -0.41859E+08         0.28420E+07         0.00000E+00
    0.28420E+07        -0.61521E+08         0.00000E+00
    0.00000E+00         0.00000E+00        -0.39460E+08
 
   -0.40936E+08         0.41812E+07         0.00000E+00
    0.41812E+07        -0.61776E+08         0.00000E+00
    0.00000E+00         0.00000E+00        -0.39322E+08
 
   -0.40105E+08         0.56819E+07         0.00000E+00
    0.56819E+07        -0.62048E+08         0.00000E+00
    0.00000E+00         0.00000E+00        -0.39206E+08
 
   -0.39397E+08         0.73374E+07         0.00000E+00
    0.73374E+07        -0.62317E+08         0.00000E+00
    0.00000E+00         0.00000E+00        -0.39117E+08
 
   -0.56048E+08        -0.51634E+06         0.00000E+00
   -0.51634E+06        -0.60020E+08         0.00000E+00
    0.00000E+00         0.00000E+00        -0.40598E+08
 
   -0.54548E+08        -0.13266E+07         0.00000E+00
   -0.13266E+07        -0.60093E+08         0.00000E+00
    0.00000E+00         0.00000E+00        -0.40310E+08
 
   -0.52965E+08        -0.18469E+07         0.00000E+00
   -0.18469E+07        -0.60201E+08         0.00000E+00
    0.00000E+00         0.00000E+00        -0.40010E+08
 
   -0.51371E+08        -0.21004E+07         0.00000E+00
   -0.21004E+07        -0.60313E+08         0.00000E+00
    0.00000E+00         0.00000E+00        -0.39707E+08
 
   -0.49814E+08        -0.21179E+07         0.00000E+00
   -0.21179E+07        -0.60414E+08         0.00000E+00
    0.00000E+00         0.00000E+00        -0.39409E+08
 
   -0.48317E+08        -0.19302E+07         0.00000E+00
   -0.19302E+07        -0.60504E+08         0.00000E+00
    0.00000E+00         0.00000E+00        -0.39120E+08
 
   -0.46890E+08        -0.15633E+07         0.00000E+00
   -0.15633E+07        -0.60591E+08         0.00000E+00
    0.00000E+00         0.00000E+00        -0.38844E+08
 
   -0.45531E+08        -0.10356E+07         0.00000E+00
   -0.10356E+07        -0.60686E+08         0.00000E+00
    0.00000E+00         0.00000E+00        -0.38583E+08
 
   -0.44230E+08        -0.35743E+06         0.00000E+00
   -0.35743E+06        -0.60804E+08         0.00000E+00
    0.00000E+00         0.00000E+00        -0.38339E+08
 
   -0.42979E+08         0.46833E+06         0.00000E+00
    0.46833E+06        -0.60959E+08         0.00000E+00
    0.00000E+00         0.00000E+00        -0.38113E+08
 
   -0.41775E+08         0.14455E+07         0.00000E+00
    0.14455E+07        -0.61161E+08         0.00000E+00
    0.00000E+00         0.00000E+00        -0.37905E+08
 
   -0.40619E+08         0.25826E+07         0.00000E+00
    0.25826E+07        -0.61412E+08         0.00000E+00
    0.00000E+00         0.00000E+00        -0.37719E+08
 
   -0.39527E+08         0.38905E+07         0.00000E+00
    0.38905E+07        -0.61708E+08         0.00000E+00
    0.00000E+00         0.00000E+00        -0.37555E+08
 
   -0.38526E+08         0.53775E+07         0.00000E+00
    0.53775E+07        -0.62035E+08         0.00000E+00
    0.00000E+00         0.00000E+00        -0.37417E+08
 
   -0.37656E+08         0.70449E+07         0.00000E+00
    0.70449E+07        -0.62367E+08         0.00000E+00
    0.00000E+00         0.00000E+00        -0.37307E+08
 
   -0.57046E+08        -0.56184E+06         0.00000E+00
   -0.56184E+06        -0.60021E+08         0.00000E+00
    0.00000E+00         0.00000E+00        -0.39312E+08
 
   -0.55226E+08        -0.14229E+07         0.00000E+00
   -0.14229E+07        -0.60091E+08         0.00000E+00
    0.00000E+00         0.00000E+00        -0.38960E+08
 
   -0.53347E+08        -0.19528E+07         0.00000E+00
   -0.19528E+07        -0.60185E+08         0.00000E+00
    0.00000E+00         0.00000E+00        -0.38599E+08
 
   -0.51494E+08        -0.21932E+07         0.00000E+00
   -0.21932E+07        -0.60268E+08         0.00000E+00
    0.00000E+00         0.00000E+00        -0.38239E+08
 
   -0.49717E+08        -0.21919E+07         0.00000E+00
   -0.21919E+07        -0.60326E+08         0.00000E+00
    0.00000E+00         0.00000E+00        -0.37888E+08
 
   -0.48034E+08        -0.19927E+07         0.00000E+00
   -0.19927E+07        -0.60366E+08         0.00000E+00
    0.00000E+00         0.00000E+00        -0.37553E+08
 
   -0.46447E+08        -0.16285E+07         0.00000E+00
   -0.16285E+07        -0.60401E+08         0.00000E+00
    0.00000E+00         0.00000E+00        -0.37234E+08
 
   -0.44941E+08        -0.11207E+07         0.00000E+00
   -0.11207E+07        -0.60450E+08         0.00000E+00
    0.00000E+00         0.00000E+00        -0.36935E+08
 
   -0.43499E+08        -0.47920E+06         0.00000E+00
   -0.47920E+06        -0.60533E+08         0.00000E+00
    0.00000E+00         0.00000E+00        -0.36656E+08
 
   -0.42106E+08         0.29601E+06         0.00000E+00
    0.29601E+06        -0.60668E+08         0.00000E+00
    0.00000E+00         0.00000E+00        -0.36398E+08
 
   -0.40749E+08         0.12139E+07         0.00000E+00
    0.12139E+07        -0.60867E+08         0.00000E+00
    0.00000E+00         0.00000E+00        -0.36160E+08
 
   -0.39426E+08         0.22909E+07         0.00000E+00
    0.22909E+07        -0.61139E+08         0.00000E+00
    0.00000E+00         0.00000E+00        -0.35944E+08
 
   -0.38150E+08         0.35482E+07         0.00000E+00
    0.35482E+07        -0.61478E+08         0.00000E+00
    0.00000E+00         0.00000E+00        -0.35752E+08
 
   -0.36954E+08         0.50070E+07         0.00000E+00
    0.50070E+07        -0.61868E+08         0.00000E+00
    0.00000E+00         0.00000E+00        -0.35588E+08
 
   -0.35889E+08         0.66800E+07         0.00000E+00
    0.66800E+07        -0.62278E+08         0.00000E+00
    0.00000E+00         0.00000E+00        -0.35455E+08
 
   -0.58120E+08        -0.60733E+06         0.00000E+00
   -0.60733E+06        -0.60020E+08         0.00000E+00
    0.00000E+00         0.00000E+00        -0.38030E+08
 
   -0.55924E+08        -0.15079E+07         0.00000E+00
   -0.15079E+07        -0.60082E+08         0.00000E+00
    0.00000E+00         0.00000E+00        -0.37601E+08
 
   -0.53715E+08        -0.20279E+07         0.00000E+00
   -0.20279E+07        -0.60146E+08         0.00000E+00
    0.00000E+00         0.00000E+00        -0.37168E+08
 
   -0.51592E+08        -0.22362E+07         0.00000E+00
   -0.22362E+07        -0.60176E+08         0.00000E+00
    0.00000E+00         0.00000E+00        -0.36744E+08
 
   -0.49600E+08        -0.22043E+07         0.00000E+00
   -0.22043E+07        -0.60164E+08         0.00000E+00
    0.00000E+00         0.00000E+00        -0.36337E+08
 
   -0.47747E+08        -0.19900E+07         0.00000E+00
   -0.19900E+07        -0.60126E+08         0.00000E+00
    0.00000E+00         0.00000E+00        -0.35952E+08
 
   -0.46018E+08        -0.16327E+07         0.00000E+00
   -0.16327E+07        -0.60085E+08         0.00000E+00
    0.00000E+00         0.00000E+00        -0.35591E+08
 
   -0.44385E+08        -0.11546E+07         0.00000E+00
   -0.11546E+07        -0.60067E+08         0.00000E+00
    0.00000E+00         0.00000E+00        -0.35255E+08
 
   -0.42821E+08        -0.56421E+06         0.00000E+00
   -0.56421E+06        -0.60098E+08         0.00000E+00
    0.00000E+00         0.00000E+00        -0.34941E+08
 
   -0.41299E+08         0.14180E+06         0.00000E+00
    0.14180E+06        -0.60198E+08         0.00000E+00
    0.00000E+00         0.00000E+00        -0.34650E+08
 
   -0.39796E+08         0.97765E+06         0.00000E+00
    0.97765E+06        -0.60385E+08         0.00000E+00
    0.00000E+00         0.00000E+00        -0.34381E+08
 
   -0.38302E+08         0.19684E+07         0.00000E+00
    0.19684E+07        -0.60672E+08         0.00000E+00
    0.00000E+00         0.00000E+00        -0.34135E+08
 
   -0.36827E+08         0.31485E+07         0.00000E+00
    0.31485E+07        -0.61056E+08         0.00000E+00
    0.00000E+00         0.00000E+00        -0.33913E+08
 
   -0.35403E+08         0.45565E+07         0.00000E+00
    0.45565E+07        -0.61521E+08         0.00000E+00
    0.00000E+00         0.00000E+00        -0.33718E+08
 
   -0.34098E+08         0.62236E+07         0.00000E+00
    0.62236E+07        -0.62027E+08         0.00000E+00
    0.00000E+00         0.00000E+00        -0.33557E+08
 
   -0.59261E+08        -0.65046E+06         0.00000E+00
   -0.65046E+06        -0.60019E+08         0.00000E+00
    0.00000E+00         0.00000E+00        -0.36749E+08
 
   -0.56619E+08        -0.15683E+07         0.00000E+00
   -0.15683E+07        -0.60062E+08         0.00000E+00
    0.00000E+00         0.00000E+00        -0.36227E+08
 
   -0.54044E+08        -0.20466E+07         0.00000E+00
   -0.20466E+07        -0.60072E+08         0.00000E+00
    0.00000E+00         0.00000E+00        -0.35711E+08
 
   -0.51646E+08        -0.21979E+07         0.00000E+00
   -0.21979E+07        -0.60013E+08         0.00000E+00
    0.00000E+00         0.00000E+00        -0.35215E+08
 
   -0.49456E+08        -0.21239E+07         0.00000E+00
   -0.21239E+07        -0.59896E+08         0.00000E+00
    0.00000E+00         0.00000E+00        -0.34748E+08
 
   -0.47457E+08        -0.18954E+07         0.00000E+00
   -0.18954E+07        -0.59749E+08         0.00000E+00
    0.00000E+00         0.00000E+00        -0.34314E+08
 
   -0.45612E+08        -0.15539E+07         0.00000E+00
   -0.15539E+07        -0.59610E+08         0.00000E+00
    0.00000E+00         0.00000E+00        -0.33911E+08
 
   -0.43878E+08        -0.11194E+07         0.00000E+00
   -0.11194E+07        -0.59507E+08         0.00000E+00
    0.00000E+00         0.00000E+00        -0.33538E+08
 
   -0.42214E+08        -0.59749E+06         0.00000E+00
   -0.59749E+06        -0.59470E+08         0.00000E+00
    0.00000E+00         0.00000E+00        -0.33191E+08
 
   -0.40579E+08         0.18202E+05         0.00000E+00
    0.18202E+05        -0.59523E+08         0.00000E+00
    0.00000E+00         0.00000E+00        -0.32869E+08
 
   -0.38943E+08         0.74593E+06         0.00000E+00
    0.74593E+06        -0.59687E+08         0.00000E+00
    0.00000E+00         0.00000E+00        -0.32570E+08
 
   -0.37280E+08         0.16183E+07         0.00000E+00
    0.16183E+07        -0.59980E+08         0.00000E+00
    0.00000E+00         0.00000E+00        -0.32292E+08
 
   -0.35587E+08         0.26846E+07         0.00000E+00
    0.26846E+07        -0.60411E+08         0.00000E+00
    0.00000E+00         0.00000E+00        -0.32036E+08
 
   -0.33897E+08         0.40079E+07         0.00000E+00
    0.40079E+07        -0.60964E+08         0.00000E+00
    0.00000E+00         0.00000E+00        -0.31806E+08
 
   -0.32289E+08         0.56491E+07         0.00000E+00
    0.56491E+07        -0.61593E+08         0.00000E+00
    0.00000E+00         0.00000E+00        -0.31609E+08
 
   -0.60452E+08        -0.68752E+06         0.00000E+00
   -0.68752E+06        -0.60015E+08         0.00000E+00
    0.00000E+00         0.00000E+00        -0.35467E+08
 
   -0.57272E+08        -0.15807E+07         0.00000E+00
   -0.15807E+07        -0.60022E+08         0.00000E+00
    0.00000E+00         0.00000E+00        -0.34831E+08
 
   -0.54299E+08        -0.19689E+07         0.00000E+00
   -0.19689E+07        -0.59935E+08         0.00000E+00
    0.00000E+00         0.00000E+00        -0.34216E+08
 
   -0.51640E+08        -0.20358E+07         0.00000E+00
   -0.20358E+07        -0.59738E+08         0.00000E+00
    0.00000E+00         0.00000E+00        -0.33641E+08
 
   -0.49285E+08        -0.19161E+07         0.00000E+00
   -0.19161E+07        -0.59472E+08         0.00000E+00
    0.00000E+00         0.00000E+00        -0.33113E+08
 
   -0.47175E+08        -0.16838E+07         0.00000E+00
   -0.16838E+07        -0.59191E+08         0.00000E+00
    0.00000E+00         0.00000E+00        -0.32630E+08
 
   -0.45246E+08        -0.13743E+07         0.00000E+00
   -0.13743E+07        -0.58934E+08         0.00000E+00
    0.00000E+00         0.00000E+00        -0.32188E+08
 
   -0.43437E+08        -0.10017E+07         0.00000E+00
   -0.10017E+07        -0.58736E+08         0.00000E+00
    0.00000E+00         0.00000E+00        -0.31782E+08
 
   -0.41696E+08        -0.56751E+06         0.00000E+00
   -0.56751E+06        -0.58623E+08         0.00000E+00
    0.00000E+00         0.00000E+00        -0.31406E+08
 
   -0.39972E+08        -0.63543E+05         0.00000E+00
   -0.63543E+05        -0.58619E+08         0.00000E+00
    0.00000E+00         0.00000E+00        -0.31056E+08
 
   -0.38220E+08         0.52962E+06         0.00000E+00
    0.52962E+06        -0.58749E+08         0.00000E+00
    0.00000E+00         0.00000E+00        -0.30728E+08
 
   -0.36397E+08         0.12475E+07         0.00000E+00
    0.12475E+07        -0.59038E+08         0.00000E+00
    0.00000E+00         0.00000E+00        -0.30418E+08
 
   -0.34476E+08         0.21520E+07         0.00000E+00
    0.21520E+07        -0.59510E+08         0.00000E+00
    0.00000E+00         0.00000E+00        -0.30125E+08
 
   -0.32472E+08         0.33384E+07         0.00000E+00
    0.33384E+07        -0.60164E+08         0.00000E+00
    0.00000E+00         0.00000E+00        -0.29853E+08
 
   -0.30476E+08         0.49184E+07         0.00000E+00
    0.49184E+07        -0.60952E+08         0.00000E+00
    0.00000E+00         0.00000E+00        -0.29610E+08
 
   -0.61658E+08        -0.71018E+06         0.00000E+00
   -0.71018E+06        -0.60006E+08         0.00000E+00
    0.00000E+00         0.00000E+00        -0.34178E+08
 
   -0.57817E+08        -0.14972E+07         0.00000E+00
   -0.14972E+07        -0.59932E+08         0.00000E+00
    0.00000E+00         0.00000E+00        -0.33394E+08
 
   -0.54439E+08        -0.17291E+07         0.00000E+00
   -0.17291E+07        -0.59670E+08         0.00000E+00
    0.00000E+00         0.00000E+00        -0.32664E+08
 
   -0.51569E+08        -0.16985E+07         0.00000E+00
   -0.16985E+07        -0.59267E+08         0.00000E+00
    0.00000E+00         0.00000E+00        -0.32007E+08
 
   -0.49101E+08        -0.15506E+07         0.00000E+00
   -0.15506E+07        -0.58819E+08         0.00000E+00
    0.00000E+00         0.00000E+00        -0.31421E+08
 
   -0.46921E+08        -0.13396E+07         0.00000E+00
   -0.13396E+07        -0.58388E+08         0.00000E+00
    0.00000E+00         0.00000E+00        -0.30895E+08
 
   -0.44939E+08        -0.10864E+07         0.00000E+00
   -0.10864E+07        -0.58012E+08         0.00000E+00
    0.00000E+00         0.00000E+00        -0.30420E+08
 
   -0.43081E+08        -0.79704E+06         0.00000E+00
   -0.79704E+06        -0.57718E+08         0.00000E+00
    0.00000E+00         0.00000E+00        -0.29986E+08
 
   -0.41287E+08        -0.46983E+06         0.00000E+00
   -0.46983E+06        -0.57530E+08         0.00000E+00
    0.00000E+00         0.00000E+00        -0.29586E+08
 
   -0.39498E+08        -0.96386E+05         0.00000E+00
   -0.96386E+05        -0.57468E+08         0.00000E+00
    0.00000E+00         0.00000E+00        -0.29213E+08
 
   -0.37655E+08         0.34000E+06         0.00000E+00
    0.34000E+06        -0.57557E+08         0.00000E+00
    0.00000E+00         0.00000E+00        -0.28859E+08
 
   -0.35697E+08         0.87044E+06         0.00000E+00
    0.87044E+06        -0.57829E+08         0.00000E+00
    0.00000E+00         0.00000E+00        -0.28519E+08
 
   -0.33556E+08         0.15554E+07         0.00000E+00
    0.15554E+07        -0.58323E+08         0.00000E+00
    0.00000E+00         0.00000E+00        -0.28187E+08
 
   -0.31192E+08         0.25231E+07         0.00000E+00
    0.25231E+07        -0.59083E+08         0.00000E+00
    0.00000E+00         0.00000E+00        -0.27865E+08
 
   -0.28685E+08         0.39746E+07         0.00000E+00
    0.39746E+07        -0.60076E+08         0.00000E+00
    0.00000E+00         0.00000E+00        -0.27562E+08
 
   -0.62791E+08        -0.68915E+06         0.00000E+00
   -0.68915E+06        -0.59973E+08         0.00000E+00
    0.00000E+00         0.00000E+00        -0.32863E+08
 
   -0.58151E+08        -0.12032E+07         0.00000E+00
   -0.12032E+07        -0.59691E+08         0.00000E+00
    0.00000E+00         0.00000E+00        -0.31878E+08
 
   -0.54447E+08        -0.12351E+07         0.00000E+00
   -0.12351E+07        -0.59116E+08         0.00000E+00
    0.00000E+00         0.00000E+00        -0.31021E+08
 
   -0.51461E+08        -0.11486E+07         0.00000E+00
   -0.11486E+07        -0.58465E+08         0.00000E+00
    0.00000E+00         0.00000E+00        -0.30292E+08
 
   -0.48937E+08        -0.10192E+07         0.00000E+00
   -0.10192E+07        -0.57835E+08         0.00000E+00
    0.00000E+00         0.00000E+00        -0.29660E+08
 
   -0.46723E+08        -0.86737E+06         0.00000E+00
   -0.86737E+06        -0.57269E+08         0.00000E+00
    0.00000E+00         0.00000E+00        -0.29102E+08
 
   -0.44714E+08        -0.69904E+06         0.00000E+00
   -0.69904E+06        -0.56792E+08         0.00000E+00
    0.00000E+00         0.00000E+00        -0.28602E+08
 
   -0.42830E+08        -0.51447E+06         0.00000E+00
   -0.51447E+06        -0.56421E+08         0.00000E+00
    0.00000E+00         0.00000E+00        -0.28149E+08
 
   -0.41005E+08        -0.31068E+06         0.00000E+00
   -0.31068E+06        -0.56172E+08         0.00000E+00
    0.00000E+00         0.00000E+00        -0.27732E+08
 
   -0.39174E+08        -0.81471E+05         0.00000E+00
   -0.81471E+05        -0.56062E+08         0.00000E+00
    0.00000E+00         0.00000E+00        -0.27342E+08
 
   -0.37271E+08         0.18410E+06         0.00000E+00
    0.18410E+06        -0.56113E+08         0.00000E+00
    0.00000E+00         0.00000E+00        -0.26970E+08
 
   -0.35216E+08         0.50629E+06         0.00000E+00
    0.50629E+06        -0.56358E+08         0.00000E+00
    0.00000E+00         0.00000E+00        -0.26606E+08
 
   -0.32905E+08         0.92658E+06         0.00000E+00
    0.92658E+06        -0.56846E+08         0.00000E+00
    0.00000E+00         0.00000E+00        -0.26240E+08
 
   -0.30172E+08         0.15498E+07         0.00000E+00
    0.15498E+07        -0.57664E+08         0.00000E+00
    0.00000E+00         0.00000E+00        -0.25856E+08
 
   -0.26979E+08         0.27220E+07         0.00000E+00
    0.27220E+07        -0.58930E+08         0.00000E+00
    0.00000E+00         0.00000E+00        -0.25470E+08
 
   -0.63611E+08        -0.43268E+06         0.00000E+00
   -0.43268E+06        -0.59687E+08         0.00000E+00
    0.00000E+00         0.00000E+00        -0.31430E+08
 
   -0.58202E+08        -0.49661E+06         0.00000E+00
   -0.49661E+06        -0.58892E+08         0.00000E+00
    0.00000E+00         0.00000E+00        -0.30189E+08
 
   -0.54399E+08        -0.45609E+06         0.00000E+00
   -0.45609E+06        -0.58001E+08         0.00000E+00
    0.00000E+00         0.00000E+00        -0.29250E+08
 
   -0.51377E+08        -0.40896E+06         0.00000E+00
   -0.40896E+06        -0.57164E+08         0.00000E+00
    0.00000E+00         0.00000E+00        -0.28478E+08
 
   -0.48837E+08        -0.35648E+06         0.00000E+00
   -0.35648E+06        -0.56415E+08         0.00000E+00
    0.00000E+00         0.00000E+00        -0.27820E+08
 
   -0.46613E+08        -0.30063E+06         0.00000E+00
   -0.30063E+06        -0.55769E+08         0.00000E+00
    0.00000E+00         0.00000E+00        -0.27245E+08
 
   -0.44595E+08        -0.24133E+06         0.00000E+00
   -0.24133E+06        -0.55234E+08         0.00000E+00
    0.00000E+00         0.00000E+00        -0.26733E+08
 
   -0.42700E+08        -0.17777E+06         0.00000E+00
   -0.17777E+06        -0.54820E+08         0.00000E+00
    0.00000E+00         0.00000E+00        -0.26271E+08
 
   -0.40860E+08        -0.10853E+06         0.00000E+00
   -0.10853E+06        -0.54537E+08         0.00000E+00
    0.00000E+00         0.00000E+00        -0.25846E+08
 
   -0.39010E+08        -0.31338E+05         0.00000E+00
   -0.31338E+05        -0.54400E+08         0.00000E+00
    0.00000E+00         0.00000E+00        -0.25447E+08
 
   -0.37077E+08         0.57575E+05         0.00000E+00
    0.57575E+05        -0.54429E+08         0.00000E+00
    0.00000E+00         0.00000E+00        -0.25066E+08
 
   -0.34974E+08         0.16495E+06         0.00000E+00
    0.16495E+06        -0.54653E+08         0.00000E+00
    0.00000E+00         0.00000E+00        -0.24690E+08
 
   -0.32571E+08         0.30537E+06         0.00000E+00
    0.30537E+06        -0.55124E+08         0.00000E+00
    0.00000E+00         0.00000E+00        -0.24303E+08
 
   -0.29637E+08         0.51194E+06         0.00000E+00
    0.51194E+06        -0.55941E+08         0.00000E+00
    0.00000E+00         0.00000E+00        -0.23879E+08
 
   -0.25515E+08         0.10016E+07         0.00000E+00
    0.10016E+07        -0.57381E+08         0.00000E+00
    0.00000E+00         0.00000E+00        -0.23343E+08
 
SCALARS stressS double 
LOOKUP_TABLE default
  -54986512.4342723     
  -57284495.6051004     
  -59660409.8261942     
  -61435829.0287208     
  -62869121.1893525     
  -64089044.6753644     
  -65158751.5411802     
  -66117480.3673295     
  -66993834.4893639     
  -67811553.6860789     
  -68593226.5320489     
  -69363944.8457856     
  -70157460.7326851     
  -71028651.0584238     
  -72136812.5101641     
  -55867075.7656325     
  -57265165.6104149     
  -58838963.0026222     
  -60391603.7591655     
  -61729283.3876542     
  -62896115.9489041     
  -63930813.1336102     
  -64863495.6549049     
  -65718061.3427230     
  -66515085.3283334     
  -67274017.5615404     
  -68015415.8057997     
  -68762820.8119466     
  -69549325.2054915     
  -70341293.5845904     
  -55595956.2052538     
  -56957441.4263208     
  -58285232.8394255     
  -59568208.7320908     
  -60761189.4390021     
  -61836663.8121143     
  -62807684.9566658     
  -63691314.1994491     
  -64504215.1750648     
  -65261758.3071890     
  -65978327.8020533     
  -66667370.9445192     
  -67340845.8196840     
  -67996453.1672384     
  -68615064.7284891     
  -55438823.9980711     
  -56624972.9374435     
  -57775271.3766534     
  -58880177.2732832     
  -59922682.9744186     
  -60889854.3787633     
  -61778914.2207016     
  -62596709.9258106     
  -63352618.7575947     
  -64056344.6869711     
  -64716761.0226783     
  -65340825.6712776     
  -65930445.1146178     
  -66479546.7643090     
  -66969866.1260290     
  -55329018.3279418     
  -56331555.5351060     
  -57315611.8297589     
  -58268343.7844558     
  -59177401.0388871     
  -60033330.6429911     
  -60831855.9887955     
  -61573579.3200312     
  -62262325.1159796     
  -62902862.7721951     
  -63499402.1021130     
  -64054001.7023310     
  -64564869.2378841     
  -65024391.7746911     
  -65418413.0362896     
  -55239174.1681622     
  -56069141.0540448     
  -56899683.6472854     
  -57714024.1968495     
  -58499924.5228233     
  -59248472.3673233     
  -59954254.2605012     
  -60615117.3920694     
  -61231193.2054170     
  -61803630.7357112     
  -62333240.2906038     
  -62819245.4670716     
  -63258071.5868373     
  -63642464.8494665     
  -63961189.9079384     
  -55144860.6253596     
  -55823787.5804340     
  -56515527.0314541     
  -57203430.4706901     
  -57874983.1625773     
  -58521085.0455313     
  -59135528.9306561     
  -59714529.3221480     
  -60256034.0277983     
  -60758828.4244371     
  -61221577.3027762     
  -61641896.2599337     
  -62015577.7122888     
  -62336087.6486621     
  -62594511.9427763     
  -55035161.5998982     
  -55583717.4539870     
  -56152275.6324689     
  -56725436.3099903     
  -57291212.1041354     
  -57840536.7650739     
  -58366791.1376646     
  -58865302.7896857     
  -59332774.6006286     
  -59766630.1215758     
  -60164324.0583072     
  -60522699.7838440     
  -60837476.3481644     
  -61102958.4754605     
  -61312040.8885763     
  -54905110.0239565     
  -55341674.9206807     
  -55801617.3129711     
  -56271287.6294398     
  -56739712.0763280     
  -57198296.8564741     
  -57640455.0450105     
  -58061190.2371889     
  -58456636.4748569     
  -58823565.1649274     
  -59158890.4398367     
  -59459222.5569999     
  -59720528.3752141     
  -59937953.5344745     
  -60105846.9434825     
  -54753249.5232415     
  -55093575.7615127     
  -55457842.7796161     
  -55834328.9682806     
  -56213391.4040631     
  -56587267.2933491     
  -56949801.2136025     
  -57296123.0615689     
  -57622294.6229239     
  -57924942.0830764     
  -58200899.9915463     
  -58446900.5780587     
  -58659345.8573306     
  -58834196.6257237     
  -58967000.5613540     
  -54580280.0043161     
  -54837574.9625455     
  -55117255.3102596     
  -55409617.2999861     
  -55706547.4773538     
  -56001382.5943725     
  -56288711.8671098     
  -56564138.9422584     
  -56824020.1465236     
  -57065196.6057276     
  -57284740.6803818     
  -57479740.3532859     
  -57647145.9715259     
  -57783700.3170792     
  -57885965.1613400     
  -54388372.0539317     
  -54573391.3233597     
  -54777646.8684811     
  -54993510.6958534     
  -55214532.9045769     
  -55435341.5047045     
  -55651502.3081746     
  -55859349.4197925     
  -56055799.0775959     
  -56238160.8888683     
  -56403961.9057539     
  -56550799.9259519     
  -56676241.9001247     
  -56777780.5542497     
  -56852857.1385571     
  -54180743.6578480     
  -54301854.3753598     
  -54437884.9911980     
  -54583326.0897691     
  -54733483.0607340     
  -54884408.5249080     
  -55032808.4310317     
  -55175928.5350850     
  -55311430.0849124     
  -55437264.7062130     
  -55551559.1416594     
  -55652520.6153631     
  -55738372.8140069     
  -55807330.4701897     
  -55857617.2833119     
  -53961364.8767585     
  -54024579.7623252     
  -54097601.6258060     
  -54177068.1810341     
  -54260099.8041361     
  -54344260.9873891     
  -54427505.5102531     
  -54508109.9666866     
  -54584601.3528626     
  -54655684.8907473     
  -54720178.3829333     
  -54776959.2018590     
  -54824929.3994366     
  -54863003.2478622     
  -54890119.7796503     
  -53734724.5097986     
  -53743720.6283905     
  -53756951.4341257     
  -53773214.6083577     
  -53791477.9558180     
  -53810867.0013758     
  -53830644.4514706     
  -53850185.0535133     
  -53868948.9740396     
  -53886456.3070850     
  -53902264.8915553     
  -53915953.3059813     
  -53927110.6509942     
  -53935334.4170602     
  -53940237.3021562     
  -53505629.2694154     
  -53461761.7760463     
  -53416412.8361367     
  -53370537.4287972     
  -53324959.4067204     
  -53280381.6057408     
  -53237396.1260290     
  -53196497.5640255     
  -53158099.7924952     
  -53122555.1896484     
  -53090174.2078308     
  -53061242.8534136     
  -53036035.8949515     
  -53014824.2480628     
  -52997875.8351530     
  -53279020.6319239     
  -53181336.0246578     
  -53076610.8404711     
  -52967942.5807904     
  -52857999.7814569     
  -52749049.5784459     
  -52642996.2556763     
  -52541432.6459630     
  -52445701.8760482     
  -52356963.8685714     
  -52276259.4559138     
  -52204564.8008628     
  -52142829.7720297     
  -52091995.6732365     
  -52052989.9845597     
  -53059801.3546553     
  -52905048.5838016     
  -52738144.8491164     
  -52564310.7403545     
  -52388033.2564243     
  -52213103.9182214     
  -52042684.1691453     
  -51879398.1928331     
  -51725446.0147654     
  -51582725.1430875     
  -51452947.1096270     
  -51337735.6183320     
  -51238694.9950036     
  -51157440.7822878     
  -51095588.2575201     
  -52852666.7692413     
  -52635297.8906865     
  -52401405.9479933     
  -52158323.1772052     
  -51912320.8431885     
  -51668648.9038631     
  -51431629.0662452     
  -51204797.4845933     
  -50991082.2608887     
  -50792994.8984582     
  -50612813.3230083     
  -50452735.6298500     
  -50314987.1934963     
  -50201868.6040727     
  -50115737.8720146     
  -52661937.2995958     
  -52374080.8941488     
  -52066366.3087804     
  -51748253.7836626     
  -51427765.3936376     
  -51111515.5344038     
  -50804837.3838041     
  -50511992.7471387     
  -50236436.8070369     
  -49981103.0780735     
  -49748674.5295269     
  -49541810.9176317     
  -49363307.6878497     
  -49216168.2876654     
  -49103579.9474109     
  -52491388.5505280     
  -52122766.6305807     
  -51732317.0336341     
  -51331702.2201195     
  -50930672.0753357     
  -50537074.9860996     
  -50157034.7609177     
  -49795260.5869605     
  -49455436.6671861     
  -49140635.8777894     
  -48853709.2881368     
  -48597612.1235098     
  -48375633.6594301     
  -48191504.9079243     
  -48049368.2239296     
  -52344072.8960177     
  -51881811.7528343     
  -51397517.3325774     
  -50905231.1934766     
  -50416425.5414514     
  -49939992.9916776     
  -49482516.7944428     
  -49048742.6931870     
  -48642152.8032161     
  -48265555.9446456     
  -47921633.3074617     
  -47613395.5465687     
  -47344511.4983221     
  -47119470.4216148     
  -46943547.5940717     
  -52222119.2064132     
  -51650369.5947718     
  -51058691.5526384     
  -50463850.0509033     
  -49879044.5703104     
  -49313906.8022853     
  -48774966.4178294     
  -48266399.7081155     
  -47790876.3207672     
  -47350381.5479431     
  -46946956.0898417     
  -46583321.1329383     
  -46263349.9893132     
  -45992321.1829167     
  -45776892.9228328     
  -52126478.4284992     
  -51425697.0263405     
  -50710258.6640159     
  -50000252.4025024     
  -49310564.3522238     
  -48651012.7142635     
  -48027247.0832641     
  -47441984.2206065     
  -46896245.0771856     
  -46390447.9477426     
  -45925353.5215686     
  -45502896.7861273     
  -45126868.6907074     
  -44803350.9590622     
  -44540734.5649014     
  -52056537.8076048     
  -51202154.2855170     
  -50343075.5436506     
  -49503661.9933453     
  -48700198.1553539     
  -47941582.1236607     
  -47231208.9523966     
  -46569060.5690346     
  -45953435.7154695     
  -45382263.9557711     
  -44854195.4092487     
  -44369635.9561084     
  -43931798.8618548     
  -43547481.2988768     
  -43227312.2216243     
  -52009390.7876419     
  -50969336.8508918     
  -49942254.7439847     
  -48958078.9652867     
  -48033289.9462188     
  -47173508.9269211     
  -46377604.1505061     
  -45641112.1320030     
  -44958410.2592470     
  -44323951.3889550     
  -43733231.2630048     
  -43184046.8343251     
  -42677990.0844649     
  -42222260.9875256     
  -41830318.5102293     
  -51978222.3121864     
  -50708101.9517416     
  -49483197.5183337     
  -48339750.5018598     
  -47290303.7330969     
  -46332210.7944659     
  -45456265.6159734     
  -44651781.1507727     
  -43908175.9340123     
  -43215610.9931158     
  -42565432.7856259     
  -41950965.1598818     
  -41370402.3504633     
  -40829562.9880951     
  -40345888.7318619     
  -51947223.2941886     
  -50381335.1452957     
  -48924168.7025784     
  -47614304.9423291     
  -46447055.2978743     
  -45401306.9028736     
  -44456742.9984213     
  -43595269.9155998     
  -42800958.1255098     
  -42059425.9951423     
  -41357247.8663507     
  -40681830.4133306     
  -40021937.3302632     
  -39379886.9348478     
  -38774022.0321939     
  -51875695.9566210     
  -49906818.4331025     
  -48194811.7346294     
  -46739411.3128676     
  -45477099.1024473     
  -44364552.7182245     
  -43369468.6956175     
  -42466885.4087929     
  -41636212.3523714     
  -40859157.7224256     
  -40117979.3667897     
  -39393568.9578680     
  -38663784.7398115     
  -37897261.2796899     
  -37126250.4641808     
  -51575836.8692015     
  -49094476.4068454     
  -47216904.1717791     
  -45673002.2438126     
  -44357358.3319425     
  -43208820.3265792     
  -42187321.4232303     
  -41263642.6065366     
  -40414434.0530579     
  -39619105.1165773     
  -38857254.6448036     
  -38105613.9150704     
  -37332384.5822794     
  -36485461.6477467     
  -35413052.0993852     
SCALARS 2waySource double 
LOOKUP_TABLE default
  7.703757302182148E-006
  2.963715804808238E-006
  7.179701378829812E-007
 -4.376799422972513E-007
 -9.798326819569825E-007
 -1.168910413757692E-006
 -1.157432581720358E-006
 -1.043208311801027E-006
 -8.946082182307086E-007
 -7.656801882093085E-007
 -7.071791986676318E-007
 -7.773566553513882E-007
 -1.058466628456531E-006
 -1.681661248254444E-006
 -3.041756127573470E-006
  8.182676066223262E-006
  5.809645145399999E-006
  4.295137013175626E-006
  3.525395384511909E-006
  3.187722523392156E-006
  3.109140707404850E-006
  3.178052871529565E-006
  3.320712213207364E-006
  3.484569585990579E-006
  3.627852860279762E-006
  3.711696301507509E-006
  3.692571741068336E-006
  3.514294997317960E-006
  3.083145891476619E-006
  2.298715110234972E-006
  7.792067194105531E-006
  7.364969458285352E-006
  6.945857735219510E-006
  6.744981542976683E-006
  6.740544851656775E-006
  6.861178133514359E-006
  7.052663733475480E-006
  7.274843588285164E-006
  7.497780418229019E-006
  7.697338910969754E-006
  7.851512772034404E-006
  7.937462390630500E-006
  7.927880613655348E-006
  7.796451300677616E-006
  7.535979135100326E-006
  7.184769381902791E-006
  8.197160491019012E-006
  8.792812956048079E-006
  9.228988863151662E-006
  9.616637169553026E-006
  9.986503597712309E-006
  1.034114831571090E-005
  1.067680166442393E-005
  1.098852262249821E-005
  1.127172959945765E-005
  1.152256165574737E-005
  1.173826147201553E-005
  1.191973302706374E-005
  1.207832411044231E-005
  1.225728967163513E-005
  6.490389916788140E-006
  8.577692434654060E-006
  9.996657228095338E-006
  1.101199422860669E-005
  1.178848106835025E-005
  1.241813571971421E-005
  1.295086873846044E-005
  1.341540640786136E-005
  1.383036303329202E-005
  1.420972975736209E-005
  1.456630071900185E-005
  1.491483467052537E-005
  1.527639043290573E-005
  1.568636821086896E-005
  1.620607357758061E-005
  5.766910358366499E-006
  8.625111872664498E-006
  1.066252217367120E-005
  1.214366522879432E-005
  1.325530050979737E-005
  1.412173535546329E-005
  1.482377740853527E-005
  1.541501961388860E-005
  1.593326041606708E-005
  1.640798608903787E-005
  1.686565422340723E-005
  1.733429714613930E-005
  1.784872637227120E-005
  1.845705871424784E-005
  1.922834344472185E-005
  5.052221784712234E-006
  8.405690459912764E-006
  1.085955948305872E-005
  1.267266774859905E-005
  1.403772353947424E-005
  1.509318809364944E-005
  1.593668007460159E-005
  1.663749323994491E-005
  1.724675199638405E-005
  1.780512475640939E-005
  1.834882057050261E-005
  1.891478506964241E-005
  1.954584748510783E-005
  2.029620338525359E-005
  2.123689605353933E-005
  4.375372751690985E-006
  7.967498227536901E-006
  1.064380802747334E-005
  1.265001611970388E-005
  1.417396433031274E-005
  1.535605338492661E-005
  1.629980118772484E-005
  1.708178279699068E-005
  1.776025749881419E-005
  1.838229667453417E-005
  1.898968219979376E-005
  1.962404258765322E-005
  2.033165262010918E-005
  2.116808749830763E-005
  2.220260923122838E-005
  3.758858479045645E-006
  7.353027730093668E-006
  1.006997236210185E-005
  1.213395025933675E-005
  1.371916327569029E-005
  1.495888607178619E-005
  1.595411003643453E-005
  1.678158192945901E-005
  1.750098285753659E-005
  1.816113914530599E-005
  1.880536411831609E-005
  1.947615494560408E-005
  2.021946614695932E-005
  2.108867776796644E-005
  2.214823498498905E-005
  3.219040174799881E-006
  6.603420152545109E-006
  9.196153078151918E-006
  1.119210401500002E-005
  1.274447617063058E-005
  1.397234517739672E-005
  1.496761056645192E-005
  1.580141542375871E-005
  1.652996465848432E-005
  1.719969495142102E-005
  1.785183207467942E-005
  1.852643592561648E-005
  1.926604359821810E-005
  2.011898028538312E-005
  2.114235360671214E-005
  2.766164832474316E-006
  5.759294261564671E-006
  8.084630475675364E-006
  9.901051424503530E-006
  1.133487666996409E-005
  1.248552127355671E-005
  1.343074993756113E-005
  1.423157073425747E-005
  1.493674078535932E-005
  1.558685284799041E-005
  1.621800424240785E-005
  1.686508242031898E-005
  1.756471267707192E-005
  1.835790206665488E-005
  1.929239514012860E-005
  2.404485409475651E-006
  4.860142332145052E-006
  6.800608070481058E-006
  8.344082818777351E-006
  9.585760366923893E-006
  1.060144931263103E-005
  1.145110425227413E-005
  1.218223069606628E-005
  1.283311142908834E-005
  1.343580629143314E-005
  1.401889662267144E-005
  1.460996622081213E-005
  1.523782207143777E-005
  1.593445851196210E-005
  1.673676421428043E-005
  2.132630787398554E-006
  3.943216259371172E-006
  5.410024243390484E-006
  6.608032513013082E-006
  7.598806440213753E-006
  8.432087689194651E-006
  9.147632324061549E-006
  9.777176139013404E-006
  1.034642688899724E-005
  1.087700306063886E-005
  1.138825983975917E-005
  1.189896163780456E-005
  1.242877304825423E-005
  1.299954554371968E-005
  1.363637798114273E-005
  1.944243378433877E-006
  3.042373989370057E-006
  3.977105889469408E-006
  4.779793618031163E-006
  5.477593560080447E-006
  6.093151822364451E-006
  6.644852600769666E-006
  7.147431855772607E-006
  7.612807275519221E-006
  8.051009486207912E-006
  8.471126460673446E-006
  8.882193981581765E-006
  9.293979357666838E-006
  9.717613470844083E-006
  1.016602874382412E-005
  1.828842403866006E-006
  2.187131467652989E-006
  2.562076144472664E-006
  2.942973734998923E-006
  3.323389702244926E-006
  3.699173983742758E-006
  4.067288668240595E-006
  4.425200378575942E-006
  4.770649828586098E-006
  5.101654475615015E-006
  5.416632730083617E-006
  5.714561990684011E-006
  5.995098883929095E-006
  6.258599334069910E-006
  6.505979314948180E-006
  1.772845781511016E-006
  1.402035640770189E-006
  1.219256736058255E-006
  1.174990954454283E-006
  1.231425142800288E-006
  1.359087204033744E-006
  1.534470066879510E-006
  1.738367833509281E-006
  1.954712364087758E-006
  2.169747065427161E-006
  2.371410756590382E-006
  2.548830237818613E-006
  2.691837254388067E-006
  2.790435370603010E-006
  2.834145890537397E-006
  1.760676533269959E-006
  7.063933333396261E-007
 -4.313859251953219E-009
 -4.552150974337377E-007
 -7.121523697448243E-007
 -8.274613375426950E-007
 -8.433060073798626E-007
 -7.942117202715004E-007
 -7.090175354707575E-007
 -6.124184576321982E-007
 -5.262304097711236E-007
 -4.704849519270927E-007
 -4.644442714569567E-007
 -5.276176155490575E-007
 -6.808565369311203E-007
  1.775882674223466E-006
  1.143402879000187E-007
 -1.069708249319518E-006
 -1.888778229416353E-006
 -2.432536575327823E-006
 -2.772951546944974E-006
 -2.968330895086164E-006
 -3.066529076149513E-006
 -3.107539718483557E-006
 -3.125637580559152E-006
 -3.151197150759524E-006
 -3.212291645866760E-006
 -3.336162837821985E-006
 -3.550644890133734E-006
 -3.885621670631708E-006
  1.802208000477534E-006
 -3.647938560602110E-007
 -1.946399109207742E-006
 -3.077794967655147E-006
 -3.867705293440688E-006
 -4.403945347908216E-006
 -4.757912838405464E-006
 -4.988281560254902E-006
 -5.144094204102473E-006
 -5.267396078177177E-006
 -5.395517228816290E-006
 -5.563094018605785E-006
 -5.803915386328141E-006
 -6.152676380449181E-006
 -6.646718088406032E-006
  1.824562303382720E-006
 -7.258790619858990E-007
 -2.612050840876972E-006
 -3.985534840599646E-006
 -4.969063696104846E-006
 -5.662169161626546E-006
 -6.145892238808064E-006
 -6.486800016889417E-006
 -6.740466058054719E-006
 -6.954510450151862E-006
 -7.171269502279302E-006
 -7.430164267265137E-006
 -7.769845945468433E-006
 -8.230201963633974E-006
 -8.854302525515507E-006
  1.829852035324707E-006
 -9.671838500956547E-007
 -3.051854363273210E-006
 -4.586006569205889E-006
 -5.701325622216797E-006
 -6.504770883345584E-006
 -7.083302584719604E-006
 -7.508109217174714E-006
 -7.838415145564279E-006
 -8.124881079543247E-006
 -8.412607233002412E-006
 -8.743780265423610E-006
 -9.160040317991723E-006
 -9.704662227795708E-006
 -1.042463885605658E-005
  1.807646825005823E-006
 -1.089398116605496E-006
 -3.257411676203899E-006
 -4.862889196392740E-006
 -6.041662907305348E-006
 -6.903812414014613E-006
 -7.538267148142552E-006
 -8.017231278916640E-006
 -8.400349315448762E-006
 -8.738478295647337E-006
 -9.076992942389827E-006
 -9.458643966394179E-006
 -9.926060939586059E-006
 -1.052402718520539E-005
 -1.130163692270766E-005
  1.750676380732978E-006
 -1.094435926082258E-006
 -3.225094803126528E-006
 -4.807767892829797E-006
 -5.978119546847151E-006
 -6.845063567407072E-006
 -7.495250595112042E-006
 -7.997879274002579E-006
 -8.409397297914111E-006
 -8.777717562022978E-006
 -9.145799678575003E-006
 -9.554633760342778E-006
 -1.004577608456747E-005
 -1.066361800153705E-005
 -1.145756742489513E-005
  1.655186301017626E-006
 -9.838446365405440E-007
 -2.953632309697276E-006
 -4.417483902305228E-006
 -5.507240091695560E-006
 -6.326184643151881E-006
 -6.953832779832649E-006
 -7.451730405083152E-006
 -7.869065012513888E-006
 -8.247402717088941E-006
 -8.624456476578383E-006
 -9.037076681884633E-006
 -9.523671731250729E-006
 -1.012636766681798E-005
 -1.089314192942296E-005
  1.521245950611954E-006
 -7.563420307336226E-007
 -2.440319887916817E-006
 -3.690190460266526E-006
 -4.630850404014934E-006
 -5.354490727191115E-006
 -5.927273998080461E-006
 -6.397515701260504E-006
 -6.802664012405738E-006
 -7.174403760786174E-006
 -7.542333752488137E-006
 -7.936745993202615E-006
 -8.390891885200152E-006
 -8.942757786919752E-006
 -9.637196291093274E-006
  1.353330365498896E-006
 -4.032521313015745E-007
 -1.674431194587985E-006
 -2.619435735291502E-006
 -3.352149196995940E-006
 -3.944813096903424E-006
 -4.441342314888207E-006
 -4.870182429367430E-006
 -5.252622886267090E-006
 -5.607187428570821E-006
 -5.952501357095220E-006
 -6.309902678364162E-006
 -6.705267380319381E-006
 -7.170846146631329E-006
 -7.746273633490830E-006
  1.161927452335971E-006
  1.019897724514625E-007
 -6.247282020569297E-007
 -1.185690022008858E-006
 -1.672261712209253E-006
 -2.118807050981246E-006
 -2.533993157131105E-006
 -2.920319213372191E-006
 -3.279621952132547E-006
 -3.614968683079555E-006
 -3.931606030505214E-006
 -4.238459047526918E-006
 -4.552259306721962E-006
 -4.896628303645097E-006
 -5.304966498047277E-006
  9.721764724145747E-007
  8.311770336002683E-007
  7.856258411559040E-007
  6.522892303712425E-007
  4.076670968628145E-007
  9.286009636562646E-008
 -2.563941199493350E-007
 -6.138033374124799E-007
 -9.612153484873006E-007
 -1.285917680221777E-006
 -1.578553268006542E-006
 -1.832478404863684E-006
 -2.045724486148415E-006
 -2.238514985243898E-006
 -2.427151711909327E-006
  8.565134895663326E-007
  1.996973720805742E-006
  2.716038502037469E-006
  2.941040199042477E-006
  2.876223713171985E-006
  2.644583599093974E-006
  2.325032759027176E-006
  1.968678028848698E-006
  1.610476042912625E-006
  1.276579799481049E-006
  9.895979105878934E-007
  7.728068955198436E-007
  6.527758989672980E-007
  6.584467420341827E-007
  7.250712076626662E-007
  1.359176045307409E-006
  4.169481457605417E-006
  5.301677150229132E-006
  5.696460440292030E-006
  5.693222966607152E-006
  5.468843205593441E-006
  5.126769096693182E-006
  4.732793956391542E-006
  4.332179712147190E-006
  3.959723019501375E-006
  3.646959674165657E-006
  3.428971449870184E-006
  3.353180490389168E-006
  3.496350282745311E-006
  3.976824934046766E-006
SCALARS poroP double 
LOOKUP_TABLE default
  8.111845677747069E-006
  1.052655334505825E-006
  0.000000000000000E+000
  0.000000000000000E+000
  0.000000000000000E+000
  0.000000000000000E+000
  0.000000000000000E+000
  0.000000000000000E+000
  0.000000000000000E+000
  0.000000000000000E+000
  0.000000000000000E+000
  0.000000000000000E+000
  0.000000000000000E+000
  0.000000000000000E+000
  0.000000000000000E+000
  8.752308404992535E-007
  0.000000000000000E+000
  0.000000000000000E+000
  0.000000000000000E+000
  0.000000000000000E+000
  0.000000000000000E+000
  0.000000000000000E+000
  0.000000000000000E+000
  0.000000000000000E+000
  0.000000000000000E+000
  0.000000000000000E+000
  0.000000000000000E+000
  0.000000000000000E+000
  0.000000000000000E+000
  0.000000000000000E+000
  0.000000000000000E+000
  0.000000000000000E+000
  0.000000000000000E+000
  0.000000000000000E+000
  0.000000000000000E+000
  0.000000000000000E+000
  0.000000000000000E+000
  0.000000000000000E+000
  0.000000000000000E+000
  0.000000000000000E+000
  0.000000000000000E+000
  0.000000000000000E+000
  0.000000000000000E+000
  0.000000000000000E+000
  0.000000000000000E+000
  0.000000000000000E+000
  0.000000000000000E+000
  0.000000000000000E+000
  0.000000000000000E+000
  0.000000000000000E+000
  0.000000000000000E+000
  0.000000000000000E+000
  0.000000000000000E+000
  0.000000000000000E+000
  0.000000000000000E+000
  0.000000000000000E+000
  0.000000000000000E+000
  0.000000000000000E+000
  0.000000000000000E+000
  0.000000000000000E+000
  0.000000000000000E+000
  0.000000000000000E+000
  0.000000000000000E+000
  0.000000000000000E+000
  0.000000000000000E+000
  0.000000000000000E+000
  0.000000000000000E+000
  0.000000000000000E+000
  0.000000000000000E+000
  0.000000000000000E+000
  0.000000000000000E+000
  0.000000000000000E+000
  0.000000000000000E+000
  0.000000000000000E+000
  0.000000000000000E+000
  0.000000000000000E+000
  0.000000000000000E+000
  0.000000000000000E+000
  0.000000000000000E+000
  0.000000000000000E+000
  0.000000000000000E+000
  0.000000000000000E+000
  0.000000000000000E+000
  0.000000000000000E+000
  0.000000000000000E+000
  0.000000000000000E+000
  0.000000000000000E+000
  0.000000000000000E+000
  0.000000000000000E+000
  0.000000000000000E+000
  0.000000000000000E+000
  0.000000000000000E+000
  0.000000000000000E+000
  0.000000000000000E+000
  0.000000000000000E+000
  0.000000000000000E+000
  0.000000000000000E+000
  0.000000000000000E+000
  0.000000000000000E+000
  0.000000000000000E+000
  0.000000000000000E+000
  0.000000000000000E+000
  0.000000000000000E+000
  0.000000000000000E+000
  0.000000000000000E+000
  0.000000000000000E+000
  0.000000000000000E+000
  0.000000000000000E+000
  0.000000000000000E+000
  0.000000000000000E+000
  0.000000000000000E+000
  0.000000000000000E+000
  0.000000000000000E+000
  0.000000000000000E+000
  0.000000000000000E+000
  0.000000000000000E+000
  0.000000000000000E+000
  0.000000000000000E+000
  0.000000000000000E+000
  0.000000000000000E+000
  0.000000000000000E+000
  0.000000000000000E+000
  0.000000000000000E+000
  0.000000000000000E+000
  0.000000000000000E+000
  0.000000000000000E+000
  0.000000000000000E+000
  0.000000000000000E+000
  0.000000000000000E+000
  0.000000000000000E+000
  0.000000000000000E+000
  0.000000000000000E+000
  0.000000000000000E+000
  0.000000000000000E+000
  0.000000000000000E+000
  0.000000000000000E+000
  0.000000000000000E+000
  0.000000000000000E+000
  0.000000000000000E+000
  0.000000000000000E+000
  0.000000000000000E+000
  0.000000000000000E+000
  0.000000000000000E+000
  0.000000000000000E+000
  0.000000000000000E+000
  0.000000000000000E+000
  0.000000000000000E+000
  0.000000000000000E+000
  0.000000000000000E+000
  0.000000000000000E+000
  0.000000000000000E+000
  0.000000000000000E+000
  0.000000000000000E+000
  0.000000000000000E+000
  0.000000000000000E+000
  0.000000000000000E+000
  0.000000000000000E+000
  0.000000000000000E+000
  0.000000000000000E+000
  0.000000000000000E+000
  0.000000000000000E+000
  0.000000000000000E+000
  0.000000000000000E+000
  0.000000000000000E+000
  0.000000000000000E+000
  0.000000000000000E+000
  0.000000000000000E+000
  0.000000000000000E+000
  0.000000000000000E+000
  0.000000000000000E+000
  0.000000000000000E+000
  0.000000000000000E+000
  0.000000000000000E+000
  0.000000000000000E+000
  0.000000000000000E+000
  0.000000000000000E+000
  0.000000000000000E+000
  0.000000000000000E+000
  0.000000000000000E+000
  0.000000000000000E+000
  0.000000000000000E+000
  0.000000000000000E+000
  0.000000000000000E+000
  0.000000000000000E+000
  0.000000000000000E+000
  0.000000000000000E+000
  0.000000000000000E+000
  0.000000000000000E+000
  0.000000000000000E+000
  0.000000000000000E+000
  0.000000000000000E+000
  0.000000000000000E+000
  0.000000000000000E+000
  0.000000000000000E+000
  0.000000000000000E+000
  0.000000000000000E+000
  0.000000000000000E+000
  0.000000000000000E+000
  0.000000000000000E+000
  0.000000000000000E+000
  0.000000000000000E+000
  0.000000000000000E+000
  0.000000000000000E+000
  0.000000000000000E+000
  0.000000000000000E+000
  0.000000000000000E+000
  0.000000000000000E+000
  0.000000000000000E+000
  0.000000000000000E+000
  0.000000000000000E+000
  0.000000000000000E+000
  0.000000000000000E+000
  0.000000000000000E+000
  0.000000000000000E+000
  0.000000000000000E+000
  0.000000000000000E+000
  0.000000000000000E+000
  0.000000000000000E+000
  0.000000000000000E+000
  0.000000000000000E+000
  0.000000000000000E+000
  0.000000000000000E+000
  0.000000000000000E+000
  0.000000000000000E+000
  0.000000000000000E+000
  0.000000000000000E+000
  0.000000000000000E+000
  0.000000000000000E+000
  0.000000000000000E+000
  0.000000000000000E+000
  0.000000000000000E+000
  0.000000000000000E+000
  0.000000000000000E+000
  0.000000000000000E+000
  0.000000000000000E+000
  0.000000000000000E+000
  0.000000000000000E+000
  0.000000000000000E+000
  0.000000000000000E+000
  0.000000000000000E+000
  0.000000000000000E+000
  0.000000000000000E+000
  0.000000000000000E+000
  0.000000000000000E+000
  0.000000000000000E+000
  0.000000000000000E+000
  0.000000000000000E+000
  0.000000000000000E+000
  0.000000000000000E+000
  0.000000000000000E+000
  0.000000000000000E+000
  0.000000000000000E+000
  0.000000000000000E+000
  0.000000000000000E+000
  0.000000000000000E+000
  0.000000000000000E+000
  0.000000000000000E+000
  0.000000000000000E+000
  0.000000000000000E+000
  0.000000000000000E+000
  0.000000000000000E+000
  0.000000000000000E+000
  0.000000000000000E+000
  0.000000000000000E+000
  0.000000000000000E+000
  0.000000000000000E+000
  0.000000000000000E+000
  0.000000000000000E+000
  0.000000000000000E+000
  0.000000000000000E+000
  0.000000000000000E+000
  0.000000000000000E+000
  0.000000000000000E+000
  0.000000000000000E+000
  0.000000000000000E+000
  0.000000000000000E+000
  0.000000000000000E+000
  0.000000000000000E+000
  0.000000000000000E+000
  0.000000000000000E+000
  0.000000000000000E+000
  0.000000000000000E+000
  0.000000000000000E+000
  0.000000000000000E+000
  0.000000000000000E+000
  0.000000000000000E+000
  0.000000000000000E+000
  0.000000000000000E+000
  0.000000000000000E+000
  0.000000000000000E+000
  0.000000000000000E+000
  0.000000000000000E+000
  0.000000000000000E+000
  0.000000000000000E+000
  0.000000000000000E+000
  0.000000000000000E+000
  0.000000000000000E+000
  0.000000000000000E+000
  0.000000000000000E+000
  0.000000000000000E+000
  0.000000000000000E+000
  0.000000000000000E+000
  0.000000000000000E+000
  0.000000000000000E+000
  0.000000000000000E+000
  0.000000000000000E+000
  0.000000000000000E+000
  0.000000000000000E+000
  0.000000000000000E+000
  0.000000000000000E+000
  0.000000000000000E+000
  0.000000000000000E+000
  0.000000000000000E+000
  0.000000000000000E+000
  0.000000000000000E+000
  0.000000000000000E+000
  0.000000000000000E+000
  0.000000000000000E+000
  0.000000000000000E+000
  0.000000000000000E+000
  0.000000000000000E+000
  0.000000000000000E+000
  0.000000000000000E+000
  0.000000000000000E+000
  0.000000000000000E+000
  0.000000000000000E+000
  0.000000000000000E+000
  0.000000000000000E+000
  0.000000000000000E+000
  0.000000000000000E+000
  0.000000000000000E+000
  0.000000000000000E+000
  0.000000000000000E+000
  0.000000000000000E+000
  0.000000000000000E+000
  0.000000000000000E+000
  0.000000000000000E+000
  0.000000000000000E+000
  0.000000000000000E+000
  0.000000000000000E+000
  0.000000000000000E+000
  0.000000000000000E+000
  0.000000000000000E+000
  0.000000000000000E+000
  0.000000000000000E+000
  0.000000000000000E+000
  0.000000000000000E+000
  0.000000000000000E+000
  0.000000000000000E+000
  0.000000000000000E+000
  0.000000000000000E+000
  0.000000000000000E+000
  0.000000000000000E+000
  0.000000000000000E+000
  0.000000000000000E+000
  0.000000000000000E+000
  0.000000000000000E+000
  0.000000000000000E+000
  0.000000000000000E+000
  0.000000000000000E+000
  0.000000000000000E+000
  0.000000000000000E+000
  0.000000000000000E+000
  0.000000000000000E+000
  0.000000000000000E+000
  0.000000000000000E+000
  0.000000000000000E+000
  0.000000000000000E+000
  0.000000000000000E+000
  0.000000000000000E+000
  0.000000000000000E+000
  0.000000000000000E+000
  0.000000000000000E+000
  0.000000000000000E+000
  0.000000000000000E+000
  0.000000000000000E+000
  0.000000000000000E+000
  0.000000000000000E+000
  0.000000000000000E+000
  0.000000000000000E+000
  0.000000000000000E+000
  0.000000000000000E+000
  0.000000000000000E+000
  0.000000000000000E+000
  0.000000000000000E+000
  0.000000000000000E+000
  0.000000000000000E+000
  0.000000000000000E+000
  0.000000000000000E+000
  0.000000000000000E+000
  0.000000000000000E+000
  0.000000000000000E+000
  0.000000000000000E+000
  0.000000000000000E+000
  0.000000000000000E+000
  0.000000000000000E+000
  0.000000000000000E+000
  0.000000000000000E+000
  0.000000000000000E+000
  0.000000000000000E+000
  0.000000000000000E+000
  0.000000000000000E+000
  0.000000000000000E+000
  0.000000000000000E+000
  0.000000000000000E+000
  0.000000000000000E+000
  0.000000000000000E+000
  0.000000000000000E+000
  0.000000000000000E+000
  0.000000000000000E+000
  0.000000000000000E+000
  0.000000000000000E+000
  0.000000000000000E+000
  0.000000000000000E+000
  0.000000000000000E+000
  0.000000000000000E+000
  0.000000000000000E+000
  0.000000000000000E+000
  0.000000000000000E+000
  0.000000000000000E+000
  0.000000000000000E+000
  0.000000000000000E+000
  0.000000000000000E+000
  0.000000000000000E+000
  0.000000000000000E+000
  0.000000000000000E+000
  0.000000000000000E+000
  0.000000000000000E+000
  0.000000000000000E+000
  0.000000000000000E+000
  0.000000000000000E+000
  0.000000000000000E+000
  0.000000000000000E+000
  0.000000000000000E+000
  0.000000000000000E+000
  0.000000000000000E+000
  0.000000000000000E+000
  0.000000000000000E+000
  0.000000000000000E+000
  0.000000000000000E+000
  0.000000000000000E+000
  0.000000000000000E+000
  0.000000000000000E+000
  0.000000000000000E+000
  0.000000000000000E+000
  0.000000000000000E+000
  0.000000000000000E+000
  0.000000000000000E+000
  0.000000000000000E+000
  0.000000000000000E+000
SCALARS elementIsPlast double 
LOOKUP_TABLE default
  0.000000000000000E+000
  0.000000000000000E+000
  0.000000000000000E+000
  0.000000000000000E+000
  0.000000000000000E+000
  0.000000000000000E+000
  0.000000000000000E+000
  0.000000000000000E+000
  0.000000000000000E+000
  0.000000000000000E+000
  0.000000000000000E+000
  0.000000000000000E+000
  0.000000000000000E+000
  0.000000000000000E+000
  0.000000000000000E+000
  0.000000000000000E+000
  0.000000000000000E+000
  0.000000000000000E+000
  0.000000000000000E+000
  0.000000000000000E+000
  0.000000000000000E+000
  0.000000000000000E+000
  0.000000000000000E+000
  0.000000000000000E+000
  0.000000000000000E+000
  0.000000000000000E+000
  0.000000000000000E+000
  0.000000000000000E+000
  0.000000000000000E+000
  0.000000000000000E+000
  0.000000000000000E+000
  0.000000000000000E+000
  0.000000000000000E+000
  0.000000000000000E+000
  0.000000000000000E+000
  0.000000000000000E+000
  0.000000000000000E+000
  0.000000000000000E+000
  0.000000000000000E+000
  0.000000000000000E+000
  0.000000000000000E+000
  0.000000000000000E+000
  0.000000000000000E+000
  0.000000000000000E+000
  0.000000000000000E+000
  0.000000000000000E+000
  0.000000000000000E+000
  0.000000000000000E+000
  0.000000000000000E+000
  0.000000000000000E+000
  0.000000000000000E+000
  0.000000000000000E+000
  0.000000000000000E+000
  0.000000000000000E+000
  0.000000000000000E+000
  0.000000000000000E+000
  0.000000000000000E+000
  0.000000000000000E+000
  0.000000000000000E+000
  0.000000000000000E+000
  0.000000000000000E+000
  0.000000000000000E+000
  0.000000000000000E+000
  0.000000000000000E+000
  0.000000000000000E+000
  0.000000000000000E+000
  0.000000000000000E+000
  0.000000000000000E+000
  0.000000000000000E+000
  0.000000000000000E+000
  0.000000000000000E+000
  0.000000000000000E+000
  0.000000000000000E+000
  0.000000000000000E+000
  0.000000000000000E+000
  0.000000000000000E+000
  0.000000000000000E+000
  0.000000000000000E+000
  0.000000000000000E+000
  0.000000000000000E+000
  0.000000000000000E+000
  0.000000000000000E+000
  0.000000000000000E+000
  0.000000000000000E+000
  0.000000000000000E+000
  0.000000000000000E+000
  0.000000000000000E+000
  0.000000000000000E+000
  0.000000000000000E+000
  0.000000000000000E+000
  0.000000000000000E+000
  0.000000000000000E+000
  0.000000000000000E+000
  0.000000000000000E+000
  0.000000000000000E+000
  0.000000000000000E+000
  0.000000000000000E+000
  0.000000000000000E+000
  0.000000000000000E+000
  0.000000000000000E+000
  0.000000000000000E+000
  0.000000000000000E+000
  0.000000000000000E+000
  0.000000000000000E+000
  0.000000000000000E+000
  0.000000000000000E+000
  0.000000000000000E+000
  0.000000000000000E+000
  0.000000000000000E+000
  0.000000000000000E+000
  0.000000000000000E+000
  0.000000000000000E+000
  0.000000000000000E+000
  0.000000000000000E+000
  0.000000000000000E+000
  0.000000000000000E+000
  0.000000000000000E+000
  0.000000000000000E+000
  0.000000000000000E+000
  0.000000000000000E+000
  0.000000000000000E+000
  0.000000000000000E+000
  0.000000000000000E+000
  0.000000000000000E+000
  0.000000000000000E+000
  0.000000000000000E+000
  0.000000000000000E+000
  0.000000000000000E+000
  0.000000000000000E+000
  0.000000000000000E+000
  0.000000000000000E+000
  0.000000000000000E+000
  0.000000000000000E+000
  0.000000000000000E+000
  0.000000000000000E+000
  0.000000000000000E+000
  0.000000000000000E+000
  0.000000000000000E+000
  0.000000000000000E+000
  0.000000000000000E+000
  0.000000000000000E+000
  0.000000000000000E+000
  0.000000000000000E+000
  0.000000000000000E+000
  0.000000000000000E+000
  0.000000000000000E+000
  0.000000000000000E+000
  0.000000000000000E+000
  0.000000000000000E+000
  0.000000000000000E+000
  0.000000000000000E+000
  0.000000000000000E+000
  0.000000000000000E+000
  0.000000000000000E+000
  0.000000000000000E+000
  0.000000000000000E+000
  0.000000000000000E+000
  0.000000000000000E+000
  0.000000000000000E+000
  0.000000000000000E+000
  0.000000000000000E+000
  0.000000000000000E+000
  0.000000000000000E+000
  0.000000000000000E+000
  0.000000000000000E+000
  0.000000000000000E+000
  0.000000000000000E+000
  0.000000000000000E+000
  0.000000000000000E+000
  0.000000000000000E+000
  0.000000000000000E+000
  0.000000000000000E+000
  0.000000000000000E+000
  0.000000000000000E+000
  0.000000000000000E+000
  0.000000000000000E+000
  0.000000000000000E+000
  0.000000000000000E+000
  0.000000000000000E+000
  0.000000000000000E+000
  0.000000000000000E+000
  0.000000000000000E+000
  0.000000000000000E+000
  0.000000000000000E+000
  0.000000000000000E+000
  0.000000000000000E+000
  0.000000000000000E+000
  0.000000000000000E+000
  0.000000000000000E+000
  0.000000000000000E+000
  0.000000000000000E+000
  0.000000000000000E+000
  0.000000000000000E+000
  0.000000000000000E+000
  0.000000000000000E+000
  0.000000000000000E+000
  0.000000000000000E+000
  0.000000000000000E+000
  0.000000000000000E+000
  0.000000000000000E+000
  0.000000000000000E+000
  0.000000000000000E+000
  0.000000000000000E+000
  0.000000000000000E+000
  0.000000000000000E+000
  0.000000000000000E+000
  0.000000000000000E+000
  0.000000000000000E+000
  0.000000000000000E+000
  0.000000000000000E+000
  0.000000000000000E+000
  0.000000000000000E+000
  0.000000000000000E+000
  0.000000000000000E+000
  0.000000000000000E+000
  0.000000000000000E+000
  0.000000000000000E+000
  0.000000000000000E+000
  0.000000000000000E+000
  0.000000000000000E+000
  0.000000000000000E+000
  0.000000000000000E+000
  0.000000000000000E+000
  0.000000000000000E+000
  0.000000000000000E+000
  0.000000000000000E+000
  0.000000000000000E+000
  0.000000000000000E+000
  0.000000000000000E+000
  0.000000000000000E+000
  0.000000000000000E+000
  0.000000000000000E+000
  0.000000000000000E+000
  0.000000000000000E+000
  0.000000000000000E+000
  0.000000000000000E+000
  0.000000000000000E+000
  0.000000000000000E+000
  0.000000000000000E+000
  0.000000000000000E+000
  0.000000000000000E+000
  0.000000000000000E+000
  0.000000000000000E+000
  0.000000000000000E+000
  0.000000000000000E+000
  0.000000000000000E+000
  0.000000000000000E+000
  0.000000000000000E+000
  0.000000000000000E+000
  0.000000000000000E+000
  0.000000000000000E+000
  0.000000000000000E+000
  0.000000000000000E+000
  0.000000000000000E+000
  0.000000000000000E+000
  0.000000000000000E+000
  0.000000000000000E+000
  0.000000000000000E+000
  0.000000000000000E+000
  0.000000000000000E+000
  0.000000000000000E+000
  0.000000000000000E+000
  0.000000000000000E+000
  0.000000000000000E+000
  0.000000000000000E+000
  0.000000000000000E+000
  0.000000000000000E+000
  0.000000000000000E+000
  0.000000000000000E+000
  0.000000000000000E+000
  0.000000000000000E+000
  0.000000000000000E+000
  0.000000000000000E+000
  0.000000000000000E+000
  0.000000000000000E+000
  0.000000000000000E+000
  0.000000000000000E+000
  0.000000000000000E+000
  0.000000000000000E+000
  0.000000000000000E+000
  0.000000000000000E+000
  0.000000000000000E+000
  0.000000000000000E+000
  0.000000000000000E+000
  0.000000000000000E+000
  0.000000000000000E+000
  0.000000000000000E+000
  0.000000000000000E+000
  0.000000000000000E+000
  0.000000000000000E+000
  0.000000000000000E+000
  0.000000000000000E+000
  0.000000000000000E+000
  0.000000000000000E+000
  0.000000000000000E+000
  0.000000000000000E+000
  0.000000000000000E+000
  0.000000000000000E+000
  0.000000000000000E+000
  0.000000000000000E+000
  0.000000000000000E+000
  0.000000000000000E+000
  0.000000000000000E+000
  0.000000000000000E+000
  0.000000000000000E+000
  0.000000000000000E+000
  0.000000000000000E+000
  0.000000000000000E+000
  0.000000000000000E+000
  0.000000000000000E+000
  0.000000000000000E+000
  0.000000000000000E+000
  0.000000000000000E+000
  0.000000000000000E+000
  0.000000000000000E+000
  0.000000000000000E+000
  0.000000000000000E+000
  0.000000000000000E+000
  0.000000000000000E+000
  0.000000000000000E+000
  0.000000000000000E+000
  0.000000000000000E+000
  0.000000000000000E+000
  0.000000000000000E+000
  0.000000000000000E+000
  0.000000000000000E+000
  0.000000000000000E+000
  0.000000000000000E+000
  0.000000000000000E+000
  0.000000000000000E+000
  0.000000000000000E+000
  0.000000000000000E+000
  0.000000000000000E+000
  0.000000000000000E+000
  0.000000000000000E+000
  0.000000000000000E+000
  0.000000000000000E+000
  0.000000000000000E+000
  0.000000000000000E+000
  0.000000000000000E+000
  0.000000000000000E+000
  0.000000000000000E+000
  0.000000000000000E+000
  0.000000000000000E+000
  0.000000000000000E+000
  0.000000000000000E+000
  0.000000000000000E+000
  0.000000000000000E+000
  0.000000000000000E+000
  0.000000000000000E+000
  0.000000000000000E+000
  0.000000000000000E+000
  0.000000000000000E+000
  0.000000000000000E+000
  0.000000000000000E+000
  0.000000000000000E+000
  0.000000000000000E+000
  0.000000000000000E+000
  0.000000000000000E+000
  0.000000000000000E+000
  0.000000000000000E+000
  0.000000000000000E+000
  0.000000000000000E+000
  0.000000000000000E+000
  0.000000000000000E+000
  0.000000000000000E+000
  0.000000000000000E+000
  0.000000000000000E+000
  0.000000000000000E+000
  0.000000000000000E+000
  0.000000000000000E+000
  0.000000000000000E+000
  0.000000000000000E+000
  0.000000000000000E+000
  0.000000000000000E+000
  0.000000000000000E+000
  0.000000000000000E+000
  0.000000000000000E+000
  0.000000000000000E+000
  0.000000000000000E+000
  0.000000000000000E+000
  0.000000000000000E+000
  0.000000000000000E+000
  0.000000000000000E+000
  0.000000000000000E+000
  0.000000000000000E+000
  0.000000000000000E+000
  0.000000000000000E+000
  0.000000000000000E+000
  0.000000000000000E+000
  0.000000000000000E+000
  0.000000000000000E+000
  0.000000000000000E+000
  0.000000000000000E+000
  0.000000000000000E+000
  0.000000000000000E+000
  0.000000000000000E+000
  0.000000000000000E+000
  0.000000000000000E+000
  0.000000000000000E+000
  0.000000000000000E+000
  0.000000000000000E+000
  0.000000000000000E+000
  0.000000000000000E+000
  0.000000000000000E+000
  0.000000000000000E+000
  0.000000000000000E+000
  0.000000000000000E+000
  0.000000000000000E+000
  0.000000000000000E+000
  0.000000000000000E+000
  0.000000000000000E+000
  0.000000000000000E+000
  0.000000000000000E+000
  0.000000000000000E+000
  0.000000000000000E+000
  0.000000000000000E+000
  0.000000000000000E+000
  0.000000000000000E+000
  0.000000000000000E+000
  0.000000000000000E+000
  0.000000000000000E+000
  0.000000000000000E+000
  0.000000000000000E+000
  0.000000000000000E+000
  0.000000000000000E+000
  0.000000000000000E+000
  0.000000000000000E+000
  0.000000000000000E+000
  0.000000000000000E+000
  0.000000000000000E+000
  0.000000000000000E+000
  0.000000000000000E+000
  0.000000000000000E+000
  0.000000000000000E+000
  0.000000000000000E+000
  0.000000000000000E+000
  0.000000000000000E+000
  0.000000000000000E+000
  0.000000000000000E+000
  0.000000000000000E+000
  0.000000000000000E+000
  0.000000000000000E+000
  0.000000000000000E+000
  0.000000000000000E+000
  0.000000000000000E+000
  0.000000000000000E+000
  0.000000000000000E+000
  0.000000000000000E+000
  0.000000000000000E+000
SCALARS poroL double 
LOOKUP_TABLE default
  0.156228682430350     
  0.156203945032351     
  0.156184616077557     
  0.156170961142952     
  0.156159939725717     
  0.156150560813177     
  0.156142338124709     
  0.156134969395488     
  0.156128234229756     
  0.156121949689163     
  0.156115941721846     
  0.156110017041482     
  0.156103915770239     
  0.156097215595244     
  0.156088691276625     
  0.156194083683609     
  0.156182453721095     
  0.156170351148730     
  0.156158416319664     
  0.156148139290971     
  0.156139179462347     
  0.156131237804397     
  0.156124081504081     
  0.156117525756317     
  0.156111411431313     
  0.156105588140872     
  0.156099897044069     
  0.156094156443404     
  0.156088111376684     
  0.156082020861903     
  0.156174766421595     
  0.156164299057079     
  0.156154097235629     
  0.156144246451130     
  0.156135093180762     
  0.156126847497486     
  0.156119407367108     
  0.156112640049784     
  0.156106416033769     
  0.156100615908419     
  0.156095127972878     
  0.156089847840537     
  0.156084682715505     
  0.156079649740931     
  0.156074896054699     
  0.156155560445188     
  0.156146448040090     
  0.156137621081197     
  0.156129150935604     
  0.156121166478041     
  0.156113765250963     
  0.156106966759216     
  0.156100716644747     
  0.156094941285689     
  0.156089564721250     
  0.156084517518047     
  0.156079745086024     
  0.156075231800823     
  0.156071023552744     
  0.156067260125385     
  0.156136146368560     
  0.156128452013840     
  0.156120912723519     
  0.156113623351338     
  0.156106675898556     
  0.156100140622831     
  0.156094048342335     
  0.156088392649940     
  0.156083142602826     
  0.156078260183112     
  0.156073711809939     
  0.156069480524350     
  0.156065579006606     
  0.156062064644623     
  0.156059044917551     
  0.156116769895718     
  0.156110407501222     
  0.156104056236945     
  0.156097839657839     
  0.156091847958407     
  0.156086146750729     
  0.156080775401062     
  0.156075748658383     
  0.156071064026709     
  0.156066711398370     
  0.156062683387674     
  0.156058984831634     
  0.156055641996456     
  0.156052709197550     
  0.156050270884385     
  0.156097645044283     
  0.156092447480240     
  0.156087168674375     
  0.156081930095663     
  0.156076823372283     
  0.156071915197025     
  0.156067250912406     
  0.156062857842260     
  0.156058750377847     
  0.156054936705373     
  0.156051426035237     
  0.156048235606714     
  0.156045396486543     
  0.156042957244145     
  0.156040984101437     
  0.156078871873218     
  0.156074678449714     
  0.156070349147745     
  0.156065995255863     
  0.156061703975404     
  0.156057541564098     
  0.156053556513035     
  0.156049783051955     
  0.156046245287453     
  0.156042962035131     
  0.156039951948075     
  0.156037238290515     
  0.156034852702789     
  0.156032837219318     
  0.156031243974016     
  0.156060494298177     
  0.156057161881016     
  0.156053667125063     
  0.156050107795400     
  0.156046563275267     
  0.156043096235625     
  0.156039755035392     
  0.156036576562986     
  0.156033589494248     
  0.156030817857806     
  0.156028284643062     
  0.156026015049631     
  0.156024038906856     
  0.156022391828308     
  0.156021114777782     
  0.156042518984375     
  0.156039924720169     
  0.156037162133262     
  0.156034314579505     
  0.156031451524690     
  0.156028629524343     
  0.156025893881331     
  0.156023280771797     
  0.156020819681352     
  0.156018535998072     
  0.156016453547506     
  0.156014596792528     
  0.156012992396037     
  0.156011669872918     
  0.156010661152900     
  0.156024926385845     
  0.156022967161626     
  0.156020848867136     
  0.156018640181078     
  0.156016399433666     
  0.156014175215034     
  0.156012007507167     
  0.156009929194675     
  0.156007967813404     
  0.156006147387257     
  0.156004490182129     
  0.156003018182647     
  0.156001754093442     
  0.156000721695582     
  0.155999945452111     
  0.156007677064616     
  0.156006268869751     
  0.156004722211355     
  0.156003090994428     
  0.156001421642847     
  0.155999753493141     
  0.155998119550063     
  0.155996547517302     
  0.155995060997352     
  0.155993680743368     
  0.155992425834984     
  0.155991314643487     
  0.155990365457033     
  0.155989596659910     
  0.155989026402300     
  0.155990716336946     
  0.155989793834135     
  0.155988761752763     
  0.155987659157028     
  0.155986520058795     
  0.155985373661264     
  0.155984244836198     
  0.155983154781983     
  0.155982121791473     
  0.155981162048186     
  0.155980290363845     
  0.155979520769570     
  0.155978866879866     
  0.155978341965402     
  0.155977958697381     
  0.155973978188467     
  0.155973494489424     
  0.155972935760338     
  0.155972326174470     
  0.155971687004704     
  0.155971036748008     
  0.155970391384419     
  0.155969764737714     
  0.155969168894713     
  0.155968614635124     
  0.155968111822171     
  0.155967669705533     
  0.155967297093292     
  0.155967002359437     
  0.155966793268104     
  0.155957388869270     
  0.155957315407642     
  0.155957204788593     
  0.155957066270822     
  0.155956908200233     
  0.155956738036192     
  0.155956562430029     
  0.155956387334710     
  0.155956218125932     
  0.155956059717356     
  0.155955916655120     
  0.155955793178705     
  0.155955693237199     
  0.155955620452724     
  0.155955578026801     
  0.155940870300936     
  0.155941196724846     
  0.155941525017671     
  0.155941849527663     
  0.155942165599078     
  0.155942469523075     
  0.155942758459594     
  0.155943030317661     
  0.155943283596602     
  0.155943517202338     
  0.155943730259720     
  0.155943921943596     
  0.155944091349086     
  0.155944237416515     
  0.155944358920081     
  0.155924343321608     
  0.155925077373122     
  0.155925851405436     
  0.155926644868534     
  0.155927440118134     
  0.155928222321793     
  0.155928979237815     
  0.155929700863486     
  0.155930378981369     
  0.155931006654857     
  0.155931577735116     
  0.155932086441909     
  0.155932527072780     
  0.155932893881054     
  0.155933181145381     
  0.155907730753206     
  0.155908898150030     
  0.155910140704831     
  0.155911422941713     
  0.155912714295861     
  0.155913989017189     
  0.155915225808540     
  0.155916407209964     
  0.155917518795338     
  0.155918548282067     
  0.155919484668103     
  0.155920317506853     
  0.155921036414261     
  0.155921630877193     
  0.155922090401144     
  0.155890960263627     
  0.155892604649927     
  0.155894354401781     
  0.155896158964289     
  0.155897974930755     
  0.155899766000465     
  0.155901502459332     
  0.155903160225991     
  0.155904719590630     
  0.155906163819271     
  0.155907477806995     
  0.155908646950533     
  0.155909656382615     
  0.155910490672029     
  0.155911134046063     
  0.155873967000350     
  0.155876150098752     
  0.155878461656634     
  0.155880835622061     
  0.155883215778856     
  0.155885555827247     
  0.155887818650424     
  0.155889974878661     
  0.155892000984912     
  0.155893877193048     
  0.155895585473655     
  0.155897107869550     
  0.155898425350711     
  0.155899517346855     
  0.155900362040924     
  0.155856695986586     
  0.155859498179499     
  0.155862442393985     
  0.155865446180622     
  0.155868440436378     
  0.155871369672321     
  0.155874190921204     
  0.155876871553429     
  0.155879386428666     
  0.155881714827499     
  0.155883837548312     
  0.155885734485683     
  0.155887382951723     
  0.155888756950923     
  0.155889827537983     
  0.155839104302935     
  0.155842626026953     
  0.155846290801857     
  0.155849998067098     
  0.155853665603362     
  0.155857229986889     
  0.155860644793304     
  0.155863877175922     
  0.155866903604347     
  0.155869705439889     
  0.155872264834084     
  0.155874561302021     
  0.155876569288908     
  0.155878257033435     
  0.155879586968278     
  0.155821163145710     
  0.155825527752061     
  0.155830019715647     
  0.155834517353418     
  0.155838925015418     
  0.155843173484346     
  0.155847216671895     
  0.155851026059811     
  0.155854584330495     
  0.155857879150208     
  0.155860897568342     
  0.155863621294237     
  0.155866023162233     
  0.155868065297496     
  0.155869699454561     
  0.155802860009346     
  0.155808219230779     
  0.155813666771455     
  0.155819054846512     
  0.155824274421264     
  0.155829254541110     
  0.155833955668891     
  0.155838360352891     
  0.155842463832848     
  0.155846265721901     
  0.155849762812857     
  0.155852942752490     
  0.155855778881217     
  0.155858226994238     
  0.155860225341082     
  0.155784201595294     
  0.155790745740034     
  0.155797304015599     
  0.155803694909349     
  0.155809797978736     
  0.155815548875848     
  0.155820925064283     
  0.155825929871998     
  0.155830579271677     
  0.155834891839244     
  0.155838880428375     
  0.155842544264110     
  0.155845860919389     
  0.155848780430764     
  0.155851223522658     
  0.155765219102511     
  0.155773196000579     
  0.155781054359257     
  0.155788568618049     
  0.155795615985951     
  0.155802156723367     
  0.155808202676174     
  0.155813791025443     
  0.155818967622203     
  0.155823777530484     
  0.155828257623325     
  0.155832426941507     
  0.155836275245375     
  0.155839749128146     
  0.155842747110899     
  0.155745980080972     
  0.155755732163800     
  0.155765121496876     
  0.155773872614016     
  0.155781892064299     
  0.155789203034071     
  0.155795878966963     
  0.155802004495746     
  0.155807663247372     
  0.155812932962790     
  0.155817882112705     
  0.155822563827394     
  0.155826993662216     
  0.155831128429112     
  0.155834835479958     
  0.155726626779889     
  0.155738660024739     
  0.155749846157294     
  0.155759890269836     
  0.155768830526024     
  0.155776831465862     
  0.155784051422046     
  0.155790631488254     
  0.155796695961338     
  0.155802357091387     
  0.155807719651160     
  0.155812881899629     
  0.155817931545512     
  0.155822851903032     
  0.155827502822914     
  0.155707497499603     
  0.155722636671173     
  0.155735793268672     
  0.155746970057319     
  0.155756656915833     
  0.155765188503033     
  0.155772814676346     
  0.155779728719886     
  0.155786090187400     
  0.155792040853607     
  0.155797718182742     
  0.155803270075717     
  0.155808867689576     
  0.155814753017748     
  0.155820678484605     
  0.155690065855674     
  0.155709151674876     
  0.155723590663325     
  0.155735460801083     
  0.155745573404242     
  0.155754399391325     
  0.155762247465787     
  0.155769342846234     
  0.155775865562176     
  0.155781974382705     
  0.155787826590162     
  0.155793601500914     
  0.155799544018795     
  0.155806055202968     
  0.155814302874368     
