# vtk DataFile Version 3.0
vtk output
ASCII
DATASET UNSTRUCTURED_GRID
POINTS       496 double 
  0.00000000E+00  3.00000000E+02  0.00000000E+00
  0.00000000E+00  2.80000000E+02  0.00000000E+00
  0.00000000E+00  2.60000000E+02  0.00000000E+00
  0.00000000E+00  2.40000000E+02  0.00000000E+00
  0.00000000E+00  2.20000000E+02  0.00000000E+00
  0.00000000E+00  2.00000000E+02  0.00000000E+00
  0.00000000E+00  1.80000000E+02  0.00000000E+00
  0.00000000E+00  1.60000000E+02  0.00000000E+00
  0.00000000E+00  1.40000000E+02  0.00000000E+00
  0.00000000E+00  1.20000000E+02  0.00000000E+00
  0.00000000E+00  1.00000000E+02  0.00000000E+00
  0.00000000E+00  8.00000000E+01  0.00000000E+00
  0.00000000E+00  6.00000000E+01  0.00000000E+00
  0.00000000E+00  4.00000000E+01  0.00000000E+00
  0.00000000E+00  2.00000000E+01  0.00000000E+00
  0.00000000E+00  4.99600361E-14  0.00000000E+00
  2.00000000E+01  3.00000000E+02  0.00000000E+00
  2.00000000E+01  2.80000000E+02  0.00000000E+00
  2.00000000E+01  2.60000000E+02  0.00000000E+00
  2.00000000E+01  2.40000000E+02  0.00000000E+00
  2.00000000E+01  2.20000000E+02  0.00000000E+00
  2.00000000E+01  2.00000000E+02  0.00000000E+00
  2.00000000E+01  1.80000000E+02  0.00000000E+00
  2.00000000E+01  1.60000000E+02  0.00000000E+00
  2.00000000E+01  1.40000000E+02  0.00000000E+00
  2.00000000E+01  1.20000000E+02  0.00000000E+00
  2.00000000E+01  1.00000000E+02  0.00000000E+00
  2.00000000E+01  8.00000000E+01  0.00000000E+00
  2.00000000E+01  6.00000000E+01  0.00000000E+00
  2.00000000E+01  4.00000000E+01  0.00000000E+00
  2.00000000E+01  2.00000000E+01  0.00000000E+00
  2.00000000E+01  4.99600361E-14  0.00000000E+00
  4.00000000E+01  3.00000000E+02  0.00000000E+00
  4.00000000E+01  2.80000000E+02  0.00000000E+00
  4.00000000E+01  2.60000000E+02  0.00000000E+00
  4.00000000E+01  2.40000000E+02  0.00000000E+00
  4.00000000E+01  2.20000000E+02  0.00000000E+00
  4.00000000E+01  2.00000000E+02  0.00000000E+00
  4.00000000E+01  1.80000000E+02  0.00000000E+00
  4.00000000E+01  1.60000000E+02  0.00000000E+00
  4.00000000E+01  1.40000000E+02  0.00000000E+00
  4.00000000E+01  1.20000000E+02  0.00000000E+00
  4.00000000E+01  1.00000000E+02  0.00000000E+00
  4.00000000E+01  8.00000000E+01  0.00000000E+00
  4.00000000E+01  6.00000000E+01  0.00000000E+00
  4.00000000E+01  4.00000000E+01  0.00000000E+00
  4.00000000E+01  2.00000000E+01  0.00000000E+00
  4.00000000E+01  4.99600361E-14  0.00000000E+00
  6.00000000E+01  3.00000000E+02  0.00000000E+00
  6.00000000E+01  2.80000000E+02  0.00000000E+00
  6.00000000E+01  2.60000000E+02  0.00000000E+00
  6.00000000E+01  2.40000000E+02  0.00000000E+00
  6.00000000E+01  2.20000000E+02  0.00000000E+00
  6.00000000E+01  2.00000000E+02  0.00000000E+00
  6.00000000E+01  1.80000000E+02  0.00000000E+00
  6.00000000E+01  1.60000000E+02  0.00000000E+00
  6.00000000E+01  1.40000000E+02  0.00000000E+00
  6.00000000E+01  1.20000000E+02  0.00000000E+00
  6.00000000E+01  1.00000000E+02  0.00000000E+00
  6.00000000E+01  8.00000000E+01  0.00000000E+00
  6.00000000E+01  6.00000000E+01  0.00000000E+00
  6.00000000E+01  4.00000000E+01  0.00000000E+00
  6.00000000E+01  2.00000000E+01  0.00000000E+00
  6.00000000E+01  4.99600361E-14  0.00000000E+00
  8.00000000E+01  3.00000000E+02  0.00000000E+00
  8.00000000E+01  2.80000000E+02  0.00000000E+00
  8.00000000E+01  2.60000000E+02  0.00000000E+00
  8.00000000E+01  2.40000000E+02  0.00000000E+00
  8.00000000E+01  2.20000000E+02  0.00000000E+00
  8.00000000E+01  2.00000000E+02  0.00000000E+00
  8.00000000E+01  1.80000000E+02  0.00000000E+00
  8.00000000E+01  1.60000000E+02  0.00000000E+00
  8.00000000E+01  1.40000000E+02  0.00000000E+00
  8.00000000E+01  1.20000000E+02  0.00000000E+00
  8.00000000E+01  1.00000000E+02  0.00000000E+00
  8.00000000E+01  8.00000000E+01  0.00000000E+00
  8.00000000E+01  6.00000000E+01  0.00000000E+00
  8.00000000E+01  4.00000000E+01  0.00000000E+00
  8.00000000E+01  2.00000000E+01  0.00000000E+00
  8.00000000E+01  4.99600361E-14  0.00000000E+00
  1.00000000E+02  3.00000000E+02  0.00000000E+00
  1.00000000E+02  2.80000000E+02  0.00000000E+00
  1.00000000E+02  2.60000000E+02  0.00000000E+00
  1.00000000E+02  2.40000000E+02  0.00000000E+00
  1.00000000E+02  2.20000000E+02  0.00000000E+00
  1.00000000E+02  2.00000000E+02  0.00000000E+00
  1.00000000E+02  1.80000000E+02  0.00000000E+00
  1.00000000E+02  1.60000000E+02  0.00000000E+00
  1.00000000E+02  1.40000000E+02  0.00000000E+00
  1.00000000E+02  1.20000000E+02  0.00000000E+00
  1.00000000E+02  1.00000000E+02  0.00000000E+00
  1.00000000E+02  8.00000000E+01  0.00000000E+00
  1.00000000E+02  6.00000000E+01  0.00000000E+00
  1.00000000E+02  4.00000000E+01  0.00000000E+00
  1.00000000E+02  2.00000000E+01  0.00000000E+00
  1.00000000E+02  4.99600361E-14  0.00000000E+00
  1.20000000E+02  3.00000000E+02  0.00000000E+00
  1.20000000E+02  2.80000000E+02  0.00000000E+00
  1.20000000E+02  2.60000000E+02  0.00000000E+00
  1.20000000E+02  2.40000000E+02  0.00000000E+00
  1.20000000E+02  2.20000000E+02  0.00000000E+00
  1.20000000E+02  2.00000000E+02  0.00000000E+00
  1.20000000E+02  1.80000000E+02  0.00000000E+00
  1.20000000E+02  1.60000000E+02  0.00000000E+00
  1.20000000E+02  1.40000000E+02  0.00000000E+00
  1.20000000E+02  1.20000000E+02  0.00000000E+00
  1.20000000E+02  1.00000000E+02  0.00000000E+00
  1.20000000E+02  8.00000000E+01  0.00000000E+00
  1.20000000E+02  6.00000000E+01  0.00000000E+00
  1.20000000E+02  4.00000000E+01  0.00000000E+00
  1.20000000E+02  2.00000000E+01  0.00000000E+00
  1.20000000E+02  4.99600361E-14  0.00000000E+00
  1.40000000E+02  3.00000000E+02  0.00000000E+00
  1.40000000E+02  2.80000000E+02  0.00000000E+00
  1.40000000E+02  2.60000000E+02  0.00000000E+00
  1.40000000E+02  2.40000000E+02  0.00000000E+00
  1.40000000E+02  2.20000000E+02  0.00000000E+00
  1.40000000E+02  2.00000000E+02  0.00000000E+00
  1.40000000E+02  1.80000000E+02  0.00000000E+00
  1.40000000E+02  1.60000000E+02  0.00000000E+00
  1.40000000E+02  1.40000000E+02  0.00000000E+00
  1.40000000E+02  1.20000000E+02  0.00000000E+00
  1.40000000E+02  1.00000000E+02  0.00000000E+00
  1.40000000E+02  8.00000000E+01  0.00000000E+00
  1.40000000E+02  6.00000000E+01  0.00000000E+00
  1.40000000E+02  4.00000000E+01  0.00000000E+00
  1.40000000E+02  2.00000000E+01  0.00000000E+00
  1.40000000E+02  4.99600361E-14  0.00000000E+00
  1.60000000E+02  3.00000000E+02  0.00000000E+00
  1.60000000E+02  2.80000000E+02  0.00000000E+00
  1.60000000E+02  2.60000000E+02  0.00000000E+00
  1.60000000E+02  2.40000000E+02  0.00000000E+00
  1.60000000E+02  2.20000000E+02  0.00000000E+00
  1.60000000E+02  2.00000000E+02  0.00000000E+00
  1.60000000E+02  1.80000000E+02  0.00000000E+00
  1.60000000E+02  1.60000000E+02  0.00000000E+00
  1.60000000E+02  1.40000000E+02  0.00000000E+00
  1.60000000E+02  1.20000000E+02  0.00000000E+00
  1.60000000E+02  1.00000000E+02  0.00000000E+00
  1.60000000E+02  8.00000000E+01  0.00000000E+00
  1.60000000E+02  6.00000000E+01  0.00000000E+00
  1.60000000E+02  4.00000000E+01  0.00000000E+00
  1.60000000E+02  2.00000000E+01  0.00000000E+00
  1.60000000E+02  4.99600361E-14  0.00000000E+00
  1.80000000E+02  3.00000000E+02  0.00000000E+00
  1.80000000E+02  2.80000000E+02  0.00000000E+00
  1.80000000E+02  2.60000000E+02  0.00000000E+00
  1.80000000E+02  2.40000000E+02  0.00000000E+00
  1.80000000E+02  2.20000000E+02  0.00000000E+00
  1.80000000E+02  2.00000000E+02  0.00000000E+00
  1.80000000E+02  1.80000000E+02  0.00000000E+00
  1.80000000E+02  1.60000000E+02  0.00000000E+00
  1.80000000E+02  1.40000000E+02  0.00000000E+00
  1.80000000E+02  1.20000000E+02  0.00000000E+00
  1.80000000E+02  1.00000000E+02  0.00000000E+00
  1.80000000E+02  8.00000000E+01  0.00000000E+00
  1.80000000E+02  6.00000000E+01  0.00000000E+00
  1.80000000E+02  4.00000000E+01  0.00000000E+00
  1.80000000E+02  2.00000000E+01  0.00000000E+00
  1.80000000E+02  4.99600361E-14  0.00000000E+00
  2.00000000E+02  3.00000000E+02  0.00000000E+00
  2.00000000E+02  2.80000000E+02  0.00000000E+00
  2.00000000E+02  2.60000000E+02  0.00000000E+00
  2.00000000E+02  2.40000000E+02  0.00000000E+00
  2.00000000E+02  2.20000000E+02  0.00000000E+00
  2.00000000E+02  2.00000000E+02  0.00000000E+00
  2.00000000E+02  1.80000000E+02  0.00000000E+00
  2.00000000E+02  1.60000000E+02  0.00000000E+00
  2.00000000E+02  1.40000000E+02  0.00000000E+00
  2.00000000E+02  1.20000000E+02  0.00000000E+00
  2.00000000E+02  1.00000000E+02  0.00000000E+00
  2.00000000E+02  8.00000000E+01  0.00000000E+00
  2.00000000E+02  6.00000000E+01  0.00000000E+00
  2.00000000E+02  4.00000000E+01  0.00000000E+00
  2.00000000E+02  2.00000000E+01  0.00000000E+00
  2.00000000E+02  4.99600361E-14  0.00000000E+00
  2.20000000E+02  3.00000000E+02  0.00000000E+00
  2.20000000E+02  2.80000000E+02  0.00000000E+00
  2.20000000E+02  2.60000000E+02  0.00000000E+00
  2.20000000E+02  2.40000000E+02  0.00000000E+00
  2.20000000E+02  2.20000000E+02  0.00000000E+00
  2.20000000E+02  2.00000000E+02  0.00000000E+00
  2.20000000E+02  1.80000000E+02  0.00000000E+00
  2.20000000E+02  1.60000000E+02  0.00000000E+00
  2.20000000E+02  1.40000000E+02  0.00000000E+00
  2.20000000E+02  1.20000000E+02  0.00000000E+00
  2.20000000E+02  1.00000000E+02  0.00000000E+00
  2.20000000E+02  8.00000000E+01  0.00000000E+00
  2.20000000E+02  6.00000000E+01  0.00000000E+00
  2.20000000E+02  4.00000000E+01  0.00000000E+00
  2.20000000E+02  2.00000000E+01  0.00000000E+00
  2.20000000E+02  4.99600361E-14  0.00000000E+00
  2.40000000E+02  3.00000000E+02  0.00000000E+00
  2.40000000E+02  2.80000000E+02  0.00000000E+00
  2.40000000E+02  2.60000000E+02  0.00000000E+00
  2.40000000E+02  2.40000000E+02  0.00000000E+00
  2.40000000E+02  2.20000000E+02  0.00000000E+00
  2.40000000E+02  2.00000000E+02  0.00000000E+00
  2.40000000E+02  1.80000000E+02  0.00000000E+00
  2.40000000E+02  1.60000000E+02  0.00000000E+00
  2.40000000E+02  1.40000000E+02  0.00000000E+00
  2.40000000E+02  1.20000000E+02  0.00000000E+00
  2.40000000E+02  1.00000000E+02  0.00000000E+00
  2.40000000E+02  8.00000000E+01  0.00000000E+00
  2.40000000E+02  6.00000000E+01  0.00000000E+00
  2.40000000E+02  4.00000000E+01  0.00000000E+00
  2.40000000E+02  2.00000000E+01  0.00000000E+00
  2.40000000E+02  4.99600361E-14  0.00000000E+00
  2.60000000E+02  3.00000000E+02  0.00000000E+00
  2.60000000E+02  2.80000000E+02  0.00000000E+00
  2.60000000E+02  2.60000000E+02  0.00000000E+00
  2.60000000E+02  2.40000000E+02  0.00000000E+00
  2.60000000E+02  2.20000000E+02  0.00000000E+00
  2.60000000E+02  2.00000000E+02  0.00000000E+00
  2.60000000E+02  1.80000000E+02  0.00000000E+00
  2.60000000E+02  1.60000000E+02  0.00000000E+00
  2.60000000E+02  1.40000000E+02  0.00000000E+00
  2.60000000E+02  1.20000000E+02  0.00000000E+00
  2.60000000E+02  1.00000000E+02  0.00000000E+00
  2.60000000E+02  8.00000000E+01  0.00000000E+00
  2.60000000E+02  6.00000000E+01  0.00000000E+00
  2.60000000E+02  4.00000000E+01  0.00000000E+00
  2.60000000E+02  2.00000000E+01  0.00000000E+00
  2.60000000E+02  4.99600361E-14  0.00000000E+00
  2.80000000E+02  3.00000000E+02  0.00000000E+00
  2.80000000E+02  2.80000000E+02  0.00000000E+00
  2.80000000E+02  2.60000000E+02  0.00000000E+00
  2.80000000E+02  2.40000000E+02  0.00000000E+00
  2.80000000E+02  2.20000000E+02  0.00000000E+00
  2.80000000E+02  2.00000000E+02  0.00000000E+00
  2.80000000E+02  1.80000000E+02  0.00000000E+00
  2.80000000E+02  1.60000000E+02  0.00000000E+00
  2.80000000E+02  1.40000000E+02  0.00000000E+00
  2.80000000E+02  1.20000000E+02  0.00000000E+00
  2.80000000E+02  1.00000000E+02  0.00000000E+00
  2.80000000E+02  8.00000000E+01  0.00000000E+00
  2.80000000E+02  6.00000000E+01  0.00000000E+00
  2.80000000E+02  4.00000000E+01  0.00000000E+00
  2.80000000E+02  2.00000000E+01  0.00000000E+00
  2.80000000E+02  4.99600361E-14  0.00000000E+00
  3.00000000E+02  3.00000000E+02  0.00000000E+00
  3.00000000E+02  2.80000000E+02  0.00000000E+00
  3.00000000E+02  2.60000000E+02  0.00000000E+00
  3.00000000E+02  2.40000000E+02  0.00000000E+00
  3.00000000E+02  2.20000000E+02  0.00000000E+00
  3.00000000E+02  2.00000000E+02  0.00000000E+00
  3.00000000E+02  1.80000000E+02  0.00000000E+00
  3.00000000E+02  1.60000000E+02  0.00000000E+00
  3.00000000E+02  1.40000000E+02  0.00000000E+00
  3.00000000E+02  1.20000000E+02  0.00000000E+00
  3.00000000E+02  1.00000000E+02  0.00000000E+00
  3.00000000E+02  8.00000000E+01  0.00000000E+00
  3.00000000E+02  6.00000000E+01  0.00000000E+00
  3.00000000E+02  4.00000000E+01  0.00000000E+00
  3.00000000E+02  2.00000000E+01  0.00000000E+00
  3.00000000E+02  4.99600361E-14  0.00000000E+00
  3.20000000E+02  3.00000000E+02  0.00000000E+00
  3.20000000E+02  2.80000000E+02  0.00000000E+00
  3.20000000E+02  2.60000000E+02  0.00000000E+00
  3.20000000E+02  2.40000000E+02  0.00000000E+00
  3.20000000E+02  2.20000000E+02  0.00000000E+00
  3.20000000E+02  2.00000000E+02  0.00000000E+00
  3.20000000E+02  1.80000000E+02  0.00000000E+00
  3.20000000E+02  1.60000000E+02  0.00000000E+00
  3.20000000E+02  1.40000000E+02  0.00000000E+00
  3.20000000E+02  1.20000000E+02  0.00000000E+00
  3.20000000E+02  1.00000000E+02  0.00000000E+00
  3.20000000E+02  8.00000000E+01  0.00000000E+00
  3.20000000E+02  6.00000000E+01  0.00000000E+00
  3.20000000E+02  4.00000000E+01  0.00000000E+00
  3.20000000E+02  2.00000000E+01  0.00000000E+00
  3.20000000E+02  4.99600361E-14  0.00000000E+00
  3.40000000E+02  3.00000000E+02  0.00000000E+00
  3.40000000E+02  2.80000000E+02  0.00000000E+00
  3.40000000E+02  2.60000000E+02  0.00000000E+00
  3.40000000E+02  2.40000000E+02  0.00000000E+00
  3.40000000E+02  2.20000000E+02  0.00000000E+00
  3.40000000E+02  2.00000000E+02  0.00000000E+00
  3.40000000E+02  1.80000000E+02  0.00000000E+00
  3.40000000E+02  1.60000000E+02  0.00000000E+00
  3.40000000E+02  1.40000000E+02  0.00000000E+00
  3.40000000E+02  1.20000000E+02  0.00000000E+00
  3.40000000E+02  1.00000000E+02  0.00000000E+00
  3.40000000E+02  8.00000000E+01  0.00000000E+00
  3.40000000E+02  6.00000000E+01  0.00000000E+00
  3.40000000E+02  4.00000000E+01  0.00000000E+00
  3.40000000E+02  2.00000000E+01  0.00000000E+00
  3.40000000E+02  4.99600361E-14  0.00000000E+00
  3.60000000E+02  3.00000000E+02  0.00000000E+00
  3.60000000E+02  2.80000000E+02  0.00000000E+00
  3.60000000E+02  2.60000000E+02  0.00000000E+00
  3.60000000E+02  2.40000000E+02  0.00000000E+00
  3.60000000E+02  2.20000000E+02  0.00000000E+00
  3.60000000E+02  2.00000000E+02  0.00000000E+00
  3.60000000E+02  1.80000000E+02  0.00000000E+00
  3.60000000E+02  1.60000000E+02  0.00000000E+00
  3.60000000E+02  1.40000000E+02  0.00000000E+00
  3.60000000E+02  1.20000000E+02  0.00000000E+00
  3.60000000E+02  1.00000000E+02  0.00000000E+00
  3.60000000E+02  8.00000000E+01  0.00000000E+00
  3.60000000E+02  6.00000000E+01  0.00000000E+00
  3.60000000E+02  4.00000000E+01  0.00000000E+00
  3.60000000E+02  2.00000000E+01  0.00000000E+00
  3.60000000E+02  4.99600361E-14  0.00000000E+00
  3.80000000E+02  3.00000000E+02  0.00000000E+00
  3.80000000E+02  2.80000000E+02  0.00000000E+00
  3.80000000E+02  2.60000000E+02  0.00000000E+00
  3.80000000E+02  2.40000000E+02  0.00000000E+00
  3.80000000E+02  2.20000000E+02  0.00000000E+00
  3.80000000E+02  2.00000000E+02  0.00000000E+00
  3.80000000E+02  1.80000000E+02  0.00000000E+00
  3.80000000E+02  1.60000000E+02  0.00000000E+00
  3.80000000E+02  1.40000000E+02  0.00000000E+00
  3.80000000E+02  1.20000000E+02  0.00000000E+00
  3.80000000E+02  1.00000000E+02  0.00000000E+00
  3.80000000E+02  8.00000000E+01  0.00000000E+00
  3.80000000E+02  6.00000000E+01  0.00000000E+00
  3.80000000E+02  4.00000000E+01  0.00000000E+00
  3.80000000E+02  2.00000000E+01  0.00000000E+00
  3.80000000E+02  4.99600361E-14  0.00000000E+00
  4.00000000E+02  3.00000000E+02  0.00000000E+00
  4.00000000E+02  2.80000000E+02  0.00000000E+00
  4.00000000E+02  2.60000000E+02  0.00000000E+00
  4.00000000E+02  2.40000000E+02  0.00000000E+00
  4.00000000E+02  2.20000000E+02  0.00000000E+00
  4.00000000E+02  2.00000000E+02  0.00000000E+00
  4.00000000E+02  1.80000000E+02  0.00000000E+00
  4.00000000E+02  1.60000000E+02  0.00000000E+00
  4.00000000E+02  1.40000000E+02  0.00000000E+00
  4.00000000E+02  1.20000000E+02  0.00000000E+00
  4.00000000E+02  1.00000000E+02  0.00000000E+00
  4.00000000E+02  8.00000000E+01  0.00000000E+00
  4.00000000E+02  6.00000000E+01  0.00000000E+00
  4.00000000E+02  4.00000000E+01  0.00000000E+00
  4.00000000E+02  2.00000000E+01  0.00000000E+00
  4.00000000E+02  4.99600361E-14  0.00000000E+00
  4.20000000E+02  3.00000000E+02  0.00000000E+00
  4.20000000E+02  2.80000000E+02  0.00000000E+00
  4.20000000E+02  2.60000000E+02  0.00000000E+00
  4.20000000E+02  2.40000000E+02  0.00000000E+00
  4.20000000E+02  2.20000000E+02  0.00000000E+00
  4.20000000E+02  2.00000000E+02  0.00000000E+00
  4.20000000E+02  1.80000000E+02  0.00000000E+00
  4.20000000E+02  1.60000000E+02  0.00000000E+00
  4.20000000E+02  1.40000000E+02  0.00000000E+00
  4.20000000E+02  1.20000000E+02  0.00000000E+00
  4.20000000E+02  1.00000000E+02  0.00000000E+00
  4.20000000E+02  8.00000000E+01  0.00000000E+00
  4.20000000E+02  6.00000000E+01  0.00000000E+00
  4.20000000E+02  4.00000000E+01  0.00000000E+00
  4.20000000E+02  2.00000000E+01  0.00000000E+00
  4.20000000E+02  4.99600361E-14  0.00000000E+00
  4.40000000E+02  3.00000000E+02  0.00000000E+00
  4.40000000E+02  2.80000000E+02  0.00000000E+00
  4.40000000E+02  2.60000000E+02  0.00000000E+00
  4.40000000E+02  2.40000000E+02  0.00000000E+00
  4.40000000E+02  2.20000000E+02  0.00000000E+00
  4.40000000E+02  2.00000000E+02  0.00000000E+00
  4.40000000E+02  1.80000000E+02  0.00000000E+00
  4.40000000E+02  1.60000000E+02  0.00000000E+00
  4.40000000E+02  1.40000000E+02  0.00000000E+00
  4.40000000E+02  1.20000000E+02  0.00000000E+00
  4.40000000E+02  1.00000000E+02  0.00000000E+00
  4.40000000E+02  8.00000000E+01  0.00000000E+00
  4.40000000E+02  6.00000000E+01  0.00000000E+00
  4.40000000E+02  4.00000000E+01  0.00000000E+00
  4.40000000E+02  2.00000000E+01  0.00000000E+00
  4.40000000E+02  4.99600361E-14  0.00000000E+00
  4.60000000E+02  3.00000000E+02  0.00000000E+00
  4.60000000E+02  2.80000000E+02  0.00000000E+00
  4.60000000E+02  2.60000000E+02  0.00000000E+00
  4.60000000E+02  2.40000000E+02  0.00000000E+00
  4.60000000E+02  2.20000000E+02  0.00000000E+00
  4.60000000E+02  2.00000000E+02  0.00000000E+00
  4.60000000E+02  1.80000000E+02  0.00000000E+00
  4.60000000E+02  1.60000000E+02  0.00000000E+00
  4.60000000E+02  1.40000000E+02  0.00000000E+00
  4.60000000E+02  1.20000000E+02  0.00000000E+00
  4.60000000E+02  1.00000000E+02  0.00000000E+00
  4.60000000E+02  8.00000000E+01  0.00000000E+00
  4.60000000E+02  6.00000000E+01  0.00000000E+00
  4.60000000E+02  4.00000000E+01  0.00000000E+00
  4.60000000E+02  2.00000000E+01  0.00000000E+00
  4.60000000E+02  4.99600361E-14  0.00000000E+00
  4.80000000E+02  3.00000000E+02  0.00000000E+00
  4.80000000E+02  2.80000000E+02  0.00000000E+00
  4.80000000E+02  2.60000000E+02  0.00000000E+00
  4.80000000E+02  2.40000000E+02  0.00000000E+00
  4.80000000E+02  2.20000000E+02  0.00000000E+00
  4.80000000E+02  2.00000000E+02  0.00000000E+00
  4.80000000E+02  1.80000000E+02  0.00000000E+00
  4.80000000E+02  1.60000000E+02  0.00000000E+00
  4.80000000E+02  1.40000000E+02  0.00000000E+00
  4.80000000E+02  1.20000000E+02  0.00000000E+00
  4.80000000E+02  1.00000000E+02  0.00000000E+00
  4.80000000E+02  8.00000000E+01  0.00000000E+00
  4.80000000E+02  6.00000000E+01  0.00000000E+00
  4.80000000E+02  4.00000000E+01  0.00000000E+00
  4.80000000E+02  2.00000000E+01  0.00000000E+00
  4.80000000E+02  4.99600361E-14  0.00000000E+00
  5.00000000E+02  3.00000000E+02  0.00000000E+00
  5.00000000E+02  2.80000000E+02  0.00000000E+00
  5.00000000E+02  2.60000000E+02  0.00000000E+00
  5.00000000E+02  2.40000000E+02  0.00000000E+00
  5.00000000E+02  2.20000000E+02  0.00000000E+00
  5.00000000E+02  2.00000000E+02  0.00000000E+00
  5.00000000E+02  1.80000000E+02  0.00000000E+00
  5.00000000E+02  1.60000000E+02  0.00000000E+00
  5.00000000E+02  1.40000000E+02  0.00000000E+00
  5.00000000E+02  1.20000000E+02  0.00000000E+00
  5.00000000E+02  1.00000000E+02  0.00000000E+00
  5.00000000E+02  8.00000000E+01  0.00000000E+00
  5.00000000E+02  6.00000000E+01  0.00000000E+00
  5.00000000E+02  4.00000000E+01  0.00000000E+00
  5.00000000E+02  2.00000000E+01  0.00000000E+00
  5.00000000E+02  4.99600361E-14  0.00000000E+00
  5.20000000E+02  3.00000000E+02  0.00000000E+00
  5.20000000E+02  2.80000000E+02  0.00000000E+00
  5.20000000E+02  2.60000000E+02  0.00000000E+00
  5.20000000E+02  2.40000000E+02  0.00000000E+00
  5.20000000E+02  2.20000000E+02  0.00000000E+00
  5.20000000E+02  2.00000000E+02  0.00000000E+00
  5.20000000E+02  1.80000000E+02  0.00000000E+00
  5.20000000E+02  1.60000000E+02  0.00000000E+00
  5.20000000E+02  1.40000000E+02  0.00000000E+00
  5.20000000E+02  1.20000000E+02  0.00000000E+00
  5.20000000E+02  1.00000000E+02  0.00000000E+00
  5.20000000E+02  8.00000000E+01  0.00000000E+00
  5.20000000E+02  6.00000000E+01  0.00000000E+00
  5.20000000E+02  4.00000000E+01  0.00000000E+00
  5.20000000E+02  2.00000000E+01  0.00000000E+00
  5.20000000E+02  4.99600361E-14  0.00000000E+00
  5.40000000E+02  3.00000000E+02  0.00000000E+00
  5.40000000E+02  2.80000000E+02  0.00000000E+00
  5.40000000E+02  2.60000000E+02  0.00000000E+00
  5.40000000E+02  2.40000000E+02  0.00000000E+00
  5.40000000E+02  2.20000000E+02  0.00000000E+00
  5.40000000E+02  2.00000000E+02  0.00000000E+00
  5.40000000E+02  1.80000000E+02  0.00000000E+00
  5.40000000E+02  1.60000000E+02  0.00000000E+00
  5.40000000E+02  1.40000000E+02  0.00000000E+00
  5.40000000E+02  1.20000000E+02  0.00000000E+00
  5.40000000E+02  1.00000000E+02  0.00000000E+00
  5.40000000E+02  8.00000000E+01  0.00000000E+00
  5.40000000E+02  6.00000000E+01  0.00000000E+00
  5.40000000E+02  4.00000000E+01  0.00000000E+00
  5.40000000E+02  2.00000000E+01  0.00000000E+00
  5.40000000E+02  4.99600361E-14  0.00000000E+00
  5.60000000E+02  3.00000000E+02  0.00000000E+00
  5.60000000E+02  2.80000000E+02  0.00000000E+00
  5.60000000E+02  2.60000000E+02  0.00000000E+00
  5.60000000E+02  2.40000000E+02  0.00000000E+00
  5.60000000E+02  2.20000000E+02  0.00000000E+00
  5.60000000E+02  2.00000000E+02  0.00000000E+00
  5.60000000E+02  1.80000000E+02  0.00000000E+00
  5.60000000E+02  1.60000000E+02  0.00000000E+00
  5.60000000E+02  1.40000000E+02  0.00000000E+00
  5.60000000E+02  1.20000000E+02  0.00000000E+00
  5.60000000E+02  1.00000000E+02  0.00000000E+00
  5.60000000E+02  8.00000000E+01  0.00000000E+00
  5.60000000E+02  6.00000000E+01  0.00000000E+00
  5.60000000E+02  4.00000000E+01  0.00000000E+00
  5.60000000E+02  2.00000000E+01  0.00000000E+00
  5.60000000E+02  4.99600361E-14  0.00000000E+00
  5.80000000E+02  3.00000000E+02  0.00000000E+00
  5.80000000E+02  2.80000000E+02  0.00000000E+00
  5.80000000E+02  2.60000000E+02  0.00000000E+00
  5.80000000E+02  2.40000000E+02  0.00000000E+00
  5.80000000E+02  2.20000000E+02  0.00000000E+00
  5.80000000E+02  2.00000000E+02  0.00000000E+00
  5.80000000E+02  1.80000000E+02  0.00000000E+00
  5.80000000E+02  1.60000000E+02  0.00000000E+00
  5.80000000E+02  1.40000000E+02  0.00000000E+00
  5.80000000E+02  1.20000000E+02  0.00000000E+00
  5.80000000E+02  1.00000000E+02  0.00000000E+00
  5.80000000E+02  8.00000000E+01  0.00000000E+00
  5.80000000E+02  6.00000000E+01  0.00000000E+00
  5.80000000E+02  4.00000000E+01  0.00000000E+00
  5.80000000E+02  2.00000000E+01  0.00000000E+00
  5.80000000E+02  4.99600361E-14  0.00000000E+00
  6.00000000E+02  3.00000000E+02  0.00000000E+00
  6.00000000E+02  2.80000000E+02  0.00000000E+00
  6.00000000E+02  2.60000000E+02  0.00000000E+00
  6.00000000E+02  2.40000000E+02  0.00000000E+00
  6.00000000E+02  2.20000000E+02  0.00000000E+00
  6.00000000E+02  2.00000000E+02  0.00000000E+00
  6.00000000E+02  1.80000000E+02  0.00000000E+00
  6.00000000E+02  1.60000000E+02  0.00000000E+00
  6.00000000E+02  1.40000000E+02  0.00000000E+00
  6.00000000E+02  1.20000000E+02  0.00000000E+00
  6.00000000E+02  1.00000000E+02  0.00000000E+00
  6.00000000E+02  8.00000000E+01  0.00000000E+00
  6.00000000E+02  6.00000000E+01  0.00000000E+00
  6.00000000E+02  4.00000000E+01  0.00000000E+00
  6.00000000E+02  2.00000000E+01  0.00000000E+00
  6.00000000E+02  4.99600361E-14  0.00000000E+00
CELLS       450      2250
         4           0           1          17          16
         4           1           2          18          17
         4           2           3          19          18
         4           3           4          20          19
         4           4           5          21          20
         4           5           6          22          21
         4           6           7          23          22
         4           7           8          24          23
         4           8           9          25          24
         4           9          10          26          25
         4          10          11          27          26
         4          11          12          28          27
         4          12          13          29          28
         4          13          14          30          29
         4          14          15          31          30
         4          16          17          33          32
         4          17          18          34          33
         4          18          19          35          34
         4          19          20          36          35
         4          20          21          37          36
         4          21          22          38          37
         4          22          23          39          38
         4          23          24          40          39
         4          24          25          41          40
         4          25          26          42          41
         4          26          27          43          42
         4          27          28          44          43
         4          28          29          45          44
         4          29          30          46          45
         4          30          31          47          46
         4          32          33          49          48
         4          33          34          50          49
         4          34          35          51          50
         4          35          36          52          51
         4          36          37          53          52
         4          37          38          54          53
         4          38          39          55          54
         4          39          40          56          55
         4          40          41          57          56
         4          41          42          58          57
         4          42          43          59          58
         4          43          44          60          59
         4          44          45          61          60
         4          45          46          62          61
         4          46          47          63          62
         4          48          49          65          64
         4          49          50          66          65
         4          50          51          67          66
         4          51          52          68          67
         4          52          53          69          68
         4          53          54          70          69
         4          54          55          71          70
         4          55          56          72          71
         4          56          57          73          72
         4          57          58          74          73
         4          58          59          75          74
         4          59          60          76          75
         4          60          61          77          76
         4          61          62          78          77
         4          62          63          79          78
         4          64          65          81          80
         4          65          66          82          81
         4          66          67          83          82
         4          67          68          84          83
         4          68          69          85          84
         4          69          70          86          85
         4          70          71          87          86
         4          71          72          88          87
         4          72          73          89          88
         4          73          74          90          89
         4          74          75          91          90
         4          75          76          92          91
         4          76          77          93          92
         4          77          78          94          93
         4          78          79          95          94
         4          80          81          97          96
         4          81          82          98          97
         4          82          83          99          98
         4          83          84         100          99
         4          84          85         101         100
         4          85          86         102         101
         4          86          87         103         102
         4          87          88         104         103
         4          88          89         105         104
         4          89          90         106         105
         4          90          91         107         106
         4          91          92         108         107
         4          92          93         109         108
         4          93          94         110         109
         4          94          95         111         110
         4          96          97         113         112
         4          97          98         114         113
         4          98          99         115         114
         4          99         100         116         115
         4         100         101         117         116
         4         101         102         118         117
         4         102         103         119         118
         4         103         104         120         119
         4         104         105         121         120
         4         105         106         122         121
         4         106         107         123         122
         4         107         108         124         123
         4         108         109         125         124
         4         109         110         126         125
         4         110         111         127         126
         4         112         113         129         128
         4         113         114         130         129
         4         114         115         131         130
         4         115         116         132         131
         4         116         117         133         132
         4         117         118         134         133
         4         118         119         135         134
         4         119         120         136         135
         4         120         121         137         136
         4         121         122         138         137
         4         122         123         139         138
         4         123         124         140         139
         4         124         125         141         140
         4         125         126         142         141
         4         126         127         143         142
         4         128         129         145         144
         4         129         130         146         145
         4         130         131         147         146
         4         131         132         148         147
         4         132         133         149         148
         4         133         134         150         149
         4         134         135         151         150
         4         135         136         152         151
         4         136         137         153         152
         4         137         138         154         153
         4         138         139         155         154
         4         139         140         156         155
         4         140         141         157         156
         4         141         142         158         157
         4         142         143         159         158
         4         144         145         161         160
         4         145         146         162         161
         4         146         147         163         162
         4         147         148         164         163
         4         148         149         165         164
         4         149         150         166         165
         4         150         151         167         166
         4         151         152         168         167
         4         152         153         169         168
         4         153         154         170         169
         4         154         155         171         170
         4         155         156         172         171
         4         156         157         173         172
         4         157         158         174         173
         4         158         159         175         174
         4         160         161         177         176
         4         161         162         178         177
         4         162         163         179         178
         4         163         164         180         179
         4         164         165         181         180
         4         165         166         182         181
         4         166         167         183         182
         4         167         168         184         183
         4         168         169         185         184
         4         169         170         186         185
         4         170         171         187         186
         4         171         172         188         187
         4         172         173         189         188
         4         173         174         190         189
         4         174         175         191         190
         4         176         177         193         192
         4         177         178         194         193
         4         178         179         195         194
         4         179         180         196         195
         4         180         181         197         196
         4         181         182         198         197
         4         182         183         199         198
         4         183         184         200         199
         4         184         185         201         200
         4         185         186         202         201
         4         186         187         203         202
         4         187         188         204         203
         4         188         189         205         204
         4         189         190         206         205
         4         190         191         207         206
         4         192         193         209         208
         4         193         194         210         209
         4         194         195         211         210
         4         195         196         212         211
         4         196         197         213         212
         4         197         198         214         213
         4         198         199         215         214
         4         199         200         216         215
         4         200         201         217         216
         4         201         202         218         217
         4         202         203         219         218
         4         203         204         220         219
         4         204         205         221         220
         4         205         206         222         221
         4         206         207         223         222
         4         208         209         225         224
         4         209         210         226         225
         4         210         211         227         226
         4         211         212         228         227
         4         212         213         229         228
         4         213         214         230         229
         4         214         215         231         230
         4         215         216         232         231
         4         216         217         233         232
         4         217         218         234         233
         4         218         219         235         234
         4         219         220         236         235
         4         220         221         237         236
         4         221         222         238         237
         4         222         223         239         238
         4         224         225         241         240
         4         225         226         242         241
         4         226         227         243         242
         4         227         228         244         243
         4         228         229         245         244
         4         229         230         246         245
         4         230         231         247         246
         4         231         232         248         247
         4         232         233         249         248
         4         233         234         250         249
         4         234         235         251         250
         4         235         236         252         251
         4         236         237         253         252
         4         237         238         254         253
         4         238         239         255         254
         4         240         241         257         256
         4         241         242         258         257
         4         242         243         259         258
         4         243         244         260         259
         4         244         245         261         260
         4         245         246         262         261
         4         246         247         263         262
         4         247         248         264         263
         4         248         249         265         264
         4         249         250         266         265
         4         250         251         267         266
         4         251         252         268         267
         4         252         253         269         268
         4         253         254         270         269
         4         254         255         271         270
         4         256         257         273         272
         4         257         258         274         273
         4         258         259         275         274
         4         259         260         276         275
         4         260         261         277         276
         4         261         262         278         277
         4         262         263         279         278
         4         263         264         280         279
         4         264         265         281         280
         4         265         266         282         281
         4         266         267         283         282
         4         267         268         284         283
         4         268         269         285         284
         4         269         270         286         285
         4         270         271         287         286
         4         272         273         289         288
         4         273         274         290         289
         4         274         275         291         290
         4         275         276         292         291
         4         276         277         293         292
         4         277         278         294         293
         4         278         279         295         294
         4         279         280         296         295
         4         280         281         297         296
         4         281         282         298         297
         4         282         283         299         298
         4         283         284         300         299
         4         284         285         301         300
         4         285         286         302         301
         4         286         287         303         302
         4         288         289         305         304
         4         289         290         306         305
         4         290         291         307         306
         4         291         292         308         307
         4         292         293         309         308
         4         293         294         310         309
         4         294         295         311         310
         4         295         296         312         311
         4         296         297         313         312
         4         297         298         314         313
         4         298         299         315         314
         4         299         300         316         315
         4         300         301         317         316
         4         301         302         318         317
         4         302         303         319         318
         4         304         305         321         320
         4         305         306         322         321
         4         306         307         323         322
         4         307         308         324         323
         4         308         309         325         324
         4         309         310         326         325
         4         310         311         327         326
         4         311         312         328         327
         4         312         313         329         328
         4         313         314         330         329
         4         314         315         331         330
         4         315         316         332         331
         4         316         317         333         332
         4         317         318         334         333
         4         318         319         335         334
         4         320         321         337         336
         4         321         322         338         337
         4         322         323         339         338
         4         323         324         340         339
         4         324         325         341         340
         4         325         326         342         341
         4         326         327         343         342
         4         327         328         344         343
         4         328         329         345         344
         4         329         330         346         345
         4         330         331         347         346
         4         331         332         348         347
         4         332         333         349         348
         4         333         334         350         349
         4         334         335         351         350
         4         336         337         353         352
         4         337         338         354         353
         4         338         339         355         354
         4         339         340         356         355
         4         340         341         357         356
         4         341         342         358         357
         4         342         343         359         358
         4         343         344         360         359
         4         344         345         361         360
         4         345         346         362         361
         4         346         347         363         362
         4         347         348         364         363
         4         348         349         365         364
         4         349         350         366         365
         4         350         351         367         366
         4         352         353         369         368
         4         353         354         370         369
         4         354         355         371         370
         4         355         356         372         371
         4         356         357         373         372
         4         357         358         374         373
         4         358         359         375         374
         4         359         360         376         375
         4         360         361         377         376
         4         361         362         378         377
         4         362         363         379         378
         4         363         364         380         379
         4         364         365         381         380
         4         365         366         382         381
         4         366         367         383         382
         4         368         369         385         384
         4         369         370         386         385
         4         370         371         387         386
         4         371         372         388         387
         4         372         373         389         388
         4         373         374         390         389
         4         374         375         391         390
         4         375         376         392         391
         4         376         377         393         392
         4         377         378         394         393
         4         378         379         395         394
         4         379         380         396         395
         4         380         381         397         396
         4         381         382         398         397
         4         382         383         399         398
         4         384         385         401         400
         4         385         386         402         401
         4         386         387         403         402
         4         387         388         404         403
         4         388         389         405         404
         4         389         390         406         405
         4         390         391         407         406
         4         391         392         408         407
         4         392         393         409         408
         4         393         394         410         409
         4         394         395         411         410
         4         395         396         412         411
         4         396         397         413         412
         4         397         398         414         413
         4         398         399         415         414
         4         400         401         417         416
         4         401         402         418         417
         4         402         403         419         418
         4         403         404         420         419
         4         404         405         421         420
         4         405         406         422         421
         4         406         407         423         422
         4         407         408         424         423
         4         408         409         425         424
         4         409         410         426         425
         4         410         411         427         426
         4         411         412         428         427
         4         412         413         429         428
         4         413         414         430         429
         4         414         415         431         430
         4         416         417         433         432
         4         417         418         434         433
         4         418         419         435         434
         4         419         420         436         435
         4         420         421         437         436
         4         421         422         438         437
         4         422         423         439         438
         4         423         424         440         439
         4         424         425         441         440
         4         425         426         442         441
         4         426         427         443         442
         4         427         428         444         443
         4         428         429         445         444
         4         429         430         446         445
         4         430         431         447         446
         4         432         433         449         448
         4         433         434         450         449
         4         434         435         451         450
         4         435         436         452         451
         4         436         437         453         452
         4         437         438         454         453
         4         438         439         455         454
         4         439         440         456         455
         4         440         441         457         456
         4         441         442         458         457
         4         442         443         459         458
         4         443         444         460         459
         4         444         445         461         460
         4         445         446         462         461
         4         446         447         463         462
         4         448         449         465         464
         4         449         450         466         465
         4         450         451         467         466
         4         451         452         468         467
         4         452         453         469         468
         4         453         454         470         469
         4         454         455         471         470
         4         455         456         472         471
         4         456         457         473         472
         4         457         458         474         473
         4         458         459         475         474
         4         459         460         476         475
         4         460         461         477         476
         4         461         462         478         477
         4         462         463         479         478
         4         464         465         481         480
         4         465         466         482         481
         4         466         467         483         482
         4         467         468         484         483
         4         468         469         485         484
         4         469         470         486         485
         4         470         471         487         486
         4         471         472         488         487
         4         472         473         489         488
         4         473         474         490         489
         4         474         475         491         490
         4         475         476         492         491
         4         476         477         493         492
         4         477         478         494         493
         4         478         479         495         494
CELL_TYPES        450
9
9
9
9
9
9
9
9
9
9
9
9
9
9
9
9
9
9
9
9
9
9
9
9
9
9
9
9
9
9
9
9
9
9
9
9
9
9
9
9
9
9
9
9
9
9
9
9
9
9
9
9
9
9
9
9
9
9
9
9
9
9
9
9
9
9
9
9
9
9
9
9
9
9
9
9
9
9
9
9
9
9
9
9
9
9
9
9
9
9
9
9
9
9
9
9
9
9
9
9
9
9
9
9
9
9
9
9
9
9
9
9
9
9
9
9
9
9
9
9
9
9
9
9
9
9
9
9
9
9
9
9
9
9
9
9
9
9
9
9
9
9
9
9
9
9
9
9
9
9
9
9
9
9
9
9
9
9
9
9
9
9
9
9
9
9
9
9
9
9
9
9
9
9
9
9
9
9
9
9
9
9
9
9
9
9
9
9
9
9
9
9
9
9
9
9
9
9
9
9
9
9
9
9
9
9
9
9
9
9
9
9
9
9
9
9
9
9
9
9
9
9
9
9
9
9
9
9
9
9
9
9
9
9
9
9
9
9
9
9
9
9
9
9
9
9
9
9
9
9
9
9
9
9
9
9
9
9
9
9
9
9
9
9
9
9
9
9
9
9
9
9
9
9
9
9
9
9
9
9
9
9
9
9
9
9
9
9
9
9
9
9
9
9
9
9
9
9
9
9
9
9
9
9
9
9
9
9
9
9
9
9
9
9
9
9
9
9
9
9
9
9
9
9
9
9
9
9
9
9
9
9
9
9
9
9
9
9
9
9
9
9
9
9
9
9
9
9
9
9
9
9
9
9
9
9
9
9
9
9
9
9
9
9
9
9
9
9
9
9
9
9
9
9
9
9
9
9
9
9
9
9
9
9
9
9
9
9
9
9
9
9
9
9
9
9
9
9
9
9
9
9
9
9
9
9
9
9
9
9
9
9
9
9
9
9
9
9
9
9
9
9
9
9
9
9
9
9
9
9
9
9
9
9
9
9
9
9
9
9
9
9
9
9
9
9
9
9
9
9
POINT_DATA       496
SCALARS p double 
LOOKUP_TABLE default
   60000000.0000000     
   60000000.0000000     
   60000000.0000000     
   60000000.0000000     
   60000000.0000000     
   60000000.0000000     
   60000000.0000000     
   60000000.0000000     
   60000000.0000000     
   60000000.0000000     
   60000000.0000000     
   60000000.0000000     
   60000000.0000000     
   60000000.0000000     
   60000000.0000000     
   60000000.0000000     
   59622764.8402691     
   59626541.1337791     
   59635159.4048143     
   59646595.7600862     
   59659712.2387319     
   59673742.7585484     
   59688126.8235748     
   59702430.6594748     
   59716302.1072356     
   59729440.6687649     
   59741574.6703643     
   59752440.9329335     
   59761762.7934409     
   59769219.6962167     
   59774390.9898498     
   59776610.4350844     
   59279386.9063089     
   59285081.6769396     
   59299232.7748398     
   59318831.1849754     
   59341845.6440926     
   59366828.5395917     
   59392689.3839062     
   59418569.0988667     
   59443761.8308583     
   59467660.6622866     
   59489715.2350932     
   59509393.8298700     
   59526143.2170543     
   59539336.7341010     
   59548192.8577633     
   59551610.4601053     
   58960842.7233901     
   58967791.7440934     
   58985634.8012798     
   59010985.9932932     
   59041276.1897267     
   59074546.8946280     
   59109267.1421170     
   59144203.0193472     
   59178325.6753265     
   59210742.7679484     
   59240643.0265569     
   59267246.5543149     
   59289754.4981618     
   59307291.5193738     
   59318833.0149794     
   59323139.8039300     
   58658964.8410770     
   58666736.2794315     
   58687047.6172442     
   58716351.7439398     
   58751788.0136004     
   58791061.4171755     
   58832313.8235660     
   58874011.9318657     
   58914857.1713957     
   58953713.0311000     
   58989543.8948617     
   59021360.1549413     
   59048165.4134805     
   59068903.0495250     
   59082405.8769756     
   59087362.5581907     
   58365323.4197204     
   58373594.5910745     
   58395441.3657408     
   58427270.5842691     
   58466080.3022097     
   58509379.0150483     
   58555092.0611393     
   58601470.8988201     
   58647012.5403815     
   58690389.9564578     
   58730391.2840935     
   58765865.1270731     
   58795669.9395419     
   58818627.6259780     
   58833485.1788993     
   58838892.2313859     
   58070814.2856964     
   58079314.4832868     
   58101916.6313158     
   58135061.0251140     
   58175710.0971062     
   58221285.0180622     
   58269592.7205132     
   58318752.0514565     
   58367124.5092703     
   58413251.5454801     
   58455798.2028800     
   58493502.0911707     
   58525127.1113224     
   58549422.6710387     
   58565090.9893313     
   58570766.3277810     
   57765368.1178309     
   57773851.1339659     
   57796507.5168989     
   57829881.7388514     
   57870986.8735556     
   57917247.4238200     
   57966437.9504543     
   58016621.6227664     
   58066091.6934976     
   58113317.3324377     
   58156894.0385359     
   58195498.3378319     
   58227846.6528736     
   58252658.8996284     
   58268628.1303960     
   58274397.8131216     
   57437713.6876029     
   57445941.9391967     
   57467987.2672444     
   57500572.0836918     
   57540840.2379319     
   57586300.6503504     
   57634772.7236974     
   57684334.4282474     
   57733273.7890657     
   57780044.0301678     
   57823222.1958249     
   57861470.8906926     
   57893502.8947766     
   57918048.7009295     
   57933827.2660975     
   57939520.2040704     
   57075168.1952426     
   57082903.2334727     
   57103682.4276171     
   57134489.0342542     
   57172678.6664505     
   57215921.7042794     
   57262153.6487748     
   57309531.7211821     
   57356396.3737641     
   57401236.5851298     
   57442657.9434801     
   57479352.6556481     
   57510070.7770300     
   57533592.0873258     
   57548698.0475900     
   57554143.0907022     
   56663449.4351743     
   56670446.9243167     
   56689301.8573882     
   56717353.5305512     
   56752254.6328581     
   56791912.9183242     
   56834447.0033165     
   56878152.2103503     
   56921473.1852808     
   56962980.7379694     
   57001350.9345051     
   57035344.8879300     
   57063787.9483463     
   57085547.0705543     
   57099505.0308280     
   57104529.8999851     
   56186516.0534330     
   56192524.6667664     
   56208791.5789599     
   56233120.6426982     
   56263552.3464176     
   56298307.5271227     
   56335751.1845420     
   56374369.9476755     
   56412758.0452350     
   56449607.8478056     
   56483702.0385299     
   56513905.1591764     
   56539152.6467364     
   56558435.5342486     
   56570778.7838735     
   56575210.8366264     
   55626450.8402653     
   55631215.0857549     
   55644232.4194601     
   55663892.0888723     
   55688717.6060665     
   55717317.6437521     
   55748362.4349392     
   55780576.8031182     
   55812742.8662122     
   55843707.2186866     
   55872388.8096037     
   55897784.6952253     
   55918971.3226412     
   55935099.0269536     
   55945377.0820521     
   55949046.0637617     
   54963409.3795146     
   54966676.5824329     
   54975803.5119811     
   54989894.7114178     
   55008053.5850543     
   55029348.1511684     
   55052806.5720094     
   55077431.1438443     
   55102222.1184129     
   55126205.1218711     
   55148457.8133216     
   55168132.6599373     
   55184473.2713166     
   55196821.6840364     
   55204613.4356448     
   55207356.3840993     
   54175662.8035676     
   54177194.4864111     
   54181840.4065576     
   54189553.5052010     
   54200110.7113694     
   54213103.9036265     
   54227963.0291646     
   54243997.7188972     
   54260447.3698013     
   54276532.7965172     
   54291504.9359277     
   54304687.5938040     
   54315511.8362424     
   54323539.4295645     
   54328471.8741370     
   54330140.2686414     
   53239768.6307555     
   53239356.3908098     
   53239021.2050940     
   53239691.9001919     
   53241902.3408241     
   53245820.6566428     
   53251310.1307504     
   53258006.0476108     
   53265397.5482240     
   53272907.5041747     
   53279966.3392605     
   53286077.4799248     
   53290872.7149654     
   53294155.3065191     
   53295927.4127718     
   53296396.5096385     
   52130907.0460146     
   52128392.7434304     
   52122716.9907595     
   52115894.3423750     
   52109279.7107755     
   52103651.4212879     
   52099321.3631511     
   52096255.0913865     
   52094190.7607716     
   52092750.6405417     
   52091542.4054387     
   52090249.3391980     
   52088709.0793176     
   52086979.7409217     
   52085390.4216675     
   52084570.5039808     
   50823420.5314650     
   50818720.1551548     
   50807542.8241223     
   50793065.7159524     
   50777498.6354411     
   50762238.4312441     
   50748040.4992156     
   50735189.7760511     
   50723661.0586245     
   50713264.2707788     
   50703774.2040332     
   50695046.2693631     
   50687120.0542518     
   50680311.2069748     
   50675289.6456078     
   50673138.6417130     
   49291591.1529744     
   49284721.1164477     
   49268141.4181009     
   49246217.5125617     
   49222005.3030402     
   49197495.4286172     
   49173857.6839816     
   49151669.0299025     
   49131117.5671341     
   49112181.4652430     
   49094786.0093205     
   49078943.7990682     
   49064882.9856647     
   49053166.5530250     
   49044802.3240768     
   49041338.9269603     
   47510680.5187276     
   47501784.3536109     
   47480221.7831735     
   47451500.4327660     
   47419457.9862234     
   47386614.2390884     
   47354497.8357059     
   47323934.3808073     
   47295293.0116127     
   47268695.6904526     
   47244197.5146491     
   47221947.7225325     
   47202340.3154829     
   47186160.6568741     
   47174730.2445797     
   47170046.3131635     
   45458240.8431088     
   45447613.3301772     
   45421858.1339250     
   45387485.8622310     
   45348984.1427292     
   45309292.4070086     
   45270215.8937531     
   45232771.9090636     
   45197473.1077108     
   45164559.6389165     
   45134195.1259583     
   45106641.7819599     
   45082428.3954000     
   45062521.7649291     
   45048507.3156887     
   45042777.9916011     
   43115680.3276823     
   43103785.0967451     
   43075028.9338310     
   43036673.2562142     
   42993647.2324714     
   42949154.1119535     
   42905169.8436738     
   42862837.9543265     
   42822777.1948221     
   42785324.0451208     
   42750732.9531654     
   42719355.6235606     
   42691818.1936759     
   42669211.8386459     
   42653307.3941718     
   42646797.0693091     
   40470031.6298141     
   40457507.2763425     
   40427341.6481715     
   40387166.4690780     
   40342064.2790394     
   40295304.5102076     
   40248912.0851867     
   40204090.6386987     
   40161534.2548046     
   40121662.7410904     
   40084811.4391268     
   40051401.9765158     
   40022117.1764351     
   39998101.0524851     
   39981201.2026456     
   39974263.2776324     
   37515829.4496645     
   37503478.3868550     
   37473846.4809338     
   37434420.3127408     
   37390074.6086499     
   37343919.0442013     
   37297903.8104770     
   37253236.4195122     
   37210668.6292017     
   37170703.0768746     
   37133756.6171579     
   37100308.6040078     
   37071059.1889293     
   37047123.6518135     
   37030289.5451768     
   37023357.8735981     
   34256955.6278983     
   34245709.2848416     
   34218795.0759737     
   34182911.7082509     
   34142314.8091938     
   34099726.8813953     
   34056918.6697674     
   34015066.7131638     
   33974979.5091325     
   33937253.9925145     
   33902398.8568306     
   33870948.2564113     
   33843587.7248565     
   33821321.1826811     
   33805718.9329575     
   33799288.9467536     
   30708264.6980790     
   30699117.9993297     
   30677153.3718851     
   30647542.1308500     
   30613509.1695204     
   30577206.5467588     
   30540166.6769911     
   30503529.6660457     
   30468172.7694637     
   30434802.3148308     
   30404031.3779310     
   30376453.4162682     
   30352722.0815815     
   30333662.5581515     
   30320468.4466667     
   30315066.0697395     
   26896771.8725933     
   26890677.5943419     
   26875638.7097074     
   26854534.6473043     
   26829244.8270174     
   26801280.1967845     
   26771946.0050552     
   26742364.6481424     
   26713490.1020877     
   26686137.3520758     
   26661021.9503518     
   26638798.7189297     
   26620092.6722469     
   26605524.1831983     
   26595787.3631324     
   26591923.0299913     
   22862189.0204370     
   22859892.3941864     
   22853023.1986618     
   22841550.9703536     
   22825974.5607265     
   22807284.2924097     
   22786632.0725019     
   22765132.9937677     
   22743786.9030141     
   22723470.9571839     
   22704960.8690883     
   22688951.5334161     
   22676051.2693375     
   22666727.8086054     
   22661164.4438049     
   22659268.1001169     
   18656675.7879943     
   18658412.1316710     
   18659408.0781361     
   18656708.2341658     
   18649996.7885181     
   18640029.6145944     
   18627858.0885227     
   18614519.6822752     
   18600944.3957265     
   18587948.3566758     
   18576257.1872917     
   18566526.9689477     
   18559333.4951556     
   18555078.3465861     
   18553737.1706606     
   18554029.3409238     
   14343889.8320417     
   14348696.7972331     
   14353932.6109654     
   14356151.2126129     
   14355244.4237558     
   14351880.1857454     
   14346845.0992881     
   14340864.4006385     
   14334566.1309837     
   14328493.7794709     
   14323132.7499067     
   14318934.0474171     
   14316319.1311709     
   14315633.6069564     
   14316939.7440494     
   14319374.9155071     
   10000000.0000000     
   10000000.0000000     
   10000000.0000000     
   10000000.0000000     
   10000000.0000000     
   10000000.0000000     
   10000000.0000000     
   10000000.0000000     
   10000000.0000000     
   10000000.0000000     
   10000000.0000000     
   10000000.0000000     
   10000000.0000000     
  10000000.00000000     
   10000000.0000000     
   10000000.0000000     
VECTORS u double 
    0.00000E+00        -0.15328E-02         0.00000E+00
    0.00000E+00        -0.12612E-02         0.00000E+00
    0.00000E+00        -0.10041E-02         0.00000E+00
    0.00000E+00        -0.76399E-03         0.00000E+00
    0.00000E+00        -0.54419E-03         0.00000E+00
    0.00000E+00        -0.34744E-03         0.00000E+00
    0.00000E+00        -0.17588E-03         0.00000E+00
    0.00000E+00        -0.31148E-04         0.00000E+00
    0.00000E+00         0.85378E-04         0.00000E+00
    0.00000E+00         0.17251E-03         0.00000E+00
    0.00000E+00         0.22910E-03         0.00000E+00
    0.00000E+00         0.25399E-03         0.00000E+00
    0.00000E+00         0.24587E-03         0.00000E+00
    0.00000E+00         0.20311E-03         0.00000E+00
    0.00000E+00         0.12325E-03         0.00000E+00
    0.00000E+00         0.00000E+00         0.00000E+00
    0.10985E-02        -0.15978E-02         0.00000E+00
    0.10030E-02        -0.13105E-02         0.00000E+00
    0.92354E-03        -0.10449E-02         0.00000E+00
    0.84749E-03        -0.79928E-03         0.00000E+00
    0.77273E-03        -0.57539E-03         0.00000E+00
    0.69884E-03        -0.37530E-03         0.00000E+00
    0.62588E-03        -0.20079E-03         0.00000E+00
    0.55402E-03        -0.53328E-04         0.00000E+00
    0.48340E-03         0.65827E-04         0.00000E+00
    0.41407E-03         0.15554E-03         0.00000E+00
    0.34598E-03         0.21469E-03         0.00000E+00
    0.27896E-03         0.24213E-03         0.00000E+00
    0.21267E-03         0.23652E-03         0.00000E+00
    0.14628E-03         0.19623E-03         0.00000E+00
    0.77896E-04         0.11878E-03         0.00000E+00
    0.00000E+00         0.00000E+00         0.00000E+00
    0.21629E-02        -0.17538E-02         0.00000E+00
    0.19853E-02        -0.14471E-02         0.00000E+00
    0.18260E-02        -0.11635E-02         0.00000E+00
    0.16736E-02        -0.90399E-03         0.00000E+00
    0.15241E-02        -0.66899E-03         0.00000E+00
    0.13767E-02        -0.45941E-03         0.00000E+00
    0.12314E-02        -0.27633E-03         0.00000E+00
    0.10885E-02        -0.12078E-03         0.00000E+00
    0.94818E-03         0.62416E-05         0.00000E+00
    0.81043E-03         0.10376E-03         0.00000E+00
    0.67515E-03         0.17073E-03         0.00000E+00
    0.54201E-03         0.20599E-03         0.00000E+00
    0.41030E-03         0.20823E-03         0.00000E+00
    0.27866E-03         0.17584E-03         0.00000E+00
    0.14398E-03         0.10686E-03         0.00000E+00
    0.00000E+00         0.00000E+00         0.00000E+00
    0.31990E-02        -0.19808E-02         0.00000E+00
    0.29490E-02        -0.16549E-02         0.00000E+00
    0.27125E-02        -0.13518E-02         0.00000E+00
    0.24835E-02        -0.10744E-02         0.00000E+00
    0.22589E-02        -0.82344E-03         0.00000E+00
    0.20379E-02        -0.59944E-03         0.00000E+00
    0.18205E-02        -0.40284E-03         0.00000E+00
    0.16071E-02        -0.23419E-03         0.00000E+00
    0.13978E-02        -0.94171E-04         0.00000E+00
    0.11924E-02         0.16421E-04         0.00000E+00
    0.99085E-03         0.96627E-04         0.00000E+00
    0.79248E-03         0.14532E-03         0.00000E+00
    0.59642E-03         0.16122E-03         0.00000E+00
    0.40108E-03         0.14291E-03         0.00000E+00
    0.20370E-03         0.89246E-04         0.00000E+00
    0.00000E+00         0.00000E+00         0.00000E+00
    0.42147E-02        -0.22719E-02         0.00000E+00
    0.38963E-02        -0.19267E-02         0.00000E+00
    0.35852E-02        -0.16038E-02         0.00000E+00
    0.32800E-02        -0.13068E-02         0.00000E+00
    0.29801E-02        -0.10370E-02         0.00000E+00
    0.26854E-02        -0.79493E-03         0.00000E+00
    0.23963E-02        -0.58059E-03         0.00000E+00
    0.21129E-02        -0.39421E-03         0.00000E+00
    0.18353E-02        -0.23622E-03         0.00000E+00
    0.15632E-02        -0.10724E-03         0.00000E+00
    0.12962E-02        -0.81757E-05         0.00000E+00
    0.10336E-02         0.59875E-04         0.00000E+00
    0.77440E-03         0.95665E-04         0.00000E+00
    0.51713E-03         0.97990E-04         0.00000E+00
    0.25982E-03         0.66046E-04         0.00000E+00
    0.00000E+00         0.00000E+00         0.00000E+00
    0.52166E-02        -0.26254E-02         0.00000E+00
    0.48305E-02        -0.22602E-02         0.00000E+00
    0.44455E-02        -0.19171E-02         0.00000E+00
    0.40645E-02        -0.15996E-02         0.00000E+00
    0.36895E-02        -0.13092E-02         0.00000E+00
    0.33213E-02        -0.10460E-02         0.00000E+00
    0.29608E-02        -0.81027E-03         0.00000E+00
    0.26081E-02        -0.60183E-03         0.00000E+00
    0.22632E-02        -0.42096E-03         0.00000E+00
    0.19254E-02        -0.26822E-03         0.00000E+00
    0.15941E-02        -0.14447E-03         0.00000E+00
    0.12684E-02        -0.50858E-04         0.00000E+00
    0.94729E-03         0.11338E-04         0.00000E+00
    0.62958E-03         0.40921E-04         0.00000E+00
    0.31415E-03         0.37114E-04         0.00000E+00
    0.00000E+00         0.00000E+00         0.00000E+00
    0.62099E-02        -0.30430E-02         0.00000E+00
    0.57541E-02        -0.26569E-02         0.00000E+00
    0.52946E-02        -0.22929E-02         0.00000E+00
    0.48379E-02        -0.19538E-02         0.00000E+00
    0.43878E-02        -0.16408E-02         0.00000E+00
    0.39466E-02        -0.13541E-02         0.00000E+00
    0.35155E-02        -0.10934E-02         0.00000E+00
    0.30946E-02        -0.85862E-03         0.00000E+00
    0.26835E-02        -0.64995E-03         0.00000E+00
    0.22813E-02        -0.46790E-03         0.00000E+00
    0.18871E-02        -0.31343E-03         0.00000E+00
    0.14996E-02        -0.18779E-03         0.00000E+00
    0.11177E-02        -0.92445E-04         0.00000E+00
    0.74064E-03        -0.28788E-04         0.00000E+00
    0.36800E-03         0.21327E-05         0.00000E+00
    0.00000E+00         0.00000E+00         0.00000E+00
    0.71986E-02        -0.35289E-02         0.00000E+00
    0.66691E-02        -0.31206E-02         0.00000E+00
    0.61331E-02        -0.27344E-02         0.00000E+00
    0.55998E-02        -0.23722E-02         0.00000E+00
    0.50749E-02        -0.20347E-02         0.00000E+00
    0.45615E-02        -0.17215E-02         0.00000E+00
    0.40609E-02        -0.14324E-02         0.00000E+00
    0.35732E-02        -0.11669E-02         0.00000E+00
    0.30976E-02        -0.92533E-03         0.00000E+00
    0.26328E-02        -0.70822E-03         0.00000E+00
    0.21771E-02        -0.51670E-03         0.00000E+00
    0.17292E-02        -0.35227E-03         0.00000E+00
    0.12877E-02        -0.21673E-03         0.00000E+00
    0.85209E-03        -0.11189E-03         0.00000E+00
    0.42243E-03        -0.39325E-04         0.00000E+00
    0.00000E+00         0.00000E+00         0.00000E+00
    0.81848E-02        -0.40895E-02         0.00000E+00
    0.75759E-02        -0.36569E-02         0.00000E+00
    0.69605E-02        -0.32468E-02         0.00000E+00
    0.63496E-02        -0.28596E-02         0.00000E+00
    0.57499E-02        -0.24950E-02         0.00000E+00
    0.51652E-02        -0.21523E-02         0.00000E+00
    0.45968E-02        -0.18307E-02         0.00000E+00
    0.40443E-02        -0.15299E-02         0.00000E+00
    0.35064E-02        -0.12499E-02         0.00000E+00
    0.29810E-02        -0.99163E-03         0.00000E+00
    0.24659E-02        -0.75636E-03         0.00000E+00
    0.19592E-02        -0.54602E-03         0.00000E+00
    0.14592E-02        -0.36288E-03         0.00000E+00
    0.96542E-03        -0.20936E-03         0.00000E+00
    0.47833E-03        -0.87780E-04         0.00000E+00
    0.00000E+00         0.00000E+00         0.00000E+00
    0.91686E-02        -0.47325E-02         0.00000E+00
    0.84738E-02        -0.42733E-02         0.00000E+00
    0.77752E-02        -0.38368E-02         0.00000E+00
    0.70851E-02        -0.34219E-02         0.00000E+00
    0.64109E-02        -0.30271E-02         0.00000E+00
    0.57563E-02        -0.26511E-02         0.00000E+00
    0.51222E-02        -0.22927E-02         0.00000E+00
    0.45075E-02        -0.19513E-02         0.00000E+00
    0.39100E-02        -0.16271E-02         0.00000E+00
    0.33267E-02        -0.13211E-02         0.00000E+00
    0.27546E-02        -0.10349E-02         0.00000E+00
    0.21909E-02        -0.77110E-03         0.00000E+00
    0.16335E-02        -0.53250E-03         0.00000E+00
    0.10818E-02        -0.32232E-03         0.00000E+00
    0.53644E-03        -0.14383E-03         0.00000E+00
    0.00000E+00         0.00000E+00         0.00000E+00
    0.10148E-01        -0.54668E-02         0.00000E+00
    0.93600E-02        -0.49781E-02         0.00000E+00
    0.85741E-02        -0.45121E-02         0.00000E+00
    0.78033E-02        -0.40662E-02         0.00000E+00
    0.70551E-02        -0.36375E-02         0.00000E+00
    0.63324E-02        -0.32238E-02         0.00000E+00
    0.56353E-02        -0.28234E-02         0.00000E+00
    0.49616E-02        -0.24356E-02         0.00000E+00
    0.43079E-02        -0.20607E-02         0.00000E+00
    0.36700E-02        -0.16998E-02         0.00000E+00
    0.30437E-02        -0.13552E-02         0.00000E+00
    0.24252E-02        -0.10298E-02         0.00000E+00
    0.18118E-02        -0.72737E-03         0.00000E+00
    0.12023E-02        -0.45202E-03         0.00000E+00
    0.59740E-03        -0.20814E-03         0.00000E+00
    0.00000E+00         0.00000E+00         0.00000E+00
    0.11120E-01        -0.63025E-02         0.00000E+00
    0.10230E-01        -0.57805E-02         0.00000E+00
    0.93523E-02        -0.52813E-02         0.00000E+00
    0.84996E-02        -0.48002E-02         0.00000E+00
    0.76782E-02        -0.43329E-02         0.00000E+00
    0.68899E-02        -0.38763E-02         0.00000E+00
    0.61334E-02        -0.34281E-02         0.00000E+00
    0.54047E-02        -0.29875E-02         0.00000E+00
    0.46990E-02        -0.25547E-02         0.00000E+00
    0.40104E-02        -0.21313E-02         0.00000E+00
    0.33332E-02        -0.17200E-02         0.00000E+00
    0.26626E-02        -0.13245E-02         0.00000E+00
    0.19947E-02        -0.94936E-03         0.00000E+00
    0.13277E-02        -0.59975E-03         0.00000E+00
    0.66172E-03        -0.28138E-03         0.00000E+00
    0.00000E+00         0.00000E+00         0.00000E+00
    0.12076E-01        -0.72499E-02         0.00000E+00
    0.11076E-01        -0.66903E-02         0.00000E+00
    0.10103E-01        -0.61533E-02         0.00000E+00
    0.91678E-02        -0.56320E-02         0.00000E+00
    0.82749E-02        -0.51206E-02         0.00000E+00
    0.74244E-02        -0.46150E-02         0.00000E+00
    0.66127E-02        -0.41123E-02         0.00000E+00
    0.58340E-02        -0.36116E-02         0.00000E+00
    0.50812E-02        -0.31132E-02         0.00000E+00
    0.43466E-02        -0.26191E-02         0.00000E+00
    0.36227E-02        -0.21324E-02         0.00000E+00
    0.29031E-02        -0.16577E-02         0.00000E+00
    0.21826E-02        -0.12003E-02         0.00000E+00
    0.14583E-02        -0.76684E-03         0.00000E+00
    0.72977E-03        -0.36425E-03         0.00000E+00
    0.00000E+00         0.00000E+00         0.00000E+00
    0.13006E-01        -0.83196E-02         0.00000E+00
    0.11889E-01        -0.77171E-02         0.00000E+00
    0.10818E-01        -0.71368E-02         0.00000E+00
    0.98000E-02        -0.65693E-02         0.00000E+00
    0.88383E-02        -0.60074E-02         0.00000E+00
    0.79298E-02        -0.54457E-02         0.00000E+00
    0.70684E-02        -0.48811E-02         0.00000E+00
    0.62455E-02        -0.43123E-02         0.00000E+00
    0.54516E-02        -0.37399E-02         0.00000E+00
    0.46765E-02        -0.31662E-02         0.00000E+00
    0.39108E-02        -0.25949E-02         0.00000E+00
    0.31459E-02        -0.20313E-02         0.00000E+00
    0.23752E-02        -0.14820E-02         0.00000E+00
    0.15943E-02        -0.95448E-03         0.00000E+00
    0.80176E-03        -0.45741E-03         0.00000E+00
    0.00000E+00         0.00000E+00         0.00000E+00
    0.13899E-01        -0.95215E-02         0.00000E+00
    0.12658E-01        -0.88701E-02         0.00000E+00
    0.11485E-01        -0.82400E-02         0.00000E+00
    0.10386E-01        -0.76194E-02         0.00000E+00
    0.93597E-02        -0.69994E-02         0.00000E+00
    0.83989E-02        -0.63737E-02         0.00000E+00
    0.74944E-02        -0.57388E-02         0.00000E+00
    0.66343E-02        -0.50933E-02         0.00000E+00
    0.58061E-02        -0.44378E-02         0.00000E+00
    0.49971E-02        -0.37751E-02         0.00000E+00
    0.41952E-02        -0.31096E-02         0.00000E+00
    0.33897E-02        -0.24473E-02         0.00000E+00
    0.25718E-02        -0.17957E-02         0.00000E+00
    0.17354E-02        -0.11637E-02         0.00000E+00
    0.87770E-03        -0.56143E-03         0.00000E+00
    0.00000E+00         0.00000E+00         0.00000E+00
    0.14737E-01        -0.10865E-01         0.00000E+00
    0.13366E-01        -0.10157E-01         0.00000E+00
    0.12092E-01        -0.94699E-02         0.00000E+00
    0.10915E-01        -0.87881E-02         0.00000E+00
    0.98291E-02        -0.81014E-02         0.00000E+00
    0.88230E-02        -0.74029E-02         0.00000E+00
    0.78831E-02        -0.66884E-02         0.00000E+00
    0.69940E-02        -0.59567E-02         0.00000E+00
    0.61397E-02        -0.52087E-02         0.00000E+00
    0.53043E-02        -0.44474E-02         0.00000E+00
    0.44729E-02        -0.36778E-02         0.00000E+00
    0.36322E-02        -0.29067E-02         0.00000E+00
    0.27709E-02        -0.21425E-02         0.00000E+00
    0.18809E-02        -0.13953E-02         0.00000E+00
    0.95731E-03        -0.67677E-03         0.00000E+00
    0.00000E+00         0.00000E+00         0.00000E+00
    0.15499E-01        -0.12357E-01         0.00000E+00
    0.13996E-01        -0.11585E-01         0.00000E+00
    0.12622E-01        -0.10832E-01         0.00000E+00
    0.11372E-01        -0.10079E-01         0.00000E+00
    0.10234E-01        -0.93164E-02         0.00000E+00
    0.91917E-02        -0.85351E-02         0.00000E+00
    0.82259E-02        -0.77312E-02         0.00000E+00
    0.73172E-02        -0.69033E-02         0.00000E+00
    0.64459E-02        -0.60528E-02         0.00000E+00
    0.55926E-02        -0.51830E-02         0.00000E+00
    0.47393E-02        -0.42995E-02         0.00000E+00
    0.38698E-02        -0.34096E-02         0.00000E+00
    0.29701E-02        -0.25226E-02         0.00000E+00
    0.20292E-02        -0.16496E-02         0.00000E+00
    0.10400E-02        -0.80370E-03         0.00000E+00
    0.00000E+00         0.00000E+00         0.00000E+00
    0.16163E-01        -0.14003E-01         0.00000E+00
    0.14527E-01        -0.13158E-01         0.00000E+00
    0.13058E-01        -0.12328E-01         0.00000E+00
    0.11743E-01        -0.11495E-01         0.00000E+00
    0.10562E-01        -0.10645E-01         0.00000E+00
    0.94932E-02        -0.97697E-02         0.00000E+00
    0.85122E-02        -0.88657E-02         0.00000E+00
    0.75947E-02        -0.79314E-02         0.00000E+00
    0.67166E-02        -0.69684E-02         0.00000E+00
    0.58551E-02        -0.59804E-02         0.00000E+00
    0.49888E-02        -0.49734E-02         0.00000E+00
    0.40981E-02        -0.39552E-02         0.00000E+00
    0.31659E-02        -0.29355E-02         0.00000E+00
    0.21782E-02        -0.19264E-02         0.00000E+00
    0.11247E-02        -0.94225E-03         0.00000E+00
    0.00000E+00         0.00000E+00         0.00000E+00
    0.16700E-01        -0.15803E-01         0.00000E+00
    0.14934E-01        -0.14875E-01         0.00000E+00
    0.13378E-01        -0.13958E-01         0.00000E+00
    0.12008E-01        -0.13032E-01         0.00000E+00
    0.10796E-01        -0.12083E-01         0.00000E+00
    0.97140E-02        -0.11103E-01         0.00000E+00
    0.87303E-02        -0.10088E-01         0.00000E+00
    0.78158E-02        -0.90364E-02         0.00000E+00
    0.69425E-02        -0.79510E-02         0.00000E+00
    0.60834E-02        -0.68356E-02         0.00000E+00
    0.52138E-02        -0.56963E-02         0.00000E+00
    0.43108E-02        -0.45409E-02         0.00000E+00
    0.33536E-02        -0.33795E-02         0.00000E+00
    0.23246E-02        -0.22249E-02         0.00000E+00
    0.12098E-02        -0.10922E-02         0.00000E+00
    0.00000E+00         0.00000E+00         0.00000E+00
    0.17079E-01        -0.17756E-01         0.00000E+00
    0.15191E-01        -0.16733E-01         0.00000E+00
    0.13560E-01        -0.15716E-01         0.00000E+00
    0.12149E-01        -0.14684E-01         0.00000E+00
    0.10921E-01        -0.13624E-01         0.00000E+00
    0.98393E-02        -0.12527E-01         0.00000E+00
    0.88667E-02        -0.11389E-01         0.00000E+00
    0.79684E-02        -0.10210E-01         0.00000E+00
    0.71120E-02        -0.89932E-02         0.00000E+00
    0.62671E-02        -0.77420E-02         0.00000E+00
    0.54052E-02        -0.64625E-02         0.00000E+00
    0.44999E-02        -0.51625E-02         0.00000E+00
    0.35268E-02        -0.38520E-02         0.00000E+00
    0.24641E-02        -0.25434E-02         0.00000E+00
    0.12932E-02        -0.12528E-02         0.00000E+00
    0.00000E+00         0.00000E+00         0.00000E+00
    0.17265E-01        -0.19852E-01         0.00000E+00
    0.15269E-01        -0.18721E-01         0.00000E+00
    0.13579E-01        -0.17591E-01         0.00000E+00
    0.12144E-01        -0.16441E-01         0.00000E+00
    0.10918E-01        -0.15255E-01         0.00000E+00
    0.98532E-02        -0.14028E-01         0.00000E+00
    0.89067E-02        -0.12756E-01         0.00000E+00
    0.80385E-02        -0.11441E-01         0.00000E+00
    0.72122E-02        -0.10084E-01         0.00000E+00
    0.63936E-02        -0.86898E-02         0.00000E+00
    0.55513E-02        -0.72642E-02         0.00000E+00
    0.46553E-02        -0.58140E-02         0.00000E+00
    0.36773E-02        -0.43484E-02         0.00000E+00
    0.25908E-02        -0.28795E-02         0.00000E+00
    0.13717E-02        -0.14232E-02         0.00000E+00
    0.00000E+00         0.00000E+00         0.00000E+00
    0.17219E-01        -0.22076E-01         0.00000E+00
    0.15137E-01        -0.20825E-01         0.00000E+00
    0.13410E-01        -0.19567E-01         0.00000E+00
    0.11974E-01        -0.18283E-01         0.00000E+00
    0.10768E-01        -0.16958E-01         0.00000E+00
    0.97386E-02        -0.15589E-01         0.00000E+00
    0.88342E-02        -0.14172E-01         0.00000E+00
    0.80106E-02        -0.12711E-01         0.00000E+00
    0.72276E-02        -0.11208E-01         0.00000E+00
    0.64483E-02        -0.96657E-02         0.00000E+00
    0.56384E-02        -0.80902E-02         0.00000E+00
    0.47647E-02        -0.64867E-02         0.00000E+00
    0.37948E-02        -0.48630E-02         0.00000E+00
    0.26972E-02        -0.32297E-02         0.00000E+00
    0.14414E-02        -0.16018E-02         0.00000E+00
    0.00000E+00         0.00000E+00         0.00000E+00
    0.16902E-01        -0.24405E-01         0.00000E+00
    0.14762E-01        -0.23019E-01         0.00000E+00
    0.13026E-01        -0.21619E-01         0.00000E+00
    0.11614E-01        -0.20185E-01         0.00000E+00
    0.10453E-01        -0.18708E-01         0.00000E+00
    0.94778E-02        -0.17184E-01         0.00000E+00
    0.86322E-02        -0.15613E-01         0.00000E+00
    0.78676E-02        -0.13999E-01         0.00000E+00
    0.71411E-02        -0.12344E-01         0.00000E+00
    0.64140E-02        -0.10653E-01         0.00000E+00
    0.56498E-02        -0.89265E-02         0.00000E+00
    0.48127E-02        -0.71699E-02         0.00000E+00
    0.38664E-02        -0.53880E-02         0.00000E+00
    0.27738E-02        -0.35892E-02         0.00000E+00
    0.14972E-02        -0.17866E-02         0.00000E+00
    0.00000E+00         0.00000E+00         0.00000E+00
    0.16273E-01        -0.26806E-01         0.00000E+00
    0.14112E-01        -0.25271E-01         0.00000E+00
    0.12403E-01        -0.23713E-01         0.00000E+00
    0.11046E-01        -0.22115E-01         0.00000E+00
    0.99537E-02        -0.20471E-01         0.00000E+00
    0.90532E-02        -0.18781E-01         0.00000E+00
    0.82827E-02        -0.17049E-01         0.00000E+00
    0.75906E-02        -0.15277E-01         0.00000E+00
    0.69331E-02        -0.13470E-01         0.00000E+00
    0.62707E-02        -0.11629E-01         0.00000E+00
    0.55658E-02        -0.97554E-02         0.00000E+00
    0.47810E-02        -0.78498E-02         0.00000E+00
    0.38763E-02        -0.59139E-02         0.00000E+00
    0.28088E-02        -0.39524E-02         0.00000E+00
    0.15326E-02        -0.19752E-02         0.00000E+00
    0.00000E+00         0.00000E+00         0.00000E+00
    0.15289E-01        -0.29236E-01         0.00000E+00
    0.13156E-01        -0.27537E-01         0.00000E+00
    0.11516E-01        -0.25805E-01         0.00000E+00
    0.10248E-01        -0.24028E-01         0.00000E+00
    0.92528E-02        -0.22205E-01         0.00000E+00
    0.84472E-02        -0.20341E-01         0.00000E+00
    0.77668E-02        -0.18442E-01         0.00000E+00
    0.71595E-02        -0.16512E-01         0.00000E+00
    0.65819E-02        -0.14555E-01         0.00000E+00
    0.59956E-02        -0.12570E-01         0.00000E+00
    0.53636E-02        -0.10556E-01         0.00000E+00
    0.46475E-02        -0.85103E-02         0.00000E+00
    0.38050E-02        -0.64291E-02         0.00000E+00
    0.27875E-02        -0.43122E-02         0.00000E+00
    0.15395E-02        -0.21645E-02         0.00000E+00
    0.00000E+00         0.00000E+00         0.00000E+00
    0.13911E-01        -0.31638E-01         0.00000E+00
    0.11865E-01        -0.29762E-01         0.00000E+00
    0.10345E-01        -0.27841E-01         0.00000E+00
    0.92065E-02        -0.25871E-01         0.00000E+00
    0.83348E-02        -0.23859E-01         0.00000E+00
    0.76429E-02        -0.21816E-01         0.00000E+00
    0.70655E-02        -0.19749E-01         0.00000E+00
    0.65525E-02        -0.17665E-01         0.00000E+00
    0.60636E-02        -0.15565E-01         0.00000E+00
    0.55631E-02        -0.13447E-01         0.00000E+00
    0.50165E-02        -0.11305E-01         0.00000E+00
    0.43864E-02        -0.91324E-02         0.00000E+00
    0.36293E-02        -0.69200E-02         0.00000E+00
    0.26915E-02        -0.46604E-02         0.00000E+00
    0.15074E-02        -0.23510E-02         0.00000E+00
    0.00000E+00         0.00000E+00         0.00000E+00
    0.12100E-01        -0.33941E-01         0.00000E+00
    0.10217E-01        -0.31875E-01         0.00000E+00
    0.88761E-02        -0.29751E-01         0.00000E+00
    0.79080E-02        -0.27578E-01         0.00000E+00
    0.71863E-02        -0.25372E-01         0.00000E+00
    0.66234E-02        -0.23150E-01         0.00000E+00
    0.61582E-02        -0.20922E-01         0.00000E+00
    0.57461E-02        -0.18694E-01         0.00000E+00
    0.53519E-02        -0.16464E-01         0.00000E+00
    0.49450E-02        -0.14227E-01         0.00000E+00
    0.44948E-02        -0.11975E-01         0.00000E+00
    0.39675E-02        -0.96945E-02         0.00000E+00
    0.33207E-02        -0.73706E-02         0.00000E+00
    0.24979E-02        -0.49869E-02         0.00000E+00
    0.14232E-02        -0.25306E-02         0.00000E+00
    0.00000E+00         0.00000E+00         0.00000E+00
    0.98225E-02        -0.36055E-01         0.00000E+00
    0.81951E-02        -0.33788E-01         0.00000E+00
    0.71027E-02        -0.31450E-01         0.00000E+00
    0.63458E-02        -0.29067E-01         0.00000E+00
    0.57952E-02        -0.26671E-01         0.00000E+00
    0.53715E-02        -0.24282E-01         0.00000E+00
    0.50234E-02        -0.21910E-01         0.00000E+00
    0.47151E-02        -0.19555E-01         0.00000E+00
    0.44190E-02        -0.17215E-01         0.00000E+00
    0.41107E-02        -0.14880E-01         0.00000E+00
    0.37660E-02        -0.12538E-01         0.00000E+00
    0.33565E-02        -0.10173E-01         0.00000E+00
    0.28451E-02        -0.77621E-02         0.00000E+00
    0.21771E-02        -0.52799E-02         0.00000E+00
    0.12690E-02        -0.26983E-02         0.00000E+00
    0.00000E+00         0.00000E+00         0.00000E+00
    0.70511E-02        -0.37865E-01         0.00000E+00
    0.57997E-02        -0.35387E-01         0.00000E+00
    0.50287E-02        -0.32828E-01         0.00000E+00
    0.45155E-02        -0.30245E-01         0.00000E+00
    0.41479E-02        -0.27681E-01         0.00000E+00
    0.38671E-02        -0.25151E-01         0.00000E+00
    0.36368E-02        -0.22661E-01         0.00000E+00
    0.34326E-02        -0.20207E-01         0.00000E+00
    0.32354E-02        -0.17781E-01         0.00000E+00
    0.30288E-02        -0.15373E-01         0.00000E+00
    0.27959E-02        -0.12966E-01         0.00000E+00
    0.25163E-02        -0.10541E-01         0.00000E+00
    0.21623E-02        -0.80717E-02         0.00000E+00
    0.16902E-02        -0.55235E-02         0.00000E+00
    0.10185E-02        -0.28476E-02         0.00000E+00
    0.00000E+00         0.00000E+00         0.00000E+00
    0.37681E-02        -0.39210E-01         0.00000E+00
    0.30536E-02        -0.36513E-01         0.00000E+00
    0.26642E-02        -0.33749E-01         0.00000E+00
    0.24078E-02        -0.31010E-01         0.00000E+00
    0.22254E-02        -0.28325E-01         0.00000E+00
    0.20861E-02        -0.25699E-01         0.00000E+00
    0.19719E-02        -0.23131E-01         0.00000E+00
    0.18703E-02        -0.20613E-01         0.00000E+00
    0.17719E-02        -0.18134E-01         0.00000E+00
    0.16683E-02        -0.15680E-01         0.00000E+00
    0.15509E-02        -0.13234E-01         0.00000E+00
    0.14092E-02        -0.10774E-01         0.00000E+00
    0.12283E-02        -0.82734E-02         0.00000E+00
    0.98365E-03        -0.56919E-02         0.00000E+00
    0.62736E-03        -0.29685E-02         0.00000E+00
    0.00000E+00         0.00000E+00         0.00000E+00
    0.00000E+00        -0.39810E-01         0.00000E+00
    0.00000E+00        -0.36939E-01         0.00000E+00
    0.00000E+00        -0.34077E-01         0.00000E+00
    0.00000E+00        -0.31277E-01         0.00000E+00
    0.00000E+00        -0.28546E-01         0.00000E+00
    0.00000E+00        -0.25887E-01         0.00000E+00
    0.00000E+00        -0.23292E-01         0.00000E+00
    0.00000E+00        -0.20751E-01         0.00000E+00
    0.00000E+00        -0.18254E-01         0.00000E+00
    0.00000E+00        -0.15785E-01         0.00000E+00
    0.00000E+00        -0.13326E-01         0.00000E+00
    0.00000E+00        -0.10855E-01         0.00000E+00
    0.00000E+00        -0.83439E-02         0.00000E+00
    0.00000E+00        -0.57531E-02         0.00000E+00
    0.00000E+00        -0.30205E-02         0.00000E+00
    0.00000E+00         0.00000E+00         0.00000E+00
CELL_DATA        450
VECTORS vDarcy double 
    0.26828E-08         0.13495E-10         0.00000E+00
    0.26383E-08         0.30797E-10         0.00000E+00
    0.25665E-08         0.40866E-10         0.00000E+00
    0.24787E-08         0.46867E-10         0.00000E+00
    0.23816E-08         0.50131E-10         0.00000E+00
    0.22800E-08         0.51392E-10         0.00000E+00
    0.21774E-08         0.51104E-10         0.00000E+00
    0.20766E-08         0.49557E-10         0.00000E+00
    0.19801E-08         0.46937E-10         0.00000E+00
    0.18897E-08         0.43347E-10         0.00000E+00
    0.18075E-08         0.38817E-10         0.00000E+00
    0.17353E-08         0.33299E-10         0.00000E+00
    0.16754E-08         0.26637E-10         0.00000E+00
    0.16302E-08         0.18472E-10         0.00000E+00
    0.16038E-08         0.79276E-11         0.00000E+00
    0.24473E-08         0.33846E-10         0.00000E+00
    0.24206E-08         0.81364E-10         0.00000E+00
    0.23715E-08         0.11089E-09         0.00000E+00
    0.23069E-08         0.12910E-09         0.00000E+00
    0.22323E-08         0.13939E-09         0.00000E+00
    0.21521E-08         0.14379E-09         0.00000E+00
    0.20696E-08         0.14356E-09         0.00000E+00
    0.19878E-08         0.13956E-09         0.00000E+00
    0.19088E-08         0.13231E-09         0.00000E+00
    0.18349E-08         0.12213E-09         0.00000E+00
    0.17679E-08         0.10911E-09         0.00000E+00
    0.17099E-08         0.93129E-10         0.00000E+00
    0.16628E-08         0.73764E-10         0.00000E+00
    0.16291E-08         0.50105E-10         0.00000E+00
    0.16116E-08         0.20135E-10         0.00000E+00
    0.22721E-08         0.45182E-10         0.00000E+00
    0.22543E-08         0.11432E-09         0.00000E+00
    0.22205E-08         0.16061E-09         0.00000E+00
    0.21739E-08         0.19046E-09         0.00000E+00
    0.21182E-08         0.20813E-09         0.00000E+00
    0.20568E-08         0.21644E-09         0.00000E+00
    0.19927E-08         0.21727E-09         0.00000E+00
    0.19284E-08         0.21190E-09         0.00000E+00
    0.18660E-08         0.20118E-09         0.00000E+00
    0.18075E-08         0.18560E-09         0.00000E+00
    0.17547E-08         0.16533E-09         0.00000E+00
    0.17094E-08         0.14023E-09         0.00000E+00
    0.16732E-08         0.10977E-09         0.00000E+00
    0.16481E-08         0.72858E-10         0.00000E+00
    0.16353E-08         0.27590E-10         0.00000E+00
    0.21545E-08         0.52601E-10         0.00000E+00
    0.21426E-08         0.13633E-09         0.00000E+00
    0.21196E-08         0.19529E-09         0.00000E+00
    0.20870E-08         0.23483E-09         0.00000E+00
    0.20471E-08         0.25918E-09         0.00000E+00
    0.20022E-08         0.27142E-09         0.00000E+00
    0.19547E-08         0.27377E-09         0.00000E+00
    0.19064E-08         0.26781E-09         0.00000E+00
    0.18594E-08         0.25461E-09         0.00000E+00
    0.18151E-08         0.23480E-09         0.00000E+00
    0.17753E-08         0.20868E-09         0.00000E+00
    0.17412E-08         0.17615E-09         0.00000E+00
    0.17144E-08         0.13671E-09         0.00000E+00
    0.16960E-08         0.89454E-10         0.00000E+00
    0.16866E-08         0.33087E-10         0.00000E+00
    0.20967E-08         0.57324E-10         0.00000E+00
    0.20894E-08         0.15063E-09         0.00000E+00
    0.20748E-08         0.21843E-09         0.00000E+00
    0.20536E-08         0.26527E-09         0.00000E+00
    0.20271E-08         0.29500E-09         0.00000E+00
    0.19967E-08         0.31069E-09         0.00000E+00
    0.19640E-08         0.31465E-09         0.00000E+00
    0.19304E-08         0.30860E-09         0.00000E+00
    0.18974E-08         0.29375E-09         0.00000E+00
    0.18663E-08         0.27088E-09         0.00000E+00
    0.18383E-08         0.24036E-09         0.00000E+00
    0.18145E-08         0.20220E-09         0.00000E+00
    0.17958E-08         0.15607E-09         0.00000E+00
    0.17830E-08         0.10130E-09         0.00000E+00
    0.17765E-08         0.37016E-10         0.00000E+00
    0.21038E-08         0.59927E-10         0.00000E+00
    0.21002E-08         0.15882E-09         0.00000E+00
    0.20927E-08         0.23214E-09         0.00000E+00
    0.20814E-08         0.28388E-09         0.00000E+00
    0.20666E-08         0.31751E-09         0.00000E+00
    0.20491E-08         0.33588E-09         0.00000E+00
    0.20299E-08         0.34129E-09         0.00000E+00
    0.20097E-08         0.33548E-09         0.00000E+00
    0.19897E-08         0.31972E-09         0.00000E+00
    0.19708E-08         0.29486E-09         0.00000E+00
    0.19537E-08         0.26138E-09         0.00000E+00
    0.19391E-08         0.21941E-09         0.00000E+00
    0.19278E-08         0.16877E-09         0.00000E+00
    0.19201E-08         0.10903E-09         0.00000E+00
    0.19162E-08         0.39581E-10         0.00000E+00
    0.21828E-08         0.60682E-10         0.00000E+00
    0.21826E-08         0.16170E-09         0.00000E+00
    0.21815E-08         0.23765E-09         0.00000E+00
    0.21789E-08         0.29208E-09         0.00000E+00
    0.21748E-08         0.32808E-09         0.00000E+00
    0.21691E-08         0.34830E-09         0.00000E+00
    0.21622E-08         0.35487E-09         0.00000E+00
    0.21545E-08         0.34950E-09         0.00000E+00
    0.21466E-08         0.33345E-09         0.00000E+00
    0.21390E-08         0.30762E-09         0.00000E+00
    0.21320E-08         0.27256E-09         0.00000E+00
    0.21262E-08         0.22849E-09         0.00000E+00
    0.21217E-08         0.17539E-09         0.00000E+00
    0.21187E-08         0.11299E-09         0.00000E+00
    0.21173E-08         0.40875E-10         0.00000E+00
    0.23423E-08         0.59709E-10         0.00000E+00
    0.23453E-08         0.15971E-09         0.00000E+00
    0.23502E-08         0.23565E-09         0.00000E+00
    0.23559E-08         0.29071E-09         0.00000E+00
    0.23617E-08         0.32766E-09         0.00000E+00
    0.23670E-08         0.34887E-09         0.00000E+00
    0.23717E-08         0.35630E-09         0.00000E+00
    0.23757E-08         0.35151E-09         0.00000E+00
    0.23792E-08         0.33574E-09         0.00000E+00
    0.23822E-08         0.30987E-09         0.00000E+00
    0.23848E-08         0.27449E-09         0.00000E+00
    0.23871E-08         0.22994E-09         0.00000E+00
    0.23891E-08         0.17628E-09         0.00000E+00
    0.23907E-08         0.11338E-09         0.00000E+00
    0.23916E-08         0.40937E-10         0.00000E+00
    0.25924E-08         0.57035E-10         0.00000E+00
    0.25986E-08         0.15300E-09         0.00000E+00
    0.26093E-08         0.22647E-09         0.00000E+00
    0.26230E-08         0.28028E-09         0.00000E+00
    0.26382E-08         0.31687E-09         0.00000E+00
    0.26540E-08         0.33829E-09         0.00000E+00
    0.26697E-08         0.34626E-09         0.00000E+00
    0.26849E-08         0.34219E-09         0.00000E+00
    0.26991E-08         0.32721E-09         0.00000E+00
    0.27122E-08         0.30216E-09         0.00000E+00
    0.27239E-08         0.26766E-09         0.00000E+00
    0.27341E-08         0.22411E-09         0.00000E+00
    0.27424E-08         0.17166E-09         0.00000E+00
    0.27484E-08         0.11030E-09         0.00000E+00
    0.27516E-08         0.39776E-10         0.00000E+00
    0.29446E-08         0.52636E-10         0.00000E+00
    0.29539E-08         0.14160E-09         0.00000E+00
    0.29705E-08         0.21027E-09         0.00000E+00
    0.29919E-08         0.26110E-09         0.00000E+00
    0.30164E-08         0.29613E-09         0.00000E+00
    0.30423E-08         0.31706E-09         0.00000E+00
    0.30685E-08         0.32533E-09         0.00000E+00
    0.30941E-08         0.32211E-09         0.00000E+00
    0.31186E-08         0.30839E-09         0.00000E+00
    0.31413E-08         0.28497E-09         0.00000E+00
    0.31618E-08         0.25245E-09         0.00000E+00
    0.31794E-08         0.21128E-09         0.00000E+00
    0.31938E-08         0.16170E-09         0.00000E+00
    0.32041E-08         0.10379E-09         0.00000E+00
    0.32096E-08         0.37388E-10         0.00000E+00
    0.34114E-08         0.46466E-10         0.00000E+00
    0.34239E-08         0.12547E-09         0.00000E+00
    0.34463E-08         0.18712E-09         0.00000E+00
    0.34754E-08         0.23337E-09         0.00000E+00
    0.35087E-08         0.26580E-09         0.00000E+00
    0.35442E-08         0.28566E-09         0.00000E+00
    0.35804E-08         0.29403E-09         0.00000E+00
    0.36161E-08         0.29182E-09         0.00000E+00
    0.36502E-08         0.27984E-09         0.00000E+00
    0.36820E-08         0.25879E-09         0.00000E+00
    0.37107E-08         0.22926E-09         0.00000E+00
    0.37356E-08         0.19173E-09         0.00000E+00
    0.37557E-08         0.14656E-09         0.00000E+00
    0.37703E-08         0.93918E-10         0.00000E+00
    0.37781E-08         0.33769E-10         0.00000E+00
    0.40061E-08         0.38486E-10         0.00000E+00
    0.40219E-08         0.10461E-09         0.00000E+00
    0.40499E-08         0.15713E-09         0.00000E+00
    0.40864E-08         0.19737E-09         0.00000E+00
    0.41282E-08         0.22628E-09         0.00000E+00
    0.41729E-08         0.24461E-09         0.00000E+00
    0.42184E-08         0.25297E-09         0.00000E+00
    0.42634E-08         0.25197E-09         0.00000E+00
    0.43065E-08         0.24217E-09         0.00000E+00
    0.43467E-08         0.22417E-09         0.00000E+00
    0.43831E-08         0.19854E-09         0.00000E+00
    0.44146E-08         0.16581E-09         0.00000E+00
    0.44403E-08         0.12644E-09         0.00000E+00
    0.44588E-08         0.80773E-10         0.00000E+00
    0.44688E-08         0.28925E-10         0.00000E+00
    0.47425E-08         0.28691E-10         0.00000E+00
    0.47614E-08         0.79100E-10         0.00000E+00
    0.47949E-08         0.12055E-09         0.00000E+00
    0.48383E-08         0.15352E-09         0.00000E+00
    0.48880E-08         0.17820E-09         0.00000E+00
    0.49409E-08         0.19465E-09         0.00000E+00
    0.49949E-08         0.20298E-09         0.00000E+00
    0.50482E-08         0.20339E-09         0.00000E+00
    0.50993E-08         0.19621E-09         0.00000E+00
    0.51470E-08         0.18188E-09         0.00000E+00
    0.51903E-08         0.16093E-09         0.00000E+00
    0.52279E-08         0.13399E-09         0.00000E+00
    0.52585E-08         0.10167E-09         0.00000E+00
    0.52808E-08         0.64517E-10         0.00000E+00
    0.52928E-08         0.22893E-10         0.00000E+00
    0.56339E-08         0.17142E-10         0.00000E+00
    0.56557E-08         0.49193E-10         0.00000E+00
    0.56941E-08         0.77875E-10         0.00000E+00
    0.57437E-08         0.10255E-09         0.00000E+00
    0.58002E-08         0.12245E-09         0.00000E+00
    0.58603E-08         0.13683E-09         0.00000E+00
    0.59214E-08         0.14519E-09         0.00000E+00
    0.59817E-08         0.14726E-09         0.00000E+00
    0.60395E-08         0.14307E-09         0.00000E+00
    0.60935E-08         0.13291E-09         0.00000E+00
    0.61425E-08         0.11731E-09         0.00000E+00
    0.61852E-08         0.96987E-10         0.00000E+00
    0.62202E-08         0.72747E-10         0.00000E+00
    0.62457E-08         0.45427E-10         0.00000E+00
    0.62596E-08         0.15749E-10         0.00000E+00
    0.66924E-08         0.39983E-11         0.00000E+00
    0.67166E-08         0.15395E-10         0.00000E+00
    0.67591E-08         0.29940E-10         0.00000E+00
    0.68137E-08         0.45593E-10         0.00000E+00
    0.68755E-08         0.60388E-10         0.00000E+00
    0.69411E-08         0.72657E-10         0.00000E+00
    0.70076E-08         0.81160E-10         0.00000E+00
    0.70731E-08         0.85122E-10         0.00000E+00
    0.71358E-08         0.84242E-10         0.00000E+00
    0.71945E-08         0.78654E-10         0.00000E+00
    0.72478E-08         0.68880E-10         0.00000E+00
    0.72944E-08         0.55761E-10         0.00000E+00
    0.73327E-08         0.40376E-10         0.00000E+00
    0.73607E-08         0.23934E-10         0.00000E+00
    0.73761E-08         0.76302E-11         0.00000E+00
    0.79277E-08        -0.10452E-10         0.00000E+00
    0.79536E-08        -0.21465E-10         0.00000E+00
    0.79989E-08        -0.21967E-10         0.00000E+00
    0.80567E-08        -0.15725E-10         0.00000E+00
    0.81219E-08        -0.61053E-11         0.00000E+00
    0.81907E-08         0.41394E-11         0.00000E+00
    0.82603E-08         0.12958E-10         0.00000E+00
    0.83287E-08         0.19018E-10         0.00000E+00
    0.83941E-08         0.21669E-10         0.00000E+00
    0.84554E-08         0.20886E-10         0.00000E+00
    0.85111E-08         0.17199E-10         0.00000E+00
    0.85600E-08         0.11619E-10         0.00000E+00
    0.86003E-08         0.55444E-11         0.00000E+00
    0.86299E-08         0.65245E-12         0.00000E+00
    0.86463E-08        -0.12522E-11         0.00000E+00
    0.93454E-08        -0.25762E-10         0.00000E+00
    0.93721E-08        -0.60174E-10         0.00000E+00
    0.94184E-08        -0.76046E-10         0.00000E+00
    0.94772E-08        -0.79190E-10         0.00000E+00
    0.95431E-08        -0.74570E-10         0.00000E+00
    0.96123E-08        -0.66141E-10         0.00000E+00
    0.96822E-08        -0.56818E-10         0.00000E+00
    0.97506E-08        -0.48521E-10         0.00000E+00
    0.98161E-08        -0.42252E-10         0.00000E+00
    0.98774E-08        -0.38186E-10         0.00000E+00
    0.99333E-08        -0.35768E-10         0.00000E+00
    0.99824E-08        -0.33788E-10         0.00000E+00
    0.10023E-07        -0.30474E-10         0.00000E+00
    0.10053E-07        -0.23595E-10         0.00000E+00
    0.10070E-07        -0.10603E-10         0.00000E+00
    0.10946E-07        -0.41309E-10         0.00000E+00
    0.10972E-07        -0.99091E-10         0.00000E+00
    0.11017E-07        -0.12994E-09         0.00000E+00
    0.11074E-07        -0.14199E-09         0.00000E+00
    0.11137E-07        -0.14195E-09         0.00000E+00
    0.11204E-07        -0.13504E-09         0.00000E+00
    0.11270E-07        -0.12506E-09         0.00000E+00
    0.11336E-07        -0.11450E-09         0.00000E+00
    0.11398E-07        -0.10469E-09         0.00000E+00
    0.11457E-07        -0.95953E-10         0.00000E+00
    0.11510E-07        -0.87688E-10         0.00000E+00
    0.11557E-07        -0.78467E-10         0.00000E+00
    0.11596E-07        -0.66112E-10         0.00000E+00
    0.11625E-07        -0.47769E-10         0.00000E+00
    0.11642E-07        -0.20035E-10         0.00000E+00
    0.12721E-07        -0.56277E-10         0.00000E+00
    0.12745E-07        -0.13614E-09         0.00000E+00
    0.12787E-07        -0.18075E-09         0.00000E+00
    0.12838E-07        -0.20076E-09         0.00000E+00
    0.12895E-07        -0.20468E-09         0.00000E+00
    0.12955E-07        -0.19897E-09         0.00000E+00
    0.13015E-07        -0.18825E-09         0.00000E+00
    0.13073E-07        -0.17555E-09         0.00000E+00
    0.13129E-07        -0.16248E-09         0.00000E+00
    0.13182E-07        -0.14949E-09         0.00000E+00
    0.13230E-07        -0.13593E-09         0.00000E+00
    0.13273E-07        -0.12014E-09         0.00000E+00
    0.13308E-07        -0.99541E-10         0.00000E+00
    0.13335E-07        -0.70631E-10         0.00000E+00
    0.13350E-07        -0.29070E-10         0.00000E+00
    0.14655E-07        -0.69673E-10         0.00000E+00
    0.14675E-07        -0.16885E-09         0.00000E+00
    0.14710E-07        -0.22513E-09         0.00000E+00
    0.14752E-07        -0.25171E-09         0.00000E+00
    0.14799E-07        -0.25881E-09         0.00000E+00
    0.14848E-07        -0.25401E-09         0.00000E+00
    0.14898E-07        -0.24264E-09         0.00000E+00
    0.14946E-07        -0.22813E-09         0.00000E+00
    0.14992E-07        -0.21233E-09         0.00000E+00
    0.15035E-07        -0.19574E-09         0.00000E+00
    0.15075E-07        -0.17769E-09         0.00000E+00
    0.15110E-07        -0.15634E-09         0.00000E+00
    0.15140E-07        -0.12875E-09         0.00000E+00
    0.15162E-07        -0.90779E-10         0.00000E+00
    0.15175E-07        -0.37150E-10         0.00000E+00
    0.16719E-07        -0.80353E-10         0.00000E+00
    0.16734E-07        -0.19447E-09         0.00000E+00
    0.16758E-07        -0.25945E-09         0.00000E+00
    0.16788E-07        -0.29083E-09         0.00000E+00
    0.16821E-07        -0.30031E-09         0.00000E+00
    0.16856E-07        -0.29629E-09         0.00000E+00
    0.16891E-07        -0.28458E-09         0.00000E+00
    0.16925E-07        -0.26882E-09         0.00000E+00
    0.16958E-07        -0.25101E-09         0.00000E+00
    0.16990E-07        -0.23171E-09         0.00000E+00
    0.17018E-07        -0.21022E-09         0.00000E+00
    0.17044E-07        -0.18461E-09         0.00000E+00
    0.17065E-07        -0.15165E-09         0.00000E+00
    0.17081E-07        -0.10673E-09         0.00000E+00
    0.17091E-07        -0.43660E-10         0.00000E+00
    0.18874E-07        -0.87093E-10         0.00000E+00
    0.18880E-07        -0.21014E-09         0.00000E+00
    0.18892E-07        -0.28007E-09         0.00000E+00
    0.18905E-07        -0.31429E-09         0.00000E+00
    0.18921E-07        -0.32544E-09         0.00000E+00
    0.18938E-07        -0.32231E-09         0.00000E+00
    0.18955E-07        -0.31082E-09         0.00000E+00
    0.18973E-07        -0.29465E-09         0.00000E+00
    0.18991E-07        -0.27578E-09         0.00000E+00
    0.19008E-07        -0.25480E-09         0.00000E+00
    0.19024E-07        -0.23107E-09         0.00000E+00
    0.19037E-07        -0.20266E-09         0.00000E+00
    0.19048E-07        -0.16628E-09         0.00000E+00
    0.19057E-07        -0.11700E-09         0.00000E+00
    0.19062E-07        -0.47963E-10         0.00000E+00
    0.21064E-07        -0.88687E-10         0.00000E+00
    0.21061E-07        -0.21319E-09         0.00000E+00
    0.21057E-07        -0.28380E-09         0.00000E+00
    0.21052E-07        -0.31890E-09         0.00000E+00
    0.21048E-07        -0.33127E-09         0.00000E+00
    0.21045E-07        -0.32947E-09         0.00000E+00
    0.21043E-07        -0.31907E-09         0.00000E+00
    0.21043E-07        -0.30352E-09         0.00000E+00
    0.21044E-07        -0.28468E-09         0.00000E+00
    0.21045E-07        -0.26315E-09         0.00000E+00
    0.21046E-07        -0.23840E-09         0.00000E+00
    0.21047E-07        -0.20873E-09         0.00000E+00
    0.21046E-07        -0.17099E-09         0.00000E+00
    0.21046E-07        -0.12029E-09         0.00000E+00
    0.21046E-07        -0.49458E-10         0.00000E+00
    0.23224E-07        -0.84097E-10         0.00000E+00
    0.23211E-07        -0.20152E-09         0.00000E+00
    0.23189E-07        -0.26840E-09         0.00000E+00
    0.23164E-07        -0.30275E-09         0.00000E+00
    0.23139E-07        -0.31631E-09         0.00000E+00
    0.23116E-07        -0.31660E-09         0.00000E+00
    0.23095E-07        -0.30841E-09         0.00000E+00
    0.23078E-07        -0.29464E-09         0.00000E+00
    0.23062E-07        -0.27696E-09         0.00000E+00
    0.23047E-07        -0.25597E-09         0.00000E+00
    0.23033E-07        -0.23137E-09         0.00000E+00
    0.23020E-07        -0.20183E-09         0.00000E+00
    0.23008E-07        -0.16472E-09         0.00000E+00
    0.22998E-07        -0.11565E-09         0.00000E+00
    0.22992E-07        -0.47639E-10         0.00000E+00
    0.25275E-07        -0.72645E-10         0.00000E+00
    0.25251E-07        -0.17413E-09         0.00000E+00
    0.25213E-07        -0.23333E-09         0.00000E+00
    0.25169E-07        -0.26590E-09         0.00000E+00
    0.25125E-07        -0.28110E-09         0.00000E+00
    0.25084E-07        -0.28453E-09         0.00000E+00
    0.25046E-07        -0.27970E-09         0.00000E+00
    0.25012E-07        -0.26887E-09         0.00000E+00
    0.24981E-07        -0.25339E-09         0.00000E+00
    0.24952E-07        -0.23390E-09         0.00000E+00
    0.24925E-07        -0.21040E-09         0.00000E+00
    0.24899E-07        -0.18212E-09         0.00000E+00
    0.24876E-07        -0.14731E-09         0.00000E+00
    0.24856E-07        -0.10265E-09         0.00000E+00
    0.24844E-07        -0.42179E-10         0.00000E+00
    0.27131E-07        -0.54266E-10         0.00000E+00
    0.27098E-07        -0.13177E-09         0.00000E+00
    0.27046E-07        -0.18061E-09         0.00000E+00
    0.26987E-07        -0.21129E-09         0.00000E+00
    0.26929E-07        -0.22892E-09         0.00000E+00
    0.26874E-07        -0.23644E-09         0.00000E+00
    0.26824E-07        -0.23591E-09         0.00000E+00
    0.26778E-07        -0.22884E-09         0.00000E+00
    0.26735E-07        -0.21636E-09         0.00000E+00
    0.26695E-07        -0.19914E-09         0.00000E+00
    0.26657E-07        -0.17747E-09         0.00000E+00
    0.26622E-07        -0.15123E-09         0.00000E+00
    0.26589E-07        -0.11985E-09         0.00000E+00
    0.26562E-07        -0.81726E-10         0.00000E+00
    0.26545E-07        -0.33028E-10         0.00000E+00
    0.28702E-07        -0.29861E-10         0.00000E+00
    0.28664E-07        -0.77977E-10         0.00000E+00
    0.28605E-07        -0.11597E-09         0.00000E+00
    0.28540E-07        -0.14550E-09         0.00000E+00
    0.28476E-07        -0.16613E-09         0.00000E+00
    0.28415E-07        -0.17801E-09         0.00000E+00
    0.28359E-07        -0.18192E-09         0.00000E+00
    0.28305E-07        -0.17888E-09         0.00000E+00
    0.28256E-07        -0.16980E-09         0.00000E+00
    0.28209E-07        -0.15541E-09         0.00000E+00
    0.28166E-07        -0.13621E-09         0.00000E+00
    0.28125E-07        -0.11261E-09         0.00000E+00
    0.28087E-07        -0.85129E-10         0.00000E+00
    0.28055E-07        -0.54519E-10         0.00000E+00
    0.28035E-07        -0.20528E-10         0.00000E+00
    0.29902E-07        -0.19928E-11         0.00000E+00
    0.29867E-07        -0.20895E-10         0.00000E+00
    0.29814E-07        -0.50430E-10         0.00000E+00
    0.29756E-07        -0.79323E-10         0.00000E+00
    0.29698E-07        -0.10201E-09         0.00000E+00
    0.29641E-07        -0.11685E-09         0.00000E+00
    0.29585E-07        -0.12404E-09         0.00000E+00
    0.29531E-07        -0.12435E-09         0.00000E+00
    0.29480E-07        -0.11863E-09         0.00000E+00
    0.29432E-07        -0.10756E-09         0.00000E+00
    0.29388E-07        -0.91677E-10         0.00000E+00
    0.29348E-07        -0.71574E-10         0.00000E+00
    0.29312E-07        -0.48371E-10         0.00000E+00
    0.29281E-07        -0.24598E-10         0.00000E+00
    0.29261E-07        -0.57155E-11         0.00000E+00
    0.30652E-07         0.23261E-10         0.00000E+00
    0.30636E-07         0.22161E-10         0.00000E+00
    0.30612E-07        -0.17118E-11         0.00000E+00
    0.30580E-07        -0.27104E-10         0.00000E+00
    0.30541E-07        -0.47438E-10         0.00000E+00
    0.30497E-07        -0.61237E-10         0.00000E+00
    0.30449E-07        -0.68764E-10         0.00000E+00
    0.30400E-07        -0.70745E-10         0.00000E+00
    0.30353E-07        -0.67886E-10         0.00000E+00
    0.30309E-07        -0.60713E-10         0.00000E+00
    0.30269E-07        -0.49598E-10         0.00000E+00
    0.30236E-07        -0.34929E-10         0.00000E+00
    0.30210E-07        -0.17596E-10         0.00000E+00
    0.30191E-07        -0.12480E-12         0.00000E+00
    0.30178E-07         0.97156E-11         0.00000E+00
    0.30887E-07         0.17080E-10         0.00000E+00
    0.30936E-07         0.18612E-10         0.00000E+00
    0.30971E-07         0.78889E-11         0.00000E+00
    0.30983E-07        -0.32251E-11         0.00000E+00
    0.30974E-07        -0.11968E-10         0.00000E+00
    0.30949E-07        -0.17914E-10         0.00000E+00
    0.30914E-07        -0.21281E-10         0.00000E+00
    0.30874E-07        -0.22414E-10         0.00000E+00
    0.30833E-07        -0.21612E-10         0.00000E+00
    0.30795E-07        -0.19082E-10         0.00000E+00
    0.30764E-07        -0.14947E-10         0.00000E+00
    0.30743E-07        -0.93095E-11         0.00000E+00
    0.30735E-07        -0.24408E-11         0.00000E+00
    0.30741E-07         0.46512E-11         0.00000E+00
    0.30760E-07         0.86733E-11         0.00000E+00
POINT_DATA        496
VECTORS vDarcyNodal double 
    0.26963E-08         0.00000E+00         0.00000E+00
    0.26692E-08         0.00000E+00         0.00000E+00
    0.26074E-08         0.00000E+00         0.00000E+00
    0.25256E-08         0.00000E+00         0.00000E+00
    0.24318E-08         0.00000E+00         0.00000E+00
    0.23314E-08         0.00000E+00         0.00000E+00
    0.22285E-08         0.00000E+00         0.00000E+00
    0.21262E-08         0.00000E+00         0.00000E+00
    0.20270E-08         0.00000E+00         0.00000E+00
    0.19331E-08         0.00000E+00         0.00000E+00
    0.18464E-08         0.00000E+00         0.00000E+00
    0.17687E-08         0.00000E+00         0.00000E+00
    0.17020E-08        -0.33268E-22         0.00000E+00
    0.16487E-08        -0.83057E-27         0.00000E+00
    0.16117E-08         0.33267E-22         0.00000E+00
    0.15959E-08         0.00000E+00         0.00000E+00
    0.25752E-08         0.26990E-10         0.00000E+00
    0.25548E-08         0.44292E-10         0.00000E+00
    0.25041E-08         0.71662E-10         0.00000E+00
    0.24340E-08         0.87732E-10         0.00000E+00
    0.23516E-08         0.96997E-10         0.00000E+00
    0.22623E-08         0.10152E-09         0.00000E+00
    0.21698E-08         0.10250E-09         0.00000E+00
    0.20772E-08         0.10066E-09         0.00000E+00
    0.19872E-08         0.96494E-10         0.00000E+00
    0.19017E-08         0.90284E-10         0.00000E+00
    0.18229E-08         0.82164E-10         0.00000E+00
    0.17525E-08         0.72116E-10         0.00000E+00
    0.16927E-08         0.59935E-10         0.00000E+00
    0.16455E-08         0.45108E-10         0.00000E+00
    0.16138E-08         0.26399E-10         0.00000E+00
    0.16016E-08         0.15855E-10         0.00000E+00
    0.23654E-08         0.40701E-10         0.00000E+00
    0.23540E-08         0.70917E-10         0.00000E+00
    0.23209E-08         0.12060E-09         0.00000E+00
    0.22711E-08         0.15226E-09         0.00000E+00
    0.22096E-08         0.17149E-09         0.00000E+00
    0.21408E-08         0.18166E-09         0.00000E+00
    0.20681E-08         0.18485E-09         0.00000E+00
    0.19943E-08         0.18246E-09         0.00000E+00
    0.19219E-08         0.17538E-09         0.00000E+00
    0.18530E-08         0.16416E-09         0.00000E+00
    0.17894E-08         0.14908E-09         0.00000E+00
    0.17332E-08         0.13013E-09         0.00000E+00
    0.16860E-08         0.10696E-09         0.00000E+00
    0.16500E-08         0.78760E-10         0.00000E+00
    0.16272E-08         0.43840E-10         0.00000E+00
    0.16197E-08         0.24414E-10         0.00000E+00
    0.22170E-08         0.49663E-10         0.00000E+00
    0.22095E-08         0.88589E-10         0.00000E+00
    0.21874E-08         0.15434E-09         0.00000E+00
    0.21527E-08         0.19881E-09         0.00000E+00
    0.21082E-08         0.22709E-09         0.00000E+00
    0.20571E-08         0.24291E-09         0.00000E+00
    0.20020E-08         0.24885E-09         0.00000E+00
    0.19454E-08         0.24671E-09         0.00000E+00
    0.18894E-08         0.23770E-09         0.00000E+00
    0.18360E-08         0.22261E-09         0.00000E+00
    0.17867E-08         0.20184E-09         0.00000E+00
    0.17433E-08         0.17543E-09         0.00000E+00
    0.17073E-08         0.14304E-09         0.00000E+00
    0.16803E-08         0.10387E-09         0.00000E+00
    0.16637E-08         0.56607E-10         0.00000E+00
    0.16582E-08         0.30766E-10         0.00000E+00
    0.21280E-08         0.55539E-10         0.00000E+00
    0.21232E-08         0.10034E-09         0.00000E+00
    0.21088E-08         0.17728E-09         0.00000E+00
    0.20856E-08         0.23131E-09         0.00000E+00
    0.20550E-08         0.26692E-09         0.00000E+00
    0.20191E-08         0.28769E-09         0.00000E+00
    0.19798E-08         0.29634E-09         0.00000E+00
    0.19389E-08         0.29488E-09         0.00000E+00
    0.18980E-08         0.28471E-09         0.00000E+00
    0.18588E-08         0.26679E-09         0.00000E+00
    0.18227E-08         0.24164E-09         0.00000E+00
    0.17909E-08         0.20939E-09         0.00000E+00
    0.17648E-08         0.16982E-09         0.00000E+00
    0.17454E-08         0.12230E-09         0.00000E+00
    0.17335E-08         0.65933E-10         0.00000E+00
    0.17296E-08         0.35408E-10         0.00000E+00
    0.21016E-08         0.59109E-10         0.00000E+00
    0.20989E-08         0.10761E-09         0.00000E+00
    0.20907E-08         0.19178E-09         0.00000E+00
    0.20769E-08         0.25238E-09         0.00000E+00
    0.20581E-08         0.29335E-09         0.00000E+00
    0.20356E-08         0.31800E-09         0.00000E+00
    0.20103E-08         0.32899E-09         0.00000E+00
    0.19836E-08         0.32837E-09         0.00000E+00
    0.19566E-08         0.31764E-09         0.00000E+00
    0.19306E-08         0.29784E-09         0.00000E+00
    0.19065E-08         0.26960E-09         0.00000E+00
    0.18854E-08         0.23317E-09         0.00000E+00
    0.18682E-08         0.18846E-09         0.00000E+00
    0.18554E-08         0.13507E-09         0.00000E+00
    0.18477E-08         0.72378E-10         0.00000E+00
    0.18451E-08         0.38624E-10         0.00000E+00
    0.21437E-08         0.60744E-10         0.00000E+00
    0.21429E-08         0.11113E-09         0.00000E+00
    0.21399E-08         0.19917E-09         0.00000E+00
    0.21343E-08         0.26364E-09         0.00000E+00
    0.21260E-08         0.30804E-09         0.00000E+00
    0.21154E-08         0.33539E-09         0.00000E+00
    0.21029E-08         0.34818E-09         0.00000E+00
    0.20892E-08         0.34840E-09         0.00000E+00
    0.20751E-08         0.33756E-09         0.00000E+00
    0.20613E-08         0.31674E-09         0.00000E+00
    0.20485E-08         0.28664E-09         0.00000E+00
    0.20372E-08         0.24763E-09         0.00000E+00
    0.20281E-08         0.19973E-09         0.00000E+00
    0.20214E-08         0.14274E-09         0.00000E+00
    0.20174E-08         0.76230E-10         0.00000E+00
    0.20161E-08         0.40539E-10         0.00000E+00
    0.22621E-08         0.60620E-10         0.00000E+00
    0.22630E-08         0.11126E-09         0.00000E+00
    0.22649E-08         0.20018E-09         0.00000E+00
    0.22668E-08         0.26609E-09         0.00000E+00
    0.22681E-08         0.31211E-09         0.00000E+00
    0.22684E-08         0.34098E-09         0.00000E+00
    0.22677E-08         0.35498E-09         0.00000E+00
    0.22662E-08         0.35597E-09         0.00000E+00
    0.22641E-08         0.34539E-09         0.00000E+00
    0.22617E-08         0.32433E-09         0.00000E+00
    0.22594E-08         0.29353E-09         0.00000E+00
    0.22574E-08         0.25342E-09         0.00000E+00
    0.22559E-08         0.20415E-09         0.00000E+00
    0.22549E-08         0.14565E-09         0.00000E+00
    0.22545E-08         0.77639E-10         0.00000E+00
    0.22544E-08         0.41212E-10         0.00000E+00
    0.24660E-08         0.58798E-10         0.00000E+00
    0.24686E-08         0.10816E-09         0.00000E+00
    0.24752E-08         0.19517E-09         0.00000E+00
    0.24843E-08         0.26027E-09         0.00000E+00
    0.24946E-08         0.30625E-09         0.00000E+00
    0.25053E-08         0.33555E-09         0.00000E+00
    0.25158E-08         0.35018E-09         0.00000E+00
    0.25257E-08         0.35184E-09         0.00000E+00
    0.25349E-08         0.34186E-09         0.00000E+00
    0.25433E-08         0.32127E-09         0.00000E+00
    0.25510E-08         0.29083E-09         0.00000E+00
    0.25577E-08         0.25101E-09         0.00000E+00
    0.25635E-08         0.20206E-09         0.00000E+00
    0.25680E-08         0.14401E-09         0.00000E+00
    0.25711E-08         0.76681E-10         0.00000E+00
    0.25722E-08         0.40662E-10         0.00000E+00
    0.27663E-08         0.55272E-10         0.00000E+00
    0.27706E-08         0.10187E-09         0.00000E+00
    0.27819E-08         0.18429E-09         0.00000E+00
    0.27980E-08         0.24648E-09         0.00000E+00
    0.28170E-08         0.29089E-09         0.00000E+00
    0.28376E-08         0.31961E-09         0.00000E+00
    0.28587E-08         0.33437E-09         0.00000E+00
    0.28795E-08         0.33662E-09         0.00000E+00
    0.28995E-08         0.32754E-09         0.00000E+00
    0.29182E-08         0.30809E-09         0.00000E+00
    0.29353E-08         0.27899E-09         0.00000E+00
    0.29504E-08         0.24076E-09         0.00000E+00
    0.29631E-08         0.19370E-09         0.00000E+00
    0.29730E-08         0.13795E-09         0.00000E+00
    0.29795E-08         0.73390E-10         0.00000E+00
    0.29818E-08         0.38889E-10         0.00000E+00
    0.31749E-08         0.50000E-10         0.00000E+00
    0.31810E-08         0.92359E-10         0.00000E+00
    0.31969E-08         0.16757E-09         0.00000E+00
    0.32199E-08         0.22488E-09         0.00000E+00
    0.32474E-08         0.26633E-09         0.00000E+00
    0.32776E-08         0.29358E-09         0.00000E+00
    0.33089E-08         0.30803E-09         0.00000E+00
    0.33400E-08         0.31082E-09         0.00000E+00
    0.33702E-08         0.30297E-09         0.00000E+00
    0.33986E-08         0.28527E-09         0.00000E+00
    0.34247E-08         0.25843E-09         0.00000E+00
    0.34478E-08         0.22297E-09         0.00000E+00
    0.34672E-08         0.17928E-09         0.00000E+00
    0.34823E-08         0.12755E-09         0.00000E+00
    0.34921E-08         0.67787E-10         0.00000E+00
    0.34957E-08         0.35887E-10         0.00000E+00
    0.37047E-08         0.42932E-10         0.00000E+00
    0.37126E-08         0.79577E-10         0.00000E+00
    0.37332E-08         0.14502E-09         0.00000E+00
    0.37630E-08         0.19561E-09         0.00000E+00
    0.37988E-08         0.23284E-09         0.00000E+00
    0.38381E-08         0.25787E-09         0.00000E+00
    0.38790E-08         0.27166E-09         0.00000E+00
    0.39199E-08         0.27502E-09         0.00000E+00
    0.39596E-08         0.26870E-09         0.00000E+00
    0.39971E-08         0.25335E-09         0.00000E+00
    0.40316E-08         0.22961E-09         0.00000E+00
    0.40622E-08         0.19801E-09         0.00000E+00
    0.40880E-08         0.15901E-09         0.00000E+00
    0.41080E-08         0.11293E-09         0.00000E+00
    0.41211E-08         0.59900E-10         0.00000E+00
    0.41259E-08         0.31651E-10         0.00000E+00
    0.43694E-08         0.34039E-10         0.00000E+00
    0.43790E-08         0.63520E-10         0.00000E+00
    0.44043E-08         0.11672E-09         0.00000E+00
    0.44406E-08         0.15889E-09         0.00000E+00
    0.44842E-08         0.19082E-09         0.00000E+00
    0.45320E-08         0.21302E-09         0.00000E+00
    0.45818E-08         0.22592E-09         0.00000E+00
    0.46316E-08         0.22991E-09         0.00000E+00
    0.46800E-08         0.22544E-09         0.00000E+00
    0.47258E-08         0.21299E-09         0.00000E+00
    0.47679E-08         0.19310E-09         0.00000E+00
    0.48054E-08         0.16634E-09         0.00000E+00
    0.48371E-08         0.13324E-09         0.00000E+00
    0.48617E-08         0.94284E-10         0.00000E+00
    0.48779E-08         0.49798E-10         0.00000E+00
    0.48838E-08         0.26200E-10         0.00000E+00
    0.51824E-08         0.23342E-10         0.00000E+00
    0.51938E-08         0.44271E-10         0.00000E+00
    0.52233E-08         0.82930E-10         0.00000E+00
    0.52657E-08         0.11518E-09         0.00000E+00
    0.53164E-08         0.14090E-09         0.00000E+00
    0.53718E-08         0.15982E-09         0.00000E+00
    0.54294E-08         0.17171E-09         0.00000E+00
    0.54870E-08         0.17646E-09         0.00000E+00
    0.55429E-08         0.17416E-09         0.00000E+00
    0.55959E-08         0.16509E-09         0.00000E+00
    0.56447E-08         0.14971E-09         0.00000E+00
    0.56881E-08         0.12859E-09         0.00000E+00
    0.57250E-08         0.10243E-09         0.00000E+00
    0.57538E-08         0.71907E-10         0.00000E+00
    0.57727E-08         0.37611E-10         0.00000E+00
    0.57798E-08         0.19586E-10         0.00000E+00
    0.61566E-08         0.10942E-10         0.00000E+00
    0.61695E-08         0.22064E-10         0.00000E+00
    0.62028E-08         0.44140E-10         0.00000E+00
    0.62504E-08         0.65248E-10         0.00000E+00
    0.63070E-08         0.84100E-10         0.00000E+00
    0.63688E-08         0.99457E-10         0.00000E+00
    0.64326E-08         0.11031E-09         0.00000E+00
    0.64964E-08         0.11599E-09         0.00000E+00
    0.65583E-08         0.11617E-09         0.00000E+00
    0.66170E-08         0.11089E-09         0.00000E+00
    0.66710E-08         0.10052E-09         0.00000E+00
    0.67193E-08         0.85709E-10         0.00000E+00
    0.67603E-08         0.67303E-10         0.00000E+00
    0.67925E-08         0.46268E-10         0.00000E+00
    0.68138E-08         0.23565E-10         0.00000E+00
    0.68219E-08         0.11912E-10         0.00000E+00
    0.73028E-08        -0.29446E-11         0.00000E+00
    0.73170E-08        -0.26693E-11         0.00000E+00
    0.73533E-08         0.11980E-11         0.00000E+00
    0.74047E-08         0.10288E-10         0.00000E+00
    0.74657E-08         0.21884E-10         0.00000E+00
    0.75318E-08         0.33591E-10         0.00000E+00
    0.76000E-08         0.43506E-10         0.00000E+00
    0.76679E-08         0.50296E-10         0.00000E+00
    0.77338E-08         0.53200E-10         0.00000E+00
    0.77962E-08         0.52011E-10         0.00000E+00
    0.78537E-08         0.47016E-10         0.00000E+00
    0.79052E-08         0.38934E-10         0.00000E+00
    0.79491E-08         0.28836E-10         0.00000E+00
    0.79838E-08         0.18044E-10         0.00000E+00
    0.80069E-08         0.80002E-11         0.00000E+00
    0.80156E-08         0.33489E-11         0.00000E+00
    0.86289E-08        -0.17957E-10         0.00000E+00
    0.86438E-08        -0.29246E-10         0.00000E+00
    0.86819E-08        -0.44627E-10         0.00000E+00
    0.87354E-08        -0.47977E-10         0.00000E+00
    0.87985E-08        -0.43710E-10         0.00000E+00
    0.88665E-08        -0.35552E-10         0.00000E+00
    0.89365E-08        -0.26405E-10         0.00000E+00
    0.90060E-08        -0.18315E-10         0.00000E+00
    0.90733E-08        -0.12510E-10         0.00000E+00
    0.91370E-08        -0.94537E-11         0.00000E+00
    0.91958E-08        -0.89286E-11         0.00000E+00
    0.92486E-08        -0.10113E-10         0.00000E+00
    0.92938E-08        -0.11670E-10         0.00000E+00
    0.93296E-08        -0.11845E-10         0.00000E+00
    0.93536E-08        -0.85991E-11         0.00000E+00
    0.93628E-08        -0.58529E-11         0.00000E+00
    0.10138E-07        -0.33565E-10         0.00000E+00
    0.10153E-07        -0.56688E-10         0.00000E+00
    0.10191E-07        -0.91589E-10         0.00000E+00
    0.10244E-07        -0.10725E-09         0.00000E+00
    0.10307E-07        -0.11004E-09         0.00000E+00
    0.10374E-07        -0.10515E-09         0.00000E+00
    0.10442E-07        -0.96549E-10         0.00000E+00
    0.10510E-07        -0.87019E-10         0.00000E+00
    0.10576E-07        -0.78258E-10         0.00000E+00
    0.10638E-07        -0.70980E-10         0.00000E+00
    0.10696E-07        -0.65022E-10         0.00000E+00
    0.10747E-07        -0.59440E-10         0.00000E+00
    0.10792E-07        -0.52589E-10         0.00000E+00
    0.10827E-07        -0.42222E-10         0.00000E+00
    0.10851E-07        -0.25598E-10         0.00000E+00
    0.10861E-07        -0.15353E-10         0.00000E+00
    0.11826E-07        -0.49050E-10         0.00000E+00
    0.11840E-07        -0.83708E-10         0.00000E+00
    0.11877E-07        -0.13744E-09         0.00000E+00
    0.11927E-07        -0.16467E-09         0.00000E+00
    0.11985E-07        -0.17389E-09         0.00000E+00
    0.12048E-07        -0.17184E-09         0.00000E+00
    0.12111E-07        -0.16355E-09         0.00000E+00
    0.12174E-07        -0.15253E-09         0.00000E+00
    0.12235E-07        -0.14092E-09         0.00000E+00
    0.12293E-07        -0.12966E-09         0.00000E+00
    0.12346E-07        -0.11861E-09         0.00000E+00
    0.12394E-07        -0.10671E-09         0.00000E+00
    0.12435E-07        -0.91987E-10         0.00000E+00
    0.12469E-07        -0.71657E-10         0.00000E+00
    0.12491E-07        -0.42206E-10         0.00000E+00
    0.12500E-07        -0.24717E-10         0.00000E+00
    0.13681E-07        -0.63502E-10         0.00000E+00
    0.13694E-07        -0.10870E-09         0.00000E+00
    0.13726E-07        -0.17945E-09         0.00000E+00
    0.13770E-07        -0.21684E-09         0.00000E+00
    0.13821E-07        -0.23154E-09         0.00000E+00
    0.13874E-07        -0.23180E-09         0.00000E+00
    0.13929E-07        -0.22366E-09         0.00000E+00
    0.13983E-07        -0.21126E-09         0.00000E+00
    0.14036E-07        -0.19710E-09         0.00000E+00
    0.14086E-07        -0.18232E-09         0.00000E+00
    0.14132E-07        -0.16680E-09         0.00000E+00
    0.14173E-07        -0.14935E-09         0.00000E+00
    0.14209E-07        -0.12769E-09         0.00000E+00
    0.14238E-07        -0.98512E-10         0.00000E+00
    0.14258E-07        -0.57495E-10         0.00000E+00
    0.14266E-07        -0.33423E-10         0.00000E+00
    0.15682E-07        -0.75841E-10         0.00000E+00
    0.15692E-07        -0.12981E-09         0.00000E+00
    0.15717E-07        -0.21453E-09         0.00000E+00
    0.15751E-07        -0.26000E-09         0.00000E+00
    0.15790E-07        -0.27897E-09         0.00000E+00
    0.15831E-07        -0.28101E-09         0.00000E+00
    0.15873E-07        -0.27299E-09         0.00000E+00
    0.15915E-07        -0.25951E-09         0.00000E+00
    0.15956E-07        -0.24335E-09         0.00000E+00
    0.15994E-07        -0.22575E-09         0.00000E+00
    0.16030E-07        -0.20662E-09         0.00000E+00
    0.16063E-07        -0.18468E-09         0.00000E+00
    0.16091E-07        -0.15740E-09         0.00000E+00
    0.16114E-07        -0.12101E-09         0.00000E+00
    0.16130E-07        -0.70434E-10         0.00000E+00
    0.16136E-07        -0.40877E-10         0.00000E+00
    0.17793E-07        -0.84863E-10         0.00000E+00
    0.17800E-07        -0.14500E-09         0.00000E+00
    0.17815E-07        -0.23938E-09         0.00000E+00
    0.17835E-07        -0.29027E-09         0.00000E+00
    0.17858E-07        -0.31216E-09         0.00000E+00
    0.17884E-07        -0.31558E-09         0.00000E+00
    0.17910E-07        -0.30787E-09         0.00000E+00
    0.17936E-07        -0.29388E-09         0.00000E+00
    0.17962E-07        -0.27648E-09         0.00000E+00
    0.17987E-07        -0.25697E-09         0.00000E+00
    0.18010E-07        -0.23530E-09         0.00000E+00
    0.18031E-07        -0.21014E-09         0.00000E+00
    0.18050E-07        -0.17886E-09         0.00000E+00
    0.18064E-07        -0.13736E-09         0.00000E+00
    0.18074E-07        -0.79950E-10         0.00000E+00
    0.18078E-07        -0.46442E-10         0.00000E+00
    0.19968E-07        -0.89321E-10         0.00000E+00
    0.19970E-07        -0.15222E-09         0.00000E+00
    0.19972E-07        -0.25082E-09         0.00000E+00
    0.19976E-07        -0.30408E-09         0.00000E+00
    0.19981E-07        -0.32756E-09         0.00000E+00
    0.19987E-07        -0.33217E-09         0.00000E+00
    0.19995E-07        -0.32526E-09         0.00000E+00
    0.20004E-07        -0.31159E-09         0.00000E+00
    0.20013E-07        -0.29394E-09         0.00000E+00
    0.20022E-07        -0.27360E-09         0.00000E+00
    0.20031E-07        -0.25056E-09         0.00000E+00
    0.20039E-07        -0.22358E-09         0.00000E+00
    0.20045E-07        -0.19009E-09         0.00000E+00
    0.20050E-07        -0.14592E-09         0.00000E+00
    0.20053E-07        -0.85012E-10         0.00000E+00
    0.20054E-07        -0.49484E-10         0.00000E+00
    0.22146E-07        -0.88051E-10         0.00000E+00
    0.22142E-07        -0.14965E-09         0.00000E+00
    0.22131E-07        -0.24616E-09         0.00000E+00
    0.22116E-07        -0.29862E-09         0.00000E+00
    0.22100E-07        -0.32261E-09         0.00000E+00
    0.22086E-07        -0.32858E-09         0.00000E+00
    0.22074E-07        -0.32328E-09         0.00000E+00
    0.22064E-07        -0.31100E-09         0.00000E+00
    0.22056E-07        -0.29425E-09         0.00000E+00
    0.22049E-07        -0.27422E-09         0.00000E+00
    0.22043E-07        -0.25099E-09         0.00000E+00
    0.22036E-07        -0.22355E-09         0.00000E+00
    0.22030E-07        -0.18964E-09         0.00000E+00
    0.22024E-07        -0.14537E-09         0.00000E+00
    0.22019E-07        -0.84740E-10         0.00000E+00
    0.22018E-07        -0.49432E-10         0.00000E+00
    0.24255E-07        -0.80142E-10         0.00000E+00
    0.24244E-07        -0.13597E-09         0.00000E+00
    0.24218E-07        -0.22376E-09         0.00000E+00
    0.24184E-07        -0.27253E-09         0.00000E+00
    0.24149E-07        -0.29644E-09         0.00000E+00
    0.24115E-07        -0.30434E-09         0.00000E+00
    0.24084E-07        -0.30173E-09         0.00000E+00
    0.24057E-07        -0.29205E-09         0.00000E+00
    0.24032E-07        -0.27735E-09         0.00000E+00
    0.24010E-07        -0.25871E-09         0.00000E+00
    0.23989E-07        -0.23636E-09         0.00000E+00
    0.23969E-07        -0.20965E-09         0.00000E+00
    0.23950E-07        -0.17691E-09         0.00000E+00
    0.23933E-07        -0.13500E-09         0.00000E+00
    0.23921E-07        -0.78545E-10         0.00000E+00
    0.23915E-07        -0.45846E-10         0.00000E+00
    0.26212E-07        -0.65150E-10         0.00000E+00
    0.26195E-07        -0.11081E-09         0.00000E+00
    0.26155E-07        -0.18370E-09         0.00000E+00
    0.26104E-07        -0.22671E-09         0.00000E+00
    0.26052E-07        -0.25056E-09         0.00000E+00
    0.26002E-07        -0.26130E-09         0.00000E+00
    0.25956E-07        -0.26251E-09         0.00000E+00
    0.25914E-07        -0.25653E-09         0.00000E+00
    0.25876E-07        -0.24490E-09         0.00000E+00
    0.25840E-07        -0.22858E-09         0.00000E+00
    0.25807E-07        -0.20794E-09         0.00000E+00
    0.25775E-07        -0.18287E-09         0.00000E+00
    0.25745E-07        -0.15251E-09         0.00000E+00
    0.25719E-07        -0.11496E-09         0.00000E+00
    0.25699E-07        -0.66285E-10         0.00000E+00
    0.25690E-07        -0.38513E-10         0.00000E+00
    0.27929E-07        -0.43387E-10         0.00000E+00
    0.27906E-07        -0.75233E-10         0.00000E+00
    0.27856E-07        -0.12868E-09         0.00000E+00
    0.27795E-07        -0.16520E-09         0.00000E+00
    0.27733E-07        -0.18965E-09         0.00000E+00
    0.27673E-07        -0.20407E-09         0.00000E+00
    0.27617E-07        -0.20985E-09         0.00000E+00
    0.27565E-07        -0.20823E-09         0.00000E+00
    0.27518E-07        -0.20031E-09         0.00000E+00
    0.27473E-07        -0.18693E-09         0.00000E+00
    0.27431E-07        -0.16866E-09         0.00000E+00
    0.27392E-07        -0.14584E-09         0.00000E+00
    0.27355E-07        -0.11857E-09         0.00000E+00
    0.27322E-07        -0.86613E-10         0.00000E+00
    0.27296E-07        -0.48470E-10         0.00000E+00
    0.27284E-07        -0.27543E-10         0.00000E+00
    0.29316E-07        -0.16342E-10         0.00000E+00
    0.29291E-07        -0.32615E-10         0.00000E+00
    0.29240E-07        -0.65274E-10         0.00000E+00
    0.29179E-07        -0.96277E-10         0.00000E+00
    0.29117E-07        -0.12199E-09         0.00000E+00
    0.29057E-07        -0.14007E-09         0.00000E+00
    0.28999E-07        -0.15009E-09         0.00000E+00
    0.28944E-07        -0.15258E-09         0.00000E+00
    0.28892E-07        -0.14838E-09         0.00000E+00
    0.28844E-07        -0.13829E-09         0.00000E+00
    0.28798E-07        -0.12296E-09         0.00000E+00
    0.28756E-07        -0.10298E-09         0.00000E+00
    0.28717E-07        -0.79173E-10         0.00000E+00
    0.28682E-07        -0.53039E-10         0.00000E+00
    0.28654E-07        -0.26579E-10         0.00000E+00
    0.28641E-07        -0.13514E-10         0.00000E+00
    0.30290E-07         0.12349E-10         0.00000E+00
    0.30269E-07         0.97167E-11         0.00000E+00
    0.30234E-07        -0.60628E-11         0.00000E+00
    0.30191E-07        -0.33487E-10         0.00000E+00
    0.30145E-07        -0.59355E-10         0.00000E+00
    0.30095E-07        -0.78797E-10         0.00000E+00
    0.30043E-07        -0.90807E-10         0.00000E+00
    0.29991E-07        -0.95815E-10         0.00000E+00
    0.29940E-07        -0.94606E-10         0.00000E+00
    0.29893E-07        -0.87905E-10         0.00000E+00
    0.29848E-07        -0.76283E-10         0.00000E+00
    0.29809E-07        -0.60272E-10         0.00000E+00
    0.29775E-07        -0.40776E-10         0.00000E+00
    0.29747E-07        -0.19934E-10         0.00000E+00
    0.29726E-07        -0.37367E-11         0.00000E+00
    0.29712E-07         0.20818E-11         0.00000E+00
    0.30766E-07         0.34169E-10         0.00000E+00
    0.30778E-07         0.35700E-10         0.00000E+00
    0.30792E-07         0.26506E-10         0.00000E+00
    0.30790E-07         0.46646E-11         0.00000E+00
    0.30773E-07        -0.15195E-10         0.00000E+00
    0.30742E-07        -0.29886E-10         0.00000E+00
    0.30703E-07        -0.39201E-10         0.00000E+00
    0.30659E-07        -0.43701E-10         0.00000E+00
    0.30614E-07        -0.44032E-10         0.00000E+00
    0.30571E-07        -0.40700E-10         0.00000E+00
    0.30533E-07        -0.34034E-10         0.00000E+00
    0.30501E-07        -0.24259E-10         0.00000E+00
    0.30478E-07        -0.11752E-10         0.00000E+00
    0.30467E-07         0.22106E-11         0.00000E+00
    0.30466E-07         0.13326E-10         0.00000E+00
    0.30469E-07         0.17348E-10         0.00000E+00
    0.30869E-07         0.00000E+00         0.00000E+00
    0.30910E-07         0.00000E+00         0.00000E+00
    0.30959E-07        -0.86930E-22         0.00000E+00
    0.30983E-07         0.20227E-25         0.00000E+00
    0.30983E-07         0.91090E-22         0.00000E+00
    0.30964E-07         0.00000E+00         0.00000E+00
    0.30933E-07         0.00000E+00         0.00000E+00
    0.30894E-07        -0.87001E-22         0.00000E+00
    0.30853E-07        -0.87001E-22         0.00000E+00
    0.30813E-07         0.87019E-22         0.00000E+00
    0.30778E-07         0.91163E-22         0.00000E+00
    0.30751E-07        -0.91181E-22         0.00000E+00
    0.30735E-07        -0.41355E-23         0.00000E+00
    0.30734E-07         0.91192E-22         0.00000E+00
    0.30748E-07         0.82912E-23         0.00000E+00
    0.30769E-07         0.00000E+00         0.00000E+00
CELL_DATA        450
TENSORS stressef double 
    0.12751E+08        -0.45949E+05         0.00000E+00
   -0.45949E+05        -0.21774E+06         0.00000E+00
    0.00000E+00         0.00000E+00         0.25067E+07
 
    0.11673E+08        -0.25892E+05         0.00000E+00
   -0.25892E+05        -0.26649E+06         0.00000E+00
    0.00000E+00         0.00000E+00         0.22813E+07
 
    0.10722E+08         0.86197E+02         0.00000E+00
    0.86197E+02        -0.27953E+06         0.00000E+00
    0.00000E+00         0.00000E+00         0.20886E+07
 
    0.98104E+07         0.20154E+05         0.00000E+00
    0.20154E+05        -0.25112E+06         0.00000E+00
    0.00000E+00         0.00000E+00         0.19119E+07
 
    0.89203E+07         0.36143E+05         0.00000E+00
    0.36143E+05        -0.18811E+06         0.00000E+00
    0.00000E+00         0.00000E+00         0.17464E+07
 
    0.80483E+07         0.49196E+05         0.00000E+00
    0.49196E+05        -0.96850E+05         0.00000E+00
    0.00000E+00         0.00000E+00         0.15903E+07
 
    0.71946E+07         0.60353E+05         0.00000E+00
    0.60353E+05         0.18113E+05         0.00000E+00
    0.00000E+00         0.00000E+00         0.14425E+07
 
    0.63603E+07         0.70419E+05         0.00000E+00
    0.70419E+05         0.15389E+06         0.00000E+00
    0.00000E+00         0.00000E+00         0.13028E+07
 
    0.55462E+07         0.79989E+05         0.00000E+00
    0.79989E+05         0.30894E+06         0.00000E+00
    0.00000E+00         0.00000E+00         0.11710E+07
 
    0.47522E+07         0.89501E+05         0.00000E+00
    0.89501E+05         0.48270E+06         0.00000E+00
    0.00000E+00         0.00000E+00         0.10470E+07
 
    0.39771E+07         0.99318E+05         0.00000E+00
    0.99318E+05         0.67541E+06         0.00000E+00
    0.00000E+00         0.00000E+00         0.93050E+06
 
    0.32179E+07         0.10990E+06         0.00000E+00
    0.10990E+06         0.88809E+06         0.00000E+00
    0.00000E+00         0.00000E+00         0.82120E+06
 
    0.24681E+07         0.12227E+06         0.00000E+00
    0.12227E+06         0.11232E+07         0.00000E+00
    0.00000E+00         0.00000E+00         0.71825E+06
 
    0.17127E+07         0.13901E+06         0.00000E+00
    0.13901E+06         0.13867E+07         0.00000E+00
    0.00000E+00         0.00000E+00         0.61990E+06
 
    0.89963E+06         0.17897E+06         0.00000E+00
    0.17897E+06         0.16998E+07         0.00000E+00
    0.00000E+00         0.00000E+00         0.51989E+06
 
    0.12338E+08        -0.47605E+05         0.00000E+00
   -0.47605E+05        -0.53485E+06         0.00000E+00
    0.00000E+00         0.00000E+00         0.23607E+07
 
    0.11359E+08        -0.40067E+05         0.00000E+00
   -0.40067E+05        -0.50708E+06         0.00000E+00
    0.00000E+00         0.00000E+00         0.21704E+07
 
    0.10415E+08         0.12536E+05         0.00000E+00
    0.12536E+05        -0.47392E+06         0.00000E+00
    0.00000E+00         0.00000E+00         0.19883E+07
 
    0.95084E+07         0.63222E+05         0.00000E+00
    0.63222E+05        -0.41925E+06         0.00000E+00
    0.00000E+00         0.00000E+00         0.18178E+07
 
    0.86247E+07         0.10629E+06         0.00000E+00
    0.10629E+06        -0.34026E+06         0.00000E+00
    0.00000E+00         0.00000E+00         0.16569E+07
 
    0.77613E+07         0.14283E+06         0.00000E+00
    0.14283E+06        -0.23876E+06         0.00000E+00
    0.00000E+00         0.00000E+00         0.15045E+07
 
    0.69180E+07         0.17494E+06         0.00000E+00
    0.17494E+06        -0.11694E+06         0.00000E+00
    0.00000E+00         0.00000E+00         0.13602E+07
 
    0.60953E+07         0.20459E+06         0.00000E+00
    0.20459E+06         0.23659E+05         0.00000E+00
    0.00000E+00         0.00000E+00         0.12238E+07
 
    0.52931E+07         0.23332E+06         0.00000E+00
    0.23332E+06         0.18236E+06         0.00000E+00
    0.00000E+00         0.00000E+00         0.10951E+07
 
    0.45111E+07         0.26233E+06         0.00000E+00
    0.26233E+06         0.35920E+06         0.00000E+00
    0.00000E+00         0.00000E+00         0.97405E+06
 
    0.37475E+07         0.29263E+06         0.00000E+00
    0.29263E+06         0.55482E+06         0.00000E+00
    0.00000E+00         0.00000E+00         0.86047E+06
 
    0.29999E+07         0.32557E+06         0.00000E+00
    0.32557E+06         0.77052E+06         0.00000E+00
    0.00000E+00         0.00000E+00         0.75408E+06
 
    0.22632E+07         0.36401E+06         0.00000E+00
    0.36401E+06         0.10087E+07         0.00000E+00
    0.00000E+00         0.00000E+00         0.65439E+06
 
    0.15280E+07         0.41620E+06         0.00000E+00
    0.41620E+06         0.12743E+07         0.00000E+00
    0.00000E+00         0.00000E+00         0.56045E+06
 
    0.79620E+06         0.51176E+06         0.00000E+00
    0.51176E+06         0.15740E+07         0.00000E+00
    0.00000E+00         0.00000E+00         0.47405E+06
 
    0.11971E+08        -0.17954E+05         0.00000E+00
   -0.17954E+05        -0.86218E+06         0.00000E+00
    0.00000E+00         0.00000E+00         0.22217E+07
 
    0.11072E+08        -0.12299E+04         0.00000E+00
   -0.12299E+04        -0.80737E+06         0.00000E+00
    0.00000E+00         0.00000E+00         0.20530E+07
 
    0.10154E+08         0.55385E+05         0.00000E+00
    0.55385E+05        -0.73339E+06         0.00000E+00
    0.00000E+00         0.00000E+00         0.18841E+07
 
    0.92503E+07         0.12015E+06         0.00000E+00
    0.12015E+06        -0.64855E+06         0.00000E+00
    0.00000E+00         0.00000E+00         0.17203E+07
 
    0.83688E+07         0.18024E+06         0.00000E+00
    0.18024E+06        -0.54993E+06         0.00000E+00
    0.00000E+00         0.00000E+00         0.15638E+07
 
    0.75097E+07         0.23419E+06         0.00000E+00
    0.23419E+06        -0.43627E+06         0.00000E+00
    0.00000E+00         0.00000E+00         0.14147E+07
 
    0.66733E+07         0.28374E+06         0.00000E+00
    0.28374E+06        -0.30722E+06         0.00000E+00
    0.00000E+00         0.00000E+00         0.12732E+07
 
    0.58594E+07         0.33121E+06         0.00000E+00
    0.33121E+06        -0.16246E+06         0.00000E+00
    0.00000E+00         0.00000E+00         0.11394E+07
 
    0.50673E+07         0.37863E+06         0.00000E+00
    0.37863E+06        -0.13317E+04         0.00000E+00
    0.00000E+00         0.00000E+00         0.10132E+07
 
    0.42960E+07         0.42760E+06         0.00000E+00
    0.42760E+06         0.17716E+06         0.00000E+00
    0.00000E+00         0.00000E+00         0.89463E+06
 
    0.35437E+07         0.47958E+06         0.00000E+00
    0.47958E+06         0.37430E+06         0.00000E+00
    0.00000E+00         0.00000E+00         0.78360E+06
 
    0.28084E+07         0.53647E+06         0.00000E+00
    0.53647E+06         0.59163E+06         0.00000E+00
    0.00000E+00         0.00000E+00         0.68000E+06
 
    0.20878E+07         0.60218E+06         0.00000E+00
    0.60218E+06         0.83085E+06         0.00000E+00
    0.00000E+00         0.00000E+00         0.58374E+06
 
    0.13832E+07         0.68623E+06         0.00000E+00
    0.68623E+06         0.10932E+07         0.00000E+00
    0.00000E+00         0.00000E+00         0.49527E+06
 
    0.70683E+06         0.80453E+06         0.00000E+00
    0.80453E+06         0.13717E+07         0.00000E+00
    0.00000E+00         0.00000E+00         0.41571E+06
 
    0.11669E+08         0.13632E+05         0.00000E+00
    0.13632E+05        -0.11726E+07         0.00000E+00
    0.00000E+00         0.00000E+00         0.20993E+07
 
    0.10813E+08         0.58348E+05         0.00000E+00
    0.58348E+05        -0.11120E+07         0.00000E+00
    0.00000E+00         0.00000E+00         0.19401E+07
 
    0.99158E+07         0.12150E+06         0.00000E+00
    0.12150E+06        -0.10215E+07         0.00000E+00
    0.00000E+00         0.00000E+00         0.17789E+07
 
    0.90188E+07         0.19134E+06         0.00000E+00
    0.19134E+06        -0.91801E+06         0.00000E+00
    0.00000E+00         0.00000E+00         0.16202E+07
 
    0.81393E+07         0.25977E+06         0.00000E+00
    0.25977E+06        -0.80548E+06         0.00000E+00
    0.00000E+00         0.00000E+00         0.14668E+07
 
    0.72834E+07         0.32477E+06         0.00000E+00
    0.32477E+06        -0.68338E+06         0.00000E+00
    0.00000E+00         0.00000E+00         0.13200E+07
 
    0.64526E+07         0.38766E+06         0.00000E+00
    0.38766E+06        -0.55026E+06         0.00000E+00
    0.00000E+00         0.00000E+00         0.11805E+07
 
    0.56466E+07         0.45069E+06         0.00000E+00
    0.45069E+06        -0.40437E+06         0.00000E+00
    0.00000E+00         0.00000E+00         0.10484E+07
 
    0.48642E+07         0.51599E+06         0.00000E+00
    0.51599E+06        -0.24381E+06         0.00000E+00
    0.00000E+00         0.00000E+00         0.92407E+06
 
    0.41035E+07         0.58525E+06         0.00000E+00
    0.58525E+06        -0.66571E+05         0.00000E+00
    0.00000E+00         0.00000E+00         0.80738E+06
 
    0.33626E+07         0.65989E+06         0.00000E+00
    0.65989E+06         0.12924E+06         0.00000E+00
    0.00000E+00         0.00000E+00         0.69837E+06
 
    0.26403E+07         0.74171E+06         0.00000E+00
    0.74171E+06         0.34513E+06         0.00000E+00
    0.00000E+00         0.00000E+00         0.59709E+06
 
    0.19372E+07         0.83397E+06         0.00000E+00
    0.83397E+06         0.58165E+06         0.00000E+00
    0.00000E+00         0.00000E+00         0.50376E+06
 
    0.12583E+07         0.94224E+06         0.00000E+00
    0.94224E+06         0.83626E+06         0.00000E+00
    0.00000E+00         0.00000E+00         0.41890E+06
 
    0.61718E+06         0.10733E+07         0.00000E+00
    0.10733E+07         0.11006E+07         0.00000E+00
    0.00000E+00         0.00000E+00         0.34356E+06
 
    0.11430E+08         0.42624E+05         0.00000E+00
    0.42624E+05        -0.14717E+07         0.00000E+00
    0.00000E+00         0.00000E+00         0.19916E+07
 
    0.10582E+08         0.12011E+06         0.00000E+00
    0.12011E+06        -0.14131E+07         0.00000E+00
    0.00000E+00         0.00000E+00         0.18337E+07
 
    0.96932E+07         0.19460E+06         0.00000E+00
    0.19460E+06        -0.13212E+07         0.00000E+00
    0.00000E+00         0.00000E+00         0.16744E+07
 
    0.88004E+07         0.26808E+06         0.00000E+00
    0.26808E+06        -0.12137E+07         0.00000E+00
    0.00000E+00         0.00000E+00         0.15174E+07
 
    0.79235E+07         0.34018E+06         0.00000E+00
    0.34018E+06        -0.10978E+07         0.00000E+00
    0.00000E+00         0.00000E+00         0.13651E+07
 
    0.70714E+07         0.41165E+06         0.00000E+00
    0.41165E+06        -0.97509E+06         0.00000E+00
    0.00000E+00         0.00000E+00         0.12193E+07
 
    0.62470E+07         0.48451E+06         0.00000E+00
    0.48451E+06        -0.84416E+06         0.00000E+00
    0.00000E+00         0.00000E+00         0.10806E+07
 
    0.54498E+07         0.56118E+06         0.00000E+00
    0.56118E+06        -0.70250E+06         0.00000E+00
    0.00000E+00         0.00000E+00         0.94946E+06
 
    0.46778E+07         0.64373E+06         0.00000E+00
    0.64373E+06        -0.54726E+06         0.00000E+00
    0.00000E+00         0.00000E+00         0.82612E+06
 
    0.39286E+07         0.73363E+06         0.00000E+00
    0.73363E+06        -0.37561E+06         0.00000E+00
    0.00000E+00         0.00000E+00         0.71061E+06
 
    0.32000E+07         0.83183E+06         0.00000E+00
    0.83183E+06        -0.18514E+06         0.00000E+00
    0.00000E+00         0.00000E+00         0.60297E+06
 
    0.24909E+07         0.93919E+06         0.00000E+00
    0.93919E+06         0.25614E+05         0.00000E+00
    0.00000E+00         0.00000E+00         0.50330E+06
 
    0.18029E+07         0.10569E+07         0.00000E+00
    0.10569E+07         0.25629E+06         0.00000E+00
    0.00000E+00         0.00000E+00         0.41184E+06
 
    0.11422E+07         0.11864E+07         0.00000E+00
    0.11864E+07         0.50340E+06         0.00000E+00
    0.00000E+00         0.00000E+00         0.32911E+06
 
    0.52075E+06         0.13285E+07         0.00000E+00
    0.13285E+07         0.75882E+06         0.00000E+00
    0.00000E+00         0.00000E+00         0.25591E+06
 
    0.11240E+08         0.67500E+05         0.00000E+00
    0.67500E+05        -0.17678E+07         0.00000E+00
    0.00000E+00         0.00000E+00         0.18944E+07
 
    0.10374E+08         0.17565E+06         0.00000E+00
    0.17565E+06        -0.17154E+07         0.00000E+00
    0.00000E+00         0.00000E+00         0.17317E+07
 
    0.94790E+07         0.26257E+06         0.00000E+00
    0.26257E+06        -0.16313E+07         0.00000E+00
    0.00000E+00         0.00000E+00         0.15696E+07
 
    0.85849E+07         0.33962E+06         0.00000E+00
    0.33962E+06        -0.15313E+07         0.00000E+00
    0.00000E+00         0.00000E+00         0.14107E+07
 
    0.77099E+07         0.41348E+06         0.00000E+00
    0.41348E+06        -0.14233E+07         0.00000E+00
    0.00000E+00         0.00000E+00         0.12573E+07
 
    0.68631E+07         0.48888E+06         0.00000E+00
    0.48888E+06        -0.13096E+07         0.00000E+00
    0.00000E+00         0.00000E+00         0.11107E+07
 
    0.60471E+07         0.56966E+06         0.00000E+00
    0.56966E+06        -0.11889E+07         0.00000E+00
    0.00000E+00         0.00000E+00         0.97163E+06
 
    0.52609E+07         0.65885E+06         0.00000E+00
    0.65885E+06        -0.10585E+07         0.00000E+00
    0.00000E+00         0.00000E+00         0.84047E+06
 
    0.45015E+07         0.75857E+06         0.00000E+00
    0.75857E+06        -0.91472E+06         0.00000E+00
    0.00000E+00         0.00000E+00         0.71736E+06
 
    0.37656E+07         0.86987E+06         0.00000E+00
    0.86987E+06        -0.75401E+06         0.00000E+00
    0.00000E+00         0.00000E+00         0.60232E+06
 
    0.30502E+07         0.99284E+06         0.00000E+00
    0.99284E+06        -0.57351E+06         0.00000E+00
    0.00000E+00         0.00000E+00         0.49533E+06
 
    0.23538E+07         0.11268E+07         0.00000E+00
    0.11268E+07        -0.37159E+06         0.00000E+00
    0.00000E+00         0.00000E+00         0.39644E+06
 
    0.16779E+07         0.12706E+07         0.00000E+00
    0.12706E+07        -0.14870E+06         0.00000E+00
    0.00000E+00         0.00000E+00         0.30584E+06
 
    0.10278E+07         0.14220E+07         0.00000E+00
    0.14220E+07         0.91741E+05         0.00000E+00
    0.00000E+00         0.00000E+00         0.22392E+06
 
    0.41380E+06         0.15775E+07         0.00000E+00
    0.15775E+07         0.34261E+06         0.00000E+00
    0.00000E+00         0.00000E+00         0.15128E+06
 
    0.11083E+08         0.87291E+05         0.00000E+00
    0.87291E+05        -0.20702E+07         0.00000E+00
    0.00000E+00         0.00000E+00         0.18025E+07
 
    0.10178E+08         0.22012E+06         0.00000E+00
    0.22012E+06        -0.20269E+07         0.00000E+00
    0.00000E+00         0.00000E+00         0.16303E+07
 
    0.92636E+07         0.31716E+06         0.00000E+00
    0.31716E+06        -0.19572E+07         0.00000E+00
    0.00000E+00         0.00000E+00         0.14613E+07
 
    0.83620E+07         0.39662E+06         0.00000E+00
    0.39662E+06        -0.18738E+07         0.00000E+00
    0.00000E+00         0.00000E+00         0.12976E+07
 
    0.74879E+07         0.47104E+06         0.00000E+00
    0.47104E+06        -0.17837E+07         0.00000E+00
    0.00000E+00         0.00000E+00         0.11408E+07
 
    0.66479E+07         0.54913E+06         0.00000E+00
    0.54913E+06        -0.16887E+07         0.00000E+00
    0.00000E+00         0.00000E+00         0.99184E+06
 
    0.58432E+07         0.63697E+06         0.00000E+00
    0.63697E+06        -0.15873E+07         0.00000E+00
    0.00000E+00         0.00000E+00         0.85119E+06
 
    0.50712E+07         0.73858E+06         0.00000E+00
    0.73858E+06        -0.14759E+07         0.00000E+00
    0.00000E+00         0.00000E+00         0.71907E+06
 
    0.43276E+07         0.85618E+06         0.00000E+00
    0.85618E+06        -0.13504E+07         0.00000E+00
    0.00000E+00         0.00000E+00         0.59545E+06
 
    0.36076E+07         0.99034E+06         0.00000E+00
    0.99034E+06        -0.12066E+07         0.00000E+00
    0.00000E+00         0.00000E+00         0.48020E+06
 
    0.29068E+07         0.11401E+07         0.00000E+00
    0.11401E+07        -0.10409E+07         0.00000E+00
    0.00000E+00         0.00000E+00         0.37318E+06
 
    0.22228E+07         0.13030E+07         0.00000E+00
    0.13030E+07        -0.85128E+06         0.00000E+00
    0.00000E+00         0.00000E+00         0.27431E+06
 
    0.15559E+07         0.14754E+07         0.00000E+00
    0.14754E+07        -0.63778E+06         0.00000E+00
    0.00000E+00         0.00000E+00         0.18363E+06
 
    0.91008E+06         0.16520E+07         0.00000E+00
    0.16520E+07        -0.40312E+06         0.00000E+00
    0.00000E+00         0.00000E+00         0.10139E+06
 
    0.29338E+06         0.18256E+07         0.00000E+00
    0.18256E+07        -0.15329E+06         0.00000E+00
    0.00000E+00         0.00000E+00         0.28016E+05
 
    0.10938E+08         0.10111E+06         0.00000E+00
    0.10111E+06        -0.23898E+07         0.00000E+00
    0.00000E+00         0.00000E+00         0.17097E+07
 
    0.99789E+07         0.25002E+06         0.00000E+00
    0.25002E+06        -0.23581E+07         0.00000E+00
    0.00000E+00         0.00000E+00         0.15242E+07
 
    0.90339E+07         0.35220E+06         0.00000E+00
    0.35220E+06        -0.23078E+07         0.00000E+00
    0.00000E+00         0.00000E+00         0.13452E+07
 
    0.81198E+07         0.43137E+06         0.00000E+00
    0.43137E+06        -0.22487E+07         0.00000E+00
    0.00000E+00         0.00000E+00         0.11742E+07
 
    0.72459E+07         0.50486E+06         0.00000E+00
    0.50486E+06        -0.21853E+07         0.00000E+00
    0.00000E+00         0.00000E+00         0.10121E+07
 
    0.64150E+07         0.58491E+06         0.00000E+00
    0.58491E+06        -0.21180E+07         0.00000E+00
    0.00000E+00         0.00000E+00         0.85938E+06
 
    0.56252E+07         0.67978E+06         0.00000E+00
    0.67978E+06        -0.20444E+07         0.00000E+00
    0.00000E+00         0.00000E+00         0.71616E+06
 
    0.48717E+07         0.79457E+06         0.00000E+00
    0.79457E+06        -0.19601E+07         0.00000E+00
    0.00000E+00         0.00000E+00         0.58233E+06
 
    0.41480E+07         0.93166E+06         0.00000E+00
    0.93166E+06        -0.18599E+07         0.00000E+00
    0.00000E+00         0.00000E+00         0.45760E+06
 
    0.34470E+07         0.10911E+07         0.00000E+00
    0.10911E+07        -0.17390E+07         0.00000E+00
    0.00000E+00         0.00000E+00         0.34161E+06
 
    0.27630E+07         0.12706E+07         0.00000E+00
    0.12706E+07        -0.15930E+07         0.00000E+00
    0.00000E+00         0.00000E+00         0.23400E+06
 
    0.20916E+07         0.14662E+07         0.00000E+00
    0.14662E+07        -0.14191E+07         0.00000E+00
    0.00000E+00         0.00000E+00         0.13450E+06
 
    0.14314E+07         0.16717E+07         0.00000E+00
    0.16717E+07        -0.12165E+07         0.00000E+00
    0.00000E+00         0.00000E+00         0.42982E+05
 
    0.78446E+06         0.18789E+07         0.00000E+00
    0.18789E+07        -0.98700E+06         0.00000E+00
    0.00000E+00         0.00000E+00        -0.40508E+05
 
    0.15680E+06         0.20775E+07         0.00000E+00
    0.20775E+07        -0.73535E+06         0.00000E+00
    0.00000E+00         0.00000E+00        -0.11571E+06
 
    0.10782E+08         0.10807E+06         0.00000E+00
    0.10807E+06        -0.27384E+07         0.00000E+00
    0.00000E+00         0.00000E+00         0.16087E+07
 
    0.97558E+07         0.26236E+06         0.00000E+00
    0.26236E+06        -0.27207E+07         0.00000E+00
    0.00000E+00         0.00000E+00         0.14070E+07
 
    0.87732E+07         0.36266E+06         0.00000E+00
    0.36266E+06        -0.26945E+07         0.00000E+00
    0.00000E+00         0.00000E+00         0.12157E+07
 
    0.78438E+07         0.43740E+06         0.00000E+00
    0.43740E+06        -0.26661E+07         0.00000E+00
    0.00000E+00         0.00000E+00         0.10356E+07
 
    0.69709E+07         0.50783E+06         0.00000E+00
    0.50783E+06        -0.26371E+07         0.00000E+00
    0.00000E+00         0.00000E+00         0.86676E+06
 
    0.61523E+07         0.58916E+06         0.00000E+00
    0.58916E+06        -0.26058E+07         0.00000E+00
    0.00000E+00         0.00000E+00         0.70930E+06
 
    0.53822E+07         0.69155E+06         0.00000E+00
    0.69155E+06        -0.25681E+07         0.00000E+00
    0.00000E+00         0.00000E+00         0.56283E+06
 
    0.46524E+07         0.82101E+06         0.00000E+00
    0.82101E+06        -0.25184E+07         0.00000E+00
    0.00000E+00         0.00000E+00         0.42681E+06
 
    0.39535E+07         0.98003E+06         0.00000E+00
    0.98003E+06        -0.24504E+07         0.00000E+00
    0.00000E+00         0.00000E+00         0.30061E+06
 
    0.32760E+07         0.11680E+07         0.00000E+00
    0.11680E+07        -0.23582E+07         0.00000E+00
    0.00000E+00         0.00000E+00         0.18355E+06
 
    0.26115E+07         0.13817E+07         0.00000E+00
    0.13817E+07        -0.22366E+07         0.00000E+00
    0.00000E+00         0.00000E+00         0.74997E+05
 
    0.19537E+07         0.16150E+07         0.00000E+00
    0.16150E+07        -0.20816E+07         0.00000E+00
    0.00000E+00         0.00000E+00        -0.25572E+05
 
    0.12989E+07         0.18596E+07         0.00000E+00
    0.18596E+07        -0.18915E+07         0.00000E+00
    0.00000E+00         0.00000E+00        -0.11852E+06
 
    0.64687E+06         0.21047E+07         0.00000E+00
    0.21047E+07        -0.16669E+07         0.00000E+00
    0.00000E+00         0.00000E+00        -0.20400E+06
 
    0.13734E+04         0.23369E+07         0.00000E+00
    0.23369E+07        -0.14110E+07         0.00000E+00
    0.00000E+00         0.00000E+00        -0.28193E+06
 
    0.10588E+08         0.10723E+06         0.00000E+00
    0.10723E+06        -0.31297E+07         0.00000E+00
    0.00000E+00         0.00000E+00         0.14916E+07
 
    0.94861E+07         0.25438E+06         0.00000E+00
    0.25438E+06        -0.31281E+07         0.00000E+00
    0.00000E+00         0.00000E+00         0.12716E+07
 
    0.84620E+07         0.34417E+06         0.00000E+00
    0.34417E+06        -0.31303E+07         0.00000E+00
    0.00000E+00         0.00000E+00         0.10663E+07
 
    0.75172E+07         0.40912E+06         0.00000E+00
    0.40912E+06        -0.31383E+07         0.00000E+00
    0.00000E+00         0.00000E+00         0.87579E+06
 
    0.66480E+07         0.47374E+06         0.00000E+00
    0.47374E+06        -0.31505E+07         0.00000E+00
    0.00000E+00         0.00000E+00         0.69951E+06
 
    0.58466E+07         0.55557E+06         0.00000E+00
    0.55557E+06        -0.31624E+07         0.00000E+00
    0.00000E+00         0.00000E+00         0.53683E+06
 
    0.51022E+07         0.66626E+06         0.00000E+00
    0.66626E+06        -0.31679E+07         0.00000E+00
    0.00000E+00         0.00000E+00         0.38685E+06
 
    0.44025E+07         0.81248E+06         0.00000E+00
    0.81248E+06        -0.31597E+07         0.00000E+00
    0.00000E+00         0.00000E+00         0.24855E+06
 
    0.37345E+07         0.99663E+06         0.00000E+00
    0.99663E+06        -0.31302E+07         0.00000E+00
    0.00000E+00         0.00000E+00         0.12085E+06
 
    0.30856E+07         0.12175E+07         0.00000E+00
    0.12175E+07        -0.30722E+07         0.00000E+00
    0.00000E+00         0.00000E+00         0.26889E+04
 
    0.24447E+07         0.14704E+07         0.00000E+00
    0.14704E+07        -0.29792E+07         0.00000E+00
    0.00000E+00         0.00000E+00        -0.10690E+06
 
    0.18026E+07         0.17479E+07         0.00000E+00
    0.17479E+07        -0.28463E+07         0.00000E+00
    0.00000E+00         0.00000E+00        -0.20874E+06
 
    0.11530E+07         0.20393E+07         0.00000E+00
    0.20393E+07        -0.26704E+07         0.00000E+00
    0.00000E+00         0.00000E+00        -0.30347E+06
 
    0.49315E+06         0.23311E+07         0.00000E+00
    0.23311E+07        -0.24505E+07         0.00000E+00
    0.00000E+00         0.00000E+00        -0.39148E+06
 
   -0.17571E+06         0.26070E+07         0.00000E+00
    0.26070E+07        -0.21887E+07         0.00000E+00
    0.00000E+00         0.00000E+00        -0.47289E+06
 
    0.10324E+08         0.97628E+05         0.00000E+00
    0.97628E+05        -0.35787E+07         0.00000E+00
    0.00000E+00         0.00000E+00         0.13491E+07
 
    0.91432E+07         0.22348E+06         0.00000E+00
    0.22348E+06        -0.35955E+07         0.00000E+00
    0.00000E+00         0.00000E+00         0.11095E+07
 
    0.80776E+07         0.29283E+06         0.00000E+00
    0.29283E+06        -0.36299E+07         0.00000E+00
    0.00000E+00         0.00000E+00         0.88954E+06
 
    0.71204E+07         0.34173E+06         0.00000E+00
    0.34173E+06        -0.36795E+07         0.00000E+00
    0.00000E+00         0.00000E+00         0.68818E+06
 
    0.62603E+07         0.39728E+06         0.00000E+00
    0.39728E+06        -0.37388E+07         0.00000E+00
    0.00000E+00         0.00000E+00         0.50430E+06
 
    0.54829E+07         0.47876E+06         0.00000E+00
    0.47876E+06        -0.38002E+07         0.00000E+00
    0.00000E+00         0.00000E+00         0.33652E+06
 
    0.47718E+07         0.59875E+06         0.00000E+00
    0.59875E+06        -0.38552E+07         0.00000E+00
    0.00000E+00         0.00000E+00         0.18331E+06
 
    0.41099E+07         0.76423E+06         0.00000E+00
    0.76423E+06        -0.38944E+07         0.00000E+00
    0.00000E+00         0.00000E+00         0.43085E+05
 
    0.34801E+07         0.97732E+06         0.00000E+00
    0.97732E+06        -0.39088E+07         0.00000E+00
    0.00000E+00         0.00000E+00        -0.85736E+05
 
    0.28664E+07         0.12360E+07         0.00000E+00
    0.12360E+07        -0.38897E+07         0.00000E+00
    0.00000E+00         0.00000E+00        -0.20465E+06
 
    0.22542E+07         0.15345E+07         0.00000E+00
    0.15345E+07        -0.38294E+07         0.00000E+00
    0.00000E+00         0.00000E+00        -0.31503E+06
 
    0.16312E+07         0.18635E+07         0.00000E+00
    0.18635E+07        -0.37214E+07         0.00000E+00
    0.00000E+00         0.00000E+00        -0.41805E+06
 
    0.98801E+06         0.22104E+07         0.00000E+00
    0.22104E+07        -0.35613E+07         0.00000E+00
    0.00000E+00         0.00000E+00        -0.51466E+06
 
    0.31898E+06         0.25591E+07         0.00000E+00
    0.25591E+07        -0.33465E+07         0.00000E+00
    0.00000E+00         0.00000E+00        -0.60551E+06
 
   -0.37740E+06         0.28906E+07         0.00000E+00
    0.28906E+07        -0.30773E+07         0.00000E+00
    0.00000E+00         0.00000E+00        -0.69095E+06
 
    0.99569E+07         0.78332E+05         0.00000E+00
    0.78332E+05        -0.41024E+07         0.00000E+00
    0.00000E+00         0.00000E+00         0.11709E+07
 
    0.86976E+07         0.16725E+06         0.00000E+00
    0.16725E+06        -0.41397E+07         0.00000E+00
    0.00000E+00         0.00000E+00         0.91159E+06
 
    0.75946E+07         0.20521E+06         0.00000E+00
    0.20521E+06        -0.42099E+07         0.00000E+00
    0.00000E+00         0.00000E+00         0.67694E+06
 
    0.66316E+07         0.23119E+06         0.00000E+00
    0.23119E+06        -0.43056E+07         0.00000E+00
    0.00000E+00         0.00000E+00         0.46521E+06
 
    0.57888E+07         0.27414E+06         0.00000E+00
    0.27414E+06        -0.44169E+07         0.00000E+00
    0.00000E+00         0.00000E+00         0.27439E+06
 
    0.50445E+07         0.35437E+06         0.00000E+00
    0.35437E+06        -0.45329E+07         0.00000E+00
    0.00000E+00         0.00000E+00         0.10231E+06
 
    0.43761E+07         0.48487E+06         0.00000E+00
    0.48487E+06        -0.46423E+07         0.00000E+00
    0.00000E+00         0.00000E+00        -0.53239E+05
 
    0.37613E+07         0.67247E+06         0.00000E+00
    0.67247E+06        -0.47338E+07         0.00000E+00
    0.00000E+00         0.00000E+00        -0.19448E+06
 
    0.31786E+07         0.91876E+06         0.00000E+00
    0.91876E+06        -0.47964E+07         0.00000E+00
    0.00000E+00         0.00000E+00        -0.32356E+06
 
    0.26077E+07         0.12208E+07         0.00000E+00
    0.12208E+07        -0.48200E+07         0.00000E+00
    0.00000E+00         0.00000E+00        -0.44246E+06
 
    0.20306E+07         0.15716E+07         0.00000E+00
    0.15716E+07        -0.47956E+07         0.00000E+00
    0.00000E+00         0.00000E+00        -0.55300E+06
 
    0.14314E+07         0.19604E+07         0.00000E+00
    0.19604E+07        -0.47152E+07         0.00000E+00
    0.00000E+00         0.00000E+00        -0.65675E+06
 
    0.79751E+06         0.23725E+07         0.00000E+00
    0.23725E+07        -0.45726E+07         0.00000E+00
    0.00000E+00         0.00000E+00        -0.75502E+06
 
    0.11967E+06         0.27897E+07         0.00000E+00
    0.27897E+07        -0.43635E+07         0.00000E+00
    0.00000E+00         0.00000E+00        -0.84876E+06
 
   -0.60683E+06         0.31898E+07         0.00000E+00
    0.31898E+07        -0.40860E+07         0.00000E+00
    0.00000E+00         0.00000E+00        -0.93856E+06
 
    0.94486E+07         0.48440E+05         0.00000E+00
    0.48440E+05        -0.47197E+07         0.00000E+00
    0.00000E+00         0.00000E+00         0.94578E+06
 
    0.81167E+07         0.83546E+05         0.00000E+00
    0.83546E+05        -0.47793E+07         0.00000E+00
    0.00000E+00         0.00000E+00         0.66748E+06
 
    0.69851E+07         0.78481E+05         0.00000E+00
    0.78481E+05        -0.48884E+07         0.00000E+00
    0.00000E+00         0.00000E+00         0.41934E+06
 
    0.60268E+07         0.74331E+05         0.00000E+00
    0.74331E+05        -0.50337E+07         0.00000E+00
    0.00000E+00         0.00000E+00         0.19862E+06
 
    0.52127E+07         0.10108E+06         0.00000E+00
    0.10108E+06        -0.52008E+07         0.00000E+00
    0.00000E+00         0.00000E+00         0.23757E+04
 
    0.45131E+07         0.17931E+06         0.00000E+00
    0.17931E+06        -0.53752E+07         0.00000E+00
    0.00000E+00         0.00000E+00        -0.17240E+06
 
    0.38989E+07         0.32174E+06         0.00000E+00
    0.32174E+06        -0.55425E+07         0.00000E+00
    0.00000E+00         0.00000E+00        -0.32871E+06
 
    0.33422E+07         0.53459E+06         0.00000E+00
    0.53459E+06        -0.56894E+07         0.00000E+00
    0.00000E+00         0.00000E+00        -0.46944E+06
 
    0.28166E+07         0.81862E+06         0.00000E+00
    0.81862E+06        -0.58033E+07         0.00000E+00
    0.00000E+00         0.00000E+00        -0.59734E+06
 
    0.22977E+07         0.11699E+07         0.00000E+00
    0.11699E+07        -0.58725E+07         0.00000E+00
    0.00000E+00         0.00000E+00        -0.71495E+06
 
    0.17636E+07         0.15803E+07         0.00000E+00
    0.15803E+07        -0.58865E+07         0.00000E+00
    0.00000E+00         0.00000E+00        -0.82458E+06
 
    0.11947E+07         0.20375E+07         0.00000E+00
    0.20375E+07        -0.58358E+07         0.00000E+00
    0.00000E+00         0.00000E+00        -0.92822E+06
 
    0.57454E+06         0.25252E+07         0.00000E+00
    0.25252E+07        -0.57124E+07         0.00000E+00
    0.00000E+00         0.00000E+00        -0.10276E+07
 
   -0.10991E+06         0.30230E+07         0.00000E+00
    0.30230E+07        -0.55098E+07         0.00000E+00
    0.00000E+00         0.00000E+00        -0.11239E+07
 
   -0.86724E+06         0.35060E+07         0.00000E+00
    0.35060E+07        -0.52238E+07         0.00000E+00
    0.00000E+00         0.00000E+00        -0.12182E+07
 
    0.87578E+07         0.71580E+04         0.00000E+00
    0.71580E+04        -0.54513E+07         0.00000E+00
    0.00000E+00         0.00000E+00         0.66131E+06
 
    0.73652E+07        -0.29382E+05         0.00000E+00
   -0.29382E+05        -0.55348E+07         0.00000E+00
    0.00000E+00         0.00000E+00         0.36608E+06
 
    0.62190E+07        -0.89467E+05         0.00000E+00
   -0.89467E+05        -0.56851E+07         0.00000E+00
    0.00000E+00         0.00000E+00         0.10678E+06
 
    0.52801E+07        -0.13092E+06         0.00000E+00
   -0.13092E+06        -0.58825E+07         0.00000E+00
    0.00000E+00         0.00000E+00        -0.12047E+06
 
    0.45095E+07        -0.12374E+06         0.00000E+00
   -0.12374E+06        -0.61077E+07         0.00000E+00
    0.00000E+00         0.00000E+00        -0.31965E+06
 
    0.38689E+07        -0.47998E+05         0.00000E+00
   -0.47998E+05        -0.63423E+07         0.00000E+00
    0.00000E+00         0.00000E+00        -0.49467E+06
 
    0.33224E+07         0.10803E+06         0.00000E+00
    0.10803E+06        -0.65693E+07         0.00000E+00
    0.00000E+00         0.00000E+00        -0.64937E+06
 
    0.28363E+07         0.34942E+06         0.00000E+00
    0.34942E+06        -0.67731E+07         0.00000E+00
    0.00000E+00         0.00000E+00        -0.78736E+06
 
    0.23794E+07         0.67581E+06         0.00000E+00
    0.67581E+06        -0.69396E+07         0.00000E+00
    0.00000E+00         0.00000E+00        -0.91204E+06
 
    0.19232E+07         0.10822E+07         0.00000E+00
    0.10822E+07        -0.70559E+07         0.00000E+00
    0.00000E+00         0.00000E+00        -0.10265E+07
 
    0.14416E+07         0.15592E+07         0.00000E+00
    0.15592E+07        -0.71099E+07         0.00000E+00
    0.00000E+00         0.00000E+00        -0.11337E+07
 
    0.91110E+06         0.20936E+07         0.00000E+00
    0.20936E+07        -0.70906E+07         0.00000E+00
    0.00000E+00         0.00000E+00        -0.12359E+07
 
    0.31119E+06         0.26676E+07         0.00000E+00
    0.26676E+07        -0.69879E+07         0.00000E+00
    0.00000E+00         0.00000E+00        -0.13353E+07
 
   -0.37547E+06         0.32589E+07         0.00000E+00
    0.32589E+07        -0.67930E+07         0.00000E+00
    0.00000E+00         0.00000E+00        -0.14337E+07
 
   -0.11620E+07         0.38401E+07         0.00000E+00
    0.38401E+07        -0.64990E+07         0.00000E+00
    0.00000E+00         0.00000E+00        -0.15322E+07
 
    0.78404E+07        -0.46142E+05         0.00000E+00
   -0.46142E+05        -0.63196E+07         0.00000E+00
    0.00000E+00         0.00000E+00         0.30415E+06
 
    0.64058E+07        -0.17272E+06         0.00000E+00
   -0.17272E+06        -0.64282E+07         0.00000E+00
    0.00000E+00         0.00000E+00        -0.44853E+04
 
    0.52645E+07        -0.29974E+06         0.00000E+00
   -0.29974E+06        -0.66210E+07         0.00000E+00
    0.00000E+00         0.00000E+00        -0.27130E+06
 
    0.43644E+07        -0.38527E+06         0.00000E+00
   -0.38527E+06        -0.68715E+07         0.00000E+00
    0.00000E+00         0.00000E+00        -0.50143E+06
 
    0.36554E+07        -0.40053E+06         0.00000E+00
   -0.40053E+06        -0.71552E+07         0.00000E+00
    0.00000E+00         0.00000E+00        -0.69996E+06
 
    0.30908E+07        -0.32732E+06         0.00000E+00
   -0.32732E+06        -0.74499E+07         0.00000E+00
    0.00000E+00         0.00000E+00        -0.87182E+06
 
    0.26275E+07        -0.15576E+06         0.00000E+00
   -0.15576E+06        -0.77360E+07         0.00000E+00
    0.00000E+00         0.00000E+00        -0.10217E+07
 
    0.22261E+07         0.11753E+06         0.00000E+00
    0.11753E+06        -0.79960E+07         0.00000E+00
    0.00000E+00         0.00000E+00        -0.11540E+07
 
    0.18509E+07         0.49071E+06         0.00000E+00
    0.49071E+06        -0.82146E+07         0.00000E+00
    0.00000E+00         0.00000E+00        -0.12727E+07
 
    0.14693E+07         0.95762E+06         0.00000E+00
    0.95762E+06        -0.83777E+07         0.00000E+00
    0.00000E+00         0.00000E+00        -0.13817E+07
 
    0.10512E+07         0.15081E+07         0.00000E+00
    0.15081E+07        -0.84721E+07         0.00000E+00
    0.00000E+00         0.00000E+00        -0.14842E+07
 
    0.56925E+06         0.21279E+07         0.00000E+00
    0.21279E+07        -0.84852E+07         0.00000E+00
    0.00000E+00         0.00000E+00        -0.15832E+07
 
   -0.15313E+04         0.27986E+07         0.00000E+00
    0.27986E+07        -0.84048E+07         0.00000E+00
    0.00000E+00         0.00000E+00        -0.16813E+07
 
   -0.68332E+06         0.34963E+07         0.00000E+00
    0.34963E+07        -0.82195E+07         0.00000E+00
    0.00000E+00         0.00000E+00        -0.17806E+07
 
   -0.14946E+07         0.41917E+07         0.00000E+00
    0.41917E+07        -0.79189E+07         0.00000E+00
    0.00000E+00         0.00000E+00        -0.18827E+07
 
    0.66498E+07        -0.11184E+06         0.00000E+00
   -0.11184E+06        -0.73488E+07         0.00000E+00
    0.00000E+00         0.00000E+00        -0.13980E+06
 
    0.51995E+07        -0.34689E+06         0.00000E+00
   -0.34689E+06        -0.74828E+07         0.00000E+00
    0.00000E+00         0.00000E+00        -0.45666E+06
 
    0.40888E+07        -0.55218E+06         0.00000E+00
   -0.55218E+06        -0.77180E+07         0.00000E+00
    0.00000E+00         0.00000E+00        -0.72585E+06
 
    0.32515E+07        -0.68773E+06         0.00000E+00
   -0.68773E+06        -0.80208E+07         0.00000E+00
    0.00000E+00         0.00000E+00        -0.95386E+06
 
    0.26261E+07        -0.72748E+06         0.00000E+00
   -0.72748E+06        -0.83612E+07         0.00000E+00
    0.00000E+00         0.00000E+00        -0.11470E+07
 
    0.21569E+07        -0.65622E+06         0.00000E+00
   -0.65622E+06        -0.87133E+07         0.00000E+00
    0.00000E+00         0.00000E+00        -0.13113E+07
 
    0.17940E+07        -0.46688E+06         0.00000E+00
   -0.46688E+06        -0.90552E+07         0.00000E+00
    0.00000E+00         0.00000E+00        -0.14522E+07
 
    0.14929E+07        -0.15846E+06         0.00000E+00
   -0.15846E+06        -0.93681E+07         0.00000E+00
    0.00000E+00         0.00000E+00        -0.15751E+07
 
    0.12135E+07         0.26548E+06         0.00000E+00
    0.26548E+06        -0.96358E+07         0.00000E+00
    0.00000E+00         0.00000E+00        -0.16845E+07
 
    0.91957E+06         0.79764E+06         0.00000E+00
    0.79764E+06        -0.98436E+07         0.00000E+00
    0.00000E+00         0.00000E+00        -0.17848E+07
 
    0.57767E+06         0.14273E+07         0.00000E+00
    0.14273E+07        -0.99773E+07         0.00000E+00
    0.00000E+00         0.00000E+00        -0.18799E+07
 
    0.15640E+06         0.21399E+07         0.00000E+00
    0.21399E+07        -0.10023E+08         0.00000E+00
    0.00000E+00         0.00000E+00        -0.19733E+07
 
   -0.37381E+06         0.29167E+07         0.00000E+00
    0.29167E+07        -0.99666E+07         0.00000E+00
    0.00000E+00         0.00000E+00        -0.20681E+07
 
   -0.10405E+07         0.37333E+07         0.00000E+00
    0.37333E+07        -0.97932E+07         0.00000E+00
    0.00000E+00         0.00000E+00        -0.21667E+07
 
   -0.18684E+07         0.45590E+07         0.00000E+00
    0.45590E+07        -0.94887E+07         0.00000E+00
    0.00000E+00         0.00000E+00        -0.22714E+07
 
    0.51382E+07        -0.18999E+06         0.00000E+00
   -0.18999E+06        -0.85637E+07         0.00000E+00
    0.00000E+00         0.00000E+00        -0.68510E+06
 
    0.37070E+07        -0.55132E+06         0.00000E+00
   -0.55132E+06        -0.87227E+07         0.00000E+00
    0.00000E+00         0.00000E+00        -0.10031E+07
 
    0.26594E+07        -0.84506E+06         0.00000E+00
   -0.84506E+06        -0.89989E+07         0.00000E+00
    0.00000E+00         0.00000E+00        -0.12679E+07
 
    0.19139E+07        -0.10352E+07         0.00000E+00
   -0.10352E+07        -0.93508E+07         0.00000E+00
    0.00000E+00         0.00000E+00        -0.14874E+07
 
    0.13973E+07        -0.11003E+07         0.00000E+00
   -0.11003E+07        -0.97431E+07         0.00000E+00
    0.00000E+00         0.00000E+00        -0.16692E+07
 
    0.10451E+07        -0.10296E+07         0.00000E+00
   -0.10296E+07        -0.10147E+08         0.00000E+00
    0.00000E+00         0.00000E+00        -0.18203E+07
 
    0.80125E+06        -0.81997E+06         0.00000E+00
   -0.81997E+06        -0.10538E+08         0.00000E+00
    0.00000E+00         0.00000E+00        -0.19473E+07
 
    0.61661E+06        -0.47345E+06         0.00000E+00
   -0.47345E+06        -0.10897E+08         0.00000E+00
    0.00000E+00         0.00000E+00        -0.20561E+07
 
    0.44791E+06         0.43501E+04         0.00000E+00
    0.43501E+04        -0.11208E+08         0.00000E+00
    0.00000E+00         0.00000E+00        -0.21521E+07
 
    0.25599E+06         0.60515E+06         0.00000E+00
    0.60515E+06        -0.11456E+08         0.00000E+00
    0.00000E+00         0.00000E+00        -0.22401E+07
 
    0.43788E+04         0.13180E+07         0.00000E+00
    0.13180E+07        -0.11627E+08         0.00000E+00
    0.00000E+00         0.00000E+00        -0.23245E+07
 
   -0.34194E+06         0.21290E+07         0.00000E+00
    0.21290E+07        -0.11705E+08         0.00000E+00
    0.00000E+00         0.00000E+00        -0.24093E+07
 
   -0.81716E+06         0.30199E+07         0.00000E+00
    0.30199E+07        -0.11673E+08         0.00000E+00
    0.00000E+00         0.00000E+00        -0.24981E+07
 
   -0.14547E+07         0.39668E+07         0.00000E+00
    0.39668E+07        -0.11515E+08         0.00000E+00
    0.00000E+00         0.00000E+00        -0.25940E+07
 
   -0.22866E+07         0.49387E+07         0.00000E+00
    0.49387E+07        -0.11211E+08         0.00000E+00
    0.00000E+00         0.00000E+00        -0.26995E+07
 
    0.32580E+07        -0.28023E+06         0.00000E+00
   -0.28023E+06        -0.99899E+07         0.00000E+00
    0.00000E+00         0.00000E+00        -0.13464E+07
 
    0.18900E+07        -0.78423E+06         0.00000E+00
   -0.78423E+06        -0.10172E+08         0.00000E+00
    0.00000E+00         0.00000E+00        -0.16565E+07
 
    0.94483E+06        -0.11747E+07         0.00000E+00
   -0.11747E+07        -0.10486E+08         0.00000E+00
    0.00000E+00         0.00000E+00        -0.19082E+07
 
    0.32495E+06        -0.14221E+07         0.00000E+00
   -0.14221E+07        -0.10881E+08         0.00000E+00
    0.00000E+00         0.00000E+00        -0.21112E+07
 
   -0.54524E+05        -0.15118E+07         0.00000E+00
   -0.15118E+07        -0.11317E+08         0.00000E+00
    0.00000E+00         0.00000E+00        -0.22743E+07
 
   -0.26623E+06        -0.14392E+07         0.00000E+00
   -0.14392E+07        -0.11762E+08         0.00000E+00
    0.00000E+00         0.00000E+00        -0.24057E+07
 
   -0.37167E+06        -0.12065E+07         0.00000E+00
   -0.12065E+07        -0.12192E+08         0.00000E+00
    0.00000E+00         0.00000E+00        -0.25128E+07
 
   -0.42316E+06        -0.81950E+06         0.00000E+00
   -0.81950E+06        -0.12588E+08         0.00000E+00
    0.00000E+00         0.00000E+00        -0.26022E+07
 
   -0.46605E+06        -0.28603E+06         0.00000E+00
   -0.28603E+06        -0.12933E+08         0.00000E+00
    0.00000E+00         0.00000E+00        -0.26799E+07
 
   -0.54121E+06         0.38484E+06         0.00000E+00
    0.38484E+06        -0.13215E+08         0.00000E+00
    0.00000E+00         0.00000E+00        -0.27512E+07
 
   -0.68718E+06         0.11827E+07         0.00000E+00
    0.11827E+07        -0.13418E+08         0.00000E+00
    0.00000E+00         0.00000E+00        -0.28210E+07
 
   -0.94204E+06         0.20951E+07         0.00000E+00
    0.20951E+07        -0.13526E+08         0.00000E+00
    0.00000E+00         0.00000E+00        -0.28936E+07
 
   -0.13446E+07         0.31057E+07         0.00000E+00
    0.31057E+07        -0.13522E+08         0.00000E+00
    0.00000E+00         0.00000E+00        -0.29733E+07
 
   -0.19346E+07         0.41924E+07         0.00000E+00
    0.41924E+07        -0.13383E+08         0.00000E+00
    0.00000E+00         0.00000E+00        -0.30635E+07
 
   -0.27525E+07         0.53250E+07         0.00000E+00
    0.53250E+07        -0.13085E+08         0.00000E+00
    0.00000E+00         0.00000E+00        -0.31676E+07
 
    0.96355E+06        -0.38164E+06         0.00000E+00
   -0.38164E+06        -0.11652E+08         0.00000E+00
    0.00000E+00         0.00000E+00        -0.21377E+07
 
   -0.28711E+06        -0.10423E+07         0.00000E+00
   -0.10423E+07        -0.11855E+08         0.00000E+00
    0.00000E+00         0.00000E+00        -0.24285E+07
 
   -0.10833E+07        -0.15350E+07         0.00000E+00
   -0.15350E+07        -0.12200E+08         0.00000E+00
    0.00000E+00         0.00000E+00        -0.26567E+07
 
   -0.15390E+07        -0.18397E+07         0.00000E+00
   -0.18397E+07        -0.12629E+08         0.00000E+00
    0.00000E+00         0.00000E+00        -0.28335E+07
 
   -0.17503E+07        -0.19512E+07         0.00000E+00
   -0.19512E+07        -0.13097E+08         0.00000E+00
    0.00000E+00         0.00000E+00        -0.29694E+07
 
   -0.17972E+07        -0.18732E+07         0.00000E+00
   -0.18732E+07        -0.13570E+08         0.00000E+00
    0.00000E+00         0.00000E+00        -0.30734E+07
 
   -0.17449E+07        -0.16144E+07         0.00000E+00
   -0.16144E+07        -0.14024E+08         0.00000E+00
    0.00000E+00         0.00000E+00        -0.31538E+07
 
   -0.16472E+07        -0.11854E+07         0.00000E+00
   -0.11854E+07        -0.14442E+08         0.00000E+00
    0.00000E+00         0.00000E+00        -0.32178E+07
 
   -0.15497E+07        -0.59627E+06         0.00000E+00
   -0.59627E+06        -0.14809E+08         0.00000E+00
    0.00000E+00         0.00000E+00        -0.32717E+07
 
   -0.14934E+07         0.14342E+06         0.00000E+00
    0.14342E+06        -0.15113E+08         0.00000E+00
    0.00000E+00         0.00000E+00        -0.33213E+07
 
   -0.15174E+07         0.10248E+07         0.00000E+00
    0.10248E+07        -0.15342E+08         0.00000E+00
    0.00000E+00         0.00000E+00        -0.33719E+07
 
   -0.16621E+07         0.20380E+07         0.00000E+00
    0.20380E+07        -0.15479E+08         0.00000E+00
    0.00000E+00         0.00000E+00        -0.34282E+07
 
   -0.19706E+07         0.31704E+07         0.00000E+00
    0.31704E+07        -0.15503E+08         0.00000E+00
    0.00000E+00         0.00000E+00        -0.34947E+07
 
   -0.24896E+07         0.44034E+07         0.00000E+00
    0.44034E+07        -0.15389E+08         0.00000E+00
    0.00000E+00         0.00000E+00        -0.35758E+07
 
   -0.32689E+07         0.57095E+07         0.00000E+00
    0.57095E+07        -0.15107E+08         0.00000E+00
    0.00000E+00         0.00000E+00        -0.36752E+07
 
   -0.17867E+07        -0.49274E+06         0.00000E+00
   -0.49274E+06        -0.13574E+08         0.00000E+00
    0.00000E+00         0.00000E+00        -0.30721E+07
 
   -0.28553E+07        -0.13206E+07         0.00000E+00
   -0.13206E+07        -0.13793E+08         0.00000E+00
    0.00000E+00         0.00000E+00        -0.33297E+07
 
   -0.34486E+07        -0.19173E+07         0.00000E+00
   -0.19173E+07        -0.14160E+08         0.00000E+00
    0.00000E+00         0.00000E+00        -0.35218E+07
 
   -0.36971E+07        -0.22760E+07         0.00000E+00
   -0.22760E+07        -0.14610E+08         0.00000E+00
    0.00000E+00         0.00000E+00        -0.36613E+07
 
   -0.37076E+07        -0.24038E+07         0.00000E+00
   -0.24038E+07        -0.15092E+08         0.00000E+00
    0.00000E+00         0.00000E+00        -0.37600E+07
 
   -0.35653E+07        -0.23153E+07         0.00000E+00
   -0.23153E+07        -0.15574E+08         0.00000E+00
    0.00000E+00         0.00000E+00        -0.38280E+07
 
   -0.33372E+07        -0.20274E+07         0.00000E+00
   -0.20274E+07        -0.16033E+08         0.00000E+00
    0.00000E+00         0.00000E+00        -0.38741E+07
 
   -0.30760E+07        -0.15560E+07         0.00000E+00
   -0.15560E+07        -0.16454E+08         0.00000E+00
    0.00000E+00         0.00000E+00        -0.39059E+07
 
   -0.28252E+07        -0.91392E+06         0.00000E+00
   -0.91392E+06        -0.16826E+08         0.00000E+00
    0.00000E+00         0.00000E+00        -0.39302E+07
 
   -0.26233E+07        -0.11022E+06         0.00000E+00
   -0.11022E+06        -0.17140E+08         0.00000E+00
    0.00000E+00         0.00000E+00        -0.39527E+07
 
   -0.25087E+07         0.84875E+06         0.00000E+00
    0.84875E+06        -0.17386E+08         0.00000E+00
    0.00000E+00         0.00000E+00        -0.39790E+07
 
   -0.25225E+07         0.19577E+07         0.00000E+00
    0.19577E+07        -0.17548E+08         0.00000E+00
    0.00000E+00         0.00000E+00        -0.40141E+07
 
   -0.27116E+07         0.32093E+07         0.00000E+00
    0.32093E+07        -0.17603E+08         0.00000E+00
    0.00000E+00         0.00000E+00        -0.40629E+07
 
   -0.31299E+07         0.45910E+07         0.00000E+00
    0.45910E+07        -0.17522E+08         0.00000E+00
    0.00000E+00         0.00000E+00        -0.41303E+07
 
   -0.38381E+07         0.60804E+07         0.00000E+00
    0.60804E+07        -0.17267E+08         0.00000E+00
    0.00000E+00         0.00000E+00        -0.42209E+07
 
   -0.50272E+07        -0.61135E+06         0.00000E+00
   -0.61135E+06        -0.15775E+08         0.00000E+00
    0.00000E+00         0.00000E+00        -0.41605E+07
 
   -0.58378E+07        -0.16121E+07         0.00000E+00
   -0.16121E+07        -0.16005E+08         0.00000E+00
    0.00000E+00         0.00000E+00        -0.43686E+07
 
   -0.61672E+07        -0.23096E+07         0.00000E+00
   -0.23096E+07        -0.16382E+08         0.00000E+00
    0.00000E+00         0.00000E+00        -0.45099E+07
 
   -0.61619E+07        -0.27146E+07         0.00000E+00
   -0.27146E+07        -0.16834E+08         0.00000E+00
    0.00000E+00         0.00000E+00        -0.45992E+07
 
   -0.59382E+07        -0.28502E+07         0.00000E+00
   -0.28502E+07        -0.17310E+08         0.00000E+00
    0.00000E+00         0.00000E+00        -0.46496E+07
 
   -0.55840E+07        -0.27446E+07         0.00000E+00
   -0.27446E+07        -0.17776E+08         0.00000E+00
    0.00000E+00         0.00000E+00        -0.46720E+07
 
   -0.51649E+07        -0.24247E+07         0.00000E+00
   -0.24247E+07        -0.18214E+08         0.00000E+00
    0.00000E+00         0.00000E+00        -0.46757E+07
 
   -0.47291E+07        -0.19125E+07         0.00000E+00
   -0.19125E+07        -0.18613E+08         0.00000E+00
    0.00000E+00         0.00000E+00        -0.46684E+07
 
   -0.43147E+07        -0.12232E+07         0.00000E+00
   -0.12232E+07        -0.18969E+08         0.00000E+00
    0.00000E+00         0.00000E+00        -0.46567E+07
 
   -0.39552E+07        -0.36482E+06         0.00000E+00
   -0.36482E+06        -0.19277E+08         0.00000E+00
    0.00000E+00         0.00000E+00        -0.46465E+07
 
   -0.36853E+07         0.66042E+06         0.00000E+00
    0.66042E+06        -0.19530E+08         0.00000E+00
    0.00000E+00         0.00000E+00        -0.46430E+07
 
   -0.35456E+07         0.18537E+07         0.00000E+00
    0.18537E+07        -0.19712E+08         0.00000E+00
    0.00000E+00         0.00000E+00        -0.46515E+07
 
   -0.35857E+07         0.32161E+07         0.00000E+00
    0.32161E+07        -0.19801E+08         0.00000E+00
    0.00000E+00         0.00000E+00        -0.46772E+07
 
   -0.38671E+07         0.47435E+07         0.00000E+00
    0.47435E+07        -0.19761E+08         0.00000E+00
    0.00000E+00         0.00000E+00        -0.47257E+07
 
   -0.44624E+07         0.64217E+07         0.00000E+00
    0.64217E+07        -0.19549E+08         0.00000E+00
    0.00000E+00         0.00000E+00        -0.48023E+07
 
   -0.87825E+07        -0.73453E+06         0.00000E+00
   -0.73453E+06        -0.18271E+08         0.00000E+00
    0.00000E+00         0.00000E+00        -0.54107E+07
 
   -0.92477E+07        -0.19075E+07         0.00000E+00
   -0.19075E+07        -0.18504E+08         0.00000E+00
    0.00000E+00         0.00000E+00        -0.55503E+07
 
   -0.92450E+07        -0.26963E+07         0.00000E+00
   -0.26963E+07        -0.18875E+08         0.00000E+00
    0.00000E+00         0.00000E+00        -0.56240E+07
 
   -0.89371E+07        -0.31344E+07         0.00000E+00
   -0.31344E+07        -0.19307E+08         0.00000E+00
    0.00000E+00         0.00000E+00        -0.56488E+07
 
   -0.84468E+07        -0.32655E+07         0.00000E+00
   -0.32655E+07        -0.19747E+08         0.00000E+00
    0.00000E+00         0.00000E+00        -0.56388E+07
 
   -0.78616E+07        -0.31345E+07         0.00000E+00
   -0.31345E+07        -0.20166E+08         0.00000E+00
    0.00000E+00         0.00000E+00        -0.56056E+07
 
   -0.72408E+07        -0.27802E+07         0.00000E+00
   -0.27802E+07        -0.20552E+08         0.00000E+00
    0.00000E+00         0.00000E+00        -0.55585E+07
 
   -0.66243E+07        -0.22313E+07         0.00000E+00
   -0.22313E+07        -0.20901E+08         0.00000E+00
    0.00000E+00         0.00000E+00        -0.55051E+07
 
   -0.60405E+07        -0.15049E+07         0.00000E+00
   -0.15049E+07        -0.21216E+08         0.00000E+00
    0.00000E+00         0.00000E+00        -0.54513E+07
 
   -0.55143E+07        -0.60675E+06         0.00000E+00
   -0.60675E+06        -0.21498E+08         0.00000E+00
    0.00000E+00         0.00000E+00        -0.54024E+07
 
   -0.50739E+07         0.46671E+06         0.00000E+00
    0.46671E+06        -0.21744E+08         0.00000E+00
    0.00000E+00         0.00000E+00        -0.53636E+07
 
   -0.47566E+07         0.17257E+07         0.00000E+00
    0.17257E+07        -0.21942E+08         0.00000E+00
    0.00000E+00         0.00000E+00        -0.53397E+07
 
   -0.46136E+07         0.31825E+07         0.00000E+00
    0.31825E+07        -0.22068E+08         0.00000E+00
    0.00000E+00         0.00000E+00        -0.53363E+07
 
   -0.47137E+07         0.48456E+07         0.00000E+00
    0.48456E+07        -0.22083E+08         0.00000E+00
    0.00000E+00         0.00000E+00        -0.53594E+07
 
   -0.51434E+07         0.67125E+07         0.00000E+00
    0.67125E+07        -0.21934E+08         0.00000E+00
    0.00000E+00         0.00000E+00        -0.54155E+07
 
   -0.13064E+08        -0.85863E+06         0.00000E+00
   -0.85863E+06        -0.21071E+08         0.00000E+00
    0.00000E+00         0.00000E+00        -0.68269E+07
 
   -0.13084E+08        -0.21950E+07         0.00000E+00
   -0.21950E+07        -0.21296E+08         0.00000E+00
    0.00000E+00         0.00000E+00        -0.68759E+07
 
   -0.12675E+08        -0.30573E+07         0.00000E+00
   -0.30573E+07        -0.21642E+08         0.00000E+00
    0.00000E+00         0.00000E+00        -0.68633E+07
 
   -0.12014E+08        -0.35084E+07         0.00000E+00
   -0.35084E+07        -0.22024E+08         0.00000E+00
    0.00000E+00         0.00000E+00        -0.68077E+07
 
   -0.11229E+08        -0.36184E+07         0.00000E+00
   -0.36184E+07        -0.22394E+08         0.00000E+00
    0.00000E+00         0.00000E+00        -0.67246E+07
 
   -0.10400E+08        -0.34527E+07         0.00000E+00
   -0.34527E+07        -0.22728E+08         0.00000E+00
    0.00000E+00         0.00000E+00        -0.66256E+07
 
   -0.95740E+07        -0.30632E+07         0.00000E+00
   -0.30632E+07        -0.23025E+08         0.00000E+00
    0.00000E+00         0.00000E+00        -0.65197E+07
 
   -0.87774E+07        -0.24851E+07         0.00000E+00
   -0.24851E+07        -0.23290E+08         0.00000E+00
    0.00000E+00         0.00000E+00        -0.64134E+07
 
   -0.80243E+07        -0.17366E+07         0.00000E+00
   -0.17366E+07        -0.23534E+08         0.00000E+00
    0.00000E+00         0.00000E+00        -0.63117E+07
 
   -0.73269E+07        -0.82011E+06         0.00000E+00
   -0.82011E+06        -0.23768E+08         0.00000E+00
    0.00000E+00         0.00000E+00        -0.62189E+07
 
   -0.67030E+07         0.27568E+06         0.00000E+00
    0.27568E+06        -0.23992E+08         0.00000E+00
    0.00000E+00         0.00000E+00        -0.61391E+07
 
   -0.61835E+07         0.15726E+07         0.00000E+00
    0.15726E+07        -0.24201E+08         0.00000E+00
    0.00000E+00         0.00000E+00        -0.60768E+07
 
   -0.58189E+07         0.30979E+07         0.00000E+00
    0.30979E+07        -0.24369E+08         0.00000E+00
    0.00000E+00         0.00000E+00        -0.60376E+07
 
   -0.56846E+07         0.48775E+07         0.00000E+00
    0.48775E+07        -0.24455E+08         0.00000E+00
    0.00000E+00         0.00000E+00        -0.60279E+07
 
   -0.58828E+07         0.69257E+07         0.00000E+00
    0.69257E+07        -0.24394E+08         0.00000E+00
    0.00000E+00         0.00000E+00        -0.60554E+07
 
   -0.17864E+08        -0.97919E+06         0.00000E+00
   -0.97919E+06        -0.24174E+08         0.00000E+00
    0.00000E+00         0.00000E+00        -0.84078E+07
 
   -0.17327E+08        -0.24595E+07         0.00000E+00
   -0.24595E+07        -0.24380E+08         0.00000E+00
    0.00000E+00         0.00000E+00        -0.83414E+07
 
   -0.16432E+08        -0.33667E+07         0.00000E+00
   -0.33667E+07        -0.24674E+08         0.00000E+00
    0.00000E+00         0.00000E+00        -0.82212E+07
 
   -0.15372E+08        -0.38023E+07         0.00000E+00
   -0.38023E+07        -0.24970E+08         0.00000E+00
    0.00000E+00         0.00000E+00        -0.80684E+07
 
   -0.14270E+08        -0.38707E+07         0.00000E+00
   -0.38707E+07        -0.25226E+08         0.00000E+00
    0.00000E+00         0.00000E+00        -0.78992E+07
 
   -0.13194E+08        -0.36608E+07         0.00000E+00
   -0.36608E+07        -0.25431E+08         0.00000E+00
    0.00000E+00         0.00000E+00        -0.77249E+07
 
   -0.12169E+08        -0.32381E+07         0.00000E+00
   -0.32381E+07        -0.25596E+08         0.00000E+00
    0.00000E+00         0.00000E+00        -0.75530E+07
 
   -0.11202E+08        -0.26431E+07         0.00000E+00
   -0.26431E+07        -0.25740E+08         0.00000E+00
    0.00000E+00         0.00000E+00        -0.73884E+07
 
   -0.10287E+08        -0.18935E+07         0.00000E+00
   -0.18935E+07        -0.25884E+08         0.00000E+00
    0.00000E+00         0.00000E+00        -0.72341E+07
 
   -0.94199E+07        -0.98708E+06         0.00000E+00
   -0.98708E+06        -0.26044E+08         0.00000E+00
    0.00000E+00         0.00000E+00        -0.70927E+07
 
   -0.86036E+07         0.96538E+05         0.00000E+00
    0.96538E+05        -0.26231E+08         0.00000E+00
    0.00000E+00         0.00000E+00        -0.69669E+07
 
   -0.78580E+07         0.13931E+07         0.00000E+00
    0.13931E+07        -0.26443E+08         0.00000E+00
    0.00000E+00         0.00000E+00        -0.68603E+07
 
   -0.72291E+07         0.29492E+07         0.00000E+00
    0.29492E+07        -0.26660E+08         0.00000E+00
    0.00000E+00         0.00000E+00        -0.67778E+07
 
   -0.67974E+07         0.48143E+07         0.00000E+00
    0.48143E+07        -0.26836E+08         0.00000E+00
    0.00000E+00         0.00000E+00        -0.67267E+07
 
   -0.66825E+07         0.70269E+07         0.00000E+00
    0.70269E+07        -0.26897E+08         0.00000E+00
    0.00000E+00         0.00000E+00        -0.67158E+07
 
   -0.23159E+08        -0.10909E+07         0.00000E+00
   -0.10909E+07        -0.27572E+08         0.00000E+00
    0.00000E+00         0.00000E+00        -0.10146E+08
 
   -0.21935E+08        -0.26815E+07         0.00000E+00
   -0.26815E+07        -0.27742E+08         0.00000E+00
    0.00000E+00         0.00000E+00        -0.99355E+07
 
   -0.20471E+08        -0.35901E+07         0.00000E+00
   -0.35901E+07        -0.27951E+08         0.00000E+00
    0.00000E+00         0.00000E+00        -0.96844E+07
 
   -0.18971E+08        -0.39725E+07         0.00000E+00
   -0.39725E+07        -0.28113E+08         0.00000E+00
    0.00000E+00         0.00000E+00        -0.94169E+07
 
   -0.17546E+08        -0.39759E+07         0.00000E+00
   -0.39759E+07        -0.28201E+08         0.00000E+00
    0.00000E+00         0.00000E+00        -0.91493E+07
 
   -0.16232E+08        -0.37153E+07         0.00000E+00
   -0.37153E+07        -0.28226E+08         0.00000E+00
    0.00000E+00         0.00000E+00        -0.88915E+07
 
   -0.15027E+08        -0.32669E+07         0.00000E+00
   -0.32669E+07        -0.28215E+08         0.00000E+00
    0.00000E+00         0.00000E+00        -0.86484E+07
 
   -0.13908E+08        -0.26735E+07         0.00000E+00
   -0.26735E+07        -0.28201E+08         0.00000E+00
    0.00000E+00         0.00000E+00        -0.84219E+07
 
   -0.12847E+08        -0.19501E+07         0.00000E+00
   -0.19501E+07        -0.28214E+08         0.00000E+00
    0.00000E+00         0.00000E+00        -0.82122E+07
 
   -0.11819E+08        -0.10887E+07         0.00000E+00
   -0.10887E+07        -0.28277E+08         0.00000E+00
    0.00000E+00         0.00000E+00        -0.80193E+07
 
   -0.10808E+08        -0.60168E+05         0.00000E+00
   -0.60168E+05        -0.28409E+08         0.00000E+00
    0.00000E+00         0.00000E+00        -0.78435E+07
 
   -0.98164E+07         0.11863E+07         0.00000E+00
    0.11863E+07        -0.28618E+08         0.00000E+00
    0.00000E+00         0.00000E+00        -0.76868E+07
 
   -0.88783E+07         0.27210E+07         0.00000E+00
    0.27210E+07        -0.28889E+08         0.00000E+00
    0.00000E+00         0.00000E+00        -0.75535E+07
 
   -0.80751E+07         0.46250E+07         0.00000E+00
    0.46250E+07        -0.29179E+08         0.00000E+00
    0.00000E+00         0.00000E+00        -0.74509E+07
 
   -0.75459E+07         0.69723E+07         0.00000E+00
    0.69723E+07        -0.29403E+08         0.00000E+00
    0.00000E+00         0.00000E+00        -0.73897E+07
 
   -0.28893E+08        -0.11874E+07         0.00000E+00
   -0.11874E+07        -0.31243E+08         0.00000E+00
    0.00000E+00         0.00000E+00        -0.12027E+08
 
   -0.26837E+08        -0.28337E+07         0.00000E+00
   -0.28337E+07        -0.31355E+08         0.00000E+00
    0.00000E+00         0.00000E+00        -0.11638E+08
 
   -0.24722E+08        -0.36801E+07         0.00000E+00
   -0.36801E+07        -0.31430E+08         0.00000E+00
    0.00000E+00         0.00000E+00        -0.11230E+08
 
   -0.22760E+08        -0.39620E+07         0.00000E+00
   -0.39620E+07        -0.31394E+08         0.00000E+00
    0.00000E+00         0.00000E+00        -0.10831E+08
 
   -0.21023E+08        -0.38797E+07         0.00000E+00
   -0.38797E+07        -0.31250E+08         0.00000E+00
    0.00000E+00         0.00000E+00        -0.10455E+08
 
   -0.19501E+08        -0.35703E+07         0.00000E+00
   -0.35703E+07        -0.31041E+08         0.00000E+00
    0.00000E+00         0.00000E+00        -0.10108E+08
 
   -0.18146E+08        -0.31134E+07         0.00000E+00
   -0.31134E+07        -0.30815E+08         0.00000E+00
    0.00000E+00         0.00000E+00        -0.97922E+07
 
   -0.16904E+08        -0.25476E+07         0.00000E+00
   -0.25476E+07        -0.30612E+08         0.00000E+00
    0.00000E+00         0.00000E+00        -0.95031E+07
 
   -0.15721E+08        -0.18830E+07         0.00000E+00
   -0.18830E+07        -0.30468E+08         0.00000E+00
    0.00000E+00         0.00000E+00        -0.92378E+07
 
   -0.14549E+08        -0.11065E+07         0.00000E+00
   -0.11065E+07        -0.30414E+08         0.00000E+00
    0.00000E+00         0.00000E+00        -0.89926E+07
 
   -0.13350E+08        -0.18198E+06         0.00000E+00
   -0.18198E+06        -0.30474E+08         0.00000E+00
    0.00000E+00         0.00000E+00        -0.87647E+07
 
   -0.12100E+08         0.95391E+06         0.00000E+00
    0.95391E+06        -0.30668E+08         0.00000E+00
    0.00000E+00         0.00000E+00        -0.85536E+07
 
   -0.10810E+08         0.23971E+07         0.00000E+00
    0.23971E+07        -0.30998E+08         0.00000E+00
    0.00000E+00         0.00000E+00        -0.83615E+07
 
   -0.95504E+07         0.42717E+07         0.00000E+00
    0.42717E+07        -0.31429E+08         0.00000E+00
    0.00000E+00         0.00000E+00        -0.81959E+07
 
   -0.84798E+07         0.67058E+07         0.00000E+00
    0.67058E+07        -0.31867E+08         0.00000E+00
    0.00000E+00         0.00000E+00        -0.80693E+07
 
   -0.34984E+08        -0.12599E+07         0.00000E+00
   -0.12599E+07        -0.35151E+08         0.00000E+00
    0.00000E+00         0.00000E+00        -0.14027E+08
 
   -0.31918E+08        -0.28724E+07         0.00000E+00
   -0.28724E+07        -0.35171E+08         0.00000E+00
    0.00000E+00         0.00000E+00        -0.13418E+08
 
   -0.29085E+08        -0.35655E+07         0.00000E+00
   -0.35655E+07        -0.35035E+08         0.00000E+00
    0.00000E+00         0.00000E+00        -0.12824E+08
 
   -0.26675E+08        -0.36975E+07         0.00000E+00
   -0.36975E+07        -0.34712E+08         0.00000E+00
    0.00000E+00         0.00000E+00        -0.12277E+08
 
   -0.24673E+08        -0.35236E+07         0.00000E+00
   -0.35236E+07        -0.34266E+08         0.00000E+00
    0.00000E+00         0.00000E+00        -0.11788E+08
 
   -0.22989E+08        -0.31851E+07         0.00000E+00
   -0.31851E+07        -0.33778E+08         0.00000E+00
    0.00000E+00         0.00000E+00        -0.11353E+08
 
   -0.21525E+08        -0.27499E+07         0.00000E+00
   -0.27499E+07        -0.33308E+08         0.00000E+00
    0.00000E+00         0.00000E+00        -0.10967E+08
 
   -0.20193E+08        -0.22460E+07         0.00000E+00
   -0.22460E+07        -0.32899E+08         0.00000E+00
    0.00000E+00         0.00000E+00        -0.10618E+08
 
   -0.18916E+08        -0.16763E+07         0.00000E+00
   -0.16763E+07        -0.32588E+08         0.00000E+00
    0.00000E+00         0.00000E+00        -0.10301E+08
 
   -0.17626E+08        -0.10248E+07         0.00000E+00
   -0.10248E+07        -0.32403E+08         0.00000E+00
    0.00000E+00         0.00000E+00        -0.10006E+08
 
   -0.16259E+08        -0.25403E+06         0.00000E+00
   -0.25403E+06        -0.32375E+08         0.00000E+00
    0.00000E+00         0.00000E+00        -0.97268E+07
 
   -0.14756E+08         0.70378E+06         0.00000E+00
    0.70378E+06        -0.32538E+08         0.00000E+00
    0.00000E+00         0.00000E+00        -0.94588E+07
 
   -0.13083E+08         0.19655E+07         0.00000E+00
    0.19655E+07        -0.32922E+08         0.00000E+00
    0.00000E+00         0.00000E+00        -0.92009E+07
 
   -0.11274E+08         0.37099E+07         0.00000E+00
    0.37099E+07        -0.33519E+08         0.00000E+00
    0.00000E+00         0.00000E+00        -0.89586E+07
 
   -0.94997E+07         0.61533E+07         0.00000E+00
    0.61533E+07        -0.34238E+08         0.00000E+00
    0.00000E+00         0.00000E+00        -0.87476E+07
 
   -0.41297E+08        -0.12919E+07         0.00000E+00
   -0.12919E+07        -0.39245E+08         0.00000E+00
    0.00000E+00         0.00000E+00        -0.16108E+08
 
   -0.37009E+08        -0.27136E+07         0.00000E+00
   -0.27136E+07        -0.39097E+08         0.00000E+00
    0.00000E+00         0.00000E+00        -0.15221E+08
 
   -0.33445E+08        -0.31346E+07         0.00000E+00
   -0.31346E+07        -0.38617E+08         0.00000E+00
    0.00000E+00         0.00000E+00        -0.14412E+08
 
   -0.30665E+08        -0.30936E+07         0.00000E+00
   -0.30936E+07        -0.37895E+08         0.00000E+00
    0.00000E+00         0.00000E+00        -0.13712E+08
 
   -0.28479E+08        -0.28599E+07         0.00000E+00
   -0.28599E+07        -0.37093E+08         0.00000E+00
    0.00000E+00         0.00000E+00        -0.13114E+08
 
   -0.26693E+08        -0.25377E+07         0.00000E+00
   -0.25377E+07        -0.36306E+08         0.00000E+00
    0.00000E+00         0.00000E+00        -0.12600E+08
 
   -0.25163E+08        -0.21688E+07         0.00000E+00
   -0.21688E+07        -0.35592E+08         0.00000E+00
    0.00000E+00         0.00000E+00        -0.12151E+08
 
   -0.23774E+08        -0.17664E+07         0.00000E+00
   -0.17664E+07        -0.34986E+08         0.00000E+00
    0.00000E+00         0.00000E+00        -0.11752E+08
 
   -0.22433E+08        -0.13276E+07         0.00000E+00
   -0.13276E+07        -0.34514E+08         0.00000E+00
    0.00000E+00         0.00000E+00        -0.11389E+08
 
   -0.21055E+08        -0.83656E+06         0.00000E+00
   -0.83656E+06        -0.34201E+08         0.00000E+00
    0.00000E+00         0.00000E+00        -0.11051E+08
 
   -0.19552E+08        -0.26132E+06         0.00000E+00
   -0.26132E+06        -0.34080E+08         0.00000E+00
    0.00000E+00         0.00000E+00        -0.10726E+08
 
   -0.17829E+08         0.45702E+06         0.00000E+00
    0.45702E+06        -0.34192E+08         0.00000E+00
    0.00000E+00         0.00000E+00        -0.10404E+08
 
   -0.15778E+08         0.14308E+07         0.00000E+00
    0.14308E+07        -0.34599E+08         0.00000E+00
    0.00000E+00         0.00000E+00        -0.10075E+08
 
   -0.13337E+08         0.28933E+07         0.00000E+00
    0.28933E+07        -0.35372E+08         0.00000E+00
    0.00000E+00         0.00000E+00        -0.97418E+07
 
   -0.10640E+08         0.52119E+07         0.00000E+00
    0.52119E+07        -0.36455E+08         0.00000E+00
    0.00000E+00         0.00000E+00        -0.94191E+07
 
   -0.47600E+08        -0.12323E+07         0.00000E+00
   -0.12323E+07        -0.43437E+08         0.00000E+00
    0.00000E+00         0.00000E+00        -0.18207E+08
 
   -0.41870E+08        -0.21638E+07         0.00000E+00
   -0.21638E+07        -0.42906E+08         0.00000E+00
    0.00000E+00         0.00000E+00        -0.16955E+08
 
   -0.37717E+08        -0.22351E+07         0.00000E+00
   -0.22351E+07        -0.41858E+08         0.00000E+00
    0.00000E+00         0.00000E+00        -0.15915E+08
 
   -0.34729E+08        -0.20933E+07         0.00000E+00
   -0.20933E+07        -0.40676E+08         0.00000E+00
    0.00000E+00         0.00000E+00        -0.15081E+08
 
   -0.32450E+08        -0.18819E+07         0.00000E+00
   -0.18819E+07        -0.39527E+08         0.00000E+00
    0.00000E+00         0.00000E+00        -0.14395E+08
 
   -0.30618E+08        -0.16436E+07         0.00000E+00
   -0.16436E+07        -0.38478E+08         0.00000E+00
    0.00000E+00         0.00000E+00        -0.13819E+08
 
   -0.29056E+08        -0.13926E+07         0.00000E+00
   -0.13926E+07        -0.37562E+08         0.00000E+00
    0.00000E+00         0.00000E+00        -0.13324E+08
 
   -0.27638E+08        -0.11310E+07         0.00000E+00
   -0.11310E+07        -0.36796E+08         0.00000E+00
    0.00000E+00         0.00000E+00        -0.12887E+08
 
   -0.26258E+08        -0.85384E+06         0.00000E+00
   -0.85384E+06        -0.36195E+08         0.00000E+00
    0.00000E+00         0.00000E+00        -0.12491E+08
 
   -0.24822E+08        -0.54940E+06         0.00000E+00
   -0.54940E+06        -0.35778E+08         0.00000E+00
    0.00000E+00         0.00000E+00        -0.12120E+08
 
   -0.23226E+08        -0.19674E+06         0.00000E+00
   -0.19674E+06        -0.35572E+08         0.00000E+00
    0.00000E+00         0.00000E+00        -0.11760E+08
 
   -0.21344E+08         0.24247E+06         0.00000E+00
    0.24247E+06        -0.35623E+08         0.00000E+00
    0.00000E+00         0.00000E+00        -0.11393E+08
 
   -0.18999E+08         0.84513E+06         0.00000E+00
    0.84513E+06        -0.36010E+08         0.00000E+00
    0.00000E+00         0.00000E+00        -0.11002E+08
 
   -0.15908E+08         0.18003E+07         0.00000E+00
    0.18003E+07        -0.36879E+08         0.00000E+00
    0.00000E+00         0.00000E+00        -0.10557E+08
 
   -0.11994E+08         0.37169E+07         0.00000E+00
    0.37169E+07        -0.38440E+08         0.00000E+00
    0.00000E+00         0.00000E+00        -0.10087E+08
 
   -0.53388E+08        -0.75696E+06         0.00000E+00
   -0.75696E+06        -0.47275E+08         0.00000E+00
    0.00000E+00         0.00000E+00        -0.20133E+08
 
   -0.46307E+08        -0.88746E+06         0.00000E+00
   -0.88746E+06        -0.45858E+08         0.00000E+00
    0.00000E+00         0.00000E+00        -0.18433E+08
 
   -0.41971E+08        -0.82437E+06         0.00000E+00
   -0.82437E+06        -0.44252E+08         0.00000E+00
    0.00000E+00         0.00000E+00        -0.17244E+08
 
   -0.38917E+08        -0.74546E+06         0.00000E+00
   -0.74546E+06        -0.42732E+08         0.00000E+00
    0.00000E+00         0.00000E+00        -0.16330E+08
 
   -0.36613E+08        -0.65853E+06         0.00000E+00
   -0.65853E+06        -0.41360E+08         0.00000E+00
    0.00000E+00         0.00000E+00        -0.15595E+08
 
   -0.34767E+08        -0.56970E+06         0.00000E+00
   -0.56970E+06        -0.40154E+08         0.00000E+00
    0.00000E+00         0.00000E+00        -0.14984E+08
 
   -0.33193E+08        -0.48020E+06         0.00000E+00
   -0.48020E+06        -0.39121E+08         0.00000E+00
    0.00000E+00         0.00000E+00        -0.14463E+08
 
   -0.31761E+08        -0.38924E+06         0.00000E+00
   -0.38924E+06        -0.38265E+08         0.00000E+00
    0.00000E+00         0.00000E+00        -0.14005E+08
 
   -0.30362E+08        -0.29440E+06         0.00000E+00
   -0.29440E+06        -0.37592E+08         0.00000E+00
    0.00000E+00         0.00000E+00        -0.13591E+08
 
   -0.28896E+08        -0.19142E+06         0.00000E+00
   -0.19142E+06        -0.37115E+08         0.00000E+00
    0.00000E+00         0.00000E+00        -0.13202E+08
 
   -0.27252E+08        -0.73086E+05         0.00000E+00
   -0.73086E+05        -0.36858E+08         0.00000E+00
    0.00000E+00         0.00000E+00        -0.12822E+08
 
   -0.25288E+08         0.73435E+05         0.00000E+00
    0.73435E+05        -0.36863E+08         0.00000E+00
    0.00000E+00         0.00000E+00        -0.12430E+08
 
   -0.22783E+08         0.27519E+06         0.00000E+00
    0.27519E+06        -0.37214E+08         0.00000E+00
    0.00000E+00         0.00000E+00        -0.11999E+08
 
   -0.19337E+08         0.59234E+06         0.00000E+00
    0.59234E+06        -0.38082E+08         0.00000E+00
    0.00000E+00         0.00000E+00        -0.11484E+08
 
   -0.13810E+08         0.14024E+07         0.00000E+00
    0.14024E+07        -0.39948E+08         0.00000E+00
    0.00000E+00         0.00000E+00        -0.10752E+08
 
TENSORS stresstot double 
   -0.47061E+08        -0.45949E+05         0.00000E+00
   -0.45949E+05        -0.60030E+08         0.00000E+00
    0.00000E+00         0.00000E+00        -0.57306E+08
 
   -0.48142E+08        -0.25892E+05         0.00000E+00
   -0.25892E+05        -0.60082E+08         0.00000E+00
    0.00000E+00         0.00000E+00        -0.57534E+08
 
   -0.49098E+08         0.86197E+02         0.00000E+00
    0.86197E+02        -0.60100E+08         0.00000E+00
    0.00000E+00         0.00000E+00        -0.57732E+08
 
   -0.50016E+08         0.20154E+05         0.00000E+00
    0.20154E+05        -0.60078E+08         0.00000E+00
    0.00000E+00         0.00000E+00        -0.57915E+08
 
   -0.50913E+08         0.36143E+05         0.00000E+00
    0.36143E+05        -0.60021E+08         0.00000E+00
    0.00000E+00         0.00000E+00        -0.58087E+08
 
   -0.51792E+08         0.49196E+05         0.00000E+00
    0.49196E+05        -0.59937E+08         0.00000E+00
    0.00000E+00         0.00000E+00        -0.58250E+08
 
   -0.52653E+08         0.60353E+05         0.00000E+00
    0.60353E+05        -0.59830E+08         0.00000E+00
    0.00000E+00         0.00000E+00        -0.58405E+08
 
   -0.53494E+08         0.70419E+05         0.00000E+00
    0.70419E+05        -0.59701E+08         0.00000E+00
    0.00000E+00         0.00000E+00        -0.58552E+08
 
   -0.54315E+08         0.79989E+05         0.00000E+00
    0.79989E+05        -0.59552E+08         0.00000E+00
    0.00000E+00         0.00000E+00        -0.58690E+08
 
   -0.55116E+08         0.89501E+05         0.00000E+00
    0.89501E+05        -0.59385E+08         0.00000E+00
    0.00000E+00         0.00000E+00        -0.58821E+08
 
   -0.55896E+08         0.99318E+05         0.00000E+00
    0.99318E+05        -0.59198E+08         0.00000E+00
    0.00000E+00         0.00000E+00        -0.58943E+08
 
   -0.56661E+08         0.10990E+06         0.00000E+00
    0.10990E+06        -0.58990E+08         0.00000E+00
    0.00000E+00         0.00000E+00        -0.59057E+08
 
   -0.57415E+08         0.12227E+06         0.00000E+00
    0.12227E+06        -0.58760E+08         0.00000E+00
    0.00000E+00         0.00000E+00        -0.59164E+08
 
   -0.58173E+08         0.13901E+06         0.00000E+00
    0.13901E+06        -0.58499E+08         0.00000E+00
    0.00000E+00         0.00000E+00        -0.59266E+08
 
   -0.58988E+08         0.17897E+06         0.00000E+00
    0.17897E+06        -0.58188E+08         0.00000E+00
    0.00000E+00         0.00000E+00        -0.59368E+08
 
   -0.47115E+08        -0.47605E+05         0.00000E+00
   -0.47605E+05        -0.59988E+08         0.00000E+00
    0.00000E+00         0.00000E+00        -0.57093E+08
 
   -0.48103E+08        -0.40067E+05         0.00000E+00
   -0.40067E+05        -0.59969E+08         0.00000E+00
    0.00000E+00         0.00000E+00        -0.57291E+08
 
   -0.49059E+08         0.12536E+05         0.00000E+00
    0.12536E+05        -0.59949E+08         0.00000E+00
    0.00000E+00         0.00000E+00        -0.57487E+08
 
   -0.49983E+08         0.63222E+05         0.00000E+00
    0.63222E+05        -0.59911E+08         0.00000E+00
    0.00000E+00         0.00000E+00        -0.57674E+08
 
   -0.50886E+08         0.10629E+06         0.00000E+00
    0.10629E+06        -0.59851E+08         0.00000E+00
    0.00000E+00         0.00000E+00        -0.57854E+08
 
   -0.51769E+08         0.14283E+06         0.00000E+00
    0.14283E+06        -0.59769E+08         0.00000E+00
    0.00000E+00         0.00000E+00        -0.58026E+08
 
   -0.52632E+08         0.17494E+06         0.00000E+00
    0.17494E+06        -0.59667E+08         0.00000E+00
    0.00000E+00         0.00000E+00        -0.58190E+08
 
   -0.53475E+08         0.20459E+06         0.00000E+00
    0.20459E+06        -0.59547E+08         0.00000E+00
    0.00000E+00         0.00000E+00        -0.58346E+08
 
   -0.54296E+08         0.23332E+06         0.00000E+00
    0.23332E+06        -0.59407E+08         0.00000E+00
    0.00000E+00         0.00000E+00        -0.58494E+08
 
   -0.55096E+08         0.26233E+06         0.00000E+00
    0.26233E+06        -0.59248E+08         0.00000E+00
    0.00000E+00         0.00000E+00        -0.58633E+08
 
   -0.55876E+08         0.29263E+06         0.00000E+00
    0.29263E+06        -0.59068E+08         0.00000E+00
    0.00000E+00         0.00000E+00        -0.58763E+08
 
   -0.56638E+08         0.32557E+06         0.00000E+00
    0.32557E+06        -0.58867E+08         0.00000E+00
    0.00000E+00         0.00000E+00        -0.58883E+08
 
   -0.57386E+08         0.36401E+06         0.00000E+00
    0.36401E+06        -0.58640E+08         0.00000E+00
    0.00000E+00         0.00000E+00        -0.58995E+08
 
   -0.58130E+08         0.41620E+06         0.00000E+00
    0.41620E+06        -0.58384E+08         0.00000E+00
    0.00000E+00         0.00000E+00        -0.59097E+08
 
   -0.58867E+08         0.51176E+06         0.00000E+00
    0.51176E+06        -0.58089E+08         0.00000E+00
    0.00000E+00         0.00000E+00        -0.59189E+08
 
   -0.47152E+08        -0.17954E+05         0.00000E+00
   -0.17954E+05        -0.59985E+08         0.00000E+00
    0.00000E+00         0.00000E+00        -0.56902E+08
 
   -0.48062E+08        -0.12299E+04         0.00000E+00
   -0.12299E+04        -0.59942E+08         0.00000E+00
    0.00000E+00         0.00000E+00        -0.57081E+08
 
   -0.49000E+08         0.55385E+05         0.00000E+00
    0.55385E+05        -0.59887E+08         0.00000E+00
    0.00000E+00         0.00000E+00        -0.57270E+08
 
   -0.49928E+08         0.12015E+06         0.00000E+00
    0.12015E+06        -0.59827E+08         0.00000E+00
    0.00000E+00         0.00000E+00        -0.57458E+08
 
   -0.50837E+08         0.18024E+06         0.00000E+00
    0.18024E+06        -0.59756E+08         0.00000E+00
    0.00000E+00         0.00000E+00        -0.57642E+08
 
   -0.51726E+08         0.23419E+06         0.00000E+00
    0.23419E+06        -0.59672E+08         0.00000E+00
    0.00000E+00         0.00000E+00        -0.57821E+08
 
   -0.52593E+08         0.28374E+06         0.00000E+00
    0.28374E+06        -0.59573E+08         0.00000E+00
    0.00000E+00         0.00000E+00        -0.57993E+08
 
   -0.53437E+08         0.33121E+06         0.00000E+00
    0.33121E+06        -0.59459E+08         0.00000E+00
    0.00000E+00         0.00000E+00        -0.58157E+08
 
   -0.54258E+08         0.37863E+06         0.00000E+00
    0.37863E+06        -0.59326E+08         0.00000E+00
    0.00000E+00         0.00000E+00        -0.58312E+08
 
   -0.55056E+08         0.42760E+06         0.00000E+00
    0.42760E+06        -0.59175E+08         0.00000E+00
    0.00000E+00         0.00000E+00        -0.58458E+08
 
   -0.55833E+08         0.47958E+06         0.00000E+00
    0.47958E+06        -0.59002E+08         0.00000E+00
    0.00000E+00         0.00000E+00        -0.58593E+08
 
   -0.56590E+08         0.53647E+06         0.00000E+00
    0.53647E+06        -0.58807E+08         0.00000E+00
    0.00000E+00         0.00000E+00        -0.58718E+08
 
   -0.57328E+08         0.60218E+06         0.00000E+00
    0.60218E+06        -0.58585E+08         0.00000E+00
    0.00000E+00         0.00000E+00        -0.58832E+08
 
   -0.58045E+08         0.68623E+06         0.00000E+00
    0.68623E+06        -0.58335E+08         0.00000E+00
    0.00000E+00         0.00000E+00        -0.58933E+08
 
   -0.58729E+08         0.80453E+06         0.00000E+00
    0.80453E+06        -0.58064E+08         0.00000E+00
    0.00000E+00         0.00000E+00        -0.59020E+08
 
   -0.47144E+08         0.13632E+05         0.00000E+00
    0.13632E+05        -0.59986E+08         0.00000E+00
    0.00000E+00         0.00000E+00        -0.56714E+08
 
   -0.48014E+08         0.58348E+05         0.00000E+00
    0.58348E+05        -0.59939E+08         0.00000E+00
    0.00000E+00         0.00000E+00        -0.56887E+08
 
   -0.48934E+08         0.12150E+06         0.00000E+00
    0.12150E+06        -0.59872E+08         0.00000E+00
    0.00000E+00         0.00000E+00        -0.57071E+08
 
   -0.49861E+08         0.19134E+06         0.00000E+00
    0.19134E+06        -0.59798E+08         0.00000E+00
    0.00000E+00         0.00000E+00        -0.57260E+08
 
   -0.50775E+08         0.25977E+06         0.00000E+00
    0.25977E+06        -0.59720E+08         0.00000E+00
    0.00000E+00         0.00000E+00        -0.57448E+08
 
   -0.51668E+08         0.32477E+06         0.00000E+00
    0.32477E+06        -0.59635E+08         0.00000E+00
    0.00000E+00         0.00000E+00        -0.57632E+08
 
   -0.52537E+08         0.38766E+06         0.00000E+00
    0.38766E+06        -0.59540E+08         0.00000E+00
    0.00000E+00         0.00000E+00        -0.57809E+08
 
   -0.53381E+08         0.45069E+06         0.00000E+00
    0.45069E+06        -0.59432E+08         0.00000E+00
    0.00000E+00         0.00000E+00        -0.57979E+08
 
   -0.54200E+08         0.51599E+06         0.00000E+00
    0.51599E+06        -0.59308E+08         0.00000E+00
    0.00000E+00         0.00000E+00        -0.58140E+08
 
   -0.54995E+08         0.58525E+06         0.00000E+00
    0.58525E+06        -0.59165E+08         0.00000E+00
    0.00000E+00         0.00000E+00        -0.58291E+08
 
   -0.55767E+08         0.65989E+06         0.00000E+00
    0.65989E+06        -0.59000E+08         0.00000E+00
    0.00000E+00         0.00000E+00        -0.58431E+08
 
   -0.56516E+08         0.74171E+06         0.00000E+00
    0.74171E+06        -0.58811E+08         0.00000E+00
    0.00000E+00         0.00000E+00        -0.58560E+08
 
   -0.57241E+08         0.83397E+06         0.00000E+00
    0.83397E+06        -0.58597E+08         0.00000E+00
    0.00000E+00         0.00000E+00        -0.58675E+08
 
   -0.57936E+08         0.94224E+06         0.00000E+00
    0.94224E+06        -0.58358E+08         0.00000E+00
    0.00000E+00         0.00000E+00        -0.58775E+08
 
   -0.58586E+08         0.10733E+07         0.00000E+00
    0.10733E+07        -0.58102E+08         0.00000E+00
    0.00000E+00         0.00000E+00        -0.58859E+08
 
   -0.47087E+08         0.42624E+05         0.00000E+00
    0.42624E+05        -0.59988E+08         0.00000E+00
    0.00000E+00         0.00000E+00        -0.56525E+08
 
   -0.47949E+08         0.12011E+06         0.00000E+00
    0.12011E+06        -0.59944E+08         0.00000E+00
    0.00000E+00         0.00000E+00        -0.56697E+08
 
   -0.48863E+08         0.19460E+06         0.00000E+00
    0.19460E+06        -0.59878E+08         0.00000E+00
    0.00000E+00         0.00000E+00        -0.56882E+08
 
   -0.49790E+08         0.26808E+06         0.00000E+00
    0.26808E+06        -0.59804E+08         0.00000E+00
    0.00000E+00         0.00000E+00        -0.57073E+08
 
   -0.50706E+08         0.34018E+06         0.00000E+00
    0.34018E+06        -0.59727E+08         0.00000E+00
    0.00000E+00         0.00000E+00        -0.57264E+08
 
   -0.51601E+08         0.41165E+06         0.00000E+00
    0.41165E+06        -0.59647E+08         0.00000E+00
    0.00000E+00         0.00000E+00        -0.57453E+08
 
   -0.52469E+08         0.48451E+06         0.00000E+00
    0.48451E+06        -0.59560E+08         0.00000E+00
    0.00000E+00         0.00000E+00        -0.57635E+08
 
   -0.53310E+08         0.56118E+06         0.00000E+00
    0.56118E+06        -0.59462E+08         0.00000E+00
    0.00000E+00         0.00000E+00        -0.57810E+08
 
   -0.54124E+08         0.64373E+06         0.00000E+00
    0.64373E+06        -0.59349E+08         0.00000E+00
    0.00000E+00         0.00000E+00        -0.57975E+08
 
   -0.54912E+08         0.73363E+06         0.00000E+00
    0.73363E+06        -0.59217E+08         0.00000E+00
    0.00000E+00         0.00000E+00        -0.58130E+08
 
   -0.55677E+08         0.83183E+06         0.00000E+00
    0.83183E+06        -0.59062E+08         0.00000E+00
    0.00000E+00         0.00000E+00        -0.58274E+08
 
   -0.56417E+08         0.93919E+06         0.00000E+00
    0.93919E+06        -0.58882E+08         0.00000E+00
    0.00000E+00         0.00000E+00        -0.58404E+08
 
   -0.57130E+08         0.10569E+07         0.00000E+00
    0.10569E+07        -0.58677E+08         0.00000E+00
    0.00000E+00         0.00000E+00        -0.58521E+08
 
   -0.57809E+08         0.11864E+07         0.00000E+00
    0.11864E+07        -0.58447E+08         0.00000E+00
    0.00000E+00         0.00000E+00        -0.58622E+08
 
   -0.58440E+08         0.13285E+07         0.00000E+00
    0.13285E+07        -0.58202E+08         0.00000E+00
    0.00000E+00         0.00000E+00        -0.58705E+08
 
   -0.46982E+08         0.67500E+05         0.00000E+00
    0.67500E+05        -0.59990E+08         0.00000E+00
    0.00000E+00         0.00000E+00        -0.56328E+08
 
   -0.47864E+08         0.17565E+06         0.00000E+00
    0.17565E+06        -0.59953E+08         0.00000E+00
    0.00000E+00         0.00000E+00        -0.56506E+08
 
   -0.48786E+08         0.26257E+06         0.00000E+00
    0.26257E+06        -0.59896E+08         0.00000E+00
    0.00000E+00         0.00000E+00        -0.56695E+08
 
   -0.49716E+08         0.33962E+06         0.00000E+00
    0.33962E+06        -0.59832E+08         0.00000E+00
    0.00000E+00         0.00000E+00        -0.56890E+08
 
   -0.50633E+08         0.41348E+06         0.00000E+00
    0.41348E+06        -0.59766E+08         0.00000E+00
    0.00000E+00         0.00000E+00        -0.57086E+08
 
   -0.51526E+08         0.48888E+06         0.00000E+00
    0.48888E+06        -0.59698E+08         0.00000E+00
    0.00000E+00         0.00000E+00        -0.57278E+08
 
   -0.52389E+08         0.56966E+06         0.00000E+00
    0.56966E+06        -0.59625E+08         0.00000E+00
    0.00000E+00         0.00000E+00        -0.57465E+08
 
   -0.53223E+08         0.65885E+06         0.00000E+00
    0.65885E+06        -0.59542E+08         0.00000E+00
    0.00000E+00         0.00000E+00        -0.57643E+08
 
   -0.54028E+08         0.75857E+06         0.00000E+00
    0.75857E+06        -0.59444E+08         0.00000E+00
    0.00000E+00         0.00000E+00        -0.57812E+08
 
   -0.54807E+08         0.86987E+06         0.00000E+00
    0.86987E+06        -0.59326E+08         0.00000E+00
    0.00000E+00         0.00000E+00        -0.57970E+08
 
   -0.55561E+08         0.99284E+06         0.00000E+00
    0.99284E+06        -0.59185E+08         0.00000E+00
    0.00000E+00         0.00000E+00        -0.58116E+08
 
   -0.56291E+08         0.11268E+07         0.00000E+00
    0.11268E+07        -0.59017E+08         0.00000E+00
    0.00000E+00         0.00000E+00        -0.58249E+08
 
   -0.56994E+08         0.12706E+07         0.00000E+00
    0.12706E+07        -0.58821E+08         0.00000E+00
    0.00000E+00         0.00000E+00        -0.58366E+08
 
   -0.57664E+08         0.14220E+07         0.00000E+00
    0.14220E+07        -0.58600E+08         0.00000E+00
    0.00000E+00         0.00000E+00        -0.58468E+08
 
   -0.58288E+08         0.15775E+07         0.00000E+00
    0.15775E+07        -0.58359E+08         0.00000E+00
    0.00000E+00         0.00000E+00        -0.58551E+08
 
   -0.46840E+08         0.87291E+05         0.00000E+00
    0.87291E+05        -0.59993E+08         0.00000E+00
    0.00000E+00         0.00000E+00        -0.56120E+08
 
   -0.47760E+08         0.22012E+06         0.00000E+00
    0.22012E+06        -0.59965E+08         0.00000E+00
    0.00000E+00         0.00000E+00        -0.56308E+08
 
   -0.48702E+08         0.31716E+06         0.00000E+00
    0.31716E+06        -0.59923E+08         0.00000E+00
    0.00000E+00         0.00000E+00        -0.56505E+08
 
   -0.49641E+08         0.39662E+06         0.00000E+00
    0.39662E+06        -0.59877E+08         0.00000E+00
    0.00000E+00         0.00000E+00        -0.56705E+08
 
   -0.50558E+08         0.47104E+06         0.00000E+00
    0.47104E+06        -0.59830E+08         0.00000E+00
    0.00000E+00         0.00000E+00        -0.56905E+08
 
   -0.51446E+08         0.54913E+06         0.00000E+00
    0.54913E+06        -0.59782E+08         0.00000E+00
    0.00000E+00         0.00000E+00        -0.57102E+08
 
   -0.52300E+08         0.63697E+06         0.00000E+00
    0.63697E+06        -0.59730E+08         0.00000E+00
    0.00000E+00         0.00000E+00        -0.57292E+08
 
   -0.53121E+08         0.73858E+06         0.00000E+00
    0.73858E+06        -0.59668E+08         0.00000E+00
    0.00000E+00         0.00000E+00        -0.57473E+08
 
   -0.53912E+08         0.85618E+06         0.00000E+00
    0.85618E+06        -0.59590E+08         0.00000E+00
    0.00000E+00         0.00000E+00        -0.57644E+08
 
   -0.54677E+08         0.99034E+06         0.00000E+00
    0.99034E+06        -0.59491E+08         0.00000E+00
    0.00000E+00         0.00000E+00        -0.57805E+08
 
   -0.55419E+08         0.11401E+07         0.00000E+00
    0.11401E+07        -0.59366E+08         0.00000E+00
    0.00000E+00         0.00000E+00        -0.57952E+08
 
   -0.56138E+08         0.13030E+07         0.00000E+00
    0.13030E+07        -0.59212E+08         0.00000E+00
    0.00000E+00         0.00000E+00        -0.58086E+08
 
   -0.56833E+08         0.14754E+07         0.00000E+00
    0.14754E+07        -0.59027E+08         0.00000E+00
    0.00000E+00         0.00000E+00        -0.58205E+08
 
   -0.57499E+08         0.16520E+07         0.00000E+00
    0.16520E+07        -0.58812E+08         0.00000E+00
    0.00000E+00         0.00000E+00        -0.58308E+08
 
   -0.58126E+08         0.18256E+07         0.00000E+00
    0.18256E+07        -0.58573E+08         0.00000E+00
    0.00000E+00         0.00000E+00        -0.58392E+08
 
   -0.46668E+08         0.10111E+06         0.00000E+00
    0.10111E+06        -0.59996E+08         0.00000E+00
    0.00000E+00         0.00000E+00        -0.55896E+08
 
   -0.47642E+08         0.25002E+06         0.00000E+00
    0.25002E+06        -0.59979E+08         0.00000E+00
    0.00000E+00         0.00000E+00        -0.56097E+08
 
   -0.48615E+08         0.35220E+06         0.00000E+00
    0.35220E+06        -0.59957E+08         0.00000E+00
    0.00000E+00         0.00000E+00        -0.56304E+08
 
   -0.49566E+08         0.43137E+06         0.00000E+00
    0.43137E+06        -0.59934E+08         0.00000E+00
    0.00000E+00         0.00000E+00        -0.56511E+08
 
   -0.50483E+08         0.50486E+06         0.00000E+00
    0.50486E+06        -0.59914E+08         0.00000E+00
    0.00000E+00         0.00000E+00        -0.56717E+08
 
   -0.51361E+08         0.58491E+06         0.00000E+00
    0.58491E+06        -0.59894E+08         0.00000E+00
    0.00000E+00         0.00000E+00        -0.56917E+08
 
   -0.52200E+08         0.67978E+06         0.00000E+00
    0.67978E+06        -0.59870E+08         0.00000E+00
    0.00000E+00         0.00000E+00        -0.57109E+08
 
   -0.53003E+08         0.79457E+06         0.00000E+00
    0.79457E+06        -0.59835E+08         0.00000E+00
    0.00000E+00         0.00000E+00        -0.57293E+08
 
   -0.53775E+08         0.93166E+06         0.00000E+00
    0.93166E+06        -0.59783E+08         0.00000E+00
    0.00000E+00         0.00000E+00        -0.57466E+08
 
   -0.54521E+08         0.10911E+07         0.00000E+00
    0.10911E+07        -0.59707E+08         0.00000E+00
    0.00000E+00         0.00000E+00        -0.57627E+08
 
   -0.55246E+08         0.12706E+07         0.00000E+00
    0.12706E+07        -0.59602E+08         0.00000E+00
    0.00000E+00         0.00000E+00        -0.57775E+08
 
   -0.55953E+08         0.14662E+07         0.00000E+00
    0.14662E+07        -0.59464E+08         0.00000E+00
    0.00000E+00         0.00000E+00        -0.57910E+08
 
   -0.56642E+08         0.16717E+07         0.00000E+00
    0.16717E+07        -0.59290E+08         0.00000E+00
    0.00000E+00         0.00000E+00        -0.58030E+08
 
   -0.57309E+08         0.18789E+07         0.00000E+00
    0.18789E+07        -0.59080E+08         0.00000E+00
    0.00000E+00         0.00000E+00        -0.58134E+08
 
   -0.57947E+08         0.20775E+07         0.00000E+00
    0.20775E+07        -0.58839E+08         0.00000E+00
    0.00000E+00         0.00000E+00        -0.58220E+08
 
   -0.46478E+08         0.10807E+06         0.00000E+00
    0.10807E+06        -0.59999E+08         0.00000E+00
    0.00000E+00         0.00000E+00        -0.55652E+08
 
   -0.47519E+08         0.26236E+06         0.00000E+00
    0.26236E+06        -0.59996E+08         0.00000E+00
    0.00000E+00         0.00000E+00        -0.55868E+08
 
   -0.48528E+08         0.36266E+06         0.00000E+00
    0.36266E+06        -0.59996E+08         0.00000E+00
    0.00000E+00         0.00000E+00        -0.56086E+08
 
   -0.49493E+08         0.43740E+06         0.00000E+00
    0.43740E+06        -0.60003E+08         0.00000E+00
    0.00000E+00         0.00000E+00        -0.56302E+08
 
   -0.50408E+08         0.50783E+06         0.00000E+00
    0.50783E+06        -0.60016E+08         0.00000E+00
    0.00000E+00         0.00000E+00        -0.56512E+08
 
   -0.51273E+08         0.58916E+06         0.00000E+00
    0.58916E+06        -0.60031E+08         0.00000E+00
    0.00000E+00         0.00000E+00        -0.56715E+08
 
   -0.52090E+08         0.69155E+06         0.00000E+00
    0.69155E+06        -0.60041E+08         0.00000E+00
    0.00000E+00         0.00000E+00        -0.56910E+08
 
   -0.52868E+08         0.82101E+06         0.00000E+00
    0.82101E+06        -0.60039E+08         0.00000E+00
    0.00000E+00         0.00000E+00        -0.57094E+08
 
   -0.53614E+08         0.98003E+06         0.00000E+00
    0.98003E+06        -0.60018E+08         0.00000E+00
    0.00000E+00         0.00000E+00        -0.57267E+08
 
   -0.54336E+08         0.11680E+07         0.00000E+00
    0.11680E+07        -0.59970E+08         0.00000E+00
    0.00000E+00         0.00000E+00        -0.57428E+08
 
   -0.55040E+08         0.13817E+07         0.00000E+00
    0.13817E+07        -0.59888E+08         0.00000E+00
    0.00000E+00         0.00000E+00        -0.57577E+08
 
   -0.55732E+08         0.16150E+07         0.00000E+00
    0.16150E+07        -0.59768E+08         0.00000E+00
    0.00000E+00         0.00000E+00        -0.57712E+08
 
   -0.56415E+08         0.18596E+07         0.00000E+00
    0.18596E+07        -0.59605E+08         0.00000E+00
    0.00000E+00         0.00000E+00        -0.57832E+08
 
   -0.57087E+08         0.21047E+07         0.00000E+00
    0.21047E+07        -0.59400E+08         0.00000E+00
    0.00000E+00         0.00000E+00        -0.57938E+08
 
   -0.57743E+08         0.23369E+07         0.00000E+00
    0.23369E+07        -0.59155E+08         0.00000E+00
    0.00000E+00         0.00000E+00        -0.58026E+08
 
   -0.46285E+08         0.10723E+06         0.00000E+00
    0.10723E+06        -0.60003E+08         0.00000E+00
    0.00000E+00         0.00000E+00        -0.55381E+08
 
   -0.47400E+08         0.25438E+06         0.00000E+00
    0.25438E+06        -0.60015E+08         0.00000E+00
    0.00000E+00         0.00000E+00        -0.55615E+08
 
   -0.48449E+08         0.34417E+06         0.00000E+00
    0.34417E+06        -0.60041E+08         0.00000E+00
    0.00000E+00         0.00000E+00        -0.55845E+08
 
   -0.49427E+08         0.40912E+06         0.00000E+00
    0.40912E+06        -0.60082E+08         0.00000E+00
    0.00000E+00         0.00000E+00        -0.56068E+08
 
   -0.50335E+08         0.47374E+06         0.00000E+00
    0.47374E+06        -0.60134E+08         0.00000E+00
    0.00000E+00         0.00000E+00        -0.56284E+08
 
   -0.51180E+08         0.55557E+06         0.00000E+00
    0.55557E+06        -0.60189E+08         0.00000E+00
    0.00000E+00         0.00000E+00        -0.56489E+08
 
   -0.51969E+08         0.66626E+06         0.00000E+00
    0.66626E+06        -0.60239E+08         0.00000E+00
    0.00000E+00         0.00000E+00        -0.56684E+08
 
   -0.52714E+08         0.81248E+06         0.00000E+00
    0.81248E+06        -0.60276E+08         0.00000E+00
    0.00000E+00         0.00000E+00        -0.56868E+08
 
   -0.53426E+08         0.99663E+06         0.00000E+00
    0.99663E+06        -0.60291E+08         0.00000E+00
    0.00000E+00         0.00000E+00        -0.57040E+08
 
   -0.54116E+08         0.12175E+07         0.00000E+00
    0.12175E+07        -0.60274E+08         0.00000E+00
    0.00000E+00         0.00000E+00        -0.57199E+08
 
   -0.54795E+08         0.14704E+07         0.00000E+00
    0.14704E+07        -0.60219E+08         0.00000E+00
    0.00000E+00         0.00000E+00        -0.57347E+08
 
   -0.55469E+08         0.17479E+07         0.00000E+00
    0.17479E+07        -0.60118E+08         0.00000E+00
    0.00000E+00         0.00000E+00        -0.57481E+08
 
   -0.56145E+08         0.20393E+07         0.00000E+00
    0.20393E+07        -0.59969E+08         0.00000E+00
    0.00000E+00         0.00000E+00        -0.57602E+08
 
   -0.56824E+08         0.23311E+07         0.00000E+00
    0.23311E+07        -0.59767E+08         0.00000E+00
    0.00000E+00         0.00000E+00        -0.57708E+08
 
   -0.57502E+08         0.26070E+07         0.00000E+00
    0.26070E+07        -0.59515E+08         0.00000E+00
    0.00000E+00         0.00000E+00        -0.57800E+08
 
   -0.46104E+08         0.97628E+05         0.00000E+00
    0.97628E+05        -0.60007E+08         0.00000E+00
    0.00000E+00         0.00000E+00        -0.55079E+08
 
   -0.47297E+08         0.22348E+06         0.00000E+00
    0.22348E+06        -0.60036E+08         0.00000E+00
    0.00000E+00         0.00000E+00        -0.55331E+08
 
   -0.48385E+08         0.29283E+06         0.00000E+00
    0.29283E+06        -0.60092E+08         0.00000E+00
    0.00000E+00         0.00000E+00        -0.55573E+08
 
   -0.49371E+08         0.34173E+06         0.00000E+00
    0.34173E+06        -0.60171E+08         0.00000E+00
    0.00000E+00         0.00000E+00        -0.55803E+08
 
   -0.50266E+08         0.39728E+06         0.00000E+00
    0.39728E+06        -0.60265E+08         0.00000E+00
    0.00000E+00         0.00000E+00        -0.56022E+08
 
   -0.51082E+08         0.47876E+06         0.00000E+00
    0.47876E+06        -0.60365E+08         0.00000E+00
    0.00000E+00         0.00000E+00        -0.56229E+08
 
   -0.51834E+08         0.59875E+06         0.00000E+00
    0.59875E+06        -0.60461E+08         0.00000E+00
    0.00000E+00         0.00000E+00        -0.56422E+08
 
   -0.52537E+08         0.76423E+06         0.00000E+00
    0.76423E+06        -0.60541E+08         0.00000E+00
    0.00000E+00         0.00000E+00        -0.56604E+08
 
   -0.53207E+08         0.97732E+06         0.00000E+00
    0.97732E+06        -0.60596E+08         0.00000E+00
    0.00000E+00         0.00000E+00        -0.56772E+08
 
   -0.53858E+08         0.12360E+07         0.00000E+00
    0.12360E+07        -0.60614E+08         0.00000E+00
    0.00000E+00         0.00000E+00        -0.56929E+08
 
   -0.54504E+08         0.15345E+07         0.00000E+00
    0.15345E+07        -0.60588E+08         0.00000E+00
    0.00000E+00         0.00000E+00        -0.57074E+08
 
   -0.55157E+08         0.18635E+07         0.00000E+00
    0.18635E+07        -0.60509E+08         0.00000E+00
    0.00000E+00         0.00000E+00        -0.57206E+08
 
   -0.55824E+08         0.22104E+07         0.00000E+00
    0.22104E+07        -0.60373E+08         0.00000E+00
    0.00000E+00         0.00000E+00        -0.57326E+08
 
   -0.56510E+08         0.25591E+07         0.00000E+00
    0.25591E+07        -0.60175E+08         0.00000E+00
    0.00000E+00         0.00000E+00        -0.57434E+08
 
   -0.57215E+08         0.28906E+07         0.00000E+00
    0.28906E+07        -0.59915E+08         0.00000E+00
    0.00000E+00         0.00000E+00        -0.57528E+08
 
   -0.45952E+08         0.78332E+05         0.00000E+00
    0.78332E+05        -0.60012E+08         0.00000E+00
    0.00000E+00         0.00000E+00        -0.54738E+08
 
   -0.47222E+08         0.16725E+06         0.00000E+00
    0.16725E+06        -0.60059E+08         0.00000E+00
    0.00000E+00         0.00000E+00        -0.55008E+08
 
   -0.48343E+08         0.20521E+06         0.00000E+00
    0.20521E+06        -0.60147E+08         0.00000E+00
    0.00000E+00         0.00000E+00        -0.55261E+08
 
   -0.49331E+08         0.23119E+06         0.00000E+00
    0.23119E+06        -0.60268E+08         0.00000E+00
    0.00000E+00         0.00000E+00        -0.55497E+08
 
   -0.50203E+08         0.27414E+06         0.00000E+00
    0.27414E+06        -0.60409E+08         0.00000E+00
    0.00000E+00         0.00000E+00        -0.55718E+08
 
   -0.50980E+08         0.35437E+06         0.00000E+00
    0.35437E+06        -0.60558E+08         0.00000E+00
    0.00000E+00         0.00000E+00        -0.55923E+08
 
   -0.51684E+08         0.48487E+06         0.00000E+00
    0.48487E+06        -0.60702E+08         0.00000E+00
    0.00000E+00         0.00000E+00        -0.56113E+08
 
   -0.52334E+08         0.67247E+06         0.00000E+00
    0.67247E+06        -0.60829E+08         0.00000E+00
    0.00000E+00         0.00000E+00        -0.56290E+08
 
   -0.52951E+08         0.91876E+06         0.00000E+00
    0.91876E+06        -0.60926E+08         0.00000E+00
    0.00000E+00         0.00000E+00        -0.56453E+08
 
   -0.53555E+08         0.12208E+07         0.00000E+00
    0.12208E+07        -0.60982E+08         0.00000E+00
    0.00000E+00         0.00000E+00        -0.56605E+08
 
   -0.54161E+08         0.15716E+07         0.00000E+00
    0.15716E+07        -0.60988E+08         0.00000E+00
    0.00000E+00         0.00000E+00        -0.56745E+08
 
   -0.54786E+08         0.19604E+07         0.00000E+00
    0.19604E+07        -0.60933E+08         0.00000E+00
    0.00000E+00         0.00000E+00        -0.56874E+08
 
   -0.55440E+08         0.23725E+07         0.00000E+00
    0.23725E+07        -0.60811E+08         0.00000E+00
    0.00000E+00         0.00000E+00        -0.56993E+08
 
   -0.56133E+08         0.27897E+07         0.00000E+00
    0.27897E+07        -0.60616E+08         0.00000E+00
    0.00000E+00         0.00000E+00        -0.57101E+08
 
   -0.56867E+08         0.31898E+07         0.00000E+00
    0.31898E+07        -0.60346E+08         0.00000E+00
    0.00000E+00         0.00000E+00        -0.57199E+08
 
   -0.45848E+08         0.48440E+05         0.00000E+00
    0.48440E+05        -0.60017E+08         0.00000E+00
    0.00000E+00         0.00000E+00        -0.54351E+08
 
   -0.47188E+08         0.83546E+05         0.00000E+00
    0.83546E+05        -0.60084E+08         0.00000E+00
    0.00000E+00         0.00000E+00        -0.54637E+08
 
   -0.48333E+08         0.78481E+05         0.00000E+00
    0.78481E+05        -0.60207E+08         0.00000E+00
    0.00000E+00         0.00000E+00        -0.54899E+08
 
   -0.49311E+08         0.74331E+05         0.00000E+00
    0.74331E+05        -0.60371E+08         0.00000E+00
    0.00000E+00         0.00000E+00        -0.55139E+08
 
   -0.50148E+08         0.10108E+06         0.00000E+00
    0.10108E+06        -0.60562E+08         0.00000E+00
    0.00000E+00         0.00000E+00        -0.55358E+08
 
   -0.50874E+08         0.17931E+06         0.00000E+00
    0.17931E+06        -0.60762E+08         0.00000E+00
    0.00000E+00         0.00000E+00        -0.55559E+08
 
   -0.51516E+08         0.32174E+06         0.00000E+00
    0.32174E+06        -0.60957E+08         0.00000E+00
    0.00000E+00         0.00000E+00        -0.55744E+08
 
   -0.52101E+08         0.53459E+06         0.00000E+00
    0.53459E+06        -0.61133E+08         0.00000E+00
    0.00000E+00         0.00000E+00        -0.55913E+08
 
   -0.52655E+08         0.81862E+06         0.00000E+00
    0.81862E+06        -0.61274E+08         0.00000E+00
    0.00000E+00         0.00000E+00        -0.56069E+08
 
   -0.53200E+08         0.11699E+07         0.00000E+00
    0.11699E+07        -0.61370E+08         0.00000E+00
    0.00000E+00         0.00000E+00        -0.56213E+08
 
   -0.53758E+08         0.15803E+07         0.00000E+00
    0.15803E+07        -0.61408E+08         0.00000E+00
    0.00000E+00         0.00000E+00        -0.56346E+08
 
   -0.54348E+08         0.20375E+07         0.00000E+00
    0.20375E+07        -0.61378E+08         0.00000E+00
    0.00000E+00         0.00000E+00        -0.56471E+08
 
   -0.54984E+08         0.25252E+07         0.00000E+00
    0.25252E+07        -0.61271E+08         0.00000E+00
    0.00000E+00         0.00000E+00        -0.56586E+08
 
   -0.55680E+08         0.30230E+07         0.00000E+00
    0.30230E+07        -0.61080E+08         0.00000E+00
    0.00000E+00         0.00000E+00        -0.56694E+08
 
   -0.56444E+08         0.35060E+07         0.00000E+00
    0.35060E+07        -0.60800E+08         0.00000E+00
    0.00000E+00         0.00000E+00        -0.56795E+08
 
   -0.45813E+08         0.71580E+04         0.00000E+00
    0.71580E+04        -0.60022E+08         0.00000E+00
    0.00000E+00         0.00000E+00        -0.53909E+08
 
   -0.47210E+08        -0.29382E+05         0.00000E+00
   -0.29382E+05        -0.60110E+08         0.00000E+00
    0.00000E+00         0.00000E+00        -0.54209E+08
 
   -0.48365E+08        -0.89467E+05         0.00000E+00
   -0.89467E+05        -0.60269E+08         0.00000E+00
    0.00000E+00         0.00000E+00        -0.54477E+08
 
   -0.49317E+08        -0.13092E+06         0.00000E+00
   -0.13092E+06        -0.60479E+08         0.00000E+00
    0.00000E+00         0.00000E+00        -0.54717E+08
 
   -0.50103E+08        -0.12374E+06         0.00000E+00
   -0.12374E+06        -0.60720E+08         0.00000E+00
    0.00000E+00         0.00000E+00        -0.54932E+08
 
   -0.50762E+08        -0.47998E+05         0.00000E+00
   -0.47998E+05        -0.60973E+08         0.00000E+00
    0.00000E+00         0.00000E+00        -0.55125E+08
 
   -0.51328E+08         0.10803E+06         0.00000E+00
    0.10803E+06        -0.61220E+08         0.00000E+00
    0.00000E+00         0.00000E+00        -0.55300E+08
 
   -0.51835E+08         0.34942E+06         0.00000E+00
    0.34942E+06        -0.61444E+08         0.00000E+00
    0.00000E+00         0.00000E+00        -0.55458E+08
 
   -0.52312E+08         0.67581E+06         0.00000E+00
    0.67581E+06        -0.61631E+08         0.00000E+00
    0.00000E+00         0.00000E+00        -0.55603E+08
 
   -0.52787E+08         0.10822E+07         0.00000E+00
    0.10822E+07        -0.61767E+08         0.00000E+00
    0.00000E+00         0.00000E+00        -0.55737E+08
 
   -0.53287E+08         0.15592E+07         0.00000E+00
    0.15592E+07        -0.61838E+08         0.00000E+00
    0.00000E+00         0.00000E+00        -0.55862E+08
 
   -0.53832E+08         0.20936E+07         0.00000E+00
    0.20936E+07        -0.61834E+08         0.00000E+00
    0.00000E+00         0.00000E+00        -0.55979E+08
 
   -0.54444E+08         0.26676E+07         0.00000E+00
    0.26676E+07        -0.61743E+08         0.00000E+00
    0.00000E+00         0.00000E+00        -0.56090E+08
 
   -0.55139E+08         0.32589E+07         0.00000E+00
    0.32589E+07        -0.61556E+08         0.00000E+00
    0.00000E+00         0.00000E+00        -0.56197E+08
 
   -0.55930E+08         0.38401E+07         0.00000E+00
    0.38401E+07        -0.61267E+08         0.00000E+00
    0.00000E+00         0.00000E+00        -0.56300E+08
 
   -0.45868E+08        -0.46142E+05         0.00000E+00
   -0.46142E+05        -0.60028E+08         0.00000E+00
    0.00000E+00         0.00000E+00        -0.53404E+08
 
   -0.47304E+08        -0.17272E+06         0.00000E+00
   -0.17272E+06        -0.60138E+08         0.00000E+00
    0.00000E+00         0.00000E+00        -0.53714E+08
 
   -0.48448E+08        -0.29974E+06         0.00000E+00
   -0.29974E+06        -0.60333E+08         0.00000E+00
    0.00000E+00         0.00000E+00        -0.53984E+08
 
   -0.49353E+08        -0.38527E+06         0.00000E+00
   -0.38527E+06        -0.60589E+08         0.00000E+00
    0.00000E+00         0.00000E+00        -0.54219E+08
 
   -0.50070E+08        -0.40053E+06         0.00000E+00
   -0.40053E+06        -0.60880E+08         0.00000E+00
    0.00000E+00         0.00000E+00        -0.54425E+08
 
   -0.50644E+08        -0.32732E+06         0.00000E+00
   -0.32732E+06        -0.61184E+08         0.00000E+00
    0.00000E+00         0.00000E+00        -0.54606E+08
 
   -0.51118E+08        -0.15576E+06         0.00000E+00
   -0.15576E+06        -0.61481E+08         0.00000E+00
    0.00000E+00         0.00000E+00        -0.54767E+08
 
   -0.51531E+08         0.11753E+06         0.00000E+00
    0.11753E+06        -0.61753E+08         0.00000E+00
    0.00000E+00         0.00000E+00        -0.54911E+08
 
   -0.51918E+08         0.49071E+06         0.00000E+00
    0.49071E+06        -0.61983E+08         0.00000E+00
    0.00000E+00         0.00000E+00        -0.55042E+08
 
   -0.52311E+08         0.95762E+06         0.00000E+00
    0.95762E+06        -0.62158E+08         0.00000E+00
    0.00000E+00         0.00000E+00        -0.55162E+08
 
   -0.52739E+08         0.15081E+07         0.00000E+00
    0.15081E+07        -0.62263E+08         0.00000E+00
    0.00000E+00         0.00000E+00        -0.55275E+08
 
   -0.53230E+08         0.21279E+07         0.00000E+00
    0.21279E+07        -0.62284E+08         0.00000E+00
    0.00000E+00         0.00000E+00        -0.55382E+08
 
   -0.53808E+08         0.27986E+07         0.00000E+00
    0.27986E+07        -0.62211E+08         0.00000E+00
    0.00000E+00         0.00000E+00        -0.55487E+08
 
   -0.54494E+08         0.34963E+07         0.00000E+00
    0.34963E+07        -0.62030E+08         0.00000E+00
    0.00000E+00         0.00000E+00        -0.55591E+08
 
   -0.55307E+08         0.41917E+07         0.00000E+00
    0.41917E+07        -0.61732E+08         0.00000E+00
    0.00000E+00         0.00000E+00        -0.55695E+08
 
   -0.46035E+08        -0.11184E+06         0.00000E+00
   -0.11184E+06        -0.60033E+08         0.00000E+00
    0.00000E+00         0.00000E+00        -0.52824E+08
 
   -0.47483E+08        -0.34689E+06         0.00000E+00
   -0.34689E+06        -0.60165E+08         0.00000E+00
    0.00000E+00         0.00000E+00        -0.53139E+08
 
   -0.48591E+08        -0.55218E+06         0.00000E+00
   -0.55218E+06        -0.60397E+08         0.00000E+00
    0.00000E+00         0.00000E+00        -0.53405E+08
 
   -0.49425E+08        -0.68773E+06         0.00000E+00
   -0.68773E+06        -0.60698E+08         0.00000E+00
    0.00000E+00         0.00000E+00        -0.53631E+08
 
   -0.50049E+08        -0.72748E+06         0.00000E+00
   -0.72748E+06        -0.61036E+08         0.00000E+00
    0.00000E+00         0.00000E+00        -0.53822E+08
 
   -0.50518E+08        -0.65622E+06         0.00000E+00
   -0.65622E+06        -0.61388E+08         0.00000E+00
    0.00000E+00         0.00000E+00        -0.53986E+08
 
   -0.50882E+08        -0.46688E+06         0.00000E+00
   -0.46688E+06        -0.61731E+08         0.00000E+00
    0.00000E+00         0.00000E+00        -0.54128E+08
 
   -0.51186E+08        -0.15846E+06         0.00000E+00
   -0.15846E+06        -0.62047E+08         0.00000E+00
    0.00000E+00         0.00000E+00        -0.54254E+08
 
   -0.51468E+08         0.26548E+06         0.00000E+00
    0.26548E+06        -0.62317E+08         0.00000E+00
    0.00000E+00         0.00000E+00        -0.54366E+08
 
   -0.51765E+08         0.79764E+06         0.00000E+00
    0.79764E+06        -0.62528E+08         0.00000E+00
    0.00000E+00         0.00000E+00        -0.54469E+08
 
   -0.52109E+08         0.14273E+07         0.00000E+00
    0.14273E+07        -0.62664E+08         0.00000E+00
    0.00000E+00         0.00000E+00        -0.54567E+08
 
   -0.52533E+08         0.21399E+07         0.00000E+00
    0.21399E+07        -0.62712E+08         0.00000E+00
    0.00000E+00         0.00000E+00        -0.54662E+08
 
   -0.53064E+08         0.29167E+07         0.00000E+00
    0.29167E+07        -0.62657E+08         0.00000E+00
    0.00000E+00         0.00000E+00        -0.54758E+08
 
   -0.53731E+08         0.37333E+07         0.00000E+00
    0.37333E+07        -0.62484E+08         0.00000E+00
    0.00000E+00         0.00000E+00        -0.54857E+08
 
   -0.54559E+08         0.45590E+07         0.00000E+00
    0.45590E+07        -0.62179E+08         0.00000E+00
    0.00000E+00         0.00000E+00        -0.54962E+08
 
   -0.46337E+08        -0.18999E+06         0.00000E+00
   -0.18999E+06        -0.60039E+08         0.00000E+00
    0.00000E+00         0.00000E+00        -0.52160E+08
 
   -0.47762E+08        -0.55132E+06         0.00000E+00
   -0.55132E+06        -0.60192E+08         0.00000E+00
    0.00000E+00         0.00000E+00        -0.52472E+08
 
   -0.48800E+08        -0.84506E+06         0.00000E+00
   -0.84506E+06        -0.60459E+08         0.00000E+00
    0.00000E+00         0.00000E+00        -0.52728E+08
 
   -0.49535E+08        -0.10352E+07         0.00000E+00
   -0.10352E+07        -0.60800E+08         0.00000E+00
    0.00000E+00         0.00000E+00        -0.52936E+08
 
   -0.50041E+08        -0.11003E+07         0.00000E+00
   -0.11003E+07        -0.61181E+08         0.00000E+00
    0.00000E+00         0.00000E+00        -0.53107E+08
 
   -0.50383E+08        -0.10296E+07         0.00000E+00
   -0.10296E+07        -0.61575E+08         0.00000E+00
    0.00000E+00         0.00000E+00        -0.53249E+08
 
   -0.50618E+08        -0.81997E+06         0.00000E+00
   -0.81997E+06        -0.61958E+08         0.00000E+00
    0.00000E+00         0.00000E+00        -0.53367E+08
 
   -0.50796E+08        -0.47345E+06         0.00000E+00
   -0.47345E+06        -0.62309E+08         0.00000E+00
    0.00000E+00         0.00000E+00        -0.53468E+08
 
   -0.50958E+08         0.43501E+04         0.00000E+00
    0.43501E+04        -0.62614E+08         0.00000E+00
    0.00000E+00         0.00000E+00        -0.53558E+08
 
   -0.51144E+08         0.60515E+06         0.00000E+00
    0.60515E+06        -0.62857E+08         0.00000E+00
    0.00000E+00         0.00000E+00        -0.53640E+08
 
   -0.51391E+08         0.13180E+07         0.00000E+00
    0.13180E+07        -0.63022E+08         0.00000E+00
    0.00000E+00         0.00000E+00        -0.53720E+08
 
   -0.51732E+08         0.21290E+07         0.00000E+00
    0.21290E+07        -0.63095E+08         0.00000E+00
    0.00000E+00         0.00000E+00        -0.53800E+08
 
   -0.52203E+08         0.30199E+07         0.00000E+00
    0.30199E+07        -0.63059E+08         0.00000E+00
    0.00000E+00         0.00000E+00        -0.53884E+08
 
   -0.52837E+08         0.39668E+07         0.00000E+00
    0.39668E+07        -0.62897E+08         0.00000E+00
    0.00000E+00         0.00000E+00        -0.53976E+08
 
   -0.53666E+08         0.49387E+07         0.00000E+00
    0.49387E+07        -0.62591E+08         0.00000E+00
    0.00000E+00         0.00000E+00        -0.54079E+08
 
   -0.46797E+08        -0.28023E+06         0.00000E+00
   -0.28023E+06        -0.60045E+08         0.00000E+00
    0.00000E+00         0.00000E+00        -0.51401E+08
 
   -0.48155E+08        -0.78423E+06         0.00000E+00
   -0.78423E+06        -0.60217E+08         0.00000E+00
    0.00000E+00         0.00000E+00        -0.51701E+08
 
   -0.49084E+08        -0.11747E+07         0.00000E+00
   -0.11747E+07        -0.60515E+08         0.00000E+00
    0.00000E+00         0.00000E+00        -0.51937E+08
 
   -0.49685E+08        -0.14221E+07         0.00000E+00
   -0.14221E+07        -0.60890E+08         0.00000E+00
    0.00000E+00         0.00000E+00        -0.52121E+08
 
   -0.50044E+08        -0.15118E+07         0.00000E+00
   -0.15118E+07        -0.61307E+08         0.00000E+00
    0.00000E+00         0.00000E+00        -0.52264E+08
 
   -0.50237E+08        -0.14392E+07         0.00000E+00
   -0.14392E+07        -0.61733E+08         0.00000E+00
    0.00000E+00         0.00000E+00        -0.52376E+08
 
   -0.50324E+08        -0.12065E+07         0.00000E+00
   -0.12065E+07        -0.62145E+08         0.00000E+00
    0.00000E+00         0.00000E+00        -0.52465E+08
 
   -0.50359E+08        -0.81950E+06         0.00000E+00
   -0.81950E+06        -0.62523E+08         0.00000E+00
    0.00000E+00         0.00000E+00        -0.52538E+08
 
   -0.50386E+08        -0.28603E+06         0.00000E+00
   -0.28603E+06        -0.62854E+08         0.00000E+00
    0.00000E+00         0.00000E+00        -0.52600E+08
 
   -0.50447E+08         0.38484E+06         0.00000E+00
    0.38484E+06        -0.63121E+08         0.00000E+00
    0.00000E+00         0.00000E+00        -0.52657E+08
 
   -0.50580E+08         0.11827E+07         0.00000E+00
    0.11827E+07        -0.63311E+08         0.00000E+00
    0.00000E+00         0.00000E+00        -0.52714E+08
 
   -0.50824E+08         0.20951E+07         0.00000E+00
    0.20951E+07        -0.63408E+08         0.00000E+00
    0.00000E+00         0.00000E+00        -0.52775E+08
 
   -0.51216E+08         0.31057E+07         0.00000E+00
    0.31057E+07        -0.63393E+08         0.00000E+00
    0.00000E+00         0.00000E+00        -0.52845E+08
 
   -0.51798E+08         0.41924E+07         0.00000E+00
    0.41924E+07        -0.63246E+08         0.00000E+00
    0.00000E+00         0.00000E+00        -0.52927E+08
 
   -0.52611E+08         0.53250E+07         0.00000E+00
    0.53250E+07        -0.62944E+08         0.00000E+00
    0.00000E+00         0.00000E+00        -0.53026E+08
 
   -0.47434E+08        -0.38164E+06         0.00000E+00
   -0.38164E+06        -0.60049E+08         0.00000E+00
    0.00000E+00         0.00000E+00        -0.50535E+08
 
   -0.48671E+08        -0.10423E+07         0.00000E+00
   -0.10423E+07        -0.60239E+08         0.00000E+00
    0.00000E+00         0.00000E+00        -0.50812E+08
 
   -0.49445E+08        -0.15350E+07         0.00000E+00
   -0.15350E+07        -0.60562E+08         0.00000E+00
    0.00000E+00         0.00000E+00        -0.51018E+08
 
   -0.49874E+08        -0.18397E+07         0.00000E+00
   -0.18397E+07        -0.60963E+08         0.00000E+00
    0.00000E+00         0.00000E+00        -0.51168E+08
 
   -0.50057E+08        -0.19512E+07         0.00000E+00
   -0.19512E+07        -0.61403E+08         0.00000E+00
    0.00000E+00         0.00000E+00        -0.51276E+08
 
   -0.50075E+08        -0.18732E+07         0.00000E+00
   -0.18732E+07        -0.61848E+08         0.00000E+00
    0.00000E+00         0.00000E+00        -0.51352E+08
 
   -0.49996E+08        -0.16144E+07         0.00000E+00
   -0.16144E+07        -0.62275E+08         0.00000E+00
    0.00000E+00         0.00000E+00        -0.51405E+08
 
   -0.49873E+08        -0.11854E+07         0.00000E+00
   -0.11854E+07        -0.62667E+08         0.00000E+00
    0.00000E+00         0.00000E+00        -0.51443E+08
 
   -0.49752E+08        -0.59627E+06         0.00000E+00
   -0.59627E+06        -0.63011E+08         0.00000E+00
    0.00000E+00         0.00000E+00        -0.51474E+08
 
   -0.49673E+08         0.14342E+06         0.00000E+00
    0.14342E+06        -0.63293E+08         0.00000E+00
    0.00000E+00         0.00000E+00        -0.51501E+08
 
   -0.49677E+08         0.10248E+07         0.00000E+00
    0.10248E+07        -0.63502E+08         0.00000E+00
    0.00000E+00         0.00000E+00        -0.51532E+08
 
   -0.49804E+08         0.20380E+07         0.00000E+00
    0.20380E+07        -0.63621E+08         0.00000E+00
    0.00000E+00         0.00000E+00        -0.51570E+08
 
   -0.50097E+08         0.31704E+07         0.00000E+00
    0.31704E+07        -0.63630E+08         0.00000E+00
    0.00000E+00         0.00000E+00        -0.51621E+08
 
   -0.50604E+08         0.44034E+07         0.00000E+00
    0.44034E+07        -0.63504E+08         0.00000E+00
    0.00000E+00         0.00000E+00        -0.51690E+08
 
   -0.51377E+08         0.57095E+07         0.00000E+00
    0.57095E+07        -0.63215E+08         0.00000E+00
    0.00000E+00         0.00000E+00        -0.51783E+08
 
   -0.48266E+08        -0.49274E+06         0.00000E+00
   -0.49274E+06        -0.60054E+08         0.00000E+00
    0.00000E+00         0.00000E+00        -0.49552E+08
 
   -0.49318E+08        -0.13206E+07         0.00000E+00
   -0.13206E+07        -0.60256E+08         0.00000E+00
    0.00000E+00         0.00000E+00        -0.49793E+08
 
   -0.49884E+08        -0.19173E+07         0.00000E+00
   -0.19173E+07        -0.60596E+08         0.00000E+00
    0.00000E+00         0.00000E+00        -0.49957E+08
 
   -0.50099E+08        -0.22760E+07         0.00000E+00
   -0.22760E+07        -0.61011E+08         0.00000E+00
    0.00000E+00         0.00000E+00        -0.50063E+08
 
   -0.50074E+08        -0.24038E+07         0.00000E+00
   -0.24038E+07        -0.61458E+08         0.00000E+00
    0.00000E+00         0.00000E+00        -0.50126E+08
 
   -0.49895E+08        -0.23153E+07         0.00000E+00
   -0.23153E+07        -0.61905E+08         0.00000E+00
    0.00000E+00         0.00000E+00        -0.50158E+08
 
   -0.49633E+08        -0.20274E+07         0.00000E+00
   -0.20274E+07        -0.62328E+08         0.00000E+00
    0.00000E+00         0.00000E+00        -0.50169E+08
 
   -0.49338E+08        -0.15560E+07         0.00000E+00
   -0.15560E+07        -0.62716E+08         0.00000E+00
    0.00000E+00         0.00000E+00        -0.50168E+08
 
   -0.49057E+08        -0.91392E+06         0.00000E+00
   -0.91392E+06        -0.63057E+08         0.00000E+00
    0.00000E+00         0.00000E+00        -0.50162E+08
 
   -0.48826E+08        -0.11022E+06         0.00000E+00
   -0.11022E+06        -0.63343E+08         0.00000E+00
    0.00000E+00         0.00000E+00        -0.50156E+08
 
   -0.48685E+08         0.84875E+06         0.00000E+00
    0.84875E+06        -0.63563E+08         0.00000E+00
    0.00000E+00         0.00000E+00        -0.50156E+08
 
   -0.48676E+08         0.19577E+07         0.00000E+00
    0.19577E+07        -0.63701E+08         0.00000E+00
    0.00000E+00         0.00000E+00        -0.50167E+08
 
   -0.48845E+08         0.32093E+07         0.00000E+00
    0.32093E+07        -0.63736E+08         0.00000E+00
    0.00000E+00         0.00000E+00        -0.50196E+08
 
   -0.49248E+08         0.45910E+07         0.00000E+00
    0.45910E+07        -0.63639E+08         0.00000E+00
    0.00000E+00         0.00000E+00        -0.50248E+08
 
   -0.49947E+08         0.60804E+07         0.00000E+00
    0.60804E+07        -0.63376E+08         0.00000E+00
    0.00000E+00         0.00000E+00        -0.50330E+08
 
   -0.49309E+08        -0.61135E+06         0.00000E+00
   -0.61135E+06        -0.60056E+08         0.00000E+00
    0.00000E+00         0.00000E+00        -0.48442E+08
 
   -0.50100E+08        -0.16121E+07         0.00000E+00
   -0.16121E+07        -0.60267E+08         0.00000E+00
    0.00000E+00         0.00000E+00        -0.48631E+08
 
   -0.50397E+08        -0.23096E+07         0.00000E+00
   -0.23096E+07        -0.60612E+08         0.00000E+00
    0.00000E+00         0.00000E+00        -0.48740E+08
 
   -0.50354E+08        -0.27146E+07         0.00000E+00
   -0.27146E+07        -0.61026E+08         0.00000E+00
    0.00000E+00         0.00000E+00        -0.48791E+08
 
   -0.50088E+08        -0.28502E+07         0.00000E+00
   -0.28502E+07        -0.61460E+08         0.00000E+00
    0.00000E+00         0.00000E+00        -0.48800E+08
 
   -0.49692E+08        -0.27446E+07         0.00000E+00
   -0.27446E+07        -0.61884E+08         0.00000E+00
    0.00000E+00         0.00000E+00        -0.48780E+08
 
   -0.49233E+08        -0.24247E+07         0.00000E+00
   -0.24247E+07        -0.62281E+08         0.00000E+00
    0.00000E+00         0.00000E+00        -0.48743E+08
 
   -0.48758E+08        -0.19125E+07         0.00000E+00
   -0.19125E+07        -0.62642E+08         0.00000E+00
    0.00000E+00         0.00000E+00        -0.48697E+08
 
   -0.48307E+08        -0.12232E+07         0.00000E+00
   -0.12232E+07        -0.62962E+08         0.00000E+00
    0.00000E+00         0.00000E+00        -0.48649E+08
 
   -0.47914E+08        -0.36482E+06         0.00000E+00
   -0.36482E+06        -0.63236E+08         0.00000E+00
    0.00000E+00         0.00000E+00        -0.48605E+08
 
   -0.47613E+08         0.66042E+06         0.00000E+00
    0.66042E+06        -0.63457E+08         0.00000E+00
    0.00000E+00         0.00000E+00        -0.48571E+08
 
   -0.47446E+08         0.18537E+07         0.00000E+00
    0.18537E+07        -0.63612E+08         0.00000E+00
    0.00000E+00         0.00000E+00        -0.48552E+08
 
   -0.47462E+08         0.32161E+07         0.00000E+00
    0.32161E+07        -0.63677E+08         0.00000E+00
    0.00000E+00         0.00000E+00        -0.48554E+08
 
   -0.47725E+08         0.47435E+07         0.00000E+00
    0.47435E+07        -0.63620E+08         0.00000E+00
    0.00000E+00         0.00000E+00        -0.48584E+08
 
   -0.48310E+08         0.64217E+07         0.00000E+00
    0.64217E+07        -0.63397E+08         0.00000E+00
    0.00000E+00         0.00000E+00        -0.48650E+08
 
   -0.50569E+08        -0.73453E+06         0.00000E+00
   -0.73453E+06        -0.60058E+08         0.00000E+00
    0.00000E+00         0.00000E+00        -0.47197E+08
 
   -0.51014E+08        -0.19075E+07         0.00000E+00
   -0.19075E+07        -0.60270E+08         0.00000E+00
    0.00000E+00         0.00000E+00        -0.47316E+08
 
   -0.50977E+08        -0.26963E+07         0.00000E+00
   -0.26963E+07        -0.60607E+08         0.00000E+00
    0.00000E+00         0.00000E+00        -0.47356E+08
 
   -0.50627E+08        -0.31344E+07         0.00000E+00
   -0.31344E+07        -0.60997E+08         0.00000E+00
    0.00000E+00         0.00000E+00        -0.47339E+08
 
   -0.50092E+08        -0.32655E+07         0.00000E+00
   -0.32655E+07        -0.61392E+08         0.00000E+00
    0.00000E+00         0.00000E+00        -0.47284E+08
 
   -0.49461E+08        -0.31345E+07         0.00000E+00
   -0.31345E+07        -0.61766E+08         0.00000E+00
    0.00000E+00         0.00000E+00        -0.47205E+08
 
   -0.48796E+08        -0.27802E+07         0.00000E+00
   -0.27802E+07        -0.62107E+08         0.00000E+00
    0.00000E+00         0.00000E+00        -0.47114E+08
 
   -0.48137E+08        -0.22313E+07         0.00000E+00
   -0.22313E+07        -0.62414E+08         0.00000E+00
    0.00000E+00         0.00000E+00        -0.47018E+08
 
   -0.47513E+08        -0.15049E+07         0.00000E+00
   -0.15049E+07        -0.62689E+08         0.00000E+00
    0.00000E+00         0.00000E+00        -0.46924E+08
 
   -0.46950E+08        -0.60675E+06         0.00000E+00
   -0.60675E+06        -0.62933E+08         0.00000E+00
    0.00000E+00         0.00000E+00        -0.46838E+08
 
   -0.46475E+08         0.46671E+06         0.00000E+00
    0.46671E+06        -0.63145E+08         0.00000E+00
    0.00000E+00         0.00000E+00        -0.46765E+08
 
   -0.46128E+08         0.17257E+07         0.00000E+00
    0.17257E+07        -0.63313E+08         0.00000E+00
    0.00000E+00         0.00000E+00        -0.46711E+08
 
   -0.45959E+08         0.31825E+07         0.00000E+00
    0.31825E+07        -0.63413E+08         0.00000E+00
    0.00000E+00         0.00000E+00        -0.46682E+08
 
   -0.46039E+08         0.48456E+07         0.00000E+00
    0.48456E+07        -0.63409E+08         0.00000E+00
    0.00000E+00         0.00000E+00        -0.46685E+08
 
   -0.46457E+08         0.67125E+07         0.00000E+00
    0.67125E+07        -0.63248E+08         0.00000E+00
    0.00000E+00         0.00000E+00        -0.46729E+08
 
   -0.52050E+08        -0.85863E+06         0.00000E+00
   -0.85863E+06        -0.60057E+08         0.00000E+00
    0.00000E+00         0.00000E+00        -0.45814E+08
 
   -0.52049E+08        -0.21950E+07         0.00000E+00
   -0.21950E+07        -0.60261E+08         0.00000E+00
    0.00000E+00         0.00000E+00        -0.45841E+08
 
   -0.51605E+08        -0.30573E+07         0.00000E+00
   -0.30573E+07        -0.60572E+08         0.00000E+00
    0.00000E+00         0.00000E+00        -0.45794E+08
 
   -0.50903E+08        -0.35084E+07         0.00000E+00
   -0.35084E+07        -0.60913E+08         0.00000E+00
    0.00000E+00         0.00000E+00        -0.45696E+08
 
   -0.50072E+08        -0.36184E+07         0.00000E+00
   -0.36184E+07        -0.61237E+08         0.00000E+00
    0.00000E+00         0.00000E+00        -0.45567E+08
 
   -0.49196E+08        -0.34527E+07         0.00000E+00
   -0.34527E+07        -0.61525E+08         0.00000E+00
    0.00000E+00         0.00000E+00        -0.45422E+08
 
   -0.48325E+08        -0.30632E+07         0.00000E+00
   -0.30632E+07        -0.61776E+08         0.00000E+00
    0.00000E+00         0.00000E+00        -0.45271E+08
 
   -0.47485E+08        -0.24851E+07         0.00000E+00
   -0.24851E+07        -0.61997E+08         0.00000E+00
    0.00000E+00         0.00000E+00        -0.45121E+08
 
   -0.46690E+08        -0.17366E+07         0.00000E+00
   -0.17366E+07        -0.62200E+08         0.00000E+00
    0.00000E+00         0.00000E+00        -0.44978E+08
 
   -0.45955E+08        -0.82011E+06         0.00000E+00
   -0.82011E+06        -0.62395E+08         0.00000E+00
    0.00000E+00         0.00000E+00        -0.44847E+08
 
   -0.45296E+08         0.27568E+06         0.00000E+00
    0.27568E+06        -0.62585E+08         0.00000E+00
    0.00000E+00         0.00000E+00        -0.44732E+08
 
   -0.44745E+08         0.15726E+07         0.00000E+00
    0.15726E+07        -0.62762E+08         0.00000E+00
    0.00000E+00         0.00000E+00        -0.44638E+08
 
   -0.44353E+08         0.30979E+07         0.00000E+00
    0.30979E+07        -0.62904E+08         0.00000E+00
    0.00000E+00         0.00000E+00        -0.44572E+08
 
   -0.44199E+08         0.48775E+07         0.00000E+00
    0.48775E+07        -0.62969E+08         0.00000E+00
    0.00000E+00         0.00000E+00        -0.44542E+08
 
   -0.44385E+08         0.69257E+07         0.00000E+00
    0.69257E+07        -0.62896E+08         0.00000E+00
    0.00000E+00         0.00000E+00        -0.44558E+08
 
   -0.53745E+08        -0.97919E+06         0.00000E+00
   -0.97919E+06        -0.60055E+08         0.00000E+00
    0.00000E+00         0.00000E+00        -0.44288E+08
 
   -0.53188E+08        -0.24595E+07         0.00000E+00
   -0.24595E+07        -0.60240E+08         0.00000E+00
    0.00000E+00         0.00000E+00        -0.44202E+08
 
   -0.52260E+08        -0.33667E+07         0.00000E+00
   -0.33667E+07        -0.60502E+08         0.00000E+00
    0.00000E+00         0.00000E+00        -0.44049E+08
 
   -0.51159E+08        -0.38023E+07         0.00000E+00
   -0.38023E+07        -0.60758E+08         0.00000E+00
    0.00000E+00         0.00000E+00        -0.43856E+08
 
   -0.50014E+08        -0.38707E+07         0.00000E+00
   -0.38707E+07        -0.60970E+08         0.00000E+00
    0.00000E+00         0.00000E+00        -0.43643E+08
 
   -0.48893E+08        -0.36608E+07         0.00000E+00
   -0.36608E+07        -0.61130E+08         0.00000E+00
    0.00000E+00         0.00000E+00        -0.43424E+08
 
   -0.47825E+08        -0.32381E+07         0.00000E+00
   -0.32381E+07        -0.61252E+08         0.00000E+00
    0.00000E+00         0.00000E+00        -0.43209E+08
 
   -0.46815E+08        -0.26431E+07         0.00000E+00
   -0.26431E+07        -0.61353E+08         0.00000E+00
    0.00000E+00         0.00000E+00        -0.43002E+08
 
   -0.45860E+08        -0.18935E+07         0.00000E+00
   -0.18935E+07        -0.61457E+08         0.00000E+00
    0.00000E+00         0.00000E+00        -0.42808E+08
 
   -0.44956E+08        -0.98708E+06         0.00000E+00
   -0.98708E+06        -0.61580E+08         0.00000E+00
    0.00000E+00         0.00000E+00        -0.42629E+08
 
   -0.44105E+08         0.96538E+05         0.00000E+00
    0.96538E+05        -0.61733E+08         0.00000E+00
    0.00000E+00         0.00000E+00        -0.42469E+08
 
   -0.43330E+08         0.13931E+07         0.00000E+00
    0.13931E+07        -0.61915E+08         0.00000E+00
    0.00000E+00         0.00000E+00        -0.42332E+08
 
   -0.42675E+08         0.29492E+07         0.00000E+00
    0.29492E+07        -0.62106E+08         0.00000E+00
    0.00000E+00         0.00000E+00        -0.42224E+08
 
   -0.42223E+08         0.48143E+07         0.00000E+00
    0.48143E+07        -0.62262E+08         0.00000E+00
    0.00000E+00         0.00000E+00        -0.42153E+08
 
   -0.42097E+08         0.70269E+07         0.00000E+00
    0.70269E+07        -0.62311E+08         0.00000E+00
    0.00000E+00         0.00000E+00        -0.42130E+08
 
   -0.55636E+08        -0.10909E+07         0.00000E+00
   -0.10909E+07        -0.60050E+08         0.00000E+00
    0.00000E+00         0.00000E+00        -0.42624E+08
 
   -0.54396E+08        -0.26815E+07         0.00000E+00
   -0.26815E+07        -0.60202E+08         0.00000E+00
    0.00000E+00         0.00000E+00        -0.42396E+08
 
   -0.52903E+08        -0.35901E+07         0.00000E+00
   -0.35901E+07        -0.60383E+08         0.00000E+00
    0.00000E+00         0.00000E+00        -0.42116E+08
 
   -0.51368E+08        -0.39725E+07         0.00000E+00
   -0.39725E+07        -0.60509E+08         0.00000E+00
    0.00000E+00         0.00000E+00        -0.41813E+08
 
   -0.49904E+08        -0.39759E+07         0.00000E+00
   -0.39759E+07        -0.60559E+08         0.00000E+00
    0.00000E+00         0.00000E+00        -0.41507E+08
 
   -0.48550E+08        -0.37153E+07         0.00000E+00
   -0.37153E+07        -0.60544E+08         0.00000E+00
    0.00000E+00         0.00000E+00        -0.41210E+08
 
   -0.47306E+08        -0.32669E+07         0.00000E+00
   -0.32669E+07        -0.60494E+08         0.00000E+00
    0.00000E+00         0.00000E+00        -0.40927E+08
 
   -0.46149E+08        -0.26735E+07         0.00000E+00
   -0.26735E+07        -0.60442E+08         0.00000E+00
    0.00000E+00         0.00000E+00        -0.40662E+08
 
   -0.45051E+08        -0.19501E+07         0.00000E+00
   -0.19501E+07        -0.60418E+08         0.00000E+00
    0.00000E+00         0.00000E+00        -0.40416E+08
 
   -0.43989E+08        -0.10887E+07         0.00000E+00
   -0.10887E+07        -0.60447E+08         0.00000E+00
    0.00000E+00         0.00000E+00        -0.40189E+08
 
   -0.42947E+08        -0.60168E+05         0.00000E+00
   -0.60168E+05        -0.60548E+08         0.00000E+00
    0.00000E+00         0.00000E+00        -0.39982E+08
 
   -0.41927E+08         0.11863E+07         0.00000E+00
    0.11863E+07        -0.60729E+08         0.00000E+00
    0.00000E+00         0.00000E+00        -0.39798E+08
 
   -0.40966E+08         0.27210E+07         0.00000E+00
    0.27210E+07        -0.60977E+08         0.00000E+00
    0.00000E+00         0.00000E+00        -0.39641E+08
 
   -0.40145E+08         0.46250E+07         0.00000E+00
    0.46250E+07        -0.61250E+08         0.00000E+00
    0.00000E+00         0.00000E+00        -0.39521E+08
 
   -0.39606E+08         0.69723E+07         0.00000E+00
    0.69723E+07        -0.61463E+08         0.00000E+00
    0.00000E+00         0.00000E+00        -0.39450E+08
 
   -0.57692E+08        -0.11874E+07         0.00000E+00
   -0.11874E+07        -0.60041E+08         0.00000E+00
    0.00000E+00         0.00000E+00        -0.40826E+08
 
   -0.55622E+08        -0.28337E+07         0.00000E+00
   -0.28337E+07        -0.60141E+08         0.00000E+00
    0.00000E+00         0.00000E+00        -0.40424E+08
 
   -0.53485E+08        -0.36801E+07         0.00000E+00
   -0.36801E+07        -0.60194E+08         0.00000E+00
    0.00000E+00         0.00000E+00        -0.39994E+08
 
   -0.51496E+08        -0.39620E+07         0.00000E+00
   -0.39620E+07        -0.60130E+08         0.00000E+00
    0.00000E+00         0.00000E+00        -0.39567E+08
 
   -0.49729E+08        -0.38797E+07         0.00000E+00
   -0.38797E+07        -0.59955E+08         0.00000E+00
    0.00000E+00         0.00000E+00        -0.39160E+08
 
   -0.48174E+08        -0.35703E+07         0.00000E+00
   -0.35703E+07        -0.59714E+08         0.00000E+00
    0.00000E+00         0.00000E+00        -0.38781E+08
 
   -0.46786E+08        -0.31134E+07         0.00000E+00
   -0.31134E+07        -0.59454E+08         0.00000E+00
    0.00000E+00         0.00000E+00        -0.38432E+08
 
   -0.45511E+08        -0.25476E+07         0.00000E+00
   -0.25476E+07        -0.59219E+08         0.00000E+00
    0.00000E+00         0.00000E+00        -0.38110E+08
 
   -0.44296E+08        -0.18830E+07         0.00000E+00
   -0.18830E+07        -0.59044E+08         0.00000E+00
    0.00000E+00         0.00000E+00        -0.37813E+08
 
   -0.43096E+08        -0.11065E+07         0.00000E+00
   -0.11065E+07        -0.58960E+08         0.00000E+00
    0.00000E+00         0.00000E+00        -0.37539E+08
 
   -0.41870E+08        -0.18198E+06         0.00000E+00
   -0.18198E+06        -0.58994E+08         0.00000E+00
    0.00000E+00         0.00000E+00        -0.37285E+08
 
   -0.40597E+08         0.95391E+06         0.00000E+00
    0.95391E+06        -0.59165E+08         0.00000E+00
    0.00000E+00         0.00000E+00        -0.37051E+08
 
   -0.39288E+08         0.23971E+07         0.00000E+00
    0.23971E+07        -0.59476E+08         0.00000E+00
    0.00000E+00         0.00000E+00        -0.36840E+08
 
   -0.38014E+08         0.42717E+07         0.00000E+00
    0.42717E+07        -0.59893E+08         0.00000E+00
    0.00000E+00         0.00000E+00        -0.36660E+08
 
   -0.36936E+08         0.67058E+07         0.00000E+00
    0.67058E+07        -0.60323E+08         0.00000E+00
    0.00000E+00         0.00000E+00        -0.36525E+08
 
   -0.59861E+08        -0.12599E+07         0.00000E+00
   -0.12599E+07        -0.60028E+08         0.00000E+00
    0.00000E+00         0.00000E+00        -0.38904E+08
 
   -0.56788E+08        -0.28724E+07         0.00000E+00
   -0.28724E+07        -0.60040E+08         0.00000E+00
    0.00000E+00         0.00000E+00        -0.38288E+08
 
   -0.53942E+08        -0.35655E+07         0.00000E+00
   -0.35655E+07        -0.59892E+08         0.00000E+00
    0.00000E+00         0.00000E+00        -0.37680E+08
 
   -0.51513E+08        -0.36975E+07         0.00000E+00
   -0.36975E+07        -0.59550E+08         0.00000E+00
    0.00000E+00         0.00000E+00        -0.37115E+08
 
   -0.49489E+08        -0.35236E+07         0.00000E+00
   -0.35236E+07        -0.59082E+08         0.00000E+00
    0.00000E+00         0.00000E+00        -0.36604E+08
 
   -0.47781E+08        -0.31851E+07         0.00000E+00
   -0.31851E+07        -0.58570E+08         0.00000E+00
    0.00000E+00         0.00000E+00        -0.36145E+08
 
   -0.46292E+08        -0.27499E+07         0.00000E+00
   -0.27499E+07        -0.58074E+08         0.00000E+00
    0.00000E+00         0.00000E+00        -0.35733E+08
 
   -0.44934E+08        -0.22460E+07         0.00000E+00
   -0.22460E+07        -0.57641E+08         0.00000E+00
    0.00000E+00         0.00000E+00        -0.35360E+08
 
   -0.43633E+08        -0.16763E+07         0.00000E+00
   -0.16763E+07        -0.57304E+08         0.00000E+00
    0.00000E+00         0.00000E+00        -0.35017E+08
 
   -0.42320E+08        -0.10248E+07         0.00000E+00
   -0.10248E+07        -0.57097E+08         0.00000E+00
    0.00000E+00         0.00000E+00        -0.34700E+08
 
   -0.40932E+08        -0.25403E+06         0.00000E+00
   -0.25403E+06        -0.57049E+08         0.00000E+00
    0.00000E+00         0.00000E+00        -0.34400E+08
 
   -0.39412E+08         0.70378E+06         0.00000E+00
    0.70378E+06        -0.57194E+08         0.00000E+00
    0.00000E+00         0.00000E+00        -0.34115E+08
 
   -0.37725E+08         0.19655E+07         0.00000E+00
    0.19655E+07        -0.57564E+08         0.00000E+00
    0.00000E+00         0.00000E+00        -0.33843E+08
 
   -0.35907E+08         0.37099E+07         0.00000E+00
    0.37099E+07        -0.58151E+08         0.00000E+00
    0.00000E+00         0.00000E+00        -0.33591E+08
 
   -0.34127E+08         0.61533E+07         0.00000E+00
    0.61533E+07        -0.58865E+08         0.00000E+00
    0.00000E+00         0.00000E+00        -0.33375E+08
 
   -0.62056E+08        -0.12919E+07         0.00000E+00
   -0.12919E+07        -0.60004E+08         0.00000E+00
    0.00000E+00         0.00000E+00        -0.36868E+08
 
   -0.57767E+08        -0.27136E+07         0.00000E+00
   -0.27136E+07        -0.59854E+08         0.00000E+00
    0.00000E+00         0.00000E+00        -0.35979E+08
 
   -0.54198E+08        -0.31346E+07         0.00000E+00
   -0.31346E+07        -0.59369E+08         0.00000E+00
    0.00000E+00         0.00000E+00        -0.35165E+08
 
   -0.51408E+08        -0.30936E+07         0.00000E+00
   -0.30936E+07        -0.58639E+08         0.00000E+00
    0.00000E+00         0.00000E+00        -0.34456E+08
 
   -0.49209E+08        -0.28599E+07         0.00000E+00
   -0.28599E+07        -0.57824E+08         0.00000E+00
    0.00000E+00         0.00000E+00        -0.33845E+08
 
   -0.47409E+08        -0.25377E+07         0.00000E+00
   -0.25377E+07        -0.57022E+08         0.00000E+00
    0.00000E+00         0.00000E+00        -0.33315E+08
 
   -0.45861E+08        -0.21688E+07         0.00000E+00
   -0.21688E+07        -0.56291E+08         0.00000E+00
    0.00000E+00         0.00000E+00        -0.32850E+08
 
   -0.44455E+08        -0.17664E+07         0.00000E+00
   -0.17664E+07        -0.55667E+08         0.00000E+00
    0.00000E+00         0.00000E+00        -0.32433E+08
 
   -0.43097E+08        -0.13276E+07         0.00000E+00
   -0.13276E+07        -0.55178E+08         0.00000E+00
    0.00000E+00         0.00000E+00        -0.32053E+08
 
   -0.41703E+08        -0.83656E+06         0.00000E+00
   -0.83656E+06        -0.54849E+08         0.00000E+00
    0.00000E+00         0.00000E+00        -0.31699E+08
 
   -0.40186E+08        -0.26132E+06         0.00000E+00
   -0.26132E+06        -0.54714E+08         0.00000E+00
    0.00000E+00         0.00000E+00        -0.31360E+08
 
   -0.38452E+08         0.45702E+06         0.00000E+00
    0.45702E+06        -0.54814E+08         0.00000E+00
    0.00000E+00         0.00000E+00        -0.31027E+08
 
   -0.36392E+08         0.14308E+07         0.00000E+00
    0.14308E+07        -0.55213E+08         0.00000E+00
    0.00000E+00         0.00000E+00        -0.30690E+08
 
   -0.33946E+08         0.28933E+07         0.00000E+00
    0.28933E+07        -0.55981E+08         0.00000E+00
    0.00000E+00         0.00000E+00        -0.30351E+08
 
   -0.31247E+08         0.52119E+07         0.00000E+00
    0.52119E+07        -0.57062E+08         0.00000E+00
    0.00000E+00         0.00000E+00        -0.30026E+08
 
   -0.64102E+08        -0.12323E+07         0.00000E+00
   -0.12323E+07        -0.59939E+08         0.00000E+00
    0.00000E+00         0.00000E+00        -0.34709E+08
 
   -0.58375E+08        -0.21638E+07         0.00000E+00
   -0.21638E+07        -0.59411E+08         0.00000E+00
    0.00000E+00         0.00000E+00        -0.33460E+08
 
   -0.54223E+08        -0.22351E+07         0.00000E+00
   -0.22351E+07        -0.58365E+08         0.00000E+00
    0.00000E+00         0.00000E+00        -0.32422E+08
 
   -0.51233E+08        -0.20933E+07         0.00000E+00
   -0.20933E+07        -0.57181E+08         0.00000E+00
    0.00000E+00         0.00000E+00        -0.31585E+08
 
   -0.48950E+08        -0.18819E+07         0.00000E+00
   -0.18819E+07        -0.56026E+08         0.00000E+00
    0.00000E+00         0.00000E+00        -0.30895E+08
 
   -0.47110E+08        -0.16436E+07         0.00000E+00
   -0.16436E+07        -0.54970E+08         0.00000E+00
    0.00000E+00         0.00000E+00        -0.30311E+08
 
   -0.45539E+08        -0.13926E+07         0.00000E+00
   -0.13926E+07        -0.54044E+08         0.00000E+00
    0.00000E+00         0.00000E+00        -0.29806E+08
 
   -0.44110E+08        -0.11310E+07         0.00000E+00
   -0.11310E+07        -0.53269E+08         0.00000E+00
    0.00000E+00         0.00000E+00        -0.29359E+08
 
   -0.42721E+08        -0.85384E+06         0.00000E+00
   -0.85384E+06        -0.52658E+08         0.00000E+00
    0.00000E+00         0.00000E+00        -0.28954E+08
 
   -0.41276E+08        -0.54940E+06         0.00000E+00
   -0.54940E+06        -0.52232E+08         0.00000E+00
    0.00000E+00         0.00000E+00        -0.28574E+08
 
   -0.39673E+08        -0.19674E+06         0.00000E+00
   -0.19674E+06        -0.52019E+08         0.00000E+00
    0.00000E+00         0.00000E+00        -0.28206E+08
 
   -0.37784E+08         0.24247E+06         0.00000E+00
    0.24247E+06        -0.52063E+08         0.00000E+00
    0.00000E+00         0.00000E+00        -0.27834E+08
 
   -0.35436E+08         0.84513E+06         0.00000E+00
    0.84513E+06        -0.52446E+08         0.00000E+00
    0.00000E+00         0.00000E+00        -0.27438E+08
 
   -0.32344E+08         0.18003E+07         0.00000E+00
    0.18003E+07        -0.53314E+08         0.00000E+00
    0.00000E+00         0.00000E+00        -0.26993E+08
 
   -0.28430E+08         0.37169E+07         0.00000E+00
    0.37169E+07        -0.54876E+08         0.00000E+00
    0.00000E+00         0.00000E+00        -0.26523E+08
 
   -0.65561E+08        -0.75696E+06         0.00000E+00
   -0.75696E+06        -0.59449E+08         0.00000E+00
    0.00000E+00         0.00000E+00        -0.32306E+08
 
   -0.58483E+08        -0.88746E+06         0.00000E+00
   -0.88746E+06        -0.58034E+08         0.00000E+00
    0.00000E+00         0.00000E+00        -0.30609E+08
 
   -0.54148E+08        -0.82437E+06         0.00000E+00
   -0.82437E+06        -0.56429E+08         0.00000E+00
    0.00000E+00         0.00000E+00        -0.29422E+08
 
   -0.51094E+08        -0.74546E+06         0.00000E+00
   -0.74546E+06        -0.54910E+08         0.00000E+00
    0.00000E+00         0.00000E+00        -0.28508E+08
 
   -0.48790E+08        -0.65853E+06         0.00000E+00
   -0.65853E+06        -0.53537E+08         0.00000E+00
    0.00000E+00         0.00000E+00        -0.27771E+08
 
   -0.46941E+08        -0.56970E+06         0.00000E+00
   -0.56970E+06        -0.52329E+08         0.00000E+00
    0.00000E+00         0.00000E+00        -0.27159E+08
 
   -0.45365E+08        -0.48020E+06         0.00000E+00
   -0.48020E+06        -0.51293E+08         0.00000E+00
    0.00000E+00         0.00000E+00        -0.26635E+08
 
   -0.43929E+08        -0.38924E+06         0.00000E+00
   -0.38924E+06        -0.50434E+08         0.00000E+00
    0.00000E+00         0.00000E+00        -0.26174E+08
 
   -0.42527E+08        -0.29440E+06         0.00000E+00
   -0.29440E+06        -0.49758E+08         0.00000E+00
    0.00000E+00         0.00000E+00        -0.25757E+08
 
   -0.41059E+08        -0.19142E+06         0.00000E+00
   -0.19142E+06        -0.49278E+08         0.00000E+00
    0.00000E+00         0.00000E+00        -0.25365E+08
 
   -0.39413E+08        -0.73086E+05         0.00000E+00
   -0.73086E+05        -0.49018E+08         0.00000E+00
    0.00000E+00         0.00000E+00        -0.24983E+08
 
   -0.37447E+08         0.73435E+05         0.00000E+00
    0.73435E+05        -0.49022E+08         0.00000E+00
    0.00000E+00         0.00000E+00        -0.24589E+08
 
   -0.34941E+08         0.27519E+06         0.00000E+00
    0.27519E+06        -0.49372E+08         0.00000E+00
    0.00000E+00         0.00000E+00        -0.24157E+08
 
   -0.31496E+08         0.59234E+06         0.00000E+00
    0.59234E+06        -0.50240E+08         0.00000E+00
    0.00000E+00         0.00000E+00        -0.23642E+08
 
   -0.25969E+08         0.14024E+07         0.00000E+00
    0.14024E+07        -0.52107E+08         0.00000E+00
    0.00000E+00         0.00000E+00        -0.22911E+08
 
SCALARS stressS double 
LOOKUP_TABLE default
  -54798901.0277941     
  -55252779.7195192     
  -55643326.4839067     
  -56002846.1424925     
  -56340469.7151536     
  -56659893.2181876     
  -56962565.1929532     
  -57249008.2453220     
  -57519385.8448160     
  -57773802.1933117     
  -58012511.9850896     
  -58236157.8744233     
  -58446235.7948028     
  -58646106.4817750     
  -58847976.2516642     
  -54732015.0921156     
  -55120776.2360548     
  -55498337.5528428     
  -55856083.0663859     
  -56196764.9271531     
  -56521330.8019507     
  -56830019.2525246     
  -57122690.3922595     
  -57399090.2844084     
  -57658999.1721276     
  -57902336.8117022     
  -58129277.0932049     
  -58340340.3680250     
  -58536882.0406719     
  -58714607.0244938     
  -54679799.9817869     
  -55028410.3331740     
  -55385549.7336349     
  -55737548.6464413     
  -56078584.4819475     
  -56406457.3789697     
  -56719755.2886790     
  -57017445.7465699     
  -57298716.7744414     
  -57562923.2539172     
  -57809548.5722392     
  -58038134.3758255     
  -58248157.7904190     
  -58437879.6530020     
  -58604025.7331975     
  -54614932.5611989     
  -54946533.0641899     
  -55292298.2452708     
  -55639774.0292732     
  -55981127.2936454     
  -56311789.6087209     
  -56629013.6578548     
  -56930949.6862965     
  -57216261.2312928     
  -57483902.4005343     
  -57732952.9415046     
  -57962443.3994034     
  -58171007.2061937     
  -58356550.2176879     
  -58515818.3359965     
  -54532983.5823817     
  -54863298.2061670     
  -55207749.1696892     
  -55555656.9380522     
  -55899293.0530399     
  -56233423.9307827     
  -56554581.7764598     
  -56860420.5128087     
  -57149261.7137765     
  -57419797.0775711     
  -57670855.9552162     
  -57901173.5156284     
  -58109155.3901847     
  -58292628.1275558     
  -58448707.9946107     
  -54433446.3528100     
  -54774111.8751507     
  -55125822.2195412     
  -55479572.2020511     
  -55828442.8561798     
  -56167412.0921348     
  -56492962.8789236     
  -56802649.9519350     
  -57094722.6862918     
  -57367822.1684375     
  -57620731.8011758     
  -57852157.5302305     
  -58060525.8193272     
  -58243822.7629138     
  -58399498.1660313     
  -54317326.2222690     
  -54677325.5652430     
  -55043248.2492670     
  -55407633.2760794     
  -55764649.4392052     
  -56109960.2483754     
  -56440468.4051803     
  -56754009.1382937     
  -57049048.7496436     
  -57324415.3884784     
  -57579065.5049351     
  -57811880.9163123     
  -58021496.8289693     
  -58206167.9379906     
  -58363688.1126235     
  -54186395.2160682     
  -54572761.5596051     
  -54958319.9929105     
  -55337129.6986004     
  -55704616.1306688     
  -56057425.1185364     
  -56393214.9378582     
  -56710414.7766908     
  -57007978.6643443     
  -57285154.2151201     
  -57541274.7303744     
  -57775577.3550887     
  -57987049.2916436     
  -58174306.6786254     
  -58335511.3642970     
  -54042972.2445470     
  -54461066.1104943     
  -54870200.6849966     
  -55266032.4680150     
  -55645407.2202572     
  -56006184.2981927     
  -56347039.4878404     
  -56667255.4446090     
  -56966512.3376196     
  -57244689.1648845     
  -57501682.0616811     
  -57737242.6844289     
  -57950838.5630593     
  -58141537.2553628     
  -58307916.1255687     
  -53889827.4823183     
  -54343385.6897457     
  -54778511.9605304     
  -55192622.4789625     
  -55584172.0724581     
  -55952447.1703497     
  -56297366.4049567     
  -56619287.9121339     
  -56918825.7795510     
  -57196678.6771924     
  -57453472.6899861     
  -57689619.1262193     
  -57905187.2987251     
  -58099791.9964485     
  -58272495.1443710     
  -53730126.3086703     
  -54221167.5256428     
  -54683058.8783740     
  -55115207.8511197     
  -55517898.2754114     
  -55892057.5870739     
  -56239054.1989549     
  -56560517.7217121     
  -56858177.6303471     
  -57133717.4633739     
  -57388642.0916601     
  -57624155.5679037     
  -57841046.9968660     
  -58039581.8946378     
  -58219396.6185041     
  -53567377.9177346     
  -54096009.5281679     
  -54583620.2151254     
  -55031895.5793016     
  -55443195.8123278     
  -55820307.3359831     
  -56166242.9703640     
  -56484078.4983325     
  -56776815.9952478     
  -57047266.1008690     
  -57297942.5652701     
  -57530963.1326440     
  -57747951.3672861     
  -57949934.5208620     
  -58137233.0563597     
  -53405374.2605780     
  -53969526.2917968     
  -54479769.6021802     
  -54940395.9553743     
  -55356107.8884470     
  -55731768.5660437     
  -56072215.7922741     
  -56382123.7519387     
  -56665898.4292718     
  -56927594.6029831     
  -57170843.8448434     
  -57398784.1669903     
  -57613982.9992181     
  -57818346.1259786     
  -58013006.1326766     
  -53248111.9111658     
  -53843216.2431938     
  -54370711.4767242     
  -54837849.2045958     
  -55251946.3827567     
  -55620150.9562570     
  -55949284.9489066     
  -56245744.6355214     
  -56515439.7766345     
  -56763755.8945769     
  -56995525.2955718     
  -57214994.0963013     
  -57425773.9686324     
  -57630768.7049909     
  -57832067.0304379     
  -53099692.7986539     
  -53718323.7452779     
  -54255125.8339140     
  -54720671.2807370     
  -55125153.6364235     
  -55478190.3603059     
  -55788713.9209336     
  -56064927.5315186     
  -56314303.8512086     
  -56543606.8604453     
  -56758918.8964508     
  -56965656.6451425     
  -57168561.7545128     
  -57371653.6109676     
  -57578133.6116428     
  -52964201.7315319     
  -53595694.7772078     
  -54131021.3976456     
  -54584420.4836429     
  -54969195.2726228     
  -55297577.1071191     
  -55580686.6622903     
  -55828565.9201072     
  -56050255.7928738     
  -56253895.7289184     
  -56446823.3046600     
  -56635653.8614673     
  -56826322.6192577     
  -57024074.2163272     
  -57233387.0591167     
  -52845560.2865967     
  -53475627.5724617     
  -53995599.7068564     
  -54423688.8064311     
  -54776490.0487907     
  -55068932.6429682     
  -55314335.8046858     
  -55524541.0435200     
  -55710092.1799754     
  -55880434.9912961     
  -56044109.8158458     
  -56208912.8492469     
  -56382004.9754328     
  -56569950.4303596     
  -56778671.0069859     
  -52747358.2845096     
  -53357720.7916863     
  -53845132.9661939     
  -54232021.4081054     
  -54538381.5958745     
  -54781841.7680224     
  -54977840.0465339     
  -55139884.7895235     
  -55279865.2620647     
  -55408378.6648839     
  -55535040.8151274     
  -55668750.8834090     
  -55817884.8536375     
  -55990397.2089547     
  -56193815.2569640     
  -52672665.6883431     
  -53240720.9996939     
  -53674855.6000074     
  -54001863.4076844     
  -54245152.3068270     
  -54424943.4338317     
  -54558597.3960846     
  -54661035.4494633     
  -54745215.6661592     
  -54822621.2816546     
  -54903720.2277052     
  -54998359.5262162     
  -55116064.2323838     
  -55266217.2694542     
  -55458103.5948076     
  -52623828.8859010     
  -53122367.0758330     
  -53478861.5477431     
  -53724523.6422774     
  -53886070.2876949     
  -53986075.0509027     
  -54043474.6133579     
  -54074192.2441359     
  -54091824.4241588     
  -54108333.4274801     
  -54134693.5315590     
  -54181446.5790344     
  -54259130.7695387     
  -54378554.9790565     
  -54550900.6278889     
  -52602254.8369145     
  -52999219.0495450     
  -53249983.3224182     
  -53390127.5276788     
  -53449444.6278266     
  -53452452.9223286     
  -53419124.0970696     
  -53365767.8365346     
  -53305990.1977085     
  -53251644.9998341     
  -53213712.3233260     
  -53203052.6640107     
  -53230994.9773572     
  -53309724.1555090     
  -53452445.7378953     
  -52608182.1149552     
  -52866437.6150930     
  -52979599.1701128     
  -52987501.8416860     
  -52922640.8663530     
  -52810855.2572177     
  -52672348.7262477     
  -52522930.2910428     
  -52375331.3288629     
  -52240482.6421343     
  -52128675.6169398     
  -52050558.1471496     
  -52017919.6791376     
  -52044218.6339263     
  -52144813.2945328     
  -52640424.6425617     
  -52717437.7720117     
  -52657261.0889975     
  -52503887.4020110     
  -52291977.4315753     
  -52047757.6579560     
  -51790486.5392810     
  -51534218.9478106     
  -51289604.8927587     
  -51065561.1415646     
  -50870757.5417898     
  -50714898.0012448     
  -50609760.7369549     
  -50569914.1552296     
  -50613028.4403484     
  -52696040.2798215     
  -52543253.1713470     
  -52269938.0088667     
  -51924303.6738855     
  -51542390.1762295     
  -51149364.8522028     
  -50761789.3487747     
  -50390215.8224891     
  -50041623.8253459     
  -49721517.4390803     
  -49435726.5083912     
  -49192012.6888732     
  -49001454.4163902     
  -48879483.4143424     
  -48846319.6488601     
  -52769798.2648552     
  -52331256.4325097     
  -51800483.1342181     
  -51230284.7473212     
  -50656738.0462890     
  -50101515.2673176     
  -49575799.1127008     
  -49084257.3280376     
  -48628233.9512744     
  -48208144.4025681     
  -47825455.3897231     
  -47484579.2884865     
  -47194843.7047491     
  -46972086.3082618     
  -46839497.8998143     
  -52853088.4084269     
  -52062444.2277901     
  -51224554.6148407     
  -50397589.3620397     
  -49614708.4601289     
  -48889561.6488240     
  -48223809.3588369     
  -47613179.0523418     
  -47051256.8189584     
  -46531628.3976261     
  -46049552.2152503     
  -45604145.0187053     
  -45201019.6882251     
  -44855571.8009392     
  -44594471.9706285     
  -52931362.9988059     
  -51705193.0737949     
  -50504512.9387400     
  -49392535.4646469     
  -48391664.3430442     
  -47498688.4638405     
  -46699586.9432176     
  -45978086.1464934     
  -45318248.0687774     
  -44705447.0861244     
  -44127031.9711023     
  -43573602.5481732     
  -43043906.5287429     
  -42549583.9462366     
  -42122233.8614321     
  -52975768.3943425     
  -51200193.6776076     
  -49577469.5794513     
  -48167650.4303538     
  -46959383.4536157     
  -45915288.3539345     
  -45000594.4719109     
  -44185118.4712451     
  -43442828.3578543     
  -42750539.3392638     
  -42086694.7308729     
  -41430961.6018869     
  -40764927.2850957     
  -40092724.8867302     
  -39445177.4834717     
  -52916652.6023931     
  -50415414.8790796     
  -48336534.8813552     
  -46666454.8002302     
  -45290130.5275443     
  -44130124.0657671     
  -43129766.5921343     
  -42246120.7198056     
  -41444410.2261313     
  -40694116.2093512     
  -39965689.3472561     
  -39226986.8492540     
  -38440085.1406210     
  -37550236.5196920     
  -36609565.0517589     
  -52438632.4975599     
  -49041809.4551371     
  -46666446.3385573     
  -44837271.7590143     
  -43365805.2446420     
  -42142866.2841967     
  -41097584.8889707     
  -40179053.1980965     
  -39347236.3451062     
  -38567228.8023113     
  -37804506.3455405     
  -37019353.4904718     
  -36156773.4519305     
  -35125749.9039894     
  -33662469.3765673     
SCALARS 2waySource double 
LOOKUP_TABLE default
 -1.019291593680970E-004
 -8.956652057776632E-005
 -7.885169714134919E-005
 -6.930500711376149E-005
 -6.073844838288771E-005
 -5.301512499811924E-005
 -4.602192022278667E-005
 -3.965747294568497E-005
 -3.382788938429428E-005
 -2.844455462164043E-005
 -2.342221558741264E-005
 -1.867598823816373E-005
 -1.411383650898393E-005
 -9.623955242708788E-006
 -4.917793920073703E-006
 -1.021915621633786E-004
 -9.065917186973059E-005
 -8.026266812522368E-005
 -7.097482838949948E-005
 -6.264869514215957E-005
 -5.516412755789909E-005
 -4.840977035803985E-005
 -4.228163433884614E-005
 -3.668178242702205E-005
 -3.151779688756806E-005
 -2.670218993295314E-005
 -2.215115074012320E-005
 -1.778311581992222E-005
 -1.350554092749489E-005
 -9.249979262529785E-006
 -1.021407477272075E-004
 -9.124270376509937E-005
 -8.131137623610540E-005
 -7.238670319793320E-005
 -6.439862318040703E-005
 -5.724187267872596E-005
 -5.080864798109350E-005
 -4.499313908236099E-005
 -3.969416850588261E-005
 -3.481643621448515E-005
 -3.027131884368196E-005
 -2.597776408315146E-005
 -2.186277149936992E-005
 -1.786982185296393E-005
 -1.397815010738324E-005
 -1.020387738281468E-004
 -9.160681155265122E-005
 -8.215052622526089E-005
 -7.367166595806653E-005
 -6.611023952405296E-005
 -5.937051991918216E-005
 -5.334418732248735E-005
 -4.792211922457915E-005
 -4.299908167198265E-005
 -3.847630583239817E-005
 -3.426318773029414E-005
 -3.027892033106841E-005
 -2.645589554398032E-005
 -2.274647885033549E-005
 -1.914078200881201E-005
 -1.019314618325357E-004
 -9.190208707591699E-005
 -8.292623743685984E-005
 -7.495460531345020E-005
 -6.790508635346558E-005
 -6.167270497020231E-005
 -5.614238536141967E-005
 -5.119834801727656E-005
 -4.672946820836844E-005
 -4.263209730085903E-005
 -3.881184963627462E-005
 -3.518540988488125E-005
 -3.168332636450153E-005
 -2.825553133597645E-005
 -2.487873522922054E-005
 -1.018290090422712E-004
 -9.220689666536256E-005
 -8.374916021643776E-005
 -7.635382535878629E-005
 -6.990399736361124E-005
 -6.427309275604544E-005
 -5.933177685781440E-005
 -5.495388791236299E-005
 -5.102028023457156E-005
 -4.742091368667719E-005
 -4.405599620418977E-005
 -4.083698950166107E-005
 -3.768825291525276E-005
 -3.454960235608386E-005
 -3.137914140175676E-005
 -1.017300881770609E-004
 -9.257348436988252E-005
 -8.470885086007244E-005
 -7.797962435738762E-005
 -7.222813037826458E-005
 -6.729932559503874E-005
 -6.304445759005996E-005
 -5.932394758246191E-005
 -5.600904713823635E-005
 -5.298236701924330E-005
 -5.013772404554856E-005
 -4.737984474858876E-005
 -4.462433755209385E-005
 -4.179803387865986E-005
 -3.883918589061013E-005
 -1.016297168428287E-004
 -9.304640028796318E-005
 -8.588779272544270E-005
 -7.993955577360133E-005
 -7.499988836519542E-005
 -7.088198911233314E-005
 -6.741523106485484E-005
 -6.444531951114401E-005
 -6.183352949542518E-005
 -5.945521741316598E-005
 -5.719792561883873E-005
 -5.495942739707446E-005
 -5.264597228959717E-005
 -5.017078500238304E-005
 -4.745263816717143E-005
 -1.015231206085380E-004
 -9.367113721363662E-005
 -8.736935434402817E-005
 -8.234255966753018E-005
 -7.834339964050173E-005
 -7.515277105104280E-005
 -7.257834662505740E-005
 -7.045194836865941E-005
 -6.862618951486749E-005
 -6.697069845721107E-005
 -6.536820769132990E-005
 -6.371075695321941E-005
 -6.189618637715118E-005
 -5.982499421175625E-005
 -5.739755448862521E-005
 -1.014084496971384E-004
 -9.449809355662873E-005
 -8.924101497488342E-005
 -8.529977853622423E-005
 -8.238251002602441E-005
 -8.024005917975927E-005
 -7.866127284232596E-005
 -7.746726953105463E-005
 -7.650527604742411E-005
 -7.564238815804574E-005
 -7.475950415126851E-005
 -7.374560518734431E-005
 -7.249249469755973E-005
 -7.089006239079736E-005
 -6.882213559169065E-005
 -1.012889155750180E-004
 -9.558369135327215E-005
 -9.159377075175931E-005
 -8.892162093769830E-005
 -8.723531378217658E-005
 -8.626117616161629E-005
 -8.577504578304276E-005
 -8.559303777962241E-005
 -8.556237486613411E-005
 -8.555259661130387E-005
 -8.544731433940310E-005
 -8.513658762770087E-005
 -8.450994710003289E-005
 -8.345007334998508E-005
 -8.182717439770921E-005
 -1.011744778199024E-004
 -9.698919334774042E-005
 -9.451812252537332E-005
 -9.331097851209374E-005
 -9.300480008033940E-005
 -9.331080871587716E-005
 -9.400089715532543E-005
 -9.489452702329929E-005
 -9.584644507304311E-005
 -9.673538184219796E-005
 -9.745374474272978E-005
 -9.789823322681863E-005
 -9.796126882012433E-005
 -9.752314072469938E-005
 -9.644482108780980E-005
 -1.010830297008221E-004
 -9.877730497423332E-005
 -9.809673280644965E-005
 -9.855256456778427E-005
 -9.976548283984838E-005
 -1.014455122771709E-004
 -1.033731556678250E-004
 -1.053822444546346E-004
 -1.073446270899298E-004
 -1.091565938993513E-004
 -1.107268122516314E-004
 -1.119654893327685E-004
 -1.127744714788167E-004
 -1.130380195263775E-004
 -1.126140685517751E-004
 -1.010409557613502E-004
 -1.010064756532927E-004
 -1.023937437199881E-004
 -1.046984278253585E-004
 -1.075461344849620E-004
 -1.106645138301437E-004
 -1.138587842856330E-004
 -1.169906790937628E-004
 -1.199604930687915E-004
 -1.226917436845867E-004
 -1.251178961183840E-004
 -1.271705971598302E-004
 -1.287688940768930E-004
 -1.298089708875017E-004
 -1.301540158402348E-004
 -1.010829120262997E-004
 -1.037228094919596E-004
 -1.074408313118907E-004
 -1.117499104181177E-004
 -1.163090866662524E-004
 -1.208874671426303E-004
 -1.253343954862072E-004
 -1.295551058623604E-004
 -1.334909228487699E-004
 -1.371030183764605E-004
 -1.403587728847931E-004
 -1.432198619732223E-004
 -1.456312752718014E-004
 -1.475105601395732E-004
 -1.487366715343412E-004
 -1.012506992280754E-004
 -1.069496292126714E-004
 -1.132203346570059E-004
 -1.196367100354622E-004
 -1.259270597719850E-004
 -1.319303893333141E-004
 -1.375622045536659E-004
 -1.427881030413320E-004
 -1.476034312948983E-004
 -1.520174117322985E-004
 -1.560403258474024E-004
 -1.596725221641138E-004
 -1.628941729165476E-004
 -1.656548211592742E-004
 -1.678618466097947E-004
 -1.015911594801924E-004
 -1.106750113897558E-004
 -1.196462496868577E-004
 -1.281942923578244E-004
 -1.361591627613900E-004
 -1.434817435039376E-004
 -1.501671419929184E-004
 -1.562582051414157E-004
 -1.618165276656687E-004
 -1.669086800440341E-004
 -1.715957561082657E-004
 -1.759246615730037E-004
 -1.799198064472741E-004
 -1.835740145819923E-004
 -1.868375324012982E-004
 -1.021531269223419E-004
 -1.148380286690339E-004
 -1.265445129249818E-004
 -1.371416687252124E-004
 -1.466285449570717E-004
 -1.550815004024362E-004
 -1.626182131727279E-004
 -1.693739597128976E-004
 -1.754865026610361E-004
 -1.810866151486546E-004
 -1.862918737506670E-004
 -1.912018447053110E-004
 -1.958931365915976E-004
 -2.004129760975669E-004
 -2.047699908854074E-004
 -1.029835994638193E-004
 -1.193149783243993E-004
 -1.336347752653240E-004
 -1.460624367618891E-004
 -1.568050975269696E-004
 -1.661069203454222E-004
 -1.742180703795387E-004
 -1.813774874754604E-004
 -1.878048138716978E-004
 -1.936978418607702E-004
 -1.992327092721555E-004
 -2.045647756360529E-004
 -2.098286014651001E-004
 -2.151356737137437E-004
 -2.205684727696079E-004
 -1.041234587967492E-004
 -1.239074836254115E-004
 -1.405166622420265E-004
 -1.543928204112416E-004
 -1.659974188330977E-004
 -1.757695683813081E-004
 -1.841054792381557E-004
 -1.913522963402289E-004
 -1.978108151464013E-004
 -2.037428395468164E-004
 -2.093800976335970E-004
 -2.149326266882722E-004
 -2.205952312848971E-004
 -2.265508927217240E-004
 -2.329698319149223E-004
 -1.056032180101918E-004
 -1.283348800364221E-004
 -1.466640938666744E-004
 -1.614209493802570E-004
 -1.733586792395593E-004
 -1.831284360993056E-004
 -1.912756669097944E-004
 -1.982503361030601E-004
 -2.044247231853001E-004
 -2.101139343639722E-004
 -2.155958326879624E-004
 -2.211285362076942E-004
 -2.269646467039573E-004
 -2.333617127928982E-004
 -2.405880680889066E-004
 -1.074393563228426E-004
 -1.322334577914727E-004
 -1.514311593606664E-004
 -1.663013131941064E-004
 -1.779106182261014E-004
 -1.871236326777709E-004
 -1.946231210239931E-004
 -2.009428078080643E-004
 -2.065051446694522E-004
 -2.116583277302757E-004
 -2.167091964124477E-004
 -2.219508793135627E-004
 -2.276854528062381E-004
 -2.342423700820952E-004
 -2.419927047511694E-004
 -1.096316939891921E-004
 -1.351643948927741E-004
 -1.540715748767613E-004
 -1.680865100520767E-004
 -1.785881590391827E-004
 -1.866335645305972E-004
 -1.930099663044296E-004
 -1.982977427330020E-004
 -2.029338621890303E-004
 -2.072684780931407E-004
 -2.116118425072911E-004
 -2.162719998045380E-004
 -2.215855415480499E-004
 -2.279439585500042E-004
 -2.358176116341325E-004
 -1.121617222673581E-004
 -1.366296048805734E-004
 -1.537696298755075E-004
 -1.657741630084696E-004
 -1.743036170286706E-004
 -1.805557313247653E-004
 -1.853604541734585E-004
 -1.892845663115094E-004
 -1.927274966811370E-004
 -1.959989952757311E-004
 -1.993788393819128E-004
 -2.031630240098166E-004
 -2.077006350829507E-004
 -2.134271667437851E-004
 -2.208982332379474E-004
 -1.149904939814720E-004
 -1.360880091106569E-004
 -1.496715831822088E-004
 -1.583591906857185E-004
 -1.640245477018728E-004
 -1.679079461581043E-004
 -1.707786248379885E-004
 -1.731015191315837E-004
 -1.751707300255115E-004
 -1.772040967748394E-004
 -1.794102133617760E-004
 -1.820389387393931E-004
 -1.854235551864418E-004
 -1.900158623148614E-004
 -1.964305893414698E-004
 -1.180503670214172E-004
 -1.329491216614194E-004
 -1.408877912536106E-004
 -1.448708416780481E-004
 -1.468560683441202E-004
 -1.479451663879840E-004
 -1.486827237363528E-004
 -1.493155479245701E-004
 -1.499581016230032E-004
 -1.506828374635556E-004
 -1.515804056194812E-004
 -1.528145458653245E-004
 -1.546632519574612E-004
 -1.575626817295534E-004
 -1.621400617220236E-004
 -1.212171075565092E-004
 -1.264734003249420E-004
 -1.264013609690780E-004
 -1.243675225341602E-004
 -1.221266501433841E-004
 -1.202929337630156E-004
 -1.189444527751943E-004
 -1.179961017598233E-004
 -1.173217783223433E-004
 -1.168066841305708E-004
 -1.163792855910567E-004
 -1.160517481140087E-004
 -1.160093761885824E-004
 -1.166088030600644E-004
 -1.184521187825935E-004
 -1.241621096572122E-004
 -1.153876614207886E-004
 -1.047530631731712E-004
 -9.590369091160407E-005
 -8.953342829965748E-005
 -8.509304605491876E-005
 -8.201355536430407E-005
 -7.981500595134438E-005
 -7.811280767073091E-005
 -7.659325117142030E-005
 -7.499501654674623E-005
 -7.311422009093256E-005
 -7.085687678742654E-005
 -6.858203785793925E-005
 -6.663935868194715E-005
 -1.258063762642804E-004
 -9.635626607628145E-005
 -7.349081249234752E-005
 -5.885385797544575E-005
 -4.935905596840165E-005
 -4.314575711019411E-005
 -3.899372070502783E-005
 -3.607896092323422E-005
 -3.380175802325279E-005
 -3.168171831039530E-005
 -2.928382828686463E-005
 -2.615929425685260E-005
 -2.181370903156156E-005
 -1.574122141924895E-005
 -9.229989006563734E-006
 -1.173413739245130E-004
 -6.044131051778875E-005
 -3.092154498147291E-005
 -1.347386711531346E-005
 -2.737229815331767E-006
  4.017863015505790E-006
  8.370869705398369E-006
  1.133409600094375E-005
  1.362299417881069E-005
  1.581044468884770E-005
  1.843646116474493E-005
  2.211573286378423E-005
  2.768528117051301E-005
  3.650637304401005E-005
  5.067818118054486E-005
SCALARS poroP double 
LOOKUP_TABLE default
  0.000000000000000E+000
  0.000000000000000E+000
  0.000000000000000E+000
  0.000000000000000E+000
  0.000000000000000E+000
  0.000000000000000E+000
  0.000000000000000E+000
  0.000000000000000E+000
  0.000000000000000E+000
  0.000000000000000E+000
  0.000000000000000E+000
  0.000000000000000E+000
  0.000000000000000E+000
  0.000000000000000E+000
  0.000000000000000E+000
  0.000000000000000E+000
  0.000000000000000E+000
  0.000000000000000E+000
  0.000000000000000E+000
  0.000000000000000E+000
  0.000000000000000E+000
  0.000000000000000E+000
  0.000000000000000E+000
  0.000000000000000E+000
  0.000000000000000E+000
  0.000000000000000E+000
  0.000000000000000E+000
  0.000000000000000E+000
  0.000000000000000E+000
  0.000000000000000E+000
  0.000000000000000E+000
  0.000000000000000E+000
  0.000000000000000E+000
  0.000000000000000E+000
  0.000000000000000E+000
  0.000000000000000E+000
  0.000000000000000E+000
  0.000000000000000E+000
  0.000000000000000E+000
  0.000000000000000E+000
  0.000000000000000E+000
  0.000000000000000E+000
  0.000000000000000E+000
  0.000000000000000E+000
  0.000000000000000E+000
  0.000000000000000E+000
  0.000000000000000E+000
  0.000000000000000E+000
  0.000000000000000E+000
  0.000000000000000E+000
  0.000000000000000E+000
  0.000000000000000E+000
  0.000000000000000E+000
  0.000000000000000E+000
  0.000000000000000E+000
  0.000000000000000E+000
  0.000000000000000E+000
  0.000000000000000E+000
  0.000000000000000E+000
  0.000000000000000E+000
  0.000000000000000E+000
  0.000000000000000E+000
  0.000000000000000E+000
  0.000000000000000E+000
  0.000000000000000E+000
  0.000000000000000E+000
  0.000000000000000E+000
  0.000000000000000E+000
  0.000000000000000E+000
  0.000000000000000E+000
  0.000000000000000E+000
  0.000000000000000E+000
  0.000000000000000E+000
  0.000000000000000E+000
  0.000000000000000E+000
  0.000000000000000E+000
  0.000000000000000E+000
  0.000000000000000E+000
  0.000000000000000E+000
  0.000000000000000E+000
  0.000000000000000E+000
  0.000000000000000E+000
  0.000000000000000E+000
  0.000000000000000E+000
  0.000000000000000E+000
  0.000000000000000E+000
  0.000000000000000E+000
  0.000000000000000E+000
  0.000000000000000E+000
  0.000000000000000E+000
  0.000000000000000E+000
  0.000000000000000E+000
  0.000000000000000E+000
  0.000000000000000E+000
  0.000000000000000E+000
  0.000000000000000E+000
  0.000000000000000E+000
  0.000000000000000E+000
  0.000000000000000E+000
  0.000000000000000E+000
  0.000000000000000E+000
  0.000000000000000E+000
  0.000000000000000E+000
  0.000000000000000E+000
  0.000000000000000E+000
  0.000000000000000E+000
  0.000000000000000E+000
  0.000000000000000E+000
  0.000000000000000E+000
  0.000000000000000E+000
  0.000000000000000E+000
  0.000000000000000E+000
  0.000000000000000E+000
  0.000000000000000E+000
  0.000000000000000E+000
  0.000000000000000E+000
  0.000000000000000E+000
  0.000000000000000E+000
  0.000000000000000E+000
  0.000000000000000E+000
  0.000000000000000E+000
  0.000000000000000E+000
  0.000000000000000E+000
  0.000000000000000E+000
  0.000000000000000E+000
  0.000000000000000E+000
  0.000000000000000E+000
  0.000000000000000E+000
  0.000000000000000E+000
  0.000000000000000E+000
  0.000000000000000E+000
  0.000000000000000E+000
  0.000000000000000E+000
  0.000000000000000E+000
  0.000000000000000E+000
  0.000000000000000E+000
  0.000000000000000E+000
  0.000000000000000E+000
  0.000000000000000E+000
  0.000000000000000E+000
  0.000000000000000E+000
  0.000000000000000E+000
  0.000000000000000E+000
  0.000000000000000E+000
  0.000000000000000E+000
  0.000000000000000E+000
  0.000000000000000E+000
  0.000000000000000E+000
  0.000000000000000E+000
  0.000000000000000E+000
  0.000000000000000E+000
  0.000000000000000E+000
  0.000000000000000E+000
  0.000000000000000E+000
  0.000000000000000E+000
  0.000000000000000E+000
  0.000000000000000E+000
  0.000000000000000E+000
  0.000000000000000E+000
  0.000000000000000E+000
  0.000000000000000E+000
  0.000000000000000E+000
  0.000000000000000E+000
  0.000000000000000E+000
  0.000000000000000E+000
  0.000000000000000E+000
  0.000000000000000E+000
  0.000000000000000E+000
  0.000000000000000E+000
  0.000000000000000E+000
  0.000000000000000E+000
  0.000000000000000E+000
  0.000000000000000E+000
  0.000000000000000E+000
  0.000000000000000E+000
  0.000000000000000E+000
  0.000000000000000E+000
  0.000000000000000E+000
  0.000000000000000E+000
  0.000000000000000E+000
  0.000000000000000E+000
  0.000000000000000E+000
  0.000000000000000E+000
  0.000000000000000E+000
  0.000000000000000E+000
  0.000000000000000E+000
  0.000000000000000E+000
  0.000000000000000E+000
  0.000000000000000E+000
  0.000000000000000E+000
  0.000000000000000E+000
  0.000000000000000E+000
  0.000000000000000E+000
  0.000000000000000E+000
  0.000000000000000E+000
  0.000000000000000E+000
  0.000000000000000E+000
  0.000000000000000E+000
  0.000000000000000E+000
  0.000000000000000E+000
  0.000000000000000E+000
  0.000000000000000E+000
  0.000000000000000E+000
  0.000000000000000E+000
  0.000000000000000E+000
  0.000000000000000E+000
  0.000000000000000E+000
  0.000000000000000E+000
  0.000000000000000E+000
  0.000000000000000E+000
  0.000000000000000E+000
  0.000000000000000E+000
  0.000000000000000E+000
  0.000000000000000E+000
  0.000000000000000E+000
  0.000000000000000E+000
  0.000000000000000E+000
  0.000000000000000E+000
  0.000000000000000E+000
  0.000000000000000E+000
  0.000000000000000E+000
  0.000000000000000E+000
  0.000000000000000E+000
  0.000000000000000E+000
  0.000000000000000E+000
  0.000000000000000E+000
  0.000000000000000E+000
  0.000000000000000E+000
  0.000000000000000E+000
  0.000000000000000E+000
  0.000000000000000E+000
  0.000000000000000E+000
  0.000000000000000E+000
  0.000000000000000E+000
  0.000000000000000E+000
  0.000000000000000E+000
  0.000000000000000E+000
  0.000000000000000E+000
  0.000000000000000E+000
  0.000000000000000E+000
  0.000000000000000E+000
  0.000000000000000E+000
  0.000000000000000E+000
  0.000000000000000E+000
  0.000000000000000E+000
  0.000000000000000E+000
  0.000000000000000E+000
  0.000000000000000E+000
  0.000000000000000E+000
  0.000000000000000E+000
  0.000000000000000E+000
  0.000000000000000E+000
  0.000000000000000E+000
  0.000000000000000E+000
  0.000000000000000E+000
  0.000000000000000E+000
  0.000000000000000E+000
  0.000000000000000E+000
  0.000000000000000E+000
  0.000000000000000E+000
  0.000000000000000E+000
  0.000000000000000E+000
  0.000000000000000E+000
  0.000000000000000E+000
  0.000000000000000E+000
  0.000000000000000E+000
  0.000000000000000E+000
  0.000000000000000E+000
  0.000000000000000E+000
  0.000000000000000E+000
  0.000000000000000E+000
  0.000000000000000E+000
  0.000000000000000E+000
  0.000000000000000E+000
  0.000000000000000E+000
  0.000000000000000E+000
  0.000000000000000E+000
  0.000000000000000E+000
  0.000000000000000E+000
  0.000000000000000E+000
  0.000000000000000E+000
  0.000000000000000E+000
  0.000000000000000E+000
  0.000000000000000E+000
  0.000000000000000E+000
  0.000000000000000E+000
  0.000000000000000E+000
  0.000000000000000E+000
  0.000000000000000E+000
  0.000000000000000E+000
  0.000000000000000E+000
  0.000000000000000E+000
  0.000000000000000E+000
  0.000000000000000E+000
  0.000000000000000E+000
  0.000000000000000E+000
  0.000000000000000E+000
  0.000000000000000E+000
  0.000000000000000E+000
  0.000000000000000E+000
  0.000000000000000E+000
  0.000000000000000E+000
  0.000000000000000E+000
  0.000000000000000E+000
  0.000000000000000E+000
  0.000000000000000E+000
  0.000000000000000E+000
  0.000000000000000E+000
  0.000000000000000E+000
  0.000000000000000E+000
  0.000000000000000E+000
  0.000000000000000E+000
  0.000000000000000E+000
  0.000000000000000E+000
  0.000000000000000E+000
  0.000000000000000E+000
  0.000000000000000E+000
  0.000000000000000E+000
  0.000000000000000E+000
  0.000000000000000E+000
  0.000000000000000E+000
  0.000000000000000E+000
  0.000000000000000E+000
  0.000000000000000E+000
  0.000000000000000E+000
  0.000000000000000E+000
  0.000000000000000E+000
  0.000000000000000E+000
  0.000000000000000E+000
  0.000000000000000E+000
  0.000000000000000E+000
  0.000000000000000E+000
  0.000000000000000E+000
  0.000000000000000E+000
  0.000000000000000E+000
  0.000000000000000E+000
  0.000000000000000E+000
  0.000000000000000E+000
  0.000000000000000E+000
  0.000000000000000E+000
  0.000000000000000E+000
  0.000000000000000E+000
  0.000000000000000E+000
  0.000000000000000E+000
  0.000000000000000E+000
  0.000000000000000E+000
  0.000000000000000E+000
  0.000000000000000E+000
  0.000000000000000E+000
  0.000000000000000E+000
  0.000000000000000E+000
  0.000000000000000E+000
  0.000000000000000E+000
  0.000000000000000E+000
  0.000000000000000E+000
  0.000000000000000E+000
  0.000000000000000E+000
  0.000000000000000E+000
  0.000000000000000E+000
  0.000000000000000E+000
  0.000000000000000E+000
  0.000000000000000E+000
  0.000000000000000E+000
  0.000000000000000E+000
  0.000000000000000E+000
  0.000000000000000E+000
  0.000000000000000E+000
  0.000000000000000E+000
  0.000000000000000E+000
  0.000000000000000E+000
  0.000000000000000E+000
  0.000000000000000E+000
  0.000000000000000E+000
  0.000000000000000E+000
  0.000000000000000E+000
  0.000000000000000E+000
  0.000000000000000E+000
  0.000000000000000E+000
  0.000000000000000E+000
  0.000000000000000E+000
  0.000000000000000E+000
  0.000000000000000E+000
  0.000000000000000E+000
  0.000000000000000E+000
  0.000000000000000E+000
  0.000000000000000E+000
  0.000000000000000E+000
  0.000000000000000E+000
  0.000000000000000E+000
  0.000000000000000E+000
  0.000000000000000E+000
  0.000000000000000E+000
  0.000000000000000E+000
  0.000000000000000E+000
  0.000000000000000E+000
  0.000000000000000E+000
  0.000000000000000E+000
  0.000000000000000E+000
  0.000000000000000E+000
  0.000000000000000E+000
  0.000000000000000E+000
  0.000000000000000E+000
  0.000000000000000E+000
  0.000000000000000E+000
  0.000000000000000E+000
  0.000000000000000E+000
  0.000000000000000E+000
  0.000000000000000E+000
  0.000000000000000E+000
  0.000000000000000E+000
  0.000000000000000E+000
  0.000000000000000E+000
  0.000000000000000E+000
  0.000000000000000E+000
  0.000000000000000E+000
  0.000000000000000E+000
  0.000000000000000E+000
  0.000000000000000E+000
  0.000000000000000E+000
  0.000000000000000E+000
  0.000000000000000E+000
  0.000000000000000E+000
  0.000000000000000E+000
  0.000000000000000E+000
  0.000000000000000E+000
  0.000000000000000E+000
  0.000000000000000E+000
  0.000000000000000E+000
  0.000000000000000E+000
  0.000000000000000E+000
  0.000000000000000E+000
  0.000000000000000E+000
  0.000000000000000E+000
  0.000000000000000E+000
  0.000000000000000E+000
  0.000000000000000E+000
  0.000000000000000E+000
  0.000000000000000E+000
  0.000000000000000E+000
  0.000000000000000E+000
  0.000000000000000E+000
  0.000000000000000E+000
  0.000000000000000E+000
  0.000000000000000E+000
  0.000000000000000E+000
  0.000000000000000E+000
  0.000000000000000E+000
  0.000000000000000E+000
  0.000000000000000E+000
  0.000000000000000E+000
SCALARS elementIsPlast double 
LOOKUP_TABLE default
  0.000000000000000E+000
  0.000000000000000E+000
  0.000000000000000E+000
  0.000000000000000E+000
  0.000000000000000E+000
  0.000000000000000E+000
  0.000000000000000E+000
  0.000000000000000E+000
  0.000000000000000E+000
  0.000000000000000E+000
  0.000000000000000E+000
  0.000000000000000E+000
  0.000000000000000E+000
  0.000000000000000E+000
  0.000000000000000E+000
  0.000000000000000E+000
  0.000000000000000E+000
  0.000000000000000E+000
  0.000000000000000E+000
  0.000000000000000E+000
  0.000000000000000E+000
  0.000000000000000E+000
  0.000000000000000E+000
  0.000000000000000E+000
  0.000000000000000E+000
  0.000000000000000E+000
  0.000000000000000E+000
  0.000000000000000E+000
  0.000000000000000E+000
  0.000000000000000E+000
  0.000000000000000E+000
  0.000000000000000E+000
  0.000000000000000E+000
  0.000000000000000E+000
  0.000000000000000E+000
  0.000000000000000E+000
  0.000000000000000E+000
  0.000000000000000E+000
  0.000000000000000E+000
  0.000000000000000E+000
  0.000000000000000E+000
  0.000000000000000E+000
  0.000000000000000E+000
  0.000000000000000E+000
  0.000000000000000E+000
  0.000000000000000E+000
  0.000000000000000E+000
  0.000000000000000E+000
  0.000000000000000E+000
  0.000000000000000E+000
  0.000000000000000E+000
  0.000000000000000E+000
  0.000000000000000E+000
  0.000000000000000E+000
  0.000000000000000E+000
  0.000000000000000E+000
  0.000000000000000E+000
  0.000000000000000E+000
  0.000000000000000E+000
  0.000000000000000E+000
  0.000000000000000E+000
  0.000000000000000E+000
  0.000000000000000E+000
  0.000000000000000E+000
  0.000000000000000E+000
  0.000000000000000E+000
  0.000000000000000E+000
  0.000000000000000E+000
  0.000000000000000E+000
  0.000000000000000E+000
  0.000000000000000E+000
  0.000000000000000E+000
  0.000000000000000E+000
  0.000000000000000E+000
  0.000000000000000E+000
  0.000000000000000E+000
  0.000000000000000E+000
  0.000000000000000E+000
  0.000000000000000E+000
  0.000000000000000E+000
  0.000000000000000E+000
  0.000000000000000E+000
  0.000000000000000E+000
  0.000000000000000E+000
  0.000000000000000E+000
  0.000000000000000E+000
  0.000000000000000E+000
  0.000000000000000E+000
  0.000000000000000E+000
  0.000000000000000E+000
  0.000000000000000E+000
  0.000000000000000E+000
  0.000000000000000E+000
  0.000000000000000E+000
  0.000000000000000E+000
  0.000000000000000E+000
  0.000000000000000E+000
  0.000000000000000E+000
  0.000000000000000E+000
  0.000000000000000E+000
  0.000000000000000E+000
  0.000000000000000E+000
  0.000000000000000E+000
  0.000000000000000E+000
  0.000000000000000E+000
  0.000000000000000E+000
  0.000000000000000E+000
  0.000000000000000E+000
  0.000000000000000E+000
  0.000000000000000E+000
  0.000000000000000E+000
  0.000000000000000E+000
  0.000000000000000E+000
  0.000000000000000E+000
  0.000000000000000E+000
  0.000000000000000E+000
  0.000000000000000E+000
  0.000000000000000E+000
  0.000000000000000E+000
  0.000000000000000E+000
  0.000000000000000E+000
  0.000000000000000E+000
  0.000000000000000E+000
  0.000000000000000E+000
  0.000000000000000E+000
  0.000000000000000E+000
  0.000000000000000E+000
  0.000000000000000E+000
  0.000000000000000E+000
  0.000000000000000E+000
  0.000000000000000E+000
  0.000000000000000E+000
  0.000000000000000E+000
  0.000000000000000E+000
  0.000000000000000E+000
  0.000000000000000E+000
  0.000000000000000E+000
  0.000000000000000E+000
  0.000000000000000E+000
  0.000000000000000E+000
  0.000000000000000E+000
  0.000000000000000E+000
  0.000000000000000E+000
  0.000000000000000E+000
  0.000000000000000E+000
  0.000000000000000E+000
  0.000000000000000E+000
  0.000000000000000E+000
  0.000000000000000E+000
  0.000000000000000E+000
  0.000000000000000E+000
  0.000000000000000E+000
  0.000000000000000E+000
  0.000000000000000E+000
  0.000000000000000E+000
  0.000000000000000E+000
  0.000000000000000E+000
  0.000000000000000E+000
  0.000000000000000E+000
  0.000000000000000E+000
  0.000000000000000E+000
  0.000000000000000E+000
  0.000000000000000E+000
  0.000000000000000E+000
  0.000000000000000E+000
  0.000000000000000E+000
  0.000000000000000E+000
  0.000000000000000E+000
  0.000000000000000E+000
  0.000000000000000E+000
  0.000000000000000E+000
  0.000000000000000E+000
  0.000000000000000E+000
  0.000000000000000E+000
  0.000000000000000E+000
  0.000000000000000E+000
  0.000000000000000E+000
  0.000000000000000E+000
  0.000000000000000E+000
  0.000000000000000E+000
  0.000000000000000E+000
  0.000000000000000E+000
  0.000000000000000E+000
  0.000000000000000E+000
  0.000000000000000E+000
  0.000000000000000E+000
  0.000000000000000E+000
  0.000000000000000E+000
  0.000000000000000E+000
  0.000000000000000E+000
  0.000000000000000E+000
  0.000000000000000E+000
  0.000000000000000E+000
  0.000000000000000E+000
  0.000000000000000E+000
  0.000000000000000E+000
  0.000000000000000E+000
  0.000000000000000E+000
  0.000000000000000E+000
  0.000000000000000E+000
  0.000000000000000E+000
  0.000000000000000E+000
  0.000000000000000E+000
  0.000000000000000E+000
  0.000000000000000E+000
  0.000000000000000E+000
  0.000000000000000E+000
  0.000000000000000E+000
  0.000000000000000E+000
  0.000000000000000E+000
  0.000000000000000E+000
  0.000000000000000E+000
  0.000000000000000E+000
  0.000000000000000E+000
  0.000000000000000E+000
  0.000000000000000E+000
  0.000000000000000E+000
  0.000000000000000E+000
  0.000000000000000E+000
  0.000000000000000E+000
  0.000000000000000E+000
  0.000000000000000E+000
  0.000000000000000E+000
  0.000000000000000E+000
  0.000000000000000E+000
  0.000000000000000E+000
  0.000000000000000E+000
  0.000000000000000E+000
  0.000000000000000E+000
  0.000000000000000E+000
  0.000000000000000E+000
  0.000000000000000E+000
  0.000000000000000E+000
  0.000000000000000E+000
  0.000000000000000E+000
  0.000000000000000E+000
  0.000000000000000E+000
  0.000000000000000E+000
  0.000000000000000E+000
  0.000000000000000E+000
  0.000000000000000E+000
  0.000000000000000E+000
  0.000000000000000E+000
  0.000000000000000E+000
  0.000000000000000E+000
  0.000000000000000E+000
  0.000000000000000E+000
  0.000000000000000E+000
  0.000000000000000E+000
  0.000000000000000E+000
  0.000000000000000E+000
  0.000000000000000E+000
  0.000000000000000E+000
  0.000000000000000E+000
  0.000000000000000E+000
  0.000000000000000E+000
  0.000000000000000E+000
  0.000000000000000E+000
  0.000000000000000E+000
  0.000000000000000E+000
  0.000000000000000E+000
  0.000000000000000E+000
  0.000000000000000E+000
  0.000000000000000E+000
  0.000000000000000E+000
  0.000000000000000E+000
  0.000000000000000E+000
  0.000000000000000E+000
  0.000000000000000E+000
  0.000000000000000E+000
  0.000000000000000E+000
  0.000000000000000E+000
  0.000000000000000E+000
  0.000000000000000E+000
  0.000000000000000E+000
  0.000000000000000E+000
  0.000000000000000E+000
  0.000000000000000E+000
  0.000000000000000E+000
  0.000000000000000E+000
  0.000000000000000E+000
  0.000000000000000E+000
  0.000000000000000E+000
  0.000000000000000E+000
  0.000000000000000E+000
  0.000000000000000E+000
  0.000000000000000E+000
  0.000000000000000E+000
  0.000000000000000E+000
  0.000000000000000E+000
  0.000000000000000E+000
  0.000000000000000E+000
  0.000000000000000E+000
  0.000000000000000E+000
  0.000000000000000E+000
  0.000000000000000E+000
  0.000000000000000E+000
  0.000000000000000E+000
  0.000000000000000E+000
  0.000000000000000E+000
  0.000000000000000E+000
  0.000000000000000E+000
  0.000000000000000E+000
  0.000000000000000E+000
  0.000000000000000E+000
  0.000000000000000E+000
  0.000000000000000E+000
  0.000000000000000E+000
  0.000000000000000E+000
  0.000000000000000E+000
  0.000000000000000E+000
  0.000000000000000E+000
  0.000000000000000E+000
  0.000000000000000E+000
  0.000000000000000E+000
  0.000000000000000E+000
  0.000000000000000E+000
  0.000000000000000E+000
  0.000000000000000E+000
  0.000000000000000E+000
  0.000000000000000E+000
  0.000000000000000E+000
  0.000000000000000E+000
  0.000000000000000E+000
  0.000000000000000E+000
  0.000000000000000E+000
  0.000000000000000E+000
  0.000000000000000E+000
  0.000000000000000E+000
  0.000000000000000E+000
  0.000000000000000E+000
  0.000000000000000E+000
  0.000000000000000E+000
  0.000000000000000E+000
  0.000000000000000E+000
  0.000000000000000E+000
  0.000000000000000E+000
  0.000000000000000E+000
  0.000000000000000E+000
  0.000000000000000E+000
  0.000000000000000E+000
  0.000000000000000E+000
  0.000000000000000E+000
  0.000000000000000E+000
  0.000000000000000E+000
  0.000000000000000E+000
  0.000000000000000E+000
  0.000000000000000E+000
  0.000000000000000E+000
  0.000000000000000E+000
  0.000000000000000E+000
  0.000000000000000E+000
  0.000000000000000E+000
  0.000000000000000E+000
  0.000000000000000E+000
  0.000000000000000E+000
  0.000000000000000E+000
  0.000000000000000E+000
  0.000000000000000E+000
  0.000000000000000E+000
  0.000000000000000E+000
  0.000000000000000E+000
  0.000000000000000E+000
  0.000000000000000E+000
  0.000000000000000E+000
  0.000000000000000E+000
  0.000000000000000E+000
  0.000000000000000E+000
  0.000000000000000E+000
  0.000000000000000E+000
  0.000000000000000E+000
  0.000000000000000E+000
  0.000000000000000E+000
  0.000000000000000E+000
  0.000000000000000E+000
  0.000000000000000E+000
  0.000000000000000E+000
  0.000000000000000E+000
  0.000000000000000E+000
  0.000000000000000E+000
  0.000000000000000E+000
  0.000000000000000E+000
  0.000000000000000E+000
  0.000000000000000E+000
  0.000000000000000E+000
  0.000000000000000E+000
  0.000000000000000E+000
  0.000000000000000E+000
  0.000000000000000E+000
  0.000000000000000E+000
  0.000000000000000E+000
  0.000000000000000E+000
  0.000000000000000E+000
  0.000000000000000E+000
  0.000000000000000E+000
  0.000000000000000E+000
  0.000000000000000E+000
  0.000000000000000E+000
  0.000000000000000E+000
  0.000000000000000E+000
  0.000000000000000E+000
  0.000000000000000E+000
  0.000000000000000E+000
  0.000000000000000E+000
  0.000000000000000E+000
  0.000000000000000E+000
  0.000000000000000E+000
  0.000000000000000E+000
  0.000000000000000E+000
  0.000000000000000E+000
  0.000000000000000E+000
  0.000000000000000E+000
  0.000000000000000E+000
  0.000000000000000E+000
  0.000000000000000E+000
  0.000000000000000E+000
  0.000000000000000E+000
  0.000000000000000E+000
  0.000000000000000E+000
  0.000000000000000E+000
  0.000000000000000E+000
  0.000000000000000E+000
  0.000000000000000E+000
  0.000000000000000E+000
  0.000000000000000E+000
  0.000000000000000E+000
  0.000000000000000E+000
  0.000000000000000E+000
  0.000000000000000E+000
  0.000000000000000E+000
  0.000000000000000E+000
  0.000000000000000E+000
  0.000000000000000E+000
  0.000000000000000E+000
  0.000000000000000E+000
  0.000000000000000E+000
  0.000000000000000E+000
  0.000000000000000E+000
  0.000000000000000E+000
  0.000000000000000E+000
  0.000000000000000E+000
  0.000000000000000E+000
  0.000000000000000E+000
  0.000000000000000E+000
  0.000000000000000E+000
  0.000000000000000E+000
  0.000000000000000E+000
  0.000000000000000E+000
  0.000000000000000E+000
  0.000000000000000E+000
SCALARS poroL double 
LOOKUP_TABLE default
  0.156038564811275     
  0.156035097272424     
  0.156032131633133     
  0.156029413314286     
  0.156026868415647     
  0.156024465955210     
  0.156022192878291     
  0.156020043653433     
  0.156018015768071     
  0.156016107320319     
  0.156014315322429     
  0.156012633792747     
  0.156011050075597     
  0.156009536893767     
  0.156007998262343     
  0.156036318681132     
  0.156033390211627     
  0.156030589363295     
  0.156027966639543     
  0.156025490518216     
  0.156023146277496     
  0.156020926421069     
  0.156018827504091     
  0.156016847700253     
  0.156014985374131     
  0.156013238033503     
  0.156011601216155     
  0.156010067501863     
  0.156008622330991     
  0.156007293032009     
  0.156034180582930     
  0.156031584807047     
  0.156028985549654     
  0.156026466816204     
  0.156024057998731     
  0.156021764427778     
  0.156019587899018     
  0.156017528993535     
  0.156015587738151     
  0.156013763593608     
  0.156012055392994     
  0.156010461539608     
  0.156008980566937     
  0.156007619491373     
  0.156006395525392     
  0.156032297317968     
  0.156029848227279     
  0.156027366975336     
  0.156024925588122     
  0.156022565698732     
  0.156020307751620     
  0.156018161040934     
  0.156016129998178     
  0.156014216526386     
  0.156012421217535     
  0.156010744195894     
  0.156009186063506     
  0.156007750164723     
  0.156006444678058     
  0.156005285515212     
  0.156030639778465     
  0.156028210821209     
  0.156025759835832     
  0.156023343967100     
  0.156021002185646     
  0.156018757981911     
  0.156016624156941     
  0.156014607058637     
  0.156012709472777     
  0.156010932403570     
  0.156009276416616     
  0.156007743012639     
  0.156006336047053     
  0.156005063286964     
  0.156003937142052     
  0.156029144733401     
  0.156026641960713     
  0.156024146924477     
  0.156021703525386     
  0.156019343621169     
  0.156017087885473     
  0.156014948185031     
  0.156012930308062     
  0.156011036322705     
  0.156009266427529     
  0.156007620441347     
  0.156006099104131     
  0.156004705277059     
  0.156003444875795     
  0.156002327388583     
  0.156027730852176     
  0.156025081322124     
  0.156022481488298     
  0.156019963666597     
  0.156017551214723     
  0.156015259080999     
  0.156013095251393     
  0.156011062602546     
  0.156009160750158     
  0.156007387691472     
  0.156005741212790     
  0.156004220097169     
  0.156002825130806     
  0.156001559863343     
  0.156000431020789     
  0.156026302488489     
  0.156023448541575     
  0.156020695516606     
  0.156018064927192     
  0.156015570982044     
  0.156013221265912     
  0.156011017898026     
  0.156008958966205     
  0.156007040023438     
  0.156005255501416     
  0.156003599974118     
  0.156002069248761     
  0.156000661269195     
  0.155999376800543     
  0.155998219861455     
  0.156024749688610     
  0.156021646635434     
  0.156018703707832     
  0.156015931634904     
  0.156013334831496     
  0.156010912329874     
  0.156008658912636     
  0.156006566374104     
  0.156004624810438     
  0.156002823854029     
  0.156001153798921     
  0.155999606589385     
  0.155998176654246     
  0.155996861571309     
  0.155995662546358     
  0.156022947418959     
  0.156019563060930     
  0.156016405344246     
  0.156013473626824     
  0.156010761691600     
  0.156008258935756     
  0.156005951574930     
  0.156003823849696     
  0.156001859199546     
  0.156000041368254     
  0.155998355414734     
  0.155996788614931     
  0.155995331247478     
  0.155993977258174     
  0.155992724799022     
  0.156020754676625     
  0.156017069990240     
  0.156013685254031     
  0.156010587403362     
  0.156007758527544     
  0.156005177285163     
  0.156002820199135     
  0.156000662850965     
  0.155998680979413     
  0.155996851484049     
  0.155995153335872     
  0.155993568400713     
  0.155992082183101     
  0.155990684497771     
  0.155989370073226     
  0.156018013836491     
  0.156014024472381     
  0.156010414530518     
  0.156007157116090     
  0.156004221368989     
  0.156001574056628     
  0.155999180939402     
  0.155997007949363     
  0.155995022215379     
  0.155993192964445     
  0.155991492327772     
  0.155989896079410     
  0.155988384332810     
  0.155986942216046     
  0.155985560539502     
  0.156014550490088     
  0.156010268889293     
  0.156006451431390     
  0.156003055719558     
  0.156000036548908     
  0.155997347616419     
  0.155994942911125     
  0.155992777842161     
  0.155990810160785     
  0.155989000731830     
  0.155987314208844     
  0.155985719664002     
  0.155984191217900     
  0.155982708705240     
  0.155981258400836     
  0.156010174030014     
  0.156005632019259     
  0.156001642781208     
  0.155998146568644     
  0.155995082366962     
  0.155992389649675     
  0.155990009728208     
  0.155987886768863     
  0.155985968554423     
  0.155984207071326     
  0.155982559003501     
  0.155980986209569     
  0.155979456250667     
  0.155977943022314     
  0.155976427526617     
  0.156004679252148     
  0.155999930995207     
  0.155995826160926     
  0.155992285717951     
  0.155989231390513     
  0.155986587377460     
  0.155984281579313     
  0.155982246420305     
  0.155980419365027     
  0.155978743238719     
  0.155977166463006     
  0.155975643313547     
  0.155974134292825     
  0.155972606691498     
  0.155971035387728     
  0.155997849265163     
  0.155992974438887     
  0.155988833151630     
  0.155985325166076     
  0.155982353601998     
  0.155979826529122     
  0.155977657973046     
  0.155975768434168     
  0.155974085044774     
  0.155972541507642     
  0.155971077966048     
  0.155969640948399     
  0.155968183512240     
  0.155966665684647     
  0.155965055262715     
  0.155989459998711     
  0.155984567043122     
  0.155980493886627     
  0.155977117275344     
  0.155974320592315     
  0.155971995232967     
  0.155970041275983     
  0.155968367562525     
  0.155966891342328     
  0.155965537676068     
  0.155964238794144     
  0.155962933602587     
  0.155961567500346     
  0.155960092633257     
  0.155958468663817     
  0.155979286576573     
  0.155974515850667     
  0.155970643145396     
  0.155967520579874     
  0.155965010983490     
  0.155962988971098     
  0.155961341147698     
  0.155959965573603     
  0.155958770698680     
  0.155957674021711     
  0.155956600744272     
  0.155955482672259     
  0.155954257579587     
  0.155952869194027     
  0.155951267900982     
  0.155967111758439     
  0.155962638432063     
  0.155959128189897     
  0.155956407168469     
  0.155954317237942     
  0.155952716714331     
  0.155951479941050     
  0.155950495908061     
  0.155949666202057     
  0.155948902645294     
  0.155948124988721     
  0.155947258993688     
  0.155946235179964     
  0.155944988443655     
  0.155943458660441     
  0.155952736545196     
  0.155948773094803     
  0.155945818500041     
  0.155943671795875     
  0.155942153976201     
  0.155941108308023     
  0.155940399079934     
  0.155939909045063     
  0.155939536007215     
  0.155939189065885     
  0.155938785015421     
  0.155938245330575     
  0.155937494092413     
  0.155936457115511     
  0.155935062421834     
  0.155935992885096     
  0.155932791171724     
  0.155930617524801     
  0.155929242846890     
  0.155928467883429     
  0.155928123116475     
  0.155928066344639     
  0.155928178440038     
  0.155928358025376     
  0.155928515830315     
  0.155928569377291     
  0.155928438525651     
  0.155928042308237     
  0.155927297407099     
  0.155926118474652     
  0.155916758222828     
  0.155914611370182     
  0.155913476564667     
  0.155913095276673     
  0.155913249243593     
  0.155913759845235     
  0.155914483876186     
  0.155915306767074     
  0.155916134563308     
  0.155916885770404     
  0.155917483845240     
  0.155917850885349     
  0.155917903018355     
  0.155917547974908     
  0.155916685222626     
  0.155894971438793     
  0.155894216197508     
  0.155894411020298     
  0.155895265723195     
  0.155896545101377     
  0.155898067324650     
  0.155899696532301     
  0.155901332027213     
  0.155902896440636     
  0.155904324402515     
  0.155905552400903     
  0.155906510182579     
  0.155907114150234     
  0.155907263574675     
  0.155906840381034     
  0.155870649637750     
  0.155871670801045     
  0.155873519656812     
  0.155875870205276     
  0.155878473989689     
  0.155881155786533     
  0.155883799938880     
  0.155886332861502     
  0.155888705980589     
  0.155890880851514     
  0.155892816358271     
  0.155894457409651     
  0.155895725527082     
  0.155896512537799     
  0.155896679570583     
  0.155843905489521     
  0.155847145673081     
  0.155851008595673     
  0.155855125266978     
  0.155859241933119     
  0.155863207610972     
  0.155866947087068     
  0.155870432152588     
  0.155873658216886     
  0.155876626747946     
  0.155879330789132     
  0.155881741142933     
  0.155883792151401     
  0.155885370819014     
  0.155886312597686     
  0.155814966304867     
  0.155820947713008     
  0.155827224327693     
  0.155833373987166     
  0.155839158474807     
  0.155844485293904     
  0.155849351479925     
  0.155853797771108     
  0.155857879952428     
  0.155861652845009     
  0.155865157878082     
  0.155868406705412     
  0.155871361389889     
  0.155873909914130     
  0.155875856455821     
  0.155784200151704     
  0.155793573960773     
  0.155802705184175     
  0.155811117621436     
  0.155818648320201     
  0.155825331516753     
  0.155831284092205     
  0.155836639288579     
  0.155841526717383     
  0.155846065005354     
  0.155850356933053     
  0.155854479776925     
  0.155858447634266     
  0.155862174746180     
  0.155865421552868     
  0.155752180953379     
  0.155765826848254     
  0.155778270792622     
  0.155789045440062     
  0.155798241829696     
  0.155806155097408     
  0.155813061086441     
  0.155819199827096     
  0.155824778533041     
  0.155829981692333     
  0.155834980610837     
  0.155839936570883     
  0.155844995157268     
  0.155850126554274     
  0.155855091325234     
  0.155719886661806     
  0.155739151519426     
  0.155755153962712     
  0.155767985156650     
  0.155778531978659     
  0.155787396378317     
  0.155795021194043     
  0.155801743099482     
  0.155807835214920     
  0.155813537244684     
  0.155819080949163     
  0.155824717627396     
  0.155830742353880     
  0.155837577774595     
  0.155844818886469     
  0.155690265493537     
  0.155716414214592     
  0.155734700573980     
  0.155748773670385     
  0.155760084430059     
  0.155769475500285     
  0.155777494942200     
  0.155784536957191     
  0.155790911758712     
  0.155796889829462     
  0.155802738541183     
  0.155808765075417     
  0.155815393959482     
  0.155823326103337     
  0.155834589302218     
