# vtk DataFile Version 3.0
vtk output
ASCII
DATASET UNSTRUCTURED_GRID
POINTS      5151 double 
  0.00000000E+00  1.00000000E+02  0.00000000E+00
  0.00000000E+00  9.80000000E+01  0.00000000E+00
  0.00000000E+00  9.60000000E+01  0.00000000E+00
  0.00000000E+00  9.40000000E+01  0.00000000E+00
  0.00000000E+00  9.20000000E+01  0.00000000E+00
  0.00000000E+00  9.00000000E+01  0.00000000E+00
  0.00000000E+00  8.80000000E+01  0.00000000E+00
  0.00000000E+00  8.60000000E+01  0.00000000E+00
  0.00000000E+00  8.40000000E+01  0.00000000E+00
  0.00000000E+00  8.20000000E+01  0.00000000E+00
  0.00000000E+00  8.00000000E+01  0.00000000E+00
  0.00000000E+00  7.80000000E+01  0.00000000E+00
  0.00000000E+00  7.60000000E+01  0.00000000E+00
  0.00000000E+00  7.40000000E+01  0.00000000E+00
  0.00000000E+00  7.20000000E+01  0.00000000E+00
  0.00000000E+00  7.00000000E+01  0.00000000E+00
  0.00000000E+00  6.80000000E+01  0.00000000E+00
  0.00000000E+00  6.60000000E+01  0.00000000E+00
  0.00000000E+00  6.40000000E+01  0.00000000E+00
  0.00000000E+00  6.20000000E+01  0.00000000E+00
  0.00000000E+00  6.00000000E+01  0.00000000E+00
  0.00000000E+00  5.80000000E+01  0.00000000E+00
  0.00000000E+00  5.60000000E+01  0.00000000E+00
  0.00000000E+00  5.40000000E+01  0.00000000E+00
  0.00000000E+00  5.20000000E+01  0.00000000E+00
  0.00000000E+00  5.00000000E+01  0.00000000E+00
  0.00000000E+00  4.80000000E+01  0.00000000E+00
  0.00000000E+00  4.60000000E+01  0.00000000E+00
  0.00000000E+00  4.40000000E+01  0.00000000E+00
  0.00000000E+00  4.20000000E+01  0.00000000E+00
  0.00000000E+00  4.00000000E+01  0.00000000E+00
  0.00000000E+00  3.80000000E+01  0.00000000E+00
  0.00000000E+00  3.60000000E+01  0.00000000E+00
  0.00000000E+00  3.40000000E+01  0.00000000E+00
  0.00000000E+00  3.20000000E+01  0.00000000E+00
  0.00000000E+00  3.00000000E+01  0.00000000E+00
  0.00000000E+00  2.80000000E+01  0.00000000E+00
  0.00000000E+00  2.60000000E+01  0.00000000E+00
  0.00000000E+00  2.40000000E+01  0.00000000E+00
  0.00000000E+00  2.20000000E+01  0.00000000E+00
  0.00000000E+00  2.00000000E+01  0.00000000E+00
  0.00000000E+00  1.80000000E+01  0.00000000E+00
  0.00000000E+00  1.60000000E+01  0.00000000E+00
  0.00000000E+00  1.40000000E+01  0.00000000E+00
  0.00000000E+00  1.20000000E+01  0.00000000E+00
  0.00000000E+00  1.00000000E+01  0.00000000E+00
  0.00000000E+00  8.00000000E+00  0.00000000E+00
  0.00000000E+00  6.00000000E+00  0.00000000E+00
  0.00000000E+00  4.00000000E+00  0.00000000E+00
  0.00000000E+00  2.00000000E+00  0.00000000E+00
  0.00000000E+00 -3.33066907E-14  0.00000000E+00
  1.00000000E+01  1.00000000E+02  0.00000000E+00
  1.00000000E+01  9.80000000E+01  0.00000000E+00
  1.00000000E+01  9.60000000E+01  0.00000000E+00
  1.00000000E+01  9.40000000E+01  0.00000000E+00
  1.00000000E+01  9.20000000E+01  0.00000000E+00
  1.00000000E+01  9.00000000E+01  0.00000000E+00
  1.00000000E+01  8.80000000E+01  0.00000000E+00
  1.00000000E+01  8.60000000E+01  0.00000000E+00
  1.00000000E+01  8.40000000E+01  0.00000000E+00
  1.00000000E+01  8.20000000E+01  0.00000000E+00
  1.00000000E+01  8.00000000E+01  0.00000000E+00
  1.00000000E+01  7.80000000E+01  0.00000000E+00
  1.00000000E+01  7.60000000E+01  0.00000000E+00
  1.00000000E+01  7.40000000E+01  0.00000000E+00
  1.00000000E+01  7.20000000E+01  0.00000000E+00
  1.00000000E+01  7.00000000E+01  0.00000000E+00
  1.00000000E+01  6.80000000E+01  0.00000000E+00
  1.00000000E+01  6.60000000E+01  0.00000000E+00
  1.00000000E+01  6.40000000E+01  0.00000000E+00
  1.00000000E+01  6.20000000E+01  0.00000000E+00
  1.00000000E+01  6.00000000E+01  0.00000000E+00
  1.00000000E+01  5.80000000E+01  0.00000000E+00
  1.00000000E+01  5.60000000E+01  0.00000000E+00
  1.00000000E+01  5.40000000E+01  0.00000000E+00
  1.00000000E+01  5.20000000E+01  0.00000000E+00
  1.00000000E+01  5.00000000E+01  0.00000000E+00
  1.00000000E+01  4.80000000E+01  0.00000000E+00
  1.00000000E+01  4.60000000E+01  0.00000000E+00
  1.00000000E+01  4.40000000E+01  0.00000000E+00
  1.00000000E+01  4.20000000E+01  0.00000000E+00
  1.00000000E+01  4.00000000E+01  0.00000000E+00
  1.00000000E+01  3.80000000E+01  0.00000000E+00
  1.00000000E+01  3.60000000E+01  0.00000000E+00
  1.00000000E+01  3.40000000E+01  0.00000000E+00
  1.00000000E+01  3.20000000E+01  0.00000000E+00
  1.00000000E+01  3.00000000E+01  0.00000000E+00
  1.00000000E+01  2.80000000E+01  0.00000000E+00
  1.00000000E+01  2.60000000E+01  0.00000000E+00
  1.00000000E+01  2.40000000E+01  0.00000000E+00
  1.00000000E+01  2.20000000E+01  0.00000000E+00
  1.00000000E+01  2.00000000E+01  0.00000000E+00
  1.00000000E+01  1.80000000E+01  0.00000000E+00
  1.00000000E+01  1.60000000E+01  0.00000000E+00
  1.00000000E+01  1.40000000E+01  0.00000000E+00
  1.00000000E+01  1.20000000E+01  0.00000000E+00
  1.00000000E+01  1.00000000E+01  0.00000000E+00
  1.00000000E+01  8.00000000E+00  0.00000000E+00
  1.00000000E+01  6.00000000E+00  0.00000000E+00
  1.00000000E+01  4.00000000E+00  0.00000000E+00
  1.00000000E+01  2.00000000E+00  0.00000000E+00
  1.00000000E+01 -3.33066907E-14  0.00000000E+00
  2.00000000E+01  1.00000000E+02  0.00000000E+00
  2.00000000E+01  9.80000000E+01  0.00000000E+00
  2.00000000E+01  9.60000000E+01  0.00000000E+00
  2.00000000E+01  9.40000000E+01  0.00000000E+00
  2.00000000E+01  9.20000000E+01  0.00000000E+00
  2.00000000E+01  9.00000000E+01  0.00000000E+00
  2.00000000E+01  8.80000000E+01  0.00000000E+00
  2.00000000E+01  8.60000000E+01  0.00000000E+00
  2.00000000E+01  8.40000000E+01  0.00000000E+00
  2.00000000E+01  8.20000000E+01  0.00000000E+00
  2.00000000E+01  8.00000000E+01  0.00000000E+00
  2.00000000E+01  7.80000000E+01  0.00000000E+00
  2.00000000E+01  7.60000000E+01  0.00000000E+00
  2.00000000E+01  7.40000000E+01  0.00000000E+00
  2.00000000E+01  7.20000000E+01  0.00000000E+00
  2.00000000E+01  7.00000000E+01  0.00000000E+00
  2.00000000E+01  6.80000000E+01  0.00000000E+00
  2.00000000E+01  6.60000000E+01  0.00000000E+00
  2.00000000E+01  6.40000000E+01  0.00000000E+00
  2.00000000E+01  6.20000000E+01  0.00000000E+00
  2.00000000E+01  6.00000000E+01  0.00000000E+00
  2.00000000E+01  5.80000000E+01  0.00000000E+00
  2.00000000E+01  5.60000000E+01  0.00000000E+00
  2.00000000E+01  5.40000000E+01  0.00000000E+00
  2.00000000E+01  5.20000000E+01  0.00000000E+00
  2.00000000E+01  5.00000000E+01  0.00000000E+00
  2.00000000E+01  4.80000000E+01  0.00000000E+00
  2.00000000E+01  4.60000000E+01  0.00000000E+00
  2.00000000E+01  4.40000000E+01  0.00000000E+00
  2.00000000E+01  4.20000000E+01  0.00000000E+00
  2.00000000E+01  4.00000000E+01  0.00000000E+00
  2.00000000E+01  3.80000000E+01  0.00000000E+00
  2.00000000E+01  3.60000000E+01  0.00000000E+00
  2.00000000E+01  3.40000000E+01  0.00000000E+00
  2.00000000E+01  3.20000000E+01  0.00000000E+00
  2.00000000E+01  3.00000000E+01  0.00000000E+00
  2.00000000E+01  2.80000000E+01  0.00000000E+00
  2.00000000E+01  2.60000000E+01  0.00000000E+00
  2.00000000E+01  2.40000000E+01  0.00000000E+00
  2.00000000E+01  2.20000000E+01  0.00000000E+00
  2.00000000E+01  2.00000000E+01  0.00000000E+00
  2.00000000E+01  1.80000000E+01  0.00000000E+00
  2.00000000E+01  1.60000000E+01  0.00000000E+00
  2.00000000E+01  1.40000000E+01  0.00000000E+00
  2.00000000E+01  1.20000000E+01  0.00000000E+00
  2.00000000E+01  1.00000000E+01  0.00000000E+00
  2.00000000E+01  8.00000000E+00  0.00000000E+00
  2.00000000E+01  6.00000000E+00  0.00000000E+00
  2.00000000E+01  4.00000000E+00  0.00000000E+00
  2.00000000E+01  2.00000000E+00  0.00000000E+00
  2.00000000E+01 -3.33066907E-14  0.00000000E+00
  3.00000000E+01  1.00000000E+02  0.00000000E+00
  3.00000000E+01  9.80000000E+01  0.00000000E+00
  3.00000000E+01  9.60000000E+01  0.00000000E+00
  3.00000000E+01  9.40000000E+01  0.00000000E+00
  3.00000000E+01  9.20000000E+01  0.00000000E+00
  3.00000000E+01  9.00000000E+01  0.00000000E+00
  3.00000000E+01  8.80000000E+01  0.00000000E+00
  3.00000000E+01  8.60000000E+01  0.00000000E+00
  3.00000000E+01  8.40000000E+01  0.00000000E+00
  3.00000000E+01  8.20000000E+01  0.00000000E+00
  3.00000000E+01  8.00000000E+01  0.00000000E+00
  3.00000000E+01  7.80000000E+01  0.00000000E+00
  3.00000000E+01  7.60000000E+01  0.00000000E+00
  3.00000000E+01  7.40000000E+01  0.00000000E+00
  3.00000000E+01  7.20000000E+01  0.00000000E+00
  3.00000000E+01  7.00000000E+01  0.00000000E+00
  3.00000000E+01  6.80000000E+01  0.00000000E+00
  3.00000000E+01  6.60000000E+01  0.00000000E+00
  3.00000000E+01  6.40000000E+01  0.00000000E+00
  3.00000000E+01  6.20000000E+01  0.00000000E+00
  3.00000000E+01  6.00000000E+01  0.00000000E+00
  3.00000000E+01  5.80000000E+01  0.00000000E+00
  3.00000000E+01  5.60000000E+01  0.00000000E+00
  3.00000000E+01  5.40000000E+01  0.00000000E+00
  3.00000000E+01  5.20000000E+01  0.00000000E+00
  3.00000000E+01  5.00000000E+01  0.00000000E+00
  3.00000000E+01  4.80000000E+01  0.00000000E+00
  3.00000000E+01  4.60000000E+01  0.00000000E+00
  3.00000000E+01  4.40000000E+01  0.00000000E+00
  3.00000000E+01  4.20000000E+01  0.00000000E+00
  3.00000000E+01  4.00000000E+01  0.00000000E+00
  3.00000000E+01  3.80000000E+01  0.00000000E+00
  3.00000000E+01  3.60000000E+01  0.00000000E+00
  3.00000000E+01  3.40000000E+01  0.00000000E+00
  3.00000000E+01  3.20000000E+01  0.00000000E+00
  3.00000000E+01  3.00000000E+01  0.00000000E+00
  3.00000000E+01  2.80000000E+01  0.00000000E+00
  3.00000000E+01  2.60000000E+01  0.00000000E+00
  3.00000000E+01  2.40000000E+01  0.00000000E+00
  3.00000000E+01  2.20000000E+01  0.00000000E+00
  3.00000000E+01  2.00000000E+01  0.00000000E+00
  3.00000000E+01  1.80000000E+01  0.00000000E+00
  3.00000000E+01  1.60000000E+01  0.00000000E+00
  3.00000000E+01  1.40000000E+01  0.00000000E+00
  3.00000000E+01  1.20000000E+01  0.00000000E+00
  3.00000000E+01  1.00000000E+01  0.00000000E+00
  3.00000000E+01  8.00000000E+00  0.00000000E+00
  3.00000000E+01  6.00000000E+00  0.00000000E+00
  3.00000000E+01  4.00000000E+00  0.00000000E+00
  3.00000000E+01  2.00000000E+00  0.00000000E+00
  3.00000000E+01 -3.33066907E-14  0.00000000E+00
  4.00000000E+01  1.00000000E+02  0.00000000E+00
  4.00000000E+01  9.80000000E+01  0.00000000E+00
  4.00000000E+01  9.60000000E+01  0.00000000E+00
  4.00000000E+01  9.40000000E+01  0.00000000E+00
  4.00000000E+01  9.20000000E+01  0.00000000E+00
  4.00000000E+01  9.00000000E+01  0.00000000E+00
  4.00000000E+01  8.80000000E+01  0.00000000E+00
  4.00000000E+01  8.60000000E+01  0.00000000E+00
  4.00000000E+01  8.40000000E+01  0.00000000E+00
  4.00000000E+01  8.20000000E+01  0.00000000E+00
  4.00000000E+01  8.00000000E+01  0.00000000E+00
  4.00000000E+01  7.80000000E+01  0.00000000E+00
  4.00000000E+01  7.60000000E+01  0.00000000E+00
  4.00000000E+01  7.40000000E+01  0.00000000E+00
  4.00000000E+01  7.20000000E+01  0.00000000E+00
  4.00000000E+01  7.00000000E+01  0.00000000E+00
  4.00000000E+01  6.80000000E+01  0.00000000E+00
  4.00000000E+01  6.60000000E+01  0.00000000E+00
  4.00000000E+01  6.40000000E+01  0.00000000E+00
  4.00000000E+01  6.20000000E+01  0.00000000E+00
  4.00000000E+01  6.00000000E+01  0.00000000E+00
  4.00000000E+01  5.80000000E+01  0.00000000E+00
  4.00000000E+01  5.60000000E+01  0.00000000E+00
  4.00000000E+01  5.40000000E+01  0.00000000E+00
  4.00000000E+01  5.20000000E+01  0.00000000E+00
  4.00000000E+01  5.00000000E+01  0.00000000E+00
  4.00000000E+01  4.80000000E+01  0.00000000E+00
  4.00000000E+01  4.60000000E+01  0.00000000E+00
  4.00000000E+01  4.40000000E+01  0.00000000E+00
  4.00000000E+01  4.20000000E+01  0.00000000E+00
  4.00000000E+01  4.00000000E+01  0.00000000E+00
  4.00000000E+01  3.80000000E+01  0.00000000E+00
  4.00000000E+01  3.60000000E+01  0.00000000E+00
  4.00000000E+01  3.40000000E+01  0.00000000E+00
  4.00000000E+01  3.20000000E+01  0.00000000E+00
  4.00000000E+01  3.00000000E+01  0.00000000E+00
  4.00000000E+01  2.80000000E+01  0.00000000E+00
  4.00000000E+01  2.60000000E+01  0.00000000E+00
  4.00000000E+01  2.40000000E+01  0.00000000E+00
  4.00000000E+01  2.20000000E+01  0.00000000E+00
  4.00000000E+01  2.00000000E+01  0.00000000E+00
  4.00000000E+01  1.80000000E+01  0.00000000E+00
  4.00000000E+01  1.60000000E+01  0.00000000E+00
  4.00000000E+01  1.40000000E+01  0.00000000E+00
  4.00000000E+01  1.20000000E+01  0.00000000E+00
  4.00000000E+01  1.00000000E+01  0.00000000E+00
  4.00000000E+01  8.00000000E+00  0.00000000E+00
  4.00000000E+01  6.00000000E+00  0.00000000E+00
  4.00000000E+01  4.00000000E+00  0.00000000E+00
  4.00000000E+01  2.00000000E+00  0.00000000E+00
  4.00000000E+01 -3.33066907E-14  0.00000000E+00
  5.00000000E+01  1.00000000E+02  0.00000000E+00
  5.00000000E+01  9.80000000E+01  0.00000000E+00
  5.00000000E+01  9.60000000E+01  0.00000000E+00
  5.00000000E+01  9.40000000E+01  0.00000000E+00
  5.00000000E+01  9.20000000E+01  0.00000000E+00
  5.00000000E+01  9.00000000E+01  0.00000000E+00
  5.00000000E+01  8.80000000E+01  0.00000000E+00
  5.00000000E+01  8.60000000E+01  0.00000000E+00
  5.00000000E+01  8.40000000E+01  0.00000000E+00
  5.00000000E+01  8.20000000E+01  0.00000000E+00
  5.00000000E+01  8.00000000E+01  0.00000000E+00
  5.00000000E+01  7.80000000E+01  0.00000000E+00
  5.00000000E+01  7.60000000E+01  0.00000000E+00
  5.00000000E+01  7.40000000E+01  0.00000000E+00
  5.00000000E+01  7.20000000E+01  0.00000000E+00
  5.00000000E+01  7.00000000E+01  0.00000000E+00
  5.00000000E+01  6.80000000E+01  0.00000000E+00
  5.00000000E+01  6.60000000E+01  0.00000000E+00
  5.00000000E+01  6.40000000E+01  0.00000000E+00
  5.00000000E+01  6.20000000E+01  0.00000000E+00
  5.00000000E+01  6.00000000E+01  0.00000000E+00
  5.00000000E+01  5.80000000E+01  0.00000000E+00
  5.00000000E+01  5.60000000E+01  0.00000000E+00
  5.00000000E+01  5.40000000E+01  0.00000000E+00
  5.00000000E+01  5.20000000E+01  0.00000000E+00
  5.00000000E+01  5.00000000E+01  0.00000000E+00
  5.00000000E+01  4.80000000E+01  0.00000000E+00
  5.00000000E+01  4.60000000E+01  0.00000000E+00
  5.00000000E+01  4.40000000E+01  0.00000000E+00
  5.00000000E+01  4.20000000E+01  0.00000000E+00
  5.00000000E+01  4.00000000E+01  0.00000000E+00
  5.00000000E+01  3.80000000E+01  0.00000000E+00
  5.00000000E+01  3.60000000E+01  0.00000000E+00
  5.00000000E+01  3.40000000E+01  0.00000000E+00
  5.00000000E+01  3.20000000E+01  0.00000000E+00
  5.00000000E+01  3.00000000E+01  0.00000000E+00
  5.00000000E+01  2.80000000E+01  0.00000000E+00
  5.00000000E+01  2.60000000E+01  0.00000000E+00
  5.00000000E+01  2.40000000E+01  0.00000000E+00
  5.00000000E+01  2.20000000E+01  0.00000000E+00
  5.00000000E+01  2.00000000E+01  0.00000000E+00
  5.00000000E+01  1.80000000E+01  0.00000000E+00
  5.00000000E+01  1.60000000E+01  0.00000000E+00
  5.00000000E+01  1.40000000E+01  0.00000000E+00
  5.00000000E+01  1.20000000E+01  0.00000000E+00
  5.00000000E+01  1.00000000E+01  0.00000000E+00
  5.00000000E+01  8.00000000E+00  0.00000000E+00
  5.00000000E+01  6.00000000E+00  0.00000000E+00
  5.00000000E+01  4.00000000E+00  0.00000000E+00
  5.00000000E+01  2.00000000E+00  0.00000000E+00
  5.00000000E+01 -3.33066907E-14  0.00000000E+00
  6.00000000E+01  1.00000000E+02  0.00000000E+00
  6.00000000E+01  9.80000000E+01  0.00000000E+00
  6.00000000E+01  9.60000000E+01  0.00000000E+00
  6.00000000E+01  9.40000000E+01  0.00000000E+00
  6.00000000E+01  9.20000000E+01  0.00000000E+00
  6.00000000E+01  9.00000000E+01  0.00000000E+00
  6.00000000E+01  8.80000000E+01  0.00000000E+00
  6.00000000E+01  8.60000000E+01  0.00000000E+00
  6.00000000E+01  8.40000000E+01  0.00000000E+00
  6.00000000E+01  8.20000000E+01  0.00000000E+00
  6.00000000E+01  8.00000000E+01  0.00000000E+00
  6.00000000E+01  7.80000000E+01  0.00000000E+00
  6.00000000E+01  7.60000000E+01  0.00000000E+00
  6.00000000E+01  7.40000000E+01  0.00000000E+00
  6.00000000E+01  7.20000000E+01  0.00000000E+00
  6.00000000E+01  7.00000000E+01  0.00000000E+00
  6.00000000E+01  6.80000000E+01  0.00000000E+00
  6.00000000E+01  6.60000000E+01  0.00000000E+00
  6.00000000E+01  6.40000000E+01  0.00000000E+00
  6.00000000E+01  6.20000000E+01  0.00000000E+00
  6.00000000E+01  6.00000000E+01  0.00000000E+00
  6.00000000E+01  5.80000000E+01  0.00000000E+00
  6.00000000E+01  5.60000000E+01  0.00000000E+00
  6.00000000E+01  5.40000000E+01  0.00000000E+00
  6.00000000E+01  5.20000000E+01  0.00000000E+00
  6.00000000E+01  5.00000000E+01  0.00000000E+00
  6.00000000E+01  4.80000000E+01  0.00000000E+00
  6.00000000E+01  4.60000000E+01  0.00000000E+00
  6.00000000E+01  4.40000000E+01  0.00000000E+00
  6.00000000E+01  4.20000000E+01  0.00000000E+00
  6.00000000E+01  4.00000000E+01  0.00000000E+00
  6.00000000E+01  3.80000000E+01  0.00000000E+00
  6.00000000E+01  3.60000000E+01  0.00000000E+00
  6.00000000E+01  3.40000000E+01  0.00000000E+00
  6.00000000E+01  3.20000000E+01  0.00000000E+00
  6.00000000E+01  3.00000000E+01  0.00000000E+00
  6.00000000E+01  2.80000000E+01  0.00000000E+00
  6.00000000E+01  2.60000000E+01  0.00000000E+00
  6.00000000E+01  2.40000000E+01  0.00000000E+00
  6.00000000E+01  2.20000000E+01  0.00000000E+00
  6.00000000E+01  2.00000000E+01  0.00000000E+00
  6.00000000E+01  1.80000000E+01  0.00000000E+00
  6.00000000E+01  1.60000000E+01  0.00000000E+00
  6.00000000E+01  1.40000000E+01  0.00000000E+00
  6.00000000E+01  1.20000000E+01  0.00000000E+00
  6.00000000E+01  1.00000000E+01  0.00000000E+00
  6.00000000E+01  8.00000000E+00  0.00000000E+00
  6.00000000E+01  6.00000000E+00  0.00000000E+00
  6.00000000E+01  4.00000000E+00  0.00000000E+00
  6.00000000E+01  2.00000000E+00  0.00000000E+00
  6.00000000E+01 -3.33066907E-14  0.00000000E+00
  7.00000000E+01  1.00000000E+02  0.00000000E+00
  7.00000000E+01  9.80000000E+01  0.00000000E+00
  7.00000000E+01  9.60000000E+01  0.00000000E+00
  7.00000000E+01  9.40000000E+01  0.00000000E+00
  7.00000000E+01  9.20000000E+01  0.00000000E+00
  7.00000000E+01  9.00000000E+01  0.00000000E+00
  7.00000000E+01  8.80000000E+01  0.00000000E+00
  7.00000000E+01  8.60000000E+01  0.00000000E+00
  7.00000000E+01  8.40000000E+01  0.00000000E+00
  7.00000000E+01  8.20000000E+01  0.00000000E+00
  7.00000000E+01  8.00000000E+01  0.00000000E+00
  7.00000000E+01  7.80000000E+01  0.00000000E+00
  7.00000000E+01  7.60000000E+01  0.00000000E+00
  7.00000000E+01  7.40000000E+01  0.00000000E+00
  7.00000000E+01  7.20000000E+01  0.00000000E+00
  7.00000000E+01  7.00000000E+01  0.00000000E+00
  7.00000000E+01  6.80000000E+01  0.00000000E+00
  7.00000000E+01  6.60000000E+01  0.00000000E+00
  7.00000000E+01  6.40000000E+01  0.00000000E+00
  7.00000000E+01  6.20000000E+01  0.00000000E+00
  7.00000000E+01  6.00000000E+01  0.00000000E+00
  7.00000000E+01  5.80000000E+01  0.00000000E+00
  7.00000000E+01  5.60000000E+01  0.00000000E+00
  7.00000000E+01  5.40000000E+01  0.00000000E+00
  7.00000000E+01  5.20000000E+01  0.00000000E+00
  7.00000000E+01  5.00000000E+01  0.00000000E+00
  7.00000000E+01  4.80000000E+01  0.00000000E+00
  7.00000000E+01  4.60000000E+01  0.00000000E+00
  7.00000000E+01  4.40000000E+01  0.00000000E+00
  7.00000000E+01  4.20000000E+01  0.00000000E+00
  7.00000000E+01  4.00000000E+01  0.00000000E+00
  7.00000000E+01  3.80000000E+01  0.00000000E+00
  7.00000000E+01  3.60000000E+01  0.00000000E+00
  7.00000000E+01  3.40000000E+01  0.00000000E+00
  7.00000000E+01  3.20000000E+01  0.00000000E+00
  7.00000000E+01  3.00000000E+01  0.00000000E+00
  7.00000000E+01  2.80000000E+01  0.00000000E+00
  7.00000000E+01  2.60000000E+01  0.00000000E+00
  7.00000000E+01  2.40000000E+01  0.00000000E+00
  7.00000000E+01  2.20000000E+01  0.00000000E+00
  7.00000000E+01  2.00000000E+01  0.00000000E+00
  7.00000000E+01  1.80000000E+01  0.00000000E+00
  7.00000000E+01  1.60000000E+01  0.00000000E+00
  7.00000000E+01  1.40000000E+01  0.00000000E+00
  7.00000000E+01  1.20000000E+01  0.00000000E+00
  7.00000000E+01  1.00000000E+01  0.00000000E+00
  7.00000000E+01  8.00000000E+00  0.00000000E+00
  7.00000000E+01  6.00000000E+00  0.00000000E+00
  7.00000000E+01  4.00000000E+00  0.00000000E+00
  7.00000000E+01  2.00000000E+00  0.00000000E+00
  7.00000000E+01 -3.33066907E-14  0.00000000E+00
  8.00000000E+01  1.00000000E+02  0.00000000E+00
  8.00000000E+01  9.80000000E+01  0.00000000E+00
  8.00000000E+01  9.60000000E+01  0.00000000E+00
  8.00000000E+01  9.40000000E+01  0.00000000E+00
  8.00000000E+01  9.20000000E+01  0.00000000E+00
  8.00000000E+01  9.00000000E+01  0.00000000E+00
  8.00000000E+01  8.80000000E+01  0.00000000E+00
  8.00000000E+01  8.60000000E+01  0.00000000E+00
  8.00000000E+01  8.40000000E+01  0.00000000E+00
  8.00000000E+01  8.20000000E+01  0.00000000E+00
  8.00000000E+01  8.00000000E+01  0.00000000E+00
  8.00000000E+01  7.80000000E+01  0.00000000E+00
  8.00000000E+01  7.60000000E+01  0.00000000E+00
  8.00000000E+01  7.40000000E+01  0.00000000E+00
  8.00000000E+01  7.20000000E+01  0.00000000E+00
  8.00000000E+01  7.00000000E+01  0.00000000E+00
  8.00000000E+01  6.80000000E+01  0.00000000E+00
  8.00000000E+01  6.60000000E+01  0.00000000E+00
  8.00000000E+01  6.40000000E+01  0.00000000E+00
  8.00000000E+01  6.20000000E+01  0.00000000E+00
  8.00000000E+01  6.00000000E+01  0.00000000E+00
  8.00000000E+01  5.80000000E+01  0.00000000E+00
  8.00000000E+01  5.60000000E+01  0.00000000E+00
  8.00000000E+01  5.40000000E+01  0.00000000E+00
  8.00000000E+01  5.20000000E+01  0.00000000E+00
  8.00000000E+01  5.00000000E+01  0.00000000E+00
  8.00000000E+01  4.80000000E+01  0.00000000E+00
  8.00000000E+01  4.60000000E+01  0.00000000E+00
  8.00000000E+01  4.40000000E+01  0.00000000E+00
  8.00000000E+01  4.20000000E+01  0.00000000E+00
  8.00000000E+01  4.00000000E+01  0.00000000E+00
  8.00000000E+01  3.80000000E+01  0.00000000E+00
  8.00000000E+01  3.60000000E+01  0.00000000E+00
  8.00000000E+01  3.40000000E+01  0.00000000E+00
  8.00000000E+01  3.20000000E+01  0.00000000E+00
  8.00000000E+01  3.00000000E+01  0.00000000E+00
  8.00000000E+01  2.80000000E+01  0.00000000E+00
  8.00000000E+01  2.60000000E+01  0.00000000E+00
  8.00000000E+01  2.40000000E+01  0.00000000E+00
  8.00000000E+01  2.20000000E+01  0.00000000E+00
  8.00000000E+01  2.00000000E+01  0.00000000E+00
  8.00000000E+01  1.80000000E+01  0.00000000E+00
  8.00000000E+01  1.60000000E+01  0.00000000E+00
  8.00000000E+01  1.40000000E+01  0.00000000E+00
  8.00000000E+01  1.20000000E+01  0.00000000E+00
  8.00000000E+01  1.00000000E+01  0.00000000E+00
  8.00000000E+01  8.00000000E+00  0.00000000E+00
  8.00000000E+01  6.00000000E+00  0.00000000E+00
  8.00000000E+01  4.00000000E+00  0.00000000E+00
  8.00000000E+01  2.00000000E+00  0.00000000E+00
  8.00000000E+01 -3.33066907E-14  0.00000000E+00
  9.00000000E+01  1.00000000E+02  0.00000000E+00
  9.00000000E+01  9.80000000E+01  0.00000000E+00
  9.00000000E+01  9.60000000E+01  0.00000000E+00
  9.00000000E+01  9.40000000E+01  0.00000000E+00
  9.00000000E+01  9.20000000E+01  0.00000000E+00
  9.00000000E+01  9.00000000E+01  0.00000000E+00
  9.00000000E+01  8.80000000E+01  0.00000000E+00
  9.00000000E+01  8.60000000E+01  0.00000000E+00
  9.00000000E+01  8.40000000E+01  0.00000000E+00
  9.00000000E+01  8.20000000E+01  0.00000000E+00
  9.00000000E+01  8.00000000E+01  0.00000000E+00
  9.00000000E+01  7.80000000E+01  0.00000000E+00
  9.00000000E+01  7.60000000E+01  0.00000000E+00
  9.00000000E+01  7.40000000E+01  0.00000000E+00
  9.00000000E+01  7.20000000E+01  0.00000000E+00
  9.00000000E+01  7.00000000E+01  0.00000000E+00
  9.00000000E+01  6.80000000E+01  0.00000000E+00
  9.00000000E+01  6.60000000E+01  0.00000000E+00
  9.00000000E+01  6.40000000E+01  0.00000000E+00
  9.00000000E+01  6.20000000E+01  0.00000000E+00
  9.00000000E+01  6.00000000E+01  0.00000000E+00
  9.00000000E+01  5.80000000E+01  0.00000000E+00
  9.00000000E+01  5.60000000E+01  0.00000000E+00
  9.00000000E+01  5.40000000E+01  0.00000000E+00
  9.00000000E+01  5.20000000E+01  0.00000000E+00
  9.00000000E+01  5.00000000E+01  0.00000000E+00
  9.00000000E+01  4.80000000E+01  0.00000000E+00
  9.00000000E+01  4.60000000E+01  0.00000000E+00
  9.00000000E+01  4.40000000E+01  0.00000000E+00
  9.00000000E+01  4.20000000E+01  0.00000000E+00
  9.00000000E+01  4.00000000E+01  0.00000000E+00
  9.00000000E+01  3.80000000E+01  0.00000000E+00
  9.00000000E+01  3.60000000E+01  0.00000000E+00
  9.00000000E+01  3.40000000E+01  0.00000000E+00
  9.00000000E+01  3.20000000E+01  0.00000000E+00
  9.00000000E+01  3.00000000E+01  0.00000000E+00
  9.00000000E+01  2.80000000E+01  0.00000000E+00
  9.00000000E+01  2.60000000E+01  0.00000000E+00
  9.00000000E+01  2.40000000E+01  0.00000000E+00
  9.00000000E+01  2.20000000E+01  0.00000000E+00
  9.00000000E+01  2.00000000E+01  0.00000000E+00
  9.00000000E+01  1.80000000E+01  0.00000000E+00
  9.00000000E+01  1.60000000E+01  0.00000000E+00
  9.00000000E+01  1.40000000E+01  0.00000000E+00
  9.00000000E+01  1.20000000E+01  0.00000000E+00
  9.00000000E+01  1.00000000E+01  0.00000000E+00
  9.00000000E+01  8.00000000E+00  0.00000000E+00
  9.00000000E+01  6.00000000E+00  0.00000000E+00
  9.00000000E+01  4.00000000E+00  0.00000000E+00
  9.00000000E+01  2.00000000E+00  0.00000000E+00
  9.00000000E+01 -3.33066907E-14  0.00000000E+00
  1.00000000E+02  1.00000000E+02  0.00000000E+00
  1.00000000E+02  9.80000000E+01  0.00000000E+00
  1.00000000E+02  9.60000000E+01  0.00000000E+00
  1.00000000E+02  9.40000000E+01  0.00000000E+00
  1.00000000E+02  9.20000000E+01  0.00000000E+00
  1.00000000E+02  9.00000000E+01  0.00000000E+00
  1.00000000E+02  8.80000000E+01  0.00000000E+00
  1.00000000E+02  8.60000000E+01  0.00000000E+00
  1.00000000E+02  8.40000000E+01  0.00000000E+00
  1.00000000E+02  8.20000000E+01  0.00000000E+00
  1.00000000E+02  8.00000000E+01  0.00000000E+00
  1.00000000E+02  7.80000000E+01  0.00000000E+00
  1.00000000E+02  7.60000000E+01  0.00000000E+00
  1.00000000E+02  7.40000000E+01  0.00000000E+00
  1.00000000E+02  7.20000000E+01  0.00000000E+00
  1.00000000E+02  7.00000000E+01  0.00000000E+00
  1.00000000E+02  6.80000000E+01  0.00000000E+00
  1.00000000E+02  6.60000000E+01  0.00000000E+00
  1.00000000E+02  6.40000000E+01  0.00000000E+00
  1.00000000E+02  6.20000000E+01  0.00000000E+00
  1.00000000E+02  6.00000000E+01  0.00000000E+00
  1.00000000E+02  5.80000000E+01  0.00000000E+00
  1.00000000E+02  5.60000000E+01  0.00000000E+00
  1.00000000E+02  5.40000000E+01  0.00000000E+00
  1.00000000E+02  5.20000000E+01  0.00000000E+00
  1.00000000E+02  5.00000000E+01  0.00000000E+00
  1.00000000E+02  4.80000000E+01  0.00000000E+00
  1.00000000E+02  4.60000000E+01  0.00000000E+00
  1.00000000E+02  4.40000000E+01  0.00000000E+00
  1.00000000E+02  4.20000000E+01  0.00000000E+00
  1.00000000E+02  4.00000000E+01  0.00000000E+00
  1.00000000E+02  3.80000000E+01  0.00000000E+00
  1.00000000E+02  3.60000000E+01  0.00000000E+00
  1.00000000E+02  3.40000000E+01  0.00000000E+00
  1.00000000E+02  3.20000000E+01  0.00000000E+00
  1.00000000E+02  3.00000000E+01  0.00000000E+00
  1.00000000E+02  2.80000000E+01  0.00000000E+00
  1.00000000E+02  2.60000000E+01  0.00000000E+00
  1.00000000E+02  2.40000000E+01  0.00000000E+00
  1.00000000E+02  2.20000000E+01  0.00000000E+00
  1.00000000E+02  2.00000000E+01  0.00000000E+00
  1.00000000E+02  1.80000000E+01  0.00000000E+00
  1.00000000E+02  1.60000000E+01  0.00000000E+00
  1.00000000E+02  1.40000000E+01  0.00000000E+00
  1.00000000E+02  1.20000000E+01  0.00000000E+00
  1.00000000E+02  1.00000000E+01  0.00000000E+00
  1.00000000E+02  8.00000000E+00  0.00000000E+00
  1.00000000E+02  6.00000000E+00  0.00000000E+00
  1.00000000E+02  4.00000000E+00  0.00000000E+00
  1.00000000E+02  2.00000000E+00  0.00000000E+00
  1.00000000E+02 -3.33066907E-14  0.00000000E+00
  1.10000000E+02  1.00000000E+02  0.00000000E+00
  1.10000000E+02  9.80000000E+01  0.00000000E+00
  1.10000000E+02  9.60000000E+01  0.00000000E+00
  1.10000000E+02  9.40000000E+01  0.00000000E+00
  1.10000000E+02  9.20000000E+01  0.00000000E+00
  1.10000000E+02  9.00000000E+01  0.00000000E+00
  1.10000000E+02  8.80000000E+01  0.00000000E+00
  1.10000000E+02  8.60000000E+01  0.00000000E+00
  1.10000000E+02  8.40000000E+01  0.00000000E+00
  1.10000000E+02  8.20000000E+01  0.00000000E+00
  1.10000000E+02  8.00000000E+01  0.00000000E+00
  1.10000000E+02  7.80000000E+01  0.00000000E+00
  1.10000000E+02  7.60000000E+01  0.00000000E+00
  1.10000000E+02  7.40000000E+01  0.00000000E+00
  1.10000000E+02  7.20000000E+01  0.00000000E+00
  1.10000000E+02  7.00000000E+01  0.00000000E+00
  1.10000000E+02  6.80000000E+01  0.00000000E+00
  1.10000000E+02  6.60000000E+01  0.00000000E+00
  1.10000000E+02  6.40000000E+01  0.00000000E+00
  1.10000000E+02  6.20000000E+01  0.00000000E+00
  1.10000000E+02  6.00000000E+01  0.00000000E+00
  1.10000000E+02  5.80000000E+01  0.00000000E+00
  1.10000000E+02  5.60000000E+01  0.00000000E+00
  1.10000000E+02  5.40000000E+01  0.00000000E+00
  1.10000000E+02  5.20000000E+01  0.00000000E+00
  1.10000000E+02  5.00000000E+01  0.00000000E+00
  1.10000000E+02  4.80000000E+01  0.00000000E+00
  1.10000000E+02  4.60000000E+01  0.00000000E+00
  1.10000000E+02  4.40000000E+01  0.00000000E+00
  1.10000000E+02  4.20000000E+01  0.00000000E+00
  1.10000000E+02  4.00000000E+01  0.00000000E+00
  1.10000000E+02  3.80000000E+01  0.00000000E+00
  1.10000000E+02  3.60000000E+01  0.00000000E+00
  1.10000000E+02  3.40000000E+01  0.00000000E+00
  1.10000000E+02  3.20000000E+01  0.00000000E+00
  1.10000000E+02  3.00000000E+01  0.00000000E+00
  1.10000000E+02  2.80000000E+01  0.00000000E+00
  1.10000000E+02  2.60000000E+01  0.00000000E+00
  1.10000000E+02  2.40000000E+01  0.00000000E+00
  1.10000000E+02  2.20000000E+01  0.00000000E+00
  1.10000000E+02  2.00000000E+01  0.00000000E+00
  1.10000000E+02  1.80000000E+01  0.00000000E+00
  1.10000000E+02  1.60000000E+01  0.00000000E+00
  1.10000000E+02  1.40000000E+01  0.00000000E+00
  1.10000000E+02  1.20000000E+01  0.00000000E+00
  1.10000000E+02  1.00000000E+01  0.00000000E+00
  1.10000000E+02  8.00000000E+00  0.00000000E+00
  1.10000000E+02  6.00000000E+00  0.00000000E+00
  1.10000000E+02  4.00000000E+00  0.00000000E+00
  1.10000000E+02  2.00000000E+00  0.00000000E+00
  1.10000000E+02 -3.33066907E-14  0.00000000E+00
  1.20000000E+02  1.00000000E+02  0.00000000E+00
  1.20000000E+02  9.80000000E+01  0.00000000E+00
  1.20000000E+02  9.60000000E+01  0.00000000E+00
  1.20000000E+02  9.40000000E+01  0.00000000E+00
  1.20000000E+02  9.20000000E+01  0.00000000E+00
  1.20000000E+02  9.00000000E+01  0.00000000E+00
  1.20000000E+02  8.80000000E+01  0.00000000E+00
  1.20000000E+02  8.60000000E+01  0.00000000E+00
  1.20000000E+02  8.40000000E+01  0.00000000E+00
  1.20000000E+02  8.20000000E+01  0.00000000E+00
  1.20000000E+02  8.00000000E+01  0.00000000E+00
  1.20000000E+02  7.80000000E+01  0.00000000E+00
  1.20000000E+02  7.60000000E+01  0.00000000E+00
  1.20000000E+02  7.40000000E+01  0.00000000E+00
  1.20000000E+02  7.20000000E+01  0.00000000E+00
  1.20000000E+02  7.00000000E+01  0.00000000E+00
  1.20000000E+02  6.80000000E+01  0.00000000E+00
  1.20000000E+02  6.60000000E+01  0.00000000E+00
  1.20000000E+02  6.40000000E+01  0.00000000E+00
  1.20000000E+02  6.20000000E+01  0.00000000E+00
  1.20000000E+02  6.00000000E+01  0.00000000E+00
  1.20000000E+02  5.80000000E+01  0.00000000E+00
  1.20000000E+02  5.60000000E+01  0.00000000E+00
  1.20000000E+02  5.40000000E+01  0.00000000E+00
  1.20000000E+02  5.20000000E+01  0.00000000E+00
  1.20000000E+02  5.00000000E+01  0.00000000E+00
  1.20000000E+02  4.80000000E+01  0.00000000E+00
  1.20000000E+02  4.60000000E+01  0.00000000E+00
  1.20000000E+02  4.40000000E+01  0.00000000E+00
  1.20000000E+02  4.20000000E+01  0.00000000E+00
  1.20000000E+02  4.00000000E+01  0.00000000E+00
  1.20000000E+02  3.80000000E+01  0.00000000E+00
  1.20000000E+02  3.60000000E+01  0.00000000E+00
  1.20000000E+02  3.40000000E+01  0.00000000E+00
  1.20000000E+02  3.20000000E+01  0.00000000E+00
  1.20000000E+02  3.00000000E+01  0.00000000E+00
  1.20000000E+02  2.80000000E+01  0.00000000E+00
  1.20000000E+02  2.60000000E+01  0.00000000E+00
  1.20000000E+02  2.40000000E+01  0.00000000E+00
  1.20000000E+02  2.20000000E+01  0.00000000E+00
  1.20000000E+02  2.00000000E+01  0.00000000E+00
  1.20000000E+02  1.80000000E+01  0.00000000E+00
  1.20000000E+02  1.60000000E+01  0.00000000E+00
  1.20000000E+02  1.40000000E+01  0.00000000E+00
  1.20000000E+02  1.20000000E+01  0.00000000E+00
  1.20000000E+02  1.00000000E+01  0.00000000E+00
  1.20000000E+02  8.00000000E+00  0.00000000E+00
  1.20000000E+02  6.00000000E+00  0.00000000E+00
  1.20000000E+02  4.00000000E+00  0.00000000E+00
  1.20000000E+02  2.00000000E+00  0.00000000E+00
  1.20000000E+02 -3.33066907E-14  0.00000000E+00
  1.30000000E+02  1.00000000E+02  0.00000000E+00
  1.30000000E+02  9.80000000E+01  0.00000000E+00
  1.30000000E+02  9.60000000E+01  0.00000000E+00
  1.30000000E+02  9.40000000E+01  0.00000000E+00
  1.30000000E+02  9.20000000E+01  0.00000000E+00
  1.30000000E+02  9.00000000E+01  0.00000000E+00
  1.30000000E+02  8.80000000E+01  0.00000000E+00
  1.30000000E+02  8.60000000E+01  0.00000000E+00
  1.30000000E+02  8.40000000E+01  0.00000000E+00
  1.30000000E+02  8.20000000E+01  0.00000000E+00
  1.30000000E+02  8.00000000E+01  0.00000000E+00
  1.30000000E+02  7.80000000E+01  0.00000000E+00
  1.30000000E+02  7.60000000E+01  0.00000000E+00
  1.30000000E+02  7.40000000E+01  0.00000000E+00
  1.30000000E+02  7.20000000E+01  0.00000000E+00
  1.30000000E+02  7.00000000E+01  0.00000000E+00
  1.30000000E+02  6.80000000E+01  0.00000000E+00
  1.30000000E+02  6.60000000E+01  0.00000000E+00
  1.30000000E+02  6.40000000E+01  0.00000000E+00
  1.30000000E+02  6.20000000E+01  0.00000000E+00
  1.30000000E+02  6.00000000E+01  0.00000000E+00
  1.30000000E+02  5.80000000E+01  0.00000000E+00
  1.30000000E+02  5.60000000E+01  0.00000000E+00
  1.30000000E+02  5.40000000E+01  0.00000000E+00
  1.30000000E+02  5.20000000E+01  0.00000000E+00
  1.30000000E+02  5.00000000E+01  0.00000000E+00
  1.30000000E+02  4.80000000E+01  0.00000000E+00
  1.30000000E+02  4.60000000E+01  0.00000000E+00
  1.30000000E+02  4.40000000E+01  0.00000000E+00
  1.30000000E+02  4.20000000E+01  0.00000000E+00
  1.30000000E+02  4.00000000E+01  0.00000000E+00
  1.30000000E+02  3.80000000E+01  0.00000000E+00
  1.30000000E+02  3.60000000E+01  0.00000000E+00
  1.30000000E+02  3.40000000E+01  0.00000000E+00
  1.30000000E+02  3.20000000E+01  0.00000000E+00
  1.30000000E+02  3.00000000E+01  0.00000000E+00
  1.30000000E+02  2.80000000E+01  0.00000000E+00
  1.30000000E+02  2.60000000E+01  0.00000000E+00
  1.30000000E+02  2.40000000E+01  0.00000000E+00
  1.30000000E+02  2.20000000E+01  0.00000000E+00
  1.30000000E+02  2.00000000E+01  0.00000000E+00
  1.30000000E+02  1.80000000E+01  0.00000000E+00
  1.30000000E+02  1.60000000E+01  0.00000000E+00
  1.30000000E+02  1.40000000E+01  0.00000000E+00
  1.30000000E+02  1.20000000E+01  0.00000000E+00
  1.30000000E+02  1.00000000E+01  0.00000000E+00
  1.30000000E+02  8.00000000E+00  0.00000000E+00
  1.30000000E+02  6.00000000E+00  0.00000000E+00
  1.30000000E+02  4.00000000E+00  0.00000000E+00
  1.30000000E+02  2.00000000E+00  0.00000000E+00
  1.30000000E+02 -3.33066907E-14  0.00000000E+00
  1.40000000E+02  1.00000000E+02  0.00000000E+00
  1.40000000E+02  9.80000000E+01  0.00000000E+00
  1.40000000E+02  9.60000000E+01  0.00000000E+00
  1.40000000E+02  9.40000000E+01  0.00000000E+00
  1.40000000E+02  9.20000000E+01  0.00000000E+00
  1.40000000E+02  9.00000000E+01  0.00000000E+00
  1.40000000E+02  8.80000000E+01  0.00000000E+00
  1.40000000E+02  8.60000000E+01  0.00000000E+00
  1.40000000E+02  8.40000000E+01  0.00000000E+00
  1.40000000E+02  8.20000000E+01  0.00000000E+00
  1.40000000E+02  8.00000000E+01  0.00000000E+00
  1.40000000E+02  7.80000000E+01  0.00000000E+00
  1.40000000E+02  7.60000000E+01  0.00000000E+00
  1.40000000E+02  7.40000000E+01  0.00000000E+00
  1.40000000E+02  7.20000000E+01  0.00000000E+00
  1.40000000E+02  7.00000000E+01  0.00000000E+00
  1.40000000E+02  6.80000000E+01  0.00000000E+00
  1.40000000E+02  6.60000000E+01  0.00000000E+00
  1.40000000E+02  6.40000000E+01  0.00000000E+00
  1.40000000E+02  6.20000000E+01  0.00000000E+00
  1.40000000E+02  6.00000000E+01  0.00000000E+00
  1.40000000E+02  5.80000000E+01  0.00000000E+00
  1.40000000E+02  5.60000000E+01  0.00000000E+00
  1.40000000E+02  5.40000000E+01  0.00000000E+00
  1.40000000E+02  5.20000000E+01  0.00000000E+00
  1.40000000E+02  5.00000000E+01  0.00000000E+00
  1.40000000E+02  4.80000000E+01  0.00000000E+00
  1.40000000E+02  4.60000000E+01  0.00000000E+00
  1.40000000E+02  4.40000000E+01  0.00000000E+00
  1.40000000E+02  4.20000000E+01  0.00000000E+00
  1.40000000E+02  4.00000000E+01  0.00000000E+00
  1.40000000E+02  3.80000000E+01  0.00000000E+00
  1.40000000E+02  3.60000000E+01  0.00000000E+00
  1.40000000E+02  3.40000000E+01  0.00000000E+00
  1.40000000E+02  3.20000000E+01  0.00000000E+00
  1.40000000E+02  3.00000000E+01  0.00000000E+00
  1.40000000E+02  2.80000000E+01  0.00000000E+00
  1.40000000E+02  2.60000000E+01  0.00000000E+00
  1.40000000E+02  2.40000000E+01  0.00000000E+00
  1.40000000E+02  2.20000000E+01  0.00000000E+00
  1.40000000E+02  2.00000000E+01  0.00000000E+00
  1.40000000E+02  1.80000000E+01  0.00000000E+00
  1.40000000E+02  1.60000000E+01  0.00000000E+00
  1.40000000E+02  1.40000000E+01  0.00000000E+00
  1.40000000E+02  1.20000000E+01  0.00000000E+00
  1.40000000E+02  1.00000000E+01  0.00000000E+00
  1.40000000E+02  8.00000000E+00  0.00000000E+00
  1.40000000E+02  6.00000000E+00  0.00000000E+00
  1.40000000E+02  4.00000000E+00  0.00000000E+00
  1.40000000E+02  2.00000000E+00  0.00000000E+00
  1.40000000E+02 -3.33066907E-14  0.00000000E+00
  1.50000000E+02  1.00000000E+02  0.00000000E+00
  1.50000000E+02  9.80000000E+01  0.00000000E+00
  1.50000000E+02  9.60000000E+01  0.00000000E+00
  1.50000000E+02  9.40000000E+01  0.00000000E+00
  1.50000000E+02  9.20000000E+01  0.00000000E+00
  1.50000000E+02  9.00000000E+01  0.00000000E+00
  1.50000000E+02  8.80000000E+01  0.00000000E+00
  1.50000000E+02  8.60000000E+01  0.00000000E+00
  1.50000000E+02  8.40000000E+01  0.00000000E+00
  1.50000000E+02  8.20000000E+01  0.00000000E+00
  1.50000000E+02  8.00000000E+01  0.00000000E+00
  1.50000000E+02  7.80000000E+01  0.00000000E+00
  1.50000000E+02  7.60000000E+01  0.00000000E+00
  1.50000000E+02  7.40000000E+01  0.00000000E+00
  1.50000000E+02  7.20000000E+01  0.00000000E+00
  1.50000000E+02  7.00000000E+01  0.00000000E+00
  1.50000000E+02  6.80000000E+01  0.00000000E+00
  1.50000000E+02  6.60000000E+01  0.00000000E+00
  1.50000000E+02  6.40000000E+01  0.00000000E+00
  1.50000000E+02  6.20000000E+01  0.00000000E+00
  1.50000000E+02  6.00000000E+01  0.00000000E+00
  1.50000000E+02  5.80000000E+01  0.00000000E+00
  1.50000000E+02  5.60000000E+01  0.00000000E+00
  1.50000000E+02  5.40000000E+01  0.00000000E+00
  1.50000000E+02  5.20000000E+01  0.00000000E+00
  1.50000000E+02  5.00000000E+01  0.00000000E+00
  1.50000000E+02  4.80000000E+01  0.00000000E+00
  1.50000000E+02  4.60000000E+01  0.00000000E+00
  1.50000000E+02  4.40000000E+01  0.00000000E+00
  1.50000000E+02  4.20000000E+01  0.00000000E+00
  1.50000000E+02  4.00000000E+01  0.00000000E+00
  1.50000000E+02  3.80000000E+01  0.00000000E+00
  1.50000000E+02  3.60000000E+01  0.00000000E+00
  1.50000000E+02  3.40000000E+01  0.00000000E+00
  1.50000000E+02  3.20000000E+01  0.00000000E+00
  1.50000000E+02  3.00000000E+01  0.00000000E+00
  1.50000000E+02  2.80000000E+01  0.00000000E+00
  1.50000000E+02  2.60000000E+01  0.00000000E+00
  1.50000000E+02  2.40000000E+01  0.00000000E+00
  1.50000000E+02  2.20000000E+01  0.00000000E+00
  1.50000000E+02  2.00000000E+01  0.00000000E+00
  1.50000000E+02  1.80000000E+01  0.00000000E+00
  1.50000000E+02  1.60000000E+01  0.00000000E+00
  1.50000000E+02  1.40000000E+01  0.00000000E+00
  1.50000000E+02  1.20000000E+01  0.00000000E+00
  1.50000000E+02  1.00000000E+01  0.00000000E+00
  1.50000000E+02  8.00000000E+00  0.00000000E+00
  1.50000000E+02  6.00000000E+00  0.00000000E+00
  1.50000000E+02  4.00000000E+00  0.00000000E+00
  1.50000000E+02  2.00000000E+00  0.00000000E+00
  1.50000000E+02 -3.33066907E-14  0.00000000E+00
  1.60000000E+02  1.00000000E+02  0.00000000E+00
  1.60000000E+02  9.80000000E+01  0.00000000E+00
  1.60000000E+02  9.60000000E+01  0.00000000E+00
  1.60000000E+02  9.40000000E+01  0.00000000E+00
  1.60000000E+02  9.20000000E+01  0.00000000E+00
  1.60000000E+02  9.00000000E+01  0.00000000E+00
  1.60000000E+02  8.80000000E+01  0.00000000E+00
  1.60000000E+02  8.60000000E+01  0.00000000E+00
  1.60000000E+02  8.40000000E+01  0.00000000E+00
  1.60000000E+02  8.20000000E+01  0.00000000E+00
  1.60000000E+02  8.00000000E+01  0.00000000E+00
  1.60000000E+02  7.80000000E+01  0.00000000E+00
  1.60000000E+02  7.60000000E+01  0.00000000E+00
  1.60000000E+02  7.40000000E+01  0.00000000E+00
  1.60000000E+02  7.20000000E+01  0.00000000E+00
  1.60000000E+02  7.00000000E+01  0.00000000E+00
  1.60000000E+02  6.80000000E+01  0.00000000E+00
  1.60000000E+02  6.60000000E+01  0.00000000E+00
  1.60000000E+02  6.40000000E+01  0.00000000E+00
  1.60000000E+02  6.20000000E+01  0.00000000E+00
  1.60000000E+02  6.00000000E+01  0.00000000E+00
  1.60000000E+02  5.80000000E+01  0.00000000E+00
  1.60000000E+02  5.60000000E+01  0.00000000E+00
  1.60000000E+02  5.40000000E+01  0.00000000E+00
  1.60000000E+02  5.20000000E+01  0.00000000E+00
  1.60000000E+02  5.00000000E+01  0.00000000E+00
  1.60000000E+02  4.80000000E+01  0.00000000E+00
  1.60000000E+02  4.60000000E+01  0.00000000E+00
  1.60000000E+02  4.40000000E+01  0.00000000E+00
  1.60000000E+02  4.20000000E+01  0.00000000E+00
  1.60000000E+02  4.00000000E+01  0.00000000E+00
  1.60000000E+02  3.80000000E+01  0.00000000E+00
  1.60000000E+02  3.60000000E+01  0.00000000E+00
  1.60000000E+02  3.40000000E+01  0.00000000E+00
  1.60000000E+02  3.20000000E+01  0.00000000E+00
  1.60000000E+02  3.00000000E+01  0.00000000E+00
  1.60000000E+02  2.80000000E+01  0.00000000E+00
  1.60000000E+02  2.60000000E+01  0.00000000E+00
  1.60000000E+02  2.40000000E+01  0.00000000E+00
  1.60000000E+02  2.20000000E+01  0.00000000E+00
  1.60000000E+02  2.00000000E+01  0.00000000E+00
  1.60000000E+02  1.80000000E+01  0.00000000E+00
  1.60000000E+02  1.60000000E+01  0.00000000E+00
  1.60000000E+02  1.40000000E+01  0.00000000E+00
  1.60000000E+02  1.20000000E+01  0.00000000E+00
  1.60000000E+02  1.00000000E+01  0.00000000E+00
  1.60000000E+02  8.00000000E+00  0.00000000E+00
  1.60000000E+02  6.00000000E+00  0.00000000E+00
  1.60000000E+02  4.00000000E+00  0.00000000E+00
  1.60000000E+02  2.00000000E+00  0.00000000E+00
  1.60000000E+02 -3.33066907E-14  0.00000000E+00
  1.70000000E+02  1.00000000E+02  0.00000000E+00
  1.70000000E+02  9.80000000E+01  0.00000000E+00
  1.70000000E+02  9.60000000E+01  0.00000000E+00
  1.70000000E+02  9.40000000E+01  0.00000000E+00
  1.70000000E+02  9.20000000E+01  0.00000000E+00
  1.70000000E+02  9.00000000E+01  0.00000000E+00
  1.70000000E+02  8.80000000E+01  0.00000000E+00
  1.70000000E+02  8.60000000E+01  0.00000000E+00
  1.70000000E+02  8.40000000E+01  0.00000000E+00
  1.70000000E+02  8.20000000E+01  0.00000000E+00
  1.70000000E+02  8.00000000E+01  0.00000000E+00
  1.70000000E+02  7.80000000E+01  0.00000000E+00
  1.70000000E+02  7.60000000E+01  0.00000000E+00
  1.70000000E+02  7.40000000E+01  0.00000000E+00
  1.70000000E+02  7.20000000E+01  0.00000000E+00
  1.70000000E+02  7.00000000E+01  0.00000000E+00
  1.70000000E+02  6.80000000E+01  0.00000000E+00
  1.70000000E+02  6.60000000E+01  0.00000000E+00
  1.70000000E+02  6.40000000E+01  0.00000000E+00
  1.70000000E+02  6.20000000E+01  0.00000000E+00
  1.70000000E+02  6.00000000E+01  0.00000000E+00
  1.70000000E+02  5.80000000E+01  0.00000000E+00
  1.70000000E+02  5.60000000E+01  0.00000000E+00
  1.70000000E+02  5.40000000E+01  0.00000000E+00
  1.70000000E+02  5.20000000E+01  0.00000000E+00
  1.70000000E+02  5.00000000E+01  0.00000000E+00
  1.70000000E+02  4.80000000E+01  0.00000000E+00
  1.70000000E+02  4.60000000E+01  0.00000000E+00
  1.70000000E+02  4.40000000E+01  0.00000000E+00
  1.70000000E+02  4.20000000E+01  0.00000000E+00
  1.70000000E+02  4.00000000E+01  0.00000000E+00
  1.70000000E+02  3.80000000E+01  0.00000000E+00
  1.70000000E+02  3.60000000E+01  0.00000000E+00
  1.70000000E+02  3.40000000E+01  0.00000000E+00
  1.70000000E+02  3.20000000E+01  0.00000000E+00
  1.70000000E+02  3.00000000E+01  0.00000000E+00
  1.70000000E+02  2.80000000E+01  0.00000000E+00
  1.70000000E+02  2.60000000E+01  0.00000000E+00
  1.70000000E+02  2.40000000E+01  0.00000000E+00
  1.70000000E+02  2.20000000E+01  0.00000000E+00
  1.70000000E+02  2.00000000E+01  0.00000000E+00
  1.70000000E+02  1.80000000E+01  0.00000000E+00
  1.70000000E+02  1.60000000E+01  0.00000000E+00
  1.70000000E+02  1.40000000E+01  0.00000000E+00
  1.70000000E+02  1.20000000E+01  0.00000000E+00
  1.70000000E+02  1.00000000E+01  0.00000000E+00
  1.70000000E+02  8.00000000E+00  0.00000000E+00
  1.70000000E+02  6.00000000E+00  0.00000000E+00
  1.70000000E+02  4.00000000E+00  0.00000000E+00
  1.70000000E+02  2.00000000E+00  0.00000000E+00
  1.70000000E+02 -3.33066907E-14  0.00000000E+00
  1.80000000E+02  1.00000000E+02  0.00000000E+00
  1.80000000E+02  9.80000000E+01  0.00000000E+00
  1.80000000E+02  9.60000000E+01  0.00000000E+00
  1.80000000E+02  9.40000000E+01  0.00000000E+00
  1.80000000E+02  9.20000000E+01  0.00000000E+00
  1.80000000E+02  9.00000000E+01  0.00000000E+00
  1.80000000E+02  8.80000000E+01  0.00000000E+00
  1.80000000E+02  8.60000000E+01  0.00000000E+00
  1.80000000E+02  8.40000000E+01  0.00000000E+00
  1.80000000E+02  8.20000000E+01  0.00000000E+00
  1.80000000E+02  8.00000000E+01  0.00000000E+00
  1.80000000E+02  7.80000000E+01  0.00000000E+00
  1.80000000E+02  7.60000000E+01  0.00000000E+00
  1.80000000E+02  7.40000000E+01  0.00000000E+00
  1.80000000E+02  7.20000000E+01  0.00000000E+00
  1.80000000E+02  7.00000000E+01  0.00000000E+00
  1.80000000E+02  6.80000000E+01  0.00000000E+00
  1.80000000E+02  6.60000000E+01  0.00000000E+00
  1.80000000E+02  6.40000000E+01  0.00000000E+00
  1.80000000E+02  6.20000000E+01  0.00000000E+00
  1.80000000E+02  6.00000000E+01  0.00000000E+00
  1.80000000E+02  5.80000000E+01  0.00000000E+00
  1.80000000E+02  5.60000000E+01  0.00000000E+00
  1.80000000E+02  5.40000000E+01  0.00000000E+00
  1.80000000E+02  5.20000000E+01  0.00000000E+00
  1.80000000E+02  5.00000000E+01  0.00000000E+00
  1.80000000E+02  4.80000000E+01  0.00000000E+00
  1.80000000E+02  4.60000000E+01  0.00000000E+00
  1.80000000E+02  4.40000000E+01  0.00000000E+00
  1.80000000E+02  4.20000000E+01  0.00000000E+00
  1.80000000E+02  4.00000000E+01  0.00000000E+00
  1.80000000E+02  3.80000000E+01  0.00000000E+00
  1.80000000E+02  3.60000000E+01  0.00000000E+00
  1.80000000E+02  3.40000000E+01  0.00000000E+00
  1.80000000E+02  3.20000000E+01  0.00000000E+00
  1.80000000E+02  3.00000000E+01  0.00000000E+00
  1.80000000E+02  2.80000000E+01  0.00000000E+00
  1.80000000E+02  2.60000000E+01  0.00000000E+00
  1.80000000E+02  2.40000000E+01  0.00000000E+00
  1.80000000E+02  2.20000000E+01  0.00000000E+00
  1.80000000E+02  2.00000000E+01  0.00000000E+00
  1.80000000E+02  1.80000000E+01  0.00000000E+00
  1.80000000E+02  1.60000000E+01  0.00000000E+00
  1.80000000E+02  1.40000000E+01  0.00000000E+00
  1.80000000E+02  1.20000000E+01  0.00000000E+00
  1.80000000E+02  1.00000000E+01  0.00000000E+00
  1.80000000E+02  8.00000000E+00  0.00000000E+00
  1.80000000E+02  6.00000000E+00  0.00000000E+00
  1.80000000E+02  4.00000000E+00  0.00000000E+00
  1.80000000E+02  2.00000000E+00  0.00000000E+00
  1.80000000E+02 -3.33066907E-14  0.00000000E+00
  1.90000000E+02  1.00000000E+02  0.00000000E+00
  1.90000000E+02  9.80000000E+01  0.00000000E+00
  1.90000000E+02  9.60000000E+01  0.00000000E+00
  1.90000000E+02  9.40000000E+01  0.00000000E+00
  1.90000000E+02  9.20000000E+01  0.00000000E+00
  1.90000000E+02  9.00000000E+01  0.00000000E+00
  1.90000000E+02  8.80000000E+01  0.00000000E+00
  1.90000000E+02  8.60000000E+01  0.00000000E+00
  1.90000000E+02  8.40000000E+01  0.00000000E+00
  1.90000000E+02  8.20000000E+01  0.00000000E+00
  1.90000000E+02  8.00000000E+01  0.00000000E+00
  1.90000000E+02  7.80000000E+01  0.00000000E+00
  1.90000000E+02  7.60000000E+01  0.00000000E+00
  1.90000000E+02  7.40000000E+01  0.00000000E+00
  1.90000000E+02  7.20000000E+01  0.00000000E+00
  1.90000000E+02  7.00000000E+01  0.00000000E+00
  1.90000000E+02  6.80000000E+01  0.00000000E+00
  1.90000000E+02  6.60000000E+01  0.00000000E+00
  1.90000000E+02  6.40000000E+01  0.00000000E+00
  1.90000000E+02  6.20000000E+01  0.00000000E+00
  1.90000000E+02  6.00000000E+01  0.00000000E+00
  1.90000000E+02  5.80000000E+01  0.00000000E+00
  1.90000000E+02  5.60000000E+01  0.00000000E+00
  1.90000000E+02  5.40000000E+01  0.00000000E+00
  1.90000000E+02  5.20000000E+01  0.00000000E+00
  1.90000000E+02  5.00000000E+01  0.00000000E+00
  1.90000000E+02  4.80000000E+01  0.00000000E+00
  1.90000000E+02  4.60000000E+01  0.00000000E+00
  1.90000000E+02  4.40000000E+01  0.00000000E+00
  1.90000000E+02  4.20000000E+01  0.00000000E+00
  1.90000000E+02  4.00000000E+01  0.00000000E+00
  1.90000000E+02  3.80000000E+01  0.00000000E+00
  1.90000000E+02  3.60000000E+01  0.00000000E+00
  1.90000000E+02  3.40000000E+01  0.00000000E+00
  1.90000000E+02  3.20000000E+01  0.00000000E+00
  1.90000000E+02  3.00000000E+01  0.00000000E+00
  1.90000000E+02  2.80000000E+01  0.00000000E+00
  1.90000000E+02  2.60000000E+01  0.00000000E+00
  1.90000000E+02  2.40000000E+01  0.00000000E+00
  1.90000000E+02  2.20000000E+01  0.00000000E+00
  1.90000000E+02  2.00000000E+01  0.00000000E+00
  1.90000000E+02  1.80000000E+01  0.00000000E+00
  1.90000000E+02  1.60000000E+01  0.00000000E+00
  1.90000000E+02  1.40000000E+01  0.00000000E+00
  1.90000000E+02  1.20000000E+01  0.00000000E+00
  1.90000000E+02  1.00000000E+01  0.00000000E+00
  1.90000000E+02  8.00000000E+00  0.00000000E+00
  1.90000000E+02  6.00000000E+00  0.00000000E+00
  1.90000000E+02  4.00000000E+00  0.00000000E+00
  1.90000000E+02  2.00000000E+00  0.00000000E+00
  1.90000000E+02 -3.33066907E-14  0.00000000E+00
  2.00000000E+02  1.00000000E+02  0.00000000E+00
  2.00000000E+02  9.80000000E+01  0.00000000E+00
  2.00000000E+02  9.60000000E+01  0.00000000E+00
  2.00000000E+02  9.40000000E+01  0.00000000E+00
  2.00000000E+02  9.20000000E+01  0.00000000E+00
  2.00000000E+02  9.00000000E+01  0.00000000E+00
  2.00000000E+02  8.80000000E+01  0.00000000E+00
  2.00000000E+02  8.60000000E+01  0.00000000E+00
  2.00000000E+02  8.40000000E+01  0.00000000E+00
  2.00000000E+02  8.20000000E+01  0.00000000E+00
  2.00000000E+02  8.00000000E+01  0.00000000E+00
  2.00000000E+02  7.80000000E+01  0.00000000E+00
  2.00000000E+02  7.60000000E+01  0.00000000E+00
  2.00000000E+02  7.40000000E+01  0.00000000E+00
  2.00000000E+02  7.20000000E+01  0.00000000E+00
  2.00000000E+02  7.00000000E+01  0.00000000E+00
  2.00000000E+02  6.80000000E+01  0.00000000E+00
  2.00000000E+02  6.60000000E+01  0.00000000E+00
  2.00000000E+02  6.40000000E+01  0.00000000E+00
  2.00000000E+02  6.20000000E+01  0.00000000E+00
  2.00000000E+02  6.00000000E+01  0.00000000E+00
  2.00000000E+02  5.80000000E+01  0.00000000E+00
  2.00000000E+02  5.60000000E+01  0.00000000E+00
  2.00000000E+02  5.40000000E+01  0.00000000E+00
  2.00000000E+02  5.20000000E+01  0.00000000E+00
  2.00000000E+02  5.00000000E+01  0.00000000E+00
  2.00000000E+02  4.80000000E+01  0.00000000E+00
  2.00000000E+02  4.60000000E+01  0.00000000E+00
  2.00000000E+02  4.40000000E+01  0.00000000E+00
  2.00000000E+02  4.20000000E+01  0.00000000E+00
  2.00000000E+02  4.00000000E+01  0.00000000E+00
  2.00000000E+02  3.80000000E+01  0.00000000E+00
  2.00000000E+02  3.60000000E+01  0.00000000E+00
  2.00000000E+02  3.40000000E+01  0.00000000E+00
  2.00000000E+02  3.20000000E+01  0.00000000E+00
  2.00000000E+02  3.00000000E+01  0.00000000E+00
  2.00000000E+02  2.80000000E+01  0.00000000E+00
  2.00000000E+02  2.60000000E+01  0.00000000E+00
  2.00000000E+02  2.40000000E+01  0.00000000E+00
  2.00000000E+02  2.20000000E+01  0.00000000E+00
  2.00000000E+02  2.00000000E+01  0.00000000E+00
  2.00000000E+02  1.80000000E+01  0.00000000E+00
  2.00000000E+02  1.60000000E+01  0.00000000E+00
  2.00000000E+02  1.40000000E+01  0.00000000E+00
  2.00000000E+02  1.20000000E+01  0.00000000E+00
  2.00000000E+02  1.00000000E+01  0.00000000E+00
  2.00000000E+02  8.00000000E+00  0.00000000E+00
  2.00000000E+02  6.00000000E+00  0.00000000E+00
  2.00000000E+02  4.00000000E+00  0.00000000E+00
  2.00000000E+02  2.00000000E+00  0.00000000E+00
  2.00000000E+02 -3.33066907E-14  0.00000000E+00
  2.10000000E+02  1.00000000E+02  0.00000000E+00
  2.10000000E+02  9.80000000E+01  0.00000000E+00
  2.10000000E+02  9.60000000E+01  0.00000000E+00
  2.10000000E+02  9.40000000E+01  0.00000000E+00
  2.10000000E+02  9.20000000E+01  0.00000000E+00
  2.10000000E+02  9.00000000E+01  0.00000000E+00
  2.10000000E+02  8.80000000E+01  0.00000000E+00
  2.10000000E+02  8.60000000E+01  0.00000000E+00
  2.10000000E+02  8.40000000E+01  0.00000000E+00
  2.10000000E+02  8.20000000E+01  0.00000000E+00
  2.10000000E+02  8.00000000E+01  0.00000000E+00
  2.10000000E+02  7.80000000E+01  0.00000000E+00
  2.10000000E+02  7.60000000E+01  0.00000000E+00
  2.10000000E+02  7.40000000E+01  0.00000000E+00
  2.10000000E+02  7.20000000E+01  0.00000000E+00
  2.10000000E+02  7.00000000E+01  0.00000000E+00
  2.10000000E+02  6.80000000E+01  0.00000000E+00
  2.10000000E+02  6.60000000E+01  0.00000000E+00
  2.10000000E+02  6.40000000E+01  0.00000000E+00
  2.10000000E+02  6.20000000E+01  0.00000000E+00
  2.10000000E+02  6.00000000E+01  0.00000000E+00
  2.10000000E+02  5.80000000E+01  0.00000000E+00
  2.10000000E+02  5.60000000E+01  0.00000000E+00
  2.10000000E+02  5.40000000E+01  0.00000000E+00
  2.10000000E+02  5.20000000E+01  0.00000000E+00
  2.10000000E+02  5.00000000E+01  0.00000000E+00
  2.10000000E+02  4.80000000E+01  0.00000000E+00
  2.10000000E+02  4.60000000E+01  0.00000000E+00
  2.10000000E+02  4.40000000E+01  0.00000000E+00
  2.10000000E+02  4.20000000E+01  0.00000000E+00
  2.10000000E+02  4.00000000E+01  0.00000000E+00
  2.10000000E+02  3.80000000E+01  0.00000000E+00
  2.10000000E+02  3.60000000E+01  0.00000000E+00
  2.10000000E+02  3.40000000E+01  0.00000000E+00
  2.10000000E+02  3.20000000E+01  0.00000000E+00
  2.10000000E+02  3.00000000E+01  0.00000000E+00
  2.10000000E+02  2.80000000E+01  0.00000000E+00
  2.10000000E+02  2.60000000E+01  0.00000000E+00
  2.10000000E+02  2.40000000E+01  0.00000000E+00
  2.10000000E+02  2.20000000E+01  0.00000000E+00
  2.10000000E+02  2.00000000E+01  0.00000000E+00
  2.10000000E+02  1.80000000E+01  0.00000000E+00
  2.10000000E+02  1.60000000E+01  0.00000000E+00
  2.10000000E+02  1.40000000E+01  0.00000000E+00
  2.10000000E+02  1.20000000E+01  0.00000000E+00
  2.10000000E+02  1.00000000E+01  0.00000000E+00
  2.10000000E+02  8.00000000E+00  0.00000000E+00
  2.10000000E+02  6.00000000E+00  0.00000000E+00
  2.10000000E+02  4.00000000E+00  0.00000000E+00
  2.10000000E+02  2.00000000E+00  0.00000000E+00
  2.10000000E+02 -3.33066907E-14  0.00000000E+00
  2.20000000E+02  1.00000000E+02  0.00000000E+00
  2.20000000E+02  9.80000000E+01  0.00000000E+00
  2.20000000E+02  9.60000000E+01  0.00000000E+00
  2.20000000E+02  9.40000000E+01  0.00000000E+00
  2.20000000E+02  9.20000000E+01  0.00000000E+00
  2.20000000E+02  9.00000000E+01  0.00000000E+00
  2.20000000E+02  8.80000000E+01  0.00000000E+00
  2.20000000E+02  8.60000000E+01  0.00000000E+00
  2.20000000E+02  8.40000000E+01  0.00000000E+00
  2.20000000E+02  8.20000000E+01  0.00000000E+00
  2.20000000E+02  8.00000000E+01  0.00000000E+00
  2.20000000E+02  7.80000000E+01  0.00000000E+00
  2.20000000E+02  7.60000000E+01  0.00000000E+00
  2.20000000E+02  7.40000000E+01  0.00000000E+00
  2.20000000E+02  7.20000000E+01  0.00000000E+00
  2.20000000E+02  7.00000000E+01  0.00000000E+00
  2.20000000E+02  6.80000000E+01  0.00000000E+00
  2.20000000E+02  6.60000000E+01  0.00000000E+00
  2.20000000E+02  6.40000000E+01  0.00000000E+00
  2.20000000E+02  6.20000000E+01  0.00000000E+00
  2.20000000E+02  6.00000000E+01  0.00000000E+00
  2.20000000E+02  5.80000000E+01  0.00000000E+00
  2.20000000E+02  5.60000000E+01  0.00000000E+00
  2.20000000E+02  5.40000000E+01  0.00000000E+00
  2.20000000E+02  5.20000000E+01  0.00000000E+00
  2.20000000E+02  5.00000000E+01  0.00000000E+00
  2.20000000E+02  4.80000000E+01  0.00000000E+00
  2.20000000E+02  4.60000000E+01  0.00000000E+00
  2.20000000E+02  4.40000000E+01  0.00000000E+00
  2.20000000E+02  4.20000000E+01  0.00000000E+00
  2.20000000E+02  4.00000000E+01  0.00000000E+00
  2.20000000E+02  3.80000000E+01  0.00000000E+00
  2.20000000E+02  3.60000000E+01  0.00000000E+00
  2.20000000E+02  3.40000000E+01  0.00000000E+00
  2.20000000E+02  3.20000000E+01  0.00000000E+00
  2.20000000E+02  3.00000000E+01  0.00000000E+00
  2.20000000E+02  2.80000000E+01  0.00000000E+00
  2.20000000E+02  2.60000000E+01  0.00000000E+00
  2.20000000E+02  2.40000000E+01  0.00000000E+00
  2.20000000E+02  2.20000000E+01  0.00000000E+00
  2.20000000E+02  2.00000000E+01  0.00000000E+00
  2.20000000E+02  1.80000000E+01  0.00000000E+00
  2.20000000E+02  1.60000000E+01  0.00000000E+00
  2.20000000E+02  1.40000000E+01  0.00000000E+00
  2.20000000E+02  1.20000000E+01  0.00000000E+00
  2.20000000E+02  1.00000000E+01  0.00000000E+00
  2.20000000E+02  8.00000000E+00  0.00000000E+00
  2.20000000E+02  6.00000000E+00  0.00000000E+00
  2.20000000E+02  4.00000000E+00  0.00000000E+00
  2.20000000E+02  2.00000000E+00  0.00000000E+00
  2.20000000E+02 -3.33066907E-14  0.00000000E+00
  2.30000000E+02  1.00000000E+02  0.00000000E+00
  2.30000000E+02  9.80000000E+01  0.00000000E+00
  2.30000000E+02  9.60000000E+01  0.00000000E+00
  2.30000000E+02  9.40000000E+01  0.00000000E+00
  2.30000000E+02  9.20000000E+01  0.00000000E+00
  2.30000000E+02  9.00000000E+01  0.00000000E+00
  2.30000000E+02  8.80000000E+01  0.00000000E+00
  2.30000000E+02  8.60000000E+01  0.00000000E+00
  2.30000000E+02  8.40000000E+01  0.00000000E+00
  2.30000000E+02  8.20000000E+01  0.00000000E+00
  2.30000000E+02  8.00000000E+01  0.00000000E+00
  2.30000000E+02  7.80000000E+01  0.00000000E+00
  2.30000000E+02  7.60000000E+01  0.00000000E+00
  2.30000000E+02  7.40000000E+01  0.00000000E+00
  2.30000000E+02  7.20000000E+01  0.00000000E+00
  2.30000000E+02  7.00000000E+01  0.00000000E+00
  2.30000000E+02  6.80000000E+01  0.00000000E+00
  2.30000000E+02  6.60000000E+01  0.00000000E+00
  2.30000000E+02  6.40000000E+01  0.00000000E+00
  2.30000000E+02  6.20000000E+01  0.00000000E+00
  2.30000000E+02  6.00000000E+01  0.00000000E+00
  2.30000000E+02  5.80000000E+01  0.00000000E+00
  2.30000000E+02  5.60000000E+01  0.00000000E+00
  2.30000000E+02  5.40000000E+01  0.00000000E+00
  2.30000000E+02  5.20000000E+01  0.00000000E+00
  2.30000000E+02  5.00000000E+01  0.00000000E+00
  2.30000000E+02  4.80000000E+01  0.00000000E+00
  2.30000000E+02  4.60000000E+01  0.00000000E+00
  2.30000000E+02  4.40000000E+01  0.00000000E+00
  2.30000000E+02  4.20000000E+01  0.00000000E+00
  2.30000000E+02  4.00000000E+01  0.00000000E+00
  2.30000000E+02  3.80000000E+01  0.00000000E+00
  2.30000000E+02  3.60000000E+01  0.00000000E+00
  2.30000000E+02  3.40000000E+01  0.00000000E+00
  2.30000000E+02  3.20000000E+01  0.00000000E+00
  2.30000000E+02  3.00000000E+01  0.00000000E+00
  2.30000000E+02  2.80000000E+01  0.00000000E+00
  2.30000000E+02  2.60000000E+01  0.00000000E+00
  2.30000000E+02  2.40000000E+01  0.00000000E+00
  2.30000000E+02  2.20000000E+01  0.00000000E+00
  2.30000000E+02  2.00000000E+01  0.00000000E+00
  2.30000000E+02  1.80000000E+01  0.00000000E+00
  2.30000000E+02  1.60000000E+01  0.00000000E+00
  2.30000000E+02  1.40000000E+01  0.00000000E+00
  2.30000000E+02  1.20000000E+01  0.00000000E+00
  2.30000000E+02  1.00000000E+01  0.00000000E+00
  2.30000000E+02  8.00000000E+00  0.00000000E+00
  2.30000000E+02  6.00000000E+00  0.00000000E+00
  2.30000000E+02  4.00000000E+00  0.00000000E+00
  2.30000000E+02  2.00000000E+00  0.00000000E+00
  2.30000000E+02 -3.33066907E-14  0.00000000E+00
  2.40000000E+02  1.00000000E+02  0.00000000E+00
  2.40000000E+02  9.80000000E+01  0.00000000E+00
  2.40000000E+02  9.60000000E+01  0.00000000E+00
  2.40000000E+02  9.40000000E+01  0.00000000E+00
  2.40000000E+02  9.20000000E+01  0.00000000E+00
  2.40000000E+02  9.00000000E+01  0.00000000E+00
  2.40000000E+02  8.80000000E+01  0.00000000E+00
  2.40000000E+02  8.60000000E+01  0.00000000E+00
  2.40000000E+02  8.40000000E+01  0.00000000E+00
  2.40000000E+02  8.20000000E+01  0.00000000E+00
  2.40000000E+02  8.00000000E+01  0.00000000E+00
  2.40000000E+02  7.80000000E+01  0.00000000E+00
  2.40000000E+02  7.60000000E+01  0.00000000E+00
  2.40000000E+02  7.40000000E+01  0.00000000E+00
  2.40000000E+02  7.20000000E+01  0.00000000E+00
  2.40000000E+02  7.00000000E+01  0.00000000E+00
  2.40000000E+02  6.80000000E+01  0.00000000E+00
  2.40000000E+02  6.60000000E+01  0.00000000E+00
  2.40000000E+02  6.40000000E+01  0.00000000E+00
  2.40000000E+02  6.20000000E+01  0.00000000E+00
  2.40000000E+02  6.00000000E+01  0.00000000E+00
  2.40000000E+02  5.80000000E+01  0.00000000E+00
  2.40000000E+02  5.60000000E+01  0.00000000E+00
  2.40000000E+02  5.40000000E+01  0.00000000E+00
  2.40000000E+02  5.20000000E+01  0.00000000E+00
  2.40000000E+02  5.00000000E+01  0.00000000E+00
  2.40000000E+02  4.80000000E+01  0.00000000E+00
  2.40000000E+02  4.60000000E+01  0.00000000E+00
  2.40000000E+02  4.40000000E+01  0.00000000E+00
  2.40000000E+02  4.20000000E+01  0.00000000E+00
  2.40000000E+02  4.00000000E+01  0.00000000E+00
  2.40000000E+02  3.80000000E+01  0.00000000E+00
  2.40000000E+02  3.60000000E+01  0.00000000E+00
  2.40000000E+02  3.40000000E+01  0.00000000E+00
  2.40000000E+02  3.20000000E+01  0.00000000E+00
  2.40000000E+02  3.00000000E+01  0.00000000E+00
  2.40000000E+02  2.80000000E+01  0.00000000E+00
  2.40000000E+02  2.60000000E+01  0.00000000E+00
  2.40000000E+02  2.40000000E+01  0.00000000E+00
  2.40000000E+02  2.20000000E+01  0.00000000E+00
  2.40000000E+02  2.00000000E+01  0.00000000E+00
  2.40000000E+02  1.80000000E+01  0.00000000E+00
  2.40000000E+02  1.60000000E+01  0.00000000E+00
  2.40000000E+02  1.40000000E+01  0.00000000E+00
  2.40000000E+02  1.20000000E+01  0.00000000E+00
  2.40000000E+02  1.00000000E+01  0.00000000E+00
  2.40000000E+02  8.00000000E+00  0.00000000E+00
  2.40000000E+02  6.00000000E+00  0.00000000E+00
  2.40000000E+02  4.00000000E+00  0.00000000E+00
  2.40000000E+02  2.00000000E+00  0.00000000E+00
  2.40000000E+02 -3.33066907E-14  0.00000000E+00
  2.50000000E+02  1.00000000E+02  0.00000000E+00
  2.50000000E+02  9.80000000E+01  0.00000000E+00
  2.50000000E+02  9.60000000E+01  0.00000000E+00
  2.50000000E+02  9.40000000E+01  0.00000000E+00
  2.50000000E+02  9.20000000E+01  0.00000000E+00
  2.50000000E+02  9.00000000E+01  0.00000000E+00
  2.50000000E+02  8.80000000E+01  0.00000000E+00
  2.50000000E+02  8.60000000E+01  0.00000000E+00
  2.50000000E+02  8.40000000E+01  0.00000000E+00
  2.50000000E+02  8.20000000E+01  0.00000000E+00
  2.50000000E+02  8.00000000E+01  0.00000000E+00
  2.50000000E+02  7.80000000E+01  0.00000000E+00
  2.50000000E+02  7.60000000E+01  0.00000000E+00
  2.50000000E+02  7.40000000E+01  0.00000000E+00
  2.50000000E+02  7.20000000E+01  0.00000000E+00
  2.50000000E+02  7.00000000E+01  0.00000000E+00
  2.50000000E+02  6.80000000E+01  0.00000000E+00
  2.50000000E+02  6.60000000E+01  0.00000000E+00
  2.50000000E+02  6.40000000E+01  0.00000000E+00
  2.50000000E+02  6.20000000E+01  0.00000000E+00
  2.50000000E+02  6.00000000E+01  0.00000000E+00
  2.50000000E+02  5.80000000E+01  0.00000000E+00
  2.50000000E+02  5.60000000E+01  0.00000000E+00
  2.50000000E+02  5.40000000E+01  0.00000000E+00
  2.50000000E+02  5.20000000E+01  0.00000000E+00
  2.50000000E+02  5.00000000E+01  0.00000000E+00
  2.50000000E+02  4.80000000E+01  0.00000000E+00
  2.50000000E+02  4.60000000E+01  0.00000000E+00
  2.50000000E+02  4.40000000E+01  0.00000000E+00
  2.50000000E+02  4.20000000E+01  0.00000000E+00
  2.50000000E+02  4.00000000E+01  0.00000000E+00
  2.50000000E+02  3.80000000E+01  0.00000000E+00
  2.50000000E+02  3.60000000E+01  0.00000000E+00
  2.50000000E+02  3.40000000E+01  0.00000000E+00
  2.50000000E+02  3.20000000E+01  0.00000000E+00
  2.50000000E+02  3.00000000E+01  0.00000000E+00
  2.50000000E+02  2.80000000E+01  0.00000000E+00
  2.50000000E+02  2.60000000E+01  0.00000000E+00
  2.50000000E+02  2.40000000E+01  0.00000000E+00
  2.50000000E+02  2.20000000E+01  0.00000000E+00
  2.50000000E+02  2.00000000E+01  0.00000000E+00
  2.50000000E+02  1.80000000E+01  0.00000000E+00
  2.50000000E+02  1.60000000E+01  0.00000000E+00
  2.50000000E+02  1.40000000E+01  0.00000000E+00
  2.50000000E+02  1.20000000E+01  0.00000000E+00
  2.50000000E+02  1.00000000E+01  0.00000000E+00
  2.50000000E+02  8.00000000E+00  0.00000000E+00
  2.50000000E+02  6.00000000E+00  0.00000000E+00
  2.50000000E+02  4.00000000E+00  0.00000000E+00
  2.50000000E+02  2.00000000E+00  0.00000000E+00
  2.50000000E+02 -3.33066907E-14  0.00000000E+00
  2.60000000E+02  1.00000000E+02  0.00000000E+00
  2.60000000E+02  9.80000000E+01  0.00000000E+00
  2.60000000E+02  9.60000000E+01  0.00000000E+00
  2.60000000E+02  9.40000000E+01  0.00000000E+00
  2.60000000E+02  9.20000000E+01  0.00000000E+00
  2.60000000E+02  9.00000000E+01  0.00000000E+00
  2.60000000E+02  8.80000000E+01  0.00000000E+00
  2.60000000E+02  8.60000000E+01  0.00000000E+00
  2.60000000E+02  8.40000000E+01  0.00000000E+00
  2.60000000E+02  8.20000000E+01  0.00000000E+00
  2.60000000E+02  8.00000000E+01  0.00000000E+00
  2.60000000E+02  7.80000000E+01  0.00000000E+00
  2.60000000E+02  7.60000000E+01  0.00000000E+00
  2.60000000E+02  7.40000000E+01  0.00000000E+00
  2.60000000E+02  7.20000000E+01  0.00000000E+00
  2.60000000E+02  7.00000000E+01  0.00000000E+00
  2.60000000E+02  6.80000000E+01  0.00000000E+00
  2.60000000E+02  6.60000000E+01  0.00000000E+00
  2.60000000E+02  6.40000000E+01  0.00000000E+00
  2.60000000E+02  6.20000000E+01  0.00000000E+00
  2.60000000E+02  6.00000000E+01  0.00000000E+00
  2.60000000E+02  5.80000000E+01  0.00000000E+00
  2.60000000E+02  5.60000000E+01  0.00000000E+00
  2.60000000E+02  5.40000000E+01  0.00000000E+00
  2.60000000E+02  5.20000000E+01  0.00000000E+00
  2.60000000E+02  5.00000000E+01  0.00000000E+00
  2.60000000E+02  4.80000000E+01  0.00000000E+00
  2.60000000E+02  4.60000000E+01  0.00000000E+00
  2.60000000E+02  4.40000000E+01  0.00000000E+00
  2.60000000E+02  4.20000000E+01  0.00000000E+00
  2.60000000E+02  4.00000000E+01  0.00000000E+00
  2.60000000E+02  3.80000000E+01  0.00000000E+00
  2.60000000E+02  3.60000000E+01  0.00000000E+00
  2.60000000E+02  3.40000000E+01  0.00000000E+00
  2.60000000E+02  3.20000000E+01  0.00000000E+00
  2.60000000E+02  3.00000000E+01  0.00000000E+00
  2.60000000E+02  2.80000000E+01  0.00000000E+00
  2.60000000E+02  2.60000000E+01  0.00000000E+00
  2.60000000E+02  2.40000000E+01  0.00000000E+00
  2.60000000E+02  2.20000000E+01  0.00000000E+00
  2.60000000E+02  2.00000000E+01  0.00000000E+00
  2.60000000E+02  1.80000000E+01  0.00000000E+00
  2.60000000E+02  1.60000000E+01  0.00000000E+00
  2.60000000E+02  1.40000000E+01  0.00000000E+00
  2.60000000E+02  1.20000000E+01  0.00000000E+00
  2.60000000E+02  1.00000000E+01  0.00000000E+00
  2.60000000E+02  8.00000000E+00  0.00000000E+00
  2.60000000E+02  6.00000000E+00  0.00000000E+00
  2.60000000E+02  4.00000000E+00  0.00000000E+00
  2.60000000E+02  2.00000000E+00  0.00000000E+00
  2.60000000E+02 -3.33066907E-14  0.00000000E+00
  2.70000000E+02  1.00000000E+02  0.00000000E+00
  2.70000000E+02  9.80000000E+01  0.00000000E+00
  2.70000000E+02  9.60000000E+01  0.00000000E+00
  2.70000000E+02  9.40000000E+01  0.00000000E+00
  2.70000000E+02  9.20000000E+01  0.00000000E+00
  2.70000000E+02  9.00000000E+01  0.00000000E+00
  2.70000000E+02  8.80000000E+01  0.00000000E+00
  2.70000000E+02  8.60000000E+01  0.00000000E+00
  2.70000000E+02  8.40000000E+01  0.00000000E+00
  2.70000000E+02  8.20000000E+01  0.00000000E+00
  2.70000000E+02  8.00000000E+01  0.00000000E+00
  2.70000000E+02  7.80000000E+01  0.00000000E+00
  2.70000000E+02  7.60000000E+01  0.00000000E+00
  2.70000000E+02  7.40000000E+01  0.00000000E+00
  2.70000000E+02  7.20000000E+01  0.00000000E+00
  2.70000000E+02  7.00000000E+01  0.00000000E+00
  2.70000000E+02  6.80000000E+01  0.00000000E+00
  2.70000000E+02  6.60000000E+01  0.00000000E+00
  2.70000000E+02  6.40000000E+01  0.00000000E+00
  2.70000000E+02  6.20000000E+01  0.00000000E+00
  2.70000000E+02  6.00000000E+01  0.00000000E+00
  2.70000000E+02  5.80000000E+01  0.00000000E+00
  2.70000000E+02  5.60000000E+01  0.00000000E+00
  2.70000000E+02  5.40000000E+01  0.00000000E+00
  2.70000000E+02  5.20000000E+01  0.00000000E+00
  2.70000000E+02  5.00000000E+01  0.00000000E+00
  2.70000000E+02  4.80000000E+01  0.00000000E+00
  2.70000000E+02  4.60000000E+01  0.00000000E+00
  2.70000000E+02  4.40000000E+01  0.00000000E+00
  2.70000000E+02  4.20000000E+01  0.00000000E+00
  2.70000000E+02  4.00000000E+01  0.00000000E+00
  2.70000000E+02  3.80000000E+01  0.00000000E+00
  2.70000000E+02  3.60000000E+01  0.00000000E+00
  2.70000000E+02  3.40000000E+01  0.00000000E+00
  2.70000000E+02  3.20000000E+01  0.00000000E+00
  2.70000000E+02  3.00000000E+01  0.00000000E+00
  2.70000000E+02  2.80000000E+01  0.00000000E+00
  2.70000000E+02  2.60000000E+01  0.00000000E+00
  2.70000000E+02  2.40000000E+01  0.00000000E+00
  2.70000000E+02  2.20000000E+01  0.00000000E+00
  2.70000000E+02  2.00000000E+01  0.00000000E+00
  2.70000000E+02  1.80000000E+01  0.00000000E+00
  2.70000000E+02  1.60000000E+01  0.00000000E+00
  2.70000000E+02  1.40000000E+01  0.00000000E+00
  2.70000000E+02  1.20000000E+01  0.00000000E+00
  2.70000000E+02  1.00000000E+01  0.00000000E+00
  2.70000000E+02  8.00000000E+00  0.00000000E+00
  2.70000000E+02  6.00000000E+00  0.00000000E+00
  2.70000000E+02  4.00000000E+00  0.00000000E+00
  2.70000000E+02  2.00000000E+00  0.00000000E+00
  2.70000000E+02 -3.33066907E-14  0.00000000E+00
  2.80000000E+02  1.00000000E+02  0.00000000E+00
  2.80000000E+02  9.80000000E+01  0.00000000E+00
  2.80000000E+02  9.60000000E+01  0.00000000E+00
  2.80000000E+02  9.40000000E+01  0.00000000E+00
  2.80000000E+02  9.20000000E+01  0.00000000E+00
  2.80000000E+02  9.00000000E+01  0.00000000E+00
  2.80000000E+02  8.80000000E+01  0.00000000E+00
  2.80000000E+02  8.60000000E+01  0.00000000E+00
  2.80000000E+02  8.40000000E+01  0.00000000E+00
  2.80000000E+02  8.20000000E+01  0.00000000E+00
  2.80000000E+02  8.00000000E+01  0.00000000E+00
  2.80000000E+02  7.80000000E+01  0.00000000E+00
  2.80000000E+02  7.60000000E+01  0.00000000E+00
  2.80000000E+02  7.40000000E+01  0.00000000E+00
  2.80000000E+02  7.20000000E+01  0.00000000E+00
  2.80000000E+02  7.00000000E+01  0.00000000E+00
  2.80000000E+02  6.80000000E+01  0.00000000E+00
  2.80000000E+02  6.60000000E+01  0.00000000E+00
  2.80000000E+02  6.40000000E+01  0.00000000E+00
  2.80000000E+02  6.20000000E+01  0.00000000E+00
  2.80000000E+02  6.00000000E+01  0.00000000E+00
  2.80000000E+02  5.80000000E+01  0.00000000E+00
  2.80000000E+02  5.60000000E+01  0.00000000E+00
  2.80000000E+02  5.40000000E+01  0.00000000E+00
  2.80000000E+02  5.20000000E+01  0.00000000E+00
  2.80000000E+02  5.00000000E+01  0.00000000E+00
  2.80000000E+02  4.80000000E+01  0.00000000E+00
  2.80000000E+02  4.60000000E+01  0.00000000E+00
  2.80000000E+02  4.40000000E+01  0.00000000E+00
  2.80000000E+02  4.20000000E+01  0.00000000E+00
  2.80000000E+02  4.00000000E+01  0.00000000E+00
  2.80000000E+02  3.80000000E+01  0.00000000E+00
  2.80000000E+02  3.60000000E+01  0.00000000E+00
  2.80000000E+02  3.40000000E+01  0.00000000E+00
  2.80000000E+02  3.20000000E+01  0.00000000E+00
  2.80000000E+02  3.00000000E+01  0.00000000E+00
  2.80000000E+02  2.80000000E+01  0.00000000E+00
  2.80000000E+02  2.60000000E+01  0.00000000E+00
  2.80000000E+02  2.40000000E+01  0.00000000E+00
  2.80000000E+02  2.20000000E+01  0.00000000E+00
  2.80000000E+02  2.00000000E+01  0.00000000E+00
  2.80000000E+02  1.80000000E+01  0.00000000E+00
  2.80000000E+02  1.60000000E+01  0.00000000E+00
  2.80000000E+02  1.40000000E+01  0.00000000E+00
  2.80000000E+02  1.20000000E+01  0.00000000E+00
  2.80000000E+02  1.00000000E+01  0.00000000E+00
  2.80000000E+02  8.00000000E+00  0.00000000E+00
  2.80000000E+02  6.00000000E+00  0.00000000E+00
  2.80000000E+02  4.00000000E+00  0.00000000E+00
  2.80000000E+02  2.00000000E+00  0.00000000E+00
  2.80000000E+02 -3.33066907E-14  0.00000000E+00
  2.90000000E+02  1.00000000E+02  0.00000000E+00
  2.90000000E+02  9.80000000E+01  0.00000000E+00
  2.90000000E+02  9.60000000E+01  0.00000000E+00
  2.90000000E+02  9.40000000E+01  0.00000000E+00
  2.90000000E+02  9.20000000E+01  0.00000000E+00
  2.90000000E+02  9.00000000E+01  0.00000000E+00
  2.90000000E+02  8.80000000E+01  0.00000000E+00
  2.90000000E+02  8.60000000E+01  0.00000000E+00
  2.90000000E+02  8.40000000E+01  0.00000000E+00
  2.90000000E+02  8.20000000E+01  0.00000000E+00
  2.90000000E+02  8.00000000E+01  0.00000000E+00
  2.90000000E+02  7.80000000E+01  0.00000000E+00
  2.90000000E+02  7.60000000E+01  0.00000000E+00
  2.90000000E+02  7.40000000E+01  0.00000000E+00
  2.90000000E+02  7.20000000E+01  0.00000000E+00
  2.90000000E+02  7.00000000E+01  0.00000000E+00
  2.90000000E+02  6.80000000E+01  0.00000000E+00
  2.90000000E+02  6.60000000E+01  0.00000000E+00
  2.90000000E+02  6.40000000E+01  0.00000000E+00
  2.90000000E+02  6.20000000E+01  0.00000000E+00
  2.90000000E+02  6.00000000E+01  0.00000000E+00
  2.90000000E+02  5.80000000E+01  0.00000000E+00
  2.90000000E+02  5.60000000E+01  0.00000000E+00
  2.90000000E+02  5.40000000E+01  0.00000000E+00
  2.90000000E+02  5.20000000E+01  0.00000000E+00
  2.90000000E+02  5.00000000E+01  0.00000000E+00
  2.90000000E+02  4.80000000E+01  0.00000000E+00
  2.90000000E+02  4.60000000E+01  0.00000000E+00
  2.90000000E+02  4.40000000E+01  0.00000000E+00
  2.90000000E+02  4.20000000E+01  0.00000000E+00
  2.90000000E+02  4.00000000E+01  0.00000000E+00
  2.90000000E+02  3.80000000E+01  0.00000000E+00
  2.90000000E+02  3.60000000E+01  0.00000000E+00
  2.90000000E+02  3.40000000E+01  0.00000000E+00
  2.90000000E+02  3.20000000E+01  0.00000000E+00
  2.90000000E+02  3.00000000E+01  0.00000000E+00
  2.90000000E+02  2.80000000E+01  0.00000000E+00
  2.90000000E+02  2.60000000E+01  0.00000000E+00
  2.90000000E+02  2.40000000E+01  0.00000000E+00
  2.90000000E+02  2.20000000E+01  0.00000000E+00
  2.90000000E+02  2.00000000E+01  0.00000000E+00
  2.90000000E+02  1.80000000E+01  0.00000000E+00
  2.90000000E+02  1.60000000E+01  0.00000000E+00
  2.90000000E+02  1.40000000E+01  0.00000000E+00
  2.90000000E+02  1.20000000E+01  0.00000000E+00
  2.90000000E+02  1.00000000E+01  0.00000000E+00
  2.90000000E+02  8.00000000E+00  0.00000000E+00
  2.90000000E+02  6.00000000E+00  0.00000000E+00
  2.90000000E+02  4.00000000E+00  0.00000000E+00
  2.90000000E+02  2.00000000E+00  0.00000000E+00
  2.90000000E+02 -3.33066907E-14  0.00000000E+00
  3.00000000E+02  1.00000000E+02  0.00000000E+00
  3.00000000E+02  9.80000000E+01  0.00000000E+00
  3.00000000E+02  9.60000000E+01  0.00000000E+00
  3.00000000E+02  9.40000000E+01  0.00000000E+00
  3.00000000E+02  9.20000000E+01  0.00000000E+00
  3.00000000E+02  9.00000000E+01  0.00000000E+00
  3.00000000E+02  8.80000000E+01  0.00000000E+00
  3.00000000E+02  8.60000000E+01  0.00000000E+00
  3.00000000E+02  8.40000000E+01  0.00000000E+00
  3.00000000E+02  8.20000000E+01  0.00000000E+00
  3.00000000E+02  8.00000000E+01  0.00000000E+00
  3.00000000E+02  7.80000000E+01  0.00000000E+00
  3.00000000E+02  7.60000000E+01  0.00000000E+00
  3.00000000E+02  7.40000000E+01  0.00000000E+00
  3.00000000E+02  7.20000000E+01  0.00000000E+00
  3.00000000E+02  7.00000000E+01  0.00000000E+00
  3.00000000E+02  6.80000000E+01  0.00000000E+00
  3.00000000E+02  6.60000000E+01  0.00000000E+00
  3.00000000E+02  6.40000000E+01  0.00000000E+00
  3.00000000E+02  6.20000000E+01  0.00000000E+00
  3.00000000E+02  6.00000000E+01  0.00000000E+00
  3.00000000E+02  5.80000000E+01  0.00000000E+00
  3.00000000E+02  5.60000000E+01  0.00000000E+00
  3.00000000E+02  5.40000000E+01  0.00000000E+00
  3.00000000E+02  5.20000000E+01  0.00000000E+00
  3.00000000E+02  5.00000000E+01  0.00000000E+00
  3.00000000E+02  4.80000000E+01  0.00000000E+00
  3.00000000E+02  4.60000000E+01  0.00000000E+00
  3.00000000E+02  4.40000000E+01  0.00000000E+00
  3.00000000E+02  4.20000000E+01  0.00000000E+00
  3.00000000E+02  4.00000000E+01  0.00000000E+00
  3.00000000E+02  3.80000000E+01  0.00000000E+00
  3.00000000E+02  3.60000000E+01  0.00000000E+00
  3.00000000E+02  3.40000000E+01  0.00000000E+00
  3.00000000E+02  3.20000000E+01  0.00000000E+00
  3.00000000E+02  3.00000000E+01  0.00000000E+00
  3.00000000E+02  2.80000000E+01  0.00000000E+00
  3.00000000E+02  2.60000000E+01  0.00000000E+00
  3.00000000E+02  2.40000000E+01  0.00000000E+00
  3.00000000E+02  2.20000000E+01  0.00000000E+00
  3.00000000E+02  2.00000000E+01  0.00000000E+00
  3.00000000E+02  1.80000000E+01  0.00000000E+00
  3.00000000E+02  1.60000000E+01  0.00000000E+00
  3.00000000E+02  1.40000000E+01  0.00000000E+00
  3.00000000E+02  1.20000000E+01  0.00000000E+00
  3.00000000E+02  1.00000000E+01  0.00000000E+00
  3.00000000E+02  8.00000000E+00  0.00000000E+00
  3.00000000E+02  6.00000000E+00  0.00000000E+00
  3.00000000E+02  4.00000000E+00  0.00000000E+00
  3.00000000E+02  2.00000000E+00  0.00000000E+00
  3.00000000E+02 -3.33066907E-14  0.00000000E+00
  3.10000000E+02  1.00000000E+02  0.00000000E+00
  3.10000000E+02  9.80000000E+01  0.00000000E+00
  3.10000000E+02  9.60000000E+01  0.00000000E+00
  3.10000000E+02  9.40000000E+01  0.00000000E+00
  3.10000000E+02  9.20000000E+01  0.00000000E+00
  3.10000000E+02  9.00000000E+01  0.00000000E+00
  3.10000000E+02  8.80000000E+01  0.00000000E+00
  3.10000000E+02  8.60000000E+01  0.00000000E+00
  3.10000000E+02  8.40000000E+01  0.00000000E+00
  3.10000000E+02  8.20000000E+01  0.00000000E+00
  3.10000000E+02  8.00000000E+01  0.00000000E+00
  3.10000000E+02  7.80000000E+01  0.00000000E+00
  3.10000000E+02  7.60000000E+01  0.00000000E+00
  3.10000000E+02  7.40000000E+01  0.00000000E+00
  3.10000000E+02  7.20000000E+01  0.00000000E+00
  3.10000000E+02  7.00000000E+01  0.00000000E+00
  3.10000000E+02  6.80000000E+01  0.00000000E+00
  3.10000000E+02  6.60000000E+01  0.00000000E+00
  3.10000000E+02  6.40000000E+01  0.00000000E+00
  3.10000000E+02  6.20000000E+01  0.00000000E+00
  3.10000000E+02  6.00000000E+01  0.00000000E+00
  3.10000000E+02  5.80000000E+01  0.00000000E+00
  3.10000000E+02  5.60000000E+01  0.00000000E+00
  3.10000000E+02  5.40000000E+01  0.00000000E+00
  3.10000000E+02  5.20000000E+01  0.00000000E+00
  3.10000000E+02  5.00000000E+01  0.00000000E+00
  3.10000000E+02  4.80000000E+01  0.00000000E+00
  3.10000000E+02  4.60000000E+01  0.00000000E+00
  3.10000000E+02  4.40000000E+01  0.00000000E+00
  3.10000000E+02  4.20000000E+01  0.00000000E+00
  3.10000000E+02  4.00000000E+01  0.00000000E+00
  3.10000000E+02  3.80000000E+01  0.00000000E+00
  3.10000000E+02  3.60000000E+01  0.00000000E+00
  3.10000000E+02  3.40000000E+01  0.00000000E+00
  3.10000000E+02  3.20000000E+01  0.00000000E+00
  3.10000000E+02  3.00000000E+01  0.00000000E+00
  3.10000000E+02  2.80000000E+01  0.00000000E+00
  3.10000000E+02  2.60000000E+01  0.00000000E+00
  3.10000000E+02  2.40000000E+01  0.00000000E+00
  3.10000000E+02  2.20000000E+01  0.00000000E+00
  3.10000000E+02  2.00000000E+01  0.00000000E+00
  3.10000000E+02  1.80000000E+01  0.00000000E+00
  3.10000000E+02  1.60000000E+01  0.00000000E+00
  3.10000000E+02  1.40000000E+01  0.00000000E+00
  3.10000000E+02  1.20000000E+01  0.00000000E+00
  3.10000000E+02  1.00000000E+01  0.00000000E+00
  3.10000000E+02  8.00000000E+00  0.00000000E+00
  3.10000000E+02  6.00000000E+00  0.00000000E+00
  3.10000000E+02  4.00000000E+00  0.00000000E+00
  3.10000000E+02  2.00000000E+00  0.00000000E+00
  3.10000000E+02 -3.33066907E-14  0.00000000E+00
  3.20000000E+02  1.00000000E+02  0.00000000E+00
  3.20000000E+02  9.80000000E+01  0.00000000E+00
  3.20000000E+02  9.60000000E+01  0.00000000E+00
  3.20000000E+02  9.40000000E+01  0.00000000E+00
  3.20000000E+02  9.20000000E+01  0.00000000E+00
  3.20000000E+02  9.00000000E+01  0.00000000E+00
  3.20000000E+02  8.80000000E+01  0.00000000E+00
  3.20000000E+02  8.60000000E+01  0.00000000E+00
  3.20000000E+02  8.40000000E+01  0.00000000E+00
  3.20000000E+02  8.20000000E+01  0.00000000E+00
  3.20000000E+02  8.00000000E+01  0.00000000E+00
  3.20000000E+02  7.80000000E+01  0.00000000E+00
  3.20000000E+02  7.60000000E+01  0.00000000E+00
  3.20000000E+02  7.40000000E+01  0.00000000E+00
  3.20000000E+02  7.20000000E+01  0.00000000E+00
  3.20000000E+02  7.00000000E+01  0.00000000E+00
  3.20000000E+02  6.80000000E+01  0.00000000E+00
  3.20000000E+02  6.60000000E+01  0.00000000E+00
  3.20000000E+02  6.40000000E+01  0.00000000E+00
  3.20000000E+02  6.20000000E+01  0.00000000E+00
  3.20000000E+02  6.00000000E+01  0.00000000E+00
  3.20000000E+02  5.80000000E+01  0.00000000E+00
  3.20000000E+02  5.60000000E+01  0.00000000E+00
  3.20000000E+02  5.40000000E+01  0.00000000E+00
  3.20000000E+02  5.20000000E+01  0.00000000E+00
  3.20000000E+02  5.00000000E+01  0.00000000E+00
  3.20000000E+02  4.80000000E+01  0.00000000E+00
  3.20000000E+02  4.60000000E+01  0.00000000E+00
  3.20000000E+02  4.40000000E+01  0.00000000E+00
  3.20000000E+02  4.20000000E+01  0.00000000E+00
  3.20000000E+02  4.00000000E+01  0.00000000E+00
  3.20000000E+02  3.80000000E+01  0.00000000E+00
  3.20000000E+02  3.60000000E+01  0.00000000E+00
  3.20000000E+02  3.40000000E+01  0.00000000E+00
  3.20000000E+02  3.20000000E+01  0.00000000E+00
  3.20000000E+02  3.00000000E+01  0.00000000E+00
  3.20000000E+02  2.80000000E+01  0.00000000E+00
  3.20000000E+02  2.60000000E+01  0.00000000E+00
  3.20000000E+02  2.40000000E+01  0.00000000E+00
  3.20000000E+02  2.20000000E+01  0.00000000E+00
  3.20000000E+02  2.00000000E+01  0.00000000E+00
  3.20000000E+02  1.80000000E+01  0.00000000E+00
  3.20000000E+02  1.60000000E+01  0.00000000E+00
  3.20000000E+02  1.40000000E+01  0.00000000E+00
  3.20000000E+02  1.20000000E+01  0.00000000E+00
  3.20000000E+02  1.00000000E+01  0.00000000E+00
  3.20000000E+02  8.00000000E+00  0.00000000E+00
  3.20000000E+02  6.00000000E+00  0.00000000E+00
  3.20000000E+02  4.00000000E+00  0.00000000E+00
  3.20000000E+02  2.00000000E+00  0.00000000E+00
  3.20000000E+02 -3.33066907E-14  0.00000000E+00
  3.30000000E+02  1.00000000E+02  0.00000000E+00
  3.30000000E+02  9.80000000E+01  0.00000000E+00
  3.30000000E+02  9.60000000E+01  0.00000000E+00
  3.30000000E+02  9.40000000E+01  0.00000000E+00
  3.30000000E+02  9.20000000E+01  0.00000000E+00
  3.30000000E+02  9.00000000E+01  0.00000000E+00
  3.30000000E+02  8.80000000E+01  0.00000000E+00
  3.30000000E+02  8.60000000E+01  0.00000000E+00
  3.30000000E+02  8.40000000E+01  0.00000000E+00
  3.30000000E+02  8.20000000E+01  0.00000000E+00
  3.30000000E+02  8.00000000E+01  0.00000000E+00
  3.30000000E+02  7.80000000E+01  0.00000000E+00
  3.30000000E+02  7.60000000E+01  0.00000000E+00
  3.30000000E+02  7.40000000E+01  0.00000000E+00
  3.30000000E+02  7.20000000E+01  0.00000000E+00
  3.30000000E+02  7.00000000E+01  0.00000000E+00
  3.30000000E+02  6.80000000E+01  0.00000000E+00
  3.30000000E+02  6.60000000E+01  0.00000000E+00
  3.30000000E+02  6.40000000E+01  0.00000000E+00
  3.30000000E+02  6.20000000E+01  0.00000000E+00
  3.30000000E+02  6.00000000E+01  0.00000000E+00
  3.30000000E+02  5.80000000E+01  0.00000000E+00
  3.30000000E+02  5.60000000E+01  0.00000000E+00
  3.30000000E+02  5.40000000E+01  0.00000000E+00
  3.30000000E+02  5.20000000E+01  0.00000000E+00
  3.30000000E+02  5.00000000E+01  0.00000000E+00
  3.30000000E+02  4.80000000E+01  0.00000000E+00
  3.30000000E+02  4.60000000E+01  0.00000000E+00
  3.30000000E+02  4.40000000E+01  0.00000000E+00
  3.30000000E+02  4.20000000E+01  0.00000000E+00
  3.30000000E+02  4.00000000E+01  0.00000000E+00
  3.30000000E+02  3.80000000E+01  0.00000000E+00
  3.30000000E+02  3.60000000E+01  0.00000000E+00
  3.30000000E+02  3.40000000E+01  0.00000000E+00
  3.30000000E+02  3.20000000E+01  0.00000000E+00
  3.30000000E+02  3.00000000E+01  0.00000000E+00
  3.30000000E+02  2.80000000E+01  0.00000000E+00
  3.30000000E+02  2.60000000E+01  0.00000000E+00
  3.30000000E+02  2.40000000E+01  0.00000000E+00
  3.30000000E+02  2.20000000E+01  0.00000000E+00
  3.30000000E+02  2.00000000E+01  0.00000000E+00
  3.30000000E+02  1.80000000E+01  0.00000000E+00
  3.30000000E+02  1.60000000E+01  0.00000000E+00
  3.30000000E+02  1.40000000E+01  0.00000000E+00
  3.30000000E+02  1.20000000E+01  0.00000000E+00
  3.30000000E+02  1.00000000E+01  0.00000000E+00
  3.30000000E+02  8.00000000E+00  0.00000000E+00
  3.30000000E+02  6.00000000E+00  0.00000000E+00
  3.30000000E+02  4.00000000E+00  0.00000000E+00
  3.30000000E+02  2.00000000E+00  0.00000000E+00
  3.30000000E+02 -3.33066907E-14  0.00000000E+00
  3.40000000E+02  1.00000000E+02  0.00000000E+00
  3.40000000E+02  9.80000000E+01  0.00000000E+00
  3.40000000E+02  9.60000000E+01  0.00000000E+00
  3.40000000E+02  9.40000000E+01  0.00000000E+00
  3.40000000E+02  9.20000000E+01  0.00000000E+00
  3.40000000E+02  9.00000000E+01  0.00000000E+00
  3.40000000E+02  8.80000000E+01  0.00000000E+00
  3.40000000E+02  8.60000000E+01  0.00000000E+00
  3.40000000E+02  8.40000000E+01  0.00000000E+00
  3.40000000E+02  8.20000000E+01  0.00000000E+00
  3.40000000E+02  8.00000000E+01  0.00000000E+00
  3.40000000E+02  7.80000000E+01  0.00000000E+00
  3.40000000E+02  7.60000000E+01  0.00000000E+00
  3.40000000E+02  7.40000000E+01  0.00000000E+00
  3.40000000E+02  7.20000000E+01  0.00000000E+00
  3.40000000E+02  7.00000000E+01  0.00000000E+00
  3.40000000E+02  6.80000000E+01  0.00000000E+00
  3.40000000E+02  6.60000000E+01  0.00000000E+00
  3.40000000E+02  6.40000000E+01  0.00000000E+00
  3.40000000E+02  6.20000000E+01  0.00000000E+00
  3.40000000E+02  6.00000000E+01  0.00000000E+00
  3.40000000E+02  5.80000000E+01  0.00000000E+00
  3.40000000E+02  5.60000000E+01  0.00000000E+00
  3.40000000E+02  5.40000000E+01  0.00000000E+00
  3.40000000E+02  5.20000000E+01  0.00000000E+00
  3.40000000E+02  5.00000000E+01  0.00000000E+00
  3.40000000E+02  4.80000000E+01  0.00000000E+00
  3.40000000E+02  4.60000000E+01  0.00000000E+00
  3.40000000E+02  4.40000000E+01  0.00000000E+00
  3.40000000E+02  4.20000000E+01  0.00000000E+00
  3.40000000E+02  4.00000000E+01  0.00000000E+00
  3.40000000E+02  3.80000000E+01  0.00000000E+00
  3.40000000E+02  3.60000000E+01  0.00000000E+00
  3.40000000E+02  3.40000000E+01  0.00000000E+00
  3.40000000E+02  3.20000000E+01  0.00000000E+00
  3.40000000E+02  3.00000000E+01  0.00000000E+00
  3.40000000E+02  2.80000000E+01  0.00000000E+00
  3.40000000E+02  2.60000000E+01  0.00000000E+00
  3.40000000E+02  2.40000000E+01  0.00000000E+00
  3.40000000E+02  2.20000000E+01  0.00000000E+00
  3.40000000E+02  2.00000000E+01  0.00000000E+00
  3.40000000E+02  1.80000000E+01  0.00000000E+00
  3.40000000E+02  1.60000000E+01  0.00000000E+00
  3.40000000E+02  1.40000000E+01  0.00000000E+00
  3.40000000E+02  1.20000000E+01  0.00000000E+00
  3.40000000E+02  1.00000000E+01  0.00000000E+00
  3.40000000E+02  8.00000000E+00  0.00000000E+00
  3.40000000E+02  6.00000000E+00  0.00000000E+00
  3.40000000E+02  4.00000000E+00  0.00000000E+00
  3.40000000E+02  2.00000000E+00  0.00000000E+00
  3.40000000E+02 -3.33066907E-14  0.00000000E+00
  3.50000000E+02  1.00000000E+02  0.00000000E+00
  3.50000000E+02  9.80000000E+01  0.00000000E+00
  3.50000000E+02  9.60000000E+01  0.00000000E+00
  3.50000000E+02  9.40000000E+01  0.00000000E+00
  3.50000000E+02  9.20000000E+01  0.00000000E+00
  3.50000000E+02  9.00000000E+01  0.00000000E+00
  3.50000000E+02  8.80000000E+01  0.00000000E+00
  3.50000000E+02  8.60000000E+01  0.00000000E+00
  3.50000000E+02  8.40000000E+01  0.00000000E+00
  3.50000000E+02  8.20000000E+01  0.00000000E+00
  3.50000000E+02  8.00000000E+01  0.00000000E+00
  3.50000000E+02  7.80000000E+01  0.00000000E+00
  3.50000000E+02  7.60000000E+01  0.00000000E+00
  3.50000000E+02  7.40000000E+01  0.00000000E+00
  3.50000000E+02  7.20000000E+01  0.00000000E+00
  3.50000000E+02  7.00000000E+01  0.00000000E+00
  3.50000000E+02  6.80000000E+01  0.00000000E+00
  3.50000000E+02  6.60000000E+01  0.00000000E+00
  3.50000000E+02  6.40000000E+01  0.00000000E+00
  3.50000000E+02  6.20000000E+01  0.00000000E+00
  3.50000000E+02  6.00000000E+01  0.00000000E+00
  3.50000000E+02  5.80000000E+01  0.00000000E+00
  3.50000000E+02  5.60000000E+01  0.00000000E+00
  3.50000000E+02  5.40000000E+01  0.00000000E+00
  3.50000000E+02  5.20000000E+01  0.00000000E+00
  3.50000000E+02  5.00000000E+01  0.00000000E+00
  3.50000000E+02  4.80000000E+01  0.00000000E+00
  3.50000000E+02  4.60000000E+01  0.00000000E+00
  3.50000000E+02  4.40000000E+01  0.00000000E+00
  3.50000000E+02  4.20000000E+01  0.00000000E+00
  3.50000000E+02  4.00000000E+01  0.00000000E+00
  3.50000000E+02  3.80000000E+01  0.00000000E+00
  3.50000000E+02  3.60000000E+01  0.00000000E+00
  3.50000000E+02  3.40000000E+01  0.00000000E+00
  3.50000000E+02  3.20000000E+01  0.00000000E+00
  3.50000000E+02  3.00000000E+01  0.00000000E+00
  3.50000000E+02  2.80000000E+01  0.00000000E+00
  3.50000000E+02  2.60000000E+01  0.00000000E+00
  3.50000000E+02  2.40000000E+01  0.00000000E+00
  3.50000000E+02  2.20000000E+01  0.00000000E+00
  3.50000000E+02  2.00000000E+01  0.00000000E+00
  3.50000000E+02  1.80000000E+01  0.00000000E+00
  3.50000000E+02  1.60000000E+01  0.00000000E+00
  3.50000000E+02  1.40000000E+01  0.00000000E+00
  3.50000000E+02  1.20000000E+01  0.00000000E+00
  3.50000000E+02  1.00000000E+01  0.00000000E+00
  3.50000000E+02  8.00000000E+00  0.00000000E+00
  3.50000000E+02  6.00000000E+00  0.00000000E+00
  3.50000000E+02  4.00000000E+00  0.00000000E+00
  3.50000000E+02  2.00000000E+00  0.00000000E+00
  3.50000000E+02 -3.33066907E-14  0.00000000E+00
  3.60000000E+02  1.00000000E+02  0.00000000E+00
  3.60000000E+02  9.80000000E+01  0.00000000E+00
  3.60000000E+02  9.60000000E+01  0.00000000E+00
  3.60000000E+02  9.40000000E+01  0.00000000E+00
  3.60000000E+02  9.20000000E+01  0.00000000E+00
  3.60000000E+02  9.00000000E+01  0.00000000E+00
  3.60000000E+02  8.80000000E+01  0.00000000E+00
  3.60000000E+02  8.60000000E+01  0.00000000E+00
  3.60000000E+02  8.40000000E+01  0.00000000E+00
  3.60000000E+02  8.20000000E+01  0.00000000E+00
  3.60000000E+02  8.00000000E+01  0.00000000E+00
  3.60000000E+02  7.80000000E+01  0.00000000E+00
  3.60000000E+02  7.60000000E+01  0.00000000E+00
  3.60000000E+02  7.40000000E+01  0.00000000E+00
  3.60000000E+02  7.20000000E+01  0.00000000E+00
  3.60000000E+02  7.00000000E+01  0.00000000E+00
  3.60000000E+02  6.80000000E+01  0.00000000E+00
  3.60000000E+02  6.60000000E+01  0.00000000E+00
  3.60000000E+02  6.40000000E+01  0.00000000E+00
  3.60000000E+02  6.20000000E+01  0.00000000E+00
  3.60000000E+02  6.00000000E+01  0.00000000E+00
  3.60000000E+02  5.80000000E+01  0.00000000E+00
  3.60000000E+02  5.60000000E+01  0.00000000E+00
  3.60000000E+02  5.40000000E+01  0.00000000E+00
  3.60000000E+02  5.20000000E+01  0.00000000E+00
  3.60000000E+02  5.00000000E+01  0.00000000E+00
  3.60000000E+02  4.80000000E+01  0.00000000E+00
  3.60000000E+02  4.60000000E+01  0.00000000E+00
  3.60000000E+02  4.40000000E+01  0.00000000E+00
  3.60000000E+02  4.20000000E+01  0.00000000E+00
  3.60000000E+02  4.00000000E+01  0.00000000E+00
  3.60000000E+02  3.80000000E+01  0.00000000E+00
  3.60000000E+02  3.60000000E+01  0.00000000E+00
  3.60000000E+02  3.40000000E+01  0.00000000E+00
  3.60000000E+02  3.20000000E+01  0.00000000E+00
  3.60000000E+02  3.00000000E+01  0.00000000E+00
  3.60000000E+02  2.80000000E+01  0.00000000E+00
  3.60000000E+02  2.60000000E+01  0.00000000E+00
  3.60000000E+02  2.40000000E+01  0.00000000E+00
  3.60000000E+02  2.20000000E+01  0.00000000E+00
  3.60000000E+02  2.00000000E+01  0.00000000E+00
  3.60000000E+02  1.80000000E+01  0.00000000E+00
  3.60000000E+02  1.60000000E+01  0.00000000E+00
  3.60000000E+02  1.40000000E+01  0.00000000E+00
  3.60000000E+02  1.20000000E+01  0.00000000E+00
  3.60000000E+02  1.00000000E+01  0.00000000E+00
  3.60000000E+02  8.00000000E+00  0.00000000E+00
  3.60000000E+02  6.00000000E+00  0.00000000E+00
  3.60000000E+02  4.00000000E+00  0.00000000E+00
  3.60000000E+02  2.00000000E+00  0.00000000E+00
  3.60000000E+02 -3.33066907E-14  0.00000000E+00
  3.70000000E+02  1.00000000E+02  0.00000000E+00
  3.70000000E+02  9.80000000E+01  0.00000000E+00
  3.70000000E+02  9.60000000E+01  0.00000000E+00
  3.70000000E+02  9.40000000E+01  0.00000000E+00
  3.70000000E+02  9.20000000E+01  0.00000000E+00
  3.70000000E+02  9.00000000E+01  0.00000000E+00
  3.70000000E+02  8.80000000E+01  0.00000000E+00
  3.70000000E+02  8.60000000E+01  0.00000000E+00
  3.70000000E+02  8.40000000E+01  0.00000000E+00
  3.70000000E+02  8.20000000E+01  0.00000000E+00
  3.70000000E+02  8.00000000E+01  0.00000000E+00
  3.70000000E+02  7.80000000E+01  0.00000000E+00
  3.70000000E+02  7.60000000E+01  0.00000000E+00
  3.70000000E+02  7.40000000E+01  0.00000000E+00
  3.70000000E+02  7.20000000E+01  0.00000000E+00
  3.70000000E+02  7.00000000E+01  0.00000000E+00
  3.70000000E+02  6.80000000E+01  0.00000000E+00
  3.70000000E+02  6.60000000E+01  0.00000000E+00
  3.70000000E+02  6.40000000E+01  0.00000000E+00
  3.70000000E+02  6.20000000E+01  0.00000000E+00
  3.70000000E+02  6.00000000E+01  0.00000000E+00
  3.70000000E+02  5.80000000E+01  0.00000000E+00
  3.70000000E+02  5.60000000E+01  0.00000000E+00
  3.70000000E+02  5.40000000E+01  0.00000000E+00
  3.70000000E+02  5.20000000E+01  0.00000000E+00
  3.70000000E+02  5.00000000E+01  0.00000000E+00
  3.70000000E+02  4.80000000E+01  0.00000000E+00
  3.70000000E+02  4.60000000E+01  0.00000000E+00
  3.70000000E+02  4.40000000E+01  0.00000000E+00
  3.70000000E+02  4.20000000E+01  0.00000000E+00
  3.70000000E+02  4.00000000E+01  0.00000000E+00
  3.70000000E+02  3.80000000E+01  0.00000000E+00
  3.70000000E+02  3.60000000E+01  0.00000000E+00
  3.70000000E+02  3.40000000E+01  0.00000000E+00
  3.70000000E+02  3.20000000E+01  0.00000000E+00
  3.70000000E+02  3.00000000E+01  0.00000000E+00
  3.70000000E+02  2.80000000E+01  0.00000000E+00
  3.70000000E+02  2.60000000E+01  0.00000000E+00
  3.70000000E+02  2.40000000E+01  0.00000000E+00
  3.70000000E+02  2.20000000E+01  0.00000000E+00
  3.70000000E+02  2.00000000E+01  0.00000000E+00
  3.70000000E+02  1.80000000E+01  0.00000000E+00
  3.70000000E+02  1.60000000E+01  0.00000000E+00
  3.70000000E+02  1.40000000E+01  0.00000000E+00
  3.70000000E+02  1.20000000E+01  0.00000000E+00
  3.70000000E+02  1.00000000E+01  0.00000000E+00
  3.70000000E+02  8.00000000E+00  0.00000000E+00
  3.70000000E+02  6.00000000E+00  0.00000000E+00
  3.70000000E+02  4.00000000E+00  0.00000000E+00
  3.70000000E+02  2.00000000E+00  0.00000000E+00
  3.70000000E+02 -3.33066907E-14  0.00000000E+00
  3.80000000E+02  1.00000000E+02  0.00000000E+00
  3.80000000E+02  9.80000000E+01  0.00000000E+00
  3.80000000E+02  9.60000000E+01  0.00000000E+00
  3.80000000E+02  9.40000000E+01  0.00000000E+00
  3.80000000E+02  9.20000000E+01  0.00000000E+00
  3.80000000E+02  9.00000000E+01  0.00000000E+00
  3.80000000E+02  8.80000000E+01  0.00000000E+00
  3.80000000E+02  8.60000000E+01  0.00000000E+00
  3.80000000E+02  8.40000000E+01  0.00000000E+00
  3.80000000E+02  8.20000000E+01  0.00000000E+00
  3.80000000E+02  8.00000000E+01  0.00000000E+00
  3.80000000E+02  7.80000000E+01  0.00000000E+00
  3.80000000E+02  7.60000000E+01  0.00000000E+00
  3.80000000E+02  7.40000000E+01  0.00000000E+00
  3.80000000E+02  7.20000000E+01  0.00000000E+00
  3.80000000E+02  7.00000000E+01  0.00000000E+00
  3.80000000E+02  6.80000000E+01  0.00000000E+00
  3.80000000E+02  6.60000000E+01  0.00000000E+00
  3.80000000E+02  6.40000000E+01  0.00000000E+00
  3.80000000E+02  6.20000000E+01  0.00000000E+00
  3.80000000E+02  6.00000000E+01  0.00000000E+00
  3.80000000E+02  5.80000000E+01  0.00000000E+00
  3.80000000E+02  5.60000000E+01  0.00000000E+00
  3.80000000E+02  5.40000000E+01  0.00000000E+00
  3.80000000E+02  5.20000000E+01  0.00000000E+00
  3.80000000E+02  5.00000000E+01  0.00000000E+00
  3.80000000E+02  4.80000000E+01  0.00000000E+00
  3.80000000E+02  4.60000000E+01  0.00000000E+00
  3.80000000E+02  4.40000000E+01  0.00000000E+00
  3.80000000E+02  4.20000000E+01  0.00000000E+00
  3.80000000E+02  4.00000000E+01  0.00000000E+00
  3.80000000E+02  3.80000000E+01  0.00000000E+00
  3.80000000E+02  3.60000000E+01  0.00000000E+00
  3.80000000E+02  3.40000000E+01  0.00000000E+00
  3.80000000E+02  3.20000000E+01  0.00000000E+00
  3.80000000E+02  3.00000000E+01  0.00000000E+00
  3.80000000E+02  2.80000000E+01  0.00000000E+00
  3.80000000E+02  2.60000000E+01  0.00000000E+00
  3.80000000E+02  2.40000000E+01  0.00000000E+00
  3.80000000E+02  2.20000000E+01  0.00000000E+00
  3.80000000E+02  2.00000000E+01  0.00000000E+00
  3.80000000E+02  1.80000000E+01  0.00000000E+00
  3.80000000E+02  1.60000000E+01  0.00000000E+00
  3.80000000E+02  1.40000000E+01  0.00000000E+00
  3.80000000E+02  1.20000000E+01  0.00000000E+00
  3.80000000E+02  1.00000000E+01  0.00000000E+00
  3.80000000E+02  8.00000000E+00  0.00000000E+00
  3.80000000E+02  6.00000000E+00  0.00000000E+00
  3.80000000E+02  4.00000000E+00  0.00000000E+00
  3.80000000E+02  2.00000000E+00  0.00000000E+00
  3.80000000E+02 -3.33066907E-14  0.00000000E+00
  3.90000000E+02  1.00000000E+02  0.00000000E+00
  3.90000000E+02  9.80000000E+01  0.00000000E+00
  3.90000000E+02  9.60000000E+01  0.00000000E+00
  3.90000000E+02  9.40000000E+01  0.00000000E+00
  3.90000000E+02  9.20000000E+01  0.00000000E+00
  3.90000000E+02  9.00000000E+01  0.00000000E+00
  3.90000000E+02  8.80000000E+01  0.00000000E+00
  3.90000000E+02  8.60000000E+01  0.00000000E+00
  3.90000000E+02  8.40000000E+01  0.00000000E+00
  3.90000000E+02  8.20000000E+01  0.00000000E+00
  3.90000000E+02  8.00000000E+01  0.00000000E+00
  3.90000000E+02  7.80000000E+01  0.00000000E+00
  3.90000000E+02  7.60000000E+01  0.00000000E+00
  3.90000000E+02  7.40000000E+01  0.00000000E+00
  3.90000000E+02  7.20000000E+01  0.00000000E+00
  3.90000000E+02  7.00000000E+01  0.00000000E+00
  3.90000000E+02  6.80000000E+01  0.00000000E+00
  3.90000000E+02  6.60000000E+01  0.00000000E+00
  3.90000000E+02  6.40000000E+01  0.00000000E+00
  3.90000000E+02  6.20000000E+01  0.00000000E+00
  3.90000000E+02  6.00000000E+01  0.00000000E+00
  3.90000000E+02  5.80000000E+01  0.00000000E+00
  3.90000000E+02  5.60000000E+01  0.00000000E+00
  3.90000000E+02  5.40000000E+01  0.00000000E+00
  3.90000000E+02  5.20000000E+01  0.00000000E+00
  3.90000000E+02  5.00000000E+01  0.00000000E+00
  3.90000000E+02  4.80000000E+01  0.00000000E+00
  3.90000000E+02  4.60000000E+01  0.00000000E+00
  3.90000000E+02  4.40000000E+01  0.00000000E+00
  3.90000000E+02  4.20000000E+01  0.00000000E+00
  3.90000000E+02  4.00000000E+01  0.00000000E+00
  3.90000000E+02  3.80000000E+01  0.00000000E+00
  3.90000000E+02  3.60000000E+01  0.00000000E+00
  3.90000000E+02  3.40000000E+01  0.00000000E+00
  3.90000000E+02  3.20000000E+01  0.00000000E+00
  3.90000000E+02  3.00000000E+01  0.00000000E+00
  3.90000000E+02  2.80000000E+01  0.00000000E+00
  3.90000000E+02  2.60000000E+01  0.00000000E+00
  3.90000000E+02  2.40000000E+01  0.00000000E+00
  3.90000000E+02  2.20000000E+01  0.00000000E+00
  3.90000000E+02  2.00000000E+01  0.00000000E+00
  3.90000000E+02  1.80000000E+01  0.00000000E+00
  3.90000000E+02  1.60000000E+01  0.00000000E+00
  3.90000000E+02  1.40000000E+01  0.00000000E+00
  3.90000000E+02  1.20000000E+01  0.00000000E+00
  3.90000000E+02  1.00000000E+01  0.00000000E+00
  3.90000000E+02  8.00000000E+00  0.00000000E+00
  3.90000000E+02  6.00000000E+00  0.00000000E+00
  3.90000000E+02  4.00000000E+00  0.00000000E+00
  3.90000000E+02  2.00000000E+00  0.00000000E+00
  3.90000000E+02 -3.33066907E-14  0.00000000E+00
  4.00000000E+02  1.00000000E+02  0.00000000E+00
  4.00000000E+02  9.80000000E+01  0.00000000E+00
  4.00000000E+02  9.60000000E+01  0.00000000E+00
  4.00000000E+02  9.40000000E+01  0.00000000E+00
  4.00000000E+02  9.20000000E+01  0.00000000E+00
  4.00000000E+02  9.00000000E+01  0.00000000E+00
  4.00000000E+02  8.80000000E+01  0.00000000E+00
  4.00000000E+02  8.60000000E+01  0.00000000E+00
  4.00000000E+02  8.40000000E+01  0.00000000E+00
  4.00000000E+02  8.20000000E+01  0.00000000E+00
  4.00000000E+02  8.00000000E+01  0.00000000E+00
  4.00000000E+02  7.80000000E+01  0.00000000E+00
  4.00000000E+02  7.60000000E+01  0.00000000E+00
  4.00000000E+02  7.40000000E+01  0.00000000E+00
  4.00000000E+02  7.20000000E+01  0.00000000E+00
  4.00000000E+02  7.00000000E+01  0.00000000E+00
  4.00000000E+02  6.80000000E+01  0.00000000E+00
  4.00000000E+02  6.60000000E+01  0.00000000E+00
  4.00000000E+02  6.40000000E+01  0.00000000E+00
  4.00000000E+02  6.20000000E+01  0.00000000E+00
  4.00000000E+02  6.00000000E+01  0.00000000E+00
  4.00000000E+02  5.80000000E+01  0.00000000E+00
  4.00000000E+02  5.60000000E+01  0.00000000E+00
  4.00000000E+02  5.40000000E+01  0.00000000E+00
  4.00000000E+02  5.20000000E+01  0.00000000E+00
  4.00000000E+02  5.00000000E+01  0.00000000E+00
  4.00000000E+02  4.80000000E+01  0.00000000E+00
  4.00000000E+02  4.60000000E+01  0.00000000E+00
  4.00000000E+02  4.40000000E+01  0.00000000E+00
  4.00000000E+02  4.20000000E+01  0.00000000E+00
  4.00000000E+02  4.00000000E+01  0.00000000E+00
  4.00000000E+02  3.80000000E+01  0.00000000E+00
  4.00000000E+02  3.60000000E+01  0.00000000E+00
  4.00000000E+02  3.40000000E+01  0.00000000E+00
  4.00000000E+02  3.20000000E+01  0.00000000E+00
  4.00000000E+02  3.00000000E+01  0.00000000E+00
  4.00000000E+02  2.80000000E+01  0.00000000E+00
  4.00000000E+02  2.60000000E+01  0.00000000E+00
  4.00000000E+02  2.40000000E+01  0.00000000E+00
  4.00000000E+02  2.20000000E+01  0.00000000E+00
  4.00000000E+02  2.00000000E+01  0.00000000E+00
  4.00000000E+02  1.80000000E+01  0.00000000E+00
  4.00000000E+02  1.60000000E+01  0.00000000E+00
  4.00000000E+02  1.40000000E+01  0.00000000E+00
  4.00000000E+02  1.20000000E+01  0.00000000E+00
  4.00000000E+02  1.00000000E+01  0.00000000E+00
  4.00000000E+02  8.00000000E+00  0.00000000E+00
  4.00000000E+02  6.00000000E+00  0.00000000E+00
  4.00000000E+02  4.00000000E+00  0.00000000E+00
  4.00000000E+02  2.00000000E+00  0.00000000E+00
  4.00000000E+02 -3.33066907E-14  0.00000000E+00
  4.10000000E+02  1.00000000E+02  0.00000000E+00
  4.10000000E+02  9.80000000E+01  0.00000000E+00
  4.10000000E+02  9.60000000E+01  0.00000000E+00
  4.10000000E+02  9.40000000E+01  0.00000000E+00
  4.10000000E+02  9.20000000E+01  0.00000000E+00
  4.10000000E+02  9.00000000E+01  0.00000000E+00
  4.10000000E+02  8.80000000E+01  0.00000000E+00
  4.10000000E+02  8.60000000E+01  0.00000000E+00
  4.10000000E+02  8.40000000E+01  0.00000000E+00
  4.10000000E+02  8.20000000E+01  0.00000000E+00
  4.10000000E+02  8.00000000E+01  0.00000000E+00
  4.10000000E+02  7.80000000E+01  0.00000000E+00
  4.10000000E+02  7.60000000E+01  0.00000000E+00
  4.10000000E+02  7.40000000E+01  0.00000000E+00
  4.10000000E+02  7.20000000E+01  0.00000000E+00
  4.10000000E+02  7.00000000E+01  0.00000000E+00
  4.10000000E+02  6.80000000E+01  0.00000000E+00
  4.10000000E+02  6.60000000E+01  0.00000000E+00
  4.10000000E+02  6.40000000E+01  0.00000000E+00
  4.10000000E+02  6.20000000E+01  0.00000000E+00
  4.10000000E+02  6.00000000E+01  0.00000000E+00
  4.10000000E+02  5.80000000E+01  0.00000000E+00
  4.10000000E+02  5.60000000E+01  0.00000000E+00
  4.10000000E+02  5.40000000E+01  0.00000000E+00
  4.10000000E+02  5.20000000E+01  0.00000000E+00
  4.10000000E+02  5.00000000E+01  0.00000000E+00
  4.10000000E+02  4.80000000E+01  0.00000000E+00
  4.10000000E+02  4.60000000E+01  0.00000000E+00
  4.10000000E+02  4.40000000E+01  0.00000000E+00
  4.10000000E+02  4.20000000E+01  0.00000000E+00
  4.10000000E+02  4.00000000E+01  0.00000000E+00
  4.10000000E+02  3.80000000E+01  0.00000000E+00
  4.10000000E+02  3.60000000E+01  0.00000000E+00
  4.10000000E+02  3.40000000E+01  0.00000000E+00
  4.10000000E+02  3.20000000E+01  0.00000000E+00
  4.10000000E+02  3.00000000E+01  0.00000000E+00
  4.10000000E+02  2.80000000E+01  0.00000000E+00
  4.10000000E+02  2.60000000E+01  0.00000000E+00
  4.10000000E+02  2.40000000E+01  0.00000000E+00
  4.10000000E+02  2.20000000E+01  0.00000000E+00
  4.10000000E+02  2.00000000E+01  0.00000000E+00
  4.10000000E+02  1.80000000E+01  0.00000000E+00
  4.10000000E+02  1.60000000E+01  0.00000000E+00
  4.10000000E+02  1.40000000E+01  0.00000000E+00
  4.10000000E+02  1.20000000E+01  0.00000000E+00
  4.10000000E+02  1.00000000E+01  0.00000000E+00
  4.10000000E+02  8.00000000E+00  0.00000000E+00
  4.10000000E+02  6.00000000E+00  0.00000000E+00
  4.10000000E+02  4.00000000E+00  0.00000000E+00
  4.10000000E+02  2.00000000E+00  0.00000000E+00
  4.10000000E+02 -3.33066907E-14  0.00000000E+00
  4.20000000E+02  1.00000000E+02  0.00000000E+00
  4.20000000E+02  9.80000000E+01  0.00000000E+00
  4.20000000E+02  9.60000000E+01  0.00000000E+00
  4.20000000E+02  9.40000000E+01  0.00000000E+00
  4.20000000E+02  9.20000000E+01  0.00000000E+00
  4.20000000E+02  9.00000000E+01  0.00000000E+00
  4.20000000E+02  8.80000000E+01  0.00000000E+00
  4.20000000E+02  8.60000000E+01  0.00000000E+00
  4.20000000E+02  8.40000000E+01  0.00000000E+00
  4.20000000E+02  8.20000000E+01  0.00000000E+00
  4.20000000E+02  8.00000000E+01  0.00000000E+00
  4.20000000E+02  7.80000000E+01  0.00000000E+00
  4.20000000E+02  7.60000000E+01  0.00000000E+00
  4.20000000E+02  7.40000000E+01  0.00000000E+00
  4.20000000E+02  7.20000000E+01  0.00000000E+00
  4.20000000E+02  7.00000000E+01  0.00000000E+00
  4.20000000E+02  6.80000000E+01  0.00000000E+00
  4.20000000E+02  6.60000000E+01  0.00000000E+00
  4.20000000E+02  6.40000000E+01  0.00000000E+00
  4.20000000E+02  6.20000000E+01  0.00000000E+00
  4.20000000E+02  6.00000000E+01  0.00000000E+00
  4.20000000E+02  5.80000000E+01  0.00000000E+00
  4.20000000E+02  5.60000000E+01  0.00000000E+00
  4.20000000E+02  5.40000000E+01  0.00000000E+00
  4.20000000E+02  5.20000000E+01  0.00000000E+00
  4.20000000E+02  5.00000000E+01  0.00000000E+00
  4.20000000E+02  4.80000000E+01  0.00000000E+00
  4.20000000E+02  4.60000000E+01  0.00000000E+00
  4.20000000E+02  4.40000000E+01  0.00000000E+00
  4.20000000E+02  4.20000000E+01  0.00000000E+00
  4.20000000E+02  4.00000000E+01  0.00000000E+00
  4.20000000E+02  3.80000000E+01  0.00000000E+00
  4.20000000E+02  3.60000000E+01  0.00000000E+00
  4.20000000E+02  3.40000000E+01  0.00000000E+00
  4.20000000E+02  3.20000000E+01  0.00000000E+00
  4.20000000E+02  3.00000000E+01  0.00000000E+00
  4.20000000E+02  2.80000000E+01  0.00000000E+00
  4.20000000E+02  2.60000000E+01  0.00000000E+00
  4.20000000E+02  2.40000000E+01  0.00000000E+00
  4.20000000E+02  2.20000000E+01  0.00000000E+00
  4.20000000E+02  2.00000000E+01  0.00000000E+00
  4.20000000E+02  1.80000000E+01  0.00000000E+00
  4.20000000E+02  1.60000000E+01  0.00000000E+00
  4.20000000E+02  1.40000000E+01  0.00000000E+00
  4.20000000E+02  1.20000000E+01  0.00000000E+00
  4.20000000E+02  1.00000000E+01  0.00000000E+00
  4.20000000E+02  8.00000000E+00  0.00000000E+00
  4.20000000E+02  6.00000000E+00  0.00000000E+00
  4.20000000E+02  4.00000000E+00  0.00000000E+00
  4.20000000E+02  2.00000000E+00  0.00000000E+00
  4.20000000E+02 -3.33066907E-14  0.00000000E+00
  4.30000000E+02  1.00000000E+02  0.00000000E+00
  4.30000000E+02  9.80000000E+01  0.00000000E+00
  4.30000000E+02  9.60000000E+01  0.00000000E+00
  4.30000000E+02  9.40000000E+01  0.00000000E+00
  4.30000000E+02  9.20000000E+01  0.00000000E+00
  4.30000000E+02  9.00000000E+01  0.00000000E+00
  4.30000000E+02  8.80000000E+01  0.00000000E+00
  4.30000000E+02  8.60000000E+01  0.00000000E+00
  4.30000000E+02  8.40000000E+01  0.00000000E+00
  4.30000000E+02  8.20000000E+01  0.00000000E+00
  4.30000000E+02  8.00000000E+01  0.00000000E+00
  4.30000000E+02  7.80000000E+01  0.00000000E+00
  4.30000000E+02  7.60000000E+01  0.00000000E+00
  4.30000000E+02  7.40000000E+01  0.00000000E+00
  4.30000000E+02  7.20000000E+01  0.00000000E+00
  4.30000000E+02  7.00000000E+01  0.00000000E+00
  4.30000000E+02  6.80000000E+01  0.00000000E+00
  4.30000000E+02  6.60000000E+01  0.00000000E+00
  4.30000000E+02  6.40000000E+01  0.00000000E+00
  4.30000000E+02  6.20000000E+01  0.00000000E+00
  4.30000000E+02  6.00000000E+01  0.00000000E+00
  4.30000000E+02  5.80000000E+01  0.00000000E+00
  4.30000000E+02  5.60000000E+01  0.00000000E+00
  4.30000000E+02  5.40000000E+01  0.00000000E+00
  4.30000000E+02  5.20000000E+01  0.00000000E+00
  4.30000000E+02  5.00000000E+01  0.00000000E+00
  4.30000000E+02  4.80000000E+01  0.00000000E+00
  4.30000000E+02  4.60000000E+01  0.00000000E+00
  4.30000000E+02  4.40000000E+01  0.00000000E+00
  4.30000000E+02  4.20000000E+01  0.00000000E+00
  4.30000000E+02  4.00000000E+01  0.00000000E+00
  4.30000000E+02  3.80000000E+01  0.00000000E+00
  4.30000000E+02  3.60000000E+01  0.00000000E+00
  4.30000000E+02  3.40000000E+01  0.00000000E+00
  4.30000000E+02  3.20000000E+01  0.00000000E+00
  4.30000000E+02  3.00000000E+01  0.00000000E+00
  4.30000000E+02  2.80000000E+01  0.00000000E+00
  4.30000000E+02  2.60000000E+01  0.00000000E+00
  4.30000000E+02  2.40000000E+01  0.00000000E+00
  4.30000000E+02  2.20000000E+01  0.00000000E+00
  4.30000000E+02  2.00000000E+01  0.00000000E+00
  4.30000000E+02  1.80000000E+01  0.00000000E+00
  4.30000000E+02  1.60000000E+01  0.00000000E+00
  4.30000000E+02  1.40000000E+01  0.00000000E+00
  4.30000000E+02  1.20000000E+01  0.00000000E+00
  4.30000000E+02  1.00000000E+01  0.00000000E+00
  4.30000000E+02  8.00000000E+00  0.00000000E+00
  4.30000000E+02  6.00000000E+00  0.00000000E+00
  4.30000000E+02  4.00000000E+00  0.00000000E+00
  4.30000000E+02  2.00000000E+00  0.00000000E+00
  4.30000000E+02 -3.33066907E-14  0.00000000E+00
  4.40000000E+02  1.00000000E+02  0.00000000E+00
  4.40000000E+02  9.80000000E+01  0.00000000E+00
  4.40000000E+02  9.60000000E+01  0.00000000E+00
  4.40000000E+02  9.40000000E+01  0.00000000E+00
  4.40000000E+02  9.20000000E+01  0.00000000E+00
  4.40000000E+02  9.00000000E+01  0.00000000E+00
  4.40000000E+02  8.80000000E+01  0.00000000E+00
  4.40000000E+02  8.60000000E+01  0.00000000E+00
  4.40000000E+02  8.40000000E+01  0.00000000E+00
  4.40000000E+02  8.20000000E+01  0.00000000E+00
  4.40000000E+02  8.00000000E+01  0.00000000E+00
  4.40000000E+02  7.80000000E+01  0.00000000E+00
  4.40000000E+02  7.60000000E+01  0.00000000E+00
  4.40000000E+02  7.40000000E+01  0.00000000E+00
  4.40000000E+02  7.20000000E+01  0.00000000E+00
  4.40000000E+02  7.00000000E+01  0.00000000E+00
  4.40000000E+02  6.80000000E+01  0.00000000E+00
  4.40000000E+02  6.60000000E+01  0.00000000E+00
  4.40000000E+02  6.40000000E+01  0.00000000E+00
  4.40000000E+02  6.20000000E+01  0.00000000E+00
  4.40000000E+02  6.00000000E+01  0.00000000E+00
  4.40000000E+02  5.80000000E+01  0.00000000E+00
  4.40000000E+02  5.60000000E+01  0.00000000E+00
  4.40000000E+02  5.40000000E+01  0.00000000E+00
  4.40000000E+02  5.20000000E+01  0.00000000E+00
  4.40000000E+02  5.00000000E+01  0.00000000E+00
  4.40000000E+02  4.80000000E+01  0.00000000E+00
  4.40000000E+02  4.60000000E+01  0.00000000E+00
  4.40000000E+02  4.40000000E+01  0.00000000E+00
  4.40000000E+02  4.20000000E+01  0.00000000E+00
  4.40000000E+02  4.00000000E+01  0.00000000E+00
  4.40000000E+02  3.80000000E+01  0.00000000E+00
  4.40000000E+02  3.60000000E+01  0.00000000E+00
  4.40000000E+02  3.40000000E+01  0.00000000E+00
  4.40000000E+02  3.20000000E+01  0.00000000E+00
  4.40000000E+02  3.00000000E+01  0.00000000E+00
  4.40000000E+02  2.80000000E+01  0.00000000E+00
  4.40000000E+02  2.60000000E+01  0.00000000E+00
  4.40000000E+02  2.40000000E+01  0.00000000E+00
  4.40000000E+02  2.20000000E+01  0.00000000E+00
  4.40000000E+02  2.00000000E+01  0.00000000E+00
  4.40000000E+02  1.80000000E+01  0.00000000E+00
  4.40000000E+02  1.60000000E+01  0.00000000E+00
  4.40000000E+02  1.40000000E+01  0.00000000E+00
  4.40000000E+02  1.20000000E+01  0.00000000E+00
  4.40000000E+02  1.00000000E+01  0.00000000E+00
  4.40000000E+02  8.00000000E+00  0.00000000E+00
  4.40000000E+02  6.00000000E+00  0.00000000E+00
  4.40000000E+02  4.00000000E+00  0.00000000E+00
  4.40000000E+02  2.00000000E+00  0.00000000E+00
  4.40000000E+02 -3.33066907E-14  0.00000000E+00
  4.50000000E+02  1.00000000E+02  0.00000000E+00
  4.50000000E+02  9.80000000E+01  0.00000000E+00
  4.50000000E+02  9.60000000E+01  0.00000000E+00
  4.50000000E+02  9.40000000E+01  0.00000000E+00
  4.50000000E+02  9.20000000E+01  0.00000000E+00
  4.50000000E+02  9.00000000E+01  0.00000000E+00
  4.50000000E+02  8.80000000E+01  0.00000000E+00
  4.50000000E+02  8.60000000E+01  0.00000000E+00
  4.50000000E+02  8.40000000E+01  0.00000000E+00
  4.50000000E+02  8.20000000E+01  0.00000000E+00
  4.50000000E+02  8.00000000E+01  0.00000000E+00
  4.50000000E+02  7.80000000E+01  0.00000000E+00
  4.50000000E+02  7.60000000E+01  0.00000000E+00
  4.50000000E+02  7.40000000E+01  0.00000000E+00
  4.50000000E+02  7.20000000E+01  0.00000000E+00
  4.50000000E+02  7.00000000E+01  0.00000000E+00
  4.50000000E+02  6.80000000E+01  0.00000000E+00
  4.50000000E+02  6.60000000E+01  0.00000000E+00
  4.50000000E+02  6.40000000E+01  0.00000000E+00
  4.50000000E+02  6.20000000E+01  0.00000000E+00
  4.50000000E+02  6.00000000E+01  0.00000000E+00
  4.50000000E+02  5.80000000E+01  0.00000000E+00
  4.50000000E+02  5.60000000E+01  0.00000000E+00
  4.50000000E+02  5.40000000E+01  0.00000000E+00
  4.50000000E+02  5.20000000E+01  0.00000000E+00
  4.50000000E+02  5.00000000E+01  0.00000000E+00
  4.50000000E+02  4.80000000E+01  0.00000000E+00
  4.50000000E+02  4.60000000E+01  0.00000000E+00
  4.50000000E+02  4.40000000E+01  0.00000000E+00
  4.50000000E+02  4.20000000E+01  0.00000000E+00
  4.50000000E+02  4.00000000E+01  0.00000000E+00
  4.50000000E+02  3.80000000E+01  0.00000000E+00
  4.50000000E+02  3.60000000E+01  0.00000000E+00
  4.50000000E+02  3.40000000E+01  0.00000000E+00
  4.50000000E+02  3.20000000E+01  0.00000000E+00
  4.50000000E+02  3.00000000E+01  0.00000000E+00
  4.50000000E+02  2.80000000E+01  0.00000000E+00
  4.50000000E+02  2.60000000E+01  0.00000000E+00
  4.50000000E+02  2.40000000E+01  0.00000000E+00
  4.50000000E+02  2.20000000E+01  0.00000000E+00
  4.50000000E+02  2.00000000E+01  0.00000000E+00
  4.50000000E+02  1.80000000E+01  0.00000000E+00
  4.50000000E+02  1.60000000E+01  0.00000000E+00
  4.50000000E+02  1.40000000E+01  0.00000000E+00
  4.50000000E+02  1.20000000E+01  0.00000000E+00
  4.50000000E+02  1.00000000E+01  0.00000000E+00
  4.50000000E+02  8.00000000E+00  0.00000000E+00
  4.50000000E+02  6.00000000E+00  0.00000000E+00
  4.50000000E+02  4.00000000E+00  0.00000000E+00
  4.50000000E+02  2.00000000E+00  0.00000000E+00
  4.50000000E+02 -3.33066907E-14  0.00000000E+00
  4.60000000E+02  1.00000000E+02  0.00000000E+00
  4.60000000E+02  9.80000000E+01  0.00000000E+00
  4.60000000E+02  9.60000000E+01  0.00000000E+00
  4.60000000E+02  9.40000000E+01  0.00000000E+00
  4.60000000E+02  9.20000000E+01  0.00000000E+00
  4.60000000E+02  9.00000000E+01  0.00000000E+00
  4.60000000E+02  8.80000000E+01  0.00000000E+00
  4.60000000E+02  8.60000000E+01  0.00000000E+00
  4.60000000E+02  8.40000000E+01  0.00000000E+00
  4.60000000E+02  8.20000000E+01  0.00000000E+00
  4.60000000E+02  8.00000000E+01  0.00000000E+00
  4.60000000E+02  7.80000000E+01  0.00000000E+00
  4.60000000E+02  7.60000000E+01  0.00000000E+00
  4.60000000E+02  7.40000000E+01  0.00000000E+00
  4.60000000E+02  7.20000000E+01  0.00000000E+00
  4.60000000E+02  7.00000000E+01  0.00000000E+00
  4.60000000E+02  6.80000000E+01  0.00000000E+00
  4.60000000E+02  6.60000000E+01  0.00000000E+00
  4.60000000E+02  6.40000000E+01  0.00000000E+00
  4.60000000E+02  6.20000000E+01  0.00000000E+00
  4.60000000E+02  6.00000000E+01  0.00000000E+00
  4.60000000E+02  5.80000000E+01  0.00000000E+00
  4.60000000E+02  5.60000000E+01  0.00000000E+00
  4.60000000E+02  5.40000000E+01  0.00000000E+00
  4.60000000E+02  5.20000000E+01  0.00000000E+00
  4.60000000E+02  5.00000000E+01  0.00000000E+00
  4.60000000E+02  4.80000000E+01  0.00000000E+00
  4.60000000E+02  4.60000000E+01  0.00000000E+00
  4.60000000E+02  4.40000000E+01  0.00000000E+00
  4.60000000E+02  4.20000000E+01  0.00000000E+00
  4.60000000E+02  4.00000000E+01  0.00000000E+00
  4.60000000E+02  3.80000000E+01  0.00000000E+00
  4.60000000E+02  3.60000000E+01  0.00000000E+00
  4.60000000E+02  3.40000000E+01  0.00000000E+00
  4.60000000E+02  3.20000000E+01  0.00000000E+00
  4.60000000E+02  3.00000000E+01  0.00000000E+00
  4.60000000E+02  2.80000000E+01  0.00000000E+00
  4.60000000E+02  2.60000000E+01  0.00000000E+00
  4.60000000E+02  2.40000000E+01  0.00000000E+00
  4.60000000E+02  2.20000000E+01  0.00000000E+00
  4.60000000E+02  2.00000000E+01  0.00000000E+00
  4.60000000E+02  1.80000000E+01  0.00000000E+00
  4.60000000E+02  1.60000000E+01  0.00000000E+00
  4.60000000E+02  1.40000000E+01  0.00000000E+00
  4.60000000E+02  1.20000000E+01  0.00000000E+00
  4.60000000E+02  1.00000000E+01  0.00000000E+00
  4.60000000E+02  8.00000000E+00  0.00000000E+00
  4.60000000E+02  6.00000000E+00  0.00000000E+00
  4.60000000E+02  4.00000000E+00  0.00000000E+00
  4.60000000E+02  2.00000000E+00  0.00000000E+00
  4.60000000E+02 -3.33066907E-14  0.00000000E+00
  4.70000000E+02  1.00000000E+02  0.00000000E+00
  4.70000000E+02  9.80000000E+01  0.00000000E+00
  4.70000000E+02  9.60000000E+01  0.00000000E+00
  4.70000000E+02  9.40000000E+01  0.00000000E+00
  4.70000000E+02  9.20000000E+01  0.00000000E+00
  4.70000000E+02  9.00000000E+01  0.00000000E+00
  4.70000000E+02  8.80000000E+01  0.00000000E+00
  4.70000000E+02  8.60000000E+01  0.00000000E+00
  4.70000000E+02  8.40000000E+01  0.00000000E+00
  4.70000000E+02  8.20000000E+01  0.00000000E+00
  4.70000000E+02  8.00000000E+01  0.00000000E+00
  4.70000000E+02  7.80000000E+01  0.00000000E+00
  4.70000000E+02  7.60000000E+01  0.00000000E+00
  4.70000000E+02  7.40000000E+01  0.00000000E+00
  4.70000000E+02  7.20000000E+01  0.00000000E+00
  4.70000000E+02  7.00000000E+01  0.00000000E+00
  4.70000000E+02  6.80000000E+01  0.00000000E+00
  4.70000000E+02  6.60000000E+01  0.00000000E+00
  4.70000000E+02  6.40000000E+01  0.00000000E+00
  4.70000000E+02  6.20000000E+01  0.00000000E+00
  4.70000000E+02  6.00000000E+01  0.00000000E+00
  4.70000000E+02  5.80000000E+01  0.00000000E+00
  4.70000000E+02  5.60000000E+01  0.00000000E+00
  4.70000000E+02  5.40000000E+01  0.00000000E+00
  4.70000000E+02  5.20000000E+01  0.00000000E+00
  4.70000000E+02  5.00000000E+01  0.00000000E+00
  4.70000000E+02  4.80000000E+01  0.00000000E+00
  4.70000000E+02  4.60000000E+01  0.00000000E+00
  4.70000000E+02  4.40000000E+01  0.00000000E+00
  4.70000000E+02  4.20000000E+01  0.00000000E+00
  4.70000000E+02  4.00000000E+01  0.00000000E+00
  4.70000000E+02  3.80000000E+01  0.00000000E+00
  4.70000000E+02  3.60000000E+01  0.00000000E+00
  4.70000000E+02  3.40000000E+01  0.00000000E+00
  4.70000000E+02  3.20000000E+01  0.00000000E+00
  4.70000000E+02  3.00000000E+01  0.00000000E+00
  4.70000000E+02  2.80000000E+01  0.00000000E+00
  4.70000000E+02  2.60000000E+01  0.00000000E+00
  4.70000000E+02  2.40000000E+01  0.00000000E+00
  4.70000000E+02  2.20000000E+01  0.00000000E+00
  4.70000000E+02  2.00000000E+01  0.00000000E+00
  4.70000000E+02  1.80000000E+01  0.00000000E+00
  4.70000000E+02  1.60000000E+01  0.00000000E+00
  4.70000000E+02  1.40000000E+01  0.00000000E+00
  4.70000000E+02  1.20000000E+01  0.00000000E+00
  4.70000000E+02  1.00000000E+01  0.00000000E+00
  4.70000000E+02  8.00000000E+00  0.00000000E+00
  4.70000000E+02  6.00000000E+00  0.00000000E+00
  4.70000000E+02  4.00000000E+00  0.00000000E+00
  4.70000000E+02  2.00000000E+00  0.00000000E+00
  4.70000000E+02 -3.33066907E-14  0.00000000E+00
  4.80000000E+02  1.00000000E+02  0.00000000E+00
  4.80000000E+02  9.80000000E+01  0.00000000E+00
  4.80000000E+02  9.60000000E+01  0.00000000E+00
  4.80000000E+02  9.40000000E+01  0.00000000E+00
  4.80000000E+02  9.20000000E+01  0.00000000E+00
  4.80000000E+02  9.00000000E+01  0.00000000E+00
  4.80000000E+02  8.80000000E+01  0.00000000E+00
  4.80000000E+02  8.60000000E+01  0.00000000E+00
  4.80000000E+02  8.40000000E+01  0.00000000E+00
  4.80000000E+02  8.20000000E+01  0.00000000E+00
  4.80000000E+02  8.00000000E+01  0.00000000E+00
  4.80000000E+02  7.80000000E+01  0.00000000E+00
  4.80000000E+02  7.60000000E+01  0.00000000E+00
  4.80000000E+02  7.40000000E+01  0.00000000E+00
  4.80000000E+02  7.20000000E+01  0.00000000E+00
  4.80000000E+02  7.00000000E+01  0.00000000E+00
  4.80000000E+02  6.80000000E+01  0.00000000E+00
  4.80000000E+02  6.60000000E+01  0.00000000E+00
  4.80000000E+02  6.40000000E+01  0.00000000E+00
  4.80000000E+02  6.20000000E+01  0.00000000E+00
  4.80000000E+02  6.00000000E+01  0.00000000E+00
  4.80000000E+02  5.80000000E+01  0.00000000E+00
  4.80000000E+02  5.60000000E+01  0.00000000E+00
  4.80000000E+02  5.40000000E+01  0.00000000E+00
  4.80000000E+02  5.20000000E+01  0.00000000E+00
  4.80000000E+02  5.00000000E+01  0.00000000E+00
  4.80000000E+02  4.80000000E+01  0.00000000E+00
  4.80000000E+02  4.60000000E+01  0.00000000E+00
  4.80000000E+02  4.40000000E+01  0.00000000E+00
  4.80000000E+02  4.20000000E+01  0.00000000E+00
  4.80000000E+02  4.00000000E+01  0.00000000E+00
  4.80000000E+02  3.80000000E+01  0.00000000E+00
  4.80000000E+02  3.60000000E+01  0.00000000E+00
  4.80000000E+02  3.40000000E+01  0.00000000E+00
  4.80000000E+02  3.20000000E+01  0.00000000E+00
  4.80000000E+02  3.00000000E+01  0.00000000E+00
  4.80000000E+02  2.80000000E+01  0.00000000E+00
  4.80000000E+02  2.60000000E+01  0.00000000E+00
  4.80000000E+02  2.40000000E+01  0.00000000E+00
  4.80000000E+02  2.20000000E+01  0.00000000E+00
  4.80000000E+02  2.00000000E+01  0.00000000E+00
  4.80000000E+02  1.80000000E+01  0.00000000E+00
  4.80000000E+02  1.60000000E+01  0.00000000E+00
  4.80000000E+02  1.40000000E+01  0.00000000E+00
  4.80000000E+02  1.20000000E+01  0.00000000E+00
  4.80000000E+02  1.00000000E+01  0.00000000E+00
  4.80000000E+02  8.00000000E+00  0.00000000E+00
  4.80000000E+02  6.00000000E+00  0.00000000E+00
  4.80000000E+02  4.00000000E+00  0.00000000E+00
  4.80000000E+02  2.00000000E+00  0.00000000E+00
  4.80000000E+02 -3.33066907E-14  0.00000000E+00
  4.90000000E+02  1.00000000E+02  0.00000000E+00
  4.90000000E+02  9.80000000E+01  0.00000000E+00
  4.90000000E+02  9.60000000E+01  0.00000000E+00
  4.90000000E+02  9.40000000E+01  0.00000000E+00
  4.90000000E+02  9.20000000E+01  0.00000000E+00
  4.90000000E+02  9.00000000E+01  0.00000000E+00
  4.90000000E+02  8.80000000E+01  0.00000000E+00
  4.90000000E+02  8.60000000E+01  0.00000000E+00
  4.90000000E+02  8.40000000E+01  0.00000000E+00
  4.90000000E+02  8.20000000E+01  0.00000000E+00
  4.90000000E+02  8.00000000E+01  0.00000000E+00
  4.90000000E+02  7.80000000E+01  0.00000000E+00
  4.90000000E+02  7.60000000E+01  0.00000000E+00
  4.90000000E+02  7.40000000E+01  0.00000000E+00
  4.90000000E+02  7.20000000E+01  0.00000000E+00
  4.90000000E+02  7.00000000E+01  0.00000000E+00
  4.90000000E+02  6.80000000E+01  0.00000000E+00
  4.90000000E+02  6.60000000E+01  0.00000000E+00
  4.90000000E+02  6.40000000E+01  0.00000000E+00
  4.90000000E+02  6.20000000E+01  0.00000000E+00
  4.90000000E+02  6.00000000E+01  0.00000000E+00
  4.90000000E+02  5.80000000E+01  0.00000000E+00
  4.90000000E+02  5.60000000E+01  0.00000000E+00
  4.90000000E+02  5.40000000E+01  0.00000000E+00
  4.90000000E+02  5.20000000E+01  0.00000000E+00
  4.90000000E+02  5.00000000E+01  0.00000000E+00
  4.90000000E+02  4.80000000E+01  0.00000000E+00
  4.90000000E+02  4.60000000E+01  0.00000000E+00
  4.90000000E+02  4.40000000E+01  0.00000000E+00
  4.90000000E+02  4.20000000E+01  0.00000000E+00
  4.90000000E+02  4.00000000E+01  0.00000000E+00
  4.90000000E+02  3.80000000E+01  0.00000000E+00
  4.90000000E+02  3.60000000E+01  0.00000000E+00
  4.90000000E+02  3.40000000E+01  0.00000000E+00
  4.90000000E+02  3.20000000E+01  0.00000000E+00
  4.90000000E+02  3.00000000E+01  0.00000000E+00
  4.90000000E+02  2.80000000E+01  0.00000000E+00
  4.90000000E+02  2.60000000E+01  0.00000000E+00
  4.90000000E+02  2.40000000E+01  0.00000000E+00
  4.90000000E+02  2.20000000E+01  0.00000000E+00
  4.90000000E+02  2.00000000E+01  0.00000000E+00
  4.90000000E+02  1.80000000E+01  0.00000000E+00
  4.90000000E+02  1.60000000E+01  0.00000000E+00
  4.90000000E+02  1.40000000E+01  0.00000000E+00
  4.90000000E+02  1.20000000E+01  0.00000000E+00
  4.90000000E+02  1.00000000E+01  0.00000000E+00
  4.90000000E+02  8.00000000E+00  0.00000000E+00
  4.90000000E+02  6.00000000E+00  0.00000000E+00
  4.90000000E+02  4.00000000E+00  0.00000000E+00
  4.90000000E+02  2.00000000E+00  0.00000000E+00
  4.90000000E+02 -3.33066907E-14  0.00000000E+00
  5.00000000E+02  1.00000000E+02  0.00000000E+00
  5.00000000E+02  9.80000000E+01  0.00000000E+00
  5.00000000E+02  9.60000000E+01  0.00000000E+00
  5.00000000E+02  9.40000000E+01  0.00000000E+00
  5.00000000E+02  9.20000000E+01  0.00000000E+00
  5.00000000E+02  9.00000000E+01  0.00000000E+00
  5.00000000E+02  8.80000000E+01  0.00000000E+00
  5.00000000E+02  8.60000000E+01  0.00000000E+00
  5.00000000E+02  8.40000000E+01  0.00000000E+00
  5.00000000E+02  8.20000000E+01  0.00000000E+00
  5.00000000E+02  8.00000000E+01  0.00000000E+00
  5.00000000E+02  7.80000000E+01  0.00000000E+00
  5.00000000E+02  7.60000000E+01  0.00000000E+00
  5.00000000E+02  7.40000000E+01  0.00000000E+00
  5.00000000E+02  7.20000000E+01  0.00000000E+00
  5.00000000E+02  7.00000000E+01  0.00000000E+00
  5.00000000E+02  6.80000000E+01  0.00000000E+00
  5.00000000E+02  6.60000000E+01  0.00000000E+00
  5.00000000E+02  6.40000000E+01  0.00000000E+00
  5.00000000E+02  6.20000000E+01  0.00000000E+00
  5.00000000E+02  6.00000000E+01  0.00000000E+00
  5.00000000E+02  5.80000000E+01  0.00000000E+00
  5.00000000E+02  5.60000000E+01  0.00000000E+00
  5.00000000E+02  5.40000000E+01  0.00000000E+00
  5.00000000E+02  5.20000000E+01  0.00000000E+00
  5.00000000E+02  5.00000000E+01  0.00000000E+00
  5.00000000E+02  4.80000000E+01  0.00000000E+00
  5.00000000E+02  4.60000000E+01  0.00000000E+00
  5.00000000E+02  4.40000000E+01  0.00000000E+00
  5.00000000E+02  4.20000000E+01  0.00000000E+00
  5.00000000E+02  4.00000000E+01  0.00000000E+00
  5.00000000E+02  3.80000000E+01  0.00000000E+00
  5.00000000E+02  3.60000000E+01  0.00000000E+00
  5.00000000E+02  3.40000000E+01  0.00000000E+00
  5.00000000E+02  3.20000000E+01  0.00000000E+00
  5.00000000E+02  3.00000000E+01  0.00000000E+00
  5.00000000E+02  2.80000000E+01  0.00000000E+00
  5.00000000E+02  2.60000000E+01  0.00000000E+00
  5.00000000E+02  2.40000000E+01  0.00000000E+00
  5.00000000E+02  2.20000000E+01  0.00000000E+00
  5.00000000E+02  2.00000000E+01  0.00000000E+00
  5.00000000E+02  1.80000000E+01  0.00000000E+00
  5.00000000E+02  1.60000000E+01  0.00000000E+00
  5.00000000E+02  1.40000000E+01  0.00000000E+00
  5.00000000E+02  1.20000000E+01  0.00000000E+00
  5.00000000E+02  1.00000000E+01  0.00000000E+00
  5.00000000E+02  8.00000000E+00  0.00000000E+00
  5.00000000E+02  6.00000000E+00  0.00000000E+00
  5.00000000E+02  4.00000000E+00  0.00000000E+00
  5.00000000E+02  2.00000000E+00  0.00000000E+00
  5.00000000E+02 -3.33066907E-14  0.00000000E+00
  5.10000000E+02  1.00000000E+02  0.00000000E+00
  5.10000000E+02  9.80000000E+01  0.00000000E+00
  5.10000000E+02  9.60000000E+01  0.00000000E+00
  5.10000000E+02  9.40000000E+01  0.00000000E+00
  5.10000000E+02  9.20000000E+01  0.00000000E+00
  5.10000000E+02  9.00000000E+01  0.00000000E+00
  5.10000000E+02  8.80000000E+01  0.00000000E+00
  5.10000000E+02  8.60000000E+01  0.00000000E+00
  5.10000000E+02  8.40000000E+01  0.00000000E+00
  5.10000000E+02  8.20000000E+01  0.00000000E+00
  5.10000000E+02  8.00000000E+01  0.00000000E+00
  5.10000000E+02  7.80000000E+01  0.00000000E+00
  5.10000000E+02  7.60000000E+01  0.00000000E+00
  5.10000000E+02  7.40000000E+01  0.00000000E+00
  5.10000000E+02  7.20000000E+01  0.00000000E+00
  5.10000000E+02  7.00000000E+01  0.00000000E+00
  5.10000000E+02  6.80000000E+01  0.00000000E+00
  5.10000000E+02  6.60000000E+01  0.00000000E+00
  5.10000000E+02  6.40000000E+01  0.00000000E+00
  5.10000000E+02  6.20000000E+01  0.00000000E+00
  5.10000000E+02  6.00000000E+01  0.00000000E+00
  5.10000000E+02  5.80000000E+01  0.00000000E+00
  5.10000000E+02  5.60000000E+01  0.00000000E+00
  5.10000000E+02  5.40000000E+01  0.00000000E+00
  5.10000000E+02  5.20000000E+01  0.00000000E+00
  5.10000000E+02  5.00000000E+01  0.00000000E+00
  5.10000000E+02  4.80000000E+01  0.00000000E+00
  5.10000000E+02  4.60000000E+01  0.00000000E+00
  5.10000000E+02  4.40000000E+01  0.00000000E+00
  5.10000000E+02  4.20000000E+01  0.00000000E+00
  5.10000000E+02  4.00000000E+01  0.00000000E+00
  5.10000000E+02  3.80000000E+01  0.00000000E+00
  5.10000000E+02  3.60000000E+01  0.00000000E+00
  5.10000000E+02  3.40000000E+01  0.00000000E+00
  5.10000000E+02  3.20000000E+01  0.00000000E+00
  5.10000000E+02  3.00000000E+01  0.00000000E+00
  5.10000000E+02  2.80000000E+01  0.00000000E+00
  5.10000000E+02  2.60000000E+01  0.00000000E+00
  5.10000000E+02  2.40000000E+01  0.00000000E+00
  5.10000000E+02  2.20000000E+01  0.00000000E+00
  5.10000000E+02  2.00000000E+01  0.00000000E+00
  5.10000000E+02  1.80000000E+01  0.00000000E+00
  5.10000000E+02  1.60000000E+01  0.00000000E+00
  5.10000000E+02  1.40000000E+01  0.00000000E+00
  5.10000000E+02  1.20000000E+01  0.00000000E+00
  5.10000000E+02  1.00000000E+01  0.00000000E+00
  5.10000000E+02  8.00000000E+00  0.00000000E+00
  5.10000000E+02  6.00000000E+00  0.00000000E+00
  5.10000000E+02  4.00000000E+00  0.00000000E+00
  5.10000000E+02  2.00000000E+00  0.00000000E+00
  5.10000000E+02 -3.33066907E-14  0.00000000E+00
  5.20000000E+02  1.00000000E+02  0.00000000E+00
  5.20000000E+02  9.80000000E+01  0.00000000E+00
  5.20000000E+02  9.60000000E+01  0.00000000E+00
  5.20000000E+02  9.40000000E+01  0.00000000E+00
  5.20000000E+02  9.20000000E+01  0.00000000E+00
  5.20000000E+02  9.00000000E+01  0.00000000E+00
  5.20000000E+02  8.80000000E+01  0.00000000E+00
  5.20000000E+02  8.60000000E+01  0.00000000E+00
  5.20000000E+02  8.40000000E+01  0.00000000E+00
  5.20000000E+02  8.20000000E+01  0.00000000E+00
  5.20000000E+02  8.00000000E+01  0.00000000E+00
  5.20000000E+02  7.80000000E+01  0.00000000E+00
  5.20000000E+02  7.60000000E+01  0.00000000E+00
  5.20000000E+02  7.40000000E+01  0.00000000E+00
  5.20000000E+02  7.20000000E+01  0.00000000E+00
  5.20000000E+02  7.00000000E+01  0.00000000E+00
  5.20000000E+02  6.80000000E+01  0.00000000E+00
  5.20000000E+02  6.60000000E+01  0.00000000E+00
  5.20000000E+02  6.40000000E+01  0.00000000E+00
  5.20000000E+02  6.20000000E+01  0.00000000E+00
  5.20000000E+02  6.00000000E+01  0.00000000E+00
  5.20000000E+02  5.80000000E+01  0.00000000E+00
  5.20000000E+02  5.60000000E+01  0.00000000E+00
  5.20000000E+02  5.40000000E+01  0.00000000E+00
  5.20000000E+02  5.20000000E+01  0.00000000E+00
  5.20000000E+02  5.00000000E+01  0.00000000E+00
  5.20000000E+02  4.80000000E+01  0.00000000E+00
  5.20000000E+02  4.60000000E+01  0.00000000E+00
  5.20000000E+02  4.40000000E+01  0.00000000E+00
  5.20000000E+02  4.20000000E+01  0.00000000E+00
  5.20000000E+02  4.00000000E+01  0.00000000E+00
  5.20000000E+02  3.80000000E+01  0.00000000E+00
  5.20000000E+02  3.60000000E+01  0.00000000E+00
  5.20000000E+02  3.40000000E+01  0.00000000E+00
  5.20000000E+02  3.20000000E+01  0.00000000E+00
  5.20000000E+02  3.00000000E+01  0.00000000E+00
  5.20000000E+02  2.80000000E+01  0.00000000E+00
  5.20000000E+02  2.60000000E+01  0.00000000E+00
  5.20000000E+02  2.40000000E+01  0.00000000E+00
  5.20000000E+02  2.20000000E+01  0.00000000E+00
  5.20000000E+02  2.00000000E+01  0.00000000E+00
  5.20000000E+02  1.80000000E+01  0.00000000E+00
  5.20000000E+02  1.60000000E+01  0.00000000E+00
  5.20000000E+02  1.40000000E+01  0.00000000E+00
  5.20000000E+02  1.20000000E+01  0.00000000E+00
  5.20000000E+02  1.00000000E+01  0.00000000E+00
  5.20000000E+02  8.00000000E+00  0.00000000E+00
  5.20000000E+02  6.00000000E+00  0.00000000E+00
  5.20000000E+02  4.00000000E+00  0.00000000E+00
  5.20000000E+02  2.00000000E+00  0.00000000E+00
  5.20000000E+02 -3.33066907E-14  0.00000000E+00
  5.30000000E+02  1.00000000E+02  0.00000000E+00
  5.30000000E+02  9.80000000E+01  0.00000000E+00
  5.30000000E+02  9.60000000E+01  0.00000000E+00
  5.30000000E+02  9.40000000E+01  0.00000000E+00
  5.30000000E+02  9.20000000E+01  0.00000000E+00
  5.30000000E+02  9.00000000E+01  0.00000000E+00
  5.30000000E+02  8.80000000E+01  0.00000000E+00
  5.30000000E+02  8.60000000E+01  0.00000000E+00
  5.30000000E+02  8.40000000E+01  0.00000000E+00
  5.30000000E+02  8.20000000E+01  0.00000000E+00
  5.30000000E+02  8.00000000E+01  0.00000000E+00
  5.30000000E+02  7.80000000E+01  0.00000000E+00
  5.30000000E+02  7.60000000E+01  0.00000000E+00
  5.30000000E+02  7.40000000E+01  0.00000000E+00
  5.30000000E+02  7.20000000E+01  0.00000000E+00
  5.30000000E+02  7.00000000E+01  0.00000000E+00
  5.30000000E+02  6.80000000E+01  0.00000000E+00
  5.30000000E+02  6.60000000E+01  0.00000000E+00
  5.30000000E+02  6.40000000E+01  0.00000000E+00
  5.30000000E+02  6.20000000E+01  0.00000000E+00
  5.30000000E+02  6.00000000E+01  0.00000000E+00
  5.30000000E+02  5.80000000E+01  0.00000000E+00
  5.30000000E+02  5.60000000E+01  0.00000000E+00
  5.30000000E+02  5.40000000E+01  0.00000000E+00
  5.30000000E+02  5.20000000E+01  0.00000000E+00
  5.30000000E+02  5.00000000E+01  0.00000000E+00
  5.30000000E+02  4.80000000E+01  0.00000000E+00
  5.30000000E+02  4.60000000E+01  0.00000000E+00
  5.30000000E+02  4.40000000E+01  0.00000000E+00
  5.30000000E+02  4.20000000E+01  0.00000000E+00
  5.30000000E+02  4.00000000E+01  0.00000000E+00
  5.30000000E+02  3.80000000E+01  0.00000000E+00
  5.30000000E+02  3.60000000E+01  0.00000000E+00
  5.30000000E+02  3.40000000E+01  0.00000000E+00
  5.30000000E+02  3.20000000E+01  0.00000000E+00
  5.30000000E+02  3.00000000E+01  0.00000000E+00
  5.30000000E+02  2.80000000E+01  0.00000000E+00
  5.30000000E+02  2.60000000E+01  0.00000000E+00
  5.30000000E+02  2.40000000E+01  0.00000000E+00
  5.30000000E+02  2.20000000E+01  0.00000000E+00
  5.30000000E+02  2.00000000E+01  0.00000000E+00
  5.30000000E+02  1.80000000E+01  0.00000000E+00
  5.30000000E+02  1.60000000E+01  0.00000000E+00
  5.30000000E+02  1.40000000E+01  0.00000000E+00
  5.30000000E+02  1.20000000E+01  0.00000000E+00
  5.30000000E+02  1.00000000E+01  0.00000000E+00
  5.30000000E+02  8.00000000E+00  0.00000000E+00
  5.30000000E+02  6.00000000E+00  0.00000000E+00
  5.30000000E+02  4.00000000E+00  0.00000000E+00
  5.30000000E+02  2.00000000E+00  0.00000000E+00
  5.30000000E+02 -3.33066907E-14  0.00000000E+00
  5.40000000E+02  1.00000000E+02  0.00000000E+00
  5.40000000E+02  9.80000000E+01  0.00000000E+00
  5.40000000E+02  9.60000000E+01  0.00000000E+00
  5.40000000E+02  9.40000000E+01  0.00000000E+00
  5.40000000E+02  9.20000000E+01  0.00000000E+00
  5.40000000E+02  9.00000000E+01  0.00000000E+00
  5.40000000E+02  8.80000000E+01  0.00000000E+00
  5.40000000E+02  8.60000000E+01  0.00000000E+00
  5.40000000E+02  8.40000000E+01  0.00000000E+00
  5.40000000E+02  8.20000000E+01  0.00000000E+00
  5.40000000E+02  8.00000000E+01  0.00000000E+00
  5.40000000E+02  7.80000000E+01  0.00000000E+00
  5.40000000E+02  7.60000000E+01  0.00000000E+00
  5.40000000E+02  7.40000000E+01  0.00000000E+00
  5.40000000E+02  7.20000000E+01  0.00000000E+00
  5.40000000E+02  7.00000000E+01  0.00000000E+00
  5.40000000E+02  6.80000000E+01  0.00000000E+00
  5.40000000E+02  6.60000000E+01  0.00000000E+00
  5.40000000E+02  6.40000000E+01  0.00000000E+00
  5.40000000E+02  6.20000000E+01  0.00000000E+00
  5.40000000E+02  6.00000000E+01  0.00000000E+00
  5.40000000E+02  5.80000000E+01  0.00000000E+00
  5.40000000E+02  5.60000000E+01  0.00000000E+00
  5.40000000E+02  5.40000000E+01  0.00000000E+00
  5.40000000E+02  5.20000000E+01  0.00000000E+00
  5.40000000E+02  5.00000000E+01  0.00000000E+00
  5.40000000E+02  4.80000000E+01  0.00000000E+00
  5.40000000E+02  4.60000000E+01  0.00000000E+00
  5.40000000E+02  4.40000000E+01  0.00000000E+00
  5.40000000E+02  4.20000000E+01  0.00000000E+00
  5.40000000E+02  4.00000000E+01  0.00000000E+00
  5.40000000E+02  3.80000000E+01  0.00000000E+00
  5.40000000E+02  3.60000000E+01  0.00000000E+00
  5.40000000E+02  3.40000000E+01  0.00000000E+00
  5.40000000E+02  3.20000000E+01  0.00000000E+00
  5.40000000E+02  3.00000000E+01  0.00000000E+00
  5.40000000E+02  2.80000000E+01  0.00000000E+00
  5.40000000E+02  2.60000000E+01  0.00000000E+00
  5.40000000E+02  2.40000000E+01  0.00000000E+00
  5.40000000E+02  2.20000000E+01  0.00000000E+00
  5.40000000E+02  2.00000000E+01  0.00000000E+00
  5.40000000E+02  1.80000000E+01  0.00000000E+00
  5.40000000E+02  1.60000000E+01  0.00000000E+00
  5.40000000E+02  1.40000000E+01  0.00000000E+00
  5.40000000E+02  1.20000000E+01  0.00000000E+00
  5.40000000E+02  1.00000000E+01  0.00000000E+00
  5.40000000E+02  8.00000000E+00  0.00000000E+00
  5.40000000E+02  6.00000000E+00  0.00000000E+00
  5.40000000E+02  4.00000000E+00  0.00000000E+00
  5.40000000E+02  2.00000000E+00  0.00000000E+00
  5.40000000E+02 -3.33066907E-14  0.00000000E+00
  5.50000000E+02  1.00000000E+02  0.00000000E+00
  5.50000000E+02  9.80000000E+01  0.00000000E+00
  5.50000000E+02  9.60000000E+01  0.00000000E+00
  5.50000000E+02  9.40000000E+01  0.00000000E+00
  5.50000000E+02  9.20000000E+01  0.00000000E+00
  5.50000000E+02  9.00000000E+01  0.00000000E+00
  5.50000000E+02  8.80000000E+01  0.00000000E+00
  5.50000000E+02  8.60000000E+01  0.00000000E+00
  5.50000000E+02  8.40000000E+01  0.00000000E+00
  5.50000000E+02  8.20000000E+01  0.00000000E+00
  5.50000000E+02  8.00000000E+01  0.00000000E+00
  5.50000000E+02  7.80000000E+01  0.00000000E+00
  5.50000000E+02  7.60000000E+01  0.00000000E+00
  5.50000000E+02  7.40000000E+01  0.00000000E+00
  5.50000000E+02  7.20000000E+01  0.00000000E+00
  5.50000000E+02  7.00000000E+01  0.00000000E+00
  5.50000000E+02  6.80000000E+01  0.00000000E+00
  5.50000000E+02  6.60000000E+01  0.00000000E+00
  5.50000000E+02  6.40000000E+01  0.00000000E+00
  5.50000000E+02  6.20000000E+01  0.00000000E+00
  5.50000000E+02  6.00000000E+01  0.00000000E+00
  5.50000000E+02  5.80000000E+01  0.00000000E+00
  5.50000000E+02  5.60000000E+01  0.00000000E+00
  5.50000000E+02  5.40000000E+01  0.00000000E+00
  5.50000000E+02  5.20000000E+01  0.00000000E+00
  5.50000000E+02  5.00000000E+01  0.00000000E+00
  5.50000000E+02  4.80000000E+01  0.00000000E+00
  5.50000000E+02  4.60000000E+01  0.00000000E+00
  5.50000000E+02  4.40000000E+01  0.00000000E+00
  5.50000000E+02  4.20000000E+01  0.00000000E+00
  5.50000000E+02  4.00000000E+01  0.00000000E+00
  5.50000000E+02  3.80000000E+01  0.00000000E+00
  5.50000000E+02  3.60000000E+01  0.00000000E+00
  5.50000000E+02  3.40000000E+01  0.00000000E+00
  5.50000000E+02  3.20000000E+01  0.00000000E+00
  5.50000000E+02  3.00000000E+01  0.00000000E+00
  5.50000000E+02  2.80000000E+01  0.00000000E+00
  5.50000000E+02  2.60000000E+01  0.00000000E+00
  5.50000000E+02  2.40000000E+01  0.00000000E+00
  5.50000000E+02  2.20000000E+01  0.00000000E+00
  5.50000000E+02  2.00000000E+01  0.00000000E+00
  5.50000000E+02  1.80000000E+01  0.00000000E+00
  5.50000000E+02  1.60000000E+01  0.00000000E+00
  5.50000000E+02  1.40000000E+01  0.00000000E+00
  5.50000000E+02  1.20000000E+01  0.00000000E+00
  5.50000000E+02  1.00000000E+01  0.00000000E+00
  5.50000000E+02  8.00000000E+00  0.00000000E+00
  5.50000000E+02  6.00000000E+00  0.00000000E+00
  5.50000000E+02  4.00000000E+00  0.00000000E+00
  5.50000000E+02  2.00000000E+00  0.00000000E+00
  5.50000000E+02 -3.33066907E-14  0.00000000E+00
  5.60000000E+02  1.00000000E+02  0.00000000E+00
  5.60000000E+02  9.80000000E+01  0.00000000E+00
  5.60000000E+02  9.60000000E+01  0.00000000E+00
  5.60000000E+02  9.40000000E+01  0.00000000E+00
  5.60000000E+02  9.20000000E+01  0.00000000E+00
  5.60000000E+02  9.00000000E+01  0.00000000E+00
  5.60000000E+02  8.80000000E+01  0.00000000E+00
  5.60000000E+02  8.60000000E+01  0.00000000E+00
  5.60000000E+02  8.40000000E+01  0.00000000E+00
  5.60000000E+02  8.20000000E+01  0.00000000E+00
  5.60000000E+02  8.00000000E+01  0.00000000E+00
  5.60000000E+02  7.80000000E+01  0.00000000E+00
  5.60000000E+02  7.60000000E+01  0.00000000E+00
  5.60000000E+02  7.40000000E+01  0.00000000E+00
  5.60000000E+02  7.20000000E+01  0.00000000E+00
  5.60000000E+02  7.00000000E+01  0.00000000E+00
  5.60000000E+02  6.80000000E+01  0.00000000E+00
  5.60000000E+02  6.60000000E+01  0.00000000E+00
  5.60000000E+02  6.40000000E+01  0.00000000E+00
  5.60000000E+02  6.20000000E+01  0.00000000E+00
  5.60000000E+02  6.00000000E+01  0.00000000E+00
  5.60000000E+02  5.80000000E+01  0.00000000E+00
  5.60000000E+02  5.60000000E+01  0.00000000E+00
  5.60000000E+02  5.40000000E+01  0.00000000E+00
  5.60000000E+02  5.20000000E+01  0.00000000E+00
  5.60000000E+02  5.00000000E+01  0.00000000E+00
  5.60000000E+02  4.80000000E+01  0.00000000E+00
  5.60000000E+02  4.60000000E+01  0.00000000E+00
  5.60000000E+02  4.40000000E+01  0.00000000E+00
  5.60000000E+02  4.20000000E+01  0.00000000E+00
  5.60000000E+02  4.00000000E+01  0.00000000E+00
  5.60000000E+02  3.80000000E+01  0.00000000E+00
  5.60000000E+02  3.60000000E+01  0.00000000E+00
  5.60000000E+02  3.40000000E+01  0.00000000E+00
  5.60000000E+02  3.20000000E+01  0.00000000E+00
  5.60000000E+02  3.00000000E+01  0.00000000E+00
  5.60000000E+02  2.80000000E+01  0.00000000E+00
  5.60000000E+02  2.60000000E+01  0.00000000E+00
  5.60000000E+02  2.40000000E+01  0.00000000E+00
  5.60000000E+02  2.20000000E+01  0.00000000E+00
  5.60000000E+02  2.00000000E+01  0.00000000E+00
  5.60000000E+02  1.80000000E+01  0.00000000E+00
  5.60000000E+02  1.60000000E+01  0.00000000E+00
  5.60000000E+02  1.40000000E+01  0.00000000E+00
  5.60000000E+02  1.20000000E+01  0.00000000E+00
  5.60000000E+02  1.00000000E+01  0.00000000E+00
  5.60000000E+02  8.00000000E+00  0.00000000E+00
  5.60000000E+02  6.00000000E+00  0.00000000E+00
  5.60000000E+02  4.00000000E+00  0.00000000E+00
  5.60000000E+02  2.00000000E+00  0.00000000E+00
  5.60000000E+02 -3.33066907E-14  0.00000000E+00
  5.70000000E+02  1.00000000E+02  0.00000000E+00
  5.70000000E+02  9.80000000E+01  0.00000000E+00
  5.70000000E+02  9.60000000E+01  0.00000000E+00
  5.70000000E+02  9.40000000E+01  0.00000000E+00
  5.70000000E+02  9.20000000E+01  0.00000000E+00
  5.70000000E+02  9.00000000E+01  0.00000000E+00
  5.70000000E+02  8.80000000E+01  0.00000000E+00
  5.70000000E+02  8.60000000E+01  0.00000000E+00
  5.70000000E+02  8.40000000E+01  0.00000000E+00
  5.70000000E+02  8.20000000E+01  0.00000000E+00
  5.70000000E+02  8.00000000E+01  0.00000000E+00
  5.70000000E+02  7.80000000E+01  0.00000000E+00
  5.70000000E+02  7.60000000E+01  0.00000000E+00
  5.70000000E+02  7.40000000E+01  0.00000000E+00
  5.70000000E+02  7.20000000E+01  0.00000000E+00
  5.70000000E+02  7.00000000E+01  0.00000000E+00
  5.70000000E+02  6.80000000E+01  0.00000000E+00
  5.70000000E+02  6.60000000E+01  0.00000000E+00
  5.70000000E+02  6.40000000E+01  0.00000000E+00
  5.70000000E+02  6.20000000E+01  0.00000000E+00
  5.70000000E+02  6.00000000E+01  0.00000000E+00
  5.70000000E+02  5.80000000E+01  0.00000000E+00
  5.70000000E+02  5.60000000E+01  0.00000000E+00
  5.70000000E+02  5.40000000E+01  0.00000000E+00
  5.70000000E+02  5.20000000E+01  0.00000000E+00
  5.70000000E+02  5.00000000E+01  0.00000000E+00
  5.70000000E+02  4.80000000E+01  0.00000000E+00
  5.70000000E+02  4.60000000E+01  0.00000000E+00
  5.70000000E+02  4.40000000E+01  0.00000000E+00
  5.70000000E+02  4.20000000E+01  0.00000000E+00
  5.70000000E+02  4.00000000E+01  0.00000000E+00
  5.70000000E+02  3.80000000E+01  0.00000000E+00
  5.70000000E+02  3.60000000E+01  0.00000000E+00
  5.70000000E+02  3.40000000E+01  0.00000000E+00
  5.70000000E+02  3.20000000E+01  0.00000000E+00
  5.70000000E+02  3.00000000E+01  0.00000000E+00
  5.70000000E+02  2.80000000E+01  0.00000000E+00
  5.70000000E+02  2.60000000E+01  0.00000000E+00
  5.70000000E+02  2.40000000E+01  0.00000000E+00
  5.70000000E+02  2.20000000E+01  0.00000000E+00
  5.70000000E+02  2.00000000E+01  0.00000000E+00
  5.70000000E+02  1.80000000E+01  0.00000000E+00
  5.70000000E+02  1.60000000E+01  0.00000000E+00
  5.70000000E+02  1.40000000E+01  0.00000000E+00
  5.70000000E+02  1.20000000E+01  0.00000000E+00
  5.70000000E+02  1.00000000E+01  0.00000000E+00
  5.70000000E+02  8.00000000E+00  0.00000000E+00
  5.70000000E+02  6.00000000E+00  0.00000000E+00
  5.70000000E+02  4.00000000E+00  0.00000000E+00
  5.70000000E+02  2.00000000E+00  0.00000000E+00
  5.70000000E+02 -3.33066907E-14  0.00000000E+00
  5.80000000E+02  1.00000000E+02  0.00000000E+00
  5.80000000E+02  9.80000000E+01  0.00000000E+00
  5.80000000E+02  9.60000000E+01  0.00000000E+00
  5.80000000E+02  9.40000000E+01  0.00000000E+00
  5.80000000E+02  9.20000000E+01  0.00000000E+00
  5.80000000E+02  9.00000000E+01  0.00000000E+00
  5.80000000E+02  8.80000000E+01  0.00000000E+00
  5.80000000E+02  8.60000000E+01  0.00000000E+00
  5.80000000E+02  8.40000000E+01  0.00000000E+00
  5.80000000E+02  8.20000000E+01  0.00000000E+00
  5.80000000E+02  8.00000000E+01  0.00000000E+00
  5.80000000E+02  7.80000000E+01  0.00000000E+00
  5.80000000E+02  7.60000000E+01  0.00000000E+00
  5.80000000E+02  7.40000000E+01  0.00000000E+00
  5.80000000E+02  7.20000000E+01  0.00000000E+00
  5.80000000E+02  7.00000000E+01  0.00000000E+00
  5.80000000E+02  6.80000000E+01  0.00000000E+00
  5.80000000E+02  6.60000000E+01  0.00000000E+00
  5.80000000E+02  6.40000000E+01  0.00000000E+00
  5.80000000E+02  6.20000000E+01  0.00000000E+00
  5.80000000E+02  6.00000000E+01  0.00000000E+00
  5.80000000E+02  5.80000000E+01  0.00000000E+00
  5.80000000E+02  5.60000000E+01  0.00000000E+00
  5.80000000E+02  5.40000000E+01  0.00000000E+00
  5.80000000E+02  5.20000000E+01  0.00000000E+00
  5.80000000E+02  5.00000000E+01  0.00000000E+00
  5.80000000E+02  4.80000000E+01  0.00000000E+00
  5.80000000E+02  4.60000000E+01  0.00000000E+00
  5.80000000E+02  4.40000000E+01  0.00000000E+00
  5.80000000E+02  4.20000000E+01  0.00000000E+00
  5.80000000E+02  4.00000000E+01  0.00000000E+00
  5.80000000E+02  3.80000000E+01  0.00000000E+00
  5.80000000E+02  3.60000000E+01  0.00000000E+00
  5.80000000E+02  3.40000000E+01  0.00000000E+00
  5.80000000E+02  3.20000000E+01  0.00000000E+00
  5.80000000E+02  3.00000000E+01  0.00000000E+00
  5.80000000E+02  2.80000000E+01  0.00000000E+00
  5.80000000E+02  2.60000000E+01  0.00000000E+00
  5.80000000E+02  2.40000000E+01  0.00000000E+00
  5.80000000E+02  2.20000000E+01  0.00000000E+00
  5.80000000E+02  2.00000000E+01  0.00000000E+00
  5.80000000E+02  1.80000000E+01  0.00000000E+00
  5.80000000E+02  1.60000000E+01  0.00000000E+00
  5.80000000E+02  1.40000000E+01  0.00000000E+00
  5.80000000E+02  1.20000000E+01  0.00000000E+00
  5.80000000E+02  1.00000000E+01  0.00000000E+00
  5.80000000E+02  8.00000000E+00  0.00000000E+00
  5.80000000E+02  6.00000000E+00  0.00000000E+00
  5.80000000E+02  4.00000000E+00  0.00000000E+00
  5.80000000E+02  2.00000000E+00  0.00000000E+00
  5.80000000E+02 -3.33066907E-14  0.00000000E+00
  5.90000000E+02  1.00000000E+02  0.00000000E+00
  5.90000000E+02  9.80000000E+01  0.00000000E+00
  5.90000000E+02  9.60000000E+01  0.00000000E+00
  5.90000000E+02  9.40000000E+01  0.00000000E+00
  5.90000000E+02  9.20000000E+01  0.00000000E+00
  5.90000000E+02  9.00000000E+01  0.00000000E+00
  5.90000000E+02  8.80000000E+01  0.00000000E+00
  5.90000000E+02  8.60000000E+01  0.00000000E+00
  5.90000000E+02  8.40000000E+01  0.00000000E+00
  5.90000000E+02  8.20000000E+01  0.00000000E+00
  5.90000000E+02  8.00000000E+01  0.00000000E+00
  5.90000000E+02  7.80000000E+01  0.00000000E+00
  5.90000000E+02  7.60000000E+01  0.00000000E+00
  5.90000000E+02  7.40000000E+01  0.00000000E+00
  5.90000000E+02  7.20000000E+01  0.00000000E+00
  5.90000000E+02  7.00000000E+01  0.00000000E+00
  5.90000000E+02  6.80000000E+01  0.00000000E+00
  5.90000000E+02  6.60000000E+01  0.00000000E+00
  5.90000000E+02  6.40000000E+01  0.00000000E+00
  5.90000000E+02  6.20000000E+01  0.00000000E+00
  5.90000000E+02  6.00000000E+01  0.00000000E+00
  5.90000000E+02  5.80000000E+01  0.00000000E+00
  5.90000000E+02  5.60000000E+01  0.00000000E+00
  5.90000000E+02  5.40000000E+01  0.00000000E+00
  5.90000000E+02  5.20000000E+01  0.00000000E+00
  5.90000000E+02  5.00000000E+01  0.00000000E+00
  5.90000000E+02  4.80000000E+01  0.00000000E+00
  5.90000000E+02  4.60000000E+01  0.00000000E+00
  5.90000000E+02  4.40000000E+01  0.00000000E+00
  5.90000000E+02  4.20000000E+01  0.00000000E+00
  5.90000000E+02  4.00000000E+01  0.00000000E+00
  5.90000000E+02  3.80000000E+01  0.00000000E+00
  5.90000000E+02  3.60000000E+01  0.00000000E+00
  5.90000000E+02  3.40000000E+01  0.00000000E+00
  5.90000000E+02  3.20000000E+01  0.00000000E+00
  5.90000000E+02  3.00000000E+01  0.00000000E+00
  5.90000000E+02  2.80000000E+01  0.00000000E+00
  5.90000000E+02  2.60000000E+01  0.00000000E+00
  5.90000000E+02  2.40000000E+01  0.00000000E+00
  5.90000000E+02  2.20000000E+01  0.00000000E+00
  5.90000000E+02  2.00000000E+01  0.00000000E+00
  5.90000000E+02  1.80000000E+01  0.00000000E+00
  5.90000000E+02  1.60000000E+01  0.00000000E+00
  5.90000000E+02  1.40000000E+01  0.00000000E+00
  5.90000000E+02  1.20000000E+01  0.00000000E+00
  5.90000000E+02  1.00000000E+01  0.00000000E+00
  5.90000000E+02  8.00000000E+00  0.00000000E+00
  5.90000000E+02  6.00000000E+00  0.00000000E+00
  5.90000000E+02  4.00000000E+00  0.00000000E+00
  5.90000000E+02  2.00000000E+00  0.00000000E+00
  5.90000000E+02 -3.33066907E-14  0.00000000E+00
  6.00000000E+02  1.00000000E+02  0.00000000E+00
  6.00000000E+02  9.80000000E+01  0.00000000E+00
  6.00000000E+02  9.60000000E+01  0.00000000E+00
  6.00000000E+02  9.40000000E+01  0.00000000E+00
  6.00000000E+02  9.20000000E+01  0.00000000E+00
  6.00000000E+02  9.00000000E+01  0.00000000E+00
  6.00000000E+02  8.80000000E+01  0.00000000E+00
  6.00000000E+02  8.60000000E+01  0.00000000E+00
  6.00000000E+02  8.40000000E+01  0.00000000E+00
  6.00000000E+02  8.20000000E+01  0.00000000E+00
  6.00000000E+02  8.00000000E+01  0.00000000E+00
  6.00000000E+02  7.80000000E+01  0.00000000E+00
  6.00000000E+02  7.60000000E+01  0.00000000E+00
  6.00000000E+02  7.40000000E+01  0.00000000E+00
  6.00000000E+02  7.20000000E+01  0.00000000E+00
  6.00000000E+02  7.00000000E+01  0.00000000E+00
  6.00000000E+02  6.80000000E+01  0.00000000E+00
  6.00000000E+02  6.60000000E+01  0.00000000E+00
  6.00000000E+02  6.40000000E+01  0.00000000E+00
  6.00000000E+02  6.20000000E+01  0.00000000E+00
  6.00000000E+02  6.00000000E+01  0.00000000E+00
  6.00000000E+02  5.80000000E+01  0.00000000E+00
  6.00000000E+02  5.60000000E+01  0.00000000E+00
  6.00000000E+02  5.40000000E+01  0.00000000E+00
  6.00000000E+02  5.20000000E+01  0.00000000E+00
  6.00000000E+02  5.00000000E+01  0.00000000E+00
  6.00000000E+02  4.80000000E+01  0.00000000E+00
  6.00000000E+02  4.60000000E+01  0.00000000E+00
  6.00000000E+02  4.40000000E+01  0.00000000E+00
  6.00000000E+02  4.20000000E+01  0.00000000E+00
  6.00000000E+02  4.00000000E+01  0.00000000E+00
  6.00000000E+02  3.80000000E+01  0.00000000E+00
  6.00000000E+02  3.60000000E+01  0.00000000E+00
  6.00000000E+02  3.40000000E+01  0.00000000E+00
  6.00000000E+02  3.20000000E+01  0.00000000E+00
  6.00000000E+02  3.00000000E+01  0.00000000E+00
  6.00000000E+02  2.80000000E+01  0.00000000E+00
  6.00000000E+02  2.60000000E+01  0.00000000E+00
  6.00000000E+02  2.40000000E+01  0.00000000E+00
  6.00000000E+02  2.20000000E+01  0.00000000E+00
  6.00000000E+02  2.00000000E+01  0.00000000E+00
  6.00000000E+02  1.80000000E+01  0.00000000E+00
  6.00000000E+02  1.60000000E+01  0.00000000E+00
  6.00000000E+02  1.40000000E+01  0.00000000E+00
  6.00000000E+02  1.20000000E+01  0.00000000E+00
  6.00000000E+02  1.00000000E+01  0.00000000E+00
  6.00000000E+02  8.00000000E+00  0.00000000E+00
  6.00000000E+02  6.00000000E+00  0.00000000E+00
  6.00000000E+02  4.00000000E+00  0.00000000E+00
  6.00000000E+02  2.00000000E+00  0.00000000E+00
  6.00000000E+02 -3.33066907E-14  0.00000000E+00
  6.10000000E+02  1.00000000E+02  0.00000000E+00
  6.10000000E+02  9.80000000E+01  0.00000000E+00
  6.10000000E+02  9.60000000E+01  0.00000000E+00
  6.10000000E+02  9.40000000E+01  0.00000000E+00
  6.10000000E+02  9.20000000E+01  0.00000000E+00
  6.10000000E+02  9.00000000E+01  0.00000000E+00
  6.10000000E+02  8.80000000E+01  0.00000000E+00
  6.10000000E+02  8.60000000E+01  0.00000000E+00
  6.10000000E+02  8.40000000E+01  0.00000000E+00
  6.10000000E+02  8.20000000E+01  0.00000000E+00
  6.10000000E+02  8.00000000E+01  0.00000000E+00
  6.10000000E+02  7.80000000E+01  0.00000000E+00
  6.10000000E+02  7.60000000E+01  0.00000000E+00
  6.10000000E+02  7.40000000E+01  0.00000000E+00
  6.10000000E+02  7.20000000E+01  0.00000000E+00
  6.10000000E+02  7.00000000E+01  0.00000000E+00
  6.10000000E+02  6.80000000E+01  0.00000000E+00
  6.10000000E+02  6.60000000E+01  0.00000000E+00
  6.10000000E+02  6.40000000E+01  0.00000000E+00
  6.10000000E+02  6.20000000E+01  0.00000000E+00
  6.10000000E+02  6.00000000E+01  0.00000000E+00
  6.10000000E+02  5.80000000E+01  0.00000000E+00
  6.10000000E+02  5.60000000E+01  0.00000000E+00
  6.10000000E+02  5.40000000E+01  0.00000000E+00
  6.10000000E+02  5.20000000E+01  0.00000000E+00
  6.10000000E+02  5.00000000E+01  0.00000000E+00
  6.10000000E+02  4.80000000E+01  0.00000000E+00
  6.10000000E+02  4.60000000E+01  0.00000000E+00
  6.10000000E+02  4.40000000E+01  0.00000000E+00
  6.10000000E+02  4.20000000E+01  0.00000000E+00
  6.10000000E+02  4.00000000E+01  0.00000000E+00
  6.10000000E+02  3.80000000E+01  0.00000000E+00
  6.10000000E+02  3.60000000E+01  0.00000000E+00
  6.10000000E+02  3.40000000E+01  0.00000000E+00
  6.10000000E+02  3.20000000E+01  0.00000000E+00
  6.10000000E+02  3.00000000E+01  0.00000000E+00
  6.10000000E+02  2.80000000E+01  0.00000000E+00
  6.10000000E+02  2.60000000E+01  0.00000000E+00
  6.10000000E+02  2.40000000E+01  0.00000000E+00
  6.10000000E+02  2.20000000E+01  0.00000000E+00
  6.10000000E+02  2.00000000E+01  0.00000000E+00
  6.10000000E+02  1.80000000E+01  0.00000000E+00
  6.10000000E+02  1.60000000E+01  0.00000000E+00
  6.10000000E+02  1.40000000E+01  0.00000000E+00
  6.10000000E+02  1.20000000E+01  0.00000000E+00
  6.10000000E+02  1.00000000E+01  0.00000000E+00
  6.10000000E+02  8.00000000E+00  0.00000000E+00
  6.10000000E+02  6.00000000E+00  0.00000000E+00
  6.10000000E+02  4.00000000E+00  0.00000000E+00
  6.10000000E+02  2.00000000E+00  0.00000000E+00
  6.10000000E+02 -3.33066907E-14  0.00000000E+00
  6.20000000E+02  1.00000000E+02  0.00000000E+00
  6.20000000E+02  9.80000000E+01  0.00000000E+00
  6.20000000E+02  9.60000000E+01  0.00000000E+00
  6.20000000E+02  9.40000000E+01  0.00000000E+00
  6.20000000E+02  9.20000000E+01  0.00000000E+00
  6.20000000E+02  9.00000000E+01  0.00000000E+00
  6.20000000E+02  8.80000000E+01  0.00000000E+00
  6.20000000E+02  8.60000000E+01  0.00000000E+00
  6.20000000E+02  8.40000000E+01  0.00000000E+00
  6.20000000E+02  8.20000000E+01  0.00000000E+00
  6.20000000E+02  8.00000000E+01  0.00000000E+00
  6.20000000E+02  7.80000000E+01  0.00000000E+00
  6.20000000E+02  7.60000000E+01  0.00000000E+00
  6.20000000E+02  7.40000000E+01  0.00000000E+00
  6.20000000E+02  7.20000000E+01  0.00000000E+00
  6.20000000E+02  7.00000000E+01  0.00000000E+00
  6.20000000E+02  6.80000000E+01  0.00000000E+00
  6.20000000E+02  6.60000000E+01  0.00000000E+00
  6.20000000E+02  6.40000000E+01  0.00000000E+00
  6.20000000E+02  6.20000000E+01  0.00000000E+00
  6.20000000E+02  6.00000000E+01  0.00000000E+00
  6.20000000E+02  5.80000000E+01  0.00000000E+00
  6.20000000E+02  5.60000000E+01  0.00000000E+00
  6.20000000E+02  5.40000000E+01  0.00000000E+00
  6.20000000E+02  5.20000000E+01  0.00000000E+00
  6.20000000E+02  5.00000000E+01  0.00000000E+00
  6.20000000E+02  4.80000000E+01  0.00000000E+00
  6.20000000E+02  4.60000000E+01  0.00000000E+00
  6.20000000E+02  4.40000000E+01  0.00000000E+00
  6.20000000E+02  4.20000000E+01  0.00000000E+00
  6.20000000E+02  4.00000000E+01  0.00000000E+00
  6.20000000E+02  3.80000000E+01  0.00000000E+00
  6.20000000E+02  3.60000000E+01  0.00000000E+00
  6.20000000E+02  3.40000000E+01  0.00000000E+00
  6.20000000E+02  3.20000000E+01  0.00000000E+00
  6.20000000E+02  3.00000000E+01  0.00000000E+00
  6.20000000E+02  2.80000000E+01  0.00000000E+00
  6.20000000E+02  2.60000000E+01  0.00000000E+00
  6.20000000E+02  2.40000000E+01  0.00000000E+00
  6.20000000E+02  2.20000000E+01  0.00000000E+00
  6.20000000E+02  2.00000000E+01  0.00000000E+00
  6.20000000E+02  1.80000000E+01  0.00000000E+00
  6.20000000E+02  1.60000000E+01  0.00000000E+00
  6.20000000E+02  1.40000000E+01  0.00000000E+00
  6.20000000E+02  1.20000000E+01  0.00000000E+00
  6.20000000E+02  1.00000000E+01  0.00000000E+00
  6.20000000E+02  8.00000000E+00  0.00000000E+00
  6.20000000E+02  6.00000000E+00  0.00000000E+00
  6.20000000E+02  4.00000000E+00  0.00000000E+00
  6.20000000E+02  2.00000000E+00  0.00000000E+00
  6.20000000E+02 -3.33066907E-14  0.00000000E+00
  6.30000000E+02  1.00000000E+02  0.00000000E+00
  6.30000000E+02  9.80000000E+01  0.00000000E+00
  6.30000000E+02  9.60000000E+01  0.00000000E+00
  6.30000000E+02  9.40000000E+01  0.00000000E+00
  6.30000000E+02  9.20000000E+01  0.00000000E+00
  6.30000000E+02  9.00000000E+01  0.00000000E+00
  6.30000000E+02  8.80000000E+01  0.00000000E+00
  6.30000000E+02  8.60000000E+01  0.00000000E+00
  6.30000000E+02  8.40000000E+01  0.00000000E+00
  6.30000000E+02  8.20000000E+01  0.00000000E+00
  6.30000000E+02  8.00000000E+01  0.00000000E+00
  6.30000000E+02  7.80000000E+01  0.00000000E+00
  6.30000000E+02  7.60000000E+01  0.00000000E+00
  6.30000000E+02  7.40000000E+01  0.00000000E+00
  6.30000000E+02  7.20000000E+01  0.00000000E+00
  6.30000000E+02  7.00000000E+01  0.00000000E+00
  6.30000000E+02  6.80000000E+01  0.00000000E+00
  6.30000000E+02  6.60000000E+01  0.00000000E+00
  6.30000000E+02  6.40000000E+01  0.00000000E+00
  6.30000000E+02  6.20000000E+01  0.00000000E+00
  6.30000000E+02  6.00000000E+01  0.00000000E+00
  6.30000000E+02  5.80000000E+01  0.00000000E+00
  6.30000000E+02  5.60000000E+01  0.00000000E+00
  6.30000000E+02  5.40000000E+01  0.00000000E+00
  6.30000000E+02  5.20000000E+01  0.00000000E+00
  6.30000000E+02  5.00000000E+01  0.00000000E+00
  6.30000000E+02  4.80000000E+01  0.00000000E+00
  6.30000000E+02  4.60000000E+01  0.00000000E+00
  6.30000000E+02  4.40000000E+01  0.00000000E+00
  6.30000000E+02  4.20000000E+01  0.00000000E+00
  6.30000000E+02  4.00000000E+01  0.00000000E+00
  6.30000000E+02  3.80000000E+01  0.00000000E+00
  6.30000000E+02  3.60000000E+01  0.00000000E+00
  6.30000000E+02  3.40000000E+01  0.00000000E+00
  6.30000000E+02  3.20000000E+01  0.00000000E+00
  6.30000000E+02  3.00000000E+01  0.00000000E+00
  6.30000000E+02  2.80000000E+01  0.00000000E+00
  6.30000000E+02  2.60000000E+01  0.00000000E+00
  6.30000000E+02  2.40000000E+01  0.00000000E+00
  6.30000000E+02  2.20000000E+01  0.00000000E+00
  6.30000000E+02  2.00000000E+01  0.00000000E+00
  6.30000000E+02  1.80000000E+01  0.00000000E+00
  6.30000000E+02  1.60000000E+01  0.00000000E+00
  6.30000000E+02  1.40000000E+01  0.00000000E+00
  6.30000000E+02  1.20000000E+01  0.00000000E+00
  6.30000000E+02  1.00000000E+01  0.00000000E+00
  6.30000000E+02  8.00000000E+00  0.00000000E+00
  6.30000000E+02  6.00000000E+00  0.00000000E+00
  6.30000000E+02  4.00000000E+00  0.00000000E+00
  6.30000000E+02  2.00000000E+00  0.00000000E+00
  6.30000000E+02 -3.33066907E-14  0.00000000E+00
  6.40000000E+02  1.00000000E+02  0.00000000E+00
  6.40000000E+02  9.80000000E+01  0.00000000E+00
  6.40000000E+02  9.60000000E+01  0.00000000E+00
  6.40000000E+02  9.40000000E+01  0.00000000E+00
  6.40000000E+02  9.20000000E+01  0.00000000E+00
  6.40000000E+02  9.00000000E+01  0.00000000E+00
  6.40000000E+02  8.80000000E+01  0.00000000E+00
  6.40000000E+02  8.60000000E+01  0.00000000E+00
  6.40000000E+02  8.40000000E+01  0.00000000E+00
  6.40000000E+02  8.20000000E+01  0.00000000E+00
  6.40000000E+02  8.00000000E+01  0.00000000E+00
  6.40000000E+02  7.80000000E+01  0.00000000E+00
  6.40000000E+02  7.60000000E+01  0.00000000E+00
  6.40000000E+02  7.40000000E+01  0.00000000E+00
  6.40000000E+02  7.20000000E+01  0.00000000E+00
  6.40000000E+02  7.00000000E+01  0.00000000E+00
  6.40000000E+02  6.80000000E+01  0.00000000E+00
  6.40000000E+02  6.60000000E+01  0.00000000E+00
  6.40000000E+02  6.40000000E+01  0.00000000E+00
  6.40000000E+02  6.20000000E+01  0.00000000E+00
  6.40000000E+02  6.00000000E+01  0.00000000E+00
  6.40000000E+02  5.80000000E+01  0.00000000E+00
  6.40000000E+02  5.60000000E+01  0.00000000E+00
  6.40000000E+02  5.40000000E+01  0.00000000E+00
  6.40000000E+02  5.20000000E+01  0.00000000E+00
  6.40000000E+02  5.00000000E+01  0.00000000E+00
  6.40000000E+02  4.80000000E+01  0.00000000E+00
  6.40000000E+02  4.60000000E+01  0.00000000E+00
  6.40000000E+02  4.40000000E+01  0.00000000E+00
  6.40000000E+02  4.20000000E+01  0.00000000E+00
  6.40000000E+02  4.00000000E+01  0.00000000E+00
  6.40000000E+02  3.80000000E+01  0.00000000E+00
  6.40000000E+02  3.60000000E+01  0.00000000E+00
  6.40000000E+02  3.40000000E+01  0.00000000E+00
  6.40000000E+02  3.20000000E+01  0.00000000E+00
  6.40000000E+02  3.00000000E+01  0.00000000E+00
  6.40000000E+02  2.80000000E+01  0.00000000E+00
  6.40000000E+02  2.60000000E+01  0.00000000E+00
  6.40000000E+02  2.40000000E+01  0.00000000E+00
  6.40000000E+02  2.20000000E+01  0.00000000E+00
  6.40000000E+02  2.00000000E+01  0.00000000E+00
  6.40000000E+02  1.80000000E+01  0.00000000E+00
  6.40000000E+02  1.60000000E+01  0.00000000E+00
  6.40000000E+02  1.40000000E+01  0.00000000E+00
  6.40000000E+02  1.20000000E+01  0.00000000E+00
  6.40000000E+02  1.00000000E+01  0.00000000E+00
  6.40000000E+02  8.00000000E+00  0.00000000E+00
  6.40000000E+02  6.00000000E+00  0.00000000E+00
  6.40000000E+02  4.00000000E+00  0.00000000E+00
  6.40000000E+02  2.00000000E+00  0.00000000E+00
  6.40000000E+02 -3.33066907E-14  0.00000000E+00
  6.50000000E+02  1.00000000E+02  0.00000000E+00
  6.50000000E+02  9.80000000E+01  0.00000000E+00
  6.50000000E+02  9.60000000E+01  0.00000000E+00
  6.50000000E+02  9.40000000E+01  0.00000000E+00
  6.50000000E+02  9.20000000E+01  0.00000000E+00
  6.50000000E+02  9.00000000E+01  0.00000000E+00
  6.50000000E+02  8.80000000E+01  0.00000000E+00
  6.50000000E+02  8.60000000E+01  0.00000000E+00
  6.50000000E+02  8.40000000E+01  0.00000000E+00
  6.50000000E+02  8.20000000E+01  0.00000000E+00
  6.50000000E+02  8.00000000E+01  0.00000000E+00
  6.50000000E+02  7.80000000E+01  0.00000000E+00
  6.50000000E+02  7.60000000E+01  0.00000000E+00
  6.50000000E+02  7.40000000E+01  0.00000000E+00
  6.50000000E+02  7.20000000E+01  0.00000000E+00
  6.50000000E+02  7.00000000E+01  0.00000000E+00
  6.50000000E+02  6.80000000E+01  0.00000000E+00
  6.50000000E+02  6.60000000E+01  0.00000000E+00
  6.50000000E+02  6.40000000E+01  0.00000000E+00
  6.50000000E+02  6.20000000E+01  0.00000000E+00
  6.50000000E+02  6.00000000E+01  0.00000000E+00
  6.50000000E+02  5.80000000E+01  0.00000000E+00
  6.50000000E+02  5.60000000E+01  0.00000000E+00
  6.50000000E+02  5.40000000E+01  0.00000000E+00
  6.50000000E+02  5.20000000E+01  0.00000000E+00
  6.50000000E+02  5.00000000E+01  0.00000000E+00
  6.50000000E+02  4.80000000E+01  0.00000000E+00
  6.50000000E+02  4.60000000E+01  0.00000000E+00
  6.50000000E+02  4.40000000E+01  0.00000000E+00
  6.50000000E+02  4.20000000E+01  0.00000000E+00
  6.50000000E+02  4.00000000E+01  0.00000000E+00
  6.50000000E+02  3.80000000E+01  0.00000000E+00
  6.50000000E+02  3.60000000E+01  0.00000000E+00
  6.50000000E+02  3.40000000E+01  0.00000000E+00
  6.50000000E+02  3.20000000E+01  0.00000000E+00
  6.50000000E+02  3.00000000E+01  0.00000000E+00
  6.50000000E+02  2.80000000E+01  0.00000000E+00
  6.50000000E+02  2.60000000E+01  0.00000000E+00
  6.50000000E+02  2.40000000E+01  0.00000000E+00
  6.50000000E+02  2.20000000E+01  0.00000000E+00
  6.50000000E+02  2.00000000E+01  0.00000000E+00
  6.50000000E+02  1.80000000E+01  0.00000000E+00
  6.50000000E+02  1.60000000E+01  0.00000000E+00
  6.50000000E+02  1.40000000E+01  0.00000000E+00
  6.50000000E+02  1.20000000E+01  0.00000000E+00
  6.50000000E+02  1.00000000E+01  0.00000000E+00
  6.50000000E+02  8.00000000E+00  0.00000000E+00
  6.50000000E+02  6.00000000E+00  0.00000000E+00
  6.50000000E+02  4.00000000E+00  0.00000000E+00
  6.50000000E+02  2.00000000E+00  0.00000000E+00
  6.50000000E+02 -3.33066907E-14  0.00000000E+00
  6.60000000E+02  1.00000000E+02  0.00000000E+00
  6.60000000E+02  9.80000000E+01  0.00000000E+00
  6.60000000E+02  9.60000000E+01  0.00000000E+00
  6.60000000E+02  9.40000000E+01  0.00000000E+00
  6.60000000E+02  9.20000000E+01  0.00000000E+00
  6.60000000E+02  9.00000000E+01  0.00000000E+00
  6.60000000E+02  8.80000000E+01  0.00000000E+00
  6.60000000E+02  8.60000000E+01  0.00000000E+00
  6.60000000E+02  8.40000000E+01  0.00000000E+00
  6.60000000E+02  8.20000000E+01  0.00000000E+00
  6.60000000E+02  8.00000000E+01  0.00000000E+00
  6.60000000E+02  7.80000000E+01  0.00000000E+00
  6.60000000E+02  7.60000000E+01  0.00000000E+00
  6.60000000E+02  7.40000000E+01  0.00000000E+00
  6.60000000E+02  7.20000000E+01  0.00000000E+00
  6.60000000E+02  7.00000000E+01  0.00000000E+00
  6.60000000E+02  6.80000000E+01  0.00000000E+00
  6.60000000E+02  6.60000000E+01  0.00000000E+00
  6.60000000E+02  6.40000000E+01  0.00000000E+00
  6.60000000E+02  6.20000000E+01  0.00000000E+00
  6.60000000E+02  6.00000000E+01  0.00000000E+00
  6.60000000E+02  5.80000000E+01  0.00000000E+00
  6.60000000E+02  5.60000000E+01  0.00000000E+00
  6.60000000E+02  5.40000000E+01  0.00000000E+00
  6.60000000E+02  5.20000000E+01  0.00000000E+00
  6.60000000E+02  5.00000000E+01  0.00000000E+00
  6.60000000E+02  4.80000000E+01  0.00000000E+00
  6.60000000E+02  4.60000000E+01  0.00000000E+00
  6.60000000E+02  4.40000000E+01  0.00000000E+00
  6.60000000E+02  4.20000000E+01  0.00000000E+00
  6.60000000E+02  4.00000000E+01  0.00000000E+00
  6.60000000E+02  3.80000000E+01  0.00000000E+00
  6.60000000E+02  3.60000000E+01  0.00000000E+00
  6.60000000E+02  3.40000000E+01  0.00000000E+00
  6.60000000E+02  3.20000000E+01  0.00000000E+00
  6.60000000E+02  3.00000000E+01  0.00000000E+00
  6.60000000E+02  2.80000000E+01  0.00000000E+00
  6.60000000E+02  2.60000000E+01  0.00000000E+00
  6.60000000E+02  2.40000000E+01  0.00000000E+00
  6.60000000E+02  2.20000000E+01  0.00000000E+00
  6.60000000E+02  2.00000000E+01  0.00000000E+00
  6.60000000E+02  1.80000000E+01  0.00000000E+00
  6.60000000E+02  1.60000000E+01  0.00000000E+00
  6.60000000E+02  1.40000000E+01  0.00000000E+00
  6.60000000E+02  1.20000000E+01  0.00000000E+00
  6.60000000E+02  1.00000000E+01  0.00000000E+00
  6.60000000E+02  8.00000000E+00  0.00000000E+00
  6.60000000E+02  6.00000000E+00  0.00000000E+00
  6.60000000E+02  4.00000000E+00  0.00000000E+00
  6.60000000E+02  2.00000000E+00  0.00000000E+00
  6.60000000E+02 -3.33066907E-14  0.00000000E+00
  6.70000000E+02  1.00000000E+02  0.00000000E+00
  6.70000000E+02  9.80000000E+01  0.00000000E+00
  6.70000000E+02  9.60000000E+01  0.00000000E+00
  6.70000000E+02  9.40000000E+01  0.00000000E+00
  6.70000000E+02  9.20000000E+01  0.00000000E+00
  6.70000000E+02  9.00000000E+01  0.00000000E+00
  6.70000000E+02  8.80000000E+01  0.00000000E+00
  6.70000000E+02  8.60000000E+01  0.00000000E+00
  6.70000000E+02  8.40000000E+01  0.00000000E+00
  6.70000000E+02  8.20000000E+01  0.00000000E+00
  6.70000000E+02  8.00000000E+01  0.00000000E+00
  6.70000000E+02  7.80000000E+01  0.00000000E+00
  6.70000000E+02  7.60000000E+01  0.00000000E+00
  6.70000000E+02  7.40000000E+01  0.00000000E+00
  6.70000000E+02  7.20000000E+01  0.00000000E+00
  6.70000000E+02  7.00000000E+01  0.00000000E+00
  6.70000000E+02  6.80000000E+01  0.00000000E+00
  6.70000000E+02  6.60000000E+01  0.00000000E+00
  6.70000000E+02  6.40000000E+01  0.00000000E+00
  6.70000000E+02  6.20000000E+01  0.00000000E+00
  6.70000000E+02  6.00000000E+01  0.00000000E+00
  6.70000000E+02  5.80000000E+01  0.00000000E+00
  6.70000000E+02  5.60000000E+01  0.00000000E+00
  6.70000000E+02  5.40000000E+01  0.00000000E+00
  6.70000000E+02  5.20000000E+01  0.00000000E+00
  6.70000000E+02  5.00000000E+01  0.00000000E+00
  6.70000000E+02  4.80000000E+01  0.00000000E+00
  6.70000000E+02  4.60000000E+01  0.00000000E+00
  6.70000000E+02  4.40000000E+01  0.00000000E+00
  6.70000000E+02  4.20000000E+01  0.00000000E+00
  6.70000000E+02  4.00000000E+01  0.00000000E+00
  6.70000000E+02  3.80000000E+01  0.00000000E+00
  6.70000000E+02  3.60000000E+01  0.00000000E+00
  6.70000000E+02  3.40000000E+01  0.00000000E+00
  6.70000000E+02  3.20000000E+01  0.00000000E+00
  6.70000000E+02  3.00000000E+01  0.00000000E+00
  6.70000000E+02  2.80000000E+01  0.00000000E+00
  6.70000000E+02  2.60000000E+01  0.00000000E+00
  6.70000000E+02  2.40000000E+01  0.00000000E+00
  6.70000000E+02  2.20000000E+01  0.00000000E+00
  6.70000000E+02  2.00000000E+01  0.00000000E+00
  6.70000000E+02  1.80000000E+01  0.00000000E+00
  6.70000000E+02  1.60000000E+01  0.00000000E+00
  6.70000000E+02  1.40000000E+01  0.00000000E+00
  6.70000000E+02  1.20000000E+01  0.00000000E+00
  6.70000000E+02  1.00000000E+01  0.00000000E+00
  6.70000000E+02  8.00000000E+00  0.00000000E+00
  6.70000000E+02  6.00000000E+00  0.00000000E+00
  6.70000000E+02  4.00000000E+00  0.00000000E+00
  6.70000000E+02  2.00000000E+00  0.00000000E+00
  6.70000000E+02 -3.33066907E-14  0.00000000E+00
  6.80000000E+02  1.00000000E+02  0.00000000E+00
  6.80000000E+02  9.80000000E+01  0.00000000E+00
  6.80000000E+02  9.60000000E+01  0.00000000E+00
  6.80000000E+02  9.40000000E+01  0.00000000E+00
  6.80000000E+02  9.20000000E+01  0.00000000E+00
  6.80000000E+02  9.00000000E+01  0.00000000E+00
  6.80000000E+02  8.80000000E+01  0.00000000E+00
  6.80000000E+02  8.60000000E+01  0.00000000E+00
  6.80000000E+02  8.40000000E+01  0.00000000E+00
  6.80000000E+02  8.20000000E+01  0.00000000E+00
  6.80000000E+02  8.00000000E+01  0.00000000E+00
  6.80000000E+02  7.80000000E+01  0.00000000E+00
  6.80000000E+02  7.60000000E+01  0.00000000E+00
  6.80000000E+02  7.40000000E+01  0.00000000E+00
  6.80000000E+02  7.20000000E+01  0.00000000E+00
  6.80000000E+02  7.00000000E+01  0.00000000E+00
  6.80000000E+02  6.80000000E+01  0.00000000E+00
  6.80000000E+02  6.60000000E+01  0.00000000E+00
  6.80000000E+02  6.40000000E+01  0.00000000E+00
  6.80000000E+02  6.20000000E+01  0.00000000E+00
  6.80000000E+02  6.00000000E+01  0.00000000E+00
  6.80000000E+02  5.80000000E+01  0.00000000E+00
  6.80000000E+02  5.60000000E+01  0.00000000E+00
  6.80000000E+02  5.40000000E+01  0.00000000E+00
  6.80000000E+02  5.20000000E+01  0.00000000E+00
  6.80000000E+02  5.00000000E+01  0.00000000E+00
  6.80000000E+02  4.80000000E+01  0.00000000E+00
  6.80000000E+02  4.60000000E+01  0.00000000E+00
  6.80000000E+02  4.40000000E+01  0.00000000E+00
  6.80000000E+02  4.20000000E+01  0.00000000E+00
  6.80000000E+02  4.00000000E+01  0.00000000E+00
  6.80000000E+02  3.80000000E+01  0.00000000E+00
  6.80000000E+02  3.60000000E+01  0.00000000E+00
  6.80000000E+02  3.40000000E+01  0.00000000E+00
  6.80000000E+02  3.20000000E+01  0.00000000E+00
  6.80000000E+02  3.00000000E+01  0.00000000E+00
  6.80000000E+02  2.80000000E+01  0.00000000E+00
  6.80000000E+02  2.60000000E+01  0.00000000E+00
  6.80000000E+02  2.40000000E+01  0.00000000E+00
  6.80000000E+02  2.20000000E+01  0.00000000E+00
  6.80000000E+02  2.00000000E+01  0.00000000E+00
  6.80000000E+02  1.80000000E+01  0.00000000E+00
  6.80000000E+02  1.60000000E+01  0.00000000E+00
  6.80000000E+02  1.40000000E+01  0.00000000E+00
  6.80000000E+02  1.20000000E+01  0.00000000E+00
  6.80000000E+02  1.00000000E+01  0.00000000E+00
  6.80000000E+02  8.00000000E+00  0.00000000E+00
  6.80000000E+02  6.00000000E+00  0.00000000E+00
  6.80000000E+02  4.00000000E+00  0.00000000E+00
  6.80000000E+02  2.00000000E+00  0.00000000E+00
  6.80000000E+02 -3.33066907E-14  0.00000000E+00
  6.90000000E+02  1.00000000E+02  0.00000000E+00
  6.90000000E+02  9.80000000E+01  0.00000000E+00
  6.90000000E+02  9.60000000E+01  0.00000000E+00
  6.90000000E+02  9.40000000E+01  0.00000000E+00
  6.90000000E+02  9.20000000E+01  0.00000000E+00
  6.90000000E+02  9.00000000E+01  0.00000000E+00
  6.90000000E+02  8.80000000E+01  0.00000000E+00
  6.90000000E+02  8.60000000E+01  0.00000000E+00
  6.90000000E+02  8.40000000E+01  0.00000000E+00
  6.90000000E+02  8.20000000E+01  0.00000000E+00
  6.90000000E+02  8.00000000E+01  0.00000000E+00
  6.90000000E+02  7.80000000E+01  0.00000000E+00
  6.90000000E+02  7.60000000E+01  0.00000000E+00
  6.90000000E+02  7.40000000E+01  0.00000000E+00
  6.90000000E+02  7.20000000E+01  0.00000000E+00
  6.90000000E+02  7.00000000E+01  0.00000000E+00
  6.90000000E+02  6.80000000E+01  0.00000000E+00
  6.90000000E+02  6.60000000E+01  0.00000000E+00
  6.90000000E+02  6.40000000E+01  0.00000000E+00
  6.90000000E+02  6.20000000E+01  0.00000000E+00
  6.90000000E+02  6.00000000E+01  0.00000000E+00
  6.90000000E+02  5.80000000E+01  0.00000000E+00
  6.90000000E+02  5.60000000E+01  0.00000000E+00
  6.90000000E+02  5.40000000E+01  0.00000000E+00
  6.90000000E+02  5.20000000E+01  0.00000000E+00
  6.90000000E+02  5.00000000E+01  0.00000000E+00
  6.90000000E+02  4.80000000E+01  0.00000000E+00
  6.90000000E+02  4.60000000E+01  0.00000000E+00
  6.90000000E+02  4.40000000E+01  0.00000000E+00
  6.90000000E+02  4.20000000E+01  0.00000000E+00
  6.90000000E+02  4.00000000E+01  0.00000000E+00
  6.90000000E+02  3.80000000E+01  0.00000000E+00
  6.90000000E+02  3.60000000E+01  0.00000000E+00
  6.90000000E+02  3.40000000E+01  0.00000000E+00
  6.90000000E+02  3.20000000E+01  0.00000000E+00
  6.90000000E+02  3.00000000E+01  0.00000000E+00
  6.90000000E+02  2.80000000E+01  0.00000000E+00
  6.90000000E+02  2.60000000E+01  0.00000000E+00
  6.90000000E+02  2.40000000E+01  0.00000000E+00
  6.90000000E+02  2.20000000E+01  0.00000000E+00
  6.90000000E+02  2.00000000E+01  0.00000000E+00
  6.90000000E+02  1.80000000E+01  0.00000000E+00
  6.90000000E+02  1.60000000E+01  0.00000000E+00
  6.90000000E+02  1.40000000E+01  0.00000000E+00
  6.90000000E+02  1.20000000E+01  0.00000000E+00
  6.90000000E+02  1.00000000E+01  0.00000000E+00
  6.90000000E+02  8.00000000E+00  0.00000000E+00
  6.90000000E+02  6.00000000E+00  0.00000000E+00
  6.90000000E+02  4.00000000E+00  0.00000000E+00
  6.90000000E+02  2.00000000E+00  0.00000000E+00
  6.90000000E+02 -3.33066907E-14  0.00000000E+00
  7.00000000E+02  1.00000000E+02  0.00000000E+00
  7.00000000E+02  9.80000000E+01  0.00000000E+00
  7.00000000E+02  9.60000000E+01  0.00000000E+00
  7.00000000E+02  9.40000000E+01  0.00000000E+00
  7.00000000E+02  9.20000000E+01  0.00000000E+00
  7.00000000E+02  9.00000000E+01  0.00000000E+00
  7.00000000E+02  8.80000000E+01  0.00000000E+00
  7.00000000E+02  8.60000000E+01  0.00000000E+00
  7.00000000E+02  8.40000000E+01  0.00000000E+00
  7.00000000E+02  8.20000000E+01  0.00000000E+00
  7.00000000E+02  8.00000000E+01  0.00000000E+00
  7.00000000E+02  7.80000000E+01  0.00000000E+00
  7.00000000E+02  7.60000000E+01  0.00000000E+00
  7.00000000E+02  7.40000000E+01  0.00000000E+00
  7.00000000E+02  7.20000000E+01  0.00000000E+00
  7.00000000E+02  7.00000000E+01  0.00000000E+00
  7.00000000E+02  6.80000000E+01  0.00000000E+00
  7.00000000E+02  6.60000000E+01  0.00000000E+00
  7.00000000E+02  6.40000000E+01  0.00000000E+00
  7.00000000E+02  6.20000000E+01  0.00000000E+00
  7.00000000E+02  6.00000000E+01  0.00000000E+00
  7.00000000E+02  5.80000000E+01  0.00000000E+00
  7.00000000E+02  5.60000000E+01  0.00000000E+00
  7.00000000E+02  5.40000000E+01  0.00000000E+00
  7.00000000E+02  5.20000000E+01  0.00000000E+00
  7.00000000E+02  5.00000000E+01  0.00000000E+00
  7.00000000E+02  4.80000000E+01  0.00000000E+00
  7.00000000E+02  4.60000000E+01  0.00000000E+00
  7.00000000E+02  4.40000000E+01  0.00000000E+00
  7.00000000E+02  4.20000000E+01  0.00000000E+00
  7.00000000E+02  4.00000000E+01  0.00000000E+00
  7.00000000E+02  3.80000000E+01  0.00000000E+00
  7.00000000E+02  3.60000000E+01  0.00000000E+00
  7.00000000E+02  3.40000000E+01  0.00000000E+00
  7.00000000E+02  3.20000000E+01  0.00000000E+00
  7.00000000E+02  3.00000000E+01  0.00000000E+00
  7.00000000E+02  2.80000000E+01  0.00000000E+00
  7.00000000E+02  2.60000000E+01  0.00000000E+00
  7.00000000E+02  2.40000000E+01  0.00000000E+00
  7.00000000E+02  2.20000000E+01  0.00000000E+00
  7.00000000E+02  2.00000000E+01  0.00000000E+00
  7.00000000E+02  1.80000000E+01  0.00000000E+00
  7.00000000E+02  1.60000000E+01  0.00000000E+00
  7.00000000E+02  1.40000000E+01  0.00000000E+00
  7.00000000E+02  1.20000000E+01  0.00000000E+00
  7.00000000E+02  1.00000000E+01  0.00000000E+00
  7.00000000E+02  8.00000000E+00  0.00000000E+00
  7.00000000E+02  6.00000000E+00  0.00000000E+00
  7.00000000E+02  4.00000000E+00  0.00000000E+00
  7.00000000E+02  2.00000000E+00  0.00000000E+00
  7.00000000E+02 -3.33066907E-14  0.00000000E+00
  7.10000000E+02  1.00000000E+02  0.00000000E+00
  7.10000000E+02  9.80000000E+01  0.00000000E+00
  7.10000000E+02  9.60000000E+01  0.00000000E+00
  7.10000000E+02  9.40000000E+01  0.00000000E+00
  7.10000000E+02  9.20000000E+01  0.00000000E+00
  7.10000000E+02  9.00000000E+01  0.00000000E+00
  7.10000000E+02  8.80000000E+01  0.00000000E+00
  7.10000000E+02  8.60000000E+01  0.00000000E+00
  7.10000000E+02  8.40000000E+01  0.00000000E+00
  7.10000000E+02  8.20000000E+01  0.00000000E+00
  7.10000000E+02  8.00000000E+01  0.00000000E+00
  7.10000000E+02  7.80000000E+01  0.00000000E+00
  7.10000000E+02  7.60000000E+01  0.00000000E+00
  7.10000000E+02  7.40000000E+01  0.00000000E+00
  7.10000000E+02  7.20000000E+01  0.00000000E+00
  7.10000000E+02  7.00000000E+01  0.00000000E+00
  7.10000000E+02  6.80000000E+01  0.00000000E+00
  7.10000000E+02  6.60000000E+01  0.00000000E+00
  7.10000000E+02  6.40000000E+01  0.00000000E+00
  7.10000000E+02  6.20000000E+01  0.00000000E+00
  7.10000000E+02  6.00000000E+01  0.00000000E+00
  7.10000000E+02  5.80000000E+01  0.00000000E+00
  7.10000000E+02  5.60000000E+01  0.00000000E+00
  7.10000000E+02  5.40000000E+01  0.00000000E+00
  7.10000000E+02  5.20000000E+01  0.00000000E+00
  7.10000000E+02  5.00000000E+01  0.00000000E+00
  7.10000000E+02  4.80000000E+01  0.00000000E+00
  7.10000000E+02  4.60000000E+01  0.00000000E+00
  7.10000000E+02  4.40000000E+01  0.00000000E+00
  7.10000000E+02  4.20000000E+01  0.00000000E+00
  7.10000000E+02  4.00000000E+01  0.00000000E+00
  7.10000000E+02  3.80000000E+01  0.00000000E+00
  7.10000000E+02  3.60000000E+01  0.00000000E+00
  7.10000000E+02  3.40000000E+01  0.00000000E+00
  7.10000000E+02  3.20000000E+01  0.00000000E+00
  7.10000000E+02  3.00000000E+01  0.00000000E+00
  7.10000000E+02  2.80000000E+01  0.00000000E+00
  7.10000000E+02  2.60000000E+01  0.00000000E+00
  7.10000000E+02  2.40000000E+01  0.00000000E+00
  7.10000000E+02  2.20000000E+01  0.00000000E+00
  7.10000000E+02  2.00000000E+01  0.00000000E+00
  7.10000000E+02  1.80000000E+01  0.00000000E+00
  7.10000000E+02  1.60000000E+01  0.00000000E+00
  7.10000000E+02  1.40000000E+01  0.00000000E+00
  7.10000000E+02  1.20000000E+01  0.00000000E+00
  7.10000000E+02  1.00000000E+01  0.00000000E+00
  7.10000000E+02  8.00000000E+00  0.00000000E+00
  7.10000000E+02  6.00000000E+00  0.00000000E+00
  7.10000000E+02  4.00000000E+00  0.00000000E+00
  7.10000000E+02  2.00000000E+00  0.00000000E+00
  7.10000000E+02 -3.33066907E-14  0.00000000E+00
  7.20000000E+02  1.00000000E+02  0.00000000E+00
  7.20000000E+02  9.80000000E+01  0.00000000E+00
  7.20000000E+02  9.60000000E+01  0.00000000E+00
  7.20000000E+02  9.40000000E+01  0.00000000E+00
  7.20000000E+02  9.20000000E+01  0.00000000E+00
  7.20000000E+02  9.00000000E+01  0.00000000E+00
  7.20000000E+02  8.80000000E+01  0.00000000E+00
  7.20000000E+02  8.60000000E+01  0.00000000E+00
  7.20000000E+02  8.40000000E+01  0.00000000E+00
  7.20000000E+02  8.20000000E+01  0.00000000E+00
  7.20000000E+02  8.00000000E+01  0.00000000E+00
  7.20000000E+02  7.80000000E+01  0.00000000E+00
  7.20000000E+02  7.60000000E+01  0.00000000E+00
  7.20000000E+02  7.40000000E+01  0.00000000E+00
  7.20000000E+02  7.20000000E+01  0.00000000E+00
  7.20000000E+02  7.00000000E+01  0.00000000E+00
  7.20000000E+02  6.80000000E+01  0.00000000E+00
  7.20000000E+02  6.60000000E+01  0.00000000E+00
  7.20000000E+02  6.40000000E+01  0.00000000E+00
  7.20000000E+02  6.20000000E+01  0.00000000E+00
  7.20000000E+02  6.00000000E+01  0.00000000E+00
  7.20000000E+02  5.80000000E+01  0.00000000E+00
  7.20000000E+02  5.60000000E+01  0.00000000E+00
  7.20000000E+02  5.40000000E+01  0.00000000E+00
  7.20000000E+02  5.20000000E+01  0.00000000E+00
  7.20000000E+02  5.00000000E+01  0.00000000E+00
  7.20000000E+02  4.80000000E+01  0.00000000E+00
  7.20000000E+02  4.60000000E+01  0.00000000E+00
  7.20000000E+02  4.40000000E+01  0.00000000E+00
  7.20000000E+02  4.20000000E+01  0.00000000E+00
  7.20000000E+02  4.00000000E+01  0.00000000E+00
  7.20000000E+02  3.80000000E+01  0.00000000E+00
  7.20000000E+02  3.60000000E+01  0.00000000E+00
  7.20000000E+02  3.40000000E+01  0.00000000E+00
  7.20000000E+02  3.20000000E+01  0.00000000E+00
  7.20000000E+02  3.00000000E+01  0.00000000E+00
  7.20000000E+02  2.80000000E+01  0.00000000E+00
  7.20000000E+02  2.60000000E+01  0.00000000E+00
  7.20000000E+02  2.40000000E+01  0.00000000E+00
  7.20000000E+02  2.20000000E+01  0.00000000E+00
  7.20000000E+02  2.00000000E+01  0.00000000E+00
  7.20000000E+02  1.80000000E+01  0.00000000E+00
  7.20000000E+02  1.60000000E+01  0.00000000E+00
  7.20000000E+02  1.40000000E+01  0.00000000E+00
  7.20000000E+02  1.20000000E+01  0.00000000E+00
  7.20000000E+02  1.00000000E+01  0.00000000E+00
  7.20000000E+02  8.00000000E+00  0.00000000E+00
  7.20000000E+02  6.00000000E+00  0.00000000E+00
  7.20000000E+02  4.00000000E+00  0.00000000E+00
  7.20000000E+02  2.00000000E+00  0.00000000E+00
  7.20000000E+02 -3.33066907E-14  0.00000000E+00
  7.30000000E+02  1.00000000E+02  0.00000000E+00
  7.30000000E+02  9.80000000E+01  0.00000000E+00
  7.30000000E+02  9.60000000E+01  0.00000000E+00
  7.30000000E+02  9.40000000E+01  0.00000000E+00
  7.30000000E+02  9.20000000E+01  0.00000000E+00
  7.30000000E+02  9.00000000E+01  0.00000000E+00
  7.30000000E+02  8.80000000E+01  0.00000000E+00
  7.30000000E+02  8.60000000E+01  0.00000000E+00
  7.30000000E+02  8.40000000E+01  0.00000000E+00
  7.30000000E+02  8.20000000E+01  0.00000000E+00
  7.30000000E+02  8.00000000E+01  0.00000000E+00
  7.30000000E+02  7.80000000E+01  0.00000000E+00
  7.30000000E+02  7.60000000E+01  0.00000000E+00
  7.30000000E+02  7.40000000E+01  0.00000000E+00
  7.30000000E+02  7.20000000E+01  0.00000000E+00
  7.30000000E+02  7.00000000E+01  0.00000000E+00
  7.30000000E+02  6.80000000E+01  0.00000000E+00
  7.30000000E+02  6.60000000E+01  0.00000000E+00
  7.30000000E+02  6.40000000E+01  0.00000000E+00
  7.30000000E+02  6.20000000E+01  0.00000000E+00
  7.30000000E+02  6.00000000E+01  0.00000000E+00
  7.30000000E+02  5.80000000E+01  0.00000000E+00
  7.30000000E+02  5.60000000E+01  0.00000000E+00
  7.30000000E+02  5.40000000E+01  0.00000000E+00
  7.30000000E+02  5.20000000E+01  0.00000000E+00
  7.30000000E+02  5.00000000E+01  0.00000000E+00
  7.30000000E+02  4.80000000E+01  0.00000000E+00
  7.30000000E+02  4.60000000E+01  0.00000000E+00
  7.30000000E+02  4.40000000E+01  0.00000000E+00
  7.30000000E+02  4.20000000E+01  0.00000000E+00
  7.30000000E+02  4.00000000E+01  0.00000000E+00
  7.30000000E+02  3.80000000E+01  0.00000000E+00
  7.30000000E+02  3.60000000E+01  0.00000000E+00
  7.30000000E+02  3.40000000E+01  0.00000000E+00
  7.30000000E+02  3.20000000E+01  0.00000000E+00
  7.30000000E+02  3.00000000E+01  0.00000000E+00
  7.30000000E+02  2.80000000E+01  0.00000000E+00
  7.30000000E+02  2.60000000E+01  0.00000000E+00
  7.30000000E+02  2.40000000E+01  0.00000000E+00
  7.30000000E+02  2.20000000E+01  0.00000000E+00
  7.30000000E+02  2.00000000E+01  0.00000000E+00
  7.30000000E+02  1.80000000E+01  0.00000000E+00
  7.30000000E+02  1.60000000E+01  0.00000000E+00
  7.30000000E+02  1.40000000E+01  0.00000000E+00
  7.30000000E+02  1.20000000E+01  0.00000000E+00
  7.30000000E+02  1.00000000E+01  0.00000000E+00
  7.30000000E+02  8.00000000E+00  0.00000000E+00
  7.30000000E+02  6.00000000E+00  0.00000000E+00
  7.30000000E+02  4.00000000E+00  0.00000000E+00
  7.30000000E+02  2.00000000E+00  0.00000000E+00
  7.30000000E+02 -3.33066907E-14  0.00000000E+00
  7.40000000E+02  1.00000000E+02  0.00000000E+00
  7.40000000E+02  9.80000000E+01  0.00000000E+00
  7.40000000E+02  9.60000000E+01  0.00000000E+00
  7.40000000E+02  9.40000000E+01  0.00000000E+00
  7.40000000E+02  9.20000000E+01  0.00000000E+00
  7.40000000E+02  9.00000000E+01  0.00000000E+00
  7.40000000E+02  8.80000000E+01  0.00000000E+00
  7.40000000E+02  8.60000000E+01  0.00000000E+00
  7.40000000E+02  8.40000000E+01  0.00000000E+00
  7.40000000E+02  8.20000000E+01  0.00000000E+00
  7.40000000E+02  8.00000000E+01  0.00000000E+00
  7.40000000E+02  7.80000000E+01  0.00000000E+00
  7.40000000E+02  7.60000000E+01  0.00000000E+00
  7.40000000E+02  7.40000000E+01  0.00000000E+00
  7.40000000E+02  7.20000000E+01  0.00000000E+00
  7.40000000E+02  7.00000000E+01  0.00000000E+00
  7.40000000E+02  6.80000000E+01  0.00000000E+00
  7.40000000E+02  6.60000000E+01  0.00000000E+00
  7.40000000E+02  6.40000000E+01  0.00000000E+00
  7.40000000E+02  6.20000000E+01  0.00000000E+00
  7.40000000E+02  6.00000000E+01  0.00000000E+00
  7.40000000E+02  5.80000000E+01  0.00000000E+00
  7.40000000E+02  5.60000000E+01  0.00000000E+00
  7.40000000E+02  5.40000000E+01  0.00000000E+00
  7.40000000E+02  5.20000000E+01  0.00000000E+00
  7.40000000E+02  5.00000000E+01  0.00000000E+00
  7.40000000E+02  4.80000000E+01  0.00000000E+00
  7.40000000E+02  4.60000000E+01  0.00000000E+00
  7.40000000E+02  4.40000000E+01  0.00000000E+00
  7.40000000E+02  4.20000000E+01  0.00000000E+00
  7.40000000E+02  4.00000000E+01  0.00000000E+00
  7.40000000E+02  3.80000000E+01  0.00000000E+00
  7.40000000E+02  3.60000000E+01  0.00000000E+00
  7.40000000E+02  3.40000000E+01  0.00000000E+00
  7.40000000E+02  3.20000000E+01  0.00000000E+00
  7.40000000E+02  3.00000000E+01  0.00000000E+00
  7.40000000E+02  2.80000000E+01  0.00000000E+00
  7.40000000E+02  2.60000000E+01  0.00000000E+00
  7.40000000E+02  2.40000000E+01  0.00000000E+00
  7.40000000E+02  2.20000000E+01  0.00000000E+00
  7.40000000E+02  2.00000000E+01  0.00000000E+00
  7.40000000E+02  1.80000000E+01  0.00000000E+00
  7.40000000E+02  1.60000000E+01  0.00000000E+00
  7.40000000E+02  1.40000000E+01  0.00000000E+00
  7.40000000E+02  1.20000000E+01  0.00000000E+00
  7.40000000E+02  1.00000000E+01  0.00000000E+00
  7.40000000E+02  8.00000000E+00  0.00000000E+00
  7.40000000E+02  6.00000000E+00  0.00000000E+00
  7.40000000E+02  4.00000000E+00  0.00000000E+00
  7.40000000E+02  2.00000000E+00  0.00000000E+00
  7.40000000E+02 -3.33066907E-14  0.00000000E+00
  7.50000000E+02  1.00000000E+02  0.00000000E+00
  7.50000000E+02  9.80000000E+01  0.00000000E+00
  7.50000000E+02  9.60000000E+01  0.00000000E+00
  7.50000000E+02  9.40000000E+01  0.00000000E+00
  7.50000000E+02  9.20000000E+01  0.00000000E+00
  7.50000000E+02  9.00000000E+01  0.00000000E+00
  7.50000000E+02  8.80000000E+01  0.00000000E+00
  7.50000000E+02  8.60000000E+01  0.00000000E+00
  7.50000000E+02  8.40000000E+01  0.00000000E+00
  7.50000000E+02  8.20000000E+01  0.00000000E+00
  7.50000000E+02  8.00000000E+01  0.00000000E+00
  7.50000000E+02  7.80000000E+01  0.00000000E+00
  7.50000000E+02  7.60000000E+01  0.00000000E+00
  7.50000000E+02  7.40000000E+01  0.00000000E+00
  7.50000000E+02  7.20000000E+01  0.00000000E+00
  7.50000000E+02  7.00000000E+01  0.00000000E+00
  7.50000000E+02  6.80000000E+01  0.00000000E+00
  7.50000000E+02  6.60000000E+01  0.00000000E+00
  7.50000000E+02  6.40000000E+01  0.00000000E+00
  7.50000000E+02  6.20000000E+01  0.00000000E+00
  7.50000000E+02  6.00000000E+01  0.00000000E+00
  7.50000000E+02  5.80000000E+01  0.00000000E+00
  7.50000000E+02  5.60000000E+01  0.00000000E+00
  7.50000000E+02  5.40000000E+01  0.00000000E+00
  7.50000000E+02  5.20000000E+01  0.00000000E+00
  7.50000000E+02  5.00000000E+01  0.00000000E+00
  7.50000000E+02  4.80000000E+01  0.00000000E+00
  7.50000000E+02  4.60000000E+01  0.00000000E+00
  7.50000000E+02  4.40000000E+01  0.00000000E+00
  7.50000000E+02  4.20000000E+01  0.00000000E+00
  7.50000000E+02  4.00000000E+01  0.00000000E+00
  7.50000000E+02  3.80000000E+01  0.00000000E+00
  7.50000000E+02  3.60000000E+01  0.00000000E+00
  7.50000000E+02  3.40000000E+01  0.00000000E+00
  7.50000000E+02  3.20000000E+01  0.00000000E+00
  7.50000000E+02  3.00000000E+01  0.00000000E+00
  7.50000000E+02  2.80000000E+01  0.00000000E+00
  7.50000000E+02  2.60000000E+01  0.00000000E+00
  7.50000000E+02  2.40000000E+01  0.00000000E+00
  7.50000000E+02  2.20000000E+01  0.00000000E+00
  7.50000000E+02  2.00000000E+01  0.00000000E+00
  7.50000000E+02  1.80000000E+01  0.00000000E+00
  7.50000000E+02  1.60000000E+01  0.00000000E+00
  7.50000000E+02  1.40000000E+01  0.00000000E+00
  7.50000000E+02  1.20000000E+01  0.00000000E+00
  7.50000000E+02  1.00000000E+01  0.00000000E+00
  7.50000000E+02  8.00000000E+00  0.00000000E+00
  7.50000000E+02  6.00000000E+00  0.00000000E+00
  7.50000000E+02  4.00000000E+00  0.00000000E+00
  7.50000000E+02  2.00000000E+00  0.00000000E+00
  7.50000000E+02 -3.33066907E-14  0.00000000E+00
  7.60000000E+02  1.00000000E+02  0.00000000E+00
  7.60000000E+02  9.80000000E+01  0.00000000E+00
  7.60000000E+02  9.60000000E+01  0.00000000E+00
  7.60000000E+02  9.40000000E+01  0.00000000E+00
  7.60000000E+02  9.20000000E+01  0.00000000E+00
  7.60000000E+02  9.00000000E+01  0.00000000E+00
  7.60000000E+02  8.80000000E+01  0.00000000E+00
  7.60000000E+02  8.60000000E+01  0.00000000E+00
  7.60000000E+02  8.40000000E+01  0.00000000E+00
  7.60000000E+02  8.20000000E+01  0.00000000E+00
  7.60000000E+02  8.00000000E+01  0.00000000E+00
  7.60000000E+02  7.80000000E+01  0.00000000E+00
  7.60000000E+02  7.60000000E+01  0.00000000E+00
  7.60000000E+02  7.40000000E+01  0.00000000E+00
  7.60000000E+02  7.20000000E+01  0.00000000E+00
  7.60000000E+02  7.00000000E+01  0.00000000E+00
  7.60000000E+02  6.80000000E+01  0.00000000E+00
  7.60000000E+02  6.60000000E+01  0.00000000E+00
  7.60000000E+02  6.40000000E+01  0.00000000E+00
  7.60000000E+02  6.20000000E+01  0.00000000E+00
  7.60000000E+02  6.00000000E+01  0.00000000E+00
  7.60000000E+02  5.80000000E+01  0.00000000E+00
  7.60000000E+02  5.60000000E+01  0.00000000E+00
  7.60000000E+02  5.40000000E+01  0.00000000E+00
  7.60000000E+02  5.20000000E+01  0.00000000E+00
  7.60000000E+02  5.00000000E+01  0.00000000E+00
  7.60000000E+02  4.80000000E+01  0.00000000E+00
  7.60000000E+02  4.60000000E+01  0.00000000E+00
  7.60000000E+02  4.40000000E+01  0.00000000E+00
  7.60000000E+02  4.20000000E+01  0.00000000E+00
  7.60000000E+02  4.00000000E+01  0.00000000E+00
  7.60000000E+02  3.80000000E+01  0.00000000E+00
  7.60000000E+02  3.60000000E+01  0.00000000E+00
  7.60000000E+02  3.40000000E+01  0.00000000E+00
  7.60000000E+02  3.20000000E+01  0.00000000E+00
  7.60000000E+02  3.00000000E+01  0.00000000E+00
  7.60000000E+02  2.80000000E+01  0.00000000E+00
  7.60000000E+02  2.60000000E+01  0.00000000E+00
  7.60000000E+02  2.40000000E+01  0.00000000E+00
  7.60000000E+02  2.20000000E+01  0.00000000E+00
  7.60000000E+02  2.00000000E+01  0.00000000E+00
  7.60000000E+02  1.80000000E+01  0.00000000E+00
  7.60000000E+02  1.60000000E+01  0.00000000E+00
  7.60000000E+02  1.40000000E+01  0.00000000E+00
  7.60000000E+02  1.20000000E+01  0.00000000E+00
  7.60000000E+02  1.00000000E+01  0.00000000E+00
  7.60000000E+02  8.00000000E+00  0.00000000E+00
  7.60000000E+02  6.00000000E+00  0.00000000E+00
  7.60000000E+02  4.00000000E+00  0.00000000E+00
  7.60000000E+02  2.00000000E+00  0.00000000E+00
  7.60000000E+02 -3.33066907E-14  0.00000000E+00
  7.70000000E+02  1.00000000E+02  0.00000000E+00
  7.70000000E+02  9.80000000E+01  0.00000000E+00
  7.70000000E+02  9.60000000E+01  0.00000000E+00
  7.70000000E+02  9.40000000E+01  0.00000000E+00
  7.70000000E+02  9.20000000E+01  0.00000000E+00
  7.70000000E+02  9.00000000E+01  0.00000000E+00
  7.70000000E+02  8.80000000E+01  0.00000000E+00
  7.70000000E+02  8.60000000E+01  0.00000000E+00
  7.70000000E+02  8.40000000E+01  0.00000000E+00
  7.70000000E+02  8.20000000E+01  0.00000000E+00
  7.70000000E+02  8.00000000E+01  0.00000000E+00
  7.70000000E+02  7.80000000E+01  0.00000000E+00
  7.70000000E+02  7.60000000E+01  0.00000000E+00
  7.70000000E+02  7.40000000E+01  0.00000000E+00
  7.70000000E+02  7.20000000E+01  0.00000000E+00
  7.70000000E+02  7.00000000E+01  0.00000000E+00
  7.70000000E+02  6.80000000E+01  0.00000000E+00
  7.70000000E+02  6.60000000E+01  0.00000000E+00
  7.70000000E+02  6.40000000E+01  0.00000000E+00
  7.70000000E+02  6.20000000E+01  0.00000000E+00
  7.70000000E+02  6.00000000E+01  0.00000000E+00
  7.70000000E+02  5.80000000E+01  0.00000000E+00
  7.70000000E+02  5.60000000E+01  0.00000000E+00
  7.70000000E+02  5.40000000E+01  0.00000000E+00
  7.70000000E+02  5.20000000E+01  0.00000000E+00
  7.70000000E+02  5.00000000E+01  0.00000000E+00
  7.70000000E+02  4.80000000E+01  0.00000000E+00
  7.70000000E+02  4.60000000E+01  0.00000000E+00
  7.70000000E+02  4.40000000E+01  0.00000000E+00
  7.70000000E+02  4.20000000E+01  0.00000000E+00
  7.70000000E+02  4.00000000E+01  0.00000000E+00
  7.70000000E+02  3.80000000E+01  0.00000000E+00
  7.70000000E+02  3.60000000E+01  0.00000000E+00
  7.70000000E+02  3.40000000E+01  0.00000000E+00
  7.70000000E+02  3.20000000E+01  0.00000000E+00
  7.70000000E+02  3.00000000E+01  0.00000000E+00
  7.70000000E+02  2.80000000E+01  0.00000000E+00
  7.70000000E+02  2.60000000E+01  0.00000000E+00
  7.70000000E+02  2.40000000E+01  0.00000000E+00
  7.70000000E+02  2.20000000E+01  0.00000000E+00
  7.70000000E+02  2.00000000E+01  0.00000000E+00
  7.70000000E+02  1.80000000E+01  0.00000000E+00
  7.70000000E+02  1.60000000E+01  0.00000000E+00
  7.70000000E+02  1.40000000E+01  0.00000000E+00
  7.70000000E+02  1.20000000E+01  0.00000000E+00
  7.70000000E+02  1.00000000E+01  0.00000000E+00
  7.70000000E+02  8.00000000E+00  0.00000000E+00
  7.70000000E+02  6.00000000E+00  0.00000000E+00
  7.70000000E+02  4.00000000E+00  0.00000000E+00
  7.70000000E+02  2.00000000E+00  0.00000000E+00
  7.70000000E+02 -3.33066907E-14  0.00000000E+00
  7.80000000E+02  1.00000000E+02  0.00000000E+00
  7.80000000E+02  9.80000000E+01  0.00000000E+00
  7.80000000E+02  9.60000000E+01  0.00000000E+00
  7.80000000E+02  9.40000000E+01  0.00000000E+00
  7.80000000E+02  9.20000000E+01  0.00000000E+00
  7.80000000E+02  9.00000000E+01  0.00000000E+00
  7.80000000E+02  8.80000000E+01  0.00000000E+00
  7.80000000E+02  8.60000000E+01  0.00000000E+00
  7.80000000E+02  8.40000000E+01  0.00000000E+00
  7.80000000E+02  8.20000000E+01  0.00000000E+00
  7.80000000E+02  8.00000000E+01  0.00000000E+00
  7.80000000E+02  7.80000000E+01  0.00000000E+00
  7.80000000E+02  7.60000000E+01  0.00000000E+00
  7.80000000E+02  7.40000000E+01  0.00000000E+00
  7.80000000E+02  7.20000000E+01  0.00000000E+00
  7.80000000E+02  7.00000000E+01  0.00000000E+00
  7.80000000E+02  6.80000000E+01  0.00000000E+00
  7.80000000E+02  6.60000000E+01  0.00000000E+00
  7.80000000E+02  6.40000000E+01  0.00000000E+00
  7.80000000E+02  6.20000000E+01  0.00000000E+00
  7.80000000E+02  6.00000000E+01  0.00000000E+00
  7.80000000E+02  5.80000000E+01  0.00000000E+00
  7.80000000E+02  5.60000000E+01  0.00000000E+00
  7.80000000E+02  5.40000000E+01  0.00000000E+00
  7.80000000E+02  5.20000000E+01  0.00000000E+00
  7.80000000E+02  5.00000000E+01  0.00000000E+00
  7.80000000E+02  4.80000000E+01  0.00000000E+00
  7.80000000E+02  4.60000000E+01  0.00000000E+00
  7.80000000E+02  4.40000000E+01  0.00000000E+00
  7.80000000E+02  4.20000000E+01  0.00000000E+00
  7.80000000E+02  4.00000000E+01  0.00000000E+00
  7.80000000E+02  3.80000000E+01  0.00000000E+00
  7.80000000E+02  3.60000000E+01  0.00000000E+00
  7.80000000E+02  3.40000000E+01  0.00000000E+00
  7.80000000E+02  3.20000000E+01  0.00000000E+00
  7.80000000E+02  3.00000000E+01  0.00000000E+00
  7.80000000E+02  2.80000000E+01  0.00000000E+00
  7.80000000E+02  2.60000000E+01  0.00000000E+00
  7.80000000E+02  2.40000000E+01  0.00000000E+00
  7.80000000E+02  2.20000000E+01  0.00000000E+00
  7.80000000E+02  2.00000000E+01  0.00000000E+00
  7.80000000E+02  1.80000000E+01  0.00000000E+00
  7.80000000E+02  1.60000000E+01  0.00000000E+00
  7.80000000E+02  1.40000000E+01  0.00000000E+00
  7.80000000E+02  1.20000000E+01  0.00000000E+00
  7.80000000E+02  1.00000000E+01  0.00000000E+00
  7.80000000E+02  8.00000000E+00  0.00000000E+00
  7.80000000E+02  6.00000000E+00  0.00000000E+00
  7.80000000E+02  4.00000000E+00  0.00000000E+00
  7.80000000E+02  2.00000000E+00  0.00000000E+00
  7.80000000E+02 -3.33066907E-14  0.00000000E+00
  7.90000000E+02  1.00000000E+02  0.00000000E+00
  7.90000000E+02  9.80000000E+01  0.00000000E+00
  7.90000000E+02  9.60000000E+01  0.00000000E+00
  7.90000000E+02  9.40000000E+01  0.00000000E+00
  7.90000000E+02  9.20000000E+01  0.00000000E+00
  7.90000000E+02  9.00000000E+01  0.00000000E+00
  7.90000000E+02  8.80000000E+01  0.00000000E+00
  7.90000000E+02  8.60000000E+01  0.00000000E+00
  7.90000000E+02  8.40000000E+01  0.00000000E+00
  7.90000000E+02  8.20000000E+01  0.00000000E+00
  7.90000000E+02  8.00000000E+01  0.00000000E+00
  7.90000000E+02  7.80000000E+01  0.00000000E+00
  7.90000000E+02  7.60000000E+01  0.00000000E+00
  7.90000000E+02  7.40000000E+01  0.00000000E+00
  7.90000000E+02  7.20000000E+01  0.00000000E+00
  7.90000000E+02  7.00000000E+01  0.00000000E+00
  7.90000000E+02  6.80000000E+01  0.00000000E+00
  7.90000000E+02  6.60000000E+01  0.00000000E+00
  7.90000000E+02  6.40000000E+01  0.00000000E+00
  7.90000000E+02  6.20000000E+01  0.00000000E+00
  7.90000000E+02  6.00000000E+01  0.00000000E+00
  7.90000000E+02  5.80000000E+01  0.00000000E+00
  7.90000000E+02  5.60000000E+01  0.00000000E+00
  7.90000000E+02  5.40000000E+01  0.00000000E+00
  7.90000000E+02  5.20000000E+01  0.00000000E+00
  7.90000000E+02  5.00000000E+01  0.00000000E+00
  7.90000000E+02  4.80000000E+01  0.00000000E+00
  7.90000000E+02  4.60000000E+01  0.00000000E+00
  7.90000000E+02  4.40000000E+01  0.00000000E+00
  7.90000000E+02  4.20000000E+01  0.00000000E+00
  7.90000000E+02  4.00000000E+01  0.00000000E+00
  7.90000000E+02  3.80000000E+01  0.00000000E+00
  7.90000000E+02  3.60000000E+01  0.00000000E+00
  7.90000000E+02  3.40000000E+01  0.00000000E+00
  7.90000000E+02  3.20000000E+01  0.00000000E+00
  7.90000000E+02  3.00000000E+01  0.00000000E+00
  7.90000000E+02  2.80000000E+01  0.00000000E+00
  7.90000000E+02  2.60000000E+01  0.00000000E+00
  7.90000000E+02  2.40000000E+01  0.00000000E+00
  7.90000000E+02  2.20000000E+01  0.00000000E+00
  7.90000000E+02  2.00000000E+01  0.00000000E+00
  7.90000000E+02  1.80000000E+01  0.00000000E+00
  7.90000000E+02  1.60000000E+01  0.00000000E+00
  7.90000000E+02  1.40000000E+01  0.00000000E+00
  7.90000000E+02  1.20000000E+01  0.00000000E+00
  7.90000000E+02  1.00000000E+01  0.00000000E+00
  7.90000000E+02  8.00000000E+00  0.00000000E+00
  7.90000000E+02  6.00000000E+00  0.00000000E+00
  7.90000000E+02  4.00000000E+00  0.00000000E+00
  7.90000000E+02  2.00000000E+00  0.00000000E+00
  7.90000000E+02 -3.33066907E-14  0.00000000E+00
  8.00000000E+02  1.00000000E+02  0.00000000E+00
  8.00000000E+02  9.80000000E+01  0.00000000E+00
  8.00000000E+02  9.60000000E+01  0.00000000E+00
  8.00000000E+02  9.40000000E+01  0.00000000E+00
  8.00000000E+02  9.20000000E+01  0.00000000E+00
  8.00000000E+02  9.00000000E+01  0.00000000E+00
  8.00000000E+02  8.80000000E+01  0.00000000E+00
  8.00000000E+02  8.60000000E+01  0.00000000E+00
  8.00000000E+02  8.40000000E+01  0.00000000E+00
  8.00000000E+02  8.20000000E+01  0.00000000E+00
  8.00000000E+02  8.00000000E+01  0.00000000E+00
  8.00000000E+02  7.80000000E+01  0.00000000E+00
  8.00000000E+02  7.60000000E+01  0.00000000E+00
  8.00000000E+02  7.40000000E+01  0.00000000E+00
  8.00000000E+02  7.20000000E+01  0.00000000E+00
  8.00000000E+02  7.00000000E+01  0.00000000E+00
  8.00000000E+02  6.80000000E+01  0.00000000E+00
  8.00000000E+02  6.60000000E+01  0.00000000E+00
  8.00000000E+02  6.40000000E+01  0.00000000E+00
  8.00000000E+02  6.20000000E+01  0.00000000E+00
  8.00000000E+02  6.00000000E+01  0.00000000E+00
  8.00000000E+02  5.80000000E+01  0.00000000E+00
  8.00000000E+02  5.60000000E+01  0.00000000E+00
  8.00000000E+02  5.40000000E+01  0.00000000E+00
  8.00000000E+02  5.20000000E+01  0.00000000E+00
  8.00000000E+02  5.00000000E+01  0.00000000E+00
  8.00000000E+02  4.80000000E+01  0.00000000E+00
  8.00000000E+02  4.60000000E+01  0.00000000E+00
  8.00000000E+02  4.40000000E+01  0.00000000E+00
  8.00000000E+02  4.20000000E+01  0.00000000E+00
  8.00000000E+02  4.00000000E+01  0.00000000E+00
  8.00000000E+02  3.80000000E+01  0.00000000E+00
  8.00000000E+02  3.60000000E+01  0.00000000E+00
  8.00000000E+02  3.40000000E+01  0.00000000E+00
  8.00000000E+02  3.20000000E+01  0.00000000E+00
  8.00000000E+02  3.00000000E+01  0.00000000E+00
  8.00000000E+02  2.80000000E+01  0.00000000E+00
  8.00000000E+02  2.60000000E+01  0.00000000E+00
  8.00000000E+02  2.40000000E+01  0.00000000E+00
  8.00000000E+02  2.20000000E+01  0.00000000E+00
  8.00000000E+02  2.00000000E+01  0.00000000E+00
  8.00000000E+02  1.80000000E+01  0.00000000E+00
  8.00000000E+02  1.60000000E+01  0.00000000E+00
  8.00000000E+02  1.40000000E+01  0.00000000E+00
  8.00000000E+02  1.20000000E+01  0.00000000E+00
  8.00000000E+02  1.00000000E+01  0.00000000E+00
  8.00000000E+02  8.00000000E+00  0.00000000E+00
  8.00000000E+02  6.00000000E+00  0.00000000E+00
  8.00000000E+02  4.00000000E+00  0.00000000E+00
  8.00000000E+02  2.00000000E+00  0.00000000E+00
  8.00000000E+02 -3.33066907E-14  0.00000000E+00
  8.10000000E+02  1.00000000E+02  0.00000000E+00
  8.10000000E+02  9.80000000E+01  0.00000000E+00
  8.10000000E+02  9.60000000E+01  0.00000000E+00
  8.10000000E+02  9.40000000E+01  0.00000000E+00
  8.10000000E+02  9.20000000E+01  0.00000000E+00
  8.10000000E+02  9.00000000E+01  0.00000000E+00
  8.10000000E+02  8.80000000E+01  0.00000000E+00
  8.10000000E+02  8.60000000E+01  0.00000000E+00
  8.10000000E+02  8.40000000E+01  0.00000000E+00
  8.10000000E+02  8.20000000E+01  0.00000000E+00
  8.10000000E+02  8.00000000E+01  0.00000000E+00
  8.10000000E+02  7.80000000E+01  0.00000000E+00
  8.10000000E+02  7.60000000E+01  0.00000000E+00
  8.10000000E+02  7.40000000E+01  0.00000000E+00
  8.10000000E+02  7.20000000E+01  0.00000000E+00
  8.10000000E+02  7.00000000E+01  0.00000000E+00
  8.10000000E+02  6.80000000E+01  0.00000000E+00
  8.10000000E+02  6.60000000E+01  0.00000000E+00
  8.10000000E+02  6.40000000E+01  0.00000000E+00
  8.10000000E+02  6.20000000E+01  0.00000000E+00
  8.10000000E+02  6.00000000E+01  0.00000000E+00
  8.10000000E+02  5.80000000E+01  0.00000000E+00
  8.10000000E+02  5.60000000E+01  0.00000000E+00
  8.10000000E+02  5.40000000E+01  0.00000000E+00
  8.10000000E+02  5.20000000E+01  0.00000000E+00
  8.10000000E+02  5.00000000E+01  0.00000000E+00
  8.10000000E+02  4.80000000E+01  0.00000000E+00
  8.10000000E+02  4.60000000E+01  0.00000000E+00
  8.10000000E+02  4.40000000E+01  0.00000000E+00
  8.10000000E+02  4.20000000E+01  0.00000000E+00
  8.10000000E+02  4.00000000E+01  0.00000000E+00
  8.10000000E+02  3.80000000E+01  0.00000000E+00
  8.10000000E+02  3.60000000E+01  0.00000000E+00
  8.10000000E+02  3.40000000E+01  0.00000000E+00
  8.10000000E+02  3.20000000E+01  0.00000000E+00
  8.10000000E+02  3.00000000E+01  0.00000000E+00
  8.10000000E+02  2.80000000E+01  0.00000000E+00
  8.10000000E+02  2.60000000E+01  0.00000000E+00
  8.10000000E+02  2.40000000E+01  0.00000000E+00
  8.10000000E+02  2.20000000E+01  0.00000000E+00
  8.10000000E+02  2.00000000E+01  0.00000000E+00
  8.10000000E+02  1.80000000E+01  0.00000000E+00
  8.10000000E+02  1.60000000E+01  0.00000000E+00
  8.10000000E+02  1.40000000E+01  0.00000000E+00
  8.10000000E+02  1.20000000E+01  0.00000000E+00
  8.10000000E+02  1.00000000E+01  0.00000000E+00
  8.10000000E+02  8.00000000E+00  0.00000000E+00
  8.10000000E+02  6.00000000E+00  0.00000000E+00
  8.10000000E+02  4.00000000E+00  0.00000000E+00
  8.10000000E+02  2.00000000E+00  0.00000000E+00
  8.10000000E+02 -3.33066907E-14  0.00000000E+00
  8.20000000E+02  1.00000000E+02  0.00000000E+00
  8.20000000E+02  9.80000000E+01  0.00000000E+00
  8.20000000E+02  9.60000000E+01  0.00000000E+00
  8.20000000E+02  9.40000000E+01  0.00000000E+00
  8.20000000E+02  9.20000000E+01  0.00000000E+00
  8.20000000E+02  9.00000000E+01  0.00000000E+00
  8.20000000E+02  8.80000000E+01  0.00000000E+00
  8.20000000E+02  8.60000000E+01  0.00000000E+00
  8.20000000E+02  8.40000000E+01  0.00000000E+00
  8.20000000E+02  8.20000000E+01  0.00000000E+00
  8.20000000E+02  8.00000000E+01  0.00000000E+00
  8.20000000E+02  7.80000000E+01  0.00000000E+00
  8.20000000E+02  7.60000000E+01  0.00000000E+00
  8.20000000E+02  7.40000000E+01  0.00000000E+00
  8.20000000E+02  7.20000000E+01  0.00000000E+00
  8.20000000E+02  7.00000000E+01  0.00000000E+00
  8.20000000E+02  6.80000000E+01  0.00000000E+00
  8.20000000E+02  6.60000000E+01  0.00000000E+00
  8.20000000E+02  6.40000000E+01  0.00000000E+00
  8.20000000E+02  6.20000000E+01  0.00000000E+00
  8.20000000E+02  6.00000000E+01  0.00000000E+00
  8.20000000E+02  5.80000000E+01  0.00000000E+00
  8.20000000E+02  5.60000000E+01  0.00000000E+00
  8.20000000E+02  5.40000000E+01  0.00000000E+00
  8.20000000E+02  5.20000000E+01  0.00000000E+00
  8.20000000E+02  5.00000000E+01  0.00000000E+00
  8.20000000E+02  4.80000000E+01  0.00000000E+00
  8.20000000E+02  4.60000000E+01  0.00000000E+00
  8.20000000E+02  4.40000000E+01  0.00000000E+00
  8.20000000E+02  4.20000000E+01  0.00000000E+00
  8.20000000E+02  4.00000000E+01  0.00000000E+00
  8.20000000E+02  3.80000000E+01  0.00000000E+00
  8.20000000E+02  3.60000000E+01  0.00000000E+00
  8.20000000E+02  3.40000000E+01  0.00000000E+00
  8.20000000E+02  3.20000000E+01  0.00000000E+00
  8.20000000E+02  3.00000000E+01  0.00000000E+00
  8.20000000E+02  2.80000000E+01  0.00000000E+00
  8.20000000E+02  2.60000000E+01  0.00000000E+00
  8.20000000E+02  2.40000000E+01  0.00000000E+00
  8.20000000E+02  2.20000000E+01  0.00000000E+00
  8.20000000E+02  2.00000000E+01  0.00000000E+00
  8.20000000E+02  1.80000000E+01  0.00000000E+00
  8.20000000E+02  1.60000000E+01  0.00000000E+00
  8.20000000E+02  1.40000000E+01  0.00000000E+00
  8.20000000E+02  1.20000000E+01  0.00000000E+00
  8.20000000E+02  1.00000000E+01  0.00000000E+00
  8.20000000E+02  8.00000000E+00  0.00000000E+00
  8.20000000E+02  6.00000000E+00  0.00000000E+00
  8.20000000E+02  4.00000000E+00  0.00000000E+00
  8.20000000E+02  2.00000000E+00  0.00000000E+00
  8.20000000E+02 -3.33066907E-14  0.00000000E+00
  8.30000000E+02  1.00000000E+02  0.00000000E+00
  8.30000000E+02  9.80000000E+01  0.00000000E+00
  8.30000000E+02  9.60000000E+01  0.00000000E+00
  8.30000000E+02  9.40000000E+01  0.00000000E+00
  8.30000000E+02  9.20000000E+01  0.00000000E+00
  8.30000000E+02  9.00000000E+01  0.00000000E+00
  8.30000000E+02  8.80000000E+01  0.00000000E+00
  8.30000000E+02  8.60000000E+01  0.00000000E+00
  8.30000000E+02  8.40000000E+01  0.00000000E+00
  8.30000000E+02  8.20000000E+01  0.00000000E+00
  8.30000000E+02  8.00000000E+01  0.00000000E+00
  8.30000000E+02  7.80000000E+01  0.00000000E+00
  8.30000000E+02  7.60000000E+01  0.00000000E+00
  8.30000000E+02  7.40000000E+01  0.00000000E+00
  8.30000000E+02  7.20000000E+01  0.00000000E+00
  8.30000000E+02  7.00000000E+01  0.00000000E+00
  8.30000000E+02  6.80000000E+01  0.00000000E+00
  8.30000000E+02  6.60000000E+01  0.00000000E+00
  8.30000000E+02  6.40000000E+01  0.00000000E+00
  8.30000000E+02  6.20000000E+01  0.00000000E+00
  8.30000000E+02  6.00000000E+01  0.00000000E+00
  8.30000000E+02  5.80000000E+01  0.00000000E+00
  8.30000000E+02  5.60000000E+01  0.00000000E+00
  8.30000000E+02  5.40000000E+01  0.00000000E+00
  8.30000000E+02  5.20000000E+01  0.00000000E+00
  8.30000000E+02  5.00000000E+01  0.00000000E+00
  8.30000000E+02  4.80000000E+01  0.00000000E+00
  8.30000000E+02  4.60000000E+01  0.00000000E+00
  8.30000000E+02  4.40000000E+01  0.00000000E+00
  8.30000000E+02  4.20000000E+01  0.00000000E+00
  8.30000000E+02  4.00000000E+01  0.00000000E+00
  8.30000000E+02  3.80000000E+01  0.00000000E+00
  8.30000000E+02  3.60000000E+01  0.00000000E+00
  8.30000000E+02  3.40000000E+01  0.00000000E+00
  8.30000000E+02  3.20000000E+01  0.00000000E+00
  8.30000000E+02  3.00000000E+01  0.00000000E+00
  8.30000000E+02  2.80000000E+01  0.00000000E+00
  8.30000000E+02  2.60000000E+01  0.00000000E+00
  8.30000000E+02  2.40000000E+01  0.00000000E+00
  8.30000000E+02  2.20000000E+01  0.00000000E+00
  8.30000000E+02  2.00000000E+01  0.00000000E+00
  8.30000000E+02  1.80000000E+01  0.00000000E+00
  8.30000000E+02  1.60000000E+01  0.00000000E+00
  8.30000000E+02  1.40000000E+01  0.00000000E+00
  8.30000000E+02  1.20000000E+01  0.00000000E+00
  8.30000000E+02  1.00000000E+01  0.00000000E+00
  8.30000000E+02  8.00000000E+00  0.00000000E+00
  8.30000000E+02  6.00000000E+00  0.00000000E+00
  8.30000000E+02  4.00000000E+00  0.00000000E+00
  8.30000000E+02  2.00000000E+00  0.00000000E+00
  8.30000000E+02 -3.33066907E-14  0.00000000E+00
  8.40000000E+02  1.00000000E+02  0.00000000E+00
  8.40000000E+02  9.80000000E+01  0.00000000E+00
  8.40000000E+02  9.60000000E+01  0.00000000E+00
  8.40000000E+02  9.40000000E+01  0.00000000E+00
  8.40000000E+02  9.20000000E+01  0.00000000E+00
  8.40000000E+02  9.00000000E+01  0.00000000E+00
  8.40000000E+02  8.80000000E+01  0.00000000E+00
  8.40000000E+02  8.60000000E+01  0.00000000E+00
  8.40000000E+02  8.40000000E+01  0.00000000E+00
  8.40000000E+02  8.20000000E+01  0.00000000E+00
  8.40000000E+02  8.00000000E+01  0.00000000E+00
  8.40000000E+02  7.80000000E+01  0.00000000E+00
  8.40000000E+02  7.60000000E+01  0.00000000E+00
  8.40000000E+02  7.40000000E+01  0.00000000E+00
  8.40000000E+02  7.20000000E+01  0.00000000E+00
  8.40000000E+02  7.00000000E+01  0.00000000E+00
  8.40000000E+02  6.80000000E+01  0.00000000E+00
  8.40000000E+02  6.60000000E+01  0.00000000E+00
  8.40000000E+02  6.40000000E+01  0.00000000E+00
  8.40000000E+02  6.20000000E+01  0.00000000E+00
  8.40000000E+02  6.00000000E+01  0.00000000E+00
  8.40000000E+02  5.80000000E+01  0.00000000E+00
  8.40000000E+02  5.60000000E+01  0.00000000E+00
  8.40000000E+02  5.40000000E+01  0.00000000E+00
  8.40000000E+02  5.20000000E+01  0.00000000E+00
  8.40000000E+02  5.00000000E+01  0.00000000E+00
  8.40000000E+02  4.80000000E+01  0.00000000E+00
  8.40000000E+02  4.60000000E+01  0.00000000E+00
  8.40000000E+02  4.40000000E+01  0.00000000E+00
  8.40000000E+02  4.20000000E+01  0.00000000E+00
  8.40000000E+02  4.00000000E+01  0.00000000E+00
  8.40000000E+02  3.80000000E+01  0.00000000E+00
  8.40000000E+02  3.60000000E+01  0.00000000E+00
  8.40000000E+02  3.40000000E+01  0.00000000E+00
  8.40000000E+02  3.20000000E+01  0.00000000E+00
  8.40000000E+02  3.00000000E+01  0.00000000E+00
  8.40000000E+02  2.80000000E+01  0.00000000E+00
  8.40000000E+02  2.60000000E+01  0.00000000E+00
  8.40000000E+02  2.40000000E+01  0.00000000E+00
  8.40000000E+02  2.20000000E+01  0.00000000E+00
  8.40000000E+02  2.00000000E+01  0.00000000E+00
  8.40000000E+02  1.80000000E+01  0.00000000E+00
  8.40000000E+02  1.60000000E+01  0.00000000E+00
  8.40000000E+02  1.40000000E+01  0.00000000E+00
  8.40000000E+02  1.20000000E+01  0.00000000E+00
  8.40000000E+02  1.00000000E+01  0.00000000E+00
  8.40000000E+02  8.00000000E+00  0.00000000E+00
  8.40000000E+02  6.00000000E+00  0.00000000E+00
  8.40000000E+02  4.00000000E+00  0.00000000E+00
  8.40000000E+02  2.00000000E+00  0.00000000E+00
  8.40000000E+02 -3.33066907E-14  0.00000000E+00
  8.50000000E+02  1.00000000E+02  0.00000000E+00
  8.50000000E+02  9.80000000E+01  0.00000000E+00
  8.50000000E+02  9.60000000E+01  0.00000000E+00
  8.50000000E+02  9.40000000E+01  0.00000000E+00
  8.50000000E+02  9.20000000E+01  0.00000000E+00
  8.50000000E+02  9.00000000E+01  0.00000000E+00
  8.50000000E+02  8.80000000E+01  0.00000000E+00
  8.50000000E+02  8.60000000E+01  0.00000000E+00
  8.50000000E+02  8.40000000E+01  0.00000000E+00
  8.50000000E+02  8.20000000E+01  0.00000000E+00
  8.50000000E+02  8.00000000E+01  0.00000000E+00
  8.50000000E+02  7.80000000E+01  0.00000000E+00
  8.50000000E+02  7.60000000E+01  0.00000000E+00
  8.50000000E+02  7.40000000E+01  0.00000000E+00
  8.50000000E+02  7.20000000E+01  0.00000000E+00
  8.50000000E+02  7.00000000E+01  0.00000000E+00
  8.50000000E+02  6.80000000E+01  0.00000000E+00
  8.50000000E+02  6.60000000E+01  0.00000000E+00
  8.50000000E+02  6.40000000E+01  0.00000000E+00
  8.50000000E+02  6.20000000E+01  0.00000000E+00
  8.50000000E+02  6.00000000E+01  0.00000000E+00
  8.50000000E+02  5.80000000E+01  0.00000000E+00
  8.50000000E+02  5.60000000E+01  0.00000000E+00
  8.50000000E+02  5.40000000E+01  0.00000000E+00
  8.50000000E+02  5.20000000E+01  0.00000000E+00
  8.50000000E+02  5.00000000E+01  0.00000000E+00
  8.50000000E+02  4.80000000E+01  0.00000000E+00
  8.50000000E+02  4.60000000E+01  0.00000000E+00
  8.50000000E+02  4.40000000E+01  0.00000000E+00
  8.50000000E+02  4.20000000E+01  0.00000000E+00
  8.50000000E+02  4.00000000E+01  0.00000000E+00
  8.50000000E+02  3.80000000E+01  0.00000000E+00
  8.50000000E+02  3.60000000E+01  0.00000000E+00
  8.50000000E+02  3.40000000E+01  0.00000000E+00
  8.50000000E+02  3.20000000E+01  0.00000000E+00
  8.50000000E+02  3.00000000E+01  0.00000000E+00
  8.50000000E+02  2.80000000E+01  0.00000000E+00
  8.50000000E+02  2.60000000E+01  0.00000000E+00
  8.50000000E+02  2.40000000E+01  0.00000000E+00
  8.50000000E+02  2.20000000E+01  0.00000000E+00
  8.50000000E+02  2.00000000E+01  0.00000000E+00
  8.50000000E+02  1.80000000E+01  0.00000000E+00
  8.50000000E+02  1.60000000E+01  0.00000000E+00
  8.50000000E+02  1.40000000E+01  0.00000000E+00
  8.50000000E+02  1.20000000E+01  0.00000000E+00
  8.50000000E+02  1.00000000E+01  0.00000000E+00
  8.50000000E+02  8.00000000E+00  0.00000000E+00
  8.50000000E+02  6.00000000E+00  0.00000000E+00
  8.50000000E+02  4.00000000E+00  0.00000000E+00
  8.50000000E+02  2.00000000E+00  0.00000000E+00
  8.50000000E+02 -3.33066907E-14  0.00000000E+00
  8.60000000E+02  1.00000000E+02  0.00000000E+00
  8.60000000E+02  9.80000000E+01  0.00000000E+00
  8.60000000E+02  9.60000000E+01  0.00000000E+00
  8.60000000E+02  9.40000000E+01  0.00000000E+00
  8.60000000E+02  9.20000000E+01  0.00000000E+00
  8.60000000E+02  9.00000000E+01  0.00000000E+00
  8.60000000E+02  8.80000000E+01  0.00000000E+00
  8.60000000E+02  8.60000000E+01  0.00000000E+00
  8.60000000E+02  8.40000000E+01  0.00000000E+00
  8.60000000E+02  8.20000000E+01  0.00000000E+00
  8.60000000E+02  8.00000000E+01  0.00000000E+00
  8.60000000E+02  7.80000000E+01  0.00000000E+00
  8.60000000E+02  7.60000000E+01  0.00000000E+00
  8.60000000E+02  7.40000000E+01  0.00000000E+00
  8.60000000E+02  7.20000000E+01  0.00000000E+00
  8.60000000E+02  7.00000000E+01  0.00000000E+00
  8.60000000E+02  6.80000000E+01  0.00000000E+00
  8.60000000E+02  6.60000000E+01  0.00000000E+00
  8.60000000E+02  6.40000000E+01  0.00000000E+00
  8.60000000E+02  6.20000000E+01  0.00000000E+00
  8.60000000E+02  6.00000000E+01  0.00000000E+00
  8.60000000E+02  5.80000000E+01  0.00000000E+00
  8.60000000E+02  5.60000000E+01  0.00000000E+00
  8.60000000E+02  5.40000000E+01  0.00000000E+00
  8.60000000E+02  5.20000000E+01  0.00000000E+00
  8.60000000E+02  5.00000000E+01  0.00000000E+00
  8.60000000E+02  4.80000000E+01  0.00000000E+00
  8.60000000E+02  4.60000000E+01  0.00000000E+00
  8.60000000E+02  4.40000000E+01  0.00000000E+00
  8.60000000E+02  4.20000000E+01  0.00000000E+00
  8.60000000E+02  4.00000000E+01  0.00000000E+00
  8.60000000E+02  3.80000000E+01  0.00000000E+00
  8.60000000E+02  3.60000000E+01  0.00000000E+00
  8.60000000E+02  3.40000000E+01  0.00000000E+00
  8.60000000E+02  3.20000000E+01  0.00000000E+00
  8.60000000E+02  3.00000000E+01  0.00000000E+00
  8.60000000E+02  2.80000000E+01  0.00000000E+00
  8.60000000E+02  2.60000000E+01  0.00000000E+00
  8.60000000E+02  2.40000000E+01  0.00000000E+00
  8.60000000E+02  2.20000000E+01  0.00000000E+00
  8.60000000E+02  2.00000000E+01  0.00000000E+00
  8.60000000E+02  1.80000000E+01  0.00000000E+00
  8.60000000E+02  1.60000000E+01  0.00000000E+00
  8.60000000E+02  1.40000000E+01  0.00000000E+00
  8.60000000E+02  1.20000000E+01  0.00000000E+00
  8.60000000E+02  1.00000000E+01  0.00000000E+00
  8.60000000E+02  8.00000000E+00  0.00000000E+00
  8.60000000E+02  6.00000000E+00  0.00000000E+00
  8.60000000E+02  4.00000000E+00  0.00000000E+00
  8.60000000E+02  2.00000000E+00  0.00000000E+00
  8.60000000E+02 -3.33066907E-14  0.00000000E+00
  8.70000000E+02  1.00000000E+02  0.00000000E+00
  8.70000000E+02  9.80000000E+01  0.00000000E+00
  8.70000000E+02  9.60000000E+01  0.00000000E+00
  8.70000000E+02  9.40000000E+01  0.00000000E+00
  8.70000000E+02  9.20000000E+01  0.00000000E+00
  8.70000000E+02  9.00000000E+01  0.00000000E+00
  8.70000000E+02  8.80000000E+01  0.00000000E+00
  8.70000000E+02  8.60000000E+01  0.00000000E+00
  8.70000000E+02  8.40000000E+01  0.00000000E+00
  8.70000000E+02  8.20000000E+01  0.00000000E+00
  8.70000000E+02  8.00000000E+01  0.00000000E+00
  8.70000000E+02  7.80000000E+01  0.00000000E+00
  8.70000000E+02  7.60000000E+01  0.00000000E+00
  8.70000000E+02  7.40000000E+01  0.00000000E+00
  8.70000000E+02  7.20000000E+01  0.00000000E+00
  8.70000000E+02  7.00000000E+01  0.00000000E+00
  8.70000000E+02  6.80000000E+01  0.00000000E+00
  8.70000000E+02  6.60000000E+01  0.00000000E+00
  8.70000000E+02  6.40000000E+01  0.00000000E+00
  8.70000000E+02  6.20000000E+01  0.00000000E+00
  8.70000000E+02  6.00000000E+01  0.00000000E+00
  8.70000000E+02  5.80000000E+01  0.00000000E+00
  8.70000000E+02  5.60000000E+01  0.00000000E+00
  8.70000000E+02  5.40000000E+01  0.00000000E+00
  8.70000000E+02  5.20000000E+01  0.00000000E+00
  8.70000000E+02  5.00000000E+01  0.00000000E+00
  8.70000000E+02  4.80000000E+01  0.00000000E+00
  8.70000000E+02  4.60000000E+01  0.00000000E+00
  8.70000000E+02  4.40000000E+01  0.00000000E+00
  8.70000000E+02  4.20000000E+01  0.00000000E+00
  8.70000000E+02  4.00000000E+01  0.00000000E+00
  8.70000000E+02  3.80000000E+01  0.00000000E+00
  8.70000000E+02  3.60000000E+01  0.00000000E+00
  8.70000000E+02  3.40000000E+01  0.00000000E+00
  8.70000000E+02  3.20000000E+01  0.00000000E+00
  8.70000000E+02  3.00000000E+01  0.00000000E+00
  8.70000000E+02  2.80000000E+01  0.00000000E+00
  8.70000000E+02  2.60000000E+01  0.00000000E+00
  8.70000000E+02  2.40000000E+01  0.00000000E+00
  8.70000000E+02  2.20000000E+01  0.00000000E+00
  8.70000000E+02  2.00000000E+01  0.00000000E+00
  8.70000000E+02  1.80000000E+01  0.00000000E+00
  8.70000000E+02  1.60000000E+01  0.00000000E+00
  8.70000000E+02  1.40000000E+01  0.00000000E+00
  8.70000000E+02  1.20000000E+01  0.00000000E+00
  8.70000000E+02  1.00000000E+01  0.00000000E+00
  8.70000000E+02  8.00000000E+00  0.00000000E+00
  8.70000000E+02  6.00000000E+00  0.00000000E+00
  8.70000000E+02  4.00000000E+00  0.00000000E+00
  8.70000000E+02  2.00000000E+00  0.00000000E+00
  8.70000000E+02 -3.33066907E-14  0.00000000E+00
  8.80000000E+02  1.00000000E+02  0.00000000E+00
  8.80000000E+02  9.80000000E+01  0.00000000E+00
  8.80000000E+02  9.60000000E+01  0.00000000E+00
  8.80000000E+02  9.40000000E+01  0.00000000E+00
  8.80000000E+02  9.20000000E+01  0.00000000E+00
  8.80000000E+02  9.00000000E+01  0.00000000E+00
  8.80000000E+02  8.80000000E+01  0.00000000E+00
  8.80000000E+02  8.60000000E+01  0.00000000E+00
  8.80000000E+02  8.40000000E+01  0.00000000E+00
  8.80000000E+02  8.20000000E+01  0.00000000E+00
  8.80000000E+02  8.00000000E+01  0.00000000E+00
  8.80000000E+02  7.80000000E+01  0.00000000E+00
  8.80000000E+02  7.60000000E+01  0.00000000E+00
  8.80000000E+02  7.40000000E+01  0.00000000E+00
  8.80000000E+02  7.20000000E+01  0.00000000E+00
  8.80000000E+02  7.00000000E+01  0.00000000E+00
  8.80000000E+02  6.80000000E+01  0.00000000E+00
  8.80000000E+02  6.60000000E+01  0.00000000E+00
  8.80000000E+02  6.40000000E+01  0.00000000E+00
  8.80000000E+02  6.20000000E+01  0.00000000E+00
  8.80000000E+02  6.00000000E+01  0.00000000E+00
  8.80000000E+02  5.80000000E+01  0.00000000E+00
  8.80000000E+02  5.60000000E+01  0.00000000E+00
  8.80000000E+02  5.40000000E+01  0.00000000E+00
  8.80000000E+02  5.20000000E+01  0.00000000E+00
  8.80000000E+02  5.00000000E+01  0.00000000E+00
  8.80000000E+02  4.80000000E+01  0.00000000E+00
  8.80000000E+02  4.60000000E+01  0.00000000E+00
  8.80000000E+02  4.40000000E+01  0.00000000E+00
  8.80000000E+02  4.20000000E+01  0.00000000E+00
  8.80000000E+02  4.00000000E+01  0.00000000E+00
  8.80000000E+02  3.80000000E+01  0.00000000E+00
  8.80000000E+02  3.60000000E+01  0.00000000E+00
  8.80000000E+02  3.40000000E+01  0.00000000E+00
  8.80000000E+02  3.20000000E+01  0.00000000E+00
  8.80000000E+02  3.00000000E+01  0.00000000E+00
  8.80000000E+02  2.80000000E+01  0.00000000E+00
  8.80000000E+02  2.60000000E+01  0.00000000E+00
  8.80000000E+02  2.40000000E+01  0.00000000E+00
  8.80000000E+02  2.20000000E+01  0.00000000E+00
  8.80000000E+02  2.00000000E+01  0.00000000E+00
  8.80000000E+02  1.80000000E+01  0.00000000E+00
  8.80000000E+02  1.60000000E+01  0.00000000E+00
  8.80000000E+02  1.40000000E+01  0.00000000E+00
  8.80000000E+02  1.20000000E+01  0.00000000E+00
  8.80000000E+02  1.00000000E+01  0.00000000E+00
  8.80000000E+02  8.00000000E+00  0.00000000E+00
  8.80000000E+02  6.00000000E+00  0.00000000E+00
  8.80000000E+02  4.00000000E+00  0.00000000E+00
  8.80000000E+02  2.00000000E+00  0.00000000E+00
  8.80000000E+02 -3.33066907E-14  0.00000000E+00
  8.90000000E+02  1.00000000E+02  0.00000000E+00
  8.90000000E+02  9.80000000E+01  0.00000000E+00
  8.90000000E+02  9.60000000E+01  0.00000000E+00
  8.90000000E+02  9.40000000E+01  0.00000000E+00
  8.90000000E+02  9.20000000E+01  0.00000000E+00
  8.90000000E+02  9.00000000E+01  0.00000000E+00
  8.90000000E+02  8.80000000E+01  0.00000000E+00
  8.90000000E+02  8.60000000E+01  0.00000000E+00
  8.90000000E+02  8.40000000E+01  0.00000000E+00
  8.90000000E+02  8.20000000E+01  0.00000000E+00
  8.90000000E+02  8.00000000E+01  0.00000000E+00
  8.90000000E+02  7.80000000E+01  0.00000000E+00
  8.90000000E+02  7.60000000E+01  0.00000000E+00
  8.90000000E+02  7.40000000E+01  0.00000000E+00
  8.90000000E+02  7.20000000E+01  0.00000000E+00
  8.90000000E+02  7.00000000E+01  0.00000000E+00
  8.90000000E+02  6.80000000E+01  0.00000000E+00
  8.90000000E+02  6.60000000E+01  0.00000000E+00
  8.90000000E+02  6.40000000E+01  0.00000000E+00
  8.90000000E+02  6.20000000E+01  0.00000000E+00
  8.90000000E+02  6.00000000E+01  0.00000000E+00
  8.90000000E+02  5.80000000E+01  0.00000000E+00
  8.90000000E+02  5.60000000E+01  0.00000000E+00
  8.90000000E+02  5.40000000E+01  0.00000000E+00
  8.90000000E+02  5.20000000E+01  0.00000000E+00
  8.90000000E+02  5.00000000E+01  0.00000000E+00
  8.90000000E+02  4.80000000E+01  0.00000000E+00
  8.90000000E+02  4.60000000E+01  0.00000000E+00
  8.90000000E+02  4.40000000E+01  0.00000000E+00
  8.90000000E+02  4.20000000E+01  0.00000000E+00
  8.90000000E+02  4.00000000E+01  0.00000000E+00
  8.90000000E+02  3.80000000E+01  0.00000000E+00
  8.90000000E+02  3.60000000E+01  0.00000000E+00
  8.90000000E+02  3.40000000E+01  0.00000000E+00
  8.90000000E+02  3.20000000E+01  0.00000000E+00
  8.90000000E+02  3.00000000E+01  0.00000000E+00
  8.90000000E+02  2.80000000E+01  0.00000000E+00
  8.90000000E+02  2.60000000E+01  0.00000000E+00
  8.90000000E+02  2.40000000E+01  0.00000000E+00
  8.90000000E+02  2.20000000E+01  0.00000000E+00
  8.90000000E+02  2.00000000E+01  0.00000000E+00
  8.90000000E+02  1.80000000E+01  0.00000000E+00
  8.90000000E+02  1.60000000E+01  0.00000000E+00
  8.90000000E+02  1.40000000E+01  0.00000000E+00
  8.90000000E+02  1.20000000E+01  0.00000000E+00
  8.90000000E+02  1.00000000E+01  0.00000000E+00
  8.90000000E+02  8.00000000E+00  0.00000000E+00
  8.90000000E+02  6.00000000E+00  0.00000000E+00
  8.90000000E+02  4.00000000E+00  0.00000000E+00
  8.90000000E+02  2.00000000E+00  0.00000000E+00
  8.90000000E+02 -3.33066907E-14  0.00000000E+00
  9.00000000E+02  1.00000000E+02  0.00000000E+00
  9.00000000E+02  9.80000000E+01  0.00000000E+00
  9.00000000E+02  9.60000000E+01  0.00000000E+00
  9.00000000E+02  9.40000000E+01  0.00000000E+00
  9.00000000E+02  9.20000000E+01  0.00000000E+00
  9.00000000E+02  9.00000000E+01  0.00000000E+00
  9.00000000E+02  8.80000000E+01  0.00000000E+00
  9.00000000E+02  8.60000000E+01  0.00000000E+00
  9.00000000E+02  8.40000000E+01  0.00000000E+00
  9.00000000E+02  8.20000000E+01  0.00000000E+00
  9.00000000E+02  8.00000000E+01  0.00000000E+00
  9.00000000E+02  7.80000000E+01  0.00000000E+00
  9.00000000E+02  7.60000000E+01  0.00000000E+00
  9.00000000E+02  7.40000000E+01  0.00000000E+00
  9.00000000E+02  7.20000000E+01  0.00000000E+00
  9.00000000E+02  7.00000000E+01  0.00000000E+00
  9.00000000E+02  6.80000000E+01  0.00000000E+00
  9.00000000E+02  6.60000000E+01  0.00000000E+00
  9.00000000E+02  6.40000000E+01  0.00000000E+00
  9.00000000E+02  6.20000000E+01  0.00000000E+00
  9.00000000E+02  6.00000000E+01  0.00000000E+00
  9.00000000E+02  5.80000000E+01  0.00000000E+00
  9.00000000E+02  5.60000000E+01  0.00000000E+00
  9.00000000E+02  5.40000000E+01  0.00000000E+00
  9.00000000E+02  5.20000000E+01  0.00000000E+00
  9.00000000E+02  5.00000000E+01  0.00000000E+00
  9.00000000E+02  4.80000000E+01  0.00000000E+00
  9.00000000E+02  4.60000000E+01  0.00000000E+00
  9.00000000E+02  4.40000000E+01  0.00000000E+00
  9.00000000E+02  4.20000000E+01  0.00000000E+00
  9.00000000E+02  4.00000000E+01  0.00000000E+00
  9.00000000E+02  3.80000000E+01  0.00000000E+00
  9.00000000E+02  3.60000000E+01  0.00000000E+00
  9.00000000E+02  3.40000000E+01  0.00000000E+00
  9.00000000E+02  3.20000000E+01  0.00000000E+00
  9.00000000E+02  3.00000000E+01  0.00000000E+00
  9.00000000E+02  2.80000000E+01  0.00000000E+00
  9.00000000E+02  2.60000000E+01  0.00000000E+00
  9.00000000E+02  2.40000000E+01  0.00000000E+00
  9.00000000E+02  2.20000000E+01  0.00000000E+00
  9.00000000E+02  2.00000000E+01  0.00000000E+00
  9.00000000E+02  1.80000000E+01  0.00000000E+00
  9.00000000E+02  1.60000000E+01  0.00000000E+00
  9.00000000E+02  1.40000000E+01  0.00000000E+00
  9.00000000E+02  1.20000000E+01  0.00000000E+00
  9.00000000E+02  1.00000000E+01  0.00000000E+00
  9.00000000E+02  8.00000000E+00  0.00000000E+00
  9.00000000E+02  6.00000000E+00  0.00000000E+00
  9.00000000E+02  4.00000000E+00  0.00000000E+00
  9.00000000E+02  2.00000000E+00  0.00000000E+00
  9.00000000E+02 -3.33066907E-14  0.00000000E+00
  9.10000000E+02  1.00000000E+02  0.00000000E+00
  9.10000000E+02  9.80000000E+01  0.00000000E+00
  9.10000000E+02  9.60000000E+01  0.00000000E+00
  9.10000000E+02  9.40000000E+01  0.00000000E+00
  9.10000000E+02  9.20000000E+01  0.00000000E+00
  9.10000000E+02  9.00000000E+01  0.00000000E+00
  9.10000000E+02  8.80000000E+01  0.00000000E+00
  9.10000000E+02  8.60000000E+01  0.00000000E+00
  9.10000000E+02  8.40000000E+01  0.00000000E+00
  9.10000000E+02  8.20000000E+01  0.00000000E+00
  9.10000000E+02  8.00000000E+01  0.00000000E+00
  9.10000000E+02  7.80000000E+01  0.00000000E+00
  9.10000000E+02  7.60000000E+01  0.00000000E+00
  9.10000000E+02  7.40000000E+01  0.00000000E+00
  9.10000000E+02  7.20000000E+01  0.00000000E+00
  9.10000000E+02  7.00000000E+01  0.00000000E+00
  9.10000000E+02  6.80000000E+01  0.00000000E+00
  9.10000000E+02  6.60000000E+01  0.00000000E+00
  9.10000000E+02  6.40000000E+01  0.00000000E+00
  9.10000000E+02  6.20000000E+01  0.00000000E+00
  9.10000000E+02  6.00000000E+01  0.00000000E+00
  9.10000000E+02  5.80000000E+01  0.00000000E+00
  9.10000000E+02  5.60000000E+01  0.00000000E+00
  9.10000000E+02  5.40000000E+01  0.00000000E+00
  9.10000000E+02  5.20000000E+01  0.00000000E+00
  9.10000000E+02  5.00000000E+01  0.00000000E+00
  9.10000000E+02  4.80000000E+01  0.00000000E+00
  9.10000000E+02  4.60000000E+01  0.00000000E+00
  9.10000000E+02  4.40000000E+01  0.00000000E+00
  9.10000000E+02  4.20000000E+01  0.00000000E+00
  9.10000000E+02  4.00000000E+01  0.00000000E+00
  9.10000000E+02  3.80000000E+01  0.00000000E+00
  9.10000000E+02  3.60000000E+01  0.00000000E+00
  9.10000000E+02  3.40000000E+01  0.00000000E+00
  9.10000000E+02  3.20000000E+01  0.00000000E+00
  9.10000000E+02  3.00000000E+01  0.00000000E+00
  9.10000000E+02  2.80000000E+01  0.00000000E+00
  9.10000000E+02  2.60000000E+01  0.00000000E+00
  9.10000000E+02  2.40000000E+01  0.00000000E+00
  9.10000000E+02  2.20000000E+01  0.00000000E+00
  9.10000000E+02  2.00000000E+01  0.00000000E+00
  9.10000000E+02  1.80000000E+01  0.00000000E+00
  9.10000000E+02  1.60000000E+01  0.00000000E+00
  9.10000000E+02  1.40000000E+01  0.00000000E+00
  9.10000000E+02  1.20000000E+01  0.00000000E+00
  9.10000000E+02  1.00000000E+01  0.00000000E+00
  9.10000000E+02  8.00000000E+00  0.00000000E+00
  9.10000000E+02  6.00000000E+00  0.00000000E+00
  9.10000000E+02  4.00000000E+00  0.00000000E+00
  9.10000000E+02  2.00000000E+00  0.00000000E+00
  9.10000000E+02 -3.33066907E-14  0.00000000E+00
  9.20000000E+02  1.00000000E+02  0.00000000E+00
  9.20000000E+02  9.80000000E+01  0.00000000E+00
  9.20000000E+02  9.60000000E+01  0.00000000E+00
  9.20000000E+02  9.40000000E+01  0.00000000E+00
  9.20000000E+02  9.20000000E+01  0.00000000E+00
  9.20000000E+02  9.00000000E+01  0.00000000E+00
  9.20000000E+02  8.80000000E+01  0.00000000E+00
  9.20000000E+02  8.60000000E+01  0.00000000E+00
  9.20000000E+02  8.40000000E+01  0.00000000E+00
  9.20000000E+02  8.20000000E+01  0.00000000E+00
  9.20000000E+02  8.00000000E+01  0.00000000E+00
  9.20000000E+02  7.80000000E+01  0.00000000E+00
  9.20000000E+02  7.60000000E+01  0.00000000E+00
  9.20000000E+02  7.40000000E+01  0.00000000E+00
  9.20000000E+02  7.20000000E+01  0.00000000E+00
  9.20000000E+02  7.00000000E+01  0.00000000E+00
  9.20000000E+02  6.80000000E+01  0.00000000E+00
  9.20000000E+02  6.60000000E+01  0.00000000E+00
  9.20000000E+02  6.40000000E+01  0.00000000E+00
  9.20000000E+02  6.20000000E+01  0.00000000E+00
  9.20000000E+02  6.00000000E+01  0.00000000E+00
  9.20000000E+02  5.80000000E+01  0.00000000E+00
  9.20000000E+02  5.60000000E+01  0.00000000E+00
  9.20000000E+02  5.40000000E+01  0.00000000E+00
  9.20000000E+02  5.20000000E+01  0.00000000E+00
  9.20000000E+02  5.00000000E+01  0.00000000E+00
  9.20000000E+02  4.80000000E+01  0.00000000E+00
  9.20000000E+02  4.60000000E+01  0.00000000E+00
  9.20000000E+02  4.40000000E+01  0.00000000E+00
  9.20000000E+02  4.20000000E+01  0.00000000E+00
  9.20000000E+02  4.00000000E+01  0.00000000E+00
  9.20000000E+02  3.80000000E+01  0.00000000E+00
  9.20000000E+02  3.60000000E+01  0.00000000E+00
  9.20000000E+02  3.40000000E+01  0.00000000E+00
  9.20000000E+02  3.20000000E+01  0.00000000E+00
  9.20000000E+02  3.00000000E+01  0.00000000E+00
  9.20000000E+02  2.80000000E+01  0.00000000E+00
  9.20000000E+02  2.60000000E+01  0.00000000E+00
  9.20000000E+02  2.40000000E+01  0.00000000E+00
  9.20000000E+02  2.20000000E+01  0.00000000E+00
  9.20000000E+02  2.00000000E+01  0.00000000E+00
  9.20000000E+02  1.80000000E+01  0.00000000E+00
  9.20000000E+02  1.60000000E+01  0.00000000E+00
  9.20000000E+02  1.40000000E+01  0.00000000E+00
  9.20000000E+02  1.20000000E+01  0.00000000E+00
  9.20000000E+02  1.00000000E+01  0.00000000E+00
  9.20000000E+02  8.00000000E+00  0.00000000E+00
  9.20000000E+02  6.00000000E+00  0.00000000E+00
  9.20000000E+02  4.00000000E+00  0.00000000E+00
  9.20000000E+02  2.00000000E+00  0.00000000E+00
  9.20000000E+02 -3.33066907E-14  0.00000000E+00
  9.30000000E+02  1.00000000E+02  0.00000000E+00
  9.30000000E+02  9.80000000E+01  0.00000000E+00
  9.30000000E+02  9.60000000E+01  0.00000000E+00
  9.30000000E+02  9.40000000E+01  0.00000000E+00
  9.30000000E+02  9.20000000E+01  0.00000000E+00
  9.30000000E+02  9.00000000E+01  0.00000000E+00
  9.30000000E+02  8.80000000E+01  0.00000000E+00
  9.30000000E+02  8.60000000E+01  0.00000000E+00
  9.30000000E+02  8.40000000E+01  0.00000000E+00
  9.30000000E+02  8.20000000E+01  0.00000000E+00
  9.30000000E+02  8.00000000E+01  0.00000000E+00
  9.30000000E+02  7.80000000E+01  0.00000000E+00
  9.30000000E+02  7.60000000E+01  0.00000000E+00
  9.30000000E+02  7.40000000E+01  0.00000000E+00
  9.30000000E+02  7.20000000E+01  0.00000000E+00
  9.30000000E+02  7.00000000E+01  0.00000000E+00
  9.30000000E+02  6.80000000E+01  0.00000000E+00
  9.30000000E+02  6.60000000E+01  0.00000000E+00
  9.30000000E+02  6.40000000E+01  0.00000000E+00
  9.30000000E+02  6.20000000E+01  0.00000000E+00
  9.30000000E+02  6.00000000E+01  0.00000000E+00
  9.30000000E+02  5.80000000E+01  0.00000000E+00
  9.30000000E+02  5.60000000E+01  0.00000000E+00
  9.30000000E+02  5.40000000E+01  0.00000000E+00
  9.30000000E+02  5.20000000E+01  0.00000000E+00
  9.30000000E+02  5.00000000E+01  0.00000000E+00
  9.30000000E+02  4.80000000E+01  0.00000000E+00
  9.30000000E+02  4.60000000E+01  0.00000000E+00
  9.30000000E+02  4.40000000E+01  0.00000000E+00
  9.30000000E+02  4.20000000E+01  0.00000000E+00
  9.30000000E+02  4.00000000E+01  0.00000000E+00
  9.30000000E+02  3.80000000E+01  0.00000000E+00
  9.30000000E+02  3.60000000E+01  0.00000000E+00
  9.30000000E+02  3.40000000E+01  0.00000000E+00
  9.30000000E+02  3.20000000E+01  0.00000000E+00
  9.30000000E+02  3.00000000E+01  0.00000000E+00
  9.30000000E+02  2.80000000E+01  0.00000000E+00
  9.30000000E+02  2.60000000E+01  0.00000000E+00
  9.30000000E+02  2.40000000E+01  0.00000000E+00
  9.30000000E+02  2.20000000E+01  0.00000000E+00
  9.30000000E+02  2.00000000E+01  0.00000000E+00
  9.30000000E+02  1.80000000E+01  0.00000000E+00
  9.30000000E+02  1.60000000E+01  0.00000000E+00
  9.30000000E+02  1.40000000E+01  0.00000000E+00
  9.30000000E+02  1.20000000E+01  0.00000000E+00
  9.30000000E+02  1.00000000E+01  0.00000000E+00
  9.30000000E+02  8.00000000E+00  0.00000000E+00
  9.30000000E+02  6.00000000E+00  0.00000000E+00
  9.30000000E+02  4.00000000E+00  0.00000000E+00
  9.30000000E+02  2.00000000E+00  0.00000000E+00
  9.30000000E+02 -3.33066907E-14  0.00000000E+00
  9.40000000E+02  1.00000000E+02  0.00000000E+00
  9.40000000E+02  9.80000000E+01  0.00000000E+00
  9.40000000E+02  9.60000000E+01  0.00000000E+00
  9.40000000E+02  9.40000000E+01  0.00000000E+00
  9.40000000E+02  9.20000000E+01  0.00000000E+00
  9.40000000E+02  9.00000000E+01  0.00000000E+00
  9.40000000E+02  8.80000000E+01  0.00000000E+00
  9.40000000E+02  8.60000000E+01  0.00000000E+00
  9.40000000E+02  8.40000000E+01  0.00000000E+00
  9.40000000E+02  8.20000000E+01  0.00000000E+00
  9.40000000E+02  8.00000000E+01  0.00000000E+00
  9.40000000E+02  7.80000000E+01  0.00000000E+00
  9.40000000E+02  7.60000000E+01  0.00000000E+00
  9.40000000E+02  7.40000000E+01  0.00000000E+00
  9.40000000E+02  7.20000000E+01  0.00000000E+00
  9.40000000E+02  7.00000000E+01  0.00000000E+00
  9.40000000E+02  6.80000000E+01  0.00000000E+00
  9.40000000E+02  6.60000000E+01  0.00000000E+00
  9.40000000E+02  6.40000000E+01  0.00000000E+00
  9.40000000E+02  6.20000000E+01  0.00000000E+00
  9.40000000E+02  6.00000000E+01  0.00000000E+00
  9.40000000E+02  5.80000000E+01  0.00000000E+00
  9.40000000E+02  5.60000000E+01  0.00000000E+00
  9.40000000E+02  5.40000000E+01  0.00000000E+00
  9.40000000E+02  5.20000000E+01  0.00000000E+00
  9.40000000E+02  5.00000000E+01  0.00000000E+00
  9.40000000E+02  4.80000000E+01  0.00000000E+00
  9.40000000E+02  4.60000000E+01  0.00000000E+00
  9.40000000E+02  4.40000000E+01  0.00000000E+00
  9.40000000E+02  4.20000000E+01  0.00000000E+00
  9.40000000E+02  4.00000000E+01  0.00000000E+00
  9.40000000E+02  3.80000000E+01  0.00000000E+00
  9.40000000E+02  3.60000000E+01  0.00000000E+00
  9.40000000E+02  3.40000000E+01  0.00000000E+00
  9.40000000E+02  3.20000000E+01  0.00000000E+00
  9.40000000E+02  3.00000000E+01  0.00000000E+00
  9.40000000E+02  2.80000000E+01  0.00000000E+00
  9.40000000E+02  2.60000000E+01  0.00000000E+00
  9.40000000E+02  2.40000000E+01  0.00000000E+00
  9.40000000E+02  2.20000000E+01  0.00000000E+00
  9.40000000E+02  2.00000000E+01  0.00000000E+00
  9.40000000E+02  1.80000000E+01  0.00000000E+00
  9.40000000E+02  1.60000000E+01  0.00000000E+00
  9.40000000E+02  1.40000000E+01  0.00000000E+00
  9.40000000E+02  1.20000000E+01  0.00000000E+00
  9.40000000E+02  1.00000000E+01  0.00000000E+00
  9.40000000E+02  8.00000000E+00  0.00000000E+00
  9.40000000E+02  6.00000000E+00  0.00000000E+00
  9.40000000E+02  4.00000000E+00  0.00000000E+00
  9.40000000E+02  2.00000000E+00  0.00000000E+00
  9.40000000E+02 -3.33066907E-14  0.00000000E+00
  9.50000000E+02  1.00000000E+02  0.00000000E+00
  9.50000000E+02  9.80000000E+01  0.00000000E+00
  9.50000000E+02  9.60000000E+01  0.00000000E+00
  9.50000000E+02  9.40000000E+01  0.00000000E+00
  9.50000000E+02  9.20000000E+01  0.00000000E+00
  9.50000000E+02  9.00000000E+01  0.00000000E+00
  9.50000000E+02  8.80000000E+01  0.00000000E+00
  9.50000000E+02  8.60000000E+01  0.00000000E+00
  9.50000000E+02  8.40000000E+01  0.00000000E+00
  9.50000000E+02  8.20000000E+01  0.00000000E+00
  9.50000000E+02  8.00000000E+01  0.00000000E+00
  9.50000000E+02  7.80000000E+01  0.00000000E+00
  9.50000000E+02  7.60000000E+01  0.00000000E+00
  9.50000000E+02  7.40000000E+01  0.00000000E+00
  9.50000000E+02  7.20000000E+01  0.00000000E+00
  9.50000000E+02  7.00000000E+01  0.00000000E+00
  9.50000000E+02  6.80000000E+01  0.00000000E+00
  9.50000000E+02  6.60000000E+01  0.00000000E+00
  9.50000000E+02  6.40000000E+01  0.00000000E+00
  9.50000000E+02  6.20000000E+01  0.00000000E+00
  9.50000000E+02  6.00000000E+01  0.00000000E+00
  9.50000000E+02  5.80000000E+01  0.00000000E+00
  9.50000000E+02  5.60000000E+01  0.00000000E+00
  9.50000000E+02  5.40000000E+01  0.00000000E+00
  9.50000000E+02  5.20000000E+01  0.00000000E+00
  9.50000000E+02  5.00000000E+01  0.00000000E+00
  9.50000000E+02  4.80000000E+01  0.00000000E+00
  9.50000000E+02  4.60000000E+01  0.00000000E+00
  9.50000000E+02  4.40000000E+01  0.00000000E+00
  9.50000000E+02  4.20000000E+01  0.00000000E+00
  9.50000000E+02  4.00000000E+01  0.00000000E+00
  9.50000000E+02  3.80000000E+01  0.00000000E+00
  9.50000000E+02  3.60000000E+01  0.00000000E+00
  9.50000000E+02  3.40000000E+01  0.00000000E+00
  9.50000000E+02  3.20000000E+01  0.00000000E+00
  9.50000000E+02  3.00000000E+01  0.00000000E+00
  9.50000000E+02  2.80000000E+01  0.00000000E+00
  9.50000000E+02  2.60000000E+01  0.00000000E+00
  9.50000000E+02  2.40000000E+01  0.00000000E+00
  9.50000000E+02  2.20000000E+01  0.00000000E+00
  9.50000000E+02  2.00000000E+01  0.00000000E+00
  9.50000000E+02  1.80000000E+01  0.00000000E+00
  9.50000000E+02  1.60000000E+01  0.00000000E+00
  9.50000000E+02  1.40000000E+01  0.00000000E+00
  9.50000000E+02  1.20000000E+01  0.00000000E+00
  9.50000000E+02  1.00000000E+01  0.00000000E+00
  9.50000000E+02  8.00000000E+00  0.00000000E+00
  9.50000000E+02  6.00000000E+00  0.00000000E+00
  9.50000000E+02  4.00000000E+00  0.00000000E+00
  9.50000000E+02  2.00000000E+00  0.00000000E+00
  9.50000000E+02 -3.33066907E-14  0.00000000E+00
  9.60000000E+02  1.00000000E+02  0.00000000E+00
  9.60000000E+02  9.80000000E+01  0.00000000E+00
  9.60000000E+02  9.60000000E+01  0.00000000E+00
  9.60000000E+02  9.40000000E+01  0.00000000E+00
  9.60000000E+02  9.20000000E+01  0.00000000E+00
  9.60000000E+02  9.00000000E+01  0.00000000E+00
  9.60000000E+02  8.80000000E+01  0.00000000E+00
  9.60000000E+02  8.60000000E+01  0.00000000E+00
  9.60000000E+02  8.40000000E+01  0.00000000E+00
  9.60000000E+02  8.20000000E+01  0.00000000E+00
  9.60000000E+02  8.00000000E+01  0.00000000E+00
  9.60000000E+02  7.80000000E+01  0.00000000E+00
  9.60000000E+02  7.60000000E+01  0.00000000E+00
  9.60000000E+02  7.40000000E+01  0.00000000E+00
  9.60000000E+02  7.20000000E+01  0.00000000E+00
  9.60000000E+02  7.00000000E+01  0.00000000E+00
  9.60000000E+02  6.80000000E+01  0.00000000E+00
  9.60000000E+02  6.60000000E+01  0.00000000E+00
  9.60000000E+02  6.40000000E+01  0.00000000E+00
  9.60000000E+02  6.20000000E+01  0.00000000E+00
  9.60000000E+02  6.00000000E+01  0.00000000E+00
  9.60000000E+02  5.80000000E+01  0.00000000E+00
  9.60000000E+02  5.60000000E+01  0.00000000E+00
  9.60000000E+02  5.40000000E+01  0.00000000E+00
  9.60000000E+02  5.20000000E+01  0.00000000E+00
  9.60000000E+02  5.00000000E+01  0.00000000E+00
  9.60000000E+02  4.80000000E+01  0.00000000E+00
  9.60000000E+02  4.60000000E+01  0.00000000E+00
  9.60000000E+02  4.40000000E+01  0.00000000E+00
  9.60000000E+02  4.20000000E+01  0.00000000E+00
  9.60000000E+02  4.00000000E+01  0.00000000E+00
  9.60000000E+02  3.80000000E+01  0.00000000E+00
  9.60000000E+02  3.60000000E+01  0.00000000E+00
  9.60000000E+02  3.40000000E+01  0.00000000E+00
  9.60000000E+02  3.20000000E+01  0.00000000E+00
  9.60000000E+02  3.00000000E+01  0.00000000E+00
  9.60000000E+02  2.80000000E+01  0.00000000E+00
  9.60000000E+02  2.60000000E+01  0.00000000E+00
  9.60000000E+02  2.40000000E+01  0.00000000E+00
  9.60000000E+02  2.20000000E+01  0.00000000E+00
  9.60000000E+02  2.00000000E+01  0.00000000E+00
  9.60000000E+02  1.80000000E+01  0.00000000E+00
  9.60000000E+02  1.60000000E+01  0.00000000E+00
  9.60000000E+02  1.40000000E+01  0.00000000E+00
  9.60000000E+02  1.20000000E+01  0.00000000E+00
  9.60000000E+02  1.00000000E+01  0.00000000E+00
  9.60000000E+02  8.00000000E+00  0.00000000E+00
  9.60000000E+02  6.00000000E+00  0.00000000E+00
  9.60000000E+02  4.00000000E+00  0.00000000E+00
  9.60000000E+02  2.00000000E+00  0.00000000E+00
  9.60000000E+02 -3.33066907E-14  0.00000000E+00
  9.70000000E+02  1.00000000E+02  0.00000000E+00
  9.70000000E+02  9.80000000E+01  0.00000000E+00
  9.70000000E+02  9.60000000E+01  0.00000000E+00
  9.70000000E+02  9.40000000E+01  0.00000000E+00
  9.70000000E+02  9.20000000E+01  0.00000000E+00
  9.70000000E+02  9.00000000E+01  0.00000000E+00
  9.70000000E+02  8.80000000E+01  0.00000000E+00
  9.70000000E+02  8.60000000E+01  0.00000000E+00
  9.70000000E+02  8.40000000E+01  0.00000000E+00
  9.70000000E+02  8.20000000E+01  0.00000000E+00
  9.70000000E+02  8.00000000E+01  0.00000000E+00
  9.70000000E+02  7.80000000E+01  0.00000000E+00
  9.70000000E+02  7.60000000E+01  0.00000000E+00
  9.70000000E+02  7.40000000E+01  0.00000000E+00
  9.70000000E+02  7.20000000E+01  0.00000000E+00
  9.70000000E+02  7.00000000E+01  0.00000000E+00
  9.70000000E+02  6.80000000E+01  0.00000000E+00
  9.70000000E+02  6.60000000E+01  0.00000000E+00
  9.70000000E+02  6.40000000E+01  0.00000000E+00
  9.70000000E+02  6.20000000E+01  0.00000000E+00
  9.70000000E+02  6.00000000E+01  0.00000000E+00
  9.70000000E+02  5.80000000E+01  0.00000000E+00
  9.70000000E+02  5.60000000E+01  0.00000000E+00
  9.70000000E+02  5.40000000E+01  0.00000000E+00
  9.70000000E+02  5.20000000E+01  0.00000000E+00
  9.70000000E+02  5.00000000E+01  0.00000000E+00
  9.70000000E+02  4.80000000E+01  0.00000000E+00
  9.70000000E+02  4.60000000E+01  0.00000000E+00
  9.70000000E+02  4.40000000E+01  0.00000000E+00
  9.70000000E+02  4.20000000E+01  0.00000000E+00
  9.70000000E+02  4.00000000E+01  0.00000000E+00
  9.70000000E+02  3.80000000E+01  0.00000000E+00
  9.70000000E+02  3.60000000E+01  0.00000000E+00
  9.70000000E+02  3.40000000E+01  0.00000000E+00
  9.70000000E+02  3.20000000E+01  0.00000000E+00
  9.70000000E+02  3.00000000E+01  0.00000000E+00
  9.70000000E+02  2.80000000E+01  0.00000000E+00
  9.70000000E+02  2.60000000E+01  0.00000000E+00
  9.70000000E+02  2.40000000E+01  0.00000000E+00
  9.70000000E+02  2.20000000E+01  0.00000000E+00
  9.70000000E+02  2.00000000E+01  0.00000000E+00
  9.70000000E+02  1.80000000E+01  0.00000000E+00
  9.70000000E+02  1.60000000E+01  0.00000000E+00
  9.70000000E+02  1.40000000E+01  0.00000000E+00
  9.70000000E+02  1.20000000E+01  0.00000000E+00
  9.70000000E+02  1.00000000E+01  0.00000000E+00
  9.70000000E+02  8.00000000E+00  0.00000000E+00
  9.70000000E+02  6.00000000E+00  0.00000000E+00
  9.70000000E+02  4.00000000E+00  0.00000000E+00
  9.70000000E+02  2.00000000E+00  0.00000000E+00
  9.70000000E+02 -3.33066907E-14  0.00000000E+00
  9.80000000E+02  1.00000000E+02  0.00000000E+00
  9.80000000E+02  9.80000000E+01  0.00000000E+00
  9.80000000E+02  9.60000000E+01  0.00000000E+00
  9.80000000E+02  9.40000000E+01  0.00000000E+00
  9.80000000E+02  9.20000000E+01  0.00000000E+00
  9.80000000E+02  9.00000000E+01  0.00000000E+00
  9.80000000E+02  8.80000000E+01  0.00000000E+00
  9.80000000E+02  8.60000000E+01  0.00000000E+00
  9.80000000E+02  8.40000000E+01  0.00000000E+00
  9.80000000E+02  8.20000000E+01  0.00000000E+00
  9.80000000E+02  8.00000000E+01  0.00000000E+00
  9.80000000E+02  7.80000000E+01  0.00000000E+00
  9.80000000E+02  7.60000000E+01  0.00000000E+00
  9.80000000E+02  7.40000000E+01  0.00000000E+00
  9.80000000E+02  7.20000000E+01  0.00000000E+00
  9.80000000E+02  7.00000000E+01  0.00000000E+00
  9.80000000E+02  6.80000000E+01  0.00000000E+00
  9.80000000E+02  6.60000000E+01  0.00000000E+00
  9.80000000E+02  6.40000000E+01  0.00000000E+00
  9.80000000E+02  6.20000000E+01  0.00000000E+00
  9.80000000E+02  6.00000000E+01  0.00000000E+00
  9.80000000E+02  5.80000000E+01  0.00000000E+00
  9.80000000E+02  5.60000000E+01  0.00000000E+00
  9.80000000E+02  5.40000000E+01  0.00000000E+00
  9.80000000E+02  5.20000000E+01  0.00000000E+00
  9.80000000E+02  5.00000000E+01  0.00000000E+00
  9.80000000E+02  4.80000000E+01  0.00000000E+00
  9.80000000E+02  4.60000000E+01  0.00000000E+00
  9.80000000E+02  4.40000000E+01  0.00000000E+00
  9.80000000E+02  4.20000000E+01  0.00000000E+00
  9.80000000E+02  4.00000000E+01  0.00000000E+00
  9.80000000E+02  3.80000000E+01  0.00000000E+00
  9.80000000E+02  3.60000000E+01  0.00000000E+00
  9.80000000E+02  3.40000000E+01  0.00000000E+00
  9.80000000E+02  3.20000000E+01  0.00000000E+00
  9.80000000E+02  3.00000000E+01  0.00000000E+00
  9.80000000E+02  2.80000000E+01  0.00000000E+00
  9.80000000E+02  2.60000000E+01  0.00000000E+00
  9.80000000E+02  2.40000000E+01  0.00000000E+00
  9.80000000E+02  2.20000000E+01  0.00000000E+00
  9.80000000E+02  2.00000000E+01  0.00000000E+00
  9.80000000E+02  1.80000000E+01  0.00000000E+00
  9.80000000E+02  1.60000000E+01  0.00000000E+00
  9.80000000E+02  1.40000000E+01  0.00000000E+00
  9.80000000E+02  1.20000000E+01  0.00000000E+00
  9.80000000E+02  1.00000000E+01  0.00000000E+00
  9.80000000E+02  8.00000000E+00  0.00000000E+00
  9.80000000E+02  6.00000000E+00  0.00000000E+00
  9.80000000E+02  4.00000000E+00  0.00000000E+00
  9.80000000E+02  2.00000000E+00  0.00000000E+00
  9.80000000E+02 -3.33066907E-14  0.00000000E+00
  9.90000000E+02  1.00000000E+02  0.00000000E+00
  9.90000000E+02  9.80000000E+01  0.00000000E+00
  9.90000000E+02  9.60000000E+01  0.00000000E+00
  9.90000000E+02  9.40000000E+01  0.00000000E+00
  9.90000000E+02  9.20000000E+01  0.00000000E+00
  9.90000000E+02  9.00000000E+01  0.00000000E+00
  9.90000000E+02  8.80000000E+01  0.00000000E+00
  9.90000000E+02  8.60000000E+01  0.00000000E+00
  9.90000000E+02  8.40000000E+01  0.00000000E+00
  9.90000000E+02  8.20000000E+01  0.00000000E+00
  9.90000000E+02  8.00000000E+01  0.00000000E+00
  9.90000000E+02  7.80000000E+01  0.00000000E+00
  9.90000000E+02  7.60000000E+01  0.00000000E+00
  9.90000000E+02  7.40000000E+01  0.00000000E+00
  9.90000000E+02  7.20000000E+01  0.00000000E+00
  9.90000000E+02  7.00000000E+01  0.00000000E+00
  9.90000000E+02  6.80000000E+01  0.00000000E+00
  9.90000000E+02  6.60000000E+01  0.00000000E+00
  9.90000000E+02  6.40000000E+01  0.00000000E+00
  9.90000000E+02  6.20000000E+01  0.00000000E+00
  9.90000000E+02  6.00000000E+01  0.00000000E+00
  9.90000000E+02  5.80000000E+01  0.00000000E+00
  9.90000000E+02  5.60000000E+01  0.00000000E+00
  9.90000000E+02  5.40000000E+01  0.00000000E+00
  9.90000000E+02  5.20000000E+01  0.00000000E+00
  9.90000000E+02  5.00000000E+01  0.00000000E+00
  9.90000000E+02  4.80000000E+01  0.00000000E+00
  9.90000000E+02  4.60000000E+01  0.00000000E+00
  9.90000000E+02  4.40000000E+01  0.00000000E+00
  9.90000000E+02  4.20000000E+01  0.00000000E+00
  9.90000000E+02  4.00000000E+01  0.00000000E+00
  9.90000000E+02  3.80000000E+01  0.00000000E+00
  9.90000000E+02  3.60000000E+01  0.00000000E+00
  9.90000000E+02  3.40000000E+01  0.00000000E+00
  9.90000000E+02  3.20000000E+01  0.00000000E+00
  9.90000000E+02  3.00000000E+01  0.00000000E+00
  9.90000000E+02  2.80000000E+01  0.00000000E+00
  9.90000000E+02  2.60000000E+01  0.00000000E+00
  9.90000000E+02  2.40000000E+01  0.00000000E+00
  9.90000000E+02  2.20000000E+01  0.00000000E+00
  9.90000000E+02  2.00000000E+01  0.00000000E+00
  9.90000000E+02  1.80000000E+01  0.00000000E+00
  9.90000000E+02  1.60000000E+01  0.00000000E+00
  9.90000000E+02  1.40000000E+01  0.00000000E+00
  9.90000000E+02  1.20000000E+01  0.00000000E+00
  9.90000000E+02  1.00000000E+01  0.00000000E+00
  9.90000000E+02  8.00000000E+00  0.00000000E+00
  9.90000000E+02  6.00000000E+00  0.00000000E+00
  9.90000000E+02  4.00000000E+00  0.00000000E+00
  9.90000000E+02  2.00000000E+00  0.00000000E+00
  9.90000000E+02 -3.33066907E-14  0.00000000E+00
  1.00000000E+03  1.00000000E+02  0.00000000E+00
  1.00000000E+03  9.80000000E+01  0.00000000E+00
  1.00000000E+03  9.60000000E+01  0.00000000E+00
  1.00000000E+03  9.40000000E+01  0.00000000E+00
  1.00000000E+03  9.20000000E+01  0.00000000E+00
  1.00000000E+03  9.00000000E+01  0.00000000E+00
  1.00000000E+03  8.80000000E+01  0.00000000E+00
  1.00000000E+03  8.60000000E+01  0.00000000E+00
  1.00000000E+03  8.40000000E+01  0.00000000E+00
  1.00000000E+03  8.20000000E+01  0.00000000E+00
  1.00000000E+03  8.00000000E+01  0.00000000E+00
  1.00000000E+03  7.80000000E+01  0.00000000E+00
  1.00000000E+03  7.60000000E+01  0.00000000E+00
  1.00000000E+03  7.40000000E+01  0.00000000E+00
  1.00000000E+03  7.20000000E+01  0.00000000E+00
  1.00000000E+03  7.00000000E+01  0.00000000E+00
  1.00000000E+03  6.80000000E+01  0.00000000E+00
  1.00000000E+03  6.60000000E+01  0.00000000E+00
  1.00000000E+03  6.40000000E+01  0.00000000E+00
  1.00000000E+03  6.20000000E+01  0.00000000E+00
  1.00000000E+03  6.00000000E+01  0.00000000E+00
  1.00000000E+03  5.80000000E+01  0.00000000E+00
  1.00000000E+03  5.60000000E+01  0.00000000E+00
  1.00000000E+03  5.40000000E+01  0.00000000E+00
  1.00000000E+03  5.20000000E+01  0.00000000E+00
  1.00000000E+03  5.00000000E+01  0.00000000E+00
  1.00000000E+03  4.80000000E+01  0.00000000E+00
  1.00000000E+03  4.60000000E+01  0.00000000E+00
  1.00000000E+03  4.40000000E+01  0.00000000E+00
  1.00000000E+03  4.20000000E+01  0.00000000E+00
  1.00000000E+03  4.00000000E+01  0.00000000E+00
  1.00000000E+03  3.80000000E+01  0.00000000E+00
  1.00000000E+03  3.60000000E+01  0.00000000E+00
  1.00000000E+03  3.40000000E+01  0.00000000E+00
  1.00000000E+03  3.20000000E+01  0.00000000E+00
  1.00000000E+03  3.00000000E+01  0.00000000E+00
  1.00000000E+03  2.80000000E+01  0.00000000E+00
  1.00000000E+03  2.60000000E+01  0.00000000E+00
  1.00000000E+03  2.40000000E+01  0.00000000E+00
  1.00000000E+03  2.20000000E+01  0.00000000E+00
  1.00000000E+03  2.00000000E+01  0.00000000E+00
  1.00000000E+03  1.80000000E+01  0.00000000E+00
  1.00000000E+03  1.60000000E+01  0.00000000E+00
  1.00000000E+03  1.40000000E+01  0.00000000E+00
  1.00000000E+03  1.20000000E+01  0.00000000E+00
  1.00000000E+03  1.00000000E+01  0.00000000E+00
  1.00000000E+03  8.00000000E+00  0.00000000E+00
  1.00000000E+03  6.00000000E+00  0.00000000E+00
  1.00000000E+03  4.00000000E+00  0.00000000E+00
  1.00000000E+03  2.00000000E+00  0.00000000E+00
  1.00000000E+03 -3.33066907E-14  0.00000000E+00
CELLS      5000     25000
         4           0           1          52          51
         4           1           2          53          52
         4           2           3          54          53
         4           3           4          55          54
         4           4           5          56          55
         4           5           6          57          56
         4           6           7          58          57
         4           7           8          59          58
         4           8           9          60          59
         4           9          10          61          60
         4          10          11          62          61
         4          11          12          63          62
         4          12          13          64          63
         4          13          14          65          64
         4          14          15          66          65
         4          15          16          67          66
         4          16          17          68          67
         4          17          18          69          68
         4          18          19          70          69
         4          19          20          71          70
         4          20          21          72          71
         4          21          22          73          72
         4          22          23          74          73
         4          23          24          75          74
         4          24          25          76          75
         4          25          26          77          76
         4          26          27          78          77
         4          27          28          79          78
         4          28          29          80          79
         4          29          30          81          80
         4          30          31          82          81
         4          31          32          83          82
         4          32          33          84          83
         4          33          34          85          84
         4          34          35          86          85
         4          35          36          87          86
         4          36          37          88          87
         4          37          38          89          88
         4          38          39          90          89
         4          39          40          91          90
         4          40          41          92          91
         4          41          42          93          92
         4          42          43          94          93
         4          43          44          95          94
         4          44          45          96          95
         4          45          46          97          96
         4          46          47          98          97
         4          47          48          99          98
         4          48          49         100          99
         4          49          50         101         100
         4          51          52         103         102
         4          52          53         104         103
         4          53          54         105         104
         4          54          55         106         105
         4          55          56         107         106
         4          56          57         108         107
         4          57          58         109         108
         4          58          59         110         109
         4          59          60         111         110
         4          60          61         112         111
         4          61          62         113         112
         4          62          63         114         113
         4          63          64         115         114
         4          64          65         116         115
         4          65          66         117         116
         4          66          67         118         117
         4          67          68         119         118
         4          68          69         120         119
         4          69          70         121         120
         4          70          71         122         121
         4          71          72         123         122
         4          72          73         124         123
         4          73          74         125         124
         4          74          75         126         125
         4          75          76         127         126
         4          76          77         128         127
         4          77          78         129         128
         4          78          79         130         129
         4          79          80         131         130
         4          80          81         132         131
         4          81          82         133         132
         4          82          83         134         133
         4          83          84         135         134
         4          84          85         136         135
         4          85          86         137         136
         4          86          87         138         137
         4          87          88         139         138
         4          88          89         140         139
         4          89          90         141         140
         4          90          91         142         141
         4          91          92         143         142
         4          92          93         144         143
         4          93          94         145         144
         4          94          95         146         145
         4          95          96         147         146
         4          96          97         148         147
         4          97          98         149         148
         4          98          99         150         149
         4          99         100         151         150
         4         100         101         152         151
         4         102         103         154         153
         4         103         104         155         154
         4         104         105         156         155
         4         105         106         157         156
         4         106         107         158         157
         4         107         108         159         158
         4         108         109         160         159
         4         109         110         161         160
         4         110         111         162         161
         4         111         112         163         162
         4         112         113         164         163
         4         113         114         165         164
         4         114         115         166         165
         4         115         116         167         166
         4         116         117         168         167
         4         117         118         169         168
         4         118         119         170         169
         4         119         120         171         170
         4         120         121         172         171
         4         121         122         173         172
         4         122         123         174         173
         4         123         124         175         174
         4         124         125         176         175
         4         125         126         177         176
         4         126         127         178         177
         4         127         128         179         178
         4         128         129         180         179
         4         129         130         181         180
         4         130         131         182         181
         4         131         132         183         182
         4         132         133         184         183
         4         133         134         185         184
         4         134         135         186         185
         4         135         136         187         186
         4         136         137         188         187
         4         137         138         189         188
         4         138         139         190         189
         4         139         140         191         190
         4         140         141         192         191
         4         141         142         193         192
         4         142         143         194         193
         4         143         144         195         194
         4         144         145         196         195
         4         145         146         197         196
         4         146         147         198         197
         4         147         148         199         198
         4         148         149         200         199
         4         149         150         201         200
         4         150         151         202         201
         4         151         152         203         202
         4         153         154         205         204
         4         154         155         206         205
         4         155         156         207         206
         4         156         157         208         207
         4         157         158         209         208
         4         158         159         210         209
         4         159         160         211         210
         4         160         161         212         211
         4         161         162         213         212
         4         162         163         214         213
         4         163         164         215         214
         4         164         165         216         215
         4         165         166         217         216
         4         166         167         218         217
         4         167         168         219         218
         4         168         169         220         219
         4         169         170         221         220
         4         170         171         222         221
         4         171         172         223         222
         4         172         173         224         223
         4         173         174         225         224
         4         174         175         226         225
         4         175         176         227         226
         4         176         177         228         227
         4         177         178         229         228
         4         178         179         230         229
         4         179         180         231         230
         4         180         181         232         231
         4         181         182         233         232
         4         182         183         234         233
         4         183         184         235         234
         4         184         185         236         235
         4         185         186         237         236
         4         186         187         238         237
         4         187         188         239         238
         4         188         189         240         239
         4         189         190         241         240
         4         190         191         242         241
         4         191         192         243         242
         4         192         193         244         243
         4         193         194         245         244
         4         194         195         246         245
         4         195         196         247         246
         4         196         197         248         247
         4         197         198         249         248
         4         198         199         250         249
         4         199         200         251         250
         4         200         201         252         251
         4         201         202         253         252
         4         202         203         254         253
         4         204         205         256         255
         4         205         206         257         256
         4         206         207         258         257
         4         207         208         259         258
         4         208         209         260         259
         4         209         210         261         260
         4         210         211         262         261
         4         211         212         263         262
         4         212         213         264         263
         4         213         214         265         264
         4         214         215         266         265
         4         215         216         267         266
         4         216         217         268         267
         4         217         218         269         268
         4         218         219         270         269
         4         219         220         271         270
         4         220         221         272         271
         4         221         222         273         272
         4         222         223         274         273
         4         223         224         275         274
         4         224         225         276         275
         4         225         226         277         276
         4         226         227         278         277
         4         227         228         279         278
         4         228         229         280         279
         4         229         230         281         280
         4         230         231         282         281
         4         231         232         283         282
         4         232         233         284         283
         4         233         234         285         284
         4         234         235         286         285
         4         235         236         287         286
         4         236         237         288         287
         4         237         238         289         288
         4         238         239         290         289
         4         239         240         291         290
         4         240         241         292         291
         4         241         242         293         292
         4         242         243         294         293
         4         243         244         295         294
         4         244         245         296         295
         4         245         246         297         296
         4         246         247         298         297
         4         247         248         299         298
         4         248         249         300         299
         4         249         250         301         300
         4         250         251         302         301
         4         251         252         303         302
         4         252         253         304         303
         4         253         254         305         304
         4         255         256         307         306
         4         256         257         308         307
         4         257         258         309         308
         4         258         259         310         309
         4         259         260         311         310
         4         260         261         312         311
         4         261         262         313         312
         4         262         263         314         313
         4         263         264         315         314
         4         264         265         316         315
         4         265         266         317         316
         4         266         267         318         317
         4         267         268         319         318
         4         268         269         320         319
         4         269         270         321         320
         4         270         271         322         321
         4         271         272         323         322
         4         272         273         324         323
         4         273         274         325         324
         4         274         275         326         325
         4         275         276         327         326
         4         276         277         328         327
         4         277         278         329         328
         4         278         279         330         329
         4         279         280         331         330
         4         280         281         332         331
         4         281         282         333         332
         4         282         283         334         333
         4         283         284         335         334
         4         284         285         336         335
         4         285         286         337         336
         4         286         287         338         337
         4         287         288         339         338
         4         288         289         340         339
         4         289         290         341         340
         4         290         291         342         341
         4         291         292         343         342
         4         292         293         344         343
         4         293         294         345         344
         4         294         295         346         345
         4         295         296         347         346
         4         296         297         348         347
         4         297         298         349         348
         4         298         299         350         349
         4         299         300         351         350
         4         300         301         352         351
         4         301         302         353         352
         4         302         303         354         353
         4         303         304         355         354
         4         304         305         356         355
         4         306         307         358         357
         4         307         308         359         358
         4         308         309         360         359
         4         309         310         361         360
         4         310         311         362         361
         4         311         312         363         362
         4         312         313         364         363
         4         313         314         365         364
         4         314         315         366         365
         4         315         316         367         366
         4         316         317         368         367
         4         317         318         369         368
         4         318         319         370         369
         4         319         320         371         370
         4         320         321         372         371
         4         321         322         373         372
         4         322         323         374         373
         4         323         324         375         374
         4         324         325         376         375
         4         325         326         377         376
         4         326         327         378         377
         4         327         328         379         378
         4         328         329         380         379
         4         329         330         381         380
         4         330         331         382         381
         4         331         332         383         382
         4         332         333         384         383
         4         333         334         385         384
         4         334         335         386         385
         4         335         336         387         386
         4         336         337         388         387
         4         337         338         389         388
         4         338         339         390         389
         4         339         340         391         390
         4         340         341         392         391
         4         341         342         393         392
         4         342         343         394         393
         4         343         344         395         394
         4         344         345         396         395
         4         345         346         397         396
         4         346         347         398         397
         4         347         348         399         398
         4         348         349         400         399
         4         349         350         401         400
         4         350         351         402         401
         4         351         352         403         402
         4         352         353         404         403
         4         353         354         405         404
         4         354         355         406         405
         4         355         356         407         406
         4         357         358         409         408
         4         358         359         410         409
         4         359         360         411         410
         4         360         361         412         411
         4         361         362         413         412
         4         362         363         414         413
         4         363         364         415         414
         4         364         365         416         415
         4         365         366         417         416
         4         366         367         418         417
         4         367         368         419         418
         4         368         369         420         419
         4         369         370         421         420
         4         370         371         422         421
         4         371         372         423         422
         4         372         373         424         423
         4         373         374         425         424
         4         374         375         426         425
         4         375         376         427         426
         4         376         377         428         427
         4         377         378         429         428
         4         378         379         430         429
         4         379         380         431         430
         4         380         381         432         431
         4         381         382         433         432
         4         382         383         434         433
         4         383         384         435         434
         4         384         385         436         435
         4         385         386         437         436
         4         386         387         438         437
         4         387         388         439         438
         4         388         389         440         439
         4         389         390         441         440
         4         390         391         442         441
         4         391         392         443         442
         4         392         393         444         443
         4         393         394         445         444
         4         394         395         446         445
         4         395         396         447         446
         4         396         397         448         447
         4         397         398         449         448
         4         398         399         450         449
         4         399         400         451         450
         4         400         401         452         451
         4         401         402         453         452
         4         402         403         454         453
         4         403         404         455         454
         4         404         405         456         455
         4         405         406         457         456
         4         406         407         458         457
         4         408         409         460         459
         4         409         410         461         460
         4         410         411         462         461
         4         411         412         463         462
         4         412         413         464         463
         4         413         414         465         464
         4         414         415         466         465
         4         415         416         467         466
         4         416         417         468         467
         4         417         418         469         468
         4         418         419         470         469
         4         419         420         471         470
         4         420         421         472         471
         4         421         422         473         472
         4         422         423         474         473
         4         423         424         475         474
         4         424         425         476         475
         4         425         426         477         476
         4         426         427         478         477
         4         427         428         479         478
         4         428         429         480         479
         4         429         430         481         480
         4         430         431         482         481
         4         431         432         483         482
         4         432         433         484         483
         4         433         434         485         484
         4         434         435         486         485
         4         435         436         487         486
         4         436         437         488         487
         4         437         438         489         488
         4         438         439         490         489
         4         439         440         491         490
         4         440         441         492         491
         4         441         442         493         492
         4         442         443         494         493
         4         443         444         495         494
         4         444         445         496         495
         4         445         446         497         496
         4         446         447         498         497
         4         447         448         499         498
         4         448         449         500         499
         4         449         450         501         500
         4         450         451         502         501
         4         451         452         503         502
         4         452         453         504         503
         4         453         454         505         504
         4         454         455         506         505
         4         455         456         507         506
         4         456         457         508         507
         4         457         458         509         508
         4         459         460         511         510
         4         460         461         512         511
         4         461         462         513         512
         4         462         463         514         513
         4         463         464         515         514
         4         464         465         516         515
         4         465         466         517         516
         4         466         467         518         517
         4         467         468         519         518
         4         468         469         520         519
         4         469         470         521         520
         4         470         471         522         521
         4         471         472         523         522
         4         472         473         524         523
         4         473         474         525         524
         4         474         475         526         525
         4         475         476         527         526
         4         476         477         528         527
         4         477         478         529         528
         4         478         479         530         529
         4         479         480         531         530
         4         480         481         532         531
         4         481         482         533         532
         4         482         483         534         533
         4         483         484         535         534
         4         484         485         536         535
         4         485         486         537         536
         4         486         487         538         537
         4         487         488         539         538
         4         488         489         540         539
         4         489         490         541         540
         4         490         491         542         541
         4         491         492         543         542
         4         492         493         544         543
         4         493         494         545         544
         4         494         495         546         545
         4         495         496         547         546
         4         496         497         548         547
         4         497         498         549         548
         4         498         499         550         549
         4         499         500         551         550
         4         500         501         552         551
         4         501         502         553         552
         4         502         503         554         553
         4         503         504         555         554
         4         504         505         556         555
         4         505         506         557         556
         4         506         507         558         557
         4         507         508         559         558
         4         508         509         560         559
         4         510         511         562         561
         4         511         512         563         562
         4         512         513         564         563
         4         513         514         565         564
         4         514         515         566         565
         4         515         516         567         566
         4         516         517         568         567
         4         517         518         569         568
         4         518         519         570         569
         4         519         520         571         570
         4         520         521         572         571
         4         521         522         573         572
         4         522         523         574         573
         4         523         524         575         574
         4         524         525         576         575
         4         525         526         577         576
         4         526         527         578         577
         4         527         528         579         578
         4         528         529         580         579
         4         529         530         581         580
         4         530         531         582         581
         4         531         532         583         582
         4         532         533         584         583
         4         533         534         585         584
         4         534         535         586         585
         4         535         536         587         586
         4         536         537         588         587
         4         537         538         589         588
         4         538         539         590         589
         4         539         540         591         590
         4         540         541         592         591
         4         541         542         593         592
         4         542         543         594         593
         4         543         544         595         594
         4         544         545         596         595
         4         545         546         597         596
         4         546         547         598         597
         4         547         548         599         598
         4         548         549         600         599
         4         549         550         601         600
         4         550         551         602         601
         4         551         552         603         602
         4         552         553         604         603
         4         553         554         605         604
         4         554         555         606         605
         4         555         556         607         606
         4         556         557         608         607
         4         557         558         609         608
         4         558         559         610         609
         4         559         560         611         610
         4         561         562         613         612
         4         562         563         614         613
         4         563         564         615         614
         4         564         565         616         615
         4         565         566         617         616
         4         566         567         618         617
         4         567         568         619         618
         4         568         569         620         619
         4         569         570         621         620
         4         570         571         622         621
         4         571         572         623         622
         4         572         573         624         623
         4         573         574         625         624
         4         574         575         626         625
         4         575         576         627         626
         4         576         577         628         627
         4         577         578         629         628
         4         578         579         630         629
         4         579         580         631         630
         4         580         581         632         631
         4         581         582         633         632
         4         582         583         634         633
         4         583         584         635         634
         4         584         585         636         635
         4         585         586         637         636
         4         586         587         638         637
         4         587         588         639         638
         4         588         589         640         639
         4         589         590         641         640
         4         590         591         642         641
         4         591         592         643         642
         4         592         593         644         643
         4         593         594         645         644
         4         594         595         646         645
         4         595         596         647         646
         4         596         597         648         647
         4         597         598         649         648
         4         598         599         650         649
         4         599         600         651         650
         4         600         601         652         651
         4         601         602         653         652
         4         602         603         654         653
         4         603         604         655         654
         4         604         605         656         655
         4         605         606         657         656
         4         606         607         658         657
         4         607         608         659         658
         4         608         609         660         659
         4         609         610         661         660
         4         610         611         662         661
         4         612         613         664         663
         4         613         614         665         664
         4         614         615         666         665
         4         615         616         667         666
         4         616         617         668         667
         4         617         618         669         668
         4         618         619         670         669
         4         619         620         671         670
         4         620         621         672         671
         4         621         622         673         672
         4         622         623         674         673
         4         623         624         675         674
         4         624         625         676         675
         4         625         626         677         676
         4         626         627         678         677
         4         627         628         679         678
         4         628         629         680         679
         4         629         630         681         680
         4         630         631         682         681
         4         631         632         683         682
         4         632         633         684         683
         4         633         634         685         684
         4         634         635         686         685
         4         635         636         687         686
         4         636         637         688         687
         4         637         638         689         688
         4         638         639         690         689
         4         639         640         691         690
         4         640         641         692         691
         4         641         642         693         692
         4         642         643         694         693
         4         643         644         695         694
         4         644         645         696         695
         4         645         646         697         696
         4         646         647         698         697
         4         647         648         699         698
         4         648         649         700         699
         4         649         650         701         700
         4         650         651         702         701
         4         651         652         703         702
         4         652         653         704         703
         4         653         654         705         704
         4         654         655         706         705
         4         655         656         707         706
         4         656         657         708         707
         4         657         658         709         708
         4         658         659         710         709
         4         659         660         711         710
         4         660         661         712         711
         4         661         662         713         712
         4         663         664         715         714
         4         664         665         716         715
         4         665         666         717         716
         4         666         667         718         717
         4         667         668         719         718
         4         668         669         720         719
         4         669         670         721         720
         4         670         671         722         721
         4         671         672         723         722
         4         672         673         724         723
         4         673         674         725         724
         4         674         675         726         725
         4         675         676         727         726
         4         676         677         728         727
         4         677         678         729         728
         4         678         679         730         729
         4         679         680         731         730
         4         680         681         732         731
         4         681         682         733         732
         4         682         683         734         733
         4         683         684         735         734
         4         684         685         736         735
         4         685         686         737         736
         4         686         687         738         737
         4         687         688         739         738
         4         688         689         740         739
         4         689         690         741         740
         4         690         691         742         741
         4         691         692         743         742
         4         692         693         744         743
         4         693         694         745         744
         4         694         695         746         745
         4         695         696         747         746
         4         696         697         748         747
         4         697         698         749         748
         4         698         699         750         749
         4         699         700         751         750
         4         700         701         752         751
         4         701         702         753         752
         4         702         703         754         753
         4         703         704         755         754
         4         704         705         756         755
         4         705         706         757         756
         4         706         707         758         757
         4         707         708         759         758
         4         708         709         760         759
         4         709         710         761         760
         4         710         711         762         761
         4         711         712         763         762
         4         712         713         764         763
         4         714         715         766         765
         4         715         716         767         766
         4         716         717         768         767
         4         717         718         769         768
         4         718         719         770         769
         4         719         720         771         770
         4         720         721         772         771
         4         721         722         773         772
         4         722         723         774         773
         4         723         724         775         774
         4         724         725         776         775
         4         725         726         777         776
         4         726         727         778         777
         4         727         728         779         778
         4         728         729         780         779
         4         729         730         781         780
         4         730         731         782         781
         4         731         732         783         782
         4         732         733         784         783
         4         733         734         785         784
         4         734         735         786         785
         4         735         736         787         786
         4         736         737         788         787
         4         737         738         789         788
         4         738         739         790         789
         4         739         740         791         790
         4         740         741         792         791
         4         741         742         793         792
         4         742         743         794         793
         4         743         744         795         794
         4         744         745         796         795
         4         745         746         797         796
         4         746         747         798         797
         4         747         748         799         798
         4         748         749         800         799
         4         749         750         801         800
         4         750         751         802         801
         4         751         752         803         802
         4         752         753         804         803
         4         753         754         805         804
         4         754         755         806         805
         4         755         756         807         806
         4         756         757         808         807
         4         757         758         809         808
         4         758         759         810         809
         4         759         760         811         810
         4         760         761         812         811
         4         761         762         813         812
         4         762         763         814         813
         4         763         764         815         814
         4         765         766         817         816
         4         766         767         818         817
         4         767         768         819         818
         4         768         769         820         819
         4         769         770         821         820
         4         770         771         822         821
         4         771         772         823         822
         4         772         773         824         823
         4         773         774         825         824
         4         774         775         826         825
         4         775         776         827         826
         4         776         777         828         827
         4         777         778         829         828
         4         778         779         830         829
         4         779         780         831         830
         4         780         781         832         831
         4         781         782         833         832
         4         782         783         834         833
         4         783         784         835         834
         4         784         785         836         835
         4         785         786         837         836
         4         786         787         838         837
         4         787         788         839         838
         4         788         789         840         839
         4         789         790         841         840
         4         790         791         842         841
         4         791         792         843         842
         4         792         793         844         843
         4         793         794         845         844
         4         794         795         846         845
         4         795         796         847         846
         4         796         797         848         847
         4         797         798         849         848
         4         798         799         850         849
         4         799         800         851         850
         4         800         801         852         851
         4         801         802         853         852
         4         802         803         854         853
         4         803         804         855         854
         4         804         805         856         855
         4         805         806         857         856
         4         806         807         858         857
         4         807         808         859         858
         4         808         809         860         859
         4         809         810         861         860
         4         810         811         862         861
         4         811         812         863         862
         4         812         813         864         863
         4         813         814         865         864
         4         814         815         866         865
         4         816         817         868         867
         4         817         818         869         868
         4         818         819         870         869
         4         819         820         871         870
         4         820         821         872         871
         4         821         822         873         872
         4         822         823         874         873
         4         823         824         875         874
         4         824         825         876         875
         4         825         826         877         876
         4         826         827         878         877
         4         827         828         879         878
         4         828         829         880         879
         4         829         830         881         880
         4         830         831         882         881
         4         831         832         883         882
         4         832         833         884         883
         4         833         834         885         884
         4         834         835         886         885
         4         835         836         887         886
         4         836         837         888         887
         4         837         838         889         888
         4         838         839         890         889
         4         839         840         891         890
         4         840         841         892         891
         4         841         842         893         892
         4         842         843         894         893
         4         843         844         895         894
         4         844         845         896         895
         4         845         846         897         896
         4         846         847         898         897
         4         847         848         899         898
         4         848         849         900         899
         4         849         850         901         900
         4         850         851         902         901
         4         851         852         903         902
         4         852         853         904         903
         4         853         854         905         904
         4         854         855         906         905
         4         855         856         907         906
         4         856         857         908         907
         4         857         858         909         908
         4         858         859         910         909
         4         859         860         911         910
         4         860         861         912         911
         4         861         862         913         912
         4         862         863         914         913
         4         863         864         915         914
         4         864         865         916         915
         4         865         866         917         916
         4         867         868         919         918
         4         868         869         920         919
         4         869         870         921         920
         4         870         871         922         921
         4         871         872         923         922
         4         872         873         924         923
         4         873         874         925         924
         4         874         875         926         925
         4         875         876         927         926
         4         876         877         928         927
         4         877         878         929         928
         4         878         879         930         929
         4         879         880         931         930
         4         880         881         932         931
         4         881         882         933         932
         4         882         883         934         933
         4         883         884         935         934
         4         884         885         936         935
         4         885         886         937         936
         4         886         887         938         937
         4         887         888         939         938
         4         888         889         940         939
         4         889         890         941         940
         4         890         891         942         941
         4         891         892         943         942
         4         892         893         944         943
         4         893         894         945         944
         4         894         895         946         945
         4         895         896         947         946
         4         896         897         948         947
         4         897         898         949         948
         4         898         899         950         949
         4         899         900         951         950
         4         900         901         952         951
         4         901         902         953         952
         4         902         903         954         953
         4         903         904         955         954
         4         904         905         956         955
         4         905         906         957         956
         4         906         907         958         957
         4         907         908         959         958
         4         908         909         960         959
         4         909         910         961         960
         4         910         911         962         961
         4         911         912         963         962
         4         912         913         964         963
         4         913         914         965         964
         4         914         915         966         965
         4         915         916         967         966
         4         916         917         968         967
         4         918         919         970         969
         4         919         920         971         970
         4         920         921         972         971
         4         921         922         973         972
         4         922         923         974         973
         4         923         924         975         974
         4         924         925         976         975
         4         925         926         977         976
         4         926         927         978         977
         4         927         928         979         978
         4         928         929         980         979
         4         929         930         981         980
         4         930         931         982         981
         4         931         932         983         982
         4         932         933         984         983
         4         933         934         985         984
         4         934         935         986         985
         4         935         936         987         986
         4         936         937         988         987
         4         937         938         989         988
         4         938         939         990         989
         4         939         940         991         990
         4         940         941         992         991
         4         941         942         993         992
         4         942         943         994         993
         4         943         944         995         994
         4         944         945         996         995
         4         945         946         997         996
         4         946         947         998         997
         4         947         948         999         998
         4         948         949        1000         999
         4         949         950        1001        1000
         4         950         951        1002        1001
         4         951         952        1003        1002
         4         952         953        1004        1003
         4         953         954        1005        1004
         4         954         955        1006        1005
         4         955         956        1007        1006
         4         956         957        1008        1007
         4         957         958        1009        1008
         4         958         959        1010        1009
         4         959         960        1011        1010
         4         960         961        1012        1011
         4         961         962        1013        1012
         4         962         963        1014        1013
         4         963         964        1015        1014
         4         964         965        1016        1015
         4         965         966        1017        1016
         4         966         967        1018        1017
         4         967         968        1019        1018
         4         969         970        1021        1020
         4         970         971        1022        1021
         4         971         972        1023        1022
         4         972         973        1024        1023
         4         973         974        1025        1024
         4         974         975        1026        1025
         4         975         976        1027        1026
         4         976         977        1028        1027
         4         977         978        1029        1028
         4         978         979        1030        1029
         4         979         980        1031        1030
         4         980         981        1032        1031
         4         981         982        1033        1032
         4         982         983        1034        1033
         4         983         984        1035        1034
         4         984         985        1036        1035
         4         985         986        1037        1036
         4         986         987        1038        1037
         4         987         988        1039        1038
         4         988         989        1040        1039
         4         989         990        1041        1040
         4         990         991        1042        1041
         4         991         992        1043        1042
         4         992         993        1044        1043
         4         993         994        1045        1044
         4         994         995        1046        1045
         4         995         996        1047        1046
         4         996         997        1048        1047
         4         997         998        1049        1048
         4         998         999        1050        1049
         4         999        1000        1051        1050
         4        1000        1001        1052        1051
         4        1001        1002        1053        1052
         4        1002        1003        1054        1053
         4        1003        1004        1055        1054
         4        1004        1005        1056        1055
         4        1005        1006        1057        1056
         4        1006        1007        1058        1057
         4        1007        1008        1059        1058
         4        1008        1009        1060        1059
         4        1009        1010        1061        1060
         4        1010        1011        1062        1061
         4        1011        1012        1063        1062
         4        1012        1013        1064        1063
         4        1013        1014        1065        1064
         4        1014        1015        1066        1065
         4        1015        1016        1067        1066
         4        1016        1017        1068        1067
         4        1017        1018        1069        1068
         4        1018        1019        1070        1069
         4        1020        1021        1072        1071
         4        1021        1022        1073        1072
         4        1022        1023        1074        1073
         4        1023        1024        1075        1074
         4        1024        1025        1076        1075
         4        1025        1026        1077        1076
         4        1026        1027        1078        1077
         4        1027        1028        1079        1078
         4        1028        1029        1080        1079
         4        1029        1030        1081        1080
         4        1030        1031        1082        1081
         4        1031        1032        1083        1082
         4        1032        1033        1084        1083
         4        1033        1034        1085        1084
         4        1034        1035        1086        1085
         4        1035        1036        1087        1086
         4        1036        1037        1088        1087
         4        1037        1038        1089        1088
         4        1038        1039        1090        1089
         4        1039        1040        1091        1090
         4        1040        1041        1092        1091
         4        1041        1042        1093        1092
         4        1042        1043        1094        1093
         4        1043        1044        1095        1094
         4        1044        1045        1096        1095
         4        1045        1046        1097        1096
         4        1046        1047        1098        1097
         4        1047        1048        1099        1098
         4        1048        1049        1100        1099
         4        1049        1050        1101        1100
         4        1050        1051        1102        1101
         4        1051        1052        1103        1102
         4        1052        1053        1104        1103
         4        1053        1054        1105        1104
         4        1054        1055        1106        1105
         4        1055        1056        1107        1106
         4        1056        1057        1108        1107
         4        1057        1058        1109        1108
         4        1058        1059        1110        1109
         4        1059        1060        1111        1110
         4        1060        1061        1112        1111
         4        1061        1062        1113        1112
         4        1062        1063        1114        1113
         4        1063        1064        1115        1114
         4        1064        1065        1116        1115
         4        1065        1066        1117        1116
         4        1066        1067        1118        1117
         4        1067        1068        1119        1118
         4        1068        1069        1120        1119
         4        1069        1070        1121        1120
         4        1071        1072        1123        1122
         4        1072        1073        1124        1123
         4        1073        1074        1125        1124
         4        1074        1075        1126        1125
         4        1075        1076        1127        1126
         4        1076        1077        1128        1127
         4        1077        1078        1129        1128
         4        1078        1079        1130        1129
         4        1079        1080        1131        1130
         4        1080        1081        1132        1131
         4        1081        1082        1133        1132
         4        1082        1083        1134        1133
         4        1083        1084        1135        1134
         4        1084        1085        1136        1135
         4        1085        1086        1137        1136
         4        1086        1087        1138        1137
         4        1087        1088        1139        1138
         4        1088        1089        1140        1139
         4        1089        1090        1141        1140
         4        1090        1091        1142        1141
         4        1091        1092        1143        1142
         4        1092        1093        1144        1143
         4        1093        1094        1145        1144
         4        1094        1095        1146        1145
         4        1095        1096        1147        1146
         4        1096        1097        1148        1147
         4        1097        1098        1149        1148
         4        1098        1099        1150        1149
         4        1099        1100        1151        1150
         4        1100        1101        1152        1151
         4        1101        1102        1153        1152
         4        1102        1103        1154        1153
         4        1103        1104        1155        1154
         4        1104        1105        1156        1155
         4        1105        1106        1157        1156
         4        1106        1107        1158        1157
         4        1107        1108        1159        1158
         4        1108        1109        1160        1159
         4        1109        1110        1161        1160
         4        1110        1111        1162        1161
         4        1111        1112        1163        1162
         4        1112        1113        1164        1163
         4        1113        1114        1165        1164
         4        1114        1115        1166        1165
         4        1115        1116        1167        1166
         4        1116        1117        1168        1167
         4        1117        1118        1169        1168
         4        1118        1119        1170        1169
         4        1119        1120        1171        1170
         4        1120        1121        1172        1171
         4        1122        1123        1174        1173
         4        1123        1124        1175        1174
         4        1124        1125        1176        1175
         4        1125        1126        1177        1176
         4        1126        1127        1178        1177
         4        1127        1128        1179        1178
         4        1128        1129        1180        1179
         4        1129        1130        1181        1180
         4        1130        1131        1182        1181
         4        1131        1132        1183        1182
         4        1132        1133        1184        1183
         4        1133        1134        1185        1184
         4        1134        1135        1186        1185
         4        1135        1136        1187        1186
         4        1136        1137        1188        1187
         4        1137        1138        1189        1188
         4        1138        1139        1190        1189
         4        1139        1140        1191        1190
         4        1140        1141        1192        1191
         4        1141        1142        1193        1192
         4        1142        1143        1194        1193
         4        1143        1144        1195        1194
         4        1144        1145        1196        1195
         4        1145        1146        1197        1196
         4        1146        1147        1198        1197
         4        1147        1148        1199        1198
         4        1148        1149        1200        1199
         4        1149        1150        1201        1200
         4        1150        1151        1202        1201
         4        1151        1152        1203        1202
         4        1152        1153        1204        1203
         4        1153        1154        1205        1204
         4        1154        1155        1206        1205
         4        1155        1156        1207        1206
         4        1156        1157        1208        1207
         4        1157        1158        1209        1208
         4        1158        1159        1210        1209
         4        1159        1160        1211        1210
         4        1160        1161        1212        1211
         4        1161        1162        1213        1212
         4        1162        1163        1214        1213
         4        1163        1164        1215        1214
         4        1164        1165        1216        1215
         4        1165        1166        1217        1216
         4        1166        1167        1218        1217
         4        1167        1168        1219        1218
         4        1168        1169        1220        1219
         4        1169        1170        1221        1220
         4        1170        1171        1222        1221
         4        1171        1172        1223        1222
         4        1173        1174        1225        1224
         4        1174        1175        1226        1225
         4        1175        1176        1227        1226
         4        1176        1177        1228        1227
         4        1177        1178        1229        1228
         4        1178        1179        1230        1229
         4        1179        1180        1231        1230
         4        1180        1181        1232        1231
         4        1181        1182        1233        1232
         4        1182        1183        1234        1233
         4        1183        1184        1235        1234
         4        1184        1185        1236        1235
         4        1185        1186        1237        1236
         4        1186        1187        1238        1237
         4        1187        1188        1239        1238
         4        1188        1189        1240        1239
         4        1189        1190        1241        1240
         4        1190        1191        1242        1241
         4        1191        1192        1243        1242
         4        1192        1193        1244        1243
         4        1193        1194        1245        1244
         4        1194        1195        1246        1245
         4        1195        1196        1247        1246
         4        1196        1197        1248        1247
         4        1197        1198        1249        1248
         4        1198        1199        1250        1249
         4        1199        1200        1251        1250
         4        1200        1201        1252        1251
         4        1201        1202        1253        1252
         4        1202        1203        1254        1253
         4        1203        1204        1255        1254
         4        1204        1205        1256        1255
         4        1205        1206        1257        1256
         4        1206        1207        1258        1257
         4        1207        1208        1259        1258
         4        1208        1209        1260        1259
         4        1209        1210        1261        1260
         4        1210        1211        1262        1261
         4        1211        1212        1263        1262
         4        1212        1213        1264        1263
         4        1213        1214        1265        1264
         4        1214        1215        1266        1265
         4        1215        1216        1267        1266
         4        1216        1217        1268        1267
         4        1217        1218        1269        1268
         4        1218        1219        1270        1269
         4        1219        1220        1271        1270
         4        1220        1221        1272        1271
         4        1221        1222        1273        1272
         4        1222        1223        1274        1273
         4        1224        1225        1276        1275
         4        1225        1226        1277        1276
         4        1226        1227        1278        1277
         4        1227        1228        1279        1278
         4        1228        1229        1280        1279
         4        1229        1230        1281        1280
         4        1230        1231        1282        1281
         4        1231        1232        1283        1282
         4        1232        1233        1284        1283
         4        1233        1234        1285        1284
         4        1234        1235        1286        1285
         4        1235        1236        1287        1286
         4        1236        1237        1288        1287
         4        1237        1238        1289        1288
         4        1238        1239        1290        1289
         4        1239        1240        1291        1290
         4        1240        1241        1292        1291
         4        1241        1242        1293        1292
         4        1242        1243        1294        1293
         4        1243        1244        1295        1294
         4        1244        1245        1296        1295
         4        1245        1246        1297        1296
         4        1246        1247        1298        1297
         4        1247        1248        1299        1298
         4        1248        1249        1300        1299
         4        1249        1250        1301        1300
         4        1250        1251        1302        1301
         4        1251        1252        1303        1302
         4        1252        1253        1304        1303
         4        1253        1254        1305        1304
         4        1254        1255        1306        1305
         4        1255        1256        1307        1306
         4        1256        1257        1308        1307
         4        1257        1258        1309        1308
         4        1258        1259        1310        1309
         4        1259        1260        1311        1310
         4        1260        1261        1312        1311
         4        1261        1262        1313        1312
         4        1262        1263        1314        1313
         4        1263        1264        1315        1314
         4        1264        1265        1316        1315
         4        1265        1266        1317        1316
         4        1266        1267        1318        1317
         4        1267        1268        1319        1318
         4        1268        1269        1320        1319
         4        1269        1270        1321        1320
         4        1270        1271        1322        1321
         4        1271        1272        1323        1322
         4        1272        1273        1324        1323
         4        1273        1274        1325        1324
         4        1275        1276        1327        1326
         4        1276        1277        1328        1327
         4        1277        1278        1329        1328
         4        1278        1279        1330        1329
         4        1279        1280        1331        1330
         4        1280        1281        1332        1331
         4        1281        1282        1333        1332
         4        1282        1283        1334        1333
         4        1283        1284        1335        1334
         4        1284        1285        1336        1335
         4        1285        1286        1337        1336
         4        1286        1287        1338        1337
         4        1287        1288        1339        1338
         4        1288        1289        1340        1339
         4        1289        1290        1341        1340
         4        1290        1291        1342        1341
         4        1291        1292        1343        1342
         4        1292        1293        1344        1343
         4        1293        1294        1345        1344
         4        1294        1295        1346        1345
         4        1295        1296        1347        1346
         4        1296        1297        1348        1347
         4        1297        1298        1349        1348
         4        1298        1299        1350        1349
         4        1299        1300        1351        1350
         4        1300        1301        1352        1351
         4        1301        1302        1353        1352
         4        1302        1303        1354        1353
         4        1303        1304        1355        1354
         4        1304        1305        1356        1355
         4        1305        1306        1357        1356
         4        1306        1307        1358        1357
         4        1307        1308        1359        1358
         4        1308        1309        1360        1359
         4        1309        1310        1361        1360
         4        1310        1311        1362        1361
         4        1311        1312        1363        1362
         4        1312        1313        1364        1363
         4        1313        1314        1365        1364
         4        1314        1315        1366        1365
         4        1315        1316        1367        1366
         4        1316        1317        1368        1367
         4        1317        1318        1369        1368
         4        1318        1319        1370        1369
         4        1319        1320        1371        1370
         4        1320        1321        1372        1371
         4        1321        1322        1373        1372
         4        1322        1323        1374        1373
         4        1323        1324        1375        1374
         4        1324        1325        1376        1375
         4        1326        1327        1378        1377
         4        1327        1328        1379        1378
         4        1328        1329        1380        1379
         4        1329        1330        1381        1380
         4        1330        1331        1382        1381
         4        1331        1332        1383        1382
         4        1332        1333        1384        1383
         4        1333        1334        1385        1384
         4        1334        1335        1386        1385
         4        1335        1336        1387        1386
         4        1336        1337        1388        1387
         4        1337        1338        1389        1388
         4        1338        1339        1390        1389
         4        1339        1340        1391        1390
         4        1340        1341        1392        1391
         4        1341        1342        1393        1392
         4        1342        1343        1394        1393
         4        1343        1344        1395        1394
         4        1344        1345        1396        1395
         4        1345        1346        1397        1396
         4        1346        1347        1398        1397
         4        1347        1348        1399        1398
         4        1348        1349        1400        1399
         4        1349        1350        1401        1400
         4        1350        1351        1402        1401
         4        1351        1352        1403        1402
         4        1352        1353        1404        1403
         4        1353        1354        1405        1404
         4        1354        1355        1406        1405
         4        1355        1356        1407        1406
         4        1356        1357        1408        1407
         4        1357        1358        1409        1408
         4        1358        1359        1410        1409
         4        1359        1360        1411        1410
         4        1360        1361        1412        1411
         4        1361        1362        1413        1412
         4        1362        1363        1414        1413
         4        1363        1364        1415        1414
         4        1364        1365        1416        1415
         4        1365        1366        1417        1416
         4        1366        1367        1418        1417
         4        1367        1368        1419        1418
         4        1368        1369        1420        1419
         4        1369        1370        1421        1420
         4        1370        1371        1422        1421
         4        1371        1372        1423        1422
         4        1372        1373        1424        1423
         4        1373        1374        1425        1424
         4        1374        1375        1426        1425
         4        1375        1376        1427        1426
         4        1377        1378        1429        1428
         4        1378        1379        1430        1429
         4        1379        1380        1431        1430
         4        1380        1381        1432        1431
         4        1381        1382        1433        1432
         4        1382        1383        1434        1433
         4        1383        1384        1435        1434
         4        1384        1385        1436        1435
         4        1385        1386        1437        1436
         4        1386        1387        1438        1437
         4        1387        1388        1439        1438
         4        1388        1389        1440        1439
         4        1389        1390        1441        1440
         4        1390        1391        1442        1441
         4        1391        1392        1443        1442
         4        1392        1393        1444        1443
         4        1393        1394        1445        1444
         4        1394        1395        1446        1445
         4        1395        1396        1447        1446
         4        1396        1397        1448        1447
         4        1397        1398        1449        1448
         4        1398        1399        1450        1449
         4        1399        1400        1451        1450
         4        1400        1401        1452        1451
         4        1401        1402        1453        1452
         4        1402        1403        1454        1453
         4        1403        1404        1455        1454
         4        1404        1405        1456        1455
         4        1405        1406        1457        1456
         4        1406        1407        1458        1457
         4        1407        1408        1459        1458
         4        1408        1409        1460        1459
         4        1409        1410        1461        1460
         4        1410        1411        1462        1461
         4        1411        1412        1463        1462
         4        1412        1413        1464        1463
         4        1413        1414        1465        1464
         4        1414        1415        1466        1465
         4        1415        1416        1467        1466
         4        1416        1417        1468        1467
         4        1417        1418        1469        1468
         4        1418        1419        1470        1469
         4        1419        1420        1471        1470
         4        1420        1421        1472        1471
         4        1421        1422        1473        1472
         4        1422        1423        1474        1473
         4        1423        1424        1475        1474
         4        1424        1425        1476        1475
         4        1425        1426        1477        1476
         4        1426        1427        1478        1477
         4        1428        1429        1480        1479
         4        1429        1430        1481        1480
         4        1430        1431        1482        1481
         4        1431        1432        1483        1482
         4        1432        1433        1484        1483
         4        1433        1434        1485        1484
         4        1434        1435        1486        1485
         4        1435        1436        1487        1486
         4        1436        1437        1488        1487
         4        1437        1438        1489        1488
         4        1438        1439        1490        1489
         4        1439        1440        1491        1490
         4        1440        1441        1492        1491
         4        1441        1442        1493        1492
         4        1442        1443        1494        1493
         4        1443        1444        1495        1494
         4        1444        1445        1496        1495
         4        1445        1446        1497        1496
         4        1446        1447        1498        1497
         4        1447        1448        1499        1498
         4        1448        1449        1500        1499
         4        1449        1450        1501        1500
         4        1450        1451        1502        1501
         4        1451        1452        1503        1502
         4        1452        1453        1504        1503
         4        1453        1454        1505        1504
         4        1454        1455        1506        1505
         4        1455        1456        1507        1506
         4        1456        1457        1508        1507
         4        1457        1458        1509        1508
         4        1458        1459        1510        1509
         4        1459        1460        1511        1510
         4        1460        1461        1512        1511
         4        1461        1462        1513        1512
         4        1462        1463        1514        1513
         4        1463        1464        1515        1514
         4        1464        1465        1516        1515
         4        1465        1466        1517        1516
         4        1466        1467        1518        1517
         4        1467        1468        1519        1518
         4        1468        1469        1520        1519
         4        1469        1470        1521        1520
         4        1470        1471        1522        1521
         4        1471        1472        1523        1522
         4        1472        1473        1524        1523
         4        1473        1474        1525        1524
         4        1474        1475        1526        1525
         4        1475        1476        1527        1526
         4        1476        1477        1528        1527
         4        1477        1478        1529        1528
         4        1479        1480        1531        1530
         4        1480        1481        1532        1531
         4        1481        1482        1533        1532
         4        1482        1483        1534        1533
         4        1483        1484        1535        1534
         4        1484        1485        1536        1535
         4        1485        1486        1537        1536
         4        1486        1487        1538        1537
         4        1487        1488        1539        1538
         4        1488        1489        1540        1539
         4        1489        1490        1541        1540
         4        1490        1491        1542        1541
         4        1491        1492        1543        1542
         4        1492        1493        1544        1543
         4        1493        1494        1545        1544
         4        1494        1495        1546        1545
         4        1495        1496        1547        1546
         4        1496        1497        1548        1547
         4        1497        1498        1549        1548
         4        1498        1499        1550        1549
         4        1499        1500        1551        1550
         4        1500        1501        1552        1551
         4        1501        1502        1553        1552
         4        1502        1503        1554        1553
         4        1503        1504        1555        1554
         4        1504        1505        1556        1555
         4        1505        1506        1557        1556
         4        1506        1507        1558        1557
         4        1507        1508        1559        1558
         4        1508        1509        1560        1559
         4        1509        1510        1561        1560
         4        1510        1511        1562        1561
         4        1511        1512        1563        1562
         4        1512        1513        1564        1563
         4        1513        1514        1565        1564
         4        1514        1515        1566        1565
         4        1515        1516        1567        1566
         4        1516        1517        1568        1567
         4        1517        1518        1569        1568
         4        1518        1519        1570        1569
         4        1519        1520        1571        1570
         4        1520        1521        1572        1571
         4        1521        1522        1573        1572
         4        1522        1523        1574        1573
         4        1523        1524        1575        1574
         4        1524        1525        1576        1575
         4        1525        1526        1577        1576
         4        1526        1527        1578        1577
         4        1527        1528        1579        1578
         4        1528        1529        1580        1579
         4        1530        1531        1582        1581
         4        1531        1532        1583        1582
         4        1532        1533        1584        1583
         4        1533        1534        1585        1584
         4        1534        1535        1586        1585
         4        1535        1536        1587        1586
         4        1536        1537        1588        1587
         4        1537        1538        1589        1588
         4        1538        1539        1590        1589
         4        1539        1540        1591        1590
         4        1540        1541        1592        1591
         4        1541        1542        1593        1592
         4        1542        1543        1594        1593
         4        1543        1544        1595        1594
         4        1544        1545        1596        1595
         4        1545        1546        1597        1596
         4        1546        1547        1598        1597
         4        1547        1548        1599        1598
         4        1548        1549        1600        1599
         4        1549        1550        1601        1600
         4        1550        1551        1602        1601
         4        1551        1552        1603        1602
         4        1552        1553        1604        1603
         4        1553        1554        1605        1604
         4        1554        1555        1606        1605
         4        1555        1556        1607        1606
         4        1556        1557        1608        1607
         4        1557        1558        1609        1608
         4        1558        1559        1610        1609
         4        1559        1560        1611        1610
         4        1560        1561        1612        1611
         4        1561        1562        1613        1612
         4        1562        1563        1614        1613
         4        1563        1564        1615        1614
         4        1564        1565        1616        1615
         4        1565        1566        1617        1616
         4        1566        1567        1618        1617
         4        1567        1568        1619        1618
         4        1568        1569        1620        1619
         4        1569        1570        1621        1620
         4        1570        1571        1622        1621
         4        1571        1572        1623        1622
         4        1572        1573        1624        1623
         4        1573        1574        1625        1624
         4        1574        1575        1626        1625
         4        1575        1576        1627        1626
         4        1576        1577        1628        1627
         4        1577        1578        1629        1628
         4        1578        1579        1630        1629
         4        1579        1580        1631        1630
         4        1581        1582        1633        1632
         4        1582        1583        1634        1633
         4        1583        1584        1635        1634
         4        1584        1585        1636        1635
         4        1585        1586        1637        1636
         4        1586        1587        1638        1637
         4        1587        1588        1639        1638
         4        1588        1589        1640        1639
         4        1589        1590        1641        1640
         4        1590        1591        1642        1641
         4        1591        1592        1643        1642
         4        1592        1593        1644        1643
         4        1593        1594        1645        1644
         4        1594        1595        1646        1645
         4        1595        1596        1647        1646
         4        1596        1597        1648        1647
         4        1597        1598        1649        1648
         4        1598        1599        1650        1649
         4        1599        1600        1651        1650
         4        1600        1601        1652        1651
         4        1601        1602        1653        1652
         4        1602        1603        1654        1653
         4        1603        1604        1655        1654
         4        1604        1605        1656        1655
         4        1605        1606        1657        1656
         4        1606        1607        1658        1657
         4        1607        1608        1659        1658
         4        1608        1609        1660        1659
         4        1609        1610        1661        1660
         4        1610        1611        1662        1661
         4        1611        1612        1663        1662
         4        1612        1613        1664        1663
         4        1613        1614        1665        1664
         4        1614        1615        1666        1665
         4        1615        1616        1667        1666
         4        1616        1617        1668        1667
         4        1617        1618        1669        1668
         4        1618        1619        1670        1669
         4        1619        1620        1671        1670
         4        1620        1621        1672        1671
         4        1621        1622        1673        1672
         4        1622        1623        1674        1673
         4        1623        1624        1675        1674
         4        1624        1625        1676        1675
         4        1625        1626        1677        1676
         4        1626        1627        1678        1677
         4        1627        1628        1679        1678
         4        1628        1629        1680        1679
         4        1629        1630        1681        1680
         4        1630        1631        1682        1681
         4        1632        1633        1684        1683
         4        1633        1634        1685        1684
         4        1634        1635        1686        1685
         4        1635        1636        1687        1686
         4        1636        1637        1688        1687
         4        1637        1638        1689        1688
         4        1638        1639        1690        1689
         4        1639        1640        1691        1690
         4        1640        1641        1692        1691
         4        1641        1642        1693        1692
         4        1642        1643        1694        1693
         4        1643        1644        1695        1694
         4        1644        1645        1696        1695
         4        1645        1646        1697        1696
         4        1646        1647        1698        1697
         4        1647        1648        1699        1698
         4        1648        1649        1700        1699
         4        1649        1650        1701        1700
         4        1650        1651        1702        1701
         4        1651        1652        1703        1702
         4        1652        1653        1704        1703
         4        1653        1654        1705        1704
         4        1654        1655        1706        1705
         4        1655        1656        1707        1706
         4        1656        1657        1708        1707
         4        1657        1658        1709        1708
         4        1658        1659        1710        1709
         4        1659        1660        1711        1710
         4        1660        1661        1712        1711
         4        1661        1662        1713        1712
         4        1662        1663        1714        1713
         4        1663        1664        1715        1714
         4        1664        1665        1716        1715
         4        1665        1666        1717        1716
         4        1666        1667        1718        1717
         4        1667        1668        1719        1718
         4        1668        1669        1720        1719
         4        1669        1670        1721        1720
         4        1670        1671        1722        1721
         4        1671        1672        1723        1722
         4        1672        1673        1724        1723
         4        1673        1674        1725        1724
         4        1674        1675        1726        1725
         4        1675        1676        1727        1726
         4        1676        1677        1728        1727
         4        1677        1678        1729        1728
         4        1678        1679        1730        1729
         4        1679        1680        1731        1730
         4        1680        1681        1732        1731
         4        1681        1682        1733        1732
         4        1683        1684        1735        1734
         4        1684        1685        1736        1735
         4        1685        1686        1737        1736
         4        1686        1687        1738        1737
         4        1687        1688        1739        1738
         4        1688        1689        1740        1739
         4        1689        1690        1741        1740
         4        1690        1691        1742        1741
         4        1691        1692        1743        1742
         4        1692        1693        1744        1743
         4        1693        1694        1745        1744
         4        1694        1695        1746        1745
         4        1695        1696        1747        1746
         4        1696        1697        1748        1747
         4        1697        1698        1749        1748
         4        1698        1699        1750        1749
         4        1699        1700        1751        1750
         4        1700        1701        1752        1751
         4        1701        1702        1753        1752
         4        1702        1703        1754        1753
         4        1703        1704        1755        1754
         4        1704        1705        1756        1755
         4        1705        1706        1757        1756
         4        1706        1707        1758        1757
         4        1707        1708        1759        1758
         4        1708        1709        1760        1759
         4        1709        1710        1761        1760
         4        1710        1711        1762        1761
         4        1711        1712        1763        1762
         4        1712        1713        1764        1763
         4        1713        1714        1765        1764
         4        1714        1715        1766        1765
         4        1715        1716        1767        1766
         4        1716        1717        1768        1767
         4        1717        1718        1769        1768
         4        1718        1719        1770        1769
         4        1719        1720        1771        1770
         4        1720        1721        1772        1771
         4        1721        1722        1773        1772
         4        1722        1723        1774        1773
         4        1723        1724        1775        1774
         4        1724        1725        1776        1775
         4        1725        1726        1777        1776
         4        1726        1727        1778        1777
         4        1727        1728        1779        1778
         4        1728        1729        1780        1779
         4        1729        1730        1781        1780
         4        1730        1731        1782        1781
         4        1731        1732        1783        1782
         4        1732        1733        1784        1783
         4        1734        1735        1786        1785
         4        1735        1736        1787        1786
         4        1736        1737        1788        1787
         4        1737        1738        1789        1788
         4        1738        1739        1790        1789
         4        1739        1740        1791        1790
         4        1740        1741        1792        1791
         4        1741        1742        1793        1792
         4        1742        1743        1794        1793
         4        1743        1744        1795        1794
         4        1744        1745        1796        1795
         4        1745        1746        1797        1796
         4        1746        1747        1798        1797
         4        1747        1748        1799        1798
         4        1748        1749        1800        1799
         4        1749        1750        1801        1800
         4        1750        1751        1802        1801
         4        1751        1752        1803        1802
         4        1752        1753        1804        1803
         4        1753        1754        1805        1804
         4        1754        1755        1806        1805
         4        1755        1756        1807        1806
         4        1756        1757        1808        1807
         4        1757        1758        1809        1808
         4        1758        1759        1810        1809
         4        1759        1760        1811        1810
         4        1760        1761        1812        1811
         4        1761        1762        1813        1812
         4        1762        1763        1814        1813
         4        1763        1764        1815        1814
         4        1764        1765        1816        1815
         4        1765        1766        1817        1816
         4        1766        1767        1818        1817
         4        1767        1768        1819        1818
         4        1768        1769        1820        1819
         4        1769        1770        1821        1820
         4        1770        1771        1822        1821
         4        1771        1772        1823        1822
         4        1772        1773        1824        1823
         4        1773        1774        1825        1824
         4        1774        1775        1826        1825
         4        1775        1776        1827        1826
         4        1776        1777        1828        1827
         4        1777        1778        1829        1828
         4        1778        1779        1830        1829
         4        1779        1780        1831        1830
         4        1780        1781        1832        1831
         4        1781        1782        1833        1832
         4        1782        1783        1834        1833
         4        1783        1784        1835        1834
         4        1785        1786        1837        1836
         4        1786        1787        1838        1837
         4        1787        1788        1839        1838
         4        1788        1789        1840        1839
         4        1789        1790        1841        1840
         4        1790        1791        1842        1841
         4        1791        1792        1843        1842
         4        1792        1793        1844        1843
         4        1793        1794        1845        1844
         4        1794        1795        1846        1845
         4        1795        1796        1847        1846
         4        1796        1797        1848        1847
         4        1797        1798        1849        1848
         4        1798        1799        1850        1849
         4        1799        1800        1851        1850
         4        1800        1801        1852        1851
         4        1801        1802        1853        1852
         4        1802        1803        1854        1853
         4        1803        1804        1855        1854
         4        1804        1805        1856        1855
         4        1805        1806        1857        1856
         4        1806        1807        1858        1857
         4        1807        1808        1859        1858
         4        1808        1809        1860        1859
         4        1809        1810        1861        1860
         4        1810        1811        1862        1861
         4        1811        1812        1863        1862
         4        1812        1813        1864        1863
         4        1813        1814        1865        1864
         4        1814        1815        1866        1865
         4        1815        1816        1867        1866
         4        1816        1817        1868        1867
         4        1817        1818        1869        1868
         4        1818        1819        1870        1869
         4        1819        1820        1871        1870
         4        1820        1821        1872        1871
         4        1821        1822        1873        1872
         4        1822        1823        1874        1873
         4        1823        1824        1875        1874
         4        1824        1825        1876        1875
         4        1825        1826        1877        1876
         4        1826        1827        1878        1877
         4        1827        1828        1879        1878
         4        1828        1829        1880        1879
         4        1829        1830        1881        1880
         4        1830        1831        1882        1881
         4        1831        1832        1883        1882
         4        1832        1833        1884        1883
         4        1833        1834        1885        1884
         4        1834        1835        1886        1885
         4        1836        1837        1888        1887
         4        1837        1838        1889        1888
         4        1838        1839        1890        1889
         4        1839        1840        1891        1890
         4        1840        1841        1892        1891
         4        1841        1842        1893        1892
         4        1842        1843        1894        1893
         4        1843        1844        1895        1894
         4        1844        1845        1896        1895
         4        1845        1846        1897        1896
         4        1846        1847        1898        1897
         4        1847        1848        1899        1898
         4        1848        1849        1900        1899
         4        1849        1850        1901        1900
         4        1850        1851        1902        1901
         4        1851        1852        1903        1902
         4        1852        1853        1904        1903
         4        1853        1854        1905        1904
         4        1854        1855        1906        1905
         4        1855        1856        1907        1906
         4        1856        1857        1908        1907
         4        1857        1858        1909        1908
         4        1858        1859        1910        1909
         4        1859        1860        1911        1910
         4        1860        1861        1912        1911
         4        1861        1862        1913        1912
         4        1862        1863        1914        1913
         4        1863        1864        1915        1914
         4        1864        1865        1916        1915
         4        1865        1866        1917        1916
         4        1866        1867        1918        1917
         4        1867        1868        1919        1918
         4        1868        1869        1920        1919
         4        1869        1870        1921        1920
         4        1870        1871        1922        1921
         4        1871        1872        1923        1922
         4        1872        1873        1924        1923
         4        1873        1874        1925        1924
         4        1874        1875        1926        1925
         4        1875        1876        1927        1926
         4        1876        1877        1928        1927
         4        1877        1878        1929        1928
         4        1878        1879        1930        1929
         4        1879        1880        1931        1930
         4        1880        1881        1932        1931
         4        1881        1882        1933        1932
         4        1882        1883        1934        1933
         4        1883        1884        1935        1934
         4        1884        1885        1936        1935
         4        1885        1886        1937        1936
         4        1887        1888        1939        1938
         4        1888        1889        1940        1939
         4        1889        1890        1941        1940
         4        1890        1891        1942        1941
         4        1891        1892        1943        1942
         4        1892        1893        1944        1943
         4        1893        1894        1945        1944
         4        1894        1895        1946        1945
         4        1895        1896        1947        1946
         4        1896        1897        1948        1947
         4        1897        1898        1949        1948
         4        1898        1899        1950        1949
         4        1899        1900        1951        1950
         4        1900        1901        1952        1951
         4        1901        1902        1953        1952
         4        1902        1903        1954        1953
         4        1903        1904        1955        1954
         4        1904        1905        1956        1955
         4        1905        1906        1957        1956
         4        1906        1907        1958        1957
         4        1907        1908        1959        1958
         4        1908        1909        1960        1959
         4        1909        1910        1961        1960
         4        1910        1911        1962        1961
         4        1911        1912        1963        1962
         4        1912        1913        1964        1963
         4        1913        1914        1965        1964
         4        1914        1915        1966        1965
         4        1915        1916        1967        1966
         4        1916        1917        1968        1967
         4        1917        1918        1969        1968
         4        1918        1919        1970        1969
         4        1919        1920        1971        1970
         4        1920        1921        1972        1971
         4        1921        1922        1973        1972
         4        1922        1923        1974        1973
         4        1923        1924        1975        1974
         4        1924        1925        1976        1975
         4        1925        1926        1977        1976
         4        1926        1927        1978        1977
         4        1927        1928        1979        1978
         4        1928        1929        1980        1979
         4        1929        1930        1981        1980
         4        1930        1931        1982        1981
         4        1931        1932        1983        1982
         4        1932        1933        1984        1983
         4        1933        1934        1985        1984
         4        1934        1935        1986        1985
         4        1935        1936        1987        1986
         4        1936        1937        1988        1987
         4        1938        1939        1990        1989
         4        1939        1940        1991        1990
         4        1940        1941        1992        1991
         4        1941        1942        1993        1992
         4        1942        1943        1994        1993
         4        1943        1944        1995        1994
         4        1944        1945        1996        1995
         4        1945        1946        1997        1996
         4        1946        1947        1998        1997
         4        1947        1948        1999        1998
         4        1948        1949        2000        1999
         4        1949        1950        2001        2000
         4        1950        1951        2002        2001
         4        1951        1952        2003        2002
         4        1952        1953        2004        2003
         4        1953        1954        2005        2004
         4        1954        1955        2006        2005
         4        1955        1956        2007        2006
         4        1956        1957        2008        2007
         4        1957        1958        2009        2008
         4        1958        1959        2010        2009
         4        1959        1960        2011        2010
         4        1960        1961        2012        2011
         4        1961        1962        2013        2012
         4        1962        1963        2014        2013
         4        1963        1964        2015        2014
         4        1964        1965        2016        2015
         4        1965        1966        2017        2016
         4        1966        1967        2018        2017
         4        1967        1968        2019        2018
         4        1968        1969        2020        2019
         4        1969        1970        2021        2020
         4        1970        1971        2022        2021
         4        1971        1972        2023        2022
         4        1972        1973        2024        2023
         4        1973        1974        2025        2024
         4        1974        1975        2026        2025
         4        1975        1976        2027        2026
         4        1976        1977        2028        2027
         4        1977        1978        2029        2028
         4        1978        1979        2030        2029
         4        1979        1980        2031        2030
         4        1980        1981        2032        2031
         4        1981        1982        2033        2032
         4        1982        1983        2034        2033
         4        1983        1984        2035        2034
         4        1984        1985        2036        2035
         4        1985        1986        2037        2036
         4        1986        1987        2038        2037
         4        1987        1988        2039        2038
         4        1989        1990        2041        2040
         4        1990        1991        2042        2041
         4        1991        1992        2043        2042
         4        1992        1993        2044        2043
         4        1993        1994        2045        2044
         4        1994        1995        2046        2045
         4        1995        1996        2047        2046
         4        1996        1997        2048        2047
         4        1997        1998        2049        2048
         4        1998        1999        2050        2049
         4        1999        2000        2051        2050
         4        2000        2001        2052        2051
         4        2001        2002        2053        2052
         4        2002        2003        2054        2053
         4        2003        2004        2055        2054
         4        2004        2005        2056        2055
         4        2005        2006        2057        2056
         4        2006        2007        2058        2057
         4        2007        2008        2059        2058
         4        2008        2009        2060        2059
         4        2009        2010        2061        2060
         4        2010        2011        2062        2061
         4        2011        2012        2063        2062
         4        2012        2013        2064        2063
         4        2013        2014        2065        2064
         4        2014        2015        2066        2065
         4        2015        2016        2067        2066
         4        2016        2017        2068        2067
         4        2017        2018        2069        2068
         4        2018        2019        2070        2069
         4        2019        2020        2071        2070
         4        2020        2021        2072        2071
         4        2021        2022        2073        2072
         4        2022        2023        2074        2073
         4        2023        2024        2075        2074
         4        2024        2025        2076        2075
         4        2025        2026        2077        2076
         4        2026        2027        2078        2077
         4        2027        2028        2079        2078
         4        2028        2029        2080        2079
         4        2029        2030        2081        2080
         4        2030        2031        2082        2081
         4        2031        2032        2083        2082
         4        2032        2033        2084        2083
         4        2033        2034        2085        2084
         4        2034        2035        2086        2085
         4        2035        2036        2087        2086
         4        2036        2037        2088        2087
         4        2037        2038        2089        2088
         4        2038        2039        2090        2089
         4        2040        2041        2092        2091
         4        2041        2042        2093        2092
         4        2042        2043        2094        2093
         4        2043        2044        2095        2094
         4        2044        2045        2096        2095
         4        2045        2046        2097        2096
         4        2046        2047        2098        2097
         4        2047        2048        2099        2098
         4        2048        2049        2100        2099
         4        2049        2050        2101        2100
         4        2050        2051        2102        2101
         4        2051        2052        2103        2102
         4        2052        2053        2104        2103
         4        2053        2054        2105        2104
         4        2054        2055        2106        2105
         4        2055        2056        2107        2106
         4        2056        2057        2108        2107
         4        2057        2058        2109        2108
         4        2058        2059        2110        2109
         4        2059        2060        2111        2110
         4        2060        2061        2112        2111
         4        2061        2062        2113        2112
         4        2062        2063        2114        2113
         4        2063        2064        2115        2114
         4        2064        2065        2116        2115
         4        2065        2066        2117        2116
         4        2066        2067        2118        2117
         4        2067        2068        2119        2118
         4        2068        2069        2120        2119
         4        2069        2070        2121        2120
         4        2070        2071        2122        2121
         4        2071        2072        2123        2122
         4        2072        2073        2124        2123
         4        2073        2074        2125        2124
         4        2074        2075        2126        2125
         4        2075        2076        2127        2126
         4        2076        2077        2128        2127
         4        2077        2078        2129        2128
         4        2078        2079        2130        2129
         4        2079        2080        2131        2130
         4        2080        2081        2132        2131
         4        2081        2082        2133        2132
         4        2082        2083        2134        2133
         4        2083        2084        2135        2134
         4        2084        2085        2136        2135
         4        2085        2086        2137        2136
         4        2086        2087        2138        2137
         4        2087        2088        2139        2138
         4        2088        2089        2140        2139
         4        2089        2090        2141        2140
         4        2091        2092        2143        2142
         4        2092        2093        2144        2143
         4        2093        2094        2145        2144
         4        2094        2095        2146        2145
         4        2095        2096        2147        2146
         4        2096        2097        2148        2147
         4        2097        2098        2149        2148
         4        2098        2099        2150        2149
         4        2099        2100        2151        2150
         4        2100        2101        2152        2151
         4        2101        2102        2153        2152
         4        2102        2103        2154        2153
         4        2103        2104        2155        2154
         4        2104        2105        2156        2155
         4        2105        2106        2157        2156
         4        2106        2107        2158        2157
         4        2107        2108        2159        2158
         4        2108        2109        2160        2159
         4        2109        2110        2161        2160
         4        2110        2111        2162        2161
         4        2111        2112        2163        2162
         4        2112        2113        2164        2163
         4        2113        2114        2165        2164
         4        2114        2115        2166        2165
         4        2115        2116        2167        2166
         4        2116        2117        2168        2167
         4        2117        2118        2169        2168
         4        2118        2119        2170        2169
         4        2119        2120        2171        2170
         4        2120        2121        2172        2171
         4        2121        2122        2173        2172
         4        2122        2123        2174        2173
         4        2123        2124        2175        2174
         4        2124        2125        2176        2175
         4        2125        2126        2177        2176
         4        2126        2127        2178        2177
         4        2127        2128        2179        2178
         4        2128        2129        2180        2179
         4        2129        2130        2181        2180
         4        2130        2131        2182        2181
         4        2131        2132        2183        2182
         4        2132        2133        2184        2183
         4        2133        2134        2185        2184
         4        2134        2135        2186        2185
         4        2135        2136        2187        2186
         4        2136        2137        2188        2187
         4        2137        2138        2189        2188
         4        2138        2139        2190        2189
         4        2139        2140        2191        2190
         4        2140        2141        2192        2191
         4        2142        2143        2194        2193
         4        2143        2144        2195        2194
         4        2144        2145        2196        2195
         4        2145        2146        2197        2196
         4        2146        2147        2198        2197
         4        2147        2148        2199        2198
         4        2148        2149        2200        2199
         4        2149        2150        2201        2200
         4        2150        2151        2202        2201
         4        2151        2152        2203        2202
         4        2152        2153        2204        2203
         4        2153        2154        2205        2204
         4        2154        2155        2206        2205
         4        2155        2156        2207        2206
         4        2156        2157        2208        2207
         4        2157        2158        2209        2208
         4        2158        2159        2210        2209
         4        2159        2160        2211        2210
         4        2160        2161        2212        2211
         4        2161        2162        2213        2212
         4        2162        2163        2214        2213
         4        2163        2164        2215        2214
         4        2164        2165        2216        2215
         4        2165        2166        2217        2216
         4        2166        2167        2218        2217
         4        2167        2168        2219        2218
         4        2168        2169        2220        2219
         4        2169        2170        2221        2220
         4        2170        2171        2222        2221
         4        2171        2172        2223        2222
         4        2172        2173        2224        2223
         4        2173        2174        2225        2224
         4        2174        2175        2226        2225
         4        2175        2176        2227        2226
         4        2176        2177        2228        2227
         4        2177        2178        2229        2228
         4        2178        2179        2230        2229
         4        2179        2180        2231        2230
         4        2180        2181        2232        2231
         4        2181        2182        2233        2232
         4        2182        2183        2234        2233
         4        2183        2184        2235        2234
         4        2184        2185        2236        2235
         4        2185        2186        2237        2236
         4        2186        2187        2238        2237
         4        2187        2188        2239        2238
         4        2188        2189        2240        2239
         4        2189        2190        2241        2240
         4        2190        2191        2242        2241
         4        2191        2192        2243        2242
         4        2193        2194        2245        2244
         4        2194        2195        2246        2245
         4        2195        2196        2247        2246
         4        2196        2197        2248        2247
         4        2197        2198        2249        2248
         4        2198        2199        2250        2249
         4        2199        2200        2251        2250
         4        2200        2201        2252        2251
         4        2201        2202        2253        2252
         4        2202        2203        2254        2253
         4        2203        2204        2255        2254
         4        2204        2205        2256        2255
         4        2205        2206        2257        2256
         4        2206        2207        2258        2257
         4        2207        2208        2259        2258
         4        2208        2209        2260        2259
         4        2209        2210        2261        2260
         4        2210        2211        2262        2261
         4        2211        2212        2263        2262
         4        2212        2213        2264        2263
         4        2213        2214        2265        2264
         4        2214        2215        2266        2265
         4        2215        2216        2267        2266
         4        2216        2217        2268        2267
         4        2217        2218        2269        2268
         4        2218        2219        2270        2269
         4        2219        2220        2271        2270
         4        2220        2221        2272        2271
         4        2221        2222        2273        2272
         4        2222        2223        2274        2273
         4        2223        2224        2275        2274
         4        2224        2225        2276        2275
         4        2225        2226        2277        2276
         4        2226        2227        2278        2277
         4        2227        2228        2279        2278
         4        2228        2229        2280        2279
         4        2229        2230        2281        2280
         4        2230        2231        2282        2281
         4        2231        2232        2283        2282
         4        2232        2233        2284        2283
         4        2233        2234        2285        2284
         4        2234        2235        2286        2285
         4        2235        2236        2287        2286
         4        2236        2237        2288        2287
         4        2237        2238        2289        2288
         4        2238        2239        2290        2289
         4        2239        2240        2291        2290
         4        2240        2241        2292        2291
         4        2241        2242        2293        2292
         4        2242        2243        2294        2293
         4        2244        2245        2296        2295
         4        2245        2246        2297        2296
         4        2246        2247        2298        2297
         4        2247        2248        2299        2298
         4        2248        2249        2300        2299
         4        2249        2250        2301        2300
         4        2250        2251        2302        2301
         4        2251        2252        2303        2302
         4        2252        2253        2304        2303
         4        2253        2254        2305        2304
         4        2254        2255        2306        2305
         4        2255        2256        2307        2306
         4        2256        2257        2308        2307
         4        2257        2258        2309        2308
         4        2258        2259        2310        2309
         4        2259        2260        2311        2310
         4        2260        2261        2312        2311
         4        2261        2262        2313        2312
         4        2262        2263        2314        2313
         4        2263        2264        2315        2314
         4        2264        2265        2316        2315
         4        2265        2266        2317        2316
         4        2266        2267        2318        2317
         4        2267        2268        2319        2318
         4        2268        2269        2320        2319
         4        2269        2270        2321        2320
         4        2270        2271        2322        2321
         4        2271        2272        2323        2322
         4        2272        2273        2324        2323
         4        2273        2274        2325        2324
         4        2274        2275        2326        2325
         4        2275        2276        2327        2326
         4        2276        2277        2328        2327
         4        2277        2278        2329        2328
         4        2278        2279        2330        2329
         4        2279        2280        2331        2330
         4        2280        2281        2332        2331
         4        2281        2282        2333        2332
         4        2282        2283        2334        2333
         4        2283        2284        2335        2334
         4        2284        2285        2336        2335
         4        2285        2286        2337        2336
         4        2286        2287        2338        2337
         4        2287        2288        2339        2338
         4        2288        2289        2340        2339
         4        2289        2290        2341        2340
         4        2290        2291        2342        2341
         4        2291        2292        2343        2342
         4        2292        2293        2344        2343
         4        2293        2294        2345        2344
         4        2295        2296        2347        2346
         4        2296        2297        2348        2347
         4        2297        2298        2349        2348
         4        2298        2299        2350        2349
         4        2299        2300        2351        2350
         4        2300        2301        2352        2351
         4        2301        2302        2353        2352
         4        2302        2303        2354        2353
         4        2303        2304        2355        2354
         4        2304        2305        2356        2355
         4        2305        2306        2357        2356
         4        2306        2307        2358        2357
         4        2307        2308        2359        2358
         4        2308        2309        2360        2359
         4        2309        2310        2361        2360
         4        2310        2311        2362        2361
         4        2311        2312        2363        2362
         4        2312        2313        2364        2363
         4        2313        2314        2365        2364
         4        2314        2315        2366        2365
         4        2315        2316        2367        2366
         4        2316        2317        2368        2367
         4        2317        2318        2369        2368
         4        2318        2319        2370        2369
         4        2319        2320        2371        2370
         4        2320        2321        2372        2371
         4        2321        2322        2373        2372
         4        2322        2323        2374        2373
         4        2323        2324        2375        2374
         4        2324        2325        2376        2375
         4        2325        2326        2377        2376
         4        2326        2327        2378        2377
         4        2327        2328        2379        2378
         4        2328        2329        2380        2379
         4        2329        2330        2381        2380
         4        2330        2331        2382        2381
         4        2331        2332        2383        2382
         4        2332        2333        2384        2383
         4        2333        2334        2385        2384
         4        2334        2335        2386        2385
         4        2335        2336        2387        2386
         4        2336        2337        2388        2387
         4        2337        2338        2389        2388
         4        2338        2339        2390        2389
         4        2339        2340        2391        2390
         4        2340        2341        2392        2391
         4        2341        2342        2393        2392
         4        2342        2343        2394        2393
         4        2343        2344        2395        2394
         4        2344        2345        2396        2395
         4        2346        2347        2398        2397
         4        2347        2348        2399        2398
         4        2348        2349        2400        2399
         4        2349        2350        2401        2400
         4        2350        2351        2402        2401
         4        2351        2352        2403        2402
         4        2352        2353        2404        2403
         4        2353        2354        2405        2404
         4        2354        2355        2406        2405
         4        2355        2356        2407        2406
         4        2356        2357        2408        2407
         4        2357        2358        2409        2408
         4        2358        2359        2410        2409
         4        2359        2360        2411        2410
         4        2360        2361        2412        2411
         4        2361        2362        2413        2412
         4        2362        2363        2414        2413
         4        2363        2364        2415        2414
         4        2364        2365        2416        2415
         4        2365        2366        2417        2416
         4        2366        2367        2418        2417
         4        2367        2368        2419        2418
         4        2368        2369        2420        2419
         4        2369        2370        2421        2420
         4        2370        2371        2422        2421
         4        2371        2372        2423        2422
         4        2372        2373        2424        2423
         4        2373        2374        2425        2424
         4        2374        2375        2426        2425
         4        2375        2376        2427        2426
         4        2376        2377        2428        2427
         4        2377        2378        2429        2428
         4        2378        2379        2430        2429
         4        2379        2380        2431        2430
         4        2380        2381        2432        2431
         4        2381        2382        2433        2432
         4        2382        2383        2434        2433
         4        2383        2384        2435        2434
         4        2384        2385        2436        2435
         4        2385        2386        2437        2436
         4        2386        2387        2438        2437
         4        2387        2388        2439        2438
         4        2388        2389        2440        2439
         4        2389        2390        2441        2440
         4        2390        2391        2442        2441
         4        2391        2392        2443        2442
         4        2392        2393        2444        2443
         4        2393        2394        2445        2444
         4        2394        2395        2446        2445
         4        2395        2396        2447        2446
         4        2397        2398        2449        2448
         4        2398        2399        2450        2449
         4        2399        2400        2451        2450
         4        2400        2401        2452        2451
         4        2401        2402        2453        2452
         4        2402        2403        2454        2453
         4        2403        2404        2455        2454
         4        2404        2405        2456        2455
         4        2405        2406        2457        2456
         4        2406        2407        2458        2457
         4        2407        2408        2459        2458
         4        2408        2409        2460        2459
         4        2409        2410        2461        2460
         4        2410        2411        2462        2461
         4        2411        2412        2463        2462
         4        2412        2413        2464        2463
         4        2413        2414        2465        2464
         4        2414        2415        2466        2465
         4        2415        2416        2467        2466
         4        2416        2417        2468        2467
         4        2417        2418        2469        2468
         4        2418        2419        2470        2469
         4        2419        2420        2471        2470
         4        2420        2421        2472        2471
         4        2421        2422        2473        2472
         4        2422        2423        2474        2473
         4        2423        2424        2475        2474
         4        2424        2425        2476        2475
         4        2425        2426        2477        2476
         4        2426        2427        2478        2477
         4        2427        2428        2479        2478
         4        2428        2429        2480        2479
         4        2429        2430        2481        2480
         4        2430        2431        2482        2481
         4        2431        2432        2483        2482
         4        2432        2433        2484        2483
         4        2433        2434        2485        2484
         4        2434        2435        2486        2485
         4        2435        2436        2487        2486
         4        2436        2437        2488        2487
         4        2437        2438        2489        2488
         4        2438        2439        2490        2489
         4        2439        2440        2491        2490
         4        2440        2441        2492        2491
         4        2441        2442        2493        2492
         4        2442        2443        2494        2493
         4        2443        2444        2495        2494
         4        2444        2445        2496        2495
         4        2445        2446        2497        2496
         4        2446        2447        2498        2497
         4        2448        2449        2500        2499
         4        2449        2450        2501        2500
         4        2450        2451        2502        2501
         4        2451        2452        2503        2502
         4        2452        2453        2504        2503
         4        2453        2454        2505        2504
         4        2454        2455        2506        2505
         4        2455        2456        2507        2506
         4        2456        2457        2508        2507
         4        2457        2458        2509        2508
         4        2458        2459        2510        2509
         4        2459        2460        2511        2510
         4        2460        2461        2512        2511
         4        2461        2462        2513        2512
         4        2462        2463        2514        2513
         4        2463        2464        2515        2514
         4        2464        2465        2516        2515
         4        2465        2466        2517        2516
         4        2466        2467        2518        2517
         4        2467        2468        2519        2518
         4        2468        2469        2520        2519
         4        2469        2470        2521        2520
         4        2470        2471        2522        2521
         4        2471        2472        2523        2522
         4        2472        2473        2524        2523
         4        2473        2474        2525        2524
         4        2474        2475        2526        2525
         4        2475        2476        2527        2526
         4        2476        2477        2528        2527
         4        2477        2478        2529        2528
         4        2478        2479        2530        2529
         4        2479        2480        2531        2530
         4        2480        2481        2532        2531
         4        2481        2482        2533        2532
         4        2482        2483        2534        2533
         4        2483        2484        2535        2534
         4        2484        2485        2536        2535
         4        2485        2486        2537        2536
         4        2486        2487        2538        2537
         4        2487        2488        2539        2538
         4        2488        2489        2540        2539
         4        2489        2490        2541        2540
         4        2490        2491        2542        2541
         4        2491        2492        2543        2542
         4        2492        2493        2544        2543
         4        2493        2494        2545        2544
         4        2494        2495        2546        2545
         4        2495        2496        2547        2546
         4        2496        2497        2548        2547
         4        2497        2498        2549        2548
         4        2499        2500        2551        2550
         4        2500        2501        2552        2551
         4        2501        2502        2553        2552
         4        2502        2503        2554        2553
         4        2503        2504        2555        2554
         4        2504        2505        2556        2555
         4        2505        2506        2557        2556
         4        2506        2507        2558        2557
         4        2507        2508        2559        2558
         4        2508        2509        2560        2559
         4        2509        2510        2561        2560
         4        2510        2511        2562        2561
         4        2511        2512        2563        2562
         4        2512        2513        2564        2563
         4        2513        2514        2565        2564
         4        2514        2515        2566        2565
         4        2515        2516        2567        2566
         4        2516        2517        2568        2567
         4        2517        2518        2569        2568
         4        2518        2519        2570        2569
         4        2519        2520        2571        2570
         4        2520        2521        2572        2571
         4        2521        2522        2573        2572
         4        2522        2523        2574        2573
         4        2523        2524        2575        2574
         4        2524        2525        2576        2575
         4        2525        2526        2577        2576
         4        2526        2527        2578        2577
         4        2527        2528        2579        2578
         4        2528        2529        2580        2579
         4        2529        2530        2581        2580
         4        2530        2531        2582        2581
         4        2531        2532        2583        2582
         4        2532        2533        2584        2583
         4        2533        2534        2585        2584
         4        2534        2535        2586        2585
         4        2535        2536        2587        2586
         4        2536        2537        2588        2587
         4        2537        2538        2589        2588
         4        2538        2539        2590        2589
         4        2539        2540        2591        2590
         4        2540        2541        2592        2591
         4        2541        2542        2593        2592
         4        2542        2543        2594        2593
         4        2543        2544        2595        2594
         4        2544        2545        2596        2595
         4        2545        2546        2597        2596
         4        2546        2547        2598        2597
         4        2547        2548        2599        2598
         4        2548        2549        2600        2599
         4        2550        2551        2602        2601
         4        2551        2552        2603        2602
         4        2552        2553        2604        2603
         4        2553        2554        2605        2604
         4        2554        2555        2606        2605
         4        2555        2556        2607        2606
         4        2556        2557        2608        2607
         4        2557        2558        2609        2608
         4        2558        2559        2610        2609
         4        2559        2560        2611        2610
         4        2560        2561        2612        2611
         4        2561        2562        2613        2612
         4        2562        2563        2614        2613
         4        2563        2564        2615        2614
         4        2564        2565        2616        2615
         4        2565        2566        2617        2616
         4        2566        2567        2618        2617
         4        2567        2568        2619        2618
         4        2568        2569        2620        2619
         4        2569        2570        2621        2620
         4        2570        2571        2622        2621
         4        2571        2572        2623        2622
         4        2572        2573        2624        2623
         4        2573        2574        2625        2624
         4        2574        2575        2626        2625
         4        2575        2576        2627        2626
         4        2576        2577        2628        2627
         4        2577        2578        2629        2628
         4        2578        2579        2630        2629
         4        2579        2580        2631        2630
         4        2580        2581        2632        2631
         4        2581        2582        2633        2632
         4        2582        2583        2634        2633
         4        2583        2584        2635        2634
         4        2584        2585        2636        2635
         4        2585        2586        2637        2636
         4        2586        2587        2638        2637
         4        2587        2588        2639        2638
         4        2588        2589        2640        2639
         4        2589        2590        2641        2640
         4        2590        2591        2642        2641
         4        2591        2592        2643        2642
         4        2592        2593        2644        2643
         4        2593        2594        2645        2644
         4        2594        2595        2646        2645
         4        2595        2596        2647        2646
         4        2596        2597        2648        2647
         4        2597        2598        2649        2648
         4        2598        2599        2650        2649
         4        2599        2600        2651        2650
         4        2601        2602        2653        2652
         4        2602        2603        2654        2653
         4        2603        2604        2655        2654
         4        2604        2605        2656        2655
         4        2605        2606        2657        2656
         4        2606        2607        2658        2657
         4        2607        2608        2659        2658
         4        2608        2609        2660        2659
         4        2609        2610        2661        2660
         4        2610        2611        2662        2661
         4        2611        2612        2663        2662
         4        2612        2613        2664        2663
         4        2613        2614        2665        2664
         4        2614        2615        2666        2665
         4        2615        2616        2667        2666
         4        2616        2617        2668        2667
         4        2617        2618        2669        2668
         4        2618        2619        2670        2669
         4        2619        2620        2671        2670
         4        2620        2621        2672        2671
         4        2621        2622        2673        2672
         4        2622        2623        2674        2673
         4        2623        2624        2675        2674
         4        2624        2625        2676        2675
         4        2625        2626        2677        2676
         4        2626        2627        2678        2677
         4        2627        2628        2679        2678
         4        2628        2629        2680        2679
         4        2629        2630        2681        2680
         4        2630        2631        2682        2681
         4        2631        2632        2683        2682
         4        2632        2633        2684        2683
         4        2633        2634        2685        2684
         4        2634        2635        2686        2685
         4        2635        2636        2687        2686
         4        2636        2637        2688        2687
         4        2637        2638        2689        2688
         4        2638        2639        2690        2689
         4        2639        2640        2691        2690
         4        2640        2641        2692        2691
         4        2641        2642        2693        2692
         4        2642        2643        2694        2693
         4        2643        2644        2695        2694
         4        2644        2645        2696        2695
         4        2645        2646        2697        2696
         4        2646        2647        2698        2697
         4        2647        2648        2699        2698
         4        2648        2649        2700        2699
         4        2649        2650        2701        2700
         4        2650        2651        2702        2701
         4        2652        2653        2704        2703
         4        2653        2654        2705        2704
         4        2654        2655        2706        2705
         4        2655        2656        2707        2706
         4        2656        2657        2708        2707
         4        2657        2658        2709        2708
         4        2658        2659        2710        2709
         4        2659        2660        2711        2710
         4        2660        2661        2712        2711
         4        2661        2662        2713        2712
         4        2662        2663        2714        2713
         4        2663        2664        2715        2714
         4        2664        2665        2716        2715
         4        2665        2666        2717        2716
         4        2666        2667        2718        2717
         4        2667        2668        2719        2718
         4        2668        2669        2720        2719
         4        2669        2670        2721        2720
         4        2670        2671        2722        2721
         4        2671        2672        2723        2722
         4        2672        2673        2724        2723
         4        2673        2674        2725        2724
         4        2674        2675        2726        2725
         4        2675        2676        2727        2726
         4        2676        2677        2728        2727
         4        2677        2678        2729        2728
         4        2678        2679        2730        2729
         4        2679        2680        2731        2730
         4        2680        2681        2732        2731
         4        2681        2682        2733        2732
         4        2682        2683        2734        2733
         4        2683        2684        2735        2734
         4        2684        2685        2736        2735
         4        2685        2686        2737        2736
         4        2686        2687        2738        2737
         4        2687        2688        2739        2738
         4        2688        2689        2740        2739
         4        2689        2690        2741        2740
         4        2690        2691        2742        2741
         4        2691        2692        2743        2742
         4        2692        2693        2744        2743
         4        2693        2694        2745        2744
         4        2694        2695        2746        2745
         4        2695        2696        2747        2746
         4        2696        2697        2748        2747
         4        2697        2698        2749        2748
         4        2698        2699        2750        2749
         4        2699        2700        2751        2750
         4        2700        2701        2752        2751
         4        2701        2702        2753        2752
         4        2703        2704        2755        2754
         4        2704        2705        2756        2755
         4        2705        2706        2757        2756
         4        2706        2707        2758        2757
         4        2707        2708        2759        2758
         4        2708        2709        2760        2759
         4        2709        2710        2761        2760
         4        2710        2711        2762        2761
         4        2711        2712        2763        2762
         4        2712        2713        2764        2763
         4        2713        2714        2765        2764
         4        2714        2715        2766        2765
         4        2715        2716        2767        2766
         4        2716        2717        2768        2767
         4        2717        2718        2769        2768
         4        2718        2719        2770        2769
         4        2719        2720        2771        2770
         4        2720        2721        2772        2771
         4        2721        2722        2773        2772
         4        2722        2723        2774        2773
         4        2723        2724        2775        2774
         4        2724        2725        2776        2775
         4        2725        2726        2777        2776
         4        2726        2727        2778        2777
         4        2727        2728        2779        2778
         4        2728        2729        2780        2779
         4        2729        2730        2781        2780
         4        2730        2731        2782        2781
         4        2731        2732        2783        2782
         4        2732        2733        2784        2783
         4        2733        2734        2785        2784
         4        2734        2735        2786        2785
         4        2735        2736        2787        2786
         4        2736        2737        2788        2787
         4        2737        2738        2789        2788
         4        2738        2739        2790        2789
         4        2739        2740        2791        2790
         4        2740        2741        2792        2791
         4        2741        2742        2793        2792
         4        2742        2743        2794        2793
         4        2743        2744        2795        2794
         4        2744        2745        2796        2795
         4        2745        2746        2797        2796
         4        2746        2747        2798        2797
         4        2747        2748        2799        2798
         4        2748        2749        2800        2799
         4        2749        2750        2801        2800
         4        2750        2751        2802        2801
         4        2751        2752        2803        2802
         4        2752        2753        2804        2803
         4        2754        2755        2806        2805
         4        2755        2756        2807        2806
         4        2756        2757        2808        2807
         4        2757        2758        2809        2808
         4        2758        2759        2810        2809
         4        2759        2760        2811        2810
         4        2760        2761        2812        2811
         4        2761        2762        2813        2812
         4        2762        2763        2814        2813
         4        2763        2764        2815        2814
         4        2764        2765        2816        2815
         4        2765        2766        2817        2816
         4        2766        2767        2818        2817
         4        2767        2768        2819        2818
         4        2768        2769        2820        2819
         4        2769        2770        2821        2820
         4        2770        2771        2822        2821
         4        2771        2772        2823        2822
         4        2772        2773        2824        2823
         4        2773        2774        2825        2824
         4        2774        2775        2826        2825
         4        2775        2776        2827        2826
         4        2776        2777        2828        2827
         4        2777        2778        2829        2828
         4        2778        2779        2830        2829
         4        2779        2780        2831        2830
         4        2780        2781        2832        2831
         4        2781        2782        2833        2832
         4        2782        2783        2834        2833
         4        2783        2784        2835        2834
         4        2784        2785        2836        2835
         4        2785        2786        2837        2836
         4        2786        2787        2838        2837
         4        2787        2788        2839        2838
         4        2788        2789        2840        2839
         4        2789        2790        2841        2840
         4        2790        2791        2842        2841
         4        2791        2792        2843        2842
         4        2792        2793        2844        2843
         4        2793        2794        2845        2844
         4        2794        2795        2846        2845
         4        2795        2796        2847        2846
         4        2796        2797        2848        2847
         4        2797        2798        2849        2848
         4        2798        2799        2850        2849
         4        2799        2800        2851        2850
         4        2800        2801        2852        2851
         4        2801        2802        2853        2852
         4        2802        2803        2854        2853
         4        2803        2804        2855        2854
         4        2805        2806        2857        2856
         4        2806        2807        2858        2857
         4        2807        2808        2859        2858
         4        2808        2809        2860        2859
         4        2809        2810        2861        2860
         4        2810        2811        2862        2861
         4        2811        2812        2863        2862
         4        2812        2813        2864        2863
         4        2813        2814        2865        2864
         4        2814        2815        2866        2865
         4        2815        2816        2867        2866
         4        2816        2817        2868        2867
         4        2817        2818        2869        2868
         4        2818        2819        2870        2869
         4        2819        2820        2871        2870
         4        2820        2821        2872        2871
         4        2821        2822        2873        2872
         4        2822        2823        2874        2873
         4        2823        2824        2875        2874
         4        2824        2825        2876        2875
         4        2825        2826        2877        2876
         4        2826        2827        2878        2877
         4        2827        2828        2879        2878
         4        2828        2829        2880        2879
         4        2829        2830        2881        2880
         4        2830        2831        2882        2881
         4        2831        2832        2883        2882
         4        2832        2833        2884        2883
         4        2833        2834        2885        2884
         4        2834        2835        2886        2885
         4        2835        2836        2887        2886
         4        2836        2837        2888        2887
         4        2837        2838        2889        2888
         4        2838        2839        2890        2889
         4        2839        2840        2891        2890
         4        2840        2841        2892        2891
         4        2841        2842        2893        2892
         4        2842        2843        2894        2893
         4        2843        2844        2895        2894
         4        2844        2845        2896        2895
         4        2845        2846        2897        2896
         4        2846        2847        2898        2897
         4        2847        2848        2899        2898
         4        2848        2849        2900        2899
         4        2849        2850        2901        2900
         4        2850        2851        2902        2901
         4        2851        2852        2903        2902
         4        2852        2853        2904        2903
         4        2853        2854        2905        2904
         4        2854        2855        2906        2905
         4        2856        2857        2908        2907
         4        2857        2858        2909        2908
         4        2858        2859        2910        2909
         4        2859        2860        2911        2910
         4        2860        2861        2912        2911
         4        2861        2862        2913        2912
         4        2862        2863        2914        2913
         4        2863        2864        2915        2914
         4        2864        2865        2916        2915
         4        2865        2866        2917        2916
         4        2866        2867        2918        2917
         4        2867        2868        2919        2918
         4        2868        2869        2920        2919
         4        2869        2870        2921        2920
         4        2870        2871        2922        2921
         4        2871        2872        2923        2922
         4        2872        2873        2924        2923
         4        2873        2874        2925        2924
         4        2874        2875        2926        2925
         4        2875        2876        2927        2926
         4        2876        2877        2928        2927
         4        2877        2878        2929        2928
         4        2878        2879        2930        2929
         4        2879        2880        2931        2930
         4        2880        2881        2932        2931
         4        2881        2882        2933        2932
         4        2882        2883        2934        2933
         4        2883        2884        2935        2934
         4        2884        2885        2936        2935
         4        2885        2886        2937        2936
         4        2886        2887        2938        2937
         4        2887        2888        2939        2938
         4        2888        2889        2940        2939
         4        2889        2890        2941        2940
         4        2890        2891        2942        2941
         4        2891        2892        2943        2942
         4        2892        2893        2944        2943
         4        2893        2894        2945        2944
         4        2894        2895        2946        2945
         4        2895        2896        2947        2946
         4        2896        2897        2948        2947
         4        2897        2898        2949        2948
         4        2898        2899        2950        2949
         4        2899        2900        2951        2950
         4        2900        2901        2952        2951
         4        2901        2902        2953        2952
         4        2902        2903        2954        2953
         4        2903        2904        2955        2954
         4        2904        2905        2956        2955
         4        2905        2906        2957        2956
         4        2907        2908        2959        2958
         4        2908        2909        2960        2959
         4        2909        2910        2961        2960
         4        2910        2911        2962        2961
         4        2911        2912        2963        2962
         4        2912        2913        2964        2963
         4        2913        2914        2965        2964
         4        2914        2915        2966        2965
         4        2915        2916        2967        2966
         4        2916        2917        2968        2967
         4        2917        2918        2969        2968
         4        2918        2919        2970        2969
         4        2919        2920        2971        2970
         4        2920        2921        2972        2971
         4        2921        2922        2973        2972
         4        2922        2923        2974        2973
         4        2923        2924        2975        2974
         4        2924        2925        2976        2975
         4        2925        2926        2977        2976
         4        2926        2927        2978        2977
         4        2927        2928        2979        2978
         4        2928        2929        2980        2979
         4        2929        2930        2981        2980
         4        2930        2931        2982        2981
         4        2931        2932        2983        2982
         4        2932        2933        2984        2983
         4        2933        2934        2985        2984
         4        2934        2935        2986        2985
         4        2935        2936        2987        2986
         4        2936        2937        2988        2987
         4        2937        2938        2989        2988
         4        2938        2939        2990        2989
         4        2939        2940        2991        2990
         4        2940        2941        2992        2991
         4        2941        2942        2993        2992
         4        2942        2943        2994        2993
         4        2943        2944        2995        2994
         4        2944        2945        2996        2995
         4        2945        2946        2997        2996
         4        2946        2947        2998        2997
         4        2947        2948        2999        2998
         4        2948        2949        3000        2999
         4        2949        2950        3001        3000
         4        2950        2951        3002        3001
         4        2951        2952        3003        3002
         4        2952        2953        3004        3003
         4        2953        2954        3005        3004
         4        2954        2955        3006        3005
         4        2955        2956        3007        3006
         4        2956        2957        3008        3007
         4        2958        2959        3010        3009
         4        2959        2960        3011        3010
         4        2960        2961        3012        3011
         4        2961        2962        3013        3012
         4        2962        2963        3014        3013
         4        2963        2964        3015        3014
         4        2964        2965        3016        3015
         4        2965        2966        3017        3016
         4        2966        2967        3018        3017
         4        2967        2968        3019        3018
         4        2968        2969        3020        3019
         4        2969        2970        3021        3020
         4        2970        2971        3022        3021
         4        2971        2972        3023        3022
         4        2972        2973        3024        3023
         4        2973        2974        3025        3024
         4        2974        2975        3026        3025
         4        2975        2976        3027        3026
         4        2976        2977        3028        3027
         4        2977        2978        3029        3028
         4        2978        2979        3030        3029
         4        2979        2980        3031        3030
         4        2980        2981        3032        3031
         4        2981        2982        3033        3032
         4        2982        2983        3034        3033
         4        2983        2984        3035        3034
         4        2984        2985        3036        3035
         4        2985        2986        3037        3036
         4        2986        2987        3038        3037
         4        2987        2988        3039        3038
         4        2988        2989        3040        3039
         4        2989        2990        3041        3040
         4        2990        2991        3042        3041
         4        2991        2992        3043        3042
         4        2992        2993        3044        3043
         4        2993        2994        3045        3044
         4        2994        2995        3046        3045
         4        2995        2996        3047        3046
         4        2996        2997        3048        3047
         4        2997        2998        3049        3048
         4        2998        2999        3050        3049
         4        2999        3000        3051        3050
         4        3000        3001        3052        3051
         4        3001        3002        3053        3052
         4        3002        3003        3054        3053
         4        3003        3004        3055        3054
         4        3004        3005        3056        3055
         4        3005        3006        3057        3056
         4        3006        3007        3058        3057
         4        3007        3008        3059        3058
         4        3009        3010        3061        3060
         4        3010        3011        3062        3061
         4        3011        3012        3063        3062
         4        3012        3013        3064        3063
         4        3013        3014        3065        3064
         4        3014        3015        3066        3065
         4        3015        3016        3067        3066
         4        3016        3017        3068        3067
         4        3017        3018        3069        3068
         4        3018        3019        3070        3069
         4        3019        3020        3071        3070
         4        3020        3021        3072        3071
         4        3021        3022        3073        3072
         4        3022        3023        3074        3073
         4        3023        3024        3075        3074
         4        3024        3025        3076        3075
         4        3025        3026        3077        3076
         4        3026        3027        3078        3077
         4        3027        3028        3079        3078
         4        3028        3029        3080        3079
         4        3029        3030        3081        3080
         4        3030        3031        3082        3081
         4        3031        3032        3083        3082
         4        3032        3033        3084        3083
         4        3033        3034        3085        3084
         4        3034        3035        3086        3085
         4        3035        3036        3087        3086
         4        3036        3037        3088        3087
         4        3037        3038        3089        3088
         4        3038        3039        3090        3089
         4        3039        3040        3091        3090
         4        3040        3041        3092        3091
         4        3041        3042        3093        3092
         4        3042        3043        3094        3093
         4        3043        3044        3095        3094
         4        3044        3045        3096        3095
         4        3045        3046        3097        3096
         4        3046        3047        3098        3097
         4        3047        3048        3099        3098
         4        3048        3049        3100        3099
         4        3049        3050        3101        3100
         4        3050        3051        3102        3101
         4        3051        3052        3103        3102
         4        3052        3053        3104        3103
         4        3053        3054        3105        3104
         4        3054        3055        3106        3105
         4        3055        3056        3107        3106
         4        3056        3057        3108        3107
         4        3057        3058        3109        3108
         4        3058        3059        3110        3109
         4        3060        3061        3112        3111
         4        3061        3062        3113        3112
         4        3062        3063        3114        3113
         4        3063        3064        3115        3114
         4        3064        3065        3116        3115
         4        3065        3066        3117        3116
         4        3066        3067        3118        3117
         4        3067        3068        3119        3118
         4        3068        3069        3120        3119
         4        3069        3070        3121        3120
         4        3070        3071        3122        3121
         4        3071        3072        3123        3122
         4        3072        3073        3124        3123
         4        3073        3074        3125        3124
         4        3074        3075        3126        3125
         4        3075        3076        3127        3126
         4        3076        3077        3128        3127
         4        3077        3078        3129        3128
         4        3078        3079        3130        3129
         4        3079        3080        3131        3130
         4        3080        3081        3132        3131
         4        3081        3082        3133        3132
         4        3082        3083        3134        3133
         4        3083        3084        3135        3134
         4        3084        3085        3136        3135
         4        3085        3086        3137        3136
         4        3086        3087        3138        3137
         4        3087        3088        3139        3138
         4        3088        3089        3140        3139
         4        3089        3090        3141        3140
         4        3090        3091        3142        3141
         4        3091        3092        3143        3142
         4        3092        3093        3144        3143
         4        3093        3094        3145        3144
         4        3094        3095        3146        3145
         4        3095        3096        3147        3146
         4        3096        3097        3148        3147
         4        3097        3098        3149        3148
         4        3098        3099        3150        3149
         4        3099        3100        3151        3150
         4        3100        3101        3152        3151
         4        3101        3102        3153        3152
         4        3102        3103        3154        3153
         4        3103        3104        3155        3154
         4        3104        3105        3156        3155
         4        3105        3106        3157        3156
         4        3106        3107        3158        3157
         4        3107        3108        3159        3158
         4        3108        3109        3160        3159
         4        3109        3110        3161        3160
         4        3111        3112        3163        3162
         4        3112        3113        3164        3163
         4        3113        3114        3165        3164
         4        3114        3115        3166        3165
         4        3115        3116        3167        3166
         4        3116        3117        3168        3167
         4        3117        3118        3169        3168
         4        3118        3119        3170        3169
         4        3119        3120        3171        3170
         4        3120        3121        3172        3171
         4        3121        3122        3173        3172
         4        3122        3123        3174        3173
         4        3123        3124        3175        3174
         4        3124        3125        3176        3175
         4        3125        3126        3177        3176
         4        3126        3127        3178        3177
         4        3127        3128        3179        3178
         4        3128        3129        3180        3179
         4        3129        3130        3181        3180
         4        3130        3131        3182        3181
         4        3131        3132        3183        3182
         4        3132        3133        3184        3183
         4        3133        3134        3185        3184
         4        3134        3135        3186        3185
         4        3135        3136        3187        3186
         4        3136        3137        3188        3187
         4        3137        3138        3189        3188
         4        3138        3139        3190        3189
         4        3139        3140        3191        3190
         4        3140        3141        3192        3191
         4        3141        3142        3193        3192
         4        3142        3143        3194        3193
         4        3143        3144        3195        3194
         4        3144        3145        3196        3195
         4        3145        3146        3197        3196
         4        3146        3147        3198        3197
         4        3147        3148        3199        3198
         4        3148        3149        3200        3199
         4        3149        3150        3201        3200
         4        3150        3151        3202        3201
         4        3151        3152        3203        3202
         4        3152        3153        3204        3203
         4        3153        3154        3205        3204
         4        3154        3155        3206        3205
         4        3155        3156        3207        3206
         4        3156        3157        3208        3207
         4        3157        3158        3209        3208
         4        3158        3159        3210        3209
         4        3159        3160        3211        3210
         4        3160        3161        3212        3211
         4        3162        3163        3214        3213
         4        3163        3164        3215        3214
         4        3164        3165        3216        3215
         4        3165        3166        3217        3216
         4        3166        3167        3218        3217
         4        3167        3168        3219        3218
         4        3168        3169        3220        3219
         4        3169        3170        3221        3220
         4        3170        3171        3222        3221
         4        3171        3172        3223        3222
         4        3172        3173        3224        3223
         4        3173        3174        3225        3224
         4        3174        3175        3226        3225
         4        3175        3176        3227        3226
         4        3176        3177        3228        3227
         4        3177        3178        3229        3228
         4        3178        3179        3230        3229
         4        3179        3180        3231        3230
         4        3180        3181        3232        3231
         4        3181        3182        3233        3232
         4        3182        3183        3234        3233
         4        3183        3184        3235        3234
         4        3184        3185        3236        3235
         4        3185        3186        3237        3236
         4        3186        3187        3238        3237
         4        3187        3188        3239        3238
         4        3188        3189        3240        3239
         4        3189        3190        3241        3240
         4        3190        3191        3242        3241
         4        3191        3192        3243        3242
         4        3192        3193        3244        3243
         4        3193        3194        3245        3244
         4        3194        3195        3246        3245
         4        3195        3196        3247        3246
         4        3196        3197        3248        3247
         4        3197        3198        3249        3248
         4        3198        3199        3250        3249
         4        3199        3200        3251        3250
         4        3200        3201        3252        3251
         4        3201        3202        3253        3252
         4        3202        3203        3254        3253
         4        3203        3204        3255        3254
         4        3204        3205        3256        3255
         4        3205        3206        3257        3256
         4        3206        3207        3258        3257
         4        3207        3208        3259        3258
         4        3208        3209        3260        3259
         4        3209        3210        3261        3260
         4        3210        3211        3262        3261
         4        3211        3212        3263        3262
         4        3213        3214        3265        3264
         4        3214        3215        3266        3265
         4        3215        3216        3267        3266
         4        3216        3217        3268        3267
         4        3217        3218        3269        3268
         4        3218        3219        3270        3269
         4        3219        3220        3271        3270
         4        3220        3221        3272        3271
         4        3221        3222        3273        3272
         4        3222        3223        3274        3273
         4        3223        3224        3275        3274
         4        3224        3225        3276        3275
         4        3225        3226        3277        3276
         4        3226        3227        3278        3277
         4        3227        3228        3279        3278
         4        3228        3229        3280        3279
         4        3229        3230        3281        3280
         4        3230        3231        3282        3281
         4        3231        3232        3283        3282
         4        3232        3233        3284        3283
         4        3233        3234        3285        3284
         4        3234        3235        3286        3285
         4        3235        3236        3287        3286
         4        3236        3237        3288        3287
         4        3237        3238        3289        3288
         4        3238        3239        3290        3289
         4        3239        3240        3291        3290
         4        3240        3241        3292        3291
         4        3241        3242        3293        3292
         4        3242        3243        3294        3293
         4        3243        3244        3295        3294
         4        3244        3245        3296        3295
         4        3245        3246        3297        3296
         4        3246        3247        3298        3297
         4        3247        3248        3299        3298
         4        3248        3249        3300        3299
         4        3249        3250        3301        3300
         4        3250        3251        3302        3301
         4        3251        3252        3303        3302
         4        3252        3253        3304        3303
         4        3253        3254        3305        3304
         4        3254        3255        3306        3305
         4        3255        3256        3307        3306
         4        3256        3257        3308        3307
         4        3257        3258        3309        3308
         4        3258        3259        3310        3309
         4        3259        3260        3311        3310
         4        3260        3261        3312        3311
         4        3261        3262        3313        3312
         4        3262        3263        3314        3313
         4        3264        3265        3316        3315
         4        3265        3266        3317        3316
         4        3266        3267        3318        3317
         4        3267        3268        3319        3318
         4        3268        3269        3320        3319
         4        3269        3270        3321        3320
         4        3270        3271        3322        3321
         4        3271        3272        3323        3322
         4        3272        3273        3324        3323
         4        3273        3274        3325        3324
         4        3274        3275        3326        3325
         4        3275        3276        3327        3326
         4        3276        3277        3328        3327
         4        3277        3278        3329        3328
         4        3278        3279        3330        3329
         4        3279        3280        3331        3330
         4        3280        3281        3332        3331
         4        3281        3282        3333        3332
         4        3282        3283        3334        3333
         4        3283        3284        3335        3334
         4        3284        3285        3336        3335
         4        3285        3286        3337        3336
         4        3286        3287        3338        3337
         4        3287        3288        3339        3338
         4        3288        3289        3340        3339
         4        3289        3290        3341        3340
         4        3290        3291        3342        3341
         4        3291        3292        3343        3342
         4        3292        3293        3344        3343
         4        3293        3294        3345        3344
         4        3294        3295        3346        3345
         4        3295        3296        3347        3346
         4        3296        3297        3348        3347
         4        3297        3298        3349        3348
         4        3298        3299        3350        3349
         4        3299        3300        3351        3350
         4        3300        3301        3352        3351
         4        3301        3302        3353        3352
         4        3302        3303        3354        3353
         4        3303        3304        3355        3354
         4        3304        3305        3356        3355
         4        3305        3306        3357        3356
         4        3306        3307        3358        3357
         4        3307        3308        3359        3358
         4        3308        3309        3360        3359
         4        3309        3310        3361        3360
         4        3310        3311        3362        3361
         4        3311        3312        3363        3362
         4        3312        3313        3364        3363
         4        3313        3314        3365        3364
         4        3315        3316        3367        3366
         4        3316        3317        3368        3367
         4        3317        3318        3369        3368
         4        3318        3319        3370        3369
         4        3319        3320        3371        3370
         4        3320        3321        3372        3371
         4        3321        3322        3373        3372
         4        3322        3323        3374        3373
         4        3323        3324        3375        3374
         4        3324        3325        3376        3375
         4        3325        3326        3377        3376
         4        3326        3327        3378        3377
         4        3327        3328        3379        3378
         4        3328        3329        3380        3379
         4        3329        3330        3381        3380
         4        3330        3331        3382        3381
         4        3331        3332        3383        3382
         4        3332        3333        3384        3383
         4        3333        3334        3385        3384
         4        3334        3335        3386        3385
         4        3335        3336        3387        3386
         4        3336        3337        3388        3387
         4        3337        3338        3389        3388
         4        3338        3339        3390        3389
         4        3339        3340        3391        3390
         4        3340        3341        3392        3391
         4        3341        3342        3393        3392
         4        3342        3343        3394        3393
         4        3343        3344        3395        3394
         4        3344        3345        3396        3395
         4        3345        3346        3397        3396
         4        3346        3347        3398        3397
         4        3347        3348        3399        3398
         4        3348        3349        3400        3399
         4        3349        3350        3401        3400
         4        3350        3351        3402        3401
         4        3351        3352        3403        3402
         4        3352        3353        3404        3403
         4        3353        3354        3405        3404
         4        3354        3355        3406        3405
         4        3355        3356        3407        3406
         4        3356        3357        3408        3407
         4        3357        3358        3409        3408
         4        3358        3359        3410        3409
         4        3359        3360        3411        3410
         4        3360        3361        3412        3411
         4        3361        3362        3413        3412
         4        3362        3363        3414        3413
         4        3363        3364        3415        3414
         4        3364        3365        3416        3415
         4        3366        3367        3418        3417
         4        3367        3368        3419        3418
         4        3368        3369        3420        3419
         4        3369        3370        3421        3420
         4        3370        3371        3422        3421
         4        3371        3372        3423        3422
         4        3372        3373        3424        3423
         4        3373        3374        3425        3424
         4        3374        3375        3426        3425
         4        3375        3376        3427        3426
         4        3376        3377        3428        3427
         4        3377        3378        3429        3428
         4        3378        3379        3430        3429
         4        3379        3380        3431        3430
         4        3380        3381        3432        3431
         4        3381        3382        3433        3432
         4        3382        3383        3434        3433
         4        3383        3384        3435        3434
         4        3384        3385        3436        3435
         4        3385        3386        3437        3436
         4        3386        3387        3438        3437
         4        3387        3388        3439        3438
         4        3388        3389        3440        3439
         4        3389        3390        3441        3440
         4        3390        3391        3442        3441
         4        3391        3392        3443        3442
         4        3392        3393        3444        3443
         4        3393        3394        3445        3444
         4        3394        3395        3446        3445
         4        3395        3396        3447        3446
         4        3396        3397        3448        3447
         4        3397        3398        3449        3448
         4        3398        3399        3450        3449
         4        3399        3400        3451        3450
         4        3400        3401        3452        3451
         4        3401        3402        3453        3452
         4        3402        3403        3454        3453
         4        3403        3404        3455        3454
         4        3404        3405        3456        3455
         4        3405        3406        3457        3456
         4        3406        3407        3458        3457
         4        3407        3408        3459        3458
         4        3408        3409        3460        3459
         4        3409        3410        3461        3460
         4        3410        3411        3462        3461
         4        3411        3412        3463        3462
         4        3412        3413        3464        3463
         4        3413        3414        3465        3464
         4        3414        3415        3466        3465
         4        3415        3416        3467        3466
         4        3417        3418        3469        3468
         4        3418        3419        3470        3469
         4        3419        3420        3471        3470
         4        3420        3421        3472        3471
         4        3421        3422        3473        3472
         4        3422        3423        3474        3473
         4        3423        3424        3475        3474
         4        3424        3425        3476        3475
         4        3425        3426        3477        3476
         4        3426        3427        3478        3477
         4        3427        3428        3479        3478
         4        3428        3429        3480        3479
         4        3429        3430        3481        3480
         4        3430        3431        3482        3481
         4        3431        3432        3483        3482
         4        3432        3433        3484        3483
         4        3433        3434        3485        3484
         4        3434        3435        3486        3485
         4        3435        3436        3487        3486
         4        3436        3437        3488        3487
         4        3437        3438        3489        3488
         4        3438        3439        3490        3489
         4        3439        3440        3491        3490
         4        3440        3441        3492        3491
         4        3441        3442        3493        3492
         4        3442        3443        3494        3493
         4        3443        3444        3495        3494
         4        3444        3445        3496        3495
         4        3445        3446        3497        3496
         4        3446        3447        3498        3497
         4        3447        3448        3499        3498
         4        3448        3449        3500        3499
         4        3449        3450        3501        3500
         4        3450        3451        3502        3501
         4        3451        3452        3503        3502
         4        3452        3453        3504        3503
         4        3453        3454        3505        3504
         4        3454        3455        3506        3505
         4        3455        3456        3507        3506
         4        3456        3457        3508        3507
         4        3457        3458        3509        3508
         4        3458        3459        3510        3509
         4        3459        3460        3511        3510
         4        3460        3461        3512        3511
         4        3461        3462        3513        3512
         4        3462        3463        3514        3513
         4        3463        3464        3515        3514
         4        3464        3465        3516        3515
         4        3465        3466        3517        3516
         4        3466        3467        3518        3517
         4        3468        3469        3520        3519
         4        3469        3470        3521        3520
         4        3470        3471        3522        3521
         4        3471        3472        3523        3522
         4        3472        3473        3524        3523
         4        3473        3474        3525        3524
         4        3474        3475        3526        3525
         4        3475        3476        3527        3526
         4        3476        3477        3528        3527
         4        3477        3478        3529        3528
         4        3478        3479        3530        3529
         4        3479        3480        3531        3530
         4        3480        3481        3532        3531
         4        3481        3482        3533        3532
         4        3482        3483        3534        3533
         4        3483        3484        3535        3534
         4        3484        3485        3536        3535
         4        3485        3486        3537        3536
         4        3486        3487        3538        3537
         4        3487        3488        3539        3538
         4        3488        3489        3540        3539
         4        3489        3490        3541        3540
         4        3490        3491        3542        3541
         4        3491        3492        3543        3542
         4        3492        3493        3544        3543
         4        3493        3494        3545        3544
         4        3494        3495        3546        3545
         4        3495        3496        3547        3546
         4        3496        3497        3548        3547
         4        3497        3498        3549        3548
         4        3498        3499        3550        3549
         4        3499        3500        3551        3550
         4        3500        3501        3552        3551
         4        3501        3502        3553        3552
         4        3502        3503        3554        3553
         4        3503        3504        3555        3554
         4        3504        3505        3556        3555
         4        3505        3506        3557        3556
         4        3506        3507        3558        3557
         4        3507        3508        3559        3558
         4        3508        3509        3560        3559
         4        3509        3510        3561        3560
         4        3510        3511        3562        3561
         4        3511        3512        3563        3562
         4        3512        3513        3564        3563
         4        3513        3514        3565        3564
         4        3514        3515        3566        3565
         4        3515        3516        3567        3566
         4        3516        3517        3568        3567
         4        3517        3518        3569        3568
         4        3519        3520        3571        3570
         4        3520        3521        3572        3571
         4        3521        3522        3573        3572
         4        3522        3523        3574        3573
         4        3523        3524        3575        3574
         4        3524        3525        3576        3575
         4        3525        3526        3577        3576
         4        3526        3527        3578        3577
         4        3527        3528        3579        3578
         4        3528        3529        3580        3579
         4        3529        3530        3581        3580
         4        3530        3531        3582        3581
         4        3531        3532        3583        3582
         4        3532        3533        3584        3583
         4        3533        3534        3585        3584
         4        3534        3535        3586        3585
         4        3535        3536        3587        3586
         4        3536        3537        3588        3587
         4        3537        3538        3589        3588
         4        3538        3539        3590        3589
         4        3539        3540        3591        3590
         4        3540        3541        3592        3591
         4        3541        3542        3593        3592
         4        3542        3543        3594        3593
         4        3543        3544        3595        3594
         4        3544        3545        3596        3595
         4        3545        3546        3597        3596
         4        3546        3547        3598        3597
         4        3547        3548        3599        3598
         4        3548        3549        3600        3599
         4        3549        3550        3601        3600
         4        3550        3551        3602        3601
         4        3551        3552        3603        3602
         4        3552        3553        3604        3603
         4        3553        3554        3605        3604
         4        3554        3555        3606        3605
         4        3555        3556        3607        3606
         4        3556        3557        3608        3607
         4        3557        3558        3609        3608
         4        3558        3559        3610        3609
         4        3559        3560        3611        3610
         4        3560        3561        3612        3611
         4        3561        3562        3613        3612
         4        3562        3563        3614        3613
         4        3563        3564        3615        3614
         4        3564        3565        3616        3615
         4        3565        3566        3617        3616
         4        3566        3567        3618        3617
         4        3567        3568        3619        3618
         4        3568        3569        3620        3619
         4        3570        3571        3622        3621
         4        3571        3572        3623        3622
         4        3572        3573        3624        3623
         4        3573        3574        3625        3624
         4        3574        3575        3626        3625
         4        3575        3576        3627        3626
         4        3576        3577        3628        3627
         4        3577        3578        3629        3628
         4        3578        3579        3630        3629
         4        3579        3580        3631        3630
         4        3580        3581        3632        3631
         4        3581        3582        3633        3632
         4        3582        3583        3634        3633
         4        3583        3584        3635        3634
         4        3584        3585        3636        3635
         4        3585        3586        3637        3636
         4        3586        3587        3638        3637
         4        3587        3588        3639        3638
         4        3588        3589        3640        3639
         4        3589        3590        3641        3640
         4        3590        3591        3642        3641
         4        3591        3592        3643        3642
         4        3592        3593        3644        3643
         4        3593        3594        3645        3644
         4        3594        3595        3646        3645
         4        3595        3596        3647        3646
         4        3596        3597        3648        3647
         4        3597        3598        3649        3648
         4        3598        3599        3650        3649
         4        3599        3600        3651        3650
         4        3600        3601        3652        3651
         4        3601        3602        3653        3652
         4        3602        3603        3654        3653
         4        3603        3604        3655        3654
         4        3604        3605        3656        3655
         4        3605        3606        3657        3656
         4        3606        3607        3658        3657
         4        3607        3608        3659        3658
         4        3608        3609        3660        3659
         4        3609        3610        3661        3660
         4        3610        3611        3662        3661
         4        3611        3612        3663        3662
         4        3612        3613        3664        3663
         4        3613        3614        3665        3664
         4        3614        3615        3666        3665
         4        3615        3616        3667        3666
         4        3616        3617        3668        3667
         4        3617        3618        3669        3668
         4        3618        3619        3670        3669
         4        3619        3620        3671        3670
         4        3621        3622        3673        3672
         4        3622        3623        3674        3673
         4        3623        3624        3675        3674
         4        3624        3625        3676        3675
         4        3625        3626        3677        3676
         4        3626        3627        3678        3677
         4        3627        3628        3679        3678
         4        3628        3629        3680        3679
         4        3629        3630        3681        3680
         4        3630        3631        3682        3681
         4        3631        3632        3683        3682
         4        3632        3633        3684        3683
         4        3633        3634        3685        3684
         4        3634        3635        3686        3685
         4        3635        3636        3687        3686
         4        3636        3637        3688        3687
         4        3637        3638        3689        3688
         4        3638        3639        3690        3689
         4        3639        3640        3691        3690
         4        3640        3641        3692        3691
         4        3641        3642        3693        3692
         4        3642        3643        3694        3693
         4        3643        3644        3695        3694
         4        3644        3645        3696        3695
         4        3645        3646        3697        3696
         4        3646        3647        3698        3697
         4        3647        3648        3699        3698
         4        3648        3649        3700        3699
         4        3649        3650        3701        3700
         4        3650        3651        3702        3701
         4        3651        3652        3703        3702
         4        3652        3653        3704        3703
         4        3653        3654        3705        3704
         4        3654        3655        3706        3705
         4        3655        3656        3707        3706
         4        3656        3657        3708        3707
         4        3657        3658        3709        3708
         4        3658        3659        3710        3709
         4        3659        3660        3711        3710
         4        3660        3661        3712        3711
         4        3661        3662        3713        3712
         4        3662        3663        3714        3713
         4        3663        3664        3715        3714
         4        3664        3665        3716        3715
         4        3665        3666        3717        3716
         4        3666        3667        3718        3717
         4        3667        3668        3719        3718
         4        3668        3669        3720        3719
         4        3669        3670        3721        3720
         4        3670        3671        3722        3721
         4        3672        3673        3724        3723
         4        3673        3674        3725        3724
         4        3674        3675        3726        3725
         4        3675        3676        3727        3726
         4        3676        3677        3728        3727
         4        3677        3678        3729        3728
         4        3678        3679        3730        3729
         4        3679        3680        3731        3730
         4        3680        3681        3732        3731
         4        3681        3682        3733        3732
         4        3682        3683        3734        3733
         4        3683        3684        3735        3734
         4        3684        3685        3736        3735
         4        3685        3686        3737        3736
         4        3686        3687        3738        3737
         4        3687        3688        3739        3738
         4        3688        3689        3740        3739
         4        3689        3690        3741        3740
         4        3690        3691        3742        3741
         4        3691        3692        3743        3742
         4        3692        3693        3744        3743
         4        3693        3694        3745        3744
         4        3694        3695        3746        3745
         4        3695        3696        3747        3746
         4        3696        3697        3748        3747
         4        3697        3698        3749        3748
         4        3698        3699        3750        3749
         4        3699        3700        3751        3750
         4        3700        3701        3752        3751
         4        3701        3702        3753        3752
         4        3702        3703        3754        3753
         4        3703        3704        3755        3754
         4        3704        3705        3756        3755
         4        3705        3706        3757        3756
         4        3706        3707        3758        3757
         4        3707        3708        3759        3758
         4        3708        3709        3760        3759
         4        3709        3710        3761        3760
         4        3710        3711        3762        3761
         4        3711        3712        3763        3762
         4        3712        3713        3764        3763
         4        3713        3714        3765        3764
         4        3714        3715        3766        3765
         4        3715        3716        3767        3766
         4        3716        3717        3768        3767
         4        3717        3718        3769        3768
         4        3718        3719        3770        3769
         4        3719        3720        3771        3770
         4        3720        3721        3772        3771
         4        3721        3722        3773        3772
         4        3723        3724        3775        3774
         4        3724        3725        3776        3775
         4        3725        3726        3777        3776
         4        3726        3727        3778        3777
         4        3727        3728        3779        3778
         4        3728        3729        3780        3779
         4        3729        3730        3781        3780
         4        3730        3731        3782        3781
         4        3731        3732        3783        3782
         4        3732        3733        3784        3783
         4        3733        3734        3785        3784
         4        3734        3735        3786        3785
         4        3735        3736        3787        3786
         4        3736        3737        3788        3787
         4        3737        3738        3789        3788
         4        3738        3739        3790        3789
         4        3739        3740        3791        3790
         4        3740        3741        3792        3791
         4        3741        3742        3793        3792
         4        3742        3743        3794        3793
         4        3743        3744        3795        3794
         4        3744        3745        3796        3795
         4        3745        3746        3797        3796
         4        3746        3747        3798        3797
         4        3747        3748        3799        3798
         4        3748        3749        3800        3799
         4        3749        3750        3801        3800
         4        3750        3751        3802        3801
         4        3751        3752        3803        3802
         4        3752        3753        3804        3803
         4        3753        3754        3805        3804
         4        3754        3755        3806        3805
         4        3755        3756        3807        3806
         4        3756        3757        3808        3807
         4        3757        3758        3809        3808
         4        3758        3759        3810        3809
         4        3759        3760        3811        3810
         4        3760        3761        3812        3811
         4        3761        3762        3813        3812
         4        3762        3763        3814        3813
         4        3763        3764        3815        3814
         4        3764        3765        3816        3815
         4        3765        3766        3817        3816
         4        3766        3767        3818        3817
         4        3767        3768        3819        3818
         4        3768        3769        3820        3819
         4        3769        3770        3821        3820
         4        3770        3771        3822        3821
         4        3771        3772        3823        3822
         4        3772        3773        3824        3823
         4        3774        3775        3826        3825
         4        3775        3776        3827        3826
         4        3776        3777        3828        3827
         4        3777        3778        3829        3828
         4        3778        3779        3830        3829
         4        3779        3780        3831        3830
         4        3780        3781        3832        3831
         4        3781        3782        3833        3832
         4        3782        3783        3834        3833
         4        3783        3784        3835        3834
         4        3784        3785        3836        3835
         4        3785        3786        3837        3836
         4        3786        3787        3838        3837
         4        3787        3788        3839        3838
         4        3788        3789        3840        3839
         4        3789        3790        3841        3840
         4        3790        3791        3842        3841
         4        3791        3792        3843        3842
         4        3792        3793        3844        3843
         4        3793        3794        3845        3844
         4        3794        3795        3846        3845
         4        3795        3796        3847        3846
         4        3796        3797        3848        3847
         4        3797        3798        3849        3848
         4        3798        3799        3850        3849
         4        3799        3800        3851        3850
         4        3800        3801        3852        3851
         4        3801        3802        3853        3852
         4        3802        3803        3854        3853
         4        3803        3804        3855        3854
         4        3804        3805        3856        3855
         4        3805        3806        3857        3856
         4        3806        3807        3858        3857
         4        3807        3808        3859        3858
         4        3808        3809        3860        3859
         4        3809        3810        3861        3860
         4        3810        3811        3862        3861
         4        3811        3812        3863        3862
         4        3812        3813        3864        3863
         4        3813        3814        3865        3864
         4        3814        3815        3866        3865
         4        3815        3816        3867        3866
         4        3816        3817        3868        3867
         4        3817        3818        3869        3868
         4        3818        3819        3870        3869
         4        3819        3820        3871        3870
         4        3820        3821        3872        3871
         4        3821        3822        3873        3872
         4        3822        3823        3874        3873
         4        3823        3824        3875        3874
         4        3825        3826        3877        3876
         4        3826        3827        3878        3877
         4        3827        3828        3879        3878
         4        3828        3829        3880        3879
         4        3829        3830        3881        3880
         4        3830        3831        3882        3881
         4        3831        3832        3883        3882
         4        3832        3833        3884        3883
         4        3833        3834        3885        3884
         4        3834        3835        3886        3885
         4        3835        3836        3887        3886
         4        3836        3837        3888        3887
         4        3837        3838        3889        3888
         4        3838        3839        3890        3889
         4        3839        3840        3891        3890
         4        3840        3841        3892        3891
         4        3841        3842        3893        3892
         4        3842        3843        3894        3893
         4        3843        3844        3895        3894
         4        3844        3845        3896        3895
         4        3845        3846        3897        3896
         4        3846        3847        3898        3897
         4        3847        3848        3899        3898
         4        3848        3849        3900        3899
         4        3849        3850        3901        3900
         4        3850        3851        3902        3901
         4        3851        3852        3903        3902
         4        3852        3853        3904        3903
         4        3853        3854        3905        3904
         4        3854        3855        3906        3905
         4        3855        3856        3907        3906
         4        3856        3857        3908        3907
         4        3857        3858        3909        3908
         4        3858        3859        3910        3909
         4        3859        3860        3911        3910
         4        3860        3861        3912        3911
         4        3861        3862        3913        3912
         4        3862        3863        3914        3913
         4        3863        3864        3915        3914
         4        3864        3865        3916        3915
         4        3865        3866        3917        3916
         4        3866        3867        3918        3917
         4        3867        3868        3919        3918
         4        3868        3869        3920        3919
         4        3869        3870        3921        3920
         4        3870        3871        3922        3921
         4        3871        3872        3923        3922
         4        3872        3873        3924        3923
         4        3873        3874        3925        3924
         4        3874        3875        3926        3925
         4        3876        3877        3928        3927
         4        3877        3878        3929        3928
         4        3878        3879        3930        3929
         4        3879        3880        3931        3930
         4        3880        3881        3932        3931
         4        3881        3882        3933        3932
         4        3882        3883        3934        3933
         4        3883        3884        3935        3934
         4        3884        3885        3936        3935
         4        3885        3886        3937        3936
         4        3886        3887        3938        3937
         4        3887        3888        3939        3938
         4        3888        3889        3940        3939
         4        3889        3890        3941        3940
         4        3890        3891        3942        3941
         4        3891        3892        3943        3942
         4        3892        3893        3944        3943
         4        3893        3894        3945        3944
         4        3894        3895        3946        3945
         4        3895        3896        3947        3946
         4        3896        3897        3948        3947
         4        3897        3898        3949        3948
         4        3898        3899        3950        3949
         4        3899        3900        3951        3950
         4        3900        3901        3952        3951
         4        3901        3902        3953        3952
         4        3902        3903        3954        3953
         4        3903        3904        3955        3954
         4        3904        3905        3956        3955
         4        3905        3906        3957        3956
         4        3906        3907        3958        3957
         4        3907        3908        3959        3958
         4        3908        3909        3960        3959
         4        3909        3910        3961        3960
         4        3910        3911        3962        3961
         4        3911        3912        3963        3962
         4        3912        3913        3964        3963
         4        3913        3914        3965        3964
         4        3914        3915        3966        3965
         4        3915        3916        3967        3966
         4        3916        3917        3968        3967
         4        3917        3918        3969        3968
         4        3918        3919        3970        3969
         4        3919        3920        3971        3970
         4        3920        3921        3972        3971
         4        3921        3922        3973        3972
         4        3922        3923        3974        3973
         4        3923        3924        3975        3974
         4        3924        3925        3976        3975
         4        3925        3926        3977        3976
         4        3927        3928        3979        3978
         4        3928        3929        3980        3979
         4        3929        3930        3981        3980
         4        3930        3931        3982        3981
         4        3931        3932        3983        3982
         4        3932        3933        3984        3983
         4        3933        3934        3985        3984
         4        3934        3935        3986        3985
         4        3935        3936        3987        3986
         4        3936        3937        3988        3987
         4        3937        3938        3989        3988
         4        3938        3939        3990        3989
         4        3939        3940        3991        3990
         4        3940        3941        3992        3991
         4        3941        3942        3993        3992
         4        3942        3943        3994        3993
         4        3943        3944        3995        3994
         4        3944        3945        3996        3995
         4        3945        3946        3997        3996
         4        3946        3947        3998        3997
         4        3947        3948        3999        3998
         4        3948        3949        4000        3999
         4        3949        3950        4001        4000
         4        3950        3951        4002        4001
         4        3951        3952        4003        4002
         4        3952        3953        4004        4003
         4        3953        3954        4005        4004
         4        3954        3955        4006        4005
         4        3955        3956        4007        4006
         4        3956        3957        4008        4007
         4        3957        3958        4009        4008
         4        3958        3959        4010        4009
         4        3959        3960        4011        4010
         4        3960        3961        4012        4011
         4        3961        3962        4013        4012
         4        3962        3963        4014        4013
         4        3963        3964        4015        4014
         4        3964        3965        4016        4015
         4        3965        3966        4017        4016
         4        3966        3967        4018        4017
         4        3967        3968        4019        4018
         4        3968        3969        4020        4019
         4        3969        3970        4021        4020
         4        3970        3971        4022        4021
         4        3971        3972        4023        4022
         4        3972        3973        4024        4023
         4        3973        3974        4025        4024
         4        3974        3975        4026        4025
         4        3975        3976        4027        4026
         4        3976        3977        4028        4027
         4        3978        3979        4030        4029
         4        3979        3980        4031        4030
         4        3980        3981        4032        4031
         4        3981        3982        4033        4032
         4        3982        3983        4034        4033
         4        3983        3984        4035        4034
         4        3984        3985        4036        4035
         4        3985        3986        4037        4036
         4        3986        3987        4038        4037
         4        3987        3988        4039        4038
         4        3988        3989        4040        4039
         4        3989        3990        4041        4040
         4        3990        3991        4042        4041
         4        3991        3992        4043        4042
         4        3992        3993        4044        4043
         4        3993        3994        4045        4044
         4        3994        3995        4046        4045
         4        3995        3996        4047        4046
         4        3996        3997        4048        4047
         4        3997        3998        4049        4048
         4        3998        3999        4050        4049
         4        3999        4000        4051        4050
         4        4000        4001        4052        4051
         4        4001        4002        4053        4052
         4        4002        4003        4054        4053
         4        4003        4004        4055        4054
         4        4004        4005        4056        4055
         4        4005        4006        4057        4056
         4        4006        4007        4058        4057
         4        4007        4008        4059        4058
         4        4008        4009        4060        4059
         4        4009        4010        4061        4060
         4        4010        4011        4062        4061
         4        4011        4012        4063        4062
         4        4012        4013        4064        4063
         4        4013        4014        4065        4064
         4        4014        4015        4066        4065
         4        4015        4016        4067        4066
         4        4016        4017        4068        4067
         4        4017        4018        4069        4068
         4        4018        4019        4070        4069
         4        4019        4020        4071        4070
         4        4020        4021        4072        4071
         4        4021        4022        4073        4072
         4        4022        4023        4074        4073
         4        4023        4024        4075        4074
         4        4024        4025        4076        4075
         4        4025        4026        4077        4076
         4        4026        4027        4078        4077
         4        4027        4028        4079        4078
         4        4029        4030        4081        4080
         4        4030        4031        4082        4081
         4        4031        4032        4083        4082
         4        4032        4033        4084        4083
         4        4033        4034        4085        4084
         4        4034        4035        4086        4085
         4        4035        4036        4087        4086
         4        4036        4037        4088        4087
         4        4037        4038        4089        4088
         4        4038        4039        4090        4089
         4        4039        4040        4091        4090
         4        4040        4041        4092        4091
         4        4041        4042        4093        4092
         4        4042        4043        4094        4093
         4        4043        4044        4095        4094
         4        4044        4045        4096        4095
         4        4045        4046        4097        4096
         4        4046        4047        4098        4097
         4        4047        4048        4099        4098
         4        4048        4049        4100        4099
         4        4049        4050        4101        4100
         4        4050        4051        4102        4101
         4        4051        4052        4103        4102
         4        4052        4053        4104        4103
         4        4053        4054        4105        4104
         4        4054        4055        4106        4105
         4        4055        4056        4107        4106
         4        4056        4057        4108        4107
         4        4057        4058        4109        4108
         4        4058        4059        4110        4109
         4        4059        4060        4111        4110
         4        4060        4061        4112        4111
         4        4061        4062        4113        4112
         4        4062        4063        4114        4113
         4        4063        4064        4115        4114
         4        4064        4065        4116        4115
         4        4065        4066        4117        4116
         4        4066        4067        4118        4117
         4        4067        4068        4119        4118
         4        4068        4069        4120        4119
         4        4069        4070        4121        4120
         4        4070        4071        4122        4121
         4        4071        4072        4123        4122
         4        4072        4073        4124        4123
         4        4073        4074        4125        4124
         4        4074        4075        4126        4125
         4        4075        4076        4127        4126
         4        4076        4077        4128        4127
         4        4077        4078        4129        4128
         4        4078        4079        4130        4129
         4        4080        4081        4132        4131
         4        4081        4082        4133        4132
         4        4082        4083        4134        4133
         4        4083        4084        4135        4134
         4        4084        4085        4136        4135
         4        4085        4086        4137        4136
         4        4086        4087        4138        4137
         4        4087        4088        4139        4138
         4        4088        4089        4140        4139
         4        4089        4090        4141        4140
         4        4090        4091        4142        4141
         4        4091        4092        4143        4142
         4        4092        4093        4144        4143
         4        4093        4094        4145        4144
         4        4094        4095        4146        4145
         4        4095        4096        4147        4146
         4        4096        4097        4148        4147
         4        4097        4098        4149        4148
         4        4098        4099        4150        4149
         4        4099        4100        4151        4150
         4        4100        4101        4152        4151
         4        4101        4102        4153        4152
         4        4102        4103        4154        4153
         4        4103        4104        4155        4154
         4        4104        4105        4156        4155
         4        4105        4106        4157        4156
         4        4106        4107        4158        4157
         4        4107        4108        4159        4158
         4        4108        4109        4160        4159
         4        4109        4110        4161        4160
         4        4110        4111        4162        4161
         4        4111        4112        4163        4162
         4        4112        4113        4164        4163
         4        4113        4114        4165        4164
         4        4114        4115        4166        4165
         4        4115        4116        4167        4166
         4        4116        4117        4168        4167
         4        4117        4118        4169        4168
         4        4118        4119        4170        4169
         4        4119        4120        4171        4170
         4        4120        4121        4172        4171
         4        4121        4122        4173        4172
         4        4122        4123        4174        4173
         4        4123        4124        4175        4174
         4        4124        4125        4176        4175
         4        4125        4126        4177        4176
         4        4126        4127        4178        4177
         4        4127        4128        4179        4178
         4        4128        4129        4180        4179
         4        4129        4130        4181        4180
         4        4131        4132        4183        4182
         4        4132        4133        4184        4183
         4        4133        4134        4185        4184
         4        4134        4135        4186        4185
         4        4135        4136        4187        4186
         4        4136        4137        4188        4187
         4        4137        4138        4189        4188
         4        4138        4139        4190        4189
         4        4139        4140        4191        4190
         4        4140        4141        4192        4191
         4        4141        4142        4193        4192
         4        4142        4143        4194        4193
         4        4143        4144        4195        4194
         4        4144        4145        4196        4195
         4        4145        4146        4197        4196
         4        4146        4147        4198        4197
         4        4147        4148        4199        4198
         4        4148        4149        4200        4199
         4        4149        4150        4201        4200
         4        4150        4151        4202        4201
         4        4151        4152        4203        4202
         4        4152        4153        4204        4203
         4        4153        4154        4205        4204
         4        4154        4155        4206        4205
         4        4155        4156        4207        4206
         4        4156        4157        4208        4207
         4        4157        4158        4209        4208
         4        4158        4159        4210        4209
         4        4159        4160        4211        4210
         4        4160        4161        4212        4211
         4        4161        4162        4213        4212
         4        4162        4163        4214        4213
         4        4163        4164        4215        4214
         4        4164        4165        4216        4215
         4        4165        4166        4217        4216
         4        4166        4167        4218        4217
         4        4167        4168        4219        4218
         4        4168        4169        4220        4219
         4        4169        4170        4221        4220
         4        4170        4171        4222        4221
         4        4171        4172        4223        4222
         4        4172        4173        4224        4223
         4        4173        4174        4225        4224
         4        4174        4175        4226        4225
         4        4175        4176        4227        4226
         4        4176        4177        4228        4227
         4        4177        4178        4229        4228
         4        4178        4179        4230        4229
         4        4179        4180        4231        4230
         4        4180        4181        4232        4231
         4        4182        4183        4234        4233
         4        4183        4184        4235        4234
         4        4184        4185        4236        4235
         4        4185        4186        4237        4236
         4        4186        4187        4238        4237
         4        4187        4188        4239        4238
         4        4188        4189        4240        4239
         4        4189        4190        4241        4240
         4        4190        4191        4242        4241
         4        4191        4192        4243        4242
         4        4192        4193        4244        4243
         4        4193        4194        4245        4244
         4        4194        4195        4246        4245
         4        4195        4196        4247        4246
         4        4196        4197        4248        4247
         4        4197        4198        4249        4248
         4        4198        4199        4250        4249
         4        4199        4200        4251        4250
         4        4200        4201        4252        4251
         4        4201        4202        4253        4252
         4        4202        4203        4254        4253
         4        4203        4204        4255        4254
         4        4204        4205        4256        4255
         4        4205        4206        4257        4256
         4        4206        4207        4258        4257
         4        4207        4208        4259        4258
         4        4208        4209        4260        4259
         4        4209        4210        4261        4260
         4        4210        4211        4262        4261
         4        4211        4212        4263        4262
         4        4212        4213        4264        4263
         4        4213        4214        4265        4264
         4        4214        4215        4266        4265
         4        4215        4216        4267        4266
         4        4216        4217        4268        4267
         4        4217        4218        4269        4268
         4        4218        4219        4270        4269
         4        4219        4220        4271        4270
         4        4220        4221        4272        4271
         4        4221        4222        4273        4272
         4        4222        4223        4274        4273
         4        4223        4224        4275        4274
         4        4224        4225        4276        4275
         4        4225        4226        4277        4276
         4        4226        4227        4278        4277
         4        4227        4228        4279        4278
         4        4228        4229        4280        4279
         4        4229        4230        4281        4280
         4        4230        4231        4282        4281
         4        4231        4232        4283        4282
         4        4233        4234        4285        4284
         4        4234        4235        4286        4285
         4        4235        4236        4287        4286
         4        4236        4237        4288        4287
         4        4237        4238        4289        4288
         4        4238        4239        4290        4289
         4        4239        4240        4291        4290
         4        4240        4241        4292        4291
         4        4241        4242        4293        4292
         4        4242        4243        4294        4293
         4        4243        4244        4295        4294
         4        4244        4245        4296        4295
         4        4245        4246        4297        4296
         4        4246        4247        4298        4297
         4        4247        4248        4299        4298
         4        4248        4249        4300        4299
         4        4249        4250        4301        4300
         4        4250        4251        4302        4301
         4        4251        4252        4303        4302
         4        4252        4253        4304        4303
         4        4253        4254        4305        4304
         4        4254        4255        4306        4305
         4        4255        4256        4307        4306
         4        4256        4257        4308        4307
         4        4257        4258        4309        4308
         4        4258        4259        4310        4309
         4        4259        4260        4311        4310
         4        4260        4261        4312        4311
         4        4261        4262        4313        4312
         4        4262        4263        4314        4313
         4        4263        4264        4315        4314
         4        4264        4265        4316        4315
         4        4265        4266        4317        4316
         4        4266        4267        4318        4317
         4        4267        4268        4319        4318
         4        4268        4269        4320        4319
         4        4269        4270        4321        4320
         4        4270        4271        4322        4321
         4        4271        4272        4323        4322
         4        4272        4273        4324        4323
         4        4273        4274        4325        4324
         4        4274        4275        4326        4325
         4        4275        4276        4327        4326
         4        4276        4277        4328        4327
         4        4277        4278        4329        4328
         4        4278        4279        4330        4329
         4        4279        4280        4331        4330
         4        4280        4281        4332        4331
         4        4281        4282        4333        4332
         4        4282        4283        4334        4333
         4        4284        4285        4336        4335
         4        4285        4286        4337        4336
         4        4286        4287        4338        4337
         4        4287        4288        4339        4338
         4        4288        4289        4340        4339
         4        4289        4290        4341        4340
         4        4290        4291        4342        4341
         4        4291        4292        4343        4342
         4        4292        4293        4344        4343
         4        4293        4294        4345        4344
         4        4294        4295        4346        4345
         4        4295        4296        4347        4346
         4        4296        4297        4348        4347
         4        4297        4298        4349        4348
         4        4298        4299        4350        4349
         4        4299        4300        4351        4350
         4        4300        4301        4352        4351
         4        4301        4302        4353        4352
         4        4302        4303        4354        4353
         4        4303        4304        4355        4354
         4        4304        4305        4356        4355
         4        4305        4306        4357        4356
         4        4306        4307        4358        4357
         4        4307        4308        4359        4358
         4        4308        4309        4360        4359
         4        4309        4310        4361        4360
         4        4310        4311        4362        4361
         4        4311        4312        4363        4362
         4        4312        4313        4364        4363
         4        4313        4314        4365        4364
         4        4314        4315        4366        4365
         4        4315        4316        4367        4366
         4        4316        4317        4368        4367
         4        4317        4318        4369        4368
         4        4318        4319        4370        4369
         4        4319        4320        4371        4370
         4        4320        4321        4372        4371
         4        4321        4322        4373        4372
         4        4322        4323        4374        4373
         4        4323        4324        4375        4374
         4        4324        4325        4376        4375
         4        4325        4326        4377        4376
         4        4326        4327        4378        4377
         4        4327        4328        4379        4378
         4        4328        4329        4380        4379
         4        4329        4330        4381        4380
         4        4330        4331        4382        4381
         4        4331        4332        4383        4382
         4        4332        4333        4384        4383
         4        4333        4334        4385        4384
         4        4335        4336        4387        4386
         4        4336        4337        4388        4387
         4        4337        4338        4389        4388
         4        4338        4339        4390        4389
         4        4339        4340        4391        4390
         4        4340        4341        4392        4391
         4        4341        4342        4393        4392
         4        4342        4343        4394        4393
         4        4343        4344        4395        4394
         4        4344        4345        4396        4395
         4        4345        4346        4397        4396
         4        4346        4347        4398        4397
         4        4347        4348        4399        4398
         4        4348        4349        4400        4399
         4        4349        4350        4401        4400
         4        4350        4351        4402        4401
         4        4351        4352        4403        4402
         4        4352        4353        4404        4403
         4        4353        4354        4405        4404
         4        4354        4355        4406        4405
         4        4355        4356        4407        4406
         4        4356        4357        4408        4407
         4        4357        4358        4409        4408
         4        4358        4359        4410        4409
         4        4359        4360        4411        4410
         4        4360        4361        4412        4411
         4        4361        4362        4413        4412
         4        4362        4363        4414        4413
         4        4363        4364        4415        4414
         4        4364        4365        4416        4415
         4        4365        4366        4417        4416
         4        4366        4367        4418        4417
         4        4367        4368        4419        4418
         4        4368        4369        4420        4419
         4        4369        4370        4421        4420
         4        4370        4371        4422        4421
         4        4371        4372        4423        4422
         4        4372        4373        4424        4423
         4        4373        4374        4425        4424
         4        4374        4375        4426        4425
         4        4375        4376        4427        4426
         4        4376        4377        4428        4427
         4        4377        4378        4429        4428
         4        4378        4379        4430        4429
         4        4379        4380        4431        4430
         4        4380        4381        4432        4431
         4        4381        4382        4433        4432
         4        4382        4383        4434        4433
         4        4383        4384        4435        4434
         4        4384        4385        4436        4435
         4        4386        4387        4438        4437
         4        4387        4388        4439        4438
         4        4388        4389        4440        4439
         4        4389        4390        4441        4440
         4        4390        4391        4442        4441
         4        4391        4392        4443        4442
         4        4392        4393        4444        4443
         4        4393        4394        4445        4444
         4        4394        4395        4446        4445
         4        4395        4396        4447        4446
         4        4396        4397        4448        4447
         4        4397        4398        4449        4448
         4        4398        4399        4450        4449
         4        4399        4400        4451        4450
         4        4400        4401        4452        4451
         4        4401        4402        4453        4452
         4        4402        4403        4454        4453
         4        4403        4404        4455        4454
         4        4404        4405        4456        4455
         4        4405        4406        4457        4456
         4        4406        4407        4458        4457
         4        4407        4408        4459        4458
         4        4408        4409        4460        4459
         4        4409        4410        4461        4460
         4        4410        4411        4462        4461
         4        4411        4412        4463        4462
         4        4412        4413        4464        4463
         4        4413        4414        4465        4464
         4        4414        4415        4466        4465
         4        4415        4416        4467        4466
         4        4416        4417        4468        4467
         4        4417        4418        4469        4468
         4        4418        4419        4470        4469
         4        4419        4420        4471        4470
         4        4420        4421        4472        4471
         4        4421        4422        4473        4472
         4        4422        4423        4474        4473
         4        4423        4424        4475        4474
         4        4424        4425        4476        4475
         4        4425        4426        4477        4476
         4        4426        4427        4478        4477
         4        4427        4428        4479        4478
         4        4428        4429        4480        4479
         4        4429        4430        4481        4480
         4        4430        4431        4482        4481
         4        4431        4432        4483        4482
         4        4432        4433        4484        4483
         4        4433        4434        4485        4484
         4        4434        4435        4486        4485
         4        4435        4436        4487        4486
         4        4437        4438        4489        4488
         4        4438        4439        4490        4489
         4        4439        4440        4491        4490
         4        4440        4441        4492        4491
         4        4441        4442        4493        4492
         4        4442        4443        4494        4493
         4        4443        4444        4495        4494
         4        4444        4445        4496        4495
         4        4445        4446        4497        4496
         4        4446        4447        4498        4497
         4        4447        4448        4499        4498
         4        4448        4449        4500        4499
         4        4449        4450        4501        4500
         4        4450        4451        4502        4501
         4        4451        4452        4503        4502
         4        4452        4453        4504        4503
         4        4453        4454        4505        4504
         4        4454        4455        4506        4505
         4        4455        4456        4507        4506
         4        4456        4457        4508        4507
         4        4457        4458        4509        4508
         4        4458        4459        4510        4509
         4        4459        4460        4511        4510
         4        4460        4461        4512        4511
         4        4461        4462        4513        4512
         4        4462        4463        4514        4513
         4        4463        4464        4515        4514
         4        4464        4465        4516        4515
         4        4465        4466        4517        4516
         4        4466        4467        4518        4517
         4        4467        4468        4519        4518
         4        4468        4469        4520        4519
         4        4469        4470        4521        4520
         4        4470        4471        4522        4521
         4        4471        4472        4523        4522
         4        4472        4473        4524        4523
         4        4473        4474        4525        4524
         4        4474        4475        4526        4525
         4        4475        4476        4527        4526
         4        4476        4477        4528        4527
         4        4477        4478        4529        4528
         4        4478        4479        4530        4529
         4        4479        4480        4531        4530
         4        4480        4481        4532        4531
         4        4481        4482        4533        4532
         4        4482        4483        4534        4533
         4        4483        4484        4535        4534
         4        4484        4485        4536        4535
         4        4485        4486        4537        4536
         4        4486        4487        4538        4537
         4        4488        4489        4540        4539
         4        4489        4490        4541        4540
         4        4490        4491        4542        4541
         4        4491        4492        4543        4542
         4        4492        4493        4544        4543
         4        4493        4494        4545        4544
         4        4494        4495        4546        4545
         4        4495        4496        4547        4546
         4        4496        4497        4548        4547
         4        4497        4498        4549        4548
         4        4498        4499        4550        4549
         4        4499        4500        4551        4550
         4        4500        4501        4552        4551
         4        4501        4502        4553        4552
         4        4502        4503        4554        4553
         4        4503        4504        4555        4554
         4        4504        4505        4556        4555
         4        4505        4506        4557        4556
         4        4506        4507        4558        4557
         4        4507        4508        4559        4558
         4        4508        4509        4560        4559
         4        4509        4510        4561        4560
         4        4510        4511        4562        4561
         4        4511        4512        4563        4562
         4        4512        4513        4564        4563
         4        4513        4514        4565        4564
         4        4514        4515        4566        4565
         4        4515        4516        4567        4566
         4        4516        4517        4568        4567
         4        4517        4518        4569        4568
         4        4518        4519        4570        4569
         4        4519        4520        4571        4570
         4        4520        4521        4572        4571
         4        4521        4522        4573        4572
         4        4522        4523        4574        4573
         4        4523        4524        4575        4574
         4        4524        4525        4576        4575
         4        4525        4526        4577        4576
         4        4526        4527        4578        4577
         4        4527        4528        4579        4578
         4        4528        4529        4580        4579
         4        4529        4530        4581        4580
         4        4530        4531        4582        4581
         4        4531        4532        4583        4582
         4        4532        4533        4584        4583
         4        4533        4534        4585        4584
         4        4534        4535        4586        4585
         4        4535        4536        4587        4586
         4        4536        4537        4588        4587
         4        4537        4538        4589        4588
         4        4539        4540        4591        4590
         4        4540        4541        4592        4591
         4        4541        4542        4593        4592
         4        4542        4543        4594        4593
         4        4543        4544        4595        4594
         4        4544        4545        4596        4595
         4        4545        4546        4597        4596
         4        4546        4547        4598        4597
         4        4547        4548        4599        4598
         4        4548        4549        4600        4599
         4        4549        4550        4601        4600
         4        4550        4551        4602        4601
         4        4551        4552        4603        4602
         4        4552        4553        4604        4603
         4        4553        4554        4605        4604
         4        4554        4555        4606        4605
         4        4555        4556        4607        4606
         4        4556        4557        4608        4607
         4        4557        4558        4609        4608
         4        4558        4559        4610        4609
         4        4559        4560        4611        4610
         4        4560        4561        4612        4611
         4        4561        4562        4613        4612
         4        4562        4563        4614        4613
         4        4563        4564        4615        4614
         4        4564        4565        4616        4615
         4        4565        4566        4617        4616
         4        4566        4567        4618        4617
         4        4567        4568        4619        4618
         4        4568        4569        4620        4619
         4        4569        4570        4621        4620
         4        4570        4571        4622        4621
         4        4571        4572        4623        4622
         4        4572        4573        4624        4623
         4        4573        4574        4625        4624
         4        4574        4575        4626        4625
         4        4575        4576        4627        4626
         4        4576        4577        4628        4627
         4        4577        4578        4629        4628
         4        4578        4579        4630        4629
         4        4579        4580        4631        4630
         4        4580        4581        4632        4631
         4        4581        4582        4633        4632
         4        4582        4583        4634        4633
         4        4583        4584        4635        4634
         4        4584        4585        4636        4635
         4        4585        4586        4637        4636
         4        4586        4587        4638        4637
         4        4587        4588        4639        4638
         4        4588        4589        4640        4639
         4        4590        4591        4642        4641
         4        4591        4592        4643        4642
         4        4592        4593        4644        4643
         4        4593        4594        4645        4644
         4        4594        4595        4646        4645
         4        4595        4596        4647        4646
         4        4596        4597        4648        4647
         4        4597        4598        4649        4648
         4        4598        4599        4650        4649
         4        4599        4600        4651        4650
         4        4600        4601        4652        4651
         4        4601        4602        4653        4652
         4        4602        4603        4654        4653
         4        4603        4604        4655        4654
         4        4604        4605        4656        4655
         4        4605        4606        4657        4656
         4        4606        4607        4658        4657
         4        4607        4608        4659        4658
         4        4608        4609        4660        4659
         4        4609        4610        4661        4660
         4        4610        4611        4662        4661
         4        4611        4612        4663        4662
         4        4612        4613        4664        4663
         4        4613        4614        4665        4664
         4        4614        4615        4666        4665
         4        4615        4616        4667        4666
         4        4616        4617        4668        4667
         4        4617        4618        4669        4668
         4        4618        4619        4670        4669
         4        4619        4620        4671        4670
         4        4620        4621        4672        4671
         4        4621        4622        4673        4672
         4        4622        4623        4674        4673
         4        4623        4624        4675        4674
         4        4624        4625        4676        4675
         4        4625        4626        4677        4676
         4        4626        4627        4678        4677
         4        4627        4628        4679        4678
         4        4628        4629        4680        4679
         4        4629        4630        4681        4680
         4        4630        4631        4682        4681
         4        4631        4632        4683        4682
         4        4632        4633        4684        4683
         4        4633        4634        4685        4684
         4        4634        4635        4686        4685
         4        4635        4636        4687        4686
         4        4636        4637        4688        4687
         4        4637        4638        4689        4688
         4        4638        4639        4690        4689
         4        4639        4640        4691        4690
         4        4641        4642        4693        4692
         4        4642        4643        4694        4693
         4        4643        4644        4695        4694
         4        4644        4645        4696        4695
         4        4645        4646        4697        4696
         4        4646        4647        4698        4697
         4        4647        4648        4699        4698
         4        4648        4649        4700        4699
         4        4649        4650        4701        4700
         4        4650        4651        4702        4701
         4        4651        4652        4703        4702
         4        4652        4653        4704        4703
         4        4653        4654        4705        4704
         4        4654        4655        4706        4705
         4        4655        4656        4707        4706
         4        4656        4657        4708        4707
         4        4657        4658        4709        4708
         4        4658        4659        4710        4709
         4        4659        4660        4711        4710
         4        4660        4661        4712        4711
         4        4661        4662        4713        4712
         4        4662        4663        4714        4713
         4        4663        4664        4715        4714
         4        4664        4665        4716        4715
         4        4665        4666        4717        4716
         4        4666        4667        4718        4717
         4        4667        4668        4719        4718
         4        4668        4669        4720        4719
         4        4669        4670        4721        4720
         4        4670        4671        4722        4721
         4        4671        4672        4723        4722
         4        4672        4673        4724        4723
         4        4673        4674        4725        4724
         4        4674        4675        4726        4725
         4        4675        4676        4727        4726
         4        4676        4677        4728        4727
         4        4677        4678        4729        4728
         4        4678        4679        4730        4729
         4        4679        4680        4731        4730
         4        4680        4681        4732        4731
         4        4681        4682        4733        4732
         4        4682        4683        4734        4733
         4        4683        4684        4735        4734
         4        4684        4685        4736        4735
         4        4685        4686        4737        4736
         4        4686        4687        4738        4737
         4        4687        4688        4739        4738
         4        4688        4689        4740        4739
         4        4689        4690        4741        4740
         4        4690        4691        4742        4741
         4        4692        4693        4744        4743
         4        4693        4694        4745        4744
         4        4694        4695        4746        4745
         4        4695        4696        4747        4746
         4        4696        4697        4748        4747
         4        4697        4698        4749        4748
         4        4698        4699        4750        4749
         4        4699        4700        4751        4750
         4        4700        4701        4752        4751
         4        4701        4702        4753        4752
         4        4702        4703        4754        4753
         4        4703        4704        4755        4754
         4        4704        4705        4756        4755
         4        4705        4706        4757        4756
         4        4706        4707        4758        4757
         4        4707        4708        4759        4758
         4        4708        4709        4760        4759
         4        4709        4710        4761        4760
         4        4710        4711        4762        4761
         4        4711        4712        4763        4762
         4        4712        4713        4764        4763
         4        4713        4714        4765        4764
         4        4714        4715        4766        4765
         4        4715        4716        4767        4766
         4        4716        4717        4768        4767
         4        4717        4718        4769        4768
         4        4718        4719        4770        4769
         4        4719        4720        4771        4770
         4        4720        4721        4772        4771
         4        4721        4722        4773        4772
         4        4722        4723        4774        4773
         4        4723        4724        4775        4774
         4        4724        4725        4776        4775
         4        4725        4726        4777        4776
         4        4726        4727        4778        4777
         4        4727        4728        4779        4778
         4        4728        4729        4780        4779
         4        4729        4730        4781        4780
         4        4730        4731        4782        4781
         4        4731        4732        4783        4782
         4        4732        4733        4784        4783
         4        4733        4734        4785        4784
         4        4734        4735        4786        4785
         4        4735        4736        4787        4786
         4        4736        4737        4788        4787
         4        4737        4738        4789        4788
         4        4738        4739        4790        4789
         4        4739        4740        4791        4790
         4        4740        4741        4792        4791
         4        4741        4742        4793        4792
         4        4743        4744        4795        4794
         4        4744        4745        4796        4795
         4        4745        4746        4797        4796
         4        4746        4747        4798        4797
         4        4747        4748        4799        4798
         4        4748        4749        4800        4799
         4        4749        4750        4801        4800
         4        4750        4751        4802        4801
         4        4751        4752        4803        4802
         4        4752        4753        4804        4803
         4        4753        4754        4805        4804
         4        4754        4755        4806        4805
         4        4755        4756        4807        4806
         4        4756        4757        4808        4807
         4        4757        4758        4809        4808
         4        4758        4759        4810        4809
         4        4759        4760        4811        4810
         4        4760        4761        4812        4811
         4        4761        4762        4813        4812
         4        4762        4763        4814        4813
         4        4763        4764        4815        4814
         4        4764        4765        4816        4815
         4        4765        4766        4817        4816
         4        4766        4767        4818        4817
         4        4767        4768        4819        4818
         4        4768        4769        4820        4819
         4        4769        4770        4821        4820
         4        4770        4771        4822        4821
         4        4771        4772        4823        4822
         4        4772        4773        4824        4823
         4        4773        4774        4825        4824
         4        4774        4775        4826        4825
         4        4775        4776        4827        4826
         4        4776        4777        4828        4827
         4        4777        4778        4829        4828
         4        4778        4779        4830        4829
         4        4779        4780        4831        4830
         4        4780        4781        4832        4831
         4        4781        4782        4833        4832
         4        4782        4783        4834        4833
         4        4783        4784        4835        4834
         4        4784        4785        4836        4835
         4        4785        4786        4837        4836
         4        4786        4787        4838        4837
         4        4787        4788        4839        4838
         4        4788        4789        4840        4839
         4        4789        4790        4841        4840
         4        4790        4791        4842        4841
         4        4791        4792        4843        4842
         4        4792        4793        4844        4843
         4        4794        4795        4846        4845
         4        4795        4796        4847        4846
         4        4796        4797        4848        4847
         4        4797        4798        4849        4848
         4        4798        4799        4850        4849
         4        4799        4800        4851        4850
         4        4800        4801        4852        4851
         4        4801        4802        4853        4852
         4        4802        4803        4854        4853
         4        4803        4804        4855        4854
         4        4804        4805        4856        4855
         4        4805        4806        4857        4856
         4        4806        4807        4858        4857
         4        4807        4808        4859        4858
         4        4808        4809        4860        4859
         4        4809        4810        4861        4860
         4        4810        4811        4862        4861
         4        4811        4812        4863        4862
         4        4812        4813        4864        4863
         4        4813        4814        4865        4864
         4        4814        4815        4866        4865
         4        4815        4816        4867        4866
         4        4816        4817        4868        4867
         4        4817        4818        4869        4868
         4        4818        4819        4870        4869
         4        4819        4820        4871        4870
         4        4820        4821        4872        4871
         4        4821        4822        4873        4872
         4        4822        4823        4874        4873
         4        4823        4824        4875        4874
         4        4824        4825        4876        4875
         4        4825        4826        4877        4876
         4        4826        4827        4878        4877
         4        4827        4828        4879        4878
         4        4828        4829        4880        4879
         4        4829        4830        4881        4880
         4        4830        4831        4882        4881
         4        4831        4832        4883        4882
         4        4832        4833        4884        4883
         4        4833        4834        4885        4884
         4        4834        4835        4886        4885
         4        4835        4836        4887        4886
         4        4836        4837        4888        4887
         4        4837        4838        4889        4888
         4        4838        4839        4890        4889
         4        4839        4840        4891        4890
         4        4840        4841        4892        4891
         4        4841        4842        4893        4892
         4        4842        4843        4894        4893
         4        4843        4844        4895        4894
         4        4845        4846        4897        4896
         4        4846        4847        4898        4897
         4        4847        4848        4899        4898
         4        4848        4849        4900        4899
         4        4849        4850        4901        4900
         4        4850        4851        4902        4901
         4        4851        4852        4903        4902
         4        4852        4853        4904        4903
         4        4853        4854        4905        4904
         4        4854        4855        4906        4905
         4        4855        4856        4907        4906
         4        4856        4857        4908        4907
         4        4857        4858        4909        4908
         4        4858        4859        4910        4909
         4        4859        4860        4911        4910
         4        4860        4861        4912        4911
         4        4861        4862        4913        4912
         4        4862        4863        4914        4913
         4        4863        4864        4915        4914
         4        4864        4865        4916        4915
         4        4865        4866        4917        4916
         4        4866        4867        4918        4917
         4        4867        4868        4919        4918
         4        4868        4869        4920        4919
         4        4869        4870        4921        4920
         4        4870        4871        4922        4921
         4        4871        4872        4923        4922
         4        4872        4873        4924        4923
         4        4873        4874        4925        4924
         4        4874        4875        4926        4925
         4        4875        4876        4927        4926
         4        4876        4877        4928        4927
         4        4877        4878        4929        4928
         4        4878        4879        4930        4929
         4        4879        4880        4931        4930
         4        4880        4881        4932        4931
         4        4881        4882        4933        4932
         4        4882        4883        4934        4933
         4        4883        4884        4935        4934
         4        4884        4885        4936        4935
         4        4885        4886        4937        4936
         4        4886        4887        4938        4937
         4        4887        4888        4939        4938
         4        4888        4889        4940        4939
         4        4889        4890        4941        4940
         4        4890        4891        4942        4941
         4        4891        4892        4943        4942
         4        4892        4893        4944        4943
         4        4893        4894        4945        4944
         4        4894        4895        4946        4945
         4        4896        4897        4948        4947
         4        4897        4898        4949        4948
         4        4898        4899        4950        4949
         4        4899        4900        4951        4950
         4        4900        4901        4952        4951
         4        4901        4902        4953        4952
         4        4902        4903        4954        4953
         4        4903        4904        4955        4954
         4        4904        4905        4956        4955
         4        4905        4906        4957        4956
         4        4906        4907        4958        4957
         4        4907        4908        4959        4958
         4        4908        4909        4960        4959
         4        4909        4910        4961        4960
         4        4910        4911        4962        4961
         4        4911        4912        4963        4962
         4        4912        4913        4964        4963
         4        4913        4914        4965        4964
         4        4914        4915        4966        4965
         4        4915        4916        4967        4966
         4        4916        4917        4968        4967
         4        4917        4918        4969        4968
         4        4918        4919        4970        4969
         4        4919        4920        4971        4970
         4        4920        4921        4972        4971
         4        4921        4922        4973        4972
         4        4922        4923        4974        4973
         4        4923        4924        4975        4974
         4        4924        4925        4976        4975
         4        4925        4926        4977        4976
         4        4926        4927        4978        4977
         4        4927        4928        4979        4978
         4        4928        4929        4980        4979
         4        4929        4930        4981        4980
         4        4930        4931        4982        4981
         4        4931        4932        4983        4982
         4        4932        4933        4984        4983
         4        4933        4934        4985        4984
         4        4934        4935        4986        4985
         4        4935        4936        4987        4986
         4        4936        4937        4988        4987
         4        4937        4938        4989        4988
         4        4938        4939        4990        4989
         4        4939        4940        4991        4990
         4        4940        4941        4992        4991
         4        4941        4942        4993        4992
         4        4942        4943        4994        4993
         4        4943        4944        4995        4994
         4        4944        4945        4996        4995
         4        4945        4946        4997        4996
         4        4947        4948        4999        4998
         4        4948        4949        5000        4999
         4        4949        4950        5001        5000
         4        4950        4951        5002        5001
         4        4951        4952        5003        5002
         4        4952        4953        5004        5003
         4        4953        4954        5005        5004
         4        4954        4955        5006        5005
         4        4955        4956        5007        5006
         4        4956        4957        5008        5007
         4        4957        4958        5009        5008
         4        4958        4959        5010        5009
         4        4959        4960        5011        5010
         4        4960        4961        5012        5011
         4        4961        4962        5013        5012
         4        4962        4963        5014        5013
         4        4963        4964        5015        5014
         4        4964        4965        5016        5015
         4        4965        4966        5017        5016
         4        4966        4967        5018        5017
         4        4967        4968        5019        5018
         4        4968        4969        5020        5019
         4        4969        4970        5021        5020
         4        4970        4971        5022        5021
         4        4971        4972        5023        5022
         4        4972        4973        5024        5023
         4        4973        4974        5025        5024
         4        4974        4975        5026        5025
         4        4975        4976        5027        5026
         4        4976        4977        5028        5027
         4        4977        4978        5029        5028
         4        4978        4979        5030        5029
         4        4979        4980        5031        5030
         4        4980        4981        5032        5031
         4        4981        4982        5033        5032
         4        4982        4983        5034        5033
         4        4983        4984        5035        5034
         4        4984        4985        5036        5035
         4        4985        4986        5037        5036
         4        4986        4987        5038        5037
         4        4987        4988        5039        5038
         4        4988        4989        5040        5039
         4        4989        4990        5041        5040
         4        4990        4991        5042        5041
         4        4991        4992        5043        5042
         4        4992        4993        5044        5043
         4        4993        4994        5045        5044
         4        4994        4995        5046        5045
         4        4995        4996        5047        5046
         4        4996        4997        5048        5047
         4        4998        4999        5050        5049
         4        4999        5000        5051        5050
         4        5000        5001        5052        5051
         4        5001        5002        5053        5052
         4        5002        5003        5054        5053
         4        5003        5004        5055        5054
         4        5004        5005        5056        5055
         4        5005        5006        5057        5056
         4        5006        5007        5058        5057
         4        5007        5008        5059        5058
         4        5008        5009        5060        5059
         4        5009        5010        5061        5060
         4        5010        5011        5062        5061
         4        5011        5012        5063        5062
         4        5012        5013        5064        5063
         4        5013        5014        5065        5064
         4        5014        5015        5066        5065
         4        5015        5016        5067        5066
         4        5016        5017        5068        5067
         4        5017        5018        5069        5068
         4        5018        5019        5070        5069
         4        5019        5020        5071        5070
         4        5020        5021        5072        5071
         4        5021        5022        5073        5072
         4        5022        5023        5074        5073
         4        5023        5024        5075        5074
         4        5024        5025        5076        5075
         4        5025        5026        5077        5076
         4        5026        5027        5078        5077
         4        5027        5028        5079        5078
         4        5028        5029        5080        5079
         4        5029        5030        5081        5080
         4        5030        5031        5082        5081
         4        5031        5032        5083        5082
         4        5032        5033        5084        5083
         4        5033        5034        5085        5084
         4        5034        5035        5086        5085
         4        5035        5036        5087        5086
         4        5036        5037        5088        5087
         4        5037        5038        5089        5088
         4        5038        5039        5090        5089
         4        5039        5040        5091        5090
         4        5040        5041        5092        5091
         4        5041        5042        5093        5092
         4        5042        5043        5094        5093
         4        5043        5044        5095        5094
         4        5044        5045        5096        5095
         4        5045        5046        5097        5096
         4        5046        5047        5098        5097
         4        5047        5048        5099        5098
         4        5049        5050        5101        5100
         4        5050        5051        5102        5101
         4        5051        5052        5103        5102
         4        5052        5053        5104        5103
         4        5053        5054        5105        5104
         4        5054        5055        5106        5105
         4        5055        5056        5107        5106
         4        5056        5057        5108        5107
         4        5057        5058        5109        5108
         4        5058        5059        5110        5109
         4        5059        5060        5111        5110
         4        5060        5061        5112        5111
         4        5061        5062        5113        5112
         4        5062        5063        5114        5113
         4        5063        5064        5115        5114
         4        5064        5065        5116        5115
         4        5065        5066        5117        5116
         4        5066        5067        5118        5117
         4        5067        5068        5119        5118
         4        5068        5069        5120        5119
         4        5069        5070        5121        5120
         4        5070        5071        5122        5121
         4        5071        5072        5123        5122
         4        5072        5073        5124        5123
         4        5073        5074        5125        5124
         4        5074        5075        5126        5125
         4        5075        5076        5127        5126
         4        5076        5077        5128        5127
         4        5077        5078        5129        5128
         4        5078        5079        5130        5129
         4        5079        5080        5131        5130
         4        5080        5081        5132        5131
         4        5081        5082        5133        5132
         4        5082        5083        5134        5133
         4        5083        5084        5135        5134
         4        5084        5085        5136        5135
         4        5085        5086        5137        5136
         4        5086        5087        5138        5137
         4        5087        5088        5139        5138
         4        5088        5089        5140        5139
         4        5089        5090        5141        5140
         4        5090        5091        5142        5141
         4        5091        5092        5143        5142
         4        5092        5093        5144        5143
         4        5093        5094        5145        5144
         4        5094        5095        5146        5145
         4        5095        5096        5147        5146
         4        5096        5097        5148        5147
         4        5097        5098        5149        5148
         4        5098        5099        5150        5149
CELL_TYPES       5000
9
9
9
9
9
9
9
9
9
9
9
9
9
9
9
9
9
9
9
9
9
9
9
9
9
9
9
9
9
9
9
9
9
9
9
9
9
9
9
9
9
9
9
9
9
9
9
9
9
9
9
9
9
9
9
9
9
9
9
9
9
9
9
9
9
9
9
9
9
9
9
9
9
9
9
9
9
9
9
9
9
9
9
9
9
9
9
9
9
9
9
9
9
9
9
9
9
9
9
9
9
9
9
9
9
9
9
9
9
9
9
9
9
9
9
9
9
9
9
9
9
9
9
9
9
9
9
9
9
9
9
9
9
9
9
9
9
9
9
9
9
9
9
9
9
9
9
9
9
9
9
9
9
9
9
9
9
9
9
9
9
9
9
9
9
9
9
9
9
9
9
9
9
9
9
9
9
9
9
9
9
9
9
9
9
9
9
9
9
9
9
9
9
9
9
9
9
9
9
9
9
9
9
9
9
9
9
9
9
9
9
9
9
9
9
9
9
9
9
9
9
9
9
9
9
9
9
9
9
9
9
9
9
9
9
9
9
9
9
9
9
9
9
9
9
9
9
9
9
9
9
9
9
9
9
9
9
9
9
9
9
9
9
9
9
9
9
9
9
9
9
9
9
9
9
9
9
9
9
9
9
9
9
9
9
9
9
9
9
9
9
9
9
9
9
9
9
9
9
9
9
9
9
9
9
9
9
9
9
9
9
9
9
9
9
9
9
9
9
9
9
9
9
9
9
9
9
9
9
9
9
9
9
9
9
9
9
9
9
9
9
9
9
9
9
9
9
9
9
9
9
9
9
9
9
9
9
9
9
9
9
9
9
9
9
9
9
9
9
9
9
9
9
9
9
9
9
9
9
9
9
9
9
9
9
9
9
9
9
9
9
9
9
9
9
9
9
9
9
9
9
9
9
9
9
9
9
9
9
9
9
9
9
9
9
9
9
9
9
9
9
9
9
9
9
9
9
9
9
9
9
9
9
9
9
9
9
9
9
9
9
9
9
9
9
9
9
9
9
9
9
9
9
9
9
9
9
9
9
9
9
9
9
9
9
9
9
9
9
9
9
9
9
9
9
9
9
9
9
9
9
9
9
9
9
9
9
9
9
9
9
9
9
9
9
9
9
9
9
9
9
9
9
9
9
9
9
9
9
9
9
9
9
9
9
9
9
9
9
9
9
9
9
9
9
9
9
9
9
9
9
9
9
9
9
9
9
9
9
9
9
9
9
9
9
9
9
9
9
9
9
9
9
9
9
9
9
9
9
9
9
9
9
9
9
9
9
9
9
9
9
9
9
9
9
9
9
9
9
9
9
9
9
9
9
9
9
9
9
9
9
9
9
9
9
9
9
9
9
9
9
9
9
9
9
9
9
9
9
9
9
9
9
9
9
9
9
9
9
9
9
9
9
9
9
9
9
9
9
9
9
9
9
9
9
9
9
9
9
9
9
9
9
9
9
9
9
9
9
9
9
9
9
9
9
9
9
9
9
9
9
9
9
9
9
9
9
9
9
9
9
9
9
9
9
9
9
9
9
9
9
9
9
9
9
9
9
9
9
9
9
9
9
9
9
9
9
9
9
9
9
9
9
9
9
9
9
9
9
9
9
9
9
9
9
9
9
9
9
9
9
9
9
9
9
9
9
9
9
9
9
9
9
9
9
9
9
9
9
9
9
9
9
9
9
9
9
9
9
9
9
9
9
9
9
9
9
9
9
9
9
9
9
9
9
9
9
9
9
9
9
9
9
9
9
9
9
9
9
9
9
9
9
9
9
9
9
9
9
9
9
9
9
9
9
9
9
9
9
9
9
9
9
9
9
9
9
9
9
9
9
9
9
9
9
9
9
9
9
9
9
9
9
9
9
9
9
9
9
9
9
9
9
9
9
9
9
9
9
9
9
9
9
9
9
9
9
9
9
9
9
9
9
9
9
9
9
9
9
9
9
9
9
9
9
9
9
9
9
9
9
9
9
9
9
9
9
9
9
9
9
9
9
9
9
9
9
9
9
9
9
9
9
9
9
9
9
9
9
9
9
9
9
9
9
9
9
9
9
9
9
9
9
9
9
9
9
9
9
9
9
9
9
9
9
9
9
9
9
9
9
9
9
9
9
9
9
9
9
9
9
9
9
9
9
9
9
9
9
9
9
9
9
9
9
9
9
9
9
9
9
9
9
9
9
9
9
9
9
9
9
9
9
9
9
9
9
9
9
9
9
9
9
9
9
9
9
9
9
9
9
9
9
9
9
9
9
9
9
9
9
9
9
9
9
9
9
9
9
9
9
9
9
9
9
9
9
9
9
9
9
9
9
9
9
9
9
9
9
9
9
9
9
9
9
9
9
9
9
9
9
9
9
9
9
9
9
9
9
9
9
9
9
9
9
9
9
9
9
9
9
9
9
9
9
9
9
9
9
9
9
9
9
9
9
9
9
9
9
9
9
9
9
9
9
9
9
9
9
9
9
9
9
9
9
9
9
9
9
9
9
9
9
9
9
9
9
9
9
9
9
9
9
9
9
9
9
9
9
9
9
9
9
9
9
9
9
9
9
9
9
9
9
9
9
9
9
9
9
9
9
9
9
9
9
9
9
9
9
9
9
9
9
9
9
9
9
9
9
9
9
9
9
9
9
9
9
9
9
9
9
9
9
9
9
9
9
9
9
9
9
9
9
9
9
9
9
9
9
9
9
9
9
9
9
9
9
9
9
9
9
9
9
9
9
9
9
9
9
9
9
9
9
9
9
9
9
9
9
9
9
9
9
9
9
9
9
9
9
9
9
9
9
9
9
9
9
9
9
9
9
9
9
9
9
9
9
9
9
9
9
9
9
9
9
9
9
9
9
9
9
9
9
9
9
9
9
9
9
9
9
9
9
9
9
9
9
9
9
9
9
9
9
9
9
9
9
9
9
9
9
9
9
9
9
9
9
9
9
9
9
9
9
9
9
9
9
9
9
9
9
9
9
9
9
9
9
9
9
9
9
9
9
9
9
9
9
9
9
9
9
9
9
9
9
9
9
9
9
9
9
9
9
9
9
9
9
9
9
9
9
9
9
9
9
9
9
9
9
9
9
9
9
9
9
9
9
9
9
9
9
9
9
9
9
9
9
9
9
9
9
9
9
9
9
9
9
9
9
9
9
9
9
9
9
9
9
9
9
9
9
9
9
9
9
9
9
9
9
9
9
9
9
9
9
9
9
9
9
9
9
9
9
9
9
9
9
9
9
9
9
9
9
9
9
9
9
9
9
9
9
9
9
9
9
9
9
9
9
9
9
9
9
9
9
9
9
9
9
9
9
9
9
9
9
9
9
9
9
9
9
9
9
9
9
9
9
9
9
9
9
9
9
9
9
9
9
9
9
9
9
9
9
9
9
9
9
9
9
9
9
9
9
9
9
9
9
9
9
9
9
9
9
9
9
9
9
9
9
9
9
9
9
9
9
9
9
9
9
9
9
9
9
9
9
9
9
9
9
9
9
9
9
9
9
9
9
9
9
9
9
9
9
9
9
9
9
9
9
9
9
9
9
9
9
9
9
9
9
9
9
9
9
9
9
9
9
9
9
9
9
9
9
9
9
9
9
9
9
9
9
9
9
9
9
9
9
9
9
9
9
9
9
9
9
9
9
9
9
9
9
9
9
9
9
9
9
9
9
9
9
9
9
9
9
9
9
9
9
9
9
9
9
9
9
9
9
9
9
9
9
9
9
9
9
9
9
9
9
9
9
9
9
9
9
9
9
9
9
9
9
9
9
9
9
9
9
9
9
9
9
9
9
9
9
9
9
9
9
9
9
9
9
9
9
9
9
9
9
9
9
9
9
9
9
9
9
9
9
9
9
9
9
9
9
9
9
9
9
9
9
9
9
9
9
9
9
9
9
9
9
9
9
9
9
9
9
9
9
9
9
9
9
9
9
9
9
9
9
9
9
9
9
9
9
9
9
9
9
9
9
9
9
9
9
9
9
9
9
9
9
9
9
9
9
9
9
9
9
9
9
9
9
9
9
9
9
9
9
9
9
9
9
9
9
9
9
9
9
9
9
9
9
9
9
9
9
9
9
9
9
9
9
9
9
9
9
9
9
9
9
9
9
9
9
9
9
9
9
9
9
9
9
9
9
9
9
9
9
9
9
9
9
9
9
9
9
9
9
9
9
9
9
9
9
9
9
9
9
9
9
9
9
9
9
9
9
9
9
9
9
9
9
9
9
9
9
9
9
9
9
9
9
9
9
9
9
9
9
9
9
9
9
9
9
9
9
9
9
9
9
9
9
9
9
9
9
9
9
9
9
9
9
9
9
9
9
9
9
9
9
9
9
9
9
9
9
9
9
9
9
9
9
9
9
9
9
9
9
9
9
9
9
9
9
9
9
9
9
9
9
9
9
9
9
9
9
9
9
9
9
9
9
9
9
9
9
9
9
9
9
9
9
9
9
9
9
9
9
9
9
9
9
9
9
9
9
9
9
9
9
9
9
9
9
9
9
9
9
9
9
9
9
9
9
9
9
9
9
9
9
9
9
9
9
9
9
9
9
9
9
9
9
9
9
9
9
9
9
9
9
9
9
9
9
9
9
9
9
9
9
9
9
9
9
9
9
9
9
9
9
9
9
9
9
9
9
9
9
9
9
9
9
9
9
9
9
9
9
9
9
9
9
9
9
9
9
9
9
9
9
9
9
9
9
9
9
9
9
9
9
9
9
9
9
9
9
9
9
9
9
9
9
9
9
9
9
9
9
9
9
9
9
9
9
9
9
9
9
9
9
9
9
9
9
9
9
9
9
9
9
9
9
9
9
9
9
9
9
9
9
9
9
9
9
9
9
9
9
9
9
9
9
9
9
9
9
9
9
9
9
9
9
9
9
9
9
9
9
9
9
9
9
9
9
9
9
9
9
9
9
9
9
9
9
9
9
9
9
9
9
9
9
9
9
9
9
9
9
9
9
9
9
9
9
9
9
9
9
9
9
9
9
9
9
9
9
9
9
9
9
9
9
9
9
9
9
9
9
9
9
9
9
9
9
9
9
9
9
9
9
9
9
9
9
9
9
9
9
9
9
9
9
9
9
9
9
9
9
9
9
9
9
9
9
9
9
9
9
9
9
9
9
9
9
9
9
9
9
9
9
9
9
9
9
9
9
9
9
9
9
9
9
9
9
9
9
9
9
9
9
9
9
9
9
9
9
9
9
9
9
9
9
9
9
9
9
9
9
9
9
9
9
9
9
9
9
9
9
9
9
9
9
9
9
9
9
9
9
9
9
9
9
9
9
9
9
9
9
9
9
9
9
9
9
9
9
9
9
9
9
9
9
9
9
9
9
9
9
9
9
9
9
9
9
9
9
9
9
9
9
9
9
9
9
9
9
9
9
9
9
9
9
9
9
9
9
9
9
9
9
9
9
9
9
9
9
9
9
9
9
9
9
9
9
9
9
9
9
9
9
9
9
9
9
9
9
9
9
9
9
9
9
9
9
9
9
9
9
9
9
9
9
9
9
9
9
9
9
9
9
9
9
9
9
9
9
9
9
9
9
9
9
9
9
9
9
9
9
9
9
9
9
9
9
9
9
9
9
9
9
9
9
9
9
9
9
9
9
9
9
9
9
9
9
9
9
9
9
9
9
9
9
9
9
9
9
9
9
9
9
9
9
9
9
9
9
9
9
9
9
9
9
9
9
9
9
9
9
9
9
9
9
9
9
9
9
9
9
9
9
9
9
9
9
9
9
9
9
9
9
9
9
9
9
9
9
9
9
9
9
9
9
9
9
9
9
9
9
9
9
9
9
9
9
9
9
9
9
9
9
9
9
9
9
9
9
9
9
9
9
9
9
9
9
9
9
9
9
9
9
9
9
9
9
9
9
9
9
9
9
9
9
9
9
9
9
9
9
9
9
9
9
9
9
9
9
9
9
9
9
9
9
9
9
9
9
9
9
9
9
9
9
9
9
9
9
9
9
9
9
9
9
9
9
9
9
9
9
9
9
9
9
9
9
9
9
9
9
9
9
9
9
9
9
9
9
9
9
9
9
9
9
9
9
9
9
9
9
9
9
9
9
9
9
9
9
9
9
9
9
9
9
9
9
9
9
9
9
9
9
9
9
9
9
9
9
9
9
9
9
9
9
9
9
9
9
9
9
9
9
9
9
9
9
9
9
9
9
9
9
9
9
9
9
9
9
9
9
9
9
9
9
9
9
9
9
9
9
9
9
9
9
9
9
9
9
9
9
9
9
9
9
9
9
9
9
9
9
9
9
9
9
9
9
9
9
9
9
9
9
9
9
9
9
9
9
9
9
9
9
9
9
9
9
9
9
9
9
9
9
9
9
9
9
9
9
9
9
9
9
9
9
9
9
9
9
9
9
9
9
9
9
9
9
9
9
9
9
9
9
9
9
9
9
9
9
9
9
9
9
9
9
9
9
9
9
9
9
9
9
9
9
9
9
9
9
9
9
9
9
9
9
9
9
9
9
9
9
9
9
9
9
9
9
9
9
9
9
9
9
9
9
9
9
9
9
9
9
9
9
9
9
9
9
9
9
9
9
9
9
9
9
9
9
9
9
9
9
9
9
9
9
9
9
9
9
9
9
9
9
9
9
9
9
9
9
9
9
9
9
9
9
9
9
9
9
9
9
9
9
9
9
9
9
9
9
9
9
9
9
9
9
9
9
9
9
9
9
9
9
9
9
9
9
9
9
9
9
9
9
9
9
9
9
9
9
9
9
9
9
9
9
9
9
9
9
9
9
9
9
9
9
9
9
9
9
9
9
9
9
9
9
9
9
9
9
9
9
9
9
9
9
9
9
9
9
9
9
9
9
9
9
9
9
9
9
9
9
9
9
9
9
9
9
9
9
9
9
9
9
9
9
9
9
9
9
9
9
9
9
9
9
9
9
9
9
9
9
9
9
9
9
9
9
9
9
9
9
9
9
9
9
9
9
9
9
9
9
9
9
9
9
9
9
9
9
9
9
9
9
9
9
9
9
9
9
9
9
9
9
9
9
9
9
9
9
9
9
9
9
9
9
9
9
9
9
9
9
9
9
9
9
9
9
9
9
9
9
9
9
9
9
9
9
9
9
9
9
9
9
9
9
9
9
9
9
9
9
9
9
9
9
9
9
9
9
9
9
9
9
9
9
9
9
9
9
9
9
9
9
9
9
9
9
9
9
9
9
9
9
9
9
9
9
9
9
9
9
9
9
9
9
9
9
9
9
9
9
9
9
9
9
9
9
9
9
9
9
9
9
9
9
9
9
9
9
9
9
9
9
9
9
9
9
9
9
9
9
9
9
9
9
9
9
9
9
9
9
9
9
9
9
9
9
9
9
9
9
9
9
9
9
9
9
9
9
9
9
9
9
9
9
9
9
9
9
9
9
9
9
9
9
9
9
9
9
9
9
9
9
9
9
9
9
9
9
9
9
9
9
9
9
9
9
9
9
9
9
9
9
9
9
9
9
9
9
9
9
9
9
9
9
9
9
9
9
9
9
9
9
9
9
9
9
9
9
9
9
9
9
9
9
9
9
9
9
9
9
9
9
9
9
9
9
9
9
9
9
9
9
9
9
9
9
9
9
9
9
9
9
9
9
9
9
9
9
9
9
9
9
9
9
9
9
9
9
9
9
9
9
9
9
9
9
9
9
9
9
9
9
9
9
9
9
9
9
9
9
9
9
9
9
9
9
9
9
9
9
9
9
9
9
9
9
9
9
9
9
9
9
9
9
9
9
9
9
9
9
9
9
9
9
9
9
9
9
9
9
9
9
9
9
9
9
9
9
9
9
9
9
9
9
9
9
9
9
9
9
9
9
9
9
9
9
9
9
9
9
9
9
9
9
9
9
9
9
9
9
9
9
9
9
9
9
9
9
9
9
9
9
9
9
9
9
9
9
9
9
9
9
9
9
9
9
9
9
9
9
9
9
9
9
9
9
9
9
9
9
9
9
9
9
9
9
9
9
9
9
9
9
9
9
9
9
9
9
9
9
9
9
9
9
9
9
9
9
9
9
9
9
9
9
9
9
9
9
9
9
9
9
9
9
9
9
9
9
9
9
9
9
9
9
9
9
9
9
9
9
9
9
9
9
9
9
9
9
9
9
9
9
9
9
9
9
9
9
9
9
9
9
9
9
9
9
9
9
9
9
9
9
9
9
9
9
9
9
9
9
9
9
9
9
9
9
9
9
9
9
9
9
9
9
9
9
9
9
9
9
9
9
9
9
9
9
9
9
9
9
9
9
9
9
9
9
9
9
9
9
9
9
9
9
9
9
9
9
9
9
9
9
9
9
9
9
9
9
9
9
9
9
9
9
9
9
9
9
9
9
9
9
9
9
9
9
9
9
9
9
9
9
9
9
9
9
9
9
9
9
9
9
9
9
9
9
9
9
9
9
9
9
9
9
9
9
9
9
9
9
9
9
9
9
9
9
9
9
9
9
9
9
9
9
9
9
9
9
9
9
9
9
9
9
9
9
9
9
9
9
9
9
9
9
9
9
9
9
9
9
9
9
9
9
9
9
9
9
9
9
9
9
9
9
9
9
9
9
9
9
9
9
9
9
9
9
9
9
9
9
9
9
9
9
9
9
9
9
9
9
9
9
9
9
9
9
9
9
9
9
9
9
9
9
9
9
9
9
9
9
9
9
9
9
9
9
9
9
9
9
9
9
9
9
9
9
9
9
9
9
9
9
9
9
9
9
9
9
9
9
9
9
9
9
9
9
9
9
9
9
9
9
9
9
9
9
9
9
9
9
9
9
9
9
9
9
9
9
9
9
9
9
9
9
9
9
9
9
9
9
9
9
9
9
9
9
9
9
9
9
9
9
9
9
9
9
9
9
9
9
9
9
9
9
9
9
9
9
9
9
9
9
9
9
9
9
9
9
9
9
9
9
9
9
9
9
9
9
9
9
9
9
9
9
9
9
9
9
9
9
9
9
9
9
9
9
9
9
9
9
9
9
9
9
9
9
9
9
9
9
9
9
9
9
9
9
9
9
9
9
9
9
9
9
9
9
9
9
9
9
9
9
9
9
9
9
9
9
9
9
9
9
9
9
9
9
9
9
9
9
9
9
9
9
9
9
9
9
9
9
9
9
9
9
9
9
9
9
9
9
9
9
9
9
9
9
9
9
9
9
9
9
9
9
9
9
9
9
9
9
9
9
9
9
9
9
9
9
9
9
9
9
9
9
9
9
9
9
9
9
9
9
9
9
9
9
9
9
9
9
9
9
9
9
9
9
9
9
9
9
9
9
9
9
9
9
9
9
9
9
9
9
9
9
9
9
9
9
9
9
9
9
9
9
9
9
9
9
9
9
9
9
9
9
9
9
9
9
9
9
9
9
9
9
9
9
9
9
9
9
9
9
9
9
9
9
9
9
9
9
9
9
9
9
9
9
9
9
9
9
9
9
9
9
9
9
9
9
9
9
9
9
9
9
9
9
9
9
9
9
9
9
9
9
9
9
9
9
9
9
9
9
9
9
9
9
9
9
9
9
9
9
9
9
9
9
9
9
9
9
9
9
9
9
9
9
9
9
9
9
9
9
9
9
9
9
9
9
9
9
9
9
9
9
9
9
9
9
9
9
9
9
9
9
9
9
9
9
9
9
9
9
9
9
9
9
9
9
9
9
9
9
9
9
9
9
9
9
9
9
9
9
9
9
9
9
9
9
9
9
9
9
9
9
9
9
9
9
9
9
9
9
9
9
9
9
9
9
9
9
9
9
9
9
9
9
9
9
9
9
9
9
9
9
9
9
9
9
9
9
9
9
9
9
9
9
9
9
9
9
9
9
9
9
9
9
9
9
9
9
9
9
9
9
9
9
9
9
9
9
9
9
9
9
9
9
9
9
9
9
9
9
9
9
9
9
9
9
9
9
9
9
9
9
9
9
9
9
9
9
9
9
9
9
9
9
9
9
9
9
9
9
9
9
9
9
9
9
9
9
9
9
9
9
9
9
9
9
9
9
9
9
9
9
9
9
9
9
9
9
9
9
9
9
9
9
9
9
9
9
9
9
9
9
9
9
9
9
9
9
9
9
9
9
9
9
9
9
9
9
9
9
9
9
9
9
9
9
9
9
9
9
9
9
9
9
9
9
9
9
9
9
9
9
9
9
9
9
9
9
9
9
9
9
9
9
9
9
9
9
9
9
9
9
9
9
9
9
9
9
9
9
9
9
9
9
9
9
9
9
9
9
9
9
9
9
9
9
9
9
9
9
9
9
9
9
9
9
9
9
9
9
9
9
9
9
9
9
9
9
9
9
9
9
9
9
9
9
9
9
9
9
9
9
9
9
9
9
9
9
9
9
9
9
9
9
9
9
9
9
9
9
9
9
9
9
9
9
9
9
9
9
9
9
9
9
9
9
9
9
9
9
9
9
9
9
9
9
9
9
9
9
9
9
9
9
9
9
9
9
9
9
9
9
9
9
9
9
9
9
9
9
9
9
9
9
9
9
9
9
9
9
9
9
9
9
9
9
9
9
9
9
9
9
9
9
9
9
9
9
9
9
9
9
9
9
9
9
9
9
9
9
9
9
9
9
9
9
9
9
9
9
9
9
9
9
9
9
9
9
9
9
9
9
9
9
9
9
9
9
9
9
9
9
9
9
9
9
9
9
9
9
9
9
9
9
9
9
9
9
9
9
9
9
9
9
9
9
9
9
9
9
9
9
9
9
9
9
9
9
9
9
9
9
9
9
9
9
9
9
9
9
9
9
9
9
9
9
9
9
9
9
9
9
9
9
9
9
9
9
9
9
9
9
9
9
9
9
9
9
9
9
9
9
9
9
9
9
9
9
9
9
9
9
9
9
9
9
9
9
9
9
9
9
9
9
9
9
9
9
9
9
9
9
9
9
9
9
9
9
9
9
9
9
9
9
9
9
9
9
9
9
9
9
9
9
9
9
9
9
9
9
9
9
9
9
9
9
9
9
9
9
9
9
9
9
9
9
9
9
9
9
9
9
9
9
9
9
9
9
9
9
9
9
9
9
9
9
9
9
9
9
9
9
9
9
9
9
9
9
9
9
9
9
9
9
9
9
9
9
9
9
9
9
9
9
9
9
9
9
9
9
9
9
9
9
9
9
9
9
9
9
9
9
9
9
9
9
9
9
9
9
9
9
9
9
9
9
9
9
9
9
9
9
9
9
9
9
9
9
9
9
9
9
9
9
9
9
9
9
9
9
9
9
9
9
9
9
9
9
9
9
9
9
9
9
9
9
9
9
9
9
9
9
9
9
9
9
9
9
9
9
9
9
9
9
9
9
9
9
9
POINT_DATA      5151
SCALARS p double 
LOOKUP_TABLE default
   70000000.0000000     
   70000000.0000000     
   70000000.0000000     
   70000000.0000000     
   70000000.0000000     
   70000000.0000000     
   70000000.0000000     
   70000000.0000000     
   70000000.0000000     
   70000000.0000000     
   70000000.0000000     
   70000000.0000000     
   70000000.0000000     
   70000000.0000000     
   70000000.0000000     
   70000000.0000000     
   70000000.0000000     
   70000000.0000000     
   70000000.0000000     
   70000000.0000000     
   70000000.0000000     
   70000000.0000000     
   70000000.0000000     
   70000000.0000000     
   70000000.0000000     
   70000000.0000000     
   70000000.0000000     
   70000000.0000000     
   70000000.0000000     
   70000000.0000000     
   70000000.0000000     
   70000000.0000000     
   70000000.0000000     
   70000000.0000000     
   70000000.0000000     
   70000000.0000000     
   70000000.0000000     
   70000000.0000000     
   70000000.0000000     
   70000000.0000000     
   70000000.0000000     
   70000000.0000000     
   70000000.0000000     
   70000000.0000000     
   70000000.0000000     
   70000000.0000000     
   70000000.0000000     
   70000000.0000000     
   70000000.0000000     
   70000000.0000000     
   70000000.0000000     
   69238214.2012140     
   69238147.7098038     
   69237973.0010837     
   69237716.6365264     
   69237398.5847919     
   69237034.0821375     
   69236634.9051975     
   69236210.2568665     
   69235767.3940101     
   69235312.0801486     
   69234848.9174699     
   69234381.5942327     
   69233913.0718669     
   69233445.7284167     
   69232981.4699161     
   69232521.8178852     
   69232067.9788218     
   69231620.8999618     
   69231181.3144594     
   69230749.7783371     
   69230326.7009858     
   69229912.3705743     
   69229506.9754229     
   69229110.6221683     
   69228723.3513781     
   69228345.1511482     
   69227975.9691227     
   69227615.7233061     
   69227264.3119921     
   69226921.6230988     
   69226587.5431832     
   69226261.9664066     
   69225944.8037298     
   69225635.9926464     
   69225335.5078062     
   69225043.3729523     
   69224759.6746952     
   69224484.5787963     
   69224218.3498423     
   69223961.3754932     
   69223714.1969266     
   69223477.5477400     
   69223252.4045309     
   69223040.0538109     
   69222842.1821112     
   69222660.9995548     
   69222499.4125291     
   69222361.2696004     
   69222251.7183664     
   69222177.7324786     
   69222148.9016909     
   68468911.1872899     
   68468852.5405273     
   68468685.8333603     
   68468425.0158977     
   68468083.9574663     
   68467675.6163905     
   68467211.6924539     
   68466702.5346680     
   68466157.1786630     
   68465583.4448532     
   68464988.0602171     
   68464376.7841623     
   68463754.5287116     
   68463125.4686103     
   68462493.1398501     
   68461860.5266123     
   68461230.1373811     
   68460604.0712914     
   68459984.0758669     
   68459371.5972798     
   68458767.8241759     
   68458173.7260097     
   68457590.0867223     
   68457017.5344982     
   68456456.5682449     
   68455907.5813616     
   68455370.8832997     
   68454846.7193654     
   68454335.2891722     
   68453836.7641222     
   68453351.3042768     
   68452879.0749630     
   68452420.2634653     
   68451975.0961588     
   68451543.8564562     
   68451126.9039671     
   68450724.6952958     
   68450337.8069415     
   68449966.9607859     
   68449613.0526672     
   68449277.1844983     
   68448960.7002534     
   68448665.2258296     
   68448392.7121212     
   68448145.4793215     
   68447926.2579629     
   68447738.2175079     
   68447584.9646354     
   68447470.4774491     
   68447398.9127834     
   68447374.1711573     
   67697240.8938899     
   67697194.4761904     
   67697062.0380369     
   67696852.3715554     
   67696573.8943674     
   67696234.7283086     
   67695842.6475703     
   67695404.9997898     
   67694928.6400539     
   67694419.8893395     
   67693884.5171221     
   67693327.7437471     
   67692754.2573584     
   67692168.2407020     
   67691573.4040443     
   67690973.0213720     
   67690369.9678476     
   67689766.7571270     
   67689165.5776300     
   67688568.3272070     
   67687976.6459028     
   67687391.9466920     
   67686815.4441875     
   67686248.1813995     
   67685691.0546798     
   67685144.8370153     
   67684610.1998525     
   67684087.7336436     
   67683577.9673041     
   67683081.3867699     
   67682598.4528293     
   67682129.6183973     
   67681675.3453784     
   67681236.1212413     
   67680812.4753987     
   67680404.9954358     
   67680014.3431715     
   67679641.2704460     
   67679286.6344034     
   67678951.4118672     
   67678636.7121688     
   67678343.7874778     
   67678074.0392798     
   67677829.0191718     
   67677610.4216636     
   67677420.0663796     
   67677259.8674436     
   67677131.7900043     
   67677037.8002634     
   67676979.8311685     
   67676959.8220161     
   66927451.7927084     
   66927422.7041463     
   66927338.2478013     
   66927202.5712076     
   66927019.9490708     
   66926794.6807221     
   66926531.0326442     
   66926233.1930349     
   66925905.2306612     
   66925551.0581188     
   66925174.4010889     
   66924778.7746938     
   66924367.4672159     
   66923943.5307770     
   66923509.7781762     
   66923068.7849053     
   66922622.8953366     
   66922174.2321422     
   66921724.7081196     
   66921276.0397221     
   66920829.7617239     
   66920387.2425646     
   66919949.7000192     
   66919518.2169269     
   66919093.7567803     
   66918677.1790315     
   66918269.2540143     
   66917870.6774121     
   66917482.0842222     
   66917104.0621762     
   66916737.1645820     
   66916381.9225462     
   66916038.8565228     
   66915708.4871140     
   66915391.3450173     
   66915087.9799800     
   66914798.9685688     
   66914524.9205155     
   66914266.4833367     
   66914024.3448664     
   66913799.2332956     
   66913591.9142855     
   66913403.1847579     
   66913233.8630824     
   66913084.7756385     
   66912956.7401533     
   66912850.5467606     
   66912766.9381078     
   66912706.5890773     
   66912670.0820492     
   66912657.8580613     
   66163347.8348882     
   66163336.7492872     
   66163303.6694646     
   66163249.0702212     
   66163173.7198849     
   66163078.6326150     
   66162965.0160147     
   66162834.2234105     
   66162687.7118332     
   66162527.0050824     
   66162353.6613230     
   66162169.2449417     
   66161975.3025462     
   66161773.3430048     
   66161564.8213715     
   66161351.1264611     
   66161133.5717748     
   66160913.3894263     
   66160691.7266983     
   66160469.6448561     
   66160248.1198591     
   66160028.0446333     
   66159810.2325970     
   66159595.4221651     
   66159384.2819856     
   66159177.4166913     
   66158975.3729768     
   66158778.6458284     
   66158587.6847543     
   66158402.8998723     
   66158224.6677235     
   66158053.3366784     
   66157889.2318088     
   66157732.6590903     
   66157583.9087989     
   66157443.2579559     
   66157310.9716731     
   66157187.3032445     
   66157072.4928374     
   66156966.7646427     
   66156870.3223725     
   66156783.3430254     
   66156705.9688884     
   66156638.2977962     
   66156580.3716957     
   66156532.1635383     
   66156493.5623883     
   66156464.3563801     
   66156444.2129879     
   66156432.6569686     
   66156429.0517006     
   65408342.5975957     
   65408348.8809548     
   65408365.7058091     
   65408390.6302189     
   65408421.6204997     
   65408457.0050641     
   65408495.4323483     
   65408535.8308666     
   65408577.3716619     
   65408619.4335125     
   65408661.5710433     
   65408703.4857417     
   65408744.9998205     
   65408786.0328396     
   65408826.5809914     
   65408866.6989334     
   65408906.4840377     
   65408946.0629061     
   65408985.5799822     
   65409025.1880792     
   65409065.0406326     
   65409105.2854823     
   65409146.0599924     
   65409187.4873136     
   65409229.6736083     
   65409272.7060579     
   65409316.6514845     
   65409361.5554292     
   65409407.4415320     
   65409454.3110732     
   65409502.1425381     
   65409550.8910758     
   65409600.4877290     
   65409650.8383178     
   65409701.8218670     
   65409753.2884731     
   65409805.0565170     
   65409856.9091390     
   65409908.5899036     
   65409959.7975959     
   65410010.1801096     
   65410059.3273968     
   65410106.7634634     
   65410151.9374036     
   65410194.2134679     
   65410232.8601766     
   65410267.0385343     
   65410295.7895174     
   65410318.0212098     
   65410332.4959900     
   65410337.8167197     
   64665477.7868230     
   64665499.7720123     
   64665562.0360038     
   64665659.8637091     
   64665789.0102314     
   64665945.6617675     
   64666126.3980973     
   64666328.1570997     
   64666548.2012089     
   64666784.0857758     
   64667033.6293529     
   64667294.8859228     
   64667566.1190715     
   64667845.7780851     
   64668132.4759289     
   64668424.9690509     
   64668722.1389421     
   64669022.9753736     
   64669326.5612174     
   64669632.0587566     
   64669938.6973744     
   64670245.7625118     
   64670552.5857775     
   64670858.5360889     
   64671163.0117249     
   64671465.4331706     
   64671765.2366331     
   64672061.8681151     
   64672354.7779311     
   64672643.4155584     
   64672927.2247199     
   64673205.6385998     
   64673478.0750990     
   64673743.9320471     
   64674002.5822893     
   64674253.3685801     
   64674495.5982203     
   64674728.5373838     
   64674951.4050904     
   64675163.3667900     
   64675363.5275322     
   64675550.9247076     
   64675724.5203539     
   64675883.1930384     
   64676025.7293376     
   64676150.8149603     
   64676257.0255694     
   64676342.8173547     
   64676406.5173501     
   64676446.3134039     
   64676460.2440400     
   63937426.3209584     
   63937461.8097203     
   63937563.3414386     
   63937724.5001890     
   63937939.3646059     
   63938202.4743532     
   63938508.7978224     
   63938853.7010638     
   63939232.9180315     
   63939642.5221822     
   63940078.8994356     
   63940538.7225017     
   63941018.9265730     
   63941516.6863739     
   63942029.3945488     
   63942554.6413639     
   63943090.1956878     
   63943633.9872076     
   63944184.0898313     
   63944738.7062207     
   63945296.1533934     
   63945854.8493271     
   63946413.3004980     
   63946970.0902790     
   63947523.8681248     
   63948073.3394652     
   63948617.2562340     
   63949154.4079537     
   63949683.6133044     
   63950203.7121031     
   63950713.5576236     
   63951212.0091912     
   63951697.9249892     
   63952170.1550189     
   63952627.5341630     
   63953068.8753008     
   63953492.9624370     
   63953898.5438086     
   63954284.3249397     
   63954648.9616236     
   63954991.0528180     
   63955309.1334452     
   63955601.6670998     
   63955867.0386717     
   63956103.5469003     
   63956309.3968818     
   63956482.6925533     
   63956621.4291849     
   63956723.4859371     
   63956786.6185948     
   63956808.4525592     
   63226495.7117804     
   63226542.2401125     
   63226676.0256678     
   63226889.4500718     
   63227175.3876906     
   63227527.1769750     
   63227938.5926854     
   63228403.8190170     
   63228917.4236339     
   63229474.3326334     
   63230069.8064591     
   63230699.4167727     
   63231359.0242895     
   63232044.7575763     
   63232752.9928053     
   63233480.3344533     
   63234223.5969284     
   63234979.7871051     
   63235746.0877401     
   63236519.8417390     
   63237298.5372404     
   63238079.7934802     
   63238861.3473941     
   63239641.0409182     
   63240416.8089418     
   63241186.6678674     
   63241948.7047305     
   63242701.0668352     
   63243441.9518565     
   63244169.5983664     
   63244882.2767392     
   63245578.2803936     
   63246255.9173344     
   63246913.5019531     
   63247549.3470583     
   63248161.7561021     
   63248749.0155793     
   63249309.3875744     
   63249841.1024406     
   63250342.3515973     
   63250811.2804362     
   63251245.9813333     
   63251644.4867677     
   63252004.7625515     
   63252324.7011812     
   63252602.1153266     
   63252834.7314756     
   63253020.1837641     
   63253156.0080176     
   63253239.6360171     
   63253268.3899964     
   62534634.9572603     
   62534690.0049302     
   62534848.8052220     
   62535102.9684900     
   62535444.5768035     
   62535866.1599491     
   62536360.6719744     
   62536921.4683110     
   62537542.2835033     
   62538217.2095640     
   62538940.6749702     
   62539707.4243169     
   62540512.4986331     
   62541351.2163711     
   62542219.1550675     
   62543112.1336773     
   62544026.1955751     
   62544957.5922146     
   62545902.7674372     
   62546858.3424134     
   62547821.1012028     
   62548787.9769109     
   62549756.0384237     
   62550722.4776970     
   62551684.5975742     
   62552639.8001095     
   62553585.5753695     
   62554519.4906857     
   62555439.1803333     
   62556342.3356083     
   62557226.6952783     
   62558090.0363823     
   62558930.1653561     
   62559744.9094610     
   62560532.1084972     
   62561289.6067825     
   62562015.2453822     
   62562706.8545758     
   62563362.2465510     
   62563979.2083171     
   62564555.4948326     
   62565088.8223455     
   62565576.8619462     
   62566017.2333391     
   62566407.4988371     
   62566745.1575908     
   62567027.6400640     
   62567252.3027688     
   62567416.4232773     
   62567517.1955341     
   62567551.7255046     
   61863446.0400173     
   61863507.1737494     
   61863683.9601905     
   61863967.6035009     
   61864349.7456693     
   61864822.4467549     
   61865378.1654512     
   61866009.7399944     
   61866710.3694411     
   61867473.5953365     
   61868293.2837932     
   61869163.6079951     
   61870079.0311426     
   61871034.2898465     
   61872024.3779821     
   61873044.5310061     
   61874090.2107423     
   61875157.0906351     
   61876241.0414695     
   61877338.1175550     
   61878444.5433675     
   61879556.7006418     
   61880671.1159062     
   61881784.4484496     
   61882893.4787094     
   61883995.0970677     
   61885086.2930441     
   61886164.1448711     
   61887225.8094387     
   61888268.5125945     
   61889289.5397862     
   61890286.2270340     
   61891255.9522187     
   61892196.1266771     
   61893104.1870904     
   61893977.5876592     
   61894813.7925557     
   61895610.2686450     
   61896364.4784733     
   61897073.8735156     
   61897735.8876833     
   61898347.9310906     
   61898907.3840805     
   61899411.5915132     
   61899857.8573222     
   61900243.4393435     
   61900565.5444257     
   61900821.3238307     
   61901007.8689343     
   61901122.2072396     
   61901161.2987083     
   61214199.7833426     
   61214264.7543858     
   61214453.0036545     
   61214755.6315484     
   61215164.1343109     
   61215670.3881419     
   61216266.6334491     
   61216945.4592628     
   61217699.7878430     
   61218522.8594974     
   61219408.2176340     
   61220349.6940646     
   61221341.3945752     
   61222377.6847805     
   61223453.1762704     
   61224562.7130623     
   61225701.3583659     
   61226864.3816672     
   61228047.2461381     
   61229245.5963732     
   61230455.2464568     
   61231672.1683603     
   61232892.4806704     
   61234112.4376447     
   61235328.4185933     
   61236536.9175829     
   61237734.5334591     
   61238917.9601816     
   61240083.9774688     
   61241229.4417451     
   61242351.2773870     
   61243446.4682613     
   61244512.0495513     
   61245545.0998660     
   61246542.7336278     
   61247502.0937353     
   61248420.3444966     
   61249294.6648325     
   61250122.2417460     
   61250900.2640582     
   61251625.9164097     
   61252296.3735286     
   61252908.7947662     
   61253460.3189032     
   61253948.0592292     
   61254369.0989001     
   61254720.4865772     
   61254999.2323549     
   61255202.3039810     
   61255326.6233778     
   61255369.0634724     
   60587855.3910178     
   60587922.1952933     
   60588116.0736882     
   60588428.2667738     
   60588850.3646844     
   60589374.2946790     
   60589992.3087083     
   60590696.9710157     
   60591481.1457928     
   60592337.9849154     
   60593260.9157797     
   60594243.6292576     
   60595280.0677896     
   60596364.4136316     
   60597491.0772692     
   60598654.6860139     
   60599850.0727919     
   60601072.2651370     
   60602316.4743946     
   60603578.0851472     
   60604852.6448656     
   60606135.8537934     
   60607423.5550677     
   60608711.7250805     
   60609996.4640838     
   60611273.9870402     
   60612540.6147196     
   60613792.7650453     
   60615026.9446877     
   60616239.7409065     
   60617427.8136420     
   60618587.8878544     
   60619716.7461112     
   60620811.2214218     
   60621868.1903200     
   60622884.5661934     
   60623857.2928594     
   60624783.3383895     
   60625659.6891809     
   60626483.3442768     
   60627251.3099372     
   60627960.5944602     
   60628608.2032577     
   60629191.1341850     
   60629706.3731300     
   60630150.8898625     
   60630521.6341471     
   60630815.5321237     
   60631029.4829588     
   60631160.3557712     
   60631204.9868346     
   59985082.8283608     
   59985149.7380430     
   59985344.2004423     
   59985657.7869371     
   59986082.3707547     
   59986610.1175548     
   59987233.4759241     
   59987945.1678080     
   59988738.1789016     
   59989605.7490224     
   59990541.3624848     
   59991538.7384971     
   59992591.8215978     
   59993694.7721493     
   59994841.9569034     
   59996027.9396548     
   59997247.4719942     
   59998495.4841754     
   59999767.0761057     
   60001057.5084716     
   60002362.1940077     
   60003676.6889189     
   60004996.6844619     
   60006317.9986945     
   60007636.5683974     
   60008948.4411753     
   60010249.7677414     
   60011536.7943897     
   60012805.8556605     
   60014053.3671999     
   60015275.8188196     
   60016469.7677571     
   60017631.8321413     
   60018758.6846643     
   60019847.0464626     
   60020893.6812094     
   60021895.3894203     
   60022849.0029754     
   60023751.3798576     
   60024599.3991126     
   60025389.9560282     
   60026119.9575405     
   60026786.3178644     
   60027385.9543531     
   60027915.7835886     
   60028372.7177046     
   60028753.6609451     
   60029055.5064601     
   60029275.1333408     
   60029409.4038960     
   60029455.1611720     
   59406287.1858920     
   59406352.7594455     
   59406543.5840471     
   59406851.7049836     
   59407269.4223539     
   59407789.2842523     
   59408404.0797987     
   59409106.8320397     
   59409890.7907410     
   59410749.4250927     
   59411676.4163466     
   59412665.6504043     
   59413711.2103743     
   59414807.3691143     
   59415948.5817745     
   59417129.4783576     
   59418344.8563087     
   59419589.6731490     
   59420859.0391649     
   59422148.2101649     
   59423452.5803140     
   59424767.6750572     
   59426089.1441399     
   59427412.7547345     
   59428734.3846820     
   59430050.0158546     
   59431355.7276475     
   59432647.6906059     
   59433922.1601930     
   59435175.4707048     
   59436404.0293370     
   59437604.3104079     
   59438772.8497433     
   59439906.2392261     
   59441001.1215153     
   59442054.1849384     
   59443062.1585595     
   59444021.8074272     
   59444929.9280061     
   59445783.3437931     
   59446578.9011225     
   59447313.4651626     
   59447983.9161058     
   59448587.1455542     
   59449120.0531041     
   59449579.5431305     
   59449962.5217734     
   59450265.8941278     
   59450486.5616394     
   59450621.4197059     
   59450667.3554857     
   58851634.2175747     
   58851697.2942277     
   58851881.0706773     
   58852178.1677043     
   58852581.4160320     
   58853083.8517064     
   58853678.7112838     
   58854359.4268450     
   58855119.6208565     
   58855953.1008982     
   58856853.8542741     
   58857816.0425257     
   58858833.9958621     
   58859902.2075259     
   58861015.3281076     
   58862168.1598240     
   58863355.6507754     
   58864572.8891926     
   58865815.0976890     
   58867077.6275265     
   58868355.9529101     
   58869645.6653179     
   58870942.4678801     
   58872242.1698139     
   58873540.6809250     
   58874834.0061826     
   58876118.2403777     
   58877389.5628697     
   58878644.2324310     
   58879878.5821947     
   58881089.0147113     
   58882271.9971212     
   58883424.0564485     
   58884541.7750202     
   58885621.7860165     
   58886660.7691569     
   58887655.4465257     
   58888602.5785410     
   58889498.9600716     
   58890341.4167046     
   58891126.8011667     
   58891851.9899032     
   58892513.8798163     
   58893109.3851662     
   58893635.4346362     
   58894088.9685647     
   58894466.9363456     
   58894766.2939980     
   58894984.0019074     
   58895117.0227379     
   58895162.3195178     
   58321076.3306033     
   58321136.0140991     
   58321310.0993549     
   58321591.8486957     
   58321974.6926822     
   58322452.2273150     
   58323018.2110230     
   58323666.5614539     
   58324391.3520843     
   58325186.8086660     
   58326047.3055255     
   58326967.3617326     
   58327941.6371526     
   58328964.9283980     
   58330032.1646934     
   58331138.4036672     
   58332278.8270833     
   58333448.7365261     
   58334643.5490497     
   58335858.7928035     
   58337090.1026462     
   58338333.2157566     
   58339583.9672530     
   58340838.2858311     
   58342092.1894273     
   58343341.7809185     
   58344583.2438659     
   58345812.8383096     
   58347026.8966235     
   58348221.8194345     
   58349394.0716168     
   58350540.1783634     
   58351656.7213440     
   58352740.3349523     
   58353787.7026507     
   58354795.5534148     
   58355760.6582837     
   58356679.8270203     
   58357549.9048864     
   58358367.7695339     
   58359130.3280183     
   58359834.5139364     
   58360477.2846916     
   58361055.6188882     
   58361566.5138590     
   58362006.9833268     
   58362374.0552019     
   58362664.7695173     
   58362876.1765028     
   58363005.3347987     
   58363049.3098091     
   57814378.4038793     
   57814434.0393547     
   57814596.4926894     
   57814859.7040006     
   57815217.7437068     
   57815664.8112178     
   57816195.2333983     
   57816803.4628231     
   57817484.0758360     
   57818231.7704306     
   57819041.3639655     
   57819907.7907290     
   57820826.0993662     
   57821791.4501834     
   57822799.1123410     
   57823844.4609490     
   57824922.9740757     
   57826030.2296830     
   57827161.9024979     
   57828313.7608324     
   57829481.6633621     
   57830661.5558722     
   57831849.4679826     
   57833041.5098598     
   57834233.8689256     
   57835422.8065703     
   57836604.6548784     
   57837775.8133758     
   57838932.7458044     
   57840071.9769327     
   57841190.0894067     
   57842283.7206507     
   57843349.5598215     
   57844384.3448222     
   57845384.8593822     
   57846347.9302070     
   57847270.4242037     
   57848149.2457854     
   57848981.3342603     
   57849763.6613078     
   57850493.2285469     
   57851167.0651980     
   57851782.2258429     
   57852335.7882854     
   57852824.8515145     
   57853246.5337720     
   57853597.9707278     
   57853876.3137626     
   57854078.7283608     
   57854202.3926140     
   57854244.4958352     
   57331142.9172526     
   57331194.0642200     
   57331343.5701981     
   57331586.0648838     
   57331916.2744288     
   57332329.0213126     
   57332819.2239907     
   57333381.8963309     
   57334012.1468506     
   57334705.1777684     
   57335456.2838834     
   57336260.8512931     
   57337114.3559635     
   57338012.3621626     
   57338950.5207686     
   57339924.5674652     
   57340930.3208331     
   57341963.6803502     
   57343020.6243094     
   57344097.2076643     
   57345189.5598139     
   57346293.8823324     
   57347406.4466565     
   57348523.5917372     
   57349641.7216638     
   57350757.3032702     
   57351866.8637289     
   57352966.9881419     
   57354054.3171348     
   57355125.5444602     
   57356177.4146189     
   57357206.7205027     
   57358210.3010661     
   57359185.0390324     
   57360127.8586387     
   57361035.7234260     
   57361905.6340775     
   57362734.6263114     
   57363519.7688307     
   57364258.1613348     
   57364946.9325966     
   57365583.2386069     
   57366164.2607917     
   57366687.2043028     
   57367149.2963854     
   57367547.7848248     
   57367879.9364735     
   57368143.0358611     
   57368334.3838889     
   57368451.2966078     
   57368491.1040838     
   56870833.9768259     
   56870880.3805022     
   56871016.1666070     
   56871236.6466083     
   56871537.1987626     
   56871913.2689072     
   56872360.3710358     
   56872874.0876654     
   56873450.0700092     
   56874084.0379638     
   56874771.7799229     
   56875509.1524289     
   56876292.0796718     
   56877116.5528455     
   56877978.6293737     
   56878874.4320123     
   56879800.1478413     
   56880752.0271521     
   56881726.3822424     
   56882719.5861261     
   56883728.0711666     
   56884748.3276437     
   56885776.9022598     
   56886810.3965953     
   56887845.4655200     
   56888878.8155679     
   56889907.2032829     
   56890927.4335414     
   56891936.3578597     
   56892930.8726908     
   56893907.9177192     
   56894864.4741562     
   56895797.5630444     
   56896704.2435745     
   56897581.6114205     
   56898426.7970977     
   56899236.9643485     
   56900009.3085588     
   56900741.0552114     
   56901429.4583779     
   56902071.7992534     
   56902665.3847383     
   56903207.5460680     
   56903695.6374952     
   56904127.0350266     
   56904499.1352156     
   56904809.3540146     
   56905055.1256865     
   56905233.9017787     
   56905343.1501605     
   56905380.3541238     
   56432799.9190375     
   56432841.4816581     
   56432963.2354624     
   56433161.1506235     
   56433431.2385484     
   56433769.5533629     
   56434172.1931897     
   56434635.3012300     
   56435155.0666566     
   56435727.7253295     
   56436349.5603426     
   56437016.9024103     
   56437726.1301037     
   56438473.6699447     
   56439255.9963679     
   56440069.6315565     
   56440911.1451644     
   56441777.1539278     
   56442664.3211793     
   56443569.3562693     
   56444489.0139027     
   56445420.0933997     
   56446359.4378866     
   56447303.9334245     
   56448250.5080824     
   56449196.1309615     
   56450137.8111766     
   56451072.5968023     
   56451997.5737877     
   56452909.8648478     
   56453806.6283354     
   56454685.0570997     
   56455542.3773363     
   56456375.8474337     
   56457182.7568214     
   56457960.4248230     
   56458706.1995194     
   56459417.4566261     
   56460091.5983872     
   56460726.0524918     
   56461318.2710140     
   56461865.7293812     
   56462365.9253718     
   56462816.3781475     
   56463214.6273203     
   56463558.2320574     
   56463844.7702264     
   56464071.8375820     
   56464237.0469957     
   56464338.0277306     
   56464372.4247616     
   56016294.2652704     
   56016331.0185426     
   56016438.8078804     
   56016614.2276406     
   56016853.8917888     
   56017154.4358821     
   56017512.5188611     
   56017924.8246563     
   56018388.0636200     
   56018898.9737885     
   56019454.3219849     
   56020050.9047690     
   56020685.5492415     
   56021355.1137115     
   56022056.4882331     
   56022786.5950201     
   56023542.3887442     
   56024320.8567255     
   56025119.0190211     
   56025933.9284193     
   56026762.6703456     
   56027602.3626876     
   56028450.1555439     
   56029303.2309059     
   56030158.8022744     
   56031014.1142219     
   56031866.4419017     
   56032713.0905122     
   56033551.3947206     
   56034378.7180524     
   56035192.4522492     
   56035990.0166031     
   56036768.8572690     
   56037526.4465611     
   56038260.2822382     
   56038967.8867805     
   56039646.8066626     
   56040294.6116261     
   56040908.8939561     
   56041487.2677636     
   56042027.3682778     
   56042526.8511513     
   56042983.3917804     
   56043394.6846435     
   56043758.4426602     
   56044072.3965716     
   56044334.2943468     
   56044541.9006147     
   56044692.9961235     
   56044785.3772302     
   56044816.8554202     
   55620494.8778633     
   55620526.9573290     
   55620621.1557912     
   55620774.6490873     
   55620984.6147071     
   55621248.2341122     
   55621562.6948797     
   55621925.1926777     
   55622332.9330766     
   55622783.1332068     
   55623273.0232649     
   55623799.8478781     
   55624360.8673309     
   55624953.3586619     
   55625574.6166368     
   55626221.9546024     
   55626892.7052295     
   55627584.2211496     
   55628293.8754923     
   55629019.0623274     
   55629757.1970202     
   55630505.7165026     
   55631262.0794680     
   55632023.7664942     
   55632788.2800990     
   55633553.1447359     
   55634315.9067316     
   55635074.1341734     
   55635825.4167488     
   55636567.3655437     
   55637297.6128020     
   55638013.8116525     
   55638713.6358053     
   55639394.7792246     
   55640054.9557782     
   55640691.8988699     
   55641303.3610580     
   55641887.1136618     
   55642440.9463614     
   55642962.6667921     
   55643450.1001368     
   55643901.0887204     
   55644313.4916064     
   55644685.1841998     
   55645014.0578583     
   55645298.0195136     
   55645534.9913047     
   55645722.9102251     
   55645859.7277856     
   55645943.4096936     
   55645971.9355515     
   55244521.2368758     
   55244548.8586554     
   55244630.0778490     
   55244762.6036585     
   55244944.1323430     
   55245172.3497408     
   55245444.9336325     
   55245759.5559524     
   55246113.8848511     
   55246505.5866171     
   55246932.3274602     
   55247391.7751635     
   55247881.6006095     
   55248399.4791832     
   55248943.0920607     
   55249510.1273858     
   55250098.2813407     
   55250705.2591166     
   55251328.7757869     
   55251966.5570913     
   55252616.3401317     
   55253275.8739888     
   55253942.9202606     
   55254615.2535292     
   55255290.6617606     
   55255966.9466406     
   55256641.9238523     
   55257313.4232994     
   55257979.2892781     
   55258637.3806037     
   55259285.5706931     
   55259921.7476104     
   55260543.8140754     
   55261149.6874418     
   55261737.2996467     
   55262304.5971346     
   55262849.5407608     
   55263370.1056744     
   55263864.2811870     
   55264330.0706269     
   55264765.4911834     
   55265168.5737431     
   55265537.3627202     
   55265869.9158833     
   55266164.3041812     
   55266418.6115691     
   55266630.9348368     
   55266799.3834414     
   55266922.0793460     
   55266997.1568649     
   55267022.7625169     
   54887449.8146498     
   54887473.2548124     
   54887542.2841467     
   54887655.0939914     
   54887809.8511742     
   54888004.7006270     
   54888237.7678621     
   54888507.1613108     
   54888810.9745303     
   54889147.2882829     
   54889514.1724900     
   54889909.6880684     
   54890331.8886492     
   54890778.8221874     
   54891248.5324632     
   54891739.0604812     
   54892248.4457714     
   54892774.7275953     
   54893315.9460618     
   54893870.1431575     
   54894435.3636951     
   54895009.6561826     
   54895591.0736197     
   54896177.6742233     
   54896767.5220871     
   54897358.6877777     
   54897949.2488731     
   54898537.2904447     
   54899120.9054879     
   54899698.1953041     
   54900267.2698386     
   54900826.2479754     
   54901373.2577942     
   54901906.4367916     
   54902423.9320703     
   54902923.9004977     
   54903404.5088384     
   54903863.9338620     
   54904300.3624293     
   54904711.9915597     
   54905097.0284815     
   54905453.6906670     
   54905780.2058565     
   54906074.8120704     
   54906335.7576139     
   54906561.3010745     
   54906749.7113147     
   54906899.2674609     
   54907008.2588910     
   54907074.9852212     
   54907097.7562936     
   54548327.5723995     
   54548347.1490371     
   54548404.9033013     
   54548499.4562012     
   54548629.3953493     
   54548793.2775865     
   54548989.6314832     
   54549216.9597206     
   54549473.7413541     
   54549758.4339644     
   54550069.4756965     
   54550405.2871933     
   54550764.2734239     
   54551144.8254126     
   54551545.3218710     
   54551964.1307358     
   54552399.6106173     
   54552850.1121610     
   54553313.9793253     
   54553789.5505799     
   54554275.1600273     
   54554769.1384509     
   54555269.8142930     
   54555775.5145663     
   54556284.5657013     
   54556795.2943337     
   54557306.0280338     
   54557815.0959821     
   54558320.8295931     
   54558821.5630915     
   54559315.6340411     
   54559801.3838330     
   54560277.1581317     
   54560741.3072858     
   54561192.1867019     
   54561628.1571873     
   54562047.5852622     
   54562448.8434452     
   54562830.3105120     
   54563190.3717319     
   54563527.4190832     
   54563839.8514489     
   54564126.0747960     
   54564384.5023381     
   54564613.5546865     
   54564811.6599871     
   54564977.2540487     
   54565108.7804606     
   54565204.6907050     
   54565263.4442604     
   54565283.5087024     
   54226183.6404158     
   54226199.6983726     
   54226247.1729983     
   54226325.0627557     
   54226432.3261707     
   54226567.8843993     
   54226730.6236884     
   54226919.3977310     
   54227133.0299192     
   54227370.3154980     
   54227630.0236214     
   54227910.8993137     
   54228211.6653394     
   54228531.0239833     
   54228867.6587440     
   54229220.2359437     
   54229587.4062558     
   54229967.8061557     
   54230360.0592939     
   54230762.7777971     
   54231174.5634983     
   54231594.0091000     
   54232019.6992710     
   54232450.2116821     
   54232884.1179813     
   54233319.9847121     
   54233756.3741767     
   54234191.8452483     
   54234624.9541322     
   54235054.2550811     
   54235478.3010651     
   54235895.6443995     
   54236304.8373319     
   54236704.4325926     
   54237092.9839087     
   54237469.0464844     
   54237831.1774508     
   54238177.9362857     
   54238507.8852059     
   54238819.5895341     
   54239111.6180428     
   54239382.5432749     
   54239630.9418451     
   54239855.3947226     
   54240054.4874959     
   54240226.8106227     
   54240370.9596661     
   54240485.5355167     
   54240569.1446043     
   54240620.3990986     
   54240637.9171008     
   53920039.2718097     
   53920052.1699368     
   53920090.4035850     
   53920153.2978563     
   53920240.1333941     
   53920350.1488435     
   53920482.5432203     
   53920636.4781895     
   53920811.0802559     
   53921005.4428676     
   53921218.6284358     
   53921449.6702711     
   53921697.5744399     
   53921961.3215419     
   53922239.8684112     
   53922532.1497426     
   53922837.0796463     
   53923153.5531318     
   53923480.4475237     
   53923816.6238122     
   53924160.9279396     
   53924512.1920244     
   53924869.2355271     
   53925230.8663585     
   53925595.8819319     
   53925963.0701635     
   53926331.2104207     
   53926699.0744225     
   53927065.4270924     
   53927429.0273665     
   53927788.6289597     
   53928142.9810896     
   53928490.8291627     
   53928830.9154232     
   53929161.9795664     
   53929482.7593189     
   53929791.9909876     
   53930088.4099780     
   53930370.7512853     
   53930637.7499581     
   53930888.1415377     
   53931120.6624737     
   53931334.0505177     
   53931527.0450964     
   53931698.3876656     
   53931846.8220464     
   53931971.0947446     
   53932069.9552554     
   53932142.1563524     
   53932186.4543657     
   53932201.6094455     
   53628916.1800400     
   53628926.2807863     
   53628956.3247269     
   53629005.9150498     
   53629074.6076749     
   53629161.9135728     
   53629267.3010053     
   53629390.1976904     
   53629529.9928911     
   53629686.0394306     
   53629857.6556346     
   53630044.1272029     
   53630244.7090105     
   53630458.6268412     
   53630685.0790541     
   53630923.2381844     
   53631172.2524823     
   53631431.2473879     
   53631699.3269475     
   53631975.5751704     
   53632259.0573289     
   53632548.8212036     
   53632843.8982741     
   53633143.3048593     
   53633446.0432060     
   53633751.1025301     
   53634057.4600110     
   53634364.0817402     
   53634669.9236272     
   53634973.9322632     
   53635275.0457449     
   53635572.1944600     
   53635864.3018349     
   53636150.2850484     
   53636429.0557101     
   53636699.5205078     
   53636960.5818234     
   53637211.1383193     
   53637450.0854979     
   53637676.3162328     
   53637888.7212766     
   53638086.1897440     
   53638267.6095719     
   53638431.8679588     
   53638577.8517842     
   53638704.4480078     
   53638810.5440523     
   53638895.0281681     
   53638956.7897833     
   53638994.7198376     
   53639007.7111041     
   53351843.3838463     
   53351851.0449618     
   53351873.9386098     
   53351911.9003809     
   53351964.7172184     
   53352032.1295716     
   53352113.8334843     
   53352209.4826195     
   53352318.6902200     
   53352441.0310073     
   53352576.0430182     
   53352723.2293809     
   53352882.0600322     
   53353051.9733748     
   53353232.3778785     
   53353422.6536244     
   53353622.1537934     
   53353830.2061023     
   53354046.1141855     
   53354269.1589266     
   53354498.5997391     
   53354733.6757979     
   53354973.6072246     
   53355217.5962246     
   53355464.8281810     
   53355714.4727041     
   53355965.6846382     
   53356217.6050285     
   53356469.3620477     
   53356720.0718841     
   53356968.8395939     
   53357214.7599162     
   53357456.9180548     
   53357694.3904265     
   53357926.2453781     
   53358151.5438718     
   53358369.3401425     
   53358578.6823254     
   53358778.6130590     
   53358968.1700597     
   53359146.3866739     
   53359312.2924053     
   53359464.9134203     
   53359603.2730320     
   53359726.3921639     
   53359833.2897939     
   53359922.9833804     
   53359994.4892709     
   53360046.8230936     
   53360079.0001342     
   53360090.0356970     
   53087862.6906455     
   53087868.2587595     
   53087885.0106807     
   53087912.9719884     
   53087952.1194092     
   53088002.3827920     
   53088063.6470288     
   53088135.7539234     
   53088218.5040071     
   53088311.6583017     
   53088414.9400321     
   53088528.0362865     
   53088650.5996279     
   53088782.2496548     
   53088922.5745129     
   53089071.1323600     
   53089227.4527823     
   53089391.0381652     
   53089561.3650178     
   53089737.8852535     
   53089920.0274264     
   53090107.1979254     
   53090298.7821260     
   53090494.1455021     
   53090692.6346971     
   53090893.5785572     
   53091096.2891266     
   53091300.0626058     
   53091504.1802748     
   53091707.9093812     
   53091910.5039954     
   53092111.2058327     
   53092309.2450440     
   53092503.8409767     
   53092694.2029053     
   53092879.5307343     
   53093059.0156739     
   53093231.8408881     
   53093397.1821190     
   53093554.2082855     
   53093702.0820591     
   53093839.9604169     
   53093966.9951732     
   53094082.3334898     
   53094185.1183677     
   53094274.4891178     
   53094349.5818158     
   53094409.5297376     
   53094453.4637795     
   53094480.5128622     
   53094489.8043196     
   52836032.9520466     
   52836036.7578760     
   52836048.3315599     
   52836067.8497477     
   52836095.4409767     
   52836131.1874628     
   52836175.1268474     
   52836227.2539008     
   52836287.5221836     
   52836355.8456644     
   52836432.1002953     
   52836516.1255448     
   52836607.7258898     
   52836706.6722644     
   52836812.7034698     
   52836925.5275417     
   52837044.8230791     
   52837170.2405326     
   52837301.4034549     
   52837437.9097125     
   52837579.3326594     
   52837725.2222748     
   52837875.1062644     
   52838028.4911258     
   52838184.8631793     
   52838343.6895656     
   52838504.4192091     
   52838666.4837493     
   52838829.2984410     
   52838992.2630232     
   52839154.7625582     
   52839316.1682410     
   52839475.8381817     
   52839633.1181588     
   52839787.3423464     
   52839937.8340160     
   52840083.9062122     
   52840224.8624050     
   52840359.9971178     
   52840488.5965331     
   52840609.9390766     
   52840723.2959795     
   52840827.9318203     
   52840923.1050483     
   52841008.0684860     
   52841082.0698153     
   52841144.3520453     
   52841194.1539630     
   52841230.7105688     
   52841253.2534959     
   52841261.0114146     
   52595433.2237651     
   52595435.5787167     
   52595442.8824288     
   52595455.4272849     
   52595473.4590429     
   52595497.1784413     
   52595526.7427708     
   52595562.2674125     
   52595603.8273397     
   52595651.4585865     
   52595705.1596818     
   52595764.8930477     
   52595830.5863647     
   52595902.1339021     
   52595979.3978144     
   52596062.2094044     
   52596150.3703524     
   52596243.6539128     
   52596341.8060776     
   52596444.5467075     
   52596551.5706315     
   52596662.5487147     
   52596777.1288955     
   52596894.9371918     
   52597015.5786779     
   52597138.6384313     
   52597263.6824511     
   52597390.2585482     
   52597517.8972075     
   52597646.1124229     
   52597774.4025065     
   52597902.2508716     
   52598029.1267895     
   52598154.4861237     
   52598277.7720379     
   52598398.4156828     
   52598515.8368582     
   52598629.4446550     
   52598738.6380738     
   52598842.8066245     
   52598941.3309047     
   52599033.5831588     
   52599118.9278183     
   52599196.7220242     
   52599266.3161307     
   52599327.0541932     
   52599378.2744387     
   52599419.3097207     
   52599449.4879593     
   52599468.1325659     
   52599474.5628539     
   52365164.9578206     
   52365166.1517615     
   52365170.0318217     
   52365176.9743432     
   52365187.3111006     
   52365201.3307282     
   52365219.2801211     
   52365241.3658092     
   52365267.7553031     
   52365298.5784132     
   52365333.9285415     
   52365373.8639448     
   52365418.4089709     
   52365467.5552665     
   52365521.2629580     
   52365579.4618038     
   52365642.0523198     
   52365708.9068773     
   52365779.8707733     
   52365854.7632745     
   52365933.3786341     
   52366015.4870820     
   52366100.8357893     
   52366189.1498064     
   52366280.1329758     
   52366373.4688198     
   52366468.8214034     
   52366565.8361726     
   52366664.1407692     
   52366763.3458212     
   52366863.0457116     
   52366962.8193223     
   52367062.2307586     
   52367160.8300494     
   52367258.1538280     
   52367353.7259911     
   52367447.0583386     
   52367537.6511924     
   52367624.9939969     
   52367708.5659007     
   52367787.8363196     
   52367862.2654823     
   52367931.3049590     
   52367994.3981727     
   52368050.9808948     
   52368100.4817254     
   52368142.3225569     
   52368175.9190247     
   52368200.6809423     
   52368216.0127234     
   52368221.3137903     
   52144353.3482096     
   52144353.6481969     
   52144354.8850767     
   52144357.4908277     
   52144361.8553432     
   52144368.3276888     
   52144377.2173400     
   52144388.7953983     
   52144403.2957869     
   52144420.9164251     
   52144441.8203804     
   52144466.1369997     
   52144493.9630175     
   52144525.3636427     
   52144560.3736228     
   52144598.9982858     
   52144641.2145598     
   52144686.9719700     
   52144736.1936138     
   52144788.7771135     
   52144844.5955465     
   52144903.4983537     
   52144965.3122265     
   52145029.8419714     
   52145096.8713532     
   52145166.1639174     
   52145237.4637911     
   52145310.4964629     
   52145384.9695434     
   52145460.5735037     
   52145536.9823960     
   52145613.8545532     
   52145690.8332694     
   52145767.5474623     
   52145843.6123160     
   52145918.6299067     
   52145992.1898094     
   52146063.8696883     
   52146133.2358696     
   52146199.8438973     
   52146263.2390737     
   52146322.9569834     
   52146378.5240014     
   52146429.4577874     
   52146475.2677644     
   52146515.4555835     
   52146549.5155749     
   52146576.9351850     
   52146597.1954014     
   52146609.7711640     
   52146614.1317652     
   51932147.9429446     
   51932147.5927252     
   51932146.8994123     
   51932146.3255844     
   51932146.2945186     
   51932147.1912887     
   51932149.3638492     
   51932153.1241036     
   51932158.7489571     
   51932166.4813531     
   51932176.5312931     
   51932189.0768396     
   51932204.2651022     
   51932222.2132063     
   51932243.0092435     
   51932266.7132057     
   51932293.3578997     
   51932322.9498450     
   51932355.4701533     
   51932390.8753892     
   51932429.0984140     
   51932470.0492103     
   51932513.6156894     
   51932559.6644802     
   51932608.0417001     
   51932658.5737088     
   51932711.0678436     
   51932765.3131378     
   51932821.0810214     
   51932878.1260050     
   51932936.1863460     
   51932994.9846990     
   51933054.2287489     
   51933113.6118280     
   51933172.8135174     
   51933231.5002318     
   51933289.3257897     
   51933345.9319678     
   51933400.9490406     
   51933453.9963056     
   51933504.6825938     
   51933552.6067666     
   51933597.3581987     
   51933638.5172472     
   51933675.6557091     
   51933708.3372642     
   51933736.1179072     
   51933758.5463662     
   51933775.1645111     
   51933785.5077493     
   51933789.1054104     
   51727722.6260135     
   51727721.8461250     
   51727719.8682592     
   51727717.1636351     
   51727714.1671527     
   51727711.2783459     
   51727708.8623242     
   51727707.2507040     
   51727706.7425278     
   51727707.6051727     
   51727710.0752448     
   51727714.3594628     
   51727720.6355272     
   51727729.0529769     
   51727739.7340320     
   51727752.7744227     
   51727768.2442040     
   51727786.1885567     
   51727806.6285739     
   51727829.5620322     
   51727854.9641495     
   51727882.7883272     
   51727912.9668785     
   51727945.4117409     
   51727980.0151754     
   51728016.6504499     
   51728055.1725080     
   51728095.4186239     
   51728137.2090420     
   51728180.3476026     
   51728224.6223532     
   51728269.8061453     
   51728315.6572175     
   51728361.9197645     
   51728408.3244927     
   51728454.5891618     
   51728500.4191131     
   51728545.5077854     
   51728589.5372171     
   51728632.1785358     
   51728673.0924355     
   51728711.9296418     
   51728748.3313645     
   51728781.9297391     
   51728812.3482565     
   51728839.2021808     
   51728862.0989574     
   51728880.6386094     
   51728894.4141238     
   51728903.0118275     
   51728906.0117535     
   51530275.0629134     
   51530274.0512364     
   51530271.3685858     
   51530267.4757002     
   51530262.8001012     
   51530257.7369129     
   51530252.6496752     
   51530247.8711488     
   51530243.7041131     
   51530240.4221549     
   51530238.2704495     
   51530237.4665307     
   51530238.2010529     
   51530240.6385424     
   51530244.9181383     
   51530251.1543231     
   51530259.4376426     
   51530269.8354145     
   51530282.3924255     
   51530297.1316177     
   51530314.0547626     
   51530333.1431240     
   51530354.3581086     
   51530377.6419051     
   51530402.9181108     
   51530430.0923470     
   51530459.0528613     
   51530489.6711190     
   51530521.8023817     
   51530555.2862738     
   51530589.9473379     
   51530625.5955774     
   51530662.0269877     
   51530699.0240759     
   51530736.3563682     
   51530773.7809065     
   51530811.0427331     
   51530847.8753648     
   51530884.0012549     
   51530919.1322451     
   51530952.9700066     
   51530985.2064700     
   51531015.5242451     
   51531043.5970312     
   51531069.0900155     
   51531091.6602640     
   51531110.9571007     
   51531126.6224787     
   51531138.2913416     
   51531145.5919759     
   51531148.1463547     
   51339025.6933337     
   51339024.6259676     
   51339021.7548637     
   51339017.5137504     
   51339012.3062961     
   51339006.5068103     
   51339000.4609402     
   51338994.4863630     
   51338988.8734723     
   51338983.8860601     
   51338979.7619911     
   51338976.7138720     
   51338974.9297129     
   51338974.5735820     
   51338975.7862522     
   51338978.6858405     
   51338983.3684383     
   51338989.9087339     
   51338998.3606264     
   51339008.7578302     
   51339021.1144705     
   51339035.4256700     
   51339051.6681258     
   51339069.8006770     
   51339089.7648623     
   51339111.4854683     
   51339134.8710679     
   51339159.8145490     
   51339186.1936326     
   51339213.8713825     
   51339242.6967031     
   51339272.5048292     
   51339303.1178049     
   51339334.3449530     
   51339365.9833346     
   51339397.8181989     
   51339429.6234237     
   51339461.1619457     
   51339492.1861825     
   51339522.4384439     
   51339551.6513351     
   51339579.5481502     
   51339605.8432568     
   51339630.2424722     
   51339652.4434302     
   51339672.1359404     
   51339689.0023377     
   51339702.7178253     
   51339712.9508082     
   51339719.3632196     
   51339721.6108396     
   51153216.3446176     
   51153215.3769688     
   51153212.7733803     
   51153208.9263780     
   51153204.2015942     
   51153198.9383627     
   51153193.4503125     
   51153188.0259579     
   51153182.9292872     
   51153178.4003459     
   51153174.6558174     
   51153171.8895987     
   51153170.2733715     
   51153169.9571682     
   51153171.0699323     
   51153173.7200731     
   51153177.9960142     
   51153183.9667362     
   51153191.6823119     
   51153201.1744354     
   51153212.4569441     
   51153225.5263328     
   51153240.3622616     
   51153256.9280549     
   51153275.1711941     
   51153295.0238016     
   51153316.4031168     
   51153339.2119653     
   51153363.3392185     
   51153388.6602463     
   51153415.0373612     
   51153442.3202548     
   51153470.3464246     
   51153498.9415950     
   51153527.9201281     
   51153557.0854275     
   51153586.2303336     
   51153615.1375115     
   51153643.5798296     
   51153671.3207319     
   51153698.1146016     
   51153723.7071167     
   51153747.8355990     
   51153770.2293544     
   51153790.6100066     
   51153808.6918229     
   51153824.1820333     
   51153836.7811425     
   51153846.1832342     
   51153852.0762696     
   51153854.1423787     
   50972108.5300429     
   50972107.7980325     
   50972105.8610022     
   50972103.0581756     
   50972099.7050248     
   50972096.0937729     
   50972092.4938962     
   50972089.1526251     
   50972086.2954440     
   50972084.1265886     
   50972082.8295409     
   50972082.5675222     
   50972083.4839819     
   50972085.7030833     
   50972089.3301857     
   50972094.4523225     
   50972101.1386736     
   50972109.4410355     
   50972119.3942837     
   50972131.0168323     
   50972144.3110868     
   50972159.2638916     
   50972175.8469722     
   50972194.0173710     
   50972213.7178771     
   50972234.8774505     
   50972257.4116387     
   50972281.2229885     
   50972306.2014500     
   50972332.2247747     
   50972359.1589071     
   50972386.8583687     
   50972415.1666368     
   50972443.9165150     
   50972472.9304982     
   50972502.0211300     
   50972530.9913540     
   50972559.6348580     
   50972587.7364115     
   50972615.0721974     
   50972641.4101352     
   50972666.5101999     
   50972690.1247333     
   50972711.9987484     
   50972731.8702287     
   50972749.4704205     
   50972764.5241188     
   50972776.7499483     
   50972785.8606367     
   50972791.5632840     
   50972793.5596249     
   50794981.4869254     
   50794981.1082386     
   50794980.1834560     
   50794978.9882579     
   50794977.7776703     
   50794976.7864869     
   50794976.2296908     
   50794976.3028777     
   50794977.1826767     
   50794979.0271717     
   50794981.9763211     
   50794986.1523751     
   50794991.6602923     
   50794998.5881530     
   50795007.0075700     
   50795016.9740970     
   50795028.5276337     
   50795041.6928264     
   50795056.4794670     
   50795072.8828858     
   50795090.8843419     
   50795110.4514087     
   50795131.5383547     
   50795154.0865200     
   50795178.0246881     
   50795203.2694523     
   50795229.7255774     
   50795257.2863570     
   50795285.8339635     
   50795315.2397953     
   50795345.3648167     
   50795376.0598937     
   50795407.1661228     
   50795438.5151561     
   50795469.9295194     
   50795501.2229252     
   50795532.2005803     
   50795562.6594876     
   50795592.3887427     
   50795621.1698238     
   50795648.7768779     
   50795674.9769999     
   50795699.5305073     
   50795722.1912082     
   50795742.7066658     
   50795760.8184561     
   50795776.2624210     
   50795788.7689160     
   50795798.0630531     
   50795803.8649385     
   50795805.8899057     
   50621130.0011707     
   50621130.0764843     
   50621130.4598052     
   50621131.3546726     
   50621132.9470135     
   50621135.4054945     
   50621138.8818744     
   50621143.5113579     
   50621149.4129488     
   50621156.6898031     
   50621165.4295814     
   50621175.7048010     
   50621187.5731857     
   50621201.0780151     
   50621216.2484715     
   50621233.0999848     
   50621251.6345755     
   50621271.8411948     
   50621293.6960619     
   50621317.1629985     
   50621342.1937606     
   50621368.7283657     
   50621396.6954182     
   50621426.0124294     
   50621456.5861356     
   50621488.3128106     
   50621521.0785752     
   50621554.7597019     
   50621589.2229163     
   50621624.3256933     
   50621659.9165494     
   50621695.8353303     
   50621731.9134941     
   50621767.9743901     
   50621803.8335331     
   50621839.2988723     
   50621874.1710568     
   50621908.2436956     
   50621941.3036131     
   50621973.1311005     
   50622003.5001615     
   50622032.1787545     
   50622058.9290299     
   50622083.5075625     
   50622105.6655794     
   50622125.1491842     
   50622141.6995760     
   50622155.0532641     
   50622164.9422786     
   50622171.0943773     
   50622173.2332470     
   50449862.0572876     
   50449862.6714214     
   50449864.6121789     
   50449868.0038093     
   50449872.9559354     
   50449879.5638440     
   50449887.9087791     
   50449898.0582343     
   50449910.0662465     
   50449923.9736889     
   50449939.8085646     
   50449957.5862988     
   50449977.3100308     
   50449998.9709044     
   50450022.5483578     
   50450048.0104111     
   50450075.3139529     
   50450104.4050242     
   50450135.2191008     
   50450167.6813734     
   50450201.7070242     
   50450237.2015024     
   50450274.0607962     
   50450312.1717014     
   50450351.4120881     
   50450391.6511631     
   50450432.7497301     
   50450474.5604456     
   50450516.9280723     
   50450559.6897282     
   50450602.6751325     
   50450645.7068480     
   50450688.6005193     
   50450731.1651079     
   50450773.2031232     
   50450814.5108495     
   50450854.8785695     
   50450894.0907840     
   50450931.9264274     
   50450968.1590795     
   50451002.5571736     
   50451034.8842007     
   50451064.8989097     
   50451092.3555040     
   50451117.0038342     
   50451138.5895869     
   50451156.8544701     
   50451171.5363948     
   50451182.3696530     
   50451189.0850918     
   50451191.4102842     
   50280496.3460551     
   50280497.5690076     
   50280501.2729903     
   50280507.4970943     
   50280516.2687182     
   50280527.6038070     
   50280541.5070919     
   50280557.9723302     
   50280576.9825455     
   50280598.5102683     
   50280622.5177759     
   50280648.9573323     
   50280677.7714272     
   50280708.8930144     
   50280742.2457485     
   50280777.7442215     
   50280815.2941969     
   50280854.7928429     
   50280896.1289633     
   50280939.1832272     
   50280983.8283964     
   50281029.9295503     
   50281077.3443090     
   50281125.9230538     
   50281175.5091455     
   50281225.9391399     
   50281277.0430004     
   50281328.6443080     
   50281380.5604691     
   50281432.6029196     
   50281484.5773263     
   50281536.2837851     
   50281587.5170173     
   50281638.0665609     
   50281687.7169603     
   50281736.2479522     
   50281783.4346487     
   50281829.0477168     
   50281872.8535547     
   50281914.6144657     
   50281954.0888274     
   50281991.0312596     
   50282025.1927869     
   50282056.3210002     
   50282084.1602132     
   50282108.4516173     
   50282128.9334321     
   50282145.3410537     
   50282157.4071997     
   50282164.8620508     
   50282167.4333899     
   50112359.6560770     
   50112361.5439087     
   50112367.1759066     
   50112376.5012715     
   50112389.4604079     
   50112405.9851162     
   50112425.9987855     
   50112449.4165870     
   50112476.1456663     
   50112506.0853371     
   50112539.1272727     
   50112575.1556987     
   50112614.0475834     
   50112655.6728287     
   50112699.8944587     
   50112746.5688085     
   50112795.5457102     
   50112846.6686789     
   50112899.7750967     
   50112954.6963939     
   50113011.2582307     
   50113069.2806746     
   50113128.5783782     
   50113188.9607530     
   50113250.2321422     
   50113312.1919912     
   50113374.6350157     
   50113437.3513671     
   50113500.1267965     
   50113562.7428153     
   50113624.9768542     
   50113686.6024188     
   50113747.3892435     
   50113807.1034423     
   50113865.5076573     
   50113922.3612043     
   50113977.4202162     
   50114030.4377833     
   50114081.1640912     
   50114129.3465560     
   50114174.7299568     
   50114217.0565656     
   50114256.0662745     
   50114291.4967204     
   50114323.0834066     
   50114350.5598227     
   50114373.6575607     
   50114392.1064296     
   50114405.6345669     
   50114413.9685475     
   50114416.8334905     
   49944784.1703326     
   49944786.7658724     
   49944794.4517081     
   49944807.0834429     
   49944824.5107564     
   49944846.5775562     
   49944873.1221286     
   49944903.9772885     
   49944938.9705302     
   49944977.9241757     
   49945020.6555240     
   49945066.9769984     
   49945116.6962930     
   49945169.6165190     
   49945225.5363487     
   49945284.2501588     
   49945345.5481727     
   49945409.2166006     
   49945475.0377786     
   49945542.7903063     
   49945612.2491828     
   49945683.1859403     
   49945755.3687768     
   49945828.5626869     
   49945902.5295903     
   49945977.0284586     
   49946051.8154401     
   49946126.6439832     
   49946201.2649565     
   49946275.4267685     
   49946348.8754838     
   49946421.3549379     
   49946492.6068498     
   49946562.3709323     
   49946630.3850005     
   49946696.3850776     
   49946760.1054989     
   49946821.2790136     
   49946879.6368841     
   49946934.9089837     
   49946986.8238916     
   49947035.1089856     
   49947079.4905333     
   49947119.6937804     
   49947155.4430374     
   49947186.4617638     
   49947212.4726501     
   49947233.1976981     
   49947248.3582989     
   49947257.6753082     
   49947260.8691208     
   49777104.6845750     
   49777108.0179266     
   49777117.8459137     
   49777133.9277717     
   49777156.0196841     
   49777183.8748952     
   49777217.2438215     
   49777255.8741627     
   49777299.5110108     
   49777347.8969585     
   49777400.7722064     
   49777457.8746690     
   49777518.9400788     
   49777583.7020895     
   49777651.8923781     
   49777723.2407450     
   49777797.4752128     
   49777874.3221236     
   49777953.5062346     
   49778034.7508129     
   49778117.7777271     
   49778202.3075391     
   49778288.0595929     
   49778374.7521023     
   49778462.1022372     
   49778549.8262070     
   49778637.6393440     
   49778725.2561837     
   49778812.3905436     
   49778898.7556009     
   49778984.0639677     
   49779068.0277648     
   49779150.3586936     
   49779230.7681062     
   49779308.9670741     
   49779384.6664542     
   49779457.5769542     
   49779527.4091953     
   49779593.8737735     
   49779656.6813190     
   49779715.5425541     
   49779770.1683489     
   49779820.2697761     
   49779865.5581625     
   49779905.7451405     
   49779940.5426966     
   49779969.6632190     
   49779992.8195430     
   49780009.7249949     
   49780020.0934342     
   49780023.6392942     
   49608655.7610247     
   49608659.8498582     
   49608671.8716334     
   49608691.4873332     
   49608718.3577809     
   49608752.1437154     
   49608792.5058654     
   49608839.1050213     
   49608891.6021051     
   49608949.6582392     
   49609012.9348131     
   49609081.0935476     
   49609153.7965589     
   49609230.7064193     
   49609311.4862170     
   49609395.7996144     
   49609483.3109040     
   49609573.6850633     
   49609666.5878075     
   49609761.6856412     
   49609858.6459075     
   49609957.1368366     
   49610056.8275917     
   49610157.3883145     
   49610258.4901677     
   49610359.8053773     
   49610461.0072727     
   49610561.7703250     
   49610661.7701844     
   49610760.6837158     
   49610858.1890329     
   49610953.9655304     
   49611047.6939162     
   49611139.0562400     
   49611227.7359223     
   49611313.4177810     
   49611395.7880571     
   49611474.5344384     
   49611549.3460823     
   49611619.9136373     
   49611685.9292624     
   49611747.0866464     
   49611803.0810244     
   49611853.6091939     
   49611898.3695296     
   49611937.0619965     
   49611969.3881613     
   49611995.0512039     
   49612013.7559261     
   49612025.2087598     
   49612029.1177737     
   49438768.8282456     
   49438773.6778606     
   49438787.9085574     
   49438811.0820429     
   49438842.7628021     
   49438882.5181359     
   49438929.9181968     
   49438984.5360219     
   49439045.9475630     
   49439113.7317150     
   49439187.4703410     
   49439266.7482962     
   49439351.1534487     
   49439440.2766988     
   49439533.7119959     
   49439631.0563536     
   49439731.9098626     
   49439835.8757024     
   49439942.5601503     
   49440051.5725894     
   49440162.5255146     
   49440275.0345371     
   49440388.7183872     
   49440503.1989158     
   49440618.1010944     
   49440733.0530130     
   49440847.6858781     
   49440961.6340081     
   49441074.5348275     
   49441186.0288607     
   49441295.7597238     
   49441403.3741153     
   49441508.5218061     
   49441610.8556280     
   49441710.0314613     
   49441805.7082210     
   49441897.5478426     
   49441985.2152658     
   49442068.3784189     
   49442146.7082003     
   49442219.8784605     
   49442287.5659823     
   49442349.4504606     
   49442405.2144809     
   49442454.5434972     
   49442497.1258086     
   49442532.6525354     
   49442560.8175941     
   49442581.3176718     
   49442593.8521991     
   49442598.1233227     
   49266769.2363921     
   49266774.8395447     
   49266791.2572791     
   49266817.9518737     
   49266854.3913937     
   49266900.0496888     
   49266954.4063887     
   49267016.9468945     
   49267087.1623668     
   49267164.5497121     
   49267248.6115644     
   49267338.8562653     
   49267434.7978416     
   49267535.9559792     
   49267641.8559963     
   49267752.0288128     
   49267866.0109189     
   49267983.3443409     
   49268103.5766052     
   49268226.2607013     
   49268350.9550417     
   49268477.2234218     
   49268604.6349770     
   49268732.7641393     
   49268861.1905923     
   49268989.4992247     
   49269117.2800829     
   49269244.1283228     
   49269369.6441598     
   49269493.4328186     
   49269615.1044819     
   49269734.2742379     
   49269850.5620275     
   49269963.5925903     
   49270072.9954103     
   49270178.4046608     
   49270279.4591486     
   49270375.8022573     
   49270467.0818911     
   49270552.9504165     
   49270633.0646049     
   49270707.0855740     
   49270774.6787284     
   49270835.5137009     
   49270889.2642920     
   49270935.6084099     
   49270974.2280093     
   49271004.8090305     
   49271027.0413378     
   49271040.6186568     
   49271045.2385125     
   49091973.2761481     
   49091979.6126346     
   49091998.1572875     
   49092028.2737178     
   49092069.3344266     
   49092120.7207605     
   49092181.8228617     
   49092252.0396146     
   49092330.7785882     
   49092417.4559755     
   49092511.4965292     
   49092612.3334942     
   49092719.4085373     
   49092832.1716741     
   49092950.0811936     
   49093072.6035799     
   49093199.2134321     
   49093329.3933821     
   49093462.6340105     
   49093598.4337605     
   49093736.2988507     
   49093875.7431863     
   49094016.2882683     
   49094157.4631028     
   49094298.8041082     
   49094439.8550217     
   49094580.1668048     
   49094719.2975489     
   49094856.8123787     
   49094992.2833567     
   49095125.2893855     
   49095255.4161113     
   49095382.2558258     
   49095505.4073683     
   49095624.4760280     
   49095739.0734450     
   49095848.8175121     
   49095953.3322760     
   49096052.2478392     
   49096145.2002605     
   49096231.8314566     
   49096311.7891037     
   49096384.7265384     
   49096450.3026590     
   49096508.1818273     
   49096558.0337699     
   49096599.5334795     
   49096632.3611169     
   49096656.2019124     
   49096670.7460673     
   49096675.6886558     
   48913685.1696904     
   48913692.2056863     
   48913712.7769758     
   48913746.1502508     
   48913791.6043171     
   48913848.4299996     
   48913915.9300427     
   48913993.4190050     
   48914080.2231513     
   48914175.6803400     
   48914279.1399063     
   48914389.9625427     
   48914507.5201766     
   48914631.1958438     
   48914760.3835607     
   48914894.4881935     
   48915032.9253252     
   48915175.1211208     
   48915320.5121904     
   48915468.5454519     
   48915618.6779902     
   48915770.3769177     
   48915923.1192317     
   48916076.3916724     
   48916229.6905790     
   48916382.5217465     
   48916534.4002808     
   48916684.8504542     
   48916833.4055608     
   48916979.6077712     
   48917123.0079877     
   48917263.1656997     
   48917399.6488388     
   48917532.0336345     
   48917659.9044697     
   48917782.8537381     
   48917900.4816996     
   48918012.3963385     
   48918118.2132211     
   48918217.5553539     
   48918310.0530426     
   48918395.3437515     
   48918473.0719642     
   48918542.8890440     
   48918604.4530954     
   48918657.4288267     
   48918701.4874123     
   48918736.3063565     
   48918761.5693572     
   48918776.9661710     
   48918782.1924784     
   48731194.0428844     
   48731201.7300387     
   48731224.1848832     
   48731260.5800373     
   48731310.1035989     
   48731371.9589915     
   48731445.3648064     
   48731529.5546396     
   48731623.7769246     
   48731727.2947612     
   48731839.3857398     
   48731959.3417631     
   48732086.4688638     
   48732220.0870203     
   48732359.5299697     
   48732504.1450179     
   48732653.2928488     
   48732806.3473314     
   48732962.6953249     
   48733121.7364836     
   48733282.8830601     
   48733445.5597079     
   48733609.2032841     
   48733773.2626505     
   48733937.1984758     
   48734100.4830369     
   48734262.6000207     
   48734423.0443265     
   48734581.3218679     
   48734736.9493764     
   48734889.4542052     
   48735038.3741330     
   48735183.2571699     
   48735323.6613641     
   48735459.1546084     
   48735589.3144496     
   48735713.7278977     
   48735831.9912369     
   48735943.7098377     
   48736048.4979704     
   48736145.9786200     
   48736235.7833023     
   48736317.5518811     
   48736390.9323877     
   48736455.5808407     
   48736511.1610675     
   48736557.3445277     
   48736593.8101369     
   48736620.2440928     
   48736636.3397014     
   48736641.7972058     
   48543770.8896994     
   48543779.1639893     
   48543803.3131778     
   48543842.4199009     
   48543895.5857954     
   48543961.9312787     
   48544040.5953230     
   48544130.7352255     
   48544231.5263728     
   48544342.1620021     
   48544461.8529585     
   48544589.8274490     
   48544725.3307941     
   48544867.6251759     
   48545015.9893856     
   48545169.7185674     
   48545328.1239629     
   48545490.5326527     
   48545656.2872978     
   48545824.7458809     
   48545995.2814466     
   48546167.2818416     
   48546340.1494557     
   48546513.3009628     
   48546686.1670620     
   48546858.1922204     
   48547028.8344163     
   48547197.5648833     
   48547363.8678563     
   48547527.2403187     
   48547687.1917509     
   48547843.2438802     
   48547994.9304337     
   48548141.7968916     
   48548283.4002431     
   48548419.3087446     
   48548549.1016793     
   48548672.3691191     
   48548788.7116897     
   48548897.7403357     
   48548999.0760906     
   48549092.3498463     
   48549177.2021273     
   48549253.2828653     
   48549320.2511772     
   48549377.7751444     
   48549425.5315952     
   48549463.2058886     
   48549490.4917005     
   48549507.0908119     
   48549512.7128993     
   48350665.5425383     
   48350674.3228940     
   48350699.9270932     
   48350741.3532984     
   48350797.6223655     
   48350867.7775454     
   48350950.8841787     
   48351046.0293872     
   48351152.3217600     
   48351268.8910372     
   48351394.8877891     
   48351529.4830939     
   48351671.8682125     
   48351821.2542615     
   48351976.8718853     
   48352137.9709264     
   48352303.8200960     
   48352473.7066430     
   48352646.9360246     
   48352822.8315758     
   48353000.7341802     
   48353180.0019418     
   48353360.0098577     
   48353540.1494922     
   48353719.8286525     
   48353898.4710667     
   48354075.5160629     
   48354250.4182514     
   48354422.6472087     
   48354591.6871646     
   48354757.0366910     
   48354918.2083944     
   48355074.7286109     
   48355226.1371039     
   48355371.9867655     
   48355511.8433202     
   48355645.2850326     
   48355771.9024177     
   48355891.2979549     
   48356003.0858045     
   48356106.8915288     
   48356202.3518150     
   48356289.1142025     
   48356366.8368131     
   48356435.1880843     
   48356493.8465055     
   48356542.5003585     
   48356580.8474600     
   48356608.5949075     
   48356625.4588281     
   48356631.1641307     
   48151103.6658650     
   48151112.8525803     
   48151139.6177240     
   48151182.8821295     
   48151241.5931939     
   48151314.7244861     
   48151401.2753497     
   48151500.2705030     
   48151610.7596345     
   48151731.8169965     
   48151862.5409956     
   48152002.0537825     
   48152149.5008399     
   48152304.0505695     
   48152464.8938793     
   48152631.2437707     
   48152802.3349256     
   48152977.4232956     
   48153155.7856915     
   48153336.7193743     
   48153519.5416492     
   48153703.5894605     
   48153888.2189899     
   48154072.8052573     
   48154256.7417242     
   48154439.4399008     
   48154620.3289563     
   48154798.8553330     
   48154974.4823636     
   48155146.6898930     
   48155314.9739036     
   48155478.8461456     
   48155637.8337702     
   48155791.4789685     
   48155939.3386142     
   48156080.9839104     
   48156216.0000416     
   48156343.9858300     
   48156464.5533961     
   48156577.3278239     
   48156681.9468313     
   48156778.0604444     
   48156865.3306764     
   48156943.4312108     
   48157012.0470899     
   48157070.8744068     
   48157119.6200018     
   48157158.0011637     
   48157185.7453343     
   48157202.5898178     
   48157208.2814938     
   47944283.7952042     
   47944293.2681546     
   47944320.8402835     
   47944365.3641239     
   47944425.7228166     
   47944500.8296105     
   47944589.6273582     
   47944691.0880099     
   47944804.2121052     
   47944928.0282626     
   47945061.5926693     
   47945203.9885696     
   47945354.3257546     
   47945511.7400523     
   47945675.3928185     
   47945844.4704301     
   47946018.1837803     
   47946195.7677760     
   47946376.4808392     
   47946559.6044100     
   47946744.4424553     
   47946930.3209794     
   47947116.5875404     
   47947302.6107700     
   47947487.7798986     
   47947671.5042855     
   47947853.2129534     
   47948032.3541290     
   47948208.3947890     
   47948380.8202113     
   47948549.1335322     
   47948712.8553092     
   47948871.5230904     
   47949024.6909892     
   47949171.9292650     
   47949312.8239107     
   47949446.9762453     
   47949574.0025139     
   47949693.5334925     
   47949805.2140997     
   47949908.7030144     
   47950003.6722993     
   47950089.8070301     
   47950166.8049316     
   47950234.3760185     
   47950292.2422425     
   47950340.1371453     
   47950377.8055164     
   47950405.0030570     
   47950421.4960489     
   47950427.0610286     
   47729374.4493395     
   47729384.0660421     
   47729412.0256917     
   47729457.1237144     
   47729518.1903505     
   47729594.0900290     
   47729683.7207403     
   47729786.0134082     
   47729899.9312616     
   47730024.4692064     
   47730158.6532001     
   47730301.5396259     
   47730452.2146711     
   47730609.7937069     
   47730773.4206732     
   47730942.2674655     
   47731115.5333275     
   47731292.4442479     
   47731472.2523621     
   47731654.2353600     
   47731837.6958987     
   47732021.9610226     
   47732206.3815885     
   47732390.3316984     
   47732573.2081387     
   47732754.4298266     
   47732933.4372639     
   47733109.6919977     
   47733282.6760897     
   47733451.8915920     
   47733616.8600318     
   47733777.1219028     
   47733932.2361660     
   47734081.7797566     
   47734225.3471011     
   47734362.5496402     
   47734493.0153614     
   47734616.3883388     
   47734732.3282805     
   47734840.5100850     
   47734940.6234042     
   47735032.3722150     
   47735115.4743982     
   47735189.6613246     
   47735254.6774494     
   47735310.2799131     
   47735356.2381500     
   47735392.3335034     
   47735418.3588484     
   47735434.1182202     
   47735439.4264502     
   47505511.3504021     
   47505520.9439576     
   47505548.8002183     
   47505593.6711755     
   47505654.3479776     
   47505729.6601611     
   47505818.4748819     
   47505919.6961482     
   47506032.2640567     
   47506155.1540311     
   47506287.3760649     
   47506427.9739690     
   47506576.0246236     
   47506730.6372370     
   47506890.9526090     
   47507056.1424021     
   47507225.4084194     
   47507397.9818902     
   47507573.1227626     
   47507750.1190061     
   47507928.2859208     
   47508106.9654568     
   47508285.5255418     
   47508463.3594187     
   47508639.8849926     
   47508814.5441870     
   47508986.8023105     
   47509156.1474331     
   47509322.0897727     
   47509484.1610919     
   47509641.9141047     
   47509794.9218939     
   47509942.7773387     
   47510085.0925520     
   47510221.4983292     
   47510351.6436056     
   47510475.1949257     
   47510591.8359213     
   47510701.2668003     
   47510803.2038456     
   47510897.3789226     
   47510983.5389983     
   47511061.4456681     
   47511130.8746935     
   47511191.6155479     
   47511243.4709721     
   47511286.2565388     
   47511319.8002251     
   47511343.9419942     
   47511358.5333850     
   47511363.4371103     
   47271794.7945239     
   47271804.1714992     
   47271831.3559184     
   47271875.0728282     
   47271934.0908731     
   47272007.2213621     
   47272093.3173402     
   47272191.2726645     
   47272300.0210866     
   47272418.5353423     
   47272545.8262476     
   47272680.9418033     
   47272822.9663084     
   47272971.0194822     
   47273124.2555963     
   47273281.8626170     
   47273443.0613571     
   47273607.1046402     
   47273773.2764755     
   47273940.8912436     
   47274109.2928953     
   47274277.8541621     
   47274445.9757785     
   47274613.0857178     
   47274778.6384402     
   47274942.1141530     
   47275103.0180851     
   47275260.8797735     
   47275415.2523633     
   47275565.7119204     
   47275711.8567578     
   47275853.3067746     
   47275989.7028084     
   47276120.7060002     
   47276245.9971725     
   47276365.2762202     
   47276478.2615143     
   47276584.6893178     
   47276684.3132140     
   47276776.9035479     
   47276862.2468786     
   47276940.1454440     
   47277010.4166376     
   47277072.8924961     
   47277127.4191986     
   47277173.8565769     
   47277212.0776365     
   47277241.9680882     
   47277263.4258896     
   47277276.3607974     
   47277280.6939287     
   47027287.2248960     
   47027296.1632177     
   47027322.0237536     
   47027363.5242781     
   47027419.4306439     
   47027488.5556642     
   47027569.7580045     
   47027661.9410834     
   47027764.0519847     
   47027875.0803794     
   47027994.0574608     
   47028120.0548916     
   47028252.1837634     
   47028389.5935703     
   47028531.4711967     
   47028677.0399184     
   47028825.5584195     
   47028976.3198244     
   47029128.6507441     
   47029281.9103393     
   47029435.4893991     
   47029588.8094354     
   47029741.3217937     
   47029892.5067809     
   47030041.8728082     
   47030188.9555518     
   47030333.3171295     
   47030474.5452937     
   47030612.2526415     
   47030746.0758405     
   47030875.6748718     
   47031000.7322887     
   47031120.9524914     
   47031236.0610188     
   47031345.8038548     
   47031449.9467516     
   47031548.2745673     
   47031640.5906197     
   47031726.7160549     
   47031806.4892304     
   47031879.7651135     
   47031946.4146931     
   47032006.3244066     
   47032059.3955796     
   47032105.5438795     
   47032144.6987825     
   47032176.8030530     
   47032201.8122356     
   47032219.6941596     
   47032230.4284553     
   47032234.0060817     
   46771011.0693845     
   46771019.3163354     
   46771043.1116303     
   46771081.1890047     
   46771132.3347147     
   46771195.3862147     
   46771269.2308495     
   46771352.8045614     
   46771445.0906139     
   46771545.1183313     
   46771651.9618564     
   46771764.7389250     
   46771882.6096599     
   46772004.7753827     
   46772130.4774451     
   46772258.9960798     
   46772389.6492712     
   46772521.7916462     
   46772654.8133849     
   46772788.1391525     
   46772921.2270510     
   46773053.5675924     
   46773184.6826918     
   46773314.1246823     
   46773441.4753495     
   46773566.3449880     
   46773688.3714774     
   46773807.2193797     
   46773922.5790568     
   46774034.1658085     
   46774141.7190301     
   46774245.0013907     
   46774343.7980307     
   46774437.9157787     
   46774527.1823879     
   46774611.4457915     
   46774690.5733760     
   46774764.4512741     
   46774832.9836742     
   46774896.0921484     
   46774953.7149979     
   46775005.8066148     
   46775052.3368610     
   46775093.2904628     
   46775128.6664219     
   46775158.4774415     
   46775182.7493674     
   46775201.5206440     
   46775214.8417845     
   46775222.7748542     
   46775225.3929685     
   46501946.9163212     
   46501954.1867486     
   46501975.0810488     
   46502008.3760968     
   46502052.9055925     
   46502107.5585123     
   46502171.2775834     
   46502243.0577790     
   46502321.9448370     
   46502407.0338020     
   46502497.4675907     
   46502592.4355820     
   46502691.1722320     
   46502792.9557133     
   46502897.1065806     
   46503002.9864614     
   46503109.9967724     
   46503217.5774621     
   46503325.2057792     
   46503432.3950674     
   46503538.6935858     
   46503643.6833560     
   46503746.9790344     
   46503848.2268113     
   46503947.1033347     
   46504043.3146607     
   46504136.5952286     
   46504226.7068615     
   46504313.4377914     
   46504396.6017094     
   46504476.0368395     
   46504551.6050375     
   46504623.1909120     
   46504690.7009701     
   46504754.0627849     
   46504813.2241859     
   46504868.1524716     
   46504918.8336431     
   46504965.2716596     
   46505007.4877141     
   46505045.5195292     
   46505079.4206733     
   46505109.2598955     
   46505135.1204797     
   46505157.0996163     
   46505175.3077929     
   46505189.8682011     
   46505200.9161608     
   46505208.5985609     
   46505213.0733150     
   46505214.5088338     
   46219032.1146133     
   46219038.0894878     
   46219055.1486062     
   46219082.1434873     
   46219117.9865119     
   46219161.6491309     
   46219212.1601033     
   46219268.6037633     
   46219330.1183201     
   46219395.8941870     
   46219465.1723441     
   46219537.2427317     
   46219611.4426765     
   46219687.1553504     
   46219763.8082617     
   46219840.8717790     
   46219917.8576876     
   46219994.3177797     
   46220069.8424757     
   46220144.0594791     
   46220216.6324633     
   46220287.2597910     
   46220355.6732648     
   46220421.6369105     
   46220484.9457904     
   46220545.4248491     
   46220602.9277887     
   46220657.3359748     
   46220708.5573722     
   46220756.5255101     
   46220801.1984759     
   46220842.5579376     
   46220880.6081939     
   46220915.3752515     
   46220946.9059298     
   46220975.2669912     
   46221000.5442975     
   46221022.8419906     
   46221042.2816990     
   46221059.0017668     
   46221073.1565069     
   46221084.9154767     
   46221094.4627753     
   46221101.9963629     
   46221107.7274010     
   46221111.8796116     
   46221114.6886579     
   46221116.4015424     
   46221117.2760242     
   46221117.5800537     
   46221117.5912247     
   45921159.8978137     
   45921164.2232962     
   45921176.4120921     
   45921195.4265499     
   45921220.2934941     
   45921250.1021729     
   45921284.0022441     
   45921321.2018018     
   45921360.9654437     
   45921402.6123786     
   45921445.5145752     
   45921489.0949516     
   45921532.8256065     
   45921576.2260910     
   45921618.8617210     
   45921660.3419317     
   45921700.3186714     
   45921738.4848369     
   45921774.5727485     
   45921808.3526648     
   45921839.6313372     
   45921868.2506035     
   45921894.0860196     
   45921917.0455300     
   45921937.0681752     
   45921954.1228366     
   45921968.2070173     
   45921979.3456594     
   45921987.5899959     
   45921993.0164371     
   45921995.7254912     
   45921995.8407178     
   45921993.5077137     
   45921988.8931307     
   45921982.1837239     
   45921973.5854307     
   45921963.3224787     
   45921951.6365229     
   45921938.7858104     
   45921925.0443719     
   45921910.7012406     
   45921896.0596960     
   45921881.4365322     
   45921867.1613511     
   45921853.5758783     
   45921841.0333021     
   45921829.8976334     
   45921820.5430877     
   45921813.3534867     
   45921808.7216797     
   45921807.0489843     
   45607179.1460617     
   45607181.4332717     
   45607187.6152027     
   45607196.8062181     
   45607208.1881583     
   45607221.0080134     
   45607234.5756475     
   45607248.2615743     
   45607261.4947842     
   45607273.7606238     
   45607284.5987258     
   45607293.6009909     
   45607300.4096213     
   45607304.7152044     
   45607306.2548473     
   45607304.8103620     
   45607300.2064990     
   45607292.3092320     
   45607281.0240894     
   45607266.2945348     
   45607248.1003945     
   45607226.4563324     
   45607201.4103693     
   45607173.0424489     
   45607141.4630476     
   45607106.8118273     
   45607069.2563318     
   45607028.9907241     
   45606986.2345657     
   45606941.2316346     
   45606894.2487833     
   45606845.5748349     
   45606795.5195152     
   45606744.4124230     
   45606692.6020336     
   45606640.4547379     
   45606588.3539142     
   45606536.6990326     
   45606485.9047906     
   45606436.4002787     
   45606388.6281764     
   45606343.0439753     
   45606300.1152310     
   45606260.3208404     
   45606224.1503458     
   45606192.1032626     
   45606164.6884317     
   45606142.4233938     
   45606125.8337870     
   45606115.4527646     
   45606111.8204341     
   45275894.9146042     
   45275894.7403084     
   45275893.6796995     
   45275891.0455931     
   45275886.2204422     
   45275878.6537290     
   45275867.8594200     
   45275853.4134877     
   45275834.9514951     
   45275812.1662451     
   45275784.8054933     
   45275752.6697243     
   45275715.6099909     
   45275673.5258141     
   45275626.3631460     
   45275574.1123921     
   45275516.8064942     
   45275454.5190715     
   45275387.3626200     
   45275315.4867691     
   45275239.0765938     
   45275158.3509821     
   45275073.5610565     
   45274984.9886478     
   45274892.9448211     
   45274797.7684518     
   45274699.8248513     
   45274599.5044409     
   45274497.2214723     
   45274393.4127936     
   45274288.5366608     
   45274183.0715914     
   45274077.5152607     
   45273972.3834384     
   45273868.2089654     
   45273765.5407676     
   45273664.9429085     
   45273566.9936763     
   45273472.2847058     
   45273381.4201345     
   45273295.0157896     
   45273213.6984076     
   45273138.1048827     
   45273068.8815441     
   45273006.6834612     
   45272952.1737755     
   45272906.0230576     
   45272868.9086884     
   45272841.5142648     
   45272824.5290262     
   45272818.6473040     
   44926069.8725932     
   44926066.7810661     
   44926057.1488306     
   44926040.5390019     
   44926016.5853893     
   44925984.9896055     
   44925945.5182556     
   44925898.0002060     
   44925842.3239324     
   44925778.4349460     
   44925706.3332969     
   44925626.0711544     
   44925537.7504620     
   44925441.5206680     
   44925337.5765281     
   44925226.1559807     
   44925107.5380933     
   44924982.0410776     
   44924850.0203736     
   44924711.8668001     
   44924568.0047701     
   44924418.8905713     
   44924265.0107076     
   44924106.8803025     
   44923945.0415618     
   44923780.0622932     
   44923612.5344834     
   44923443.0729289     
   44923272.3139204     
   44923100.9139786     
   44922929.5486402     
   44922758.9112912     
   44922589.7120483     
   44922422.6766851     
   44922258.5456010     
   44922098.0728337     
   44921942.0251110     
   44921791.1809425     
   44921646.3297485     
   44921508.2710252     
   44921377.8135441     
   44921255.7745851     
   44921142.9792017     
   44921040.2595159     
   44920948.4540430     
   44920868.4070435     
   44920800.9679030     
   44920746.9905357     
   44920707.3328135     
   44920682.8560174     
   44920674.4243110     
   44556426.8105468     
   44556420.3168866     
   44556400.7005212     
   44556367.8321570     
   44556321.6528421     
   44556262.1708022     
   44556189.4583738     
   44556103.6490335     
   44556004.9345236     
   44555893.5620710     
   44555769.8316989     
   44555634.0936298     
   44555486.7457778     
   44555328.2313296     
   44555159.0364105     
   44554979.6878366     
   44554790.7509485     
   44554592.8275265     
   44554386.5537851     
   44554172.5984439     
   44553951.6608749     
   44553724.4693223     
   44553491.7791932     
   44553254.3714192     
   44553013.0508834     
   44552768.6449140     
   44552522.0018408     
   44552273.9896125     
   44552025.4944738     
   44551777.4196994     
   44551530.6843835     
   44551286.2222820     
   44551044.9807063     
   44550807.9194667     
   44550576.0098625     
   44550350.2337178     
   44550131.5824618     
   44549921.0562495     
   44549719.6631234     
   44549528.4182128     
   44549348.3429702     
   44549180.4644419     
   44549025.8145723     
   44548885.4295392     
   44548760.3491198     
   44548651.6160843     
   44548560.2756175     
   44548487.3747649     
   44548433.9619043     
   44548401.0862387     
   44548389.7973128     
   44165652.3887370     
   44165641.9839484     
   44165610.9027113     
   44165559.3859264     
   44165487.7427289     
   44165396.3470711     
   44165285.6344220     
   44165156.0985822     
   44165008.2886130     
   44164842.8058755     
   44164660.3011802     
   44164461.4720431     
   44164247.0600473     
   44164017.8483069     
   44163774.6590312     
   44163518.3511876     
   44163249.8182589     
   44162969.9860947     
   44162679.8108529     
   44162380.2770292     
   44162072.3955727     
   44161757.2020836     
   44161435.7550917     
   44161109.1344132     
   44160778.4395817     
   44160444.7883530     
   44160109.3152788     
   44159773.1703496     
   44159437.5177006     
   44159103.5343822     
   44158772.4091888     
   44158445.3415466     
   44158123.5404557     
   44157808.2234855     
   44157500.6158202     
   44157201.9493531     
   44156913.4618263     
   44156636.3960140     
   44156371.9989484     
   44156121.5211838     
   44155886.2160990     
   44155667.3392348     
   44155466.1476653     
   44155283.8994006     
   44155121.8528195     
   44154981.2661301     
   44154863.3968571     
   44154769.5013537     
   44154700.8343368     
   44154658.6484439     
   44154644.1938104     
   43752402.3110580     
   43752387.4692393     
   43752343.3954893     
   43752270.7684770     
   43752170.3308547     
   43752042.8856242     
   43751889.2926393     
   43751710.4652458     
   43751507.3670533     
   43751281.0088384     
   43751032.4455743     
   43750762.7735856     
   43750473.1278236     
   43750164.6792615     
   43749838.6324027     
   43749496.2229033     
   43749138.7153016     
   43748767.4008549     
   43748383.5954772     
   43747988.6377773     
   43747583.8871921     
   43747170.7222124     
   43746750.5386989     
   43746324.7482831     
   43745894.7768526     
   43745462.0631147     
   43745028.0572376     
   43744594.2195642     
   43744162.0193965     
   43743732.9338473     
   43743308.4467561     
   43742890.0476660     
   43742479.2308587     
   43742077.4944457     
   43741686.3395113     
   43741307.2693058     
   43740941.7884860     
   43740591.4024002     
   43740257.6164152     
   43739941.9352830     
   43739645.8625444     
   43739370.8999680     
   43739118.5470215     
   43738890.3003734     
   43738687.6534236     
   43738512.0958596     
   43738365.1132382     
   43738248.1865892     
   43738162.7920401     
   43738110.4004604     
   43738092.4771233     
   43315308.1188333     
   43315288.3068239     
   43315229.6945540     
   43315133.4704021     
   43315000.8799099     
   43314833.2219827     
   43314631.8452513     
   43314398.1445925     
   43314133.5578031     
   43313839.5624246     
   43313517.6727144     
   43313169.4367600     
   43312796.4337312     
   43312400.2712677     
   43311982.5829965     
   43311545.0261769     
   43311089.2794669     
   43310617.0408083     
   43310130.0254264     
   43309629.9639392     
   43309118.6005731     
   43308597.6914805     
   43308069.0031549     
   43307534.3109402     
   43306995.3976305     
   43306454.0521544     
   43305912.0683433     
   43305371.2437761     
   43304833.3786999     
   43304300.2750208     
   43303773.7353616     
   43303255.5621839     
   43302747.5569698     
   43302251.5194599     
   43301769.2469459     
   43301302.5336120     
   43300853.1699244     
   43300422.9420637     
   43300013.6313994     
   43299627.0140014     
   43299264.8601881     
   43298928.9341060     
   43298620.9933402     
   43298342.7885524     
   43298096.0631442     
   43297882.5529436     
   43297703.9859123     
   43297562.0818718     
   43297458.5522473     
   43297395.0998253     
   43297373.4185263     
   42852985.8054932     
   42852960.4953475     
   42852885.8169653     
   42852763.5438283     
   42852595.4967270     
   42852383.5398708     
   42852129.5771850     
   42851835.5487890     
   42851503.4276505     
   42851135.2164126     
   42850732.9443858     
   42850298.6647026     
   42849834.4516285     
   42849342.3980235     
   42848824.6129506     
   42848283.2194246     
   42847720.3522973     
   42847138.1562731     
   42846538.7840502     
   42845924.3945827     
   42845297.1514576     
   42844659.2213829     
   42844012.7727806     
   42843359.9744809     
   42842702.9945120     
   42842043.9989807     
   42841385.1510400     
   42840728.6099378     
   42840076.5301434     
   42839431.0605462     
   42838794.3437240     
   42838168.5152744     
   42837555.7032073     
   42836958.0273932     
   42836377.5990639     
   42835816.5203616     
   42835276.8839333     
   42834760.7725659     
   42834270.2588600     
   42833807.4049378     
   42833374.2621827     
   42832972.8710073     
   42832605.2606476     
   42832273.4489786     
   42831979.4423521     
   42831725.2354504     
   42831512.8111562     
   42831344.1404360     
   42831221.1822333     
   42831145.8833723     
   42831120.1784677     
   42364046.4549698     
   42364015.1396170     
   42363922.9320097     
   42363772.2682849     
   42363565.6185069     
   42363305.4827878     
   42362994.3876196     
   42362634.8824120     
   42362229.5362303     
   42361780.9347263     
   42361291.6772559     
   42360764.3741778     
   42360201.6443255     
   42359606.1126476     
   42358980.4080090     
   42358327.1611472     
   42357649.0027773     
   42356948.5618387     
   42356228.4638787     
   42355491.3295650     
   42354739.7733227     
   42353976.4020879     
   42353203.8141745     
   42352424.5982449     
   42351641.3323826     
   42350856.5832574     
   42350072.9053811     
   42349292.8404449     
   42348518.9167358     
   42347753.6486255     
   42346999.5361270     
   42346259.0645144     
   42345534.7039996     
   42344828.9094641     
   42344144.1202379     
   42343482.7599241     
   42342847.2362633     
   42342239.9410348     
   42341663.2499895     
   42341119.5228118     
   42340611.1031070     
   42340140.3184101     
   42339709.4802130     
   42339320.8840074     
   42338976.8093401     
   42338679.5198785     
   42338431.2634825     
   42338234.2722822     
   42338090.7627576     
   42338002.9358187     
   42337972.9768850     
   41847109.1026879     
   41847071.3151140     
   41846960.2359546     
   41846779.0419791     
   41846530.9264633     
   41846219.0954487     
   41845846.7642396     
   41845417.1541313     
   41844933.4893611     
   41844398.9942739     
   41843816.8906951     
   41843190.3955022     
   41842522.7183874     
   41841817.0598037     
   41841076.6090862     
   41840304.5427408     
   41839504.0228935     
   41838678.1958906     
   41837830.1910453     
   41836963.1195203     
   41836080.0733405     
   41835184.1245293     
   41834278.3243590     
   41833365.7027113     
   41832449.2675388     
   41831532.0044218     
   41830616.8762136     
   41829706.8227683     
   41828804.7607446     
   41827913.5834790     
   41827036.1609236     
   41826175.3396427     
   41825333.9428613     
   41824514.7705620     
   41823720.5996238     
   41822954.1839989     
   41822218.2549220     
   41821515.5211471     
   41820848.6692099     
   41820220.3637076     
   41819633.2475960     
   41819089.9424983     
   41818593.0490215     
   41818145.1470787     
   41817748.7962125     
   41817406.5359181     
   41817120.8859619     
   41816894.3466938     
   41816729.3993512     
   41816628.5063514     
   41816594.1115718     
   41300816.0067543     
   41300771.3429907     
   41300640.2380909     
   41300426.6856165     
   41300134.6736560     
   41299768.1813851     
   41299331.1758927     
   41298827.6092608     
   41298261.4158911     
   41297636.5100659     
   41296956.7837355     
   41296226.1045216     
   41295448.3139271     
   41294627.2257429     
   41293766.6246421     
   41292870.2649527     
   41291941.8695983     
   41290985.1292000     
   41290003.7013278     
   41289001.2098947     
   41287981.2446840     
   41286947.3610014     
   41285903.0794437     
   41284851.8857755     
   41283797.2309067     
   41282742.5309625     
   41281691.1674384     
   41280646.4874326     
   41279611.8039498     
   41278590.3962675     
   41277585.5103602     
   41276600.3593732     
   41275638.1241412     
   41274701.9537445     
   41273794.9660982     
   41272920.2485673     
   41272080.8586037     
   41271279.8244000     
   41270520.1455539     
   41269804.7937403     
   41269136.7133856     
   41268518.8223402     
   41267954.0125467     
   41267445.1506975     
   41266995.0788812     
   41266606.6152128     
   41266282.5544459     
   41266025.6685632     
   41265838.7073442     
   41265724.3989061     
   41265685.4502183     
   40723850.4968436     
   40723798.6429641     
   40723646.6252216     
   40723399.3254937     
   40723061.5931397     
   40722638.2420644     
   40722134.0480717     
   40721553.7464968     
   40720902.0301035     
   40720183.5472368     
   40719402.9002170     
   40718564.6439651     
   40717673.2848468     
   40716733.2797254     
   40715749.0352098     
   40714724.9070891     
   40713665.1999412     
   40712574.1669052     
   40711456.0096073     
   40710314.8782295     
   40709154.8717110     
   40707980.0380729     
   40706794.3748563     
   40705601.8296635     
   40704406.3007951     
   40703211.6379718     
   40702021.6431349     
   40700840.0713137     
   40699670.6315556     
   40698516.9879074     
   40697382.7604429     
   40696271.5263285     
   40695186.8209188     
   40694132.1388778     
   40693110.9353171     
   40692126.6269455     
   40691182.5932254     
   40690282.1775283     
   40689428.6882857     
   40688625.4001300     
   40687875.5550203     
   40687182.3633486     
   40686549.0050238     
   40685978.6305266     
   40685474.3619354     
   40685039.2939166     
   40684676.4946786     
   40684389.0068860     
   40684179.8485309     
   40684052.0137605     
   40684008.4736579     
   40114957.5377443     
   40114898.3009412     
   40114724.8410464     
   40114442.9916766     
   40114058.5213515     
   40113577.1313058     
   40113004.4536131     
   40112346.0496079     
   40111607.4085913     
   40110793.9468062     
   40109911.0066669     
   40108963.8562316     
   40107957.6889011     
   40106897.6233330     
   40105788.7035561     
   40104635.8992736     
   40103444.1063413     
   40102218.1474084     
   40100962.7727099     
   40099682.6609969     
   40098382.4205949     
   40097066.5905768     
   40095739.6420427     
   40094405.9794917     
   40093069.9422794     
   40091735.8061477     
   40090407.7848200     
   40089090.0316496     
   40087786.6413146     
   40086501.6515495     
   40085239.0449046     
   40084002.7505267     
   40082796.6459512     
   40081624.5589003     
   40080490.2690789     
   40079397.5099618     
   40078349.9705665     
   40077351.2972037     
   40076405.0952028     
   40075514.9306033     
   40074684.3318110     
   40073916.7912106     
   40073215.7667329     
   40072584.6833721     
   40072026.9346484     
   40071545.8840131     
   40071144.8661947     
   40070827.1884802     
   40070596.1319322     
   40070454.9525381     
   40070406.8822898     
   39472967.1020176     
   39472900.4456458     
   39472705.4741608     
   39472389.0240685     
   39471957.8282705     
   39471418.5149152     
   39470777.6065809     
   39470041.5197701     
   39469216.5647014     
   39468308.9453794     
   39467324.7599275     
   39466270.0011670     
   39465150.5574266     
   39463972.2135660     
   39462740.6521998     
   39461461.4551046     
   39460140.1047970     
   39458781.9862658     
   39457392.3888471     
   39455976.5082262     
   39454539.4485553     
   39453086.2246731     
   39451621.7644139     
   39450150.9109948     
   39448678.4254693     
   39447208.9892360     
   39445747.2065910     
   39444297.6073154     
   39442864.6492856     
   39441452.7210988     
   39440066.1447036     
   39438709.1780267     
   39437386.0175883     
   39436100.8010969     
   39434857.6100171     
   39433660.4721024     
   39432513.3638864     
   39431420.2131266     
   39430384.9011934     
   39429411.2653999     
   39428503.1012666     
   39427664.1647162     
   39426898.1741946     
   39426208.8127120     
   39425599.7298034     
   39425074.5434024     
   39424636.8416267     
   39424290.1844720     
   39424038.1054131     
   39423884.1129086     
   39423831.6918094     
   38796820.3902490     
   38796746.4724713     
   38796530.4921363     
   38796180.3225840     
   38795703.6888321     
   38795108.1678129     
   38794401.1889501     
   38793590.0350572     
   38792681.8435363     
   38791683.6078575     
   38790602.1793008     
   38789444.2689404     
   38788216.4498535     
   38786925.1595362     
   38785576.7025077     
   38784177.2530872     
   38782732.8583263     
   38781249.4410802     
   38779732.8032035     
   38778188.6288545     
   38776622.4878939     
   38775039.8393628     
   38773446.0350288     
   38771846.3229836     
   38770245.8512826     
   38768649.6716127     
   38767062.7429767     
   38765489.9353839     
   38763936.0335357     
   38762405.7404952     
   38760903.6813325     
   38759434.4067355     
   38758002.3965769     
   38756612.0634304     
   38755267.7560261     
   38753973.7626395     
   38752734.3144056     
   38751553.5885526     
   38750435.7115472     
   38749384.7621478     
   38748404.7743583     
   38747499.7402791     
   38746673.6128488     
   38745930.3084749     
   38745273.7095475     
   38744707.6668335     
   38744236.0017493     
   38743862.5085078     
   38743590.9561389     
   38743425.0903811     
   38743368.6354437     
   38085598.8666894     
   38085518.0820134     
   38085282.2881197     
   38084900.4061871     
   38084381.1580378     
   38083733.0681565     
   38082964.4660522     
   38082083.4889371     
   38081098.0847006     
   38080016.0151547     
   38078844.8595300     
   38077592.0181993     
   38076264.7166091     
   38074870.0093982     
   38073414.7846842     
   38071905.7684981     
   38070349.5293498     
   38068752.4829053     
   38067120.8967602     
   38065460.8952912     
   38063778.4645715     
   38062079.4573332     
   38060369.5979638     
   38058654.4875207     
   38056939.6087519     
   38055230.3311099     
   38053531.9157454     
   38051849.5204695     
   38050188.2046746     
   38048552.9342006     
   38046948.5861389     
   38045379.9535630     
   38043851.7501769     
   38042368.6148728     
   38040935.1161903     
   38039555.7566682     
   38038234.9770831     
   38036977.1605674     
   38035786.6365999     
   38034667.6848641     
   38033624.5389681     
   38032661.3900211     
   38031782.3900628     
   38030991.6553401     
   38030293.2694290     
   38029691.2861973     
   38029189.7326060     
   38028792.6113465     
   38028503.9033127     
   38028327.5699048     
   38028267.5551659     
   37338555.9917426     
   37338469.0142922     
   37338215.4196244     
   37337805.1582762     
   37337247.9242099     
   37336553.1590728     
   37335730.0567837     
   37334787.5684205     
   37333734.4073804     
   37332579.0547886     
   37331329.7651297     
   37329994.5720779     
   37328581.2945029     
   37327097.5426290     
   37325550.7243255     
   37323948.0515083     
   37322296.5466325     
   37320603.0492556     
   37318874.2226559     
   37317116.5604853     
   37315336.3934420     
   37313539.8959458     
   37311733.0928018     
   37309921.8658371     
   37308111.9604965     
   37306308.9923856     
   37304518.4537462     
   37302745.7198545     
   37300996.0553300     
   37299274.6203438     
   37297586.4767166     
   37295936.5938979     
   37294329.8548153     
   37292771.0615878     
   37291264.9410925     
   37289816.1503797     
   37288429.2819278     
   37287108.8687319     
   37285859.3892194     
   37284685.2719882     
   37283590.9003613     
   37282580.6167523     
   37281658.7268391     
   37280829.5035409     
   37280097.1907942     
   37279466.0071264     
   37278940.1490231     
   37278523.7940867     
   37278221.1039858     
   37278036.2271933     
   37277973.3015115     
   36555151.4303575     
   36555059.2571378     
   36554790.8162733     
   36554357.0323469     
   36553768.5104356     
   36553035.5431225     
   36552168.1178021     
   36551175.9242474     
   36550068.3624099     
   36548854.5504236     
   36547543.3327843     
   36546143.2886795     
   36544662.7404420     
   36543109.7621037     
   36541492.1880265     
   36539817.6215878     
   36538093.4438997     
   36536326.8225428     
   36534524.7202933     
   36532693.9038283     
   36530840.9523903     
   36528972.2663953     
   36527094.0759695     
   36525212.4493996     
   36523333.3014845     
   36521462.4017732     
   36519605.3826801     
   36517767.7474627     
   36515954.8780546     
   36514172.0427414     
   36512424.4036705     
   36510717.0241868     
   36509054.8759850     
   36507442.8460719     
   36505885.7435291     
   36504388.3060723     
   36502955.2063983     
   36501591.0583144     
   36500300.4226452     
   36499087.8129105     
   36497957.7007705     
   36496914.5212329     
   36495962.6776176     
   36495106.5462769     
   36494350.4810653     
   36493698.8175583     
   36493155.8770155     
   36492725.9700875     
   36492413.4002635     
   36492222.4670595     
   36492157.4689446     
   35735087.3971619     
   35734991.3888453     
   35734712.1144186     
   35734261.3722943     
   35733650.5736492     
   35732890.7527543     
   35731992.5775367     
   35730966.3603397     
   35729822.0688470     
   35728569.3371406     
   35727217.4768622     
   35725775.4884489     
   35724252.0724183     
   35722655.6406753     
   35720994.3278183     
   35719276.0024202     
   35717508.2782658     
   35715698.5255220     
   35713853.8818253     
   35711981.2632669     
   35710087.3752600     
   35708178.7232740     
   35706261.6234208     
   35704342.2128813     
   35702426.4601581     
   35700520.1751446     
   35698629.0189989     
   35696758.5138138     
   35694914.0520726     
   35693100.9058831     
   35691324.2359821     
   35689589.1005021     
   35687900.4634953     
   35686263.2032058     
   35684682.1200872     
   35683161.9445575     
   35681707.3444873     
   35680322.9324159     
   35679013.2724905     
   35677782.8871252     
   35676636.2633729     
   35675577.8590096     
   35674612.1083243     
   35673743.4276125     
   35672976.2203697     
   35672314.8821818     
   35671763.8053097     
   35671327.3829647     
   35671010.0132743     
   35670816.1029352     
   35670750.0705523     
   34878346.6663066     
   34878248.5821471     
   34877963.6429879     
   34877504.3672772     
   34876882.8151970     
   34876110.6029210     
   34875198.9170096     
   34874158.5289009     
   34872999.8094652     
   34871732.7435879     
   34870366.9447503     
   34868911.6695775     
   34867375.8323281     
   34865768.0192972     
   34864096.5031111     
   34862369.2568902     
   34860593.9682604     
   34858778.0531940     
   34856928.6696628     
   34855052.7310876     
   34853156.9195708     
   34851247.6988974     
   34849331.3272952     
   34847413.8699412     
   34845501.2112062     
   34843599.0666297     
   34841712.9946161     
   34839848.4078462     
   34838010.5843989     
   34836204.6785760     
   34834435.7314269     
   34832708.6809671     
   34831028.3720886     
   34829399.5661564     
   34827826.9502888     
   34826315.1463181     
   34824868.7194275     
   34823492.1864623     
   34822190.0239116     
   34820966.6755569     
   34819826.5597850     
   34818774.0765618     
   34817813.6140637     
   34816949.5549623     
   34816186.2823609     
   34815528.1853774     
   34814979.6643714     
   34814545.1358115     
   34814229.0367806     
   34814035.8291148     
   34813970.0031736     
   33985231.6288268     
   33985133.6511979     
   33984849.4389607     
   33984392.0141684     
   33983773.8685224     
   33983006.9822012     
   33982102.8426815     
   33981072.4635121     
   33979926.4030038     
   33978674.7827999     
   33977327.3062970     
   33975893.2768843     
   33974381.6159771     
   33972800.8808172     
   33971159.2820205     
   33969464.7008497     
   33967724.7061960     
   33965946.5712527     
   33964137.2898677     
   33962303.5925638     
   33960451.9622141     
   33958588.6493677     
   33956719.6872160     
   33954850.9061945     
   33952987.9482175     
   33951136.2805399     
   33949301.2092459     
   33947487.8923623     
   33945701.3525958     
   33943946.4896931     
   33942228.0924262     
   33940550.8502009     
   33938919.3642899     
   33937338.1586923     
   33935811.6906170     
   33934344.3605941     
   33932940.5222104     
   33931604.4914718     
   33930340.5557898     
   33929152.9825915     
   33928046.0275518     
   33927023.9424443     
   33926090.9826095     
   33925251.4140358     
   33924509.5200496     
   33923869.6076116     
   33923336.0132115     
   33922913.1083600     
   33922605.3046689     
   33922417.0585167     
   33922352.8752933     
   33056403.6268638     
   33056308.3695845     
   33056032.5165846     
   33055589.3053225     
   33054991.3729529     
   33054250.7803747     
   33053379.0360724     
   33052387.1197092     
   33051285.5054335     
   33050084.1848635     
   33048792.6897204     
   33047420.1140820     
   33045975.1362307     
   33044466.0400758     
   33042900.7361302     
   33041286.7820268     
   33039631.4025617     
   33037941.5092527     
   33036223.7194072     
   33034484.3746936     
   33032729.5592122     
   33030965.1170664     
   33029196.6694340     
   33027429.6311410     
   33025669.2267424     
   33023920.5061154     
   33022188.3595703     
   33020477.5324869     
   33018792.6394837     
   33017138.1781277     
   33015518.5421936     
   33013938.0344784     
   33012400.8791821     
   33010911.2338590     
   33009473.2009480     
   33008090.8388866     
   33006768.1728148     
   33005509.2048720     
   33004317.9240890     
   33003198.3158791     
   33002154.3711254     
   33001190.0948661     
   33000309.5145738     
   32999516.6880255     
   32998815.7107592     
   32998210.7231096     
   32997705.9168167     
   32997305.5411987     
   32997013.9088798     
   32996835.4010635     
   32996774.4723375     
   32092921.6385684     
   32092832.1316694     
   32092573.4581433     
   32092158.7021216     
   32091600.2839418     
   32090909.9900584     
   32090099.0024695     
   32089177.9276218     
   32088156.8247584     
   32087045.2336754     
   32085852.2018587     
   32084586.3109753     
   32083255.7026992     
   32081868.1038559     
   32080430.8508716     
   32078950.9135200     
   32077434.9179604     
   32075889.1690666     
   32074319.6720485     
   32072732.1533714     
   32071132.0809818     
   32069524.6838494     
   32067914.9708399     
   32066307.7489327     
   32064707.6408011     
   32063119.1017723     
   32061546.4361895     
   32059993.8131916     
   32058465.2819360     
   32056964.7862819     
   32055496.1789548     
   32054063.2352131     
   32052669.6660349     
   32051319.1308419     
   32050015.2497778     
   32048761.6155544     
   32047561.8048790     
   32046419.3894725     
   32045337.9466868     
   32044321.0697275     
   32043372.3774843     
   32042495.5239710     
   32041694.2073720     
   32040972.1786916     
   32040333.2499991     
   32039781.3022604     
   32039320.2927447     
   32038954.2619916     
   32038687.3403226     
   32038523.7538807     
   32038467.8301871     
   31096279.2398774     
   31096198.8817179     
   31095967.2457416     
   31095596.8055453     
   31095099.3196584     
   31094485.8678833     
   31093766.8868162     
   31092952.2044916     
   31092051.0741098     
   31091072.2068163     
   31090023.8035094     
   31088913.5856551     
   31087748.8250939     
   31086536.3728313     
   31085282.6868067     
   31083993.8586450     
   31082675.6393954     
   31081333.4642719     
   31079972.4764109     
   31078597.5496672     
   31077213.3104746     
   31075824.1587992     
   31074434.2882178     
   31073047.7051563     
   31071668.2473238     
   31070299.6013838     
   31068945.3198987     
   31067608.8375907     
   31066293.4869583     
   31065002.5132874     
   31063739.0890980     
   31062506.3280623     
   31061307.2984296     
   31060145.0359923     
   31059022.5566224     
   31057942.8684052     
   31056908.9833956     
   31055923.9290151     
   31054990.7591058     
   31054112.5646548     
   31053292.4841934     
   31052533.7138769     
   31051839.5172426     
   31051213.2346387     
   31050658.2923160     
   31050178.2111658     
   31049776.6150851     
   31049457.2389500     
   31049223.9361705     
   31049080.6857906     
   31049031.5990792     
   30068438.6455043     
   30068371.1115499     
   30068177.1293734     
   30067868.0099858     
   30067454.3174937     
   30066945.9125096     
   30066351.9942278     
   30065681.1411378     
   30064941.3503599     
   30064140.0755702     
   30063284.2634892     
   30062380.3889151     
   30061434.4882965     
   30060452.1918449     
   30059438.7541971     
   30058399.0836441     
   30057337.7699508     
   30056259.1107994     
   30055167.1368955     
   30054065.6357823     
   30052958.1744148     
   30051848.1205514     
   30050738.6630222     
   30049632.8309409     
   30048533.5119257     
   30047443.4693998     
   30046365.3590415     
   30045301.7444541     
   30044255.1121265     
   30043227.8857525     
   30042222.4399760     
   30041241.1136241     
   30040286.2224918     
   30039360.0717289     
   30038464.9678861     
   30037603.2306608     
   30036777.2043868     
   30035989.2692985     
   30035241.8525992     
   30034537.4393517     
   30033878.5832067     
   30033267.9169725     
   30032708.1630265     
   30032202.1435602     
   30031752.7906417     
   30031363.1560750     
   30031036.4210215     
   30030775.9053465     
   30030585.0766450     
   30030467.5589303     
   30030427.1409730     
   29011860.5608740     
   29011809.6556338     
   29011664.2542949     
   29011433.8530132     
   29011127.1982678     
   29010752.3376779     
   29010316.6689598     
   29009826.9870168     
   29009289.5290326     
   29008710.0175158     
   29008093.7012751     
   29007445.3943212     
   29006769.5126965     
   29006070.1092454     
   29005350.9063511     
   29004615.3266776     
   29003866.5219704     
   29003107.3999793     
   29002340.6495813     
   29001568.7641843     
   29000794.0635095     
   29000018.7138482     
   28999244.7469028     
   28998474.0773193     
   28997708.5190278     
   28996949.8005036     
   28996199.5790681     
   28995459.4543421     
   28994730.9809664     
   28994015.6807005     
   28993315.0540038     
   28992630.5912022     
   28991963.7833345     
   28991316.1327661     
   28990689.1636512     
   28990084.4323157     
   28989503.5376232     
   28988948.1313787     
   28988419.9288123     
   28987920.7191786     
   28987452.3764910     
   28987016.8704040     
   28986616.2772406     
   28986252.7911523     
   28985928.7353869     
   28985646.5736334     
   28985408.9214055     
   28985218.5574171     
   28985078.4348631     
   28984991.6924358     
   28984961.6649537     
   27929528.6084552     
   27929498.0480452     
   27929411.8035382     
   27929276.8018876     
   27929099.2572579     
   27928884.7303215     
   27928638.1851479     
   27928364.0430178     
   27928066.2332908     
   27927748.2413810     
   27927413.1538114     
   27927063.7003162     
   27926702.2929876     
   27926331.0625008     
   27925951.8914787     
   27925566.4450826     
   27925176.1989330     
   27924782.4644830     
   27924386.4119807     
   27923989.0911709     
   27923591.4498984     
   27923194.3507819     
   27922798.5861385     
   27922404.8913379     
   27922013.9567720     
   27921626.4386202     
   27921242.9685940     
   27920864.1628354     
   27920490.6301419     
   27920122.9796836     
   27919761.8283686     
   27919407.8080091     
   27919061.5724262     
   27918723.8046257     
   27918395.2241633     
   27918076.5948081     
   27917768.7325987     
   27917472.5143743     
   27917188.8868465     
   27916918.8762684     
   27916663.5987354     
   27916424.2711452     
   27916202.2228213     
   27915998.9077886     
   27915815.9176655     
   27915654.9951053     
   27915518.0477015     
   27915407.1622771     
   27915324.6195717     
   27915272.9094609     
   27915254.7463480     
   26824967.3574170     
   26824960.4510957     
   26824942.6499724     
   26824917.4448738     
   26824887.7077039     
   26824855.7615123     
   26824823.4443495     
   26824792.1698947     
   26824762.9844425     
   26824736.6197016     
   26824713.5411801     
   26824693.9921510     
   26824678.0332918     
   26824665.5781258     
   26824656.4244136     
   26824650.2816691     
   26824646.7949982     
   26824645.5654911     
   26824646.1674240     
   26824648.1625442     
   26824651.1117325     
   26824654.5843348     
   26824658.1654614     
   26824661.4615431     
   26824664.1044249     
   26824665.7542674     
   26824666.1015121     
   26824664.8681534     
   26824661.8085486     
   26824656.7099840     
   26824649.3932044     
   26824639.7131040     
   26824627.5597657     
   26824612.8600283     
   26824595.5797487     
   26824575.7269182     
   26824553.3557760     
   26824528.5720482     
   26824501.5394228     
   26824472.4873480     
   26824441.7202185     
   26824409.6279942     
   26824376.6982760     
   26824343.5298512     
   26824310.8477158     
   26824279.5195569     
   26824250.5736131     
   26824225.2176461     
   26824204.8584599     
   26824191.1213504     
   26824185.8710911     
   25702253.6436969     
   25702272.8901512     
   25702330.2156240     
   25702424.6989828     
   25702554.9742097     
   25702719.3028440     
   25702915.6535913     
   25703141.7748370     
   25703395.2584830     
   25703673.5960497     
   25703974.2278820     
   25704294.5858726     
   25704632.1298814     
   25704984.3780038     
   25705348.9309258     
   25705723.4907202     
   25706105.8745432     
   25706494.0237611     
   25706886.0090708     
   25707280.0321824     
   25707674.4246110     
   25708067.6440903     
   25708458.2690746     
   25708844.9917499     
   25709226.6099282     
   25709602.0181527     
   25709970.1983074     
   25710330.2099900     
   25710681.1808819     
   25711022.2973311     
   25711352.7953521     
   25711671.9522409     
   25711979.0790019     
   25712273.5137914     
   25712554.6165872     
   25712821.7653033     
   25713074.3535804     
   25713311.7904821     
   25713533.5023261     
   25713738.9368608     
   25713927.5699619     
   25714098.9149692     
   25714252.5347131     
   25714388.0562010     
   25714505.1878914     
   25714603.7395244     
   25714683.6446803     
   25714744.9866273     
   25714788.0282758     
   25714813.2456862     
   25714821.3563998     
   24566022.9241101     
   24566069.2467072     
   24566203.8165641     
   24566420.1527178     
   24566711.5817505     
   24567071.3939006     
   24567492.9304964     
   24567969.6530569     
   24568495.2058628     
   24569063.4718260     
   24569668.6192279     
   24570305.1376473     
   24570967.8626746     
   24571651.9900225     
   24572353.0802543     
   24573067.0556254     
   24573790.1905651     
   24574519.0972333     
   24575250.7074102     
   24575982.2517833     
   24576711.2375039     
   24577435.4247037     
   24578152.8025104     
   24578861.5649698     
   24579560.0871753     
   24580246.9018224     
   24580920.6763427     
   24581580.1907229     
   24582224.3160861     
   24582851.9940926     
   24583462.2172160     
   24584054.0099552     
   24584626.4110652     
   24585178.4569195     
   24585709.1661644     
   24586217.5258798     
   24586702.4795347     
   24587162.9171076     
   24587597.6678289     
   24588005.4960981     
   24588385.1011957     
   24588735.1214503     
   24589054.1434694     
   24589340.7168602     
   24589593.3744778     
   24589810.6575929     
   24589991.1445399     
   24590133.4808290     
   24590236.4098706     
   24590298.8105343     
   24590319.7715212     
   23421475.6553804     
   23421547.9829487     
   23421754.4929883     
   23422081.6663935     
   23422516.5549299     
   23423046.6611837     
   23423660.0175269     
   23424345.3063255     
   23425091.9604844     
   23425890.2267613     
   23426731.1922550     
   23427606.7807791     
   23428509.7270491     
   23429433.5358167     
   23430372.4316831     
   23431321.3039027     
   23432275.6492684     
   23433231.5151986     
   23434185.4444139     
   23435134.4220484     
   23436075.8256538     
   23437007.3782857     
   23437927.1046717     
   23438833.2903398     
   23439724.4435046     
   23440599.2594594     
   23441456.5871978     
   23442295.3979722     
   23443114.7555010     
   23443913.7875366     
   23444691.6585253     
   23445447.5431050     
   23446180.6002151     
   23446889.9476300     
   23447574.6367742     
   23448233.6277505     
   23448865.7646041     
   23449469.7509859     
   23450044.1265649     
   23450587.2448041     
   23451097.2530742     
   23451572.0765591     
   23452009.4080172     
   23452406.7061945     
   23452761.2064169     
   23453069.9473423     
   23453329.8172590     
   23453537.6199956     
   23453690.1507396     
   23453784.2479423     
   23453816.7324313     
   22274407.7721907     
   22274498.2835066     
   22274755.6900677     
   22275158.6531971     
   22275685.9560494     
   22276317.7689917     
   22277036.1793970     
   22277825.3323519     
   22278671.3738112     
   22279562.3011163     
   22280487.7775074     
   22281438.9403915     
   22282408.2182459     
   22283389.1628637     
   22284376.2992379     
   22285364.9930759     
   22286351.3348079     
   22287332.0384636     
   22288304.3536565     
   22289265.9889576     
   22290215.0450612     
   22291149.9563101     
   22292069.4393064     
   22292972.4474890     
   22293858.1306959     
   22294725.7988473     
   22295574.8889826     
   22296404.9349664     
   22297215.5392389     
   22298006.3460323     
   22298777.0155044     
   22299527.1982576     
   22300256.5097084     
   22300964.5037641     
   22301650.6452350     
   22302314.2803714     
   22302954.6048709     
   22303570.6286472     
   22304161.1366123     
   22304724.6447075     
   22305259.3504798     
   22305763.0776993     
   22306233.2150040     
   22306666.6495782     
   22307059.6988848     
   22307408.0473101     
   22307706.7017460     
   22307949.9933885     
   22308131.6773523     
   22308245.2260891     
   22308284.4930149     
   21131296.2715722     
   21131398.2254903     
   21131666.3158278     
   21132060.0216776     
   21132548.8680998     
   21133109.5911863     
   21133724.1986216     
   21134378.6198202     
   21135061.7494721     
   21135764.7577903     
   21136480.5846283     
   21137203.5625137     
   21137929.1315648     
   21138653.6209197     
   21139374.0790237     
   21140088.1402953     
   21140793.9192207     
   21141489.9253654     
   21142174.9945036     
   21142848.2322811     
   21143508.9677028     
   21144156.7143712     
   21144791.1378702     
   21145412.0280332     
   21146019.2750903     
   21146612.8488851     
   21147192.7804881     
   21147759.1456419     
   21148312.0495459     
   21148851.6125355     
   21149377.9562383     
   21149891.1897940     
   21150391.3957078     
   21150878.6148674     
   21151352.8301808     
   21151813.9481885     
   21152261.7778433     
   21152696.0054286     
   21153116.1642613     
   21153521.5973635     
   21153911.4106163     
   21154284.4129221     
   21154639.0384426     
   21154973.2437702     
   21155284.3695205     
   21155568.9506023     
   21155822.4512046     
   21156038.8875170     
   21156210.2804360     
   21156325.8475186     
   21156370.7919209     
   20000000.0000000     
   20000000.0000000     
   20000000.0000000     
   20000000.0000000     
   20000000.0000000     
   20000000.0000000     
   20000000.0000000     
   20000000.0000000     
   20000000.0000000     
   20000000.0000000     
   20000000.0000000     
   20000000.0000000     
   20000000.0000000     
   20000000.0000000     
   20000000.0000000     
   20000000.0000000     
   20000000.0000000     
   20000000.0000000     
   20000000.0000000     
   20000000.0000000     
   20000000.0000000     
   20000000.0000000     
   20000000.0000000     
   20000000.0000000     
   20000000.0000000     
   20000000.0000000     
   20000000.0000000     
   20000000.0000000     
   20000000.0000000     
   20000000.0000000     
   20000000.0000000     
   20000000.0000000     
   20000000.0000000     
   20000000.0000000     
   20000000.0000000     
   20000000.0000000     
   20000000.0000000     
   20000000.0000000     
   20000000.0000000     
   20000000.0000000     
   20000000.0000000     
   20000000.0000000     
   20000000.0000000     
   20000000.0000000     
   20000000.0000000     
   20000000.0000000     
   20000000.0000000     
   20000000.0000000     
   20000000.0000000     
   20000000.0000000     
   20000000.0000000     
VECTORS u double 
    0.00000E+00         0.68746E-01         0.00000E+00
    0.00000E+00         0.67407E-01         0.00000E+00
    0.00000E+00         0.66064E-01         0.00000E+00
    0.00000E+00         0.64719E-01         0.00000E+00
    0.00000E+00         0.63373E-01         0.00000E+00
    0.00000E+00         0.62027E-01         0.00000E+00
    0.00000E+00         0.60681E-01         0.00000E+00
    0.00000E+00         0.59335E-01         0.00000E+00
    0.00000E+00         0.57990E-01         0.00000E+00
    0.00000E+00         0.56645E-01         0.00000E+00
    0.00000E+00         0.55301E-01         0.00000E+00
    0.00000E+00         0.53957E-01         0.00000E+00
    0.00000E+00         0.52613E-01         0.00000E+00
    0.00000E+00         0.51270E-01         0.00000E+00
    0.00000E+00         0.49927E-01         0.00000E+00
    0.00000E+00         0.48584E-01         0.00000E+00
    0.00000E+00         0.47242E-01         0.00000E+00
    0.00000E+00         0.45899E-01         0.00000E+00
    0.00000E+00         0.44557E-01         0.00000E+00
    0.00000E+00         0.43214E-01         0.00000E+00
    0.00000E+00         0.41870E-01         0.00000E+00
    0.00000E+00         0.40526E-01         0.00000E+00
    0.00000E+00         0.39181E-01         0.00000E+00
    0.00000E+00         0.37836E-01         0.00000E+00
    0.00000E+00         0.36489E-01         0.00000E+00
    0.00000E+00         0.35140E-01         0.00000E+00
    0.00000E+00         0.33791E-01         0.00000E+00
    0.00000E+00         0.32439E-01         0.00000E+00
    0.00000E+00         0.31085E-01         0.00000E+00
    0.00000E+00         0.29729E-01         0.00000E+00
    0.00000E+00         0.28370E-01         0.00000E+00
    0.00000E+00         0.27008E-01         0.00000E+00
    0.00000E+00         0.25643E-01         0.00000E+00
    0.00000E+00         0.24275E-01         0.00000E+00
    0.00000E+00         0.22903E-01         0.00000E+00
    0.00000E+00         0.21527E-01         0.00000E+00
    0.00000E+00         0.20146E-01         0.00000E+00
    0.00000E+00         0.18760E-01         0.00000E+00
    0.00000E+00         0.17368E-01         0.00000E+00
    0.00000E+00         0.15971E-01         0.00000E+00
    0.00000E+00         0.14568E-01         0.00000E+00
    0.00000E+00         0.13157E-01         0.00000E+00
    0.00000E+00         0.11739E-01         0.00000E+00
    0.00000E+00         0.10312E-01         0.00000E+00
    0.00000E+00         0.88769E-02         0.00000E+00
    0.00000E+00         0.74312E-02         0.00000E+00
    0.00000E+00         0.59744E-02         0.00000E+00
    0.00000E+00         0.45049E-02         0.00000E+00
    0.00000E+00         0.30211E-02         0.00000E+00
    0.00000E+00         0.15206E-02         0.00000E+00
    0.00000E+00         0.00000E+00         0.00000E+00
    0.39308E-02         0.68187E-01         0.00000E+00
    0.37519E-02         0.66890E-01         0.00000E+00
    0.35998E-02         0.65584E-01         0.00000E+00
    0.34672E-02         0.64272E-01         0.00000E+00
    0.33493E-02         0.62955E-01         0.00000E+00
    0.32429E-02         0.61634E-01         0.00000E+00
    0.31457E-02         0.60311E-01         0.00000E+00
    0.30561E-02         0.58985E-01         0.00000E+00
    0.29728E-02         0.57658E-01         0.00000E+00
    0.28948E-02         0.56330E-01         0.00000E+00
    0.28212E-02         0.55000E-01         0.00000E+00
    0.27514E-02         0.53670E-01         0.00000E+00
    0.26849E-02         0.52339E-01         0.00000E+00
    0.26211E-02         0.51008E-01         0.00000E+00
    0.25598E-02         0.49676E-01         0.00000E+00
    0.25004E-02         0.48344E-01         0.00000E+00
    0.24428E-02         0.47011E-01         0.00000E+00
    0.23867E-02         0.45678E-01         0.00000E+00
    0.23318E-02         0.44344E-01         0.00000E+00
    0.22778E-02         0.43010E-01         0.00000E+00
    0.22247E-02         0.41675E-01         0.00000E+00
    0.21721E-02         0.40338E-01         0.00000E+00
    0.21200E-02         0.39001E-01         0.00000E+00
    0.20682E-02         0.37662E-01         0.00000E+00
    0.20164E-02         0.36322E-01         0.00000E+00
    0.19646E-02         0.34981E-01         0.00000E+00
    0.19126E-02         0.33637E-01         0.00000E+00
    0.18603E-02         0.32291E-01         0.00000E+00
    0.18075E-02         0.30944E-01         0.00000E+00
    0.17540E-02         0.29593E-01         0.00000E+00
    0.16998E-02         0.28240E-01         0.00000E+00
    0.16446E-02         0.26884E-01         0.00000E+00
    0.15883E-02         0.25524E-01         0.00000E+00
    0.15307E-02         0.24161E-01         0.00000E+00
    0.14717E-02         0.22794E-01         0.00000E+00
    0.14110E-02         0.21423E-01         0.00000E+00
    0.13484E-02         0.20047E-01         0.00000E+00
    0.12838E-02         0.18666E-01         0.00000E+00
    0.12167E-02         0.17280E-01         0.00000E+00
    0.11469E-02         0.15887E-01         0.00000E+00
    0.10740E-02         0.14489E-01         0.00000E+00
    0.99768E-03         0.13083E-01         0.00000E+00
    0.91732E-03         0.11670E-01         0.00000E+00
    0.83234E-03         0.10248E-01         0.00000E+00
    0.74198E-03         0.88182E-02         0.00000E+00
    0.64525E-03         0.73784E-02         0.00000E+00
    0.54090E-03         0.59280E-02         0.00000E+00
    0.42722E-03         0.44661E-02         0.00000E+00
    0.30183E-03         0.29915E-02         0.00000E+00
    0.16123E-03         0.15032E-02         0.00000E+00
    0.00000E+00         0.00000E+00         0.00000E+00
    0.74181E-02         0.66947E-01         0.00000E+00
    0.71341E-02         0.65688E-01         0.00000E+00
    0.68738E-02         0.64424E-01         0.00000E+00
    0.66354E-02         0.63155E-01         0.00000E+00
    0.64165E-02         0.61882E-01         0.00000E+00
    0.62145E-02         0.60604E-01         0.00000E+00
    0.60271E-02         0.59322E-01         0.00000E+00
    0.58523E-02         0.58037E-01         0.00000E+00
    0.56885E-02         0.56748E-01         0.00000E+00
    0.55342E-02         0.55456E-01         0.00000E+00
    0.53880E-02         0.54161E-01         0.00000E+00
    0.52490E-02         0.52864E-01         0.00000E+00
    0.51162E-02         0.51565E-01         0.00000E+00
    0.49887E-02         0.50264E-01         0.00000E+00
    0.48658E-02         0.48961E-01         0.00000E+00
    0.47469E-02         0.47656E-01         0.00000E+00
    0.46314E-02         0.46350E-01         0.00000E+00
    0.45189E-02         0.45042E-01         0.00000E+00
    0.44087E-02         0.43732E-01         0.00000E+00
    0.43006E-02         0.42421E-01         0.00000E+00
    0.41940E-02         0.41108E-01         0.00000E+00
    0.40887E-02         0.39794E-01         0.00000E+00
    0.39843E-02         0.38477E-01         0.00000E+00
    0.38805E-02         0.37159E-01         0.00000E+00
    0.37770E-02         0.35838E-01         0.00000E+00
    0.36734E-02         0.34516E-01         0.00000E+00
    0.35695E-02         0.33190E-01         0.00000E+00
    0.34651E-02         0.31863E-01         0.00000E+00
    0.33597E-02         0.30532E-01         0.00000E+00
    0.32532E-02         0.29199E-01         0.00000E+00
    0.31452E-02         0.27863E-01         0.00000E+00
    0.30355E-02         0.26523E-01         0.00000E+00
    0.29237E-02         0.25179E-01         0.00000E+00
    0.28096E-02         0.23832E-01         0.00000E+00
    0.26928E-02         0.22481E-01         0.00000E+00
    0.25729E-02         0.21125E-01         0.00000E+00
    0.24496E-02         0.19764E-01         0.00000E+00
    0.23224E-02         0.18398E-01         0.00000E+00
    0.21909E-02         0.17027E-01         0.00000E+00
    0.20546E-02         0.15650E-01         0.00000E+00
    0.19129E-02         0.14266E-01         0.00000E+00
    0.17650E-02         0.12876E-01         0.00000E+00
    0.16104E-02         0.11479E-01         0.00000E+00
    0.14482E-02         0.10075E-01         0.00000E+00
    0.12773E-02         0.86621E-02         0.00000E+00
    0.10967E-02         0.72412E-02         0.00000E+00
    0.90502E-03         0.58114E-02         0.00000E+00
    0.70093E-03         0.43725E-02         0.00000E+00
    0.48289E-03         0.29242E-02         0.00000E+00
    0.24948E-03         0.14666E-02         0.00000E+00
    0.00000E+00         0.00000E+00         0.00000E+00
    0.10476E-01         0.65268E-01         0.00000E+00
    0.10118E-01         0.64048E-01         0.00000E+00
    0.97819E-02         0.62824E-01         0.00000E+00
    0.94670E-02         0.61597E-01         0.00000E+00
    0.91714E-02         0.60366E-01         0.00000E+00
    0.88933E-02         0.59131E-01         0.00000E+00
    0.86312E-02         0.57893E-01         0.00000E+00
    0.83835E-02         0.56651E-01         0.00000E+00
    0.81487E-02         0.55405E-01         0.00000E+00
    0.79255E-02         0.54156E-01         0.00000E+00
    0.77126E-02         0.52904E-01         0.00000E+00
    0.75088E-02         0.51648E-01         0.00000E+00
    0.73132E-02         0.50390E-01         0.00000E+00
    0.71247E-02         0.49128E-01         0.00000E+00
    0.69424E-02         0.47864E-01         0.00000E+00
    0.67657E-02         0.46597E-01         0.00000E+00
    0.65937E-02         0.45327E-01         0.00000E+00
    0.64258E-02         0.44055E-01         0.00000E+00
    0.62613E-02         0.42780E-01         0.00000E+00
    0.60997E-02         0.41503E-01         0.00000E+00
    0.59405E-02         0.40223E-01         0.00000E+00
    0.57831E-02         0.38941E-01         0.00000E+00
    0.56270E-02         0.37655E-01         0.00000E+00
    0.54719E-02         0.36368E-01         0.00000E+00
    0.53172E-02         0.35077E-01         0.00000E+00
    0.51627E-02         0.33783E-01         0.00000E+00
    0.50077E-02         0.32487E-01         0.00000E+00
    0.48521E-02         0.31187E-01         0.00000E+00
    0.46953E-02         0.29885E-01         0.00000E+00
    0.45370E-02         0.28578E-01         0.00000E+00
    0.43768E-02         0.27269E-01         0.00000E+00
    0.42143E-02         0.25955E-01         0.00000E+00
    0.40491E-02         0.24638E-01         0.00000E+00
    0.38807E-02         0.23316E-01         0.00000E+00
    0.37088E-02         0.21990E-01         0.00000E+00
    0.35329E-02         0.20660E-01         0.00000E+00
    0.33525E-02         0.19325E-01         0.00000E+00
    0.31671E-02         0.17984E-01         0.00000E+00
    0.29762E-02         0.16639E-01         0.00000E+00
    0.27792E-02         0.15288E-01         0.00000E+00
    0.25754E-02         0.13931E-01         0.00000E+00
    0.23643E-02         0.12568E-01         0.00000E+00
    0.21451E-02         0.11199E-01         0.00000E+00
    0.19170E-02         0.98233E-02         0.00000E+00
    0.16792E-02         0.84410E-02         0.00000E+00
    0.14309E-02         0.70518E-02         0.00000E+00
    0.11711E-02         0.56555E-02         0.00000E+00
    0.89911E-03         0.42523E-02         0.00000E+00
    0.61388E-03         0.28419E-02         0.00000E+00
    0.31456E-03         0.14245E-02         0.00000E+00
    0.00000E+00         0.00000E+00         0.00000E+00
    0.13130E-01         0.63276E-01         0.00000E+00
    0.12718E-01         0.62096E-01         0.00000E+00
    0.12326E-01         0.60913E-01         0.00000E+00
    0.11955E-01         0.59728E-01         0.00000E+00
    0.11601E-01         0.58539E-01         0.00000E+00
    0.11265E-01         0.57348E-01         0.00000E+00
    0.10944E-01         0.56153E-01         0.00000E+00
    0.10637E-01         0.54955E-01         0.00000E+00
    0.10344E-01         0.53754E-01         0.00000E+00
    0.10063E-01         0.52549E-01         0.00000E+00
    0.97921E-02         0.51342E-01         0.00000E+00
    0.95316E-02         0.50130E-01         0.00000E+00
    0.92799E-02         0.48916E-01         0.00000E+00
    0.90362E-02         0.47698E-01         0.00000E+00
    0.87997E-02         0.46477E-01         0.00000E+00
    0.85694E-02         0.45253E-01         0.00000E+00
    0.83446E-02         0.44025E-01         0.00000E+00
    0.81246E-02         0.42795E-01         0.00000E+00
    0.79087E-02         0.41561E-01         0.00000E+00
    0.76963E-02         0.40324E-01         0.00000E+00
    0.74867E-02         0.39084E-01         0.00000E+00
    0.72794E-02         0.37840E-01         0.00000E+00
    0.70738E-02         0.36594E-01         0.00000E+00
    0.68694E-02         0.35344E-01         0.00000E+00
    0.66656E-02         0.34091E-01         0.00000E+00
    0.64620E-02         0.32834E-01         0.00000E+00
    0.62581E-02         0.31574E-01         0.00000E+00
    0.60535E-02         0.30311E-01         0.00000E+00
    0.58475E-02         0.29044E-01         0.00000E+00
    0.56399E-02         0.27773E-01         0.00000E+00
    0.54302E-02         0.26498E-01         0.00000E+00
    0.52178E-02         0.25220E-01         0.00000E+00
    0.50023E-02         0.23937E-01         0.00000E+00
    0.47833E-02         0.22650E-01         0.00000E+00
    0.45603E-02         0.21359E-01         0.00000E+00
    0.43328E-02         0.20063E-01         0.00000E+00
    0.41002E-02         0.18762E-01         0.00000E+00
    0.38622E-02         0.17457E-01         0.00000E+00
    0.36181E-02         0.16147E-01         0.00000E+00
    0.33674E-02         0.14832E-01         0.00000E+00
    0.31095E-02         0.13511E-01         0.00000E+00
    0.28439E-02         0.12185E-01         0.00000E+00
    0.25699E-02         0.10854E-01         0.00000E+00
    0.22869E-02         0.95169E-02         0.00000E+00
    0.19943E-02         0.81744E-02         0.00000E+00
    0.16914E-02         0.68262E-02         0.00000E+00
    0.13776E-02         0.54723E-02         0.00000E+00
    0.10522E-02         0.41127E-02         0.00000E+00
    0.71461E-03         0.27474E-02         0.00000E+00
    0.36406E-03         0.13764E-02         0.00000E+00
    0.00000E+00         0.00000E+00         0.00000E+00
    0.15404E-01         0.61064E-01         0.00000E+00
    0.14954E-01         0.59924E-01         0.00000E+00
    0.14523E-01         0.58783E-01         0.00000E+00
    0.14110E-01         0.57640E-01         0.00000E+00
    0.13713E-01         0.56494E-01         0.00000E+00
    0.13332E-01         0.55346E-01         0.00000E+00
    0.12966E-01         0.54195E-01         0.00000E+00
    0.12613E-01         0.53042E-01         0.00000E+00
    0.12273E-01         0.51885E-01         0.00000E+00
    0.11944E-01         0.50725E-01         0.00000E+00
    0.11626E-01         0.49563E-01         0.00000E+00
    0.11318E-01         0.48397E-01         0.00000E+00
    0.11018E-01         0.47228E-01         0.00000E+00
    0.10727E-01         0.46055E-01         0.00000E+00
    0.10443E-01         0.44880E-01         0.00000E+00
    0.10165E-01         0.43700E-01         0.00000E+00
    0.98930E-02         0.42518E-01         0.00000E+00
    0.96260E-02         0.41332E-01         0.00000E+00
    0.93634E-02         0.40143E-01         0.00000E+00
    0.91045E-02         0.38950E-01         0.00000E+00
    0.88486E-02         0.37754E-01         0.00000E+00
    0.85951E-02         0.36554E-01         0.00000E+00
    0.83435E-02         0.35351E-01         0.00000E+00
    0.80933E-02         0.34144E-01         0.00000E+00
    0.78438E-02         0.32934E-01         0.00000E+00
    0.75945E-02         0.31720E-01         0.00000E+00
    0.73450E-02         0.30503E-01         0.00000E+00
    0.70947E-02         0.29281E-01         0.00000E+00
    0.68431E-02         0.28056E-01         0.00000E+00
    0.65897E-02         0.26827E-01         0.00000E+00
    0.63341E-02         0.25594E-01         0.00000E+00
    0.60758E-02         0.24357E-01         0.00000E+00
    0.58143E-02         0.23115E-01         0.00000E+00
    0.55491E-02         0.21870E-01         0.00000E+00
    0.52797E-02         0.20620E-01         0.00000E+00
    0.50057E-02         0.19367E-01         0.00000E+00
    0.47266E-02         0.18108E-01         0.00000E+00
    0.44419E-02         0.16845E-01         0.00000E+00
    0.41510E-02         0.15578E-01         0.00000E+00
    0.38535E-02         0.14306E-01         0.00000E+00
    0.35490E-02         0.13029E-01         0.00000E+00
    0.32368E-02         0.11748E-01         0.00000E+00
    0.29164E-02         0.10461E-01         0.00000E+00
    0.25875E-02         0.91702E-02         0.00000E+00
    0.22493E-02         0.78744E-02         0.00000E+00
    0.19015E-02         0.65737E-02         0.00000E+00
    0.15435E-02         0.52683E-02         0.00000E+00
    0.11749E-02         0.39581E-02         0.00000E+00
    0.79506E-03         0.26433E-02         0.00000E+00
    0.40359E-03         0.13239E-02         0.00000E+00
    0.00000E+00         0.00000E+00         0.00000E+00
    0.17327E-01         0.58700E-01         0.00000E+00
    0.16852E-01         0.57602E-01         0.00000E+00
    0.16394E-01         0.56503E-01         0.00000E+00
    0.15951E-01         0.55402E-01         0.00000E+00
    0.15523E-01         0.54300E-01         0.00000E+00
    0.15109E-01         0.53195E-01         0.00000E+00
    0.14708E-01         0.52089E-01         0.00000E+00
    0.14319E-01         0.50980E-01         0.00000E+00
    0.13942E-01         0.49868E-01         0.00000E+00
    0.13576E-01         0.48754E-01         0.00000E+00
    0.13220E-01         0.47636E-01         0.00000E+00
    0.12873E-01         0.46516E-01         0.00000E+00
    0.12534E-01         0.45393E-01         0.00000E+00
    0.12202E-01         0.44267E-01         0.00000E+00
    0.11878E-01         0.43138E-01         0.00000E+00
    0.11560E-01         0.42005E-01         0.00000E+00
    0.11247E-01         0.40869E-01         0.00000E+00
    0.10939E-01         0.39730E-01         0.00000E+00
    0.10635E-01         0.38587E-01         0.00000E+00
    0.10335E-01         0.37441E-01         0.00000E+00
    0.10038E-01         0.36291E-01         0.00000E+00
    0.97435E-02         0.35138E-01         0.00000E+00
    0.94506E-02         0.33981E-01         0.00000E+00
    0.91591E-02         0.32821E-01         0.00000E+00
    0.88684E-02         0.31657E-01         0.00000E+00
    0.85778E-02         0.30489E-01         0.00000E+00
    0.82870E-02         0.29317E-01         0.00000E+00
    0.79954E-02         0.28142E-01         0.00000E+00
    0.77025E-02         0.26963E-01         0.00000E+00
    0.74078E-02         0.25780E-01         0.00000E+00
    0.71109E-02         0.24593E-01         0.00000E+00
    0.68113E-02         0.23403E-01         0.00000E+00
    0.65085E-02         0.22208E-01         0.00000E+00
    0.62020E-02         0.21009E-01         0.00000E+00
    0.58915E-02         0.19806E-01         0.00000E+00
    0.55763E-02         0.18599E-01         0.00000E+00
    0.52562E-02         0.17389E-01         0.00000E+00
    0.49305E-02         0.16173E-01         0.00000E+00
    0.45990E-02         0.14954E-01         0.00000E+00
    0.42610E-02         0.13731E-01         0.00000E+00
    0.39163E-02         0.12503E-01         0.00000E+00
    0.35643E-02         0.11271E-01         0.00000E+00
    0.32046E-02         0.10035E-01         0.00000E+00
    0.28368E-02         0.87948E-02         0.00000E+00
    0.24604E-02         0.75505E-02         0.00000E+00
    0.20751E-02         0.63020E-02         0.00000E+00
    0.16804E-02         0.50494E-02         0.00000E+00
    0.12759E-02         0.37929E-02         0.00000E+00
    0.86123E-03         0.25324E-02         0.00000E+00
    0.43606E-03         0.12681E-02         0.00000E+00
    0.00000E+00         0.00000E+00         0.00000E+00
    0.18928E-01         0.56241E-01         0.00000E+00
    0.18437E-01         0.55185E-01         0.00000E+00
    0.17961E-01         0.54129E-01         0.00000E+00
    0.17498E-01         0.53071E-01         0.00000E+00
    0.17048E-01         0.52012E-01         0.00000E+00
    0.16611E-01         0.50951E-01         0.00000E+00
    0.16185E-01         0.49888E-01         0.00000E+00
    0.15770E-01         0.48824E-01         0.00000E+00
    0.15366E-01         0.47757E-01         0.00000E+00
    0.14970E-01         0.46688E-01         0.00000E+00
    0.14584E-01         0.45616E-01         0.00000E+00
    0.14206E-01         0.44542E-01         0.00000E+00
    0.13835E-01         0.43465E-01         0.00000E+00
    0.13472E-01         0.42386E-01         0.00000E+00
    0.13114E-01         0.41303E-01         0.00000E+00
    0.12762E-01         0.40218E-01         0.00000E+00
    0.12415E-01         0.39129E-01         0.00000E+00
    0.12073E-01         0.38037E-01         0.00000E+00
    0.11734E-01         0.36942E-01         0.00000E+00
    0.11399E-01         0.35843E-01         0.00000E+00
    0.11066E-01         0.34741E-01         0.00000E+00
    0.10736E-01         0.33636E-01         0.00000E+00
    0.10407E-01         0.32528E-01         0.00000E+00
    0.10080E-01         0.31415E-01         0.00000E+00
    0.97527E-02         0.30300E-01         0.00000E+00
    0.94259E-02         0.29181E-01         0.00000E+00
    0.90987E-02         0.28058E-01         0.00000E+00
    0.87707E-02         0.26931E-01         0.00000E+00
    0.84414E-02         0.25801E-01         0.00000E+00
    0.81103E-02         0.24667E-01         0.00000E+00
    0.77770E-02         0.23530E-01         0.00000E+00
    0.74410E-02         0.22388E-01         0.00000E+00
    0.71020E-02         0.21244E-01         0.00000E+00
    0.67593E-02         0.20095E-01         0.00000E+00
    0.64127E-02         0.18942E-01         0.00000E+00
    0.60617E-02         0.17786E-01         0.00000E+00
    0.57059E-02         0.16626E-01         0.00000E+00
    0.53448E-02         0.15462E-01         0.00000E+00
    0.49781E-02         0.14295E-01         0.00000E+00
    0.46054E-02         0.13123E-01         0.00000E+00
    0.42262E-02         0.11948E-01         0.00000E+00
    0.38402E-02         0.10769E-01         0.00000E+00
    0.34470E-02         0.95867E-02         0.00000E+00
    0.30463E-02         0.84005E-02         0.00000E+00
    0.26376E-02         0.72108E-02         0.00000E+00
    0.22206E-02         0.60174E-02         0.00000E+00
    0.17950E-02         0.48206E-02         0.00000E+00
    0.13605E-02         0.36204E-02         0.00000E+00
    0.91665E-03         0.24168E-02         0.00000E+00
    0.46326E-03         0.12100E-02         0.00000E+00
    0.00000E+00         0.00000E+00         0.00000E+00
    0.20235E-01         0.53732E-01         0.00000E+00
    0.19736E-01         0.52718E-01         0.00000E+00
    0.19250E-01         0.51703E-01         0.00000E+00
    0.18776E-01         0.50689E-01         0.00000E+00
    0.18312E-01         0.49673E-01         0.00000E+00
    0.17860E-01         0.48656E-01         0.00000E+00
    0.17417E-01         0.47637E-01         0.00000E+00
    0.16983E-01         0.46617E-01         0.00000E+00
    0.16558E-01         0.45595E-01         0.00000E+00
    0.16142E-01         0.44571E-01         0.00000E+00
    0.15733E-01         0.43545E-01         0.00000E+00
    0.15331E-01         0.42517E-01         0.00000E+00
    0.14936E-01         0.41487E-01         0.00000E+00
    0.14546E-01         0.40454E-01         0.00000E+00
    0.14162E-01         0.39418E-01         0.00000E+00
    0.13783E-01         0.38379E-01         0.00000E+00
    0.13409E-01         0.37338E-01         0.00000E+00
    0.13038E-01         0.36294E-01         0.00000E+00
    0.12670E-01         0.35247E-01         0.00000E+00
    0.12306E-01         0.34196E-01         0.00000E+00
    0.11944E-01         0.33143E-01         0.00000E+00
    0.11583E-01         0.32087E-01         0.00000E+00
    0.11224E-01         0.31027E-01         0.00000E+00
    0.10866E-01         0.29964E-01         0.00000E+00
    0.10508E-01         0.28898E-01         0.00000E+00
    0.10150E-01         0.27828E-01         0.00000E+00
    0.97918E-02         0.26755E-01         0.00000E+00
    0.94325E-02         0.25679E-01         0.00000E+00
    0.90718E-02         0.24600E-01         0.00000E+00
    0.87094E-02         0.23516E-01         0.00000E+00
    0.83447E-02         0.22430E-01         0.00000E+00
    0.79774E-02         0.21340E-01         0.00000E+00
    0.76071E-02         0.20247E-01         0.00000E+00
    0.72333E-02         0.19150E-01         0.00000E+00
    0.68557E-02         0.18050E-01         0.00000E+00
    0.64739E-02         0.16946E-01         0.00000E+00
    0.60874E-02         0.15839E-01         0.00000E+00
    0.56960E-02         0.14728E-01         0.00000E+00
    0.52993E-02         0.13614E-01         0.00000E+00
    0.48969E-02         0.12497E-01         0.00000E+00
    0.44884E-02         0.11377E-01         0.00000E+00
    0.40735E-02         0.10253E-01         0.00000E+00
    0.36519E-02         0.91258E-02         0.00000E+00
    0.32232E-02         0.79956E-02         0.00000E+00
    0.27872E-02         0.68622E-02         0.00000E+00
    0.23435E-02         0.57258E-02         0.00000E+00
    0.18918E-02         0.45863E-02         0.00000E+00
    0.14319E-02         0.34439E-02         0.00000E+00
    0.96348E-03         0.22987E-02         0.00000E+00
    0.48625E-03         0.11507E-02         0.00000E+00
    0.00000E+00         0.00000E+00         0.00000E+00
    0.21276E-01         0.51206E-01         0.00000E+00
    0.20777E-01         0.50234E-01         0.00000E+00
    0.20287E-01         0.49263E-01         0.00000E+00
    0.19808E-01         0.48290E-01         0.00000E+00
    0.19337E-01         0.47318E-01         0.00000E+00
    0.18875E-01         0.46344E-01         0.00000E+00
    0.18422E-01         0.45370E-01         0.00000E+00
    0.17976E-01         0.44394E-01         0.00000E+00
    0.17538E-01         0.43416E-01         0.00000E+00
    0.17106E-01         0.42438E-01         0.00000E+00
    0.16681E-01         0.41457E-01         0.00000E+00
    0.16262E-01         0.40474E-01         0.00000E+00
    0.15848E-01         0.39490E-01         0.00000E+00
    0.15440E-01         0.38503E-01         0.00000E+00
    0.15035E-01         0.37514E-01         0.00000E+00
    0.14635E-01         0.36522E-01         0.00000E+00
    0.14239E-01         0.35528E-01         0.00000E+00
    0.13846E-01         0.34532E-01         0.00000E+00
    0.13455E-01         0.33532E-01         0.00000E+00
    0.13067E-01         0.32530E-01         0.00000E+00
    0.12680E-01         0.31526E-01         0.00000E+00
    0.12295E-01         0.30518E-01         0.00000E+00
    0.11911E-01         0.29508E-01         0.00000E+00
    0.11528E-01         0.28494E-01         0.00000E+00
    0.11144E-01         0.27478E-01         0.00000E+00
    0.10760E-01         0.26458E-01         0.00000E+00
    0.10376E-01         0.25436E-01         0.00000E+00
    0.99905E-02         0.24410E-01         0.00000E+00
    0.96035E-02         0.23382E-01         0.00000E+00
    0.92147E-02         0.22350E-01         0.00000E+00
    0.88235E-02         0.21315E-01         0.00000E+00
    0.84298E-02         0.20277E-01         0.00000E+00
    0.80331E-02         0.19236E-01         0.00000E+00
    0.76330E-02         0.18192E-01         0.00000E+00
    0.72292E-02         0.17145E-01         0.00000E+00
    0.68213E-02         0.16095E-01         0.00000E+00
    0.64090E-02         0.15042E-01         0.00000E+00
    0.59920E-02         0.13985E-01         0.00000E+00
    0.55699E-02         0.12926E-01         0.00000E+00
    0.51424E-02         0.11864E-01         0.00000E+00
    0.47092E-02         0.10799E-01         0.00000E+00
    0.42699E-02         0.97310E-02         0.00000E+00
    0.38244E-02         0.86602E-02         0.00000E+00
    0.33723E-02         0.75867E-02         0.00000E+00
    0.29132E-02         0.65104E-02         0.00000E+00
    0.24471E-02         0.54316E-02         0.00000E+00
    0.19735E-02         0.43501E-02         0.00000E+00
    0.14922E-02         0.32661E-02         0.00000E+00
    0.10030E-02         0.21798E-02         0.00000E+00
    0.50568E-03         0.10910E-02         0.00000E+00
    0.00000E+00         0.00000E+00         0.00000E+00
    0.22080E-01         0.48692E-01         0.00000E+00
    0.21585E-01         0.47763E-01         0.00000E+00
    0.21097E-01         0.46833E-01         0.00000E+00
    0.20617E-01         0.45904E-01         0.00000E+00
    0.20145E-01         0.44974E-01         0.00000E+00
    0.19679E-01         0.44044E-01         0.00000E+00
    0.19221E-01         0.43113E-01         0.00000E+00
    0.18768E-01         0.42180E-01         0.00000E+00
    0.18322E-01         0.41247E-01         0.00000E+00
    0.17881E-01         0.40313E-01         0.00000E+00
    0.17445E-01         0.39377E-01         0.00000E+00
    0.17015E-01         0.38439E-01         0.00000E+00
    0.16588E-01         0.37500E-01         0.00000E+00
    0.16166E-01         0.36559E-01         0.00000E+00
    0.15747E-01         0.35616E-01         0.00000E+00
    0.15331E-01         0.34671E-01         0.00000E+00
    0.14918E-01         0.33724E-01         0.00000E+00
    0.14508E-01         0.32774E-01         0.00000E+00
    0.14099E-01         0.31823E-01         0.00000E+00
    0.13692E-01         0.30868E-01         0.00000E+00
    0.13287E-01         0.29912E-01         0.00000E+00
    0.12882E-01         0.28953E-01         0.00000E+00
    0.12478E-01         0.27991E-01         0.00000E+00
    0.12075E-01         0.27027E-01         0.00000E+00
    0.11670E-01         0.26060E-01         0.00000E+00
    0.11266E-01         0.25091E-01         0.00000E+00
    0.10860E-01         0.24118E-01         0.00000E+00
    0.10453E-01         0.23143E-01         0.00000E+00
    0.10045E-01         0.22166E-01         0.00000E+00
    0.96341E-02         0.21185E-01         0.00000E+00
    0.92212E-02         0.20202E-01         0.00000E+00
    0.88056E-02         0.19216E-01         0.00000E+00
    0.83871E-02         0.18228E-01         0.00000E+00
    0.79652E-02         0.17236E-01         0.00000E+00
    0.75397E-02         0.16242E-01         0.00000E+00
    0.71102E-02         0.15246E-01         0.00000E+00
    0.66765E-02         0.14246E-01         0.00000E+00
    0.62382E-02         0.13244E-01         0.00000E+00
    0.57950E-02         0.12240E-01         0.00000E+00
    0.53467E-02         0.11233E-01         0.00000E+00
    0.48929E-02         0.10223E-01         0.00000E+00
    0.44335E-02         0.92108E-02         0.00000E+00
    0.39681E-02         0.81963E-02         0.00000E+00
    0.34964E-02         0.71793E-02         0.00000E+00
    0.30183E-02         0.61601E-02         0.00000E+00
    0.25334E-02         0.51386E-02         0.00000E+00
    0.20415E-02         0.41150E-02         0.00000E+00
    0.15425E-02         0.30892E-02         0.00000E+00
    0.10360E-02         0.20614E-02         0.00000E+00
    0.52192E-03         0.10317E-02         0.00000E+00
    0.00000E+00         0.00000E+00         0.00000E+00
    0.22673E-01         0.46212E-01         0.00000E+00
    0.22185E-01         0.45324E-01         0.00000E+00
    0.21703E-01         0.44437E-01         0.00000E+00
    0.21227E-01         0.43550E-01         0.00000E+00
    0.20757E-01         0.42662E-01         0.00000E+00
    0.20293E-01         0.41775E-01         0.00000E+00
    0.19834E-01         0.40886E-01         0.00000E+00
    0.19379E-01         0.39997E-01         0.00000E+00
    0.18929E-01         0.39108E-01         0.00000E+00
    0.18484E-01         0.38217E-01         0.00000E+00
    0.18042E-01         0.37325E-01         0.00000E+00
    0.17605E-01         0.36432E-01         0.00000E+00
    0.17170E-01         0.35538E-01         0.00000E+00
    0.16738E-01         0.34642E-01         0.00000E+00
    0.16310E-01         0.33744E-01         0.00000E+00
    0.15883E-01         0.32845E-01         0.00000E+00
    0.15458E-01         0.31943E-01         0.00000E+00
    0.15036E-01         0.31040E-01         0.00000E+00
    0.14614E-01         0.30135E-01         0.00000E+00
    0.14194E-01         0.29228E-01         0.00000E+00
    0.13774E-01         0.28319E-01         0.00000E+00
    0.13355E-01         0.27408E-01         0.00000E+00
    0.12935E-01         0.26494E-01         0.00000E+00
    0.12516E-01         0.25579E-01         0.00000E+00
    0.12095E-01         0.24661E-01         0.00000E+00
    0.11674E-01         0.23740E-01         0.00000E+00
    0.11252E-01         0.22818E-01         0.00000E+00
    0.10828E-01         0.21893E-01         0.00000E+00
    0.10402E-01         0.20965E-01         0.00000E+00
    0.99745E-02         0.20036E-01         0.00000E+00
    0.95442E-02         0.19103E-01         0.00000E+00
    0.91111E-02         0.18169E-01         0.00000E+00
    0.86750E-02         0.17232E-01         0.00000E+00
    0.82356E-02         0.16293E-01         0.00000E+00
    0.77925E-02         0.15351E-01         0.00000E+00
    0.73456E-02         0.14408E-01         0.00000E+00
    0.68944E-02         0.13462E-01         0.00000E+00
    0.64389E-02         0.12513E-01         0.00000E+00
    0.59786E-02         0.11563E-01         0.00000E+00
    0.55133E-02         0.10610E-01         0.00000E+00
    0.50429E-02         0.96549E-02         0.00000E+00
    0.45670E-02         0.86979E-02         0.00000E+00
    0.40854E-02         0.77388E-02         0.00000E+00
    0.35978E-02         0.67778E-02         0.00000E+00
    0.31040E-02         0.58148E-02         0.00000E+00
    0.26039E-02         0.48500E-02         0.00000E+00
    0.20972E-02         0.38834E-02         0.00000E+00
    0.15836E-02         0.29150E-02         0.00000E+00
    0.10630E-02         0.19449E-02         0.00000E+00
    0.53521E-03         0.97321E-03         0.00000E+00
    0.00000E+00         0.00000E+00         0.00000E+00
    0.23079E-01         0.43782E-01         0.00000E+00
    0.22602E-01         0.42936E-01         0.00000E+00
    0.22129E-01         0.42090E-01         0.00000E+00
    0.21661E-01         0.41244E-01         0.00000E+00
    0.21196E-01         0.40399E-01         0.00000E+00
    0.20736E-01         0.39553E-01         0.00000E+00
    0.20280E-01         0.38707E-01         0.00000E+00
    0.19827E-01         0.37860E-01         0.00000E+00
    0.19378E-01         0.37013E-01         0.00000E+00
    0.18932E-01         0.36166E-01         0.00000E+00
    0.18488E-01         0.35317E-01         0.00000E+00
    0.18047E-01         0.34467E-01         0.00000E+00
    0.17609E-01         0.33617E-01         0.00000E+00
    0.17172E-01         0.32765E-01         0.00000E+00
    0.16738E-01         0.31912E-01         0.00000E+00
    0.16304E-01         0.31057E-01         0.00000E+00
    0.15872E-01         0.30201E-01         0.00000E+00
    0.15441E-01         0.29343E-01         0.00000E+00
    0.15011E-01         0.28484E-01         0.00000E+00
    0.14581E-01         0.27623E-01         0.00000E+00
    0.14151E-01         0.26761E-01         0.00000E+00
    0.13721E-01         0.25896E-01         0.00000E+00
    0.13291E-01         0.25030E-01         0.00000E+00
    0.12860E-01         0.24161E-01         0.00000E+00
    0.12427E-01         0.23291E-01         0.00000E+00
    0.11994E-01         0.22419E-01         0.00000E+00
    0.11559E-01         0.21545E-01         0.00000E+00
    0.11122E-01         0.20669E-01         0.00000E+00
    0.10684E-01         0.19791E-01         0.00000E+00
    0.10242E-01         0.18911E-01         0.00000E+00
    0.97986E-02         0.18028E-01         0.00000E+00
    0.93519E-02         0.17144E-01         0.00000E+00
    0.89022E-02         0.16258E-01         0.00000E+00
    0.84490E-02         0.15370E-01         0.00000E+00
    0.79922E-02         0.14480E-01         0.00000E+00
    0.75315E-02         0.13588E-01         0.00000E+00
    0.70667E-02         0.12694E-01         0.00000E+00
    0.65976E-02         0.11798E-01         0.00000E+00
    0.61238E-02         0.10900E-01         0.00000E+00
    0.56452E-02         0.10001E-01         0.00000E+00
    0.51616E-02         0.90995E-02         0.00000E+00
    0.46726E-02         0.81965E-02         0.00000E+00
    0.41782E-02         0.72918E-02         0.00000E+00
    0.36780E-02         0.63854E-02         0.00000E+00
    0.31720E-02         0.54774E-02         0.00000E+00
    0.26597E-02         0.45680E-02         0.00000E+00
    0.21412E-02         0.36570E-02         0.00000E+00
    0.16161E-02         0.27447E-02         0.00000E+00
    0.10844E-02         0.18311E-02         0.00000E+00
    0.54572E-03         0.91613E-03         0.00000E+00
    0.00000E+00         0.00000E+00         0.00000E+00
    0.23322E-01         0.41415E-01         0.00000E+00
    0.22857E-01         0.40610E-01         0.00000E+00
    0.22396E-01         0.39804E-01         0.00000E+00
    0.21937E-01         0.39000E-01         0.00000E+00
    0.21482E-01         0.38195E-01         0.00000E+00
    0.21029E-01         0.37390E-01         0.00000E+00
    0.20578E-01         0.36586E-01         0.00000E+00
    0.20130E-01         0.35781E-01         0.00000E+00
    0.19685E-01         0.34976E-01         0.00000E+00
    0.19241E-01         0.34170E-01         0.00000E+00
    0.18799E-01         0.33364E-01         0.00000E+00
    0.18358E-01         0.32556E-01         0.00000E+00
    0.17919E-01         0.31749E-01         0.00000E+00
    0.17481E-01         0.30940E-01         0.00000E+00
    0.17044E-01         0.30130E-01         0.00000E+00
    0.16608E-01         0.29319E-01         0.00000E+00
    0.16172E-01         0.28507E-01         0.00000E+00
    0.15736E-01         0.27694E-01         0.00000E+00
    0.15301E-01         0.26879E-01         0.00000E+00
    0.14865E-01         0.26063E-01         0.00000E+00
    0.14429E-01         0.25245E-01         0.00000E+00
    0.13992E-01         0.24426E-01         0.00000E+00
    0.13554E-01         0.23606E-01         0.00000E+00
    0.13115E-01         0.22784E-01         0.00000E+00
    0.12675E-01         0.21960E-01         0.00000E+00
    0.12233E-01         0.21135E-01         0.00000E+00
    0.11789E-01         0.20308E-01         0.00000E+00
    0.11343E-01         0.19480E-01         0.00000E+00
    0.10894E-01         0.18649E-01         0.00000E+00
    0.10444E-01         0.17818E-01         0.00000E+00
    0.99899E-02         0.16984E-01         0.00000E+00
    0.95333E-02         0.16149E-01         0.00000E+00
    0.90733E-02         0.15312E-01         0.00000E+00
    0.86100E-02         0.14474E-01         0.00000E+00
    0.81429E-02         0.13634E-01         0.00000E+00
    0.76720E-02         0.12792E-01         0.00000E+00
    0.71969E-02         0.11949E-01         0.00000E+00
    0.67175E-02         0.11104E-01         0.00000E+00
    0.62336E-02         0.10257E-01         0.00000E+00
    0.57449E-02         0.94097E-02         0.00000E+00
    0.52512E-02         0.85604E-02         0.00000E+00
    0.47524E-02         0.77098E-02         0.00000E+00
    0.42482E-02         0.68578E-02         0.00000E+00
    0.37386E-02         0.60045E-02         0.00000E+00
    0.32231E-02         0.51500E-02         0.00000E+00
    0.27018E-02         0.42943E-02         0.00000E+00
    0.21743E-02         0.34375E-02         0.00000E+00
    0.16406E-02         0.25795E-02         0.00000E+00
    0.11004E-02         0.17206E-02         0.00000E+00
    0.55360E-03         0.86075E-03         0.00000E+00
    0.00000E+00         0.00000E+00         0.00000E+00
    0.23422E-01         0.39121E-01         0.00000E+00
    0.22972E-01         0.38355E-01         0.00000E+00
    0.22523E-01         0.37589E-01         0.00000E+00
    0.22076E-01         0.36824E-01         0.00000E+00
    0.21631E-01         0.36060E-01         0.00000E+00
    0.21188E-01         0.35295E-01         0.00000E+00
    0.20746E-01         0.34531E-01         0.00000E+00
    0.20305E-01         0.33767E-01         0.00000E+00
    0.19865E-01         0.33002E-01         0.00000E+00
    0.19427E-01         0.32238E-01         0.00000E+00
    0.18989E-01         0.31473E-01         0.00000E+00
    0.18552E-01         0.30707E-01         0.00000E+00
    0.18115E-01         0.29941E-01         0.00000E+00
    0.17678E-01         0.29174E-01         0.00000E+00
    0.17242E-01         0.28406E-01         0.00000E+00
    0.16806E-01         0.27638E-01         0.00000E+00
    0.16369E-01         0.26868E-01         0.00000E+00
    0.15932E-01         0.26098E-01         0.00000E+00
    0.15494E-01         0.25326E-01         0.00000E+00
    0.15056E-01         0.24554E-01         0.00000E+00
    0.14616E-01         0.23780E-01         0.00000E+00
    0.14176E-01         0.23006E-01         0.00000E+00
    0.13734E-01         0.22230E-01         0.00000E+00
    0.13290E-01         0.21452E-01         0.00000E+00
    0.12845E-01         0.20674E-01         0.00000E+00
    0.12397E-01         0.19894E-01         0.00000E+00
    0.11948E-01         0.19113E-01         0.00000E+00
    0.11496E-01         0.18331E-01         0.00000E+00
    0.11041E-01         0.17547E-01         0.00000E+00
    0.10584E-01         0.16762E-01         0.00000E+00
    0.10124E-01         0.15975E-01         0.00000E+00
    0.96601E-02         0.15187E-01         0.00000E+00
    0.91932E-02         0.14398E-01         0.00000E+00
    0.87228E-02         0.13608E-01         0.00000E+00
    0.82486E-02         0.12816E-01         0.00000E+00
    0.77705E-02         0.12023E-01         0.00000E+00
    0.72882E-02         0.11229E-01         0.00000E+00
    0.68016E-02         0.10433E-01         0.00000E+00
    0.63105E-02         0.96368E-02         0.00000E+00
    0.58146E-02         0.88390E-02         0.00000E+00
    0.53139E-02         0.80400E-02         0.00000E+00
    0.48081E-02         0.72400E-02         0.00000E+00
    0.42971E-02         0.64390E-02         0.00000E+00
    0.37807E-02         0.56370E-02         0.00000E+00
    0.32587E-02         0.48341E-02         0.00000E+00
    0.27309E-02         0.40302E-02         0.00000E+00
    0.21972E-02         0.32256E-02         0.00000E+00
    0.16574E-02         0.24202E-02         0.00000E+00
    0.11114E-02         0.16141E-02         0.00000E+00
    0.55898E-03         0.80732E-03         0.00000E+00
    0.00000E+00         0.00000E+00         0.00000E+00
    0.23398E-01         0.36904E-01         0.00000E+00
    0.22964E-01         0.36177E-01         0.00000E+00
    0.22530E-01         0.35451E-01         0.00000E+00
    0.22096E-01         0.34725E-01         0.00000E+00
    0.21663E-01         0.33999E-01         0.00000E+00
    0.21231E-01         0.33274E-01         0.00000E+00
    0.20799E-01         0.32549E-01         0.00000E+00
    0.20367E-01         0.31824E-01         0.00000E+00
    0.19936E-01         0.31100E-01         0.00000E+00
    0.19504E-01         0.30375E-01         0.00000E+00
    0.19073E-01         0.29649E-01         0.00000E+00
    0.18641E-01         0.28924E-01         0.00000E+00
    0.18209E-01         0.28198E-01         0.00000E+00
    0.17776E-01         0.27472E-01         0.00000E+00
    0.17343E-01         0.26745E-01         0.00000E+00
    0.16909E-01         0.26018E-01         0.00000E+00
    0.16474E-01         0.25290E-01         0.00000E+00
    0.16038E-01         0.24561E-01         0.00000E+00
    0.15601E-01         0.23832E-01         0.00000E+00
    0.15163E-01         0.23101E-01         0.00000E+00
    0.14723E-01         0.22370E-01         0.00000E+00
    0.14282E-01         0.21638E-01         0.00000E+00
    0.13838E-01         0.20905E-01         0.00000E+00
    0.13393E-01         0.20171E-01         0.00000E+00
    0.12945E-01         0.19436E-01         0.00000E+00
    0.12495E-01         0.18700E-01         0.00000E+00
    0.12043E-01         0.17963E-01         0.00000E+00
    0.11588E-01         0.17225E-01         0.00000E+00
    0.11130E-01         0.16486E-01         0.00000E+00
    0.10669E-01         0.15746E-01         0.00000E+00
    0.10205E-01         0.15005E-01         0.00000E+00
    0.97374E-02         0.14263E-01         0.00000E+00
    0.92664E-02         0.13520E-01         0.00000E+00
    0.87917E-02         0.12776E-01         0.00000E+00
    0.83132E-02         0.12030E-01         0.00000E+00
    0.78306E-02         0.11284E-01         0.00000E+00
    0.73439E-02         0.10537E-01         0.00000E+00
    0.68528E-02         0.97893E-02         0.00000E+00
    0.63572E-02         0.90404E-02         0.00000E+00
    0.58569E-02         0.82907E-02         0.00000E+00
    0.53517E-02         0.75401E-02         0.00000E+00
    0.48416E-02         0.67888E-02         0.00000E+00
    0.43263E-02         0.60367E-02         0.00000E+00
    0.38057E-02         0.52840E-02         0.00000E+00
    0.32797E-02         0.45306E-02         0.00000E+00
    0.27480E-02         0.37766E-02         0.00000E+00
    0.22105E-02         0.30222E-02         0.00000E+00
    0.16671E-02         0.22672E-02         0.00000E+00
    0.11177E-02         0.15118E-02         0.00000E+00
    0.56202E-03         0.75604E-03         0.00000E+00
    0.00000E+00         0.00000E+00         0.00000E+00
    0.23269E-01         0.34770E-01         0.00000E+00
    0.22851E-01         0.34081E-01         0.00000E+00
    0.22432E-01         0.33392E-01         0.00000E+00
    0.22013E-01         0.32704E-01         0.00000E+00
    0.21593E-01         0.32017E-01         0.00000E+00
    0.21173E-01         0.31330E-01         0.00000E+00
    0.20753E-01         0.30643E-01         0.00000E+00
    0.20332E-01         0.29957E-01         0.00000E+00
    0.19910E-01         0.29270E-01         0.00000E+00
    0.19487E-01         0.28584E-01         0.00000E+00
    0.19063E-01         0.27898E-01         0.00000E+00
    0.18639E-01         0.27211E-01         0.00000E+00
    0.18213E-01         0.26525E-01         0.00000E+00
    0.17787E-01         0.25838E-01         0.00000E+00
    0.17359E-01         0.25150E-01         0.00000E+00
    0.16930E-01         0.24463E-01         0.00000E+00
    0.16499E-01         0.23775E-01         0.00000E+00
    0.16066E-01         0.23086E-01         0.00000E+00
    0.15632E-01         0.22397E-01         0.00000E+00
    0.15196E-01         0.21707E-01         0.00000E+00
    0.14758E-01         0.21017E-01         0.00000E+00
    0.14318E-01         0.20326E-01         0.00000E+00
    0.13876E-01         0.19635E-01         0.00000E+00
    0.13431E-01         0.18942E-01         0.00000E+00
    0.12984E-01         0.18249E-01         0.00000E+00
    0.12534E-01         0.17556E-01         0.00000E+00
    0.12081E-01         0.16861E-01         0.00000E+00
    0.11625E-01         0.16166E-01         0.00000E+00
    0.11166E-01         0.15470E-01         0.00000E+00
    0.10704E-01         0.14773E-01         0.00000E+00
    0.10239E-01         0.14076E-01         0.00000E+00
    0.97698E-02         0.13377E-01         0.00000E+00
    0.92972E-02         0.12678E-01         0.00000E+00
    0.88207E-02         0.11979E-01         0.00000E+00
    0.83404E-02         0.11278E-01         0.00000E+00
    0.78559E-02         0.10577E-01         0.00000E+00
    0.73671E-02         0.98751E-02         0.00000E+00
    0.68740E-02         0.91726E-02         0.00000E+00
    0.63763E-02         0.84695E-02         0.00000E+00
    0.58740E-02         0.77659E-02         0.00000E+00
    0.53668E-02         0.70617E-02         0.00000E+00
    0.48547E-02         0.63570E-02         0.00000E+00
    0.43375E-02         0.56519E-02         0.00000E+00
    0.38151E-02         0.49463E-02         0.00000E+00
    0.32873E-02         0.42404E-02         0.00000E+00
    0.27539E-02         0.35341E-02         0.00000E+00
    0.22150E-02         0.28276E-02         0.00000E+00
    0.16702E-02         0.21209E-02         0.00000E+00
    0.11196E-02         0.14140E-02         0.00000E+00
    0.56288E-03         0.70700E-03         0.00000E+00
    0.00000E+00         0.00000E+00         0.00000E+00
    0.23051E-01         0.32722E-01         0.00000E+00
    0.22649E-01         0.32069E-01         0.00000E+00
    0.22246E-01         0.31417E-01         0.00000E+00
    0.21842E-01         0.30766E-01         0.00000E+00
    0.21436E-01         0.30115E-01         0.00000E+00
    0.21029E-01         0.29465E-01         0.00000E+00
    0.20621E-01         0.28815E-01         0.00000E+00
    0.20211E-01         0.28166E-01         0.00000E+00
    0.19800E-01         0.27517E-01         0.00000E+00
    0.19388E-01         0.26868E-01         0.00000E+00
    0.18974E-01         0.26219E-01         0.00000E+00
    0.18558E-01         0.25570E-01         0.00000E+00
    0.18141E-01         0.24921E-01         0.00000E+00
    0.17721E-01         0.24272E-01         0.00000E+00
    0.17300E-01         0.23623E-01         0.00000E+00
    0.16877E-01         0.22974E-01         0.00000E+00
    0.16452E-01         0.22324E-01         0.00000E+00
    0.16025E-01         0.21674E-01         0.00000E+00
    0.15596E-01         0.21024E-01         0.00000E+00
    0.15164E-01         0.20374E-01         0.00000E+00
    0.14730E-01         0.19723E-01         0.00000E+00
    0.14293E-01         0.19072E-01         0.00000E+00
    0.13854E-01         0.18420E-01         0.00000E+00
    0.13412E-01         0.17768E-01         0.00000E+00
    0.12967E-01         0.17115E-01         0.00000E+00
    0.12519E-01         0.16462E-01         0.00000E+00
    0.12068E-01         0.15808E-01         0.00000E+00
    0.11614E-01         0.15154E-01         0.00000E+00
    0.11156E-01         0.14499E-01         0.00000E+00
    0.10695E-01         0.13844E-01         0.00000E+00
    0.10230E-01         0.13188E-01         0.00000E+00
    0.97622E-02         0.12532E-01         0.00000E+00
    0.92901E-02         0.11875E-01         0.00000E+00
    0.88141E-02         0.11218E-01         0.00000E+00
    0.83340E-02         0.10560E-01         0.00000E+00
    0.78497E-02         0.99017E-02         0.00000E+00
    0.73611E-02         0.92431E-02         0.00000E+00
    0.68681E-02         0.85842E-02         0.00000E+00
    0.63706E-02         0.79249E-02         0.00000E+00
    0.58683E-02         0.72653E-02         0.00000E+00
    0.53613E-02         0.66054E-02         0.00000E+00
    0.48493E-02         0.59452E-02         0.00000E+00
    0.43323E-02         0.52848E-02         0.00000E+00
    0.38101E-02         0.46243E-02         0.00000E+00
    0.32827E-02         0.39636E-02         0.00000E+00
    0.27498E-02         0.33029E-02         0.00000E+00
    0.22114E-02         0.26421E-02         0.00000E+00
    0.16673E-02         0.19814E-02         0.00000E+00
    0.11175E-02         0.13208E-02         0.00000E+00
    0.56174E-03         0.66028E-03         0.00000E+00
    0.00000E+00         0.00000E+00         0.00000E+00
    0.22756E-01         0.30759E-01         0.00000E+00
    0.22371E-01         0.30142E-01         0.00000E+00
    0.21985E-01         0.29526E-01         0.00000E+00
    0.21596E-01         0.28910E-01         0.00000E+00
    0.21205E-01         0.28295E-01         0.00000E+00
    0.20811E-01         0.27681E-01         0.00000E+00
    0.20416E-01         0.27067E-01         0.00000E+00
    0.20019E-01         0.26453E-01         0.00000E+00
    0.19620E-01         0.25840E-01         0.00000E+00
    0.19218E-01         0.25227E-01         0.00000E+00
    0.18815E-01         0.24614E-01         0.00000E+00
    0.18409E-01         0.24002E-01         0.00000E+00
    0.18001E-01         0.23389E-01         0.00000E+00
    0.17590E-01         0.22777E-01         0.00000E+00
    0.17177E-01         0.22164E-01         0.00000E+00
    0.16762E-01         0.21552E-01         0.00000E+00
    0.16344E-01         0.20939E-01         0.00000E+00
    0.15924E-01         0.20327E-01         0.00000E+00
    0.15501E-01         0.19714E-01         0.00000E+00
    0.15075E-01         0.19101E-01         0.00000E+00
    0.14646E-01         0.18488E-01         0.00000E+00
    0.14215E-01         0.17875E-01         0.00000E+00
    0.13780E-01         0.17261E-01         0.00000E+00
    0.13342E-01         0.16647E-01         0.00000E+00
    0.12902E-01         0.16033E-01         0.00000E+00
    0.12457E-01         0.15419E-01         0.00000E+00
    0.12010E-01         0.14804E-01         0.00000E+00
    0.11559E-01         0.14189E-01         0.00000E+00
    0.11105E-01         0.13574E-01         0.00000E+00
    0.10647E-01         0.12958E-01         0.00000E+00
    0.10185E-01         0.12342E-01         0.00000E+00
    0.97190E-02         0.11726E-01         0.00000E+00
    0.92493E-02         0.11110E-01         0.00000E+00
    0.87756E-02         0.10493E-01         0.00000E+00
    0.82977E-02         0.98760E-02         0.00000E+00
    0.78156E-02         0.92590E-02         0.00000E+00
    0.73291E-02         0.86417E-02         0.00000E+00
    0.68381E-02         0.80242E-02         0.00000E+00
    0.63426E-02         0.74067E-02         0.00000E+00
    0.58423E-02         0.67890E-02         0.00000E+00
    0.53373E-02         0.61713E-02         0.00000E+00
    0.48273E-02         0.55535E-02         0.00000E+00
    0.43124E-02         0.49358E-02         0.00000E+00
    0.37924E-02         0.43181E-02         0.00000E+00
    0.32671E-02         0.37005E-02         0.00000E+00
    0.27365E-02         0.30831E-02         0.00000E+00
    0.22005E-02         0.24659E-02         0.00000E+00
    0.16589E-02         0.18489E-02         0.00000E+00
    0.11117E-02         0.12322E-02         0.00000E+00
    0.55879E-03         0.61589E-03         0.00000E+00
    0.00000E+00         0.00000E+00         0.00000E+00
    0.22400E-01         0.28882E-01         0.00000E+00
    0.22032E-01         0.28299E-01         0.00000E+00
    0.21661E-01         0.27717E-01         0.00000E+00
    0.21287E-01         0.27136E-01         0.00000E+00
    0.20911E-01         0.26556E-01         0.00000E+00
    0.20532E-01         0.25976E-01         0.00000E+00
    0.20151E-01         0.25396E-01         0.00000E+00
    0.19766E-01         0.24817E-01         0.00000E+00
    0.19379E-01         0.24239E-01         0.00000E+00
    0.18990E-01         0.23660E-01         0.00000E+00
    0.18597E-01         0.23083E-01         0.00000E+00
    0.18202E-01         0.22505E-01         0.00000E+00
    0.17804E-01         0.21928E-01         0.00000E+00
    0.17403E-01         0.21350E-01         0.00000E+00
    0.17000E-01         0.20773E-01         0.00000E+00
    0.16593E-01         0.20196E-01         0.00000E+00
    0.16184E-01         0.19619E-01         0.00000E+00
    0.15771E-01         0.19042E-01         0.00000E+00
    0.15356E-01         0.18465E-01         0.00000E+00
    0.14937E-01         0.17889E-01         0.00000E+00
    0.14515E-01         0.17312E-01         0.00000E+00
    0.14090E-01         0.16735E-01         0.00000E+00
    0.13661E-01         0.16158E-01         0.00000E+00
    0.13230E-01         0.15581E-01         0.00000E+00
    0.12794E-01         0.15003E-01         0.00000E+00
    0.12356E-01         0.14426E-01         0.00000E+00
    0.11913E-01         0.13849E-01         0.00000E+00
    0.11467E-01         0.13271E-01         0.00000E+00
    0.11017E-01         0.12694E-01         0.00000E+00
    0.10564E-01         0.12116E-01         0.00000E+00
    0.10106E-01         0.11538E-01         0.00000E+00
    0.96447E-02         0.10960E-01         0.00000E+00
    0.91791E-02         0.10382E-01         0.00000E+00
    0.87093E-02         0.98044E-02         0.00000E+00
    0.82353E-02         0.92264E-02         0.00000E+00
    0.77569E-02         0.86484E-02         0.00000E+00
    0.72741E-02         0.80704E-02         0.00000E+00
    0.67868E-02         0.74925E-02         0.00000E+00
    0.62949E-02         0.69147E-02         0.00000E+00
    0.57983E-02         0.63369E-02         0.00000E+00
    0.52969E-02         0.57593E-02         0.00000E+00
    0.47907E-02         0.51818E-02         0.00000E+00
    0.42794E-02         0.46046E-02         0.00000E+00
    0.37632E-02         0.40276E-02         0.00000E+00
    0.32417E-02         0.34510E-02         0.00000E+00
    0.27151E-02         0.28746E-02         0.00000E+00
    0.21831E-02         0.22987E-02         0.00000E+00
    0.16457E-02         0.17232E-02         0.00000E+00
    0.11028E-02         0.11482E-02         0.00000E+00
    0.55423E-03         0.57382E-03         0.00000E+00
    0.00000E+00         0.00000E+00         0.00000E+00
    0.21993E-01         0.27090E-01         0.00000E+00
    0.21641E-01         0.26541E-01         0.00000E+00
    0.21286E-01         0.25992E-01         0.00000E+00
    0.20928E-01         0.25444E-01         0.00000E+00
    0.20567E-01         0.24896E-01         0.00000E+00
    0.20202E-01         0.24350E-01         0.00000E+00
    0.19834E-01         0.23803E-01         0.00000E+00
    0.19463E-01         0.23258E-01         0.00000E+00
    0.19089E-01         0.22712E-01         0.00000E+00
    0.18712E-01         0.22168E-01         0.00000E+00
    0.18331E-01         0.21623E-01         0.00000E+00
    0.17947E-01         0.21079E-01         0.00000E+00
    0.17560E-01         0.20535E-01         0.00000E+00
    0.17169E-01         0.19992E-01         0.00000E+00
    0.16776E-01         0.19449E-01         0.00000E+00
    0.16379E-01         0.18906E-01         0.00000E+00
    0.15979E-01         0.18363E-01         0.00000E+00
    0.15575E-01         0.17820E-01         0.00000E+00
    0.15168E-01         0.17278E-01         0.00000E+00
    0.14757E-01         0.16735E-01         0.00000E+00
    0.14343E-01         0.16193E-01         0.00000E+00
    0.13926E-01         0.15651E-01         0.00000E+00
    0.13505E-01         0.15109E-01         0.00000E+00
    0.13080E-01         0.14567E-01         0.00000E+00
    0.12651E-01         0.14025E-01         0.00000E+00
    0.12219E-01         0.13483E-01         0.00000E+00
    0.11783E-01         0.12941E-01         0.00000E+00
    0.11343E-01         0.12400E-01         0.00000E+00
    0.10899E-01         0.11858E-01         0.00000E+00
    0.10451E-01         0.11317E-01         0.00000E+00
    0.99995E-02         0.10775E-01         0.00000E+00
    0.95435E-02         0.10234E-01         0.00000E+00
    0.90833E-02         0.96925E-02         0.00000E+00
    0.86188E-02         0.91513E-02         0.00000E+00
    0.81500E-02         0.86103E-02         0.00000E+00
    0.76769E-02         0.80695E-02         0.00000E+00
    0.71992E-02         0.75289E-02         0.00000E+00
    0.67170E-02         0.69885E-02         0.00000E+00
    0.62301E-02         0.64484E-02         0.00000E+00
    0.57386E-02         0.59085E-02         0.00000E+00
    0.52423E-02         0.53690E-02         0.00000E+00
    0.47412E-02         0.48298E-02         0.00000E+00
    0.42351E-02         0.42910E-02         0.00000E+00
    0.37240E-02         0.37526E-02         0.00000E+00
    0.32079E-02         0.32147E-02         0.00000E+00
    0.26866E-02         0.26773E-02         0.00000E+00
    0.21600E-02         0.21405E-02         0.00000E+00
    0.16282E-02         0.16043E-02         0.00000E+00
    0.10910E-02         0.10688E-02         0.00000E+00
    0.54825E-03         0.53402E-03         0.00000E+00
    0.00000E+00         0.00000E+00         0.00000E+00
    0.21546E-01         0.25382E-01         0.00000E+00
    0.21210E-01         0.24864E-01         0.00000E+00
    0.20871E-01         0.24347E-01         0.00000E+00
    0.20528E-01         0.23831E-01         0.00000E+00
    0.20181E-01         0.23315E-01         0.00000E+00
    0.19831E-01         0.22801E-01         0.00000E+00
    0.19477E-01         0.22286E-01         0.00000E+00
    0.19119E-01         0.21773E-01         0.00000E+00
    0.18758E-01         0.21259E-01         0.00000E+00
    0.18393E-01         0.20747E-01         0.00000E+00
    0.18024E-01         0.20234E-01         0.00000E+00
    0.17652E-01         0.19723E-01         0.00000E+00
    0.17276E-01         0.19211E-01         0.00000E+00
    0.16897E-01         0.18700E-01         0.00000E+00
    0.16514E-01         0.18189E-01         0.00000E+00
    0.16127E-01         0.17679E-01         0.00000E+00
    0.15736E-01         0.17169E-01         0.00000E+00
    0.15342E-01         0.16659E-01         0.00000E+00
    0.14944E-01         0.16150E-01         0.00000E+00
    0.14543E-01         0.15640E-01         0.00000E+00
    0.14138E-01         0.15131E-01         0.00000E+00
    0.13728E-01         0.14622E-01         0.00000E+00
    0.13315E-01         0.14114E-01         0.00000E+00
    0.12899E-01         0.13605E-01         0.00000E+00
    0.12478E-01         0.13097E-01         0.00000E+00
    0.12053E-01         0.12589E-01         0.00000E+00
    0.11624E-01         0.12081E-01         0.00000E+00
    0.11192E-01         0.11573E-01         0.00000E+00
    0.10755E-01         0.11066E-01         0.00000E+00
    0.10314E-01         0.10559E-01         0.00000E+00
    0.98689E-02         0.10052E-01         0.00000E+00
    0.94195E-02         0.95453E-02         0.00000E+00
    0.89658E-02         0.90389E-02         0.00000E+00
    0.85079E-02         0.85328E-02         0.00000E+00
    0.80455E-02         0.80269E-02         0.00000E+00
    0.75786E-02         0.75215E-02         0.00000E+00
    0.71073E-02         0.70163E-02         0.00000E+00
    0.66313E-02         0.65115E-02         0.00000E+00
    0.61508E-02         0.60072E-02         0.00000E+00
    0.56655E-02         0.55033E-02         0.00000E+00
    0.51755E-02         0.49998E-02         0.00000E+00
    0.46807E-02         0.44969E-02         0.00000E+00
    0.41810E-02         0.39945E-02         0.00000E+00
    0.36763E-02         0.34926E-02         0.00000E+00
    0.31667E-02         0.29914E-02         0.00000E+00
    0.26519E-02         0.24909E-02         0.00000E+00
    0.21321E-02         0.19911E-02         0.00000E+00
    0.16070E-02         0.14921E-02         0.00000E+00
    0.10767E-02         0.99382E-03         0.00000E+00
    0.54105E-03         0.49645E-03         0.00000E+00
    0.00000E+00         0.00000E+00         0.00000E+00
    0.21068E-01         0.23754E-01         0.00000E+00
    0.20748E-01         0.23267E-01         0.00000E+00
    0.20424E-01         0.22781E-01         0.00000E+00
    0.20096E-01         0.22295E-01         0.00000E+00
    0.19764E-01         0.21810E-01         0.00000E+00
    0.19428E-01         0.21326E-01         0.00000E+00
    0.19087E-01         0.20843E-01         0.00000E+00
    0.18743E-01         0.20360E-01         0.00000E+00
    0.18394E-01         0.19877E-01         0.00000E+00
    0.18042E-01         0.19396E-01         0.00000E+00
    0.17686E-01         0.18914E-01         0.00000E+00
    0.17325E-01         0.18433E-01         0.00000E+00
    0.16961E-01         0.17953E-01         0.00000E+00
    0.16593E-01         0.17473E-01         0.00000E+00
    0.16221E-01         0.16993E-01         0.00000E+00
    0.15844E-01         0.16514E-01         0.00000E+00
    0.15464E-01         0.16035E-01         0.00000E+00
    0.15080E-01         0.15557E-01         0.00000E+00
    0.14692E-01         0.15079E-01         0.00000E+00
    0.14300E-01         0.14601E-01         0.00000E+00
    0.13904E-01         0.14123E-01         0.00000E+00
    0.13504E-01         0.13646E-01         0.00000E+00
    0.13100E-01         0.13170E-01         0.00000E+00
    0.12692E-01         0.12693E-01         0.00000E+00
    0.12280E-01         0.12217E-01         0.00000E+00
    0.11863E-01         0.11741E-01         0.00000E+00
    0.11443E-01         0.11266E-01         0.00000E+00
    0.11018E-01         0.10791E-01         0.00000E+00
    0.10589E-01         0.10316E-01         0.00000E+00
    0.10156E-01         0.98415E-02         0.00000E+00
    0.97183E-02         0.93674E-02         0.00000E+00
    0.92765E-02         0.88937E-02         0.00000E+00
    0.88303E-02         0.84204E-02         0.00000E+00
    0.83797E-02         0.79476E-02         0.00000E+00
    0.79247E-02         0.74751E-02         0.00000E+00
    0.74652E-02         0.70031E-02         0.00000E+00
    0.70011E-02         0.65317E-02         0.00000E+00
    0.65324E-02         0.60607E-02         0.00000E+00
    0.60591E-02         0.55902E-02         0.00000E+00
    0.55812E-02         0.51203E-02         0.00000E+00
    0.50984E-02         0.46511E-02         0.00000E+00
    0.46110E-02         0.41824E-02         0.00000E+00
    0.41186E-02         0.37145E-02         0.00000E+00
    0.36214E-02         0.32472E-02         0.00000E+00
    0.31193E-02         0.27807E-02         0.00000E+00
    0.26122E-02         0.23150E-02         0.00000E+00
    0.21000E-02         0.18501E-02         0.00000E+00
    0.15828E-02         0.13861E-02         0.00000E+00
    0.10604E-02         0.92309E-03         0.00000E+00
    0.53283E-03         0.46102E-03         0.00000E+00
    0.00000E+00         0.00000E+00         0.00000E+00
    0.20568E-01         0.22204E-01         0.00000E+00
    0.20263E-01         0.21747E-01         0.00000E+00
    0.19954E-01         0.21290E-01         0.00000E+00
    0.19641E-01         0.20834E-01         0.00000E+00
    0.19323E-01         0.20379E-01         0.00000E+00
    0.19000E-01         0.19924E-01         0.00000E+00
    0.18673E-01         0.19470E-01         0.00000E+00
    0.18342E-01         0.19017E-01         0.00000E+00
    0.18006E-01         0.18564E-01         0.00000E+00
    0.17666E-01         0.18112E-01         0.00000E+00
    0.17322E-01         0.17660E-01         0.00000E+00
    0.16974E-01         0.17209E-01         0.00000E+00
    0.16621E-01         0.16758E-01         0.00000E+00
    0.16264E-01         0.16308E-01         0.00000E+00
    0.15903E-01         0.15858E-01         0.00000E+00
    0.15538E-01         0.15408E-01         0.00000E+00
    0.15169E-01         0.14960E-01         0.00000E+00
    0.14795E-01         0.14511E-01         0.00000E+00
    0.14417E-01         0.14063E-01         0.00000E+00
    0.14035E-01         0.13615E-01         0.00000E+00
    0.13649E-01         0.13168E-01         0.00000E+00
    0.13258E-01         0.12721E-01         0.00000E+00
    0.12863E-01         0.12275E-01         0.00000E+00
    0.12464E-01         0.11829E-01         0.00000E+00
    0.12061E-01         0.11384E-01         0.00000E+00
    0.11654E-01         0.10939E-01         0.00000E+00
    0.11242E-01         0.10494E-01         0.00000E+00
    0.10826E-01         0.10050E-01         0.00000E+00
    0.10405E-01         0.96060E-02         0.00000E+00
    0.99807E-02         0.91627E-02         0.00000E+00
    0.95516E-02         0.87199E-02         0.00000E+00
    0.91181E-02         0.82775E-02         0.00000E+00
    0.86801E-02         0.78357E-02         0.00000E+00
    0.82377E-02         0.73944E-02         0.00000E+00
    0.77908E-02         0.69536E-02         0.00000E+00
    0.73393E-02         0.65135E-02         0.00000E+00
    0.68833E-02         0.60739E-02         0.00000E+00
    0.64227E-02         0.56349E-02         0.00000E+00
    0.59575E-02         0.51965E-02         0.00000E+00
    0.54876E-02         0.47589E-02         0.00000E+00
    0.50130E-02         0.43219E-02         0.00000E+00
    0.45337E-02         0.38857E-02         0.00000E+00
    0.40496E-02         0.34503E-02         0.00000E+00
    0.35607E-02         0.30157E-02         0.00000E+00
    0.30669E-02         0.25820E-02         0.00000E+00
    0.25682E-02         0.21491E-02         0.00000E+00
    0.20646E-02         0.17172E-02         0.00000E+00
    0.15560E-02         0.12863E-02         0.00000E+00
    0.10424E-02         0.85645E-03         0.00000E+00
    0.52377E-03         0.42766E-03         0.00000E+00
    0.00000E+00         0.00000E+00         0.00000E+00
    0.20053E-01         0.20730E-01         0.00000E+00
    0.19763E-01         0.20301E-01         0.00000E+00
    0.19468E-01         0.19873E-01         0.00000E+00
    0.19169E-01         0.19445E-01         0.00000E+00
    0.18864E-01         0.19018E-01         0.00000E+00
    0.18555E-01         0.18592E-01         0.00000E+00
    0.18242E-01         0.18166E-01         0.00000E+00
    0.17923E-01         0.17741E-01         0.00000E+00
    0.17600E-01         0.17316E-01         0.00000E+00
    0.17273E-01         0.16892E-01         0.00000E+00
    0.16941E-01         0.16469E-01         0.00000E+00
    0.16604E-01         0.16046E-01         0.00000E+00
    0.16263E-01         0.15624E-01         0.00000E+00
    0.15918E-01         0.15202E-01         0.00000E+00
    0.15568E-01         0.14781E-01         0.00000E+00
    0.15214E-01         0.14360E-01         0.00000E+00
    0.14855E-01         0.13939E-01         0.00000E+00
    0.14492E-01         0.13520E-01         0.00000E+00
    0.14124E-01         0.13100E-01         0.00000E+00
    0.13752E-01         0.12682E-01         0.00000E+00
    0.13376E-01         0.12263E-01         0.00000E+00
    0.12995E-01         0.11845E-01         0.00000E+00
    0.12610E-01         0.11428E-01         0.00000E+00
    0.12221E-01         0.11011E-01         0.00000E+00
    0.11827E-01         0.10595E-01         0.00000E+00
    0.11429E-01         0.10179E-01         0.00000E+00
    0.11027E-01         0.97637E-02         0.00000E+00
    0.10620E-01         0.93490E-02         0.00000E+00
    0.10208E-01         0.89347E-02         0.00000E+00
    0.97925E-02         0.85210E-02         0.00000E+00
    0.93723E-02         0.81078E-02         0.00000E+00
    0.89476E-02         0.76952E-02         0.00000E+00
    0.85184E-02         0.72833E-02         0.00000E+00
    0.80847E-02         0.68719E-02         0.00000E+00
    0.76465E-02         0.64612E-02         0.00000E+00
    0.72037E-02         0.60511E-02         0.00000E+00
    0.67564E-02         0.56417E-02         0.00000E+00
    0.63045E-02         0.52330E-02         0.00000E+00
    0.58480E-02         0.48251E-02         0.00000E+00
    0.53868E-02         0.44179E-02         0.00000E+00
    0.49210E-02         0.40116E-02         0.00000E+00
    0.44505E-02         0.36060E-02         0.00000E+00
    0.39752E-02         0.32014E-02         0.00000E+00
    0.34953E-02         0.27976E-02         0.00000E+00
    0.30105E-02         0.23948E-02         0.00000E+00
    0.25210E-02         0.19929E-02         0.00000E+00
    0.20266E-02         0.15921E-02         0.00000E+00
    0.15273E-02         0.11924E-02         0.00000E+00
    0.10231E-02         0.79374E-03         0.00000E+00
    0.51405E-03         0.39626E-03         0.00000E+00
    0.00000E+00         0.00000E+00         0.00000E+00
    0.19530E-01         0.19328E-01         0.00000E+00
    0.19254E-01         0.18926E-01         0.00000E+00
    0.18973E-01         0.18525E-01         0.00000E+00
    0.18687E-01         0.18125E-01         0.00000E+00
    0.18396E-01         0.17725E-01         0.00000E+00
    0.18100E-01         0.17326E-01         0.00000E+00
    0.17799E-01         0.16927E-01         0.00000E+00
    0.17493E-01         0.16529E-01         0.00000E+00
    0.17182E-01         0.16131E-01         0.00000E+00
    0.16867E-01         0.15735E-01         0.00000E+00
    0.16547E-01         0.15338E-01         0.00000E+00
    0.16222E-01         0.14943E-01         0.00000E+00
    0.15893E-01         0.14547E-01         0.00000E+00
    0.15558E-01         0.14153E-01         0.00000E+00
    0.15220E-01         0.13759E-01         0.00000E+00
    0.14876E-01         0.13365E-01         0.00000E+00
    0.14528E-01         0.12972E-01         0.00000E+00
    0.14176E-01         0.12580E-01         0.00000E+00
    0.13819E-01         0.12188E-01         0.00000E+00
    0.13457E-01         0.11797E-01         0.00000E+00
    0.13091E-01         0.11406E-01         0.00000E+00
    0.12721E-01         0.11016E-01         0.00000E+00
    0.12346E-01         0.10626E-01         0.00000E+00
    0.11966E-01         0.10237E-01         0.00000E+00
    0.11582E-01         0.98485E-02         0.00000E+00
    0.11194E-01         0.94605E-02         0.00000E+00
    0.10801E-01         0.90731E-02         0.00000E+00
    0.10403E-01         0.86863E-02         0.00000E+00
    0.10001E-01         0.83000E-02         0.00000E+00
    0.95945E-02         0.79144E-02         0.00000E+00
    0.91835E-02         0.75295E-02         0.00000E+00
    0.87680E-02         0.71451E-02         0.00000E+00
    0.83480E-02         0.67615E-02         0.00000E+00
    0.79235E-02         0.63785E-02         0.00000E+00
    0.74944E-02         0.59963E-02         0.00000E+00
    0.70608E-02         0.56147E-02         0.00000E+00
    0.66226E-02         0.52340E-02         0.00000E+00
    0.61799E-02         0.48540E-02         0.00000E+00
    0.57325E-02         0.44748E-02         0.00000E+00
    0.52806E-02         0.40965E-02         0.00000E+00
    0.48240E-02         0.37190E-02         0.00000E+00
    0.43628E-02         0.33424E-02         0.00000E+00
    0.38969E-02         0.29668E-02         0.00000E+00
    0.34264E-02         0.25921E-02         0.00000E+00
    0.29511E-02         0.22185E-02         0.00000E+00
    0.24712E-02         0.18459E-02         0.00000E+00
    0.19865E-02         0.14744E-02         0.00000E+00
    0.14971E-02         0.11040E-02         0.00000E+00
    0.10028E-02         0.73474E-03         0.00000E+00
    0.50383E-03         0.36674E-03         0.00000E+00
    0.00000E+00         0.00000E+00         0.00000E+00
    0.19005E-01         0.17995E-01         0.00000E+00
    0.18743E-01         0.17619E-01         0.00000E+00
    0.18475E-01         0.17244E-01         0.00000E+00
    0.18201E-01         0.16870E-01         0.00000E+00
    0.17923E-01         0.16496E-01         0.00000E+00
    0.17639E-01         0.16123E-01         0.00000E+00
    0.17351E-01         0.15750E-01         0.00000E+00
    0.17057E-01         0.15378E-01         0.00000E+00
    0.16758E-01         0.15006E-01         0.00000E+00
    0.16455E-01         0.14636E-01         0.00000E+00
    0.16146E-01         0.14265E-01         0.00000E+00
    0.15833E-01         0.13896E-01         0.00000E+00
    0.15515E-01         0.13526E-01         0.00000E+00
    0.15192E-01         0.13158E-01         0.00000E+00
    0.14864E-01         0.12790E-01         0.00000E+00
    0.14531E-01         0.12423E-01         0.00000E+00
    0.14194E-01         0.12056E-01         0.00000E+00
    0.13852E-01         0.11690E-01         0.00000E+00
    0.13506E-01         0.11324E-01         0.00000E+00
    0.13154E-01         0.10959E-01         0.00000E+00
    0.12799E-01         0.10594E-01         0.00000E+00
    0.12438E-01         0.10230E-01         0.00000E+00
    0.12073E-01         0.98671E-02         0.00000E+00
    0.11703E-01         0.95044E-02         0.00000E+00
    0.11329E-01         0.91423E-02         0.00000E+00
    0.10950E-01         0.87808E-02         0.00000E+00
    0.10567E-01         0.84199E-02         0.00000E+00
    0.10179E-01         0.80597E-02         0.00000E+00
    0.97869E-02         0.77001E-02         0.00000E+00
    0.93899E-02         0.73412E-02         0.00000E+00
    0.89884E-02         0.69830E-02         0.00000E+00
    0.85824E-02         0.66255E-02         0.00000E+00
    0.81718E-02         0.62688E-02         0.00000E+00
    0.77567E-02         0.59127E-02         0.00000E+00
    0.73370E-02         0.55575E-02         0.00000E+00
    0.69128E-02         0.52030E-02         0.00000E+00
    0.64841E-02         0.48493E-02         0.00000E+00
    0.60508E-02         0.44965E-02         0.00000E+00
    0.56129E-02         0.41445E-02         0.00000E+00
    0.51705E-02         0.37934E-02         0.00000E+00
    0.47235E-02         0.34433E-02         0.00000E+00
    0.42720E-02         0.30941E-02         0.00000E+00
    0.38158E-02         0.27459E-02         0.00000E+00
    0.33550E-02         0.23987E-02         0.00000E+00
    0.28897E-02         0.20525E-02         0.00000E+00
    0.24197E-02         0.17075E-02         0.00000E+00
    0.19450E-02         0.13635E-02         0.00000E+00
    0.14658E-02         0.10208E-02         0.00000E+00
    0.98186E-03         0.67927E-03         0.00000E+00
    0.49327E-03         0.33898E-03         0.00000E+00
    0.00000E+00         0.00000E+00         0.00000E+00
    0.18483E-01         0.16727E-01         0.00000E+00
    0.18233E-01         0.16376E-01         0.00000E+00
    0.17977E-01         0.16026E-01         0.00000E+00
    0.17717E-01         0.15677E-01         0.00000E+00
    0.17450E-01         0.15328E-01         0.00000E+00
    0.17179E-01         0.14979E-01         0.00000E+00
    0.16902E-01         0.14632E-01         0.00000E+00
    0.16620E-01         0.14285E-01         0.00000E+00
    0.16333E-01         0.13938E-01         0.00000E+00
    0.16041E-01         0.13592E-01         0.00000E+00
    0.15743E-01         0.13247E-01         0.00000E+00
    0.15441E-01         0.12902E-01         0.00000E+00
    0.15134E-01         0.12558E-01         0.00000E+00
    0.14822E-01         0.12214E-01         0.00000E+00
    0.14505E-01         0.11871E-01         0.00000E+00
    0.14183E-01         0.11529E-01         0.00000E+00
    0.13856E-01         0.11187E-01         0.00000E+00
    0.13525E-01         0.10846E-01         0.00000E+00
    0.13189E-01         0.10505E-01         0.00000E+00
    0.12848E-01         0.10165E-01         0.00000E+00
    0.12502E-01         0.98255E-02         0.00000E+00
    0.12151E-01         0.94867E-02         0.00000E+00
    0.11796E-01         0.91485E-02         0.00000E+00
    0.11437E-01         0.88109E-02         0.00000E+00
    0.11072E-01         0.84740E-02         0.00000E+00
    0.10703E-01         0.81378E-02         0.00000E+00
    0.10330E-01         0.78022E-02         0.00000E+00
    0.99515E-02         0.74673E-02         0.00000E+00
    0.95688E-02         0.71331E-02         0.00000E+00
    0.91814E-02         0.67995E-02         0.00000E+00
    0.87895E-02         0.64668E-02         0.00000E+00
    0.83931E-02         0.61347E-02         0.00000E+00
    0.79921E-02         0.58035E-02         0.00000E+00
    0.75866E-02         0.54730E-02         0.00000E+00
    0.71765E-02         0.51433E-02         0.00000E+00
    0.67619E-02         0.48145E-02         0.00000E+00
    0.63428E-02         0.44864E-02         0.00000E+00
    0.59191E-02         0.41593E-02         0.00000E+00
    0.54909E-02         0.38331E-02         0.00000E+00
    0.50582E-02         0.35078E-02         0.00000E+00
    0.46210E-02         0.31835E-02         0.00000E+00
    0.41793E-02         0.28601E-02         0.00000E+00
    0.37330E-02         0.25378E-02         0.00000E+00
    0.32823E-02         0.22165E-02         0.00000E+00
    0.28270E-02         0.18963E-02         0.00000E+00
    0.23671E-02         0.15772E-02         0.00000E+00
    0.19028E-02         0.12593E-02         0.00000E+00
    0.14339E-02         0.94259E-03         0.00000E+00
    0.96047E-03         0.62710E-03         0.00000E+00
    0.48251E-03         0.31289E-03         0.00000E+00
    0.00000E+00         0.00000E+00         0.00000E+00
    0.17969E-01         0.15521E-01         0.00000E+00
    0.17730E-01         0.15194E-01         0.00000E+00
    0.17487E-01         0.14868E-01         0.00000E+00
    0.17237E-01         0.14542E-01         0.00000E+00
    0.16983E-01         0.14217E-01         0.00000E+00
    0.16722E-01         0.13893E-01         0.00000E+00
    0.16457E-01         0.13569E-01         0.00000E+00
    0.16186E-01         0.13246E-01         0.00000E+00
    0.15910E-01         0.12923E-01         0.00000E+00
    0.15629E-01         0.12601E-01         0.00000E+00
    0.15343E-01         0.12279E-01         0.00000E+00
    0.15051E-01         0.11958E-01         0.00000E+00
    0.14755E-01         0.11638E-01         0.00000E+00
    0.14453E-01         0.11318E-01         0.00000E+00
    0.14146E-01         0.10999E-01         0.00000E+00
    0.13835E-01         0.10681E-01         0.00000E+00
    0.13519E-01         0.10363E-01         0.00000E+00
    0.13197E-01         0.10045E-01         0.00000E+00
    0.12871E-01         0.97286E-02         0.00000E+00
    0.12540E-01         0.94125E-02         0.00000E+00
    0.12205E-01         0.90970E-02         0.00000E+00
    0.11864E-01         0.87821E-02         0.00000E+00
    0.11519E-01         0.84679E-02         0.00000E+00
    0.11169E-01         0.81544E-02         0.00000E+00
    0.10814E-01         0.78415E-02         0.00000E+00
    0.10455E-01         0.75293E-02         0.00000E+00
    0.10091E-01         0.72177E-02         0.00000E+00
    0.97226E-02         0.69069E-02         0.00000E+00
    0.93495E-02         0.65968E-02         0.00000E+00
    0.89717E-02         0.62875E-02         0.00000E+00
    0.85894E-02         0.59789E-02         0.00000E+00
    0.82026E-02         0.56710E-02         0.00000E+00
    0.78112E-02         0.53640E-02         0.00000E+00
    0.74152E-02         0.50577E-02         0.00000E+00
    0.70148E-02         0.47523E-02         0.00000E+00
    0.66098E-02         0.44477E-02         0.00000E+00
    0.62004E-02         0.41441E-02         0.00000E+00
    0.57864E-02         0.38413E-02         0.00000E+00
    0.53680E-02         0.35394E-02         0.00000E+00
    0.49451E-02         0.32385E-02         0.00000E+00
    0.45178E-02         0.29386E-02         0.00000E+00
    0.40859E-02         0.26396E-02         0.00000E+00
    0.36497E-02         0.23418E-02         0.00000E+00
    0.32090E-02         0.20449E-02         0.00000E+00
    0.27638E-02         0.17492E-02         0.00000E+00
    0.23142E-02         0.14546E-02         0.00000E+00
    0.18602E-02         0.11612E-02         0.00000E+00
    0.14018E-02         0.86901E-03         0.00000E+00
    0.93895E-03         0.57805E-03         0.00000E+00
    0.47168E-03         0.28836E-03         0.00000E+00
    0.00000E+00         0.00000E+00         0.00000E+00
    0.17466E-01         0.14372E-01         0.00000E+00
    0.17239E-01         0.14069E-01         0.00000E+00
    0.17006E-01         0.13765E-01         0.00000E+00
    0.16768E-01         0.13463E-01         0.00000E+00
    0.16524E-01         0.13161E-01         0.00000E+00
    0.16275E-01         0.12859E-01         0.00000E+00
    0.16020E-01         0.12558E-01         0.00000E+00
    0.15760E-01         0.12258E-01         0.00000E+00
    0.15494E-01         0.11958E-01         0.00000E+00
    0.15224E-01         0.11659E-01         0.00000E+00
    0.14948E-01         0.11360E-01         0.00000E+00
    0.14667E-01         0.11062E-01         0.00000E+00
    0.14380E-01         0.10765E-01         0.00000E+00
    0.14089E-01         0.10468E-01         0.00000E+00
    0.13792E-01         0.10172E-01         0.00000E+00
    0.13491E-01         0.98759E-02         0.00000E+00
    0.13184E-01         0.95808E-02         0.00000E+00
    0.12873E-01         0.92863E-02         0.00000E+00
    0.12557E-01         0.89924E-02         0.00000E+00
    0.12236E-01         0.86991E-02         0.00000E+00
    0.11910E-01         0.84065E-02         0.00000E+00
    0.11579E-01         0.81145E-02         0.00000E+00
    0.11243E-01         0.78231E-02         0.00000E+00
    0.10903E-01         0.75325E-02         0.00000E+00
    0.10558E-01         0.72425E-02         0.00000E+00
    0.10208E-01         0.69532E-02         0.00000E+00
    0.98540E-02         0.66646E-02         0.00000E+00
    0.94950E-02         0.63767E-02         0.00000E+00
    0.91313E-02         0.60895E-02         0.00000E+00
    0.87631E-02         0.58031E-02         0.00000E+00
    0.83903E-02         0.55175E-02         0.00000E+00
    0.80130E-02         0.52326E-02         0.00000E+00
    0.76311E-02         0.49486E-02         0.00000E+00
    0.72447E-02         0.46654E-02         0.00000E+00
    0.68538E-02         0.43830E-02         0.00000E+00
    0.64584E-02         0.41015E-02         0.00000E+00
    0.60586E-02         0.38208E-02         0.00000E+00
    0.56543E-02         0.35411E-02         0.00000E+00
    0.52456E-02         0.32623E-02         0.00000E+00
    0.48324E-02         0.29845E-02         0.00000E+00
    0.44149E-02         0.27076E-02         0.00000E+00
    0.39929E-02         0.24318E-02         0.00000E+00
    0.35666E-02         0.21570E-02         0.00000E+00
    0.31360E-02         0.18833E-02         0.00000E+00
    0.27009E-02         0.16107E-02         0.00000E+00
    0.22616E-02         0.13392E-02         0.00000E+00
    0.18179E-02         0.10689E-02         0.00000E+00
    0.13698E-02         0.79978E-03         0.00000E+00
    0.91752E-03         0.53190E-03         0.00000E+00
    0.46090E-03         0.26529E-03         0.00000E+00
    0.00000E+00         0.00000E+00         0.00000E+00
    0.16978E-01         0.13278E-01         0.00000E+00
    0.16761E-01         0.12997E-01         0.00000E+00
    0.16539E-01         0.12716E-01         0.00000E+00
    0.16311E-01         0.12435E-01         0.00000E+00
    0.16078E-01         0.12155E-01         0.00000E+00
    0.15839E-01         0.11876E-01         0.00000E+00
    0.15594E-01         0.11597E-01         0.00000E+00
    0.15344E-01         0.11318E-01         0.00000E+00
    0.15089E-01         0.11041E-01         0.00000E+00
    0.14828E-01         0.10763E-01         0.00000E+00
    0.14562E-01         0.10487E-01         0.00000E+00
    0.14291E-01         0.10210E-01         0.00000E+00
    0.14014E-01         0.99348E-02         0.00000E+00
    0.13732E-01         0.96598E-02         0.00000E+00
    0.13446E-01         0.93854E-02         0.00000E+00
    0.13154E-01         0.91115E-02         0.00000E+00
    0.12857E-01         0.88382E-02         0.00000E+00
    0.12555E-01         0.85656E-02         0.00000E+00
    0.12248E-01         0.82935E-02         0.00000E+00
    0.11937E-01         0.80221E-02         0.00000E+00
    0.11620E-01         0.77513E-02         0.00000E+00
    0.11299E-01         0.74812E-02         0.00000E+00
    0.10973E-01         0.72117E-02         0.00000E+00
    0.10642E-01         0.69429E-02         0.00000E+00
    0.10306E-01         0.66747E-02         0.00000E+00
    0.99657E-02         0.64073E-02         0.00000E+00
    0.96206E-02         0.61405E-02         0.00000E+00
    0.92709E-02         0.58745E-02         0.00000E+00
    0.89166E-02         0.56092E-02         0.00000E+00
    0.85576E-02         0.53447E-02         0.00000E+00
    0.81942E-02         0.50809E-02         0.00000E+00
    0.78261E-02         0.48179E-02         0.00000E+00
    0.74536E-02         0.45557E-02         0.00000E+00
    0.70766E-02         0.42944E-02         0.00000E+00
    0.66951E-02         0.40339E-02         0.00000E+00
    0.63091E-02         0.37742E-02         0.00000E+00
    0.59187E-02         0.35155E-02         0.00000E+00
    0.55240E-02         0.32576E-02         0.00000E+00
    0.51248E-02         0.30007E-02         0.00000E+00
    0.47213E-02         0.27447E-02         0.00000E+00
    0.43134E-02         0.24897E-02         0.00000E+00
    0.39012E-02         0.22357E-02         0.00000E+00
    0.34847E-02         0.19828E-02         0.00000E+00
    0.30640E-02         0.17309E-02         0.00000E+00
    0.26389E-02         0.14801E-02         0.00000E+00
    0.22096E-02         0.12304E-02         0.00000E+00
    0.17761E-02         0.98191E-03         0.00000E+00
    0.13384E-02         0.73457E-03         0.00000E+00
    0.89641E-03         0.48845E-03         0.00000E+00
    0.45029E-03         0.24358E-03         0.00000E+00
    0.00000E+00         0.00000E+00         0.00000E+00
    0.16508E-01         0.12235E-01         0.00000E+00
    0.16302E-01         0.11975E-01         0.00000E+00
    0.16089E-01         0.11715E-01         0.00000E+00
    0.15871E-01         0.11456E-01         0.00000E+00
    0.15647E-01         0.11197E-01         0.00000E+00
    0.15418E-01         0.10939E-01         0.00000E+00
    0.15183E-01         0.10681E-01         0.00000E+00
    0.14942E-01         0.10424E-01         0.00000E+00
    0.14696E-01         0.10167E-01         0.00000E+00
    0.14445E-01         0.99107E-02         0.00000E+00
    0.14188E-01         0.96550E-02         0.00000E+00
    0.13926E-01         0.93998E-02         0.00000E+00
    0.13659E-01         0.91452E-02         0.00000E+00
    0.13387E-01         0.88912E-02         0.00000E+00
    0.13109E-01         0.86377E-02         0.00000E+00
    0.12827E-01         0.83848E-02         0.00000E+00
    0.12539E-01         0.81325E-02         0.00000E+00
    0.12246E-01         0.78807E-02         0.00000E+00
    0.11949E-01         0.76296E-02         0.00000E+00
    0.11646E-01         0.73791E-02         0.00000E+00
    0.11339E-01         0.71292E-02         0.00000E+00
    0.11026E-01         0.68800E-02         0.00000E+00
    0.10709E-01         0.66313E-02         0.00000E+00
    0.10387E-01         0.63834E-02         0.00000E+00
    0.10061E-01         0.61361E-02         0.00000E+00
    0.97291E-02         0.58895E-02         0.00000E+00
    0.93931E-02         0.56436E-02         0.00000E+00
    0.90524E-02         0.53985E-02         0.00000E+00
    0.87071E-02         0.51540E-02         0.00000E+00
    0.83572E-02         0.49103E-02         0.00000E+00
    0.80028E-02         0.46674E-02         0.00000E+00
    0.76438E-02         0.44252E-02         0.00000E+00
    0.72804E-02         0.41838E-02         0.00000E+00
    0.69124E-02         0.39433E-02         0.00000E+00
    0.65401E-02         0.37036E-02         0.00000E+00
    0.61633E-02         0.34647E-02         0.00000E+00
    0.57822E-02         0.32267E-02         0.00000E+00
    0.53967E-02         0.29896E-02         0.00000E+00
    0.50069E-02         0.27534E-02         0.00000E+00
    0.46128E-02         0.25182E-02         0.00000E+00
    0.42143E-02         0.22839E-02         0.00000E+00
    0.38117E-02         0.20506E-02         0.00000E+00
    0.34048E-02         0.18183E-02         0.00000E+00
    0.29937E-02         0.15871E-02         0.00000E+00
    0.25784E-02         0.13569E-02         0.00000E+00
    0.21589E-02         0.11278E-02         0.00000E+00
    0.17353E-02         0.89991E-03         0.00000E+00
    0.13076E-02         0.67312E-03         0.00000E+00
    0.87580E-03         0.44752E-03         0.00000E+00
    0.43992E-03         0.22313E-03         0.00000E+00
    0.00000E+00         0.00000E+00         0.00000E+00
    0.16059E-01         0.11240E-01         0.00000E+00
    0.15862E-01         0.11000E-01         0.00000E+00
    0.15658E-01         0.10760E-01         0.00000E+00
    0.15449E-01         0.10521E-01         0.00000E+00
    0.15235E-01         0.10283E-01         0.00000E+00
    0.15014E-01         0.10045E-01         0.00000E+00
    0.14788E-01         0.98075E-02         0.00000E+00
    0.14556E-01         0.95705E-02         0.00000E+00
    0.14319E-01         0.93340E-02         0.00000E+00
    0.14077E-01         0.90980E-02         0.00000E+00
    0.13829E-01         0.88625E-02         0.00000E+00
    0.13576E-01         0.86275E-02         0.00000E+00
    0.13318E-01         0.83931E-02         0.00000E+00
    0.13054E-01         0.81592E-02         0.00000E+00
    0.12785E-01         0.79258E-02         0.00000E+00
    0.12511E-01         0.76930E-02         0.00000E+00
    0.12233E-01         0.74608E-02         0.00000E+00
    0.11949E-01         0.72291E-02         0.00000E+00
    0.11660E-01         0.69980E-02         0.00000E+00
    0.11366E-01         0.67675E-02         0.00000E+00
    0.11067E-01         0.65377E-02         0.00000E+00
    0.10763E-01         0.63084E-02         0.00000E+00
    0.10455E-01         0.60798E-02         0.00000E+00
    0.10141E-01         0.58518E-02         0.00000E+00
    0.98234E-02         0.56245E-02         0.00000E+00
    0.95007E-02         0.53979E-02         0.00000E+00
    0.91733E-02         0.51719E-02         0.00000E+00
    0.88413E-02         0.49466E-02         0.00000E+00
    0.85046E-02         0.47221E-02         0.00000E+00
    0.81634E-02         0.44983E-02         0.00000E+00
    0.78177E-02         0.42752E-02         0.00000E+00
    0.74675E-02         0.40529E-02         0.00000E+00
    0.71128E-02         0.38313E-02         0.00000E+00
    0.67537E-02         0.36106E-02         0.00000E+00
    0.63902E-02         0.33906E-02         0.00000E+00
    0.60223E-02         0.31715E-02         0.00000E+00
    0.56501E-02         0.29533E-02         0.00000E+00
    0.52736E-02         0.27359E-02         0.00000E+00
    0.48928E-02         0.25194E-02         0.00000E+00
    0.45077E-02         0.23039E-02         0.00000E+00
    0.41185E-02         0.20892E-02         0.00000E+00
    0.37250E-02         0.18756E-02         0.00000E+00
    0.33274E-02         0.16629E-02         0.00000E+00
    0.29256E-02         0.14512E-02         0.00000E+00
    0.25198E-02         0.12406E-02         0.00000E+00
    0.21099E-02         0.10310E-02         0.00000E+00
    0.16959E-02         0.82250E-03         0.00000E+00
    0.12779E-02         0.61513E-03         0.00000E+00
    0.85587E-03         0.40890E-03         0.00000E+00
    0.42990E-03         0.20385E-03         0.00000E+00
    0.00000E+00         0.00000E+00         0.00000E+00
    0.15634E-01         0.10288E-01         0.00000E+00
    0.15445E-01         0.10068E-01         0.00000E+00
    0.15250E-01         0.98478E-02         0.00000E+00
    0.15049E-01         0.96286E-02         0.00000E+00
    0.14842E-01         0.94097E-02         0.00000E+00
    0.14630E-01         0.91913E-02         0.00000E+00
    0.14413E-01         0.89734E-02         0.00000E+00
    0.14189E-01         0.87559E-02         0.00000E+00
    0.13961E-01         0.85388E-02         0.00000E+00
    0.13727E-01         0.83223E-02         0.00000E+00
    0.13487E-01         0.81062E-02         0.00000E+00
    0.13242E-01         0.78907E-02         0.00000E+00
    0.12992E-01         0.76756E-02         0.00000E+00
    0.12737E-01         0.74610E-02         0.00000E+00
    0.12476E-01         0.72470E-02         0.00000E+00
    0.12211E-01         0.70335E-02         0.00000E+00
    0.11940E-01         0.68206E-02         0.00000E+00
    0.11664E-01         0.66082E-02         0.00000E+00
    0.11383E-01         0.63964E-02         0.00000E+00
    0.11098E-01         0.61851E-02         0.00000E+00
    0.10807E-01         0.59744E-02         0.00000E+00
    0.10512E-01         0.57644E-02         0.00000E+00
    0.10211E-01         0.55549E-02         0.00000E+00
    0.99063E-02         0.53461E-02         0.00000E+00
    0.95965E-02         0.51379E-02         0.00000E+00
    0.92820E-02         0.49303E-02         0.00000E+00
    0.89628E-02         0.47234E-02         0.00000E+00
    0.86391E-02         0.45172E-02         0.00000E+00
    0.83107E-02         0.43116E-02         0.00000E+00
    0.79778E-02         0.41068E-02         0.00000E+00
    0.76404E-02         0.39027E-02         0.00000E+00
    0.72986E-02         0.36993E-02         0.00000E+00
    0.69523E-02         0.34967E-02         0.00000E+00
    0.66016E-02         0.32948E-02         0.00000E+00
    0.62465E-02         0.30938E-02         0.00000E+00
    0.58872E-02         0.28935E-02         0.00000E+00
    0.55235E-02         0.26940E-02         0.00000E+00
    0.51556E-02         0.24954E-02         0.00000E+00
    0.47834E-02         0.22977E-02         0.00000E+00
    0.44071E-02         0.21008E-02         0.00000E+00
    0.40266E-02         0.19049E-02         0.00000E+00
    0.36419E-02         0.17098E-02         0.00000E+00
    0.32532E-02         0.15157E-02         0.00000E+00
    0.28604E-02         0.13226E-02         0.00000E+00
    0.24636E-02         0.11305E-02         0.00000E+00
    0.20628E-02         0.93938E-03         0.00000E+00
    0.16581E-02         0.74932E-03         0.00000E+00
    0.12494E-02         0.56032E-03         0.00000E+00
    0.83677E-03         0.37241E-03         0.00000E+00
    0.42030E-03         0.18563E-03         0.00000E+00
    0.00000E+00         0.00000E+00         0.00000E+00
    0.15233E-01         0.93762E-02         0.00000E+00
    0.15052E-01         0.91751E-02         0.00000E+00
    0.14865E-01         0.89743E-02         0.00000E+00
    0.14672E-01         0.87740E-02         0.00000E+00
    0.14473E-01         0.85740E-02         0.00000E+00
    0.14269E-01         0.83745E-02         0.00000E+00
    0.14059E-01         0.81754E-02         0.00000E+00
    0.13843E-01         0.79767E-02         0.00000E+00
    0.13622E-01         0.77785E-02         0.00000E+00
    0.13396E-01         0.75807E-02         0.00000E+00
    0.13164E-01         0.73833E-02         0.00000E+00
    0.12927E-01         0.71864E-02         0.00000E+00
    0.12684E-01         0.69900E-02         0.00000E+00
    0.12437E-01         0.67941E-02         0.00000E+00
    0.12184E-01         0.65987E-02         0.00000E+00
    0.11926E-01         0.64038E-02         0.00000E+00
    0.11663E-01         0.62094E-02         0.00000E+00
    0.11395E-01         0.60155E-02         0.00000E+00
    0.11122E-01         0.58222E-02         0.00000E+00
    0.10844E-01         0.56294E-02         0.00000E+00
    0.10561E-01         0.54372E-02         0.00000E+00
    0.10273E-01         0.52455E-02         0.00000E+00
    0.99806E-02         0.50545E-02         0.00000E+00
    0.96833E-02         0.48640E-02         0.00000E+00
    0.93813E-02         0.46741E-02         0.00000E+00
    0.90746E-02         0.44848E-02         0.00000E+00
    0.87632E-02         0.42962E-02         0.00000E+00
    0.84472E-02         0.41082E-02         0.00000E+00
    0.81267E-02         0.39209E-02         0.00000E+00
    0.78017E-02         0.37343E-02         0.00000E+00
    0.74722E-02         0.35483E-02         0.00000E+00
    0.71382E-02         0.33630E-02         0.00000E+00
    0.67999E-02         0.31785E-02         0.00000E+00
    0.64572E-02         0.29947E-02         0.00000E+00
    0.61101E-02         0.28116E-02         0.00000E+00
    0.57588E-02         0.26293E-02         0.00000E+00
    0.54032E-02         0.24478E-02         0.00000E+00
    0.50435E-02         0.22671E-02         0.00000E+00
    0.46795E-02         0.20872E-02         0.00000E+00
    0.43115E-02         0.19081E-02         0.00000E+00
    0.39393E-02         0.17300E-02         0.00000E+00
    0.35630E-02         0.15526E-02         0.00000E+00
    0.31828E-02         0.13762E-02         0.00000E+00
    0.27985E-02         0.12007E-02         0.00000E+00
    0.24103E-02         0.10262E-02         0.00000E+00
    0.20182E-02         0.85261E-03         0.00000E+00
    0.16222E-02         0.68001E-03         0.00000E+00
    0.12223E-02         0.50843E-03         0.00000E+00
    0.81863E-03         0.33788E-03         0.00000E+00
    0.41119E-03         0.16840E-03         0.00000E+00
    0.00000E+00         0.00000E+00         0.00000E+00
    0.14860E-01         0.85018E-02         0.00000E+00
    0.14685E-01         0.83190E-02         0.00000E+00
    0.14505E-01         0.81366E-02         0.00000E+00
    0.14319E-01         0.79545E-02         0.00000E+00
    0.14128E-01         0.77729E-02         0.00000E+00
    0.13930E-01         0.75915E-02         0.00000E+00
    0.13728E-01         0.74106E-02         0.00000E+00
    0.13519E-01         0.72301E-02         0.00000E+00
    0.13305E-01         0.70499E-02         0.00000E+00
    0.13086E-01         0.68702E-02         0.00000E+00
    0.12861E-01         0.66910E-02         0.00000E+00
    0.12631E-01         0.65121E-02         0.00000E+00
    0.12396E-01         0.63337E-02         0.00000E+00
    0.12156E-01         0.61558E-02         0.00000E+00
    0.11910E-01         0.59783E-02         0.00000E+00
    0.11659E-01         0.58013E-02         0.00000E+00
    0.11403E-01         0.56248E-02         0.00000E+00
    0.11142E-01         0.54487E-02         0.00000E+00
    0.10876E-01         0.52732E-02         0.00000E+00
    0.10606E-01         0.50982E-02         0.00000E+00
    0.10330E-01         0.49237E-02         0.00000E+00
    0.10049E-01         0.47498E-02         0.00000E+00
    0.97640E-02         0.45764E-02         0.00000E+00
    0.94740E-02         0.44036E-02         0.00000E+00
    0.91792E-02         0.42313E-02         0.00000E+00
    0.88797E-02         0.40596E-02         0.00000E+00
    0.85756E-02         0.38885E-02         0.00000E+00
    0.82670E-02         0.37181E-02         0.00000E+00
    0.79538E-02         0.35482E-02         0.00000E+00
    0.76361E-02         0.33790E-02         0.00000E+00
    0.73140E-02         0.32104E-02         0.00000E+00
    0.69875E-02         0.30425E-02         0.00000E+00
    0.66566E-02         0.28753E-02         0.00000E+00
    0.63214E-02         0.27087E-02         0.00000E+00
    0.59819E-02         0.25429E-02         0.00000E+00
    0.56381E-02         0.23778E-02         0.00000E+00
    0.52902E-02         0.22134E-02         0.00000E+00
    0.49381E-02         0.20498E-02         0.00000E+00
    0.45819E-02         0.18870E-02         0.00000E+00
    0.42215E-02         0.17249E-02         0.00000E+00
    0.38572E-02         0.15637E-02         0.00000E+00
    0.34888E-02         0.14033E-02         0.00000E+00
    0.31165E-02         0.12437E-02         0.00000E+00
    0.27403E-02         0.10850E-02         0.00000E+00
    0.23602E-02         0.92715E-03         0.00000E+00
    0.19762E-02         0.77023E-03         0.00000E+00
    0.15884E-02         0.61425E-03         0.00000E+00
    0.11969E-02         0.45921E-03         0.00000E+00
    0.80159E-03         0.30514E-03         0.00000E+00
    0.40262E-03         0.15206E-03         0.00000E+00
    0.00000E+00         0.00000E+00         0.00000E+00
    0.14514E-01         0.76612E-02         0.00000E+00
    0.14346E-01         0.74962E-02         0.00000E+00
    0.14173E-01         0.73315E-02         0.00000E+00
    0.13993E-01         0.71671E-02         0.00000E+00
    0.13808E-01         0.70031E-02         0.00000E+00
    0.13617E-01         0.68394E-02         0.00000E+00
    0.13421E-01         0.66760E-02         0.00000E+00
    0.13219E-01         0.65131E-02         0.00000E+00
    0.13012E-01         0.63505E-02         0.00000E+00
    0.12799E-01         0.61883E-02         0.00000E+00
    0.12581E-01         0.60264E-02         0.00000E+00
    0.12357E-01         0.58650E-02         0.00000E+00
    0.12129E-01         0.57040E-02         0.00000E+00
    0.11895E-01         0.55434E-02         0.00000E+00
    0.11656E-01         0.53833E-02         0.00000E+00
    0.11411E-01         0.52236E-02         0.00000E+00
    0.11162E-01         0.50643E-02         0.00000E+00
    0.10908E-01         0.49055E-02         0.00000E+00
    0.10649E-01         0.47472E-02         0.00000E+00
    0.10384E-01         0.45893E-02         0.00000E+00
    0.10115E-01         0.44319E-02         0.00000E+00
    0.98414E-02         0.42751E-02         0.00000E+00
    0.95628E-02         0.41187E-02         0.00000E+00
    0.92794E-02         0.39629E-02         0.00000E+00
    0.89913E-02         0.38076E-02         0.00000E+00
    0.86986E-02         0.36528E-02         0.00000E+00
    0.84013E-02         0.34986E-02         0.00000E+00
    0.80994E-02         0.33450E-02         0.00000E+00
    0.77930E-02         0.31919E-02         0.00000E+00
    0.74822E-02         0.30394E-02         0.00000E+00
    0.71669E-02         0.28876E-02         0.00000E+00
    0.68473E-02         0.27363E-02         0.00000E+00
    0.65233E-02         0.25857E-02         0.00000E+00
    0.61951E-02         0.24358E-02         0.00000E+00
    0.58626E-02         0.22864E-02         0.00000E+00
    0.55259E-02         0.21378E-02         0.00000E+00
    0.51850E-02         0.19898E-02         0.00000E+00
    0.48400E-02         0.18426E-02         0.00000E+00
    0.44910E-02         0.16961E-02         0.00000E+00
    0.41379E-02         0.15503E-02         0.00000E+00
    0.37808E-02         0.14052E-02         0.00000E+00
    0.34198E-02         0.12609E-02         0.00000E+00
    0.30549E-02         0.11174E-02         0.00000E+00
    0.26861E-02         0.97476E-03         0.00000E+00
    0.23135E-02         0.83289E-03         0.00000E+00
    0.19371E-02         0.69186E-03         0.00000E+00
    0.15570E-02         0.55169E-03         0.00000E+00
    0.11732E-02         0.41240E-03         0.00000E+00
    0.78573E-03         0.27401E-03         0.00000E+00
    0.39465E-03         0.13653E-03         0.00000E+00
    0.00000E+00         0.00000E+00         0.00000E+00
    0.14198E-01         0.68512E-02         0.00000E+00
    0.14036E-01         0.67034E-02         0.00000E+00
    0.13868E-01         0.65559E-02         0.00000E+00
    0.13695E-01         0.64087E-02         0.00000E+00
    0.13515E-01         0.62618E-02         0.00000E+00
    0.13330E-01         0.61151E-02         0.00000E+00
    0.13140E-01         0.59689E-02         0.00000E+00
    0.12944E-01         0.58229E-02         0.00000E+00
    0.12743E-01         0.56773E-02         0.00000E+00
    0.12536E-01         0.55320E-02         0.00000E+00
    0.12324E-01         0.53871E-02         0.00000E+00
    0.12106E-01         0.52426E-02         0.00000E+00
    0.11883E-01         0.50984E-02         0.00000E+00
    0.11655E-01         0.49546E-02         0.00000E+00
    0.11422E-01         0.48112E-02         0.00000E+00
    0.11184E-01         0.46683E-02         0.00000E+00
    0.10941E-01         0.45257E-02         0.00000E+00
    0.10693E-01         0.43835E-02         0.00000E+00
    0.10439E-01         0.42418E-02         0.00000E+00
    0.10181E-01         0.41005E-02         0.00000E+00
    0.99183E-02         0.39597E-02         0.00000E+00
    0.96505E-02         0.38193E-02         0.00000E+00
    0.93780E-02         0.36794E-02         0.00000E+00
    0.91007E-02         0.35400E-02         0.00000E+00
    0.88188E-02         0.34011E-02         0.00000E+00
    0.85322E-02         0.32626E-02         0.00000E+00
    0.82411E-02         0.31247E-02         0.00000E+00
    0.79454E-02         0.29873E-02         0.00000E+00
    0.76453E-02         0.28504E-02         0.00000E+00
    0.73407E-02         0.27141E-02         0.00000E+00
    0.70317E-02         0.25783E-02         0.00000E+00
    0.67184E-02         0.24431E-02         0.00000E+00
    0.64008E-02         0.23085E-02         0.00000E+00
    0.60790E-02         0.21744E-02         0.00000E+00
    0.57529E-02         0.20410E-02         0.00000E+00
    0.54227E-02         0.19082E-02         0.00000E+00
    0.50883E-02         0.17760E-02         0.00000E+00
    0.47499E-02         0.16445E-02         0.00000E+00
    0.44075E-02         0.15136E-02         0.00000E+00
    0.40610E-02         0.13834E-02         0.00000E+00
    0.37107E-02         0.12538E-02         0.00000E+00
    0.33564E-02         0.11250E-02         0.00000E+00
    0.29983E-02         0.99692E-03         0.00000E+00
    0.26363E-02         0.86955E-03         0.00000E+00
    0.22707E-02         0.74294E-03         0.00000E+00
    0.19012E-02         0.61709E-03         0.00000E+00
    0.15282E-02         0.49203E-03         0.00000E+00
    0.11515E-02         0.36777E-03         0.00000E+00
    0.77116E-03         0.24434E-03         0.00000E+00
    0.38733E-03         0.12174E-03         0.00000E+00
    0.00000E+00         0.00000E+00         0.00000E+00
    0.13913E-01         0.60687E-02         0.00000E+00
    0.13756E-01         0.59377E-02         0.00000E+00
    0.13593E-01         0.58068E-02         0.00000E+00
    0.13425E-01         0.56763E-02         0.00000E+00
    0.13251E-01         0.55460E-02         0.00000E+00
    0.13071E-01         0.54160E-02         0.00000E+00
    0.12886E-01         0.52862E-02         0.00000E+00
    0.12695E-01         0.51568E-02         0.00000E+00
    0.12499E-01         0.50277E-02         0.00000E+00
    0.12298E-01         0.48989E-02         0.00000E+00
    0.12091E-01         0.47704E-02         0.00000E+00
    0.11879E-01         0.46422E-02         0.00000E+00
    0.11661E-01         0.45144E-02         0.00000E+00
    0.11439E-01         0.43869E-02         0.00000E+00
    0.11211E-01         0.42598E-02         0.00000E+00
    0.10978E-01         0.41331E-02         0.00000E+00
    0.10741E-01         0.40067E-02         0.00000E+00
    0.10498E-01         0.38807E-02         0.00000E+00
    0.10250E-01         0.37551E-02         0.00000E+00
    0.99973E-02         0.36299E-02         0.00000E+00
    0.97398E-02         0.35050E-02         0.00000E+00
    0.94776E-02         0.33806E-02         0.00000E+00
    0.92105E-02         0.32567E-02         0.00000E+00
    0.89388E-02         0.31331E-02         0.00000E+00
    0.86624E-02         0.30100E-02         0.00000E+00
    0.83814E-02         0.28874E-02         0.00000E+00
    0.80959E-02         0.27652E-02         0.00000E+00
    0.78059E-02         0.26435E-02         0.00000E+00
    0.75114E-02         0.25222E-02         0.00000E+00
    0.72125E-02         0.24015E-02         0.00000E+00
    0.69092E-02         0.22812E-02         0.00000E+00
    0.66017E-02         0.21615E-02         0.00000E+00
    0.62898E-02         0.20423E-02         0.00000E+00
    0.59738E-02         0.19236E-02         0.00000E+00
    0.56535E-02         0.18055E-02         0.00000E+00
    0.53292E-02         0.16879E-02         0.00000E+00
    0.50007E-02         0.15709E-02         0.00000E+00
    0.46682E-02         0.14545E-02         0.00000E+00
    0.43318E-02         0.13386E-02         0.00000E+00
    0.39914E-02         0.12234E-02         0.00000E+00
    0.36470E-02         0.11088E-02         0.00000E+00
    0.32989E-02         0.99482E-03         0.00000E+00
    0.29469E-02         0.88150E-03         0.00000E+00
    0.25912E-02         0.76883E-03         0.00000E+00
    0.22318E-02         0.65685E-03         0.00000E+00
    0.18687E-02         0.54555E-03         0.00000E+00
    0.15020E-02         0.43496E-03         0.00000E+00
    0.11318E-02         0.32510E-03         0.00000E+00
    0.75796E-03         0.21597E-03         0.00000E+00
    0.38070E-03         0.10760E-03         0.00000E+00
    0.00000E+00         0.00000E+00         0.00000E+00
    0.13659E-01         0.53107E-02         0.00000E+00
    0.13506E-01         0.51959E-02         0.00000E+00
    0.13348E-01         0.50813E-02         0.00000E+00
    0.13185E-01         0.49670E-02         0.00000E+00
    0.13015E-01         0.48529E-02         0.00000E+00
    0.12840E-01         0.47390E-02         0.00000E+00
    0.12660E-01         0.46254E-02         0.00000E+00
    0.12474E-01         0.45121E-02         0.00000E+00
    0.12283E-01         0.43990E-02         0.00000E+00
    0.12086E-01         0.42863E-02         0.00000E+00
    0.11884E-01         0.41738E-02         0.00000E+00
    0.11676E-01         0.40615E-02         0.00000E+00
    0.11464E-01         0.39496E-02         0.00000E+00
    0.11246E-01         0.38380E-02         0.00000E+00
    0.11023E-01         0.37267E-02         0.00000E+00
    0.10795E-01         0.36158E-02         0.00000E+00
    0.10562E-01         0.35051E-02         0.00000E+00
    0.10324E-01         0.33948E-02         0.00000E+00
    0.10081E-01         0.32848E-02         0.00000E+00
    0.98334E-02         0.31752E-02         0.00000E+00
    0.95808E-02         0.30660E-02         0.00000E+00
    0.93234E-02         0.29571E-02         0.00000E+00
    0.90613E-02         0.28486E-02         0.00000E+00
    0.87945E-02         0.27405E-02         0.00000E+00
    0.85231E-02         0.26327E-02         0.00000E+00
    0.82471E-02         0.25254E-02         0.00000E+00
    0.79665E-02         0.24185E-02         0.00000E+00
    0.76815E-02         0.23119E-02         0.00000E+00
    0.73921E-02         0.22058E-02         0.00000E+00
    0.70982E-02         0.21002E-02         0.00000E+00
    0.68001E-02         0.19950E-02         0.00000E+00
    0.64976E-02         0.18902E-02         0.00000E+00
    0.61909E-02         0.17859E-02         0.00000E+00
    0.58800E-02         0.16821E-02         0.00000E+00
    0.55649E-02         0.15787E-02         0.00000E+00
    0.52458E-02         0.14759E-02         0.00000E+00
    0.49226E-02         0.13735E-02         0.00000E+00
    0.45954E-02         0.12717E-02         0.00000E+00
    0.42643E-02         0.11704E-02         0.00000E+00
    0.39293E-02         0.10696E-02         0.00000E+00
    0.35904E-02         0.96938E-03         0.00000E+00
    0.32477E-02         0.86971E-03         0.00000E+00
    0.29012E-02         0.77061E-03         0.00000E+00
    0.25510E-02         0.67210E-03         0.00000E+00
    0.21972E-02         0.57418E-03         0.00000E+00
    0.18397E-02         0.47688E-03         0.00000E+00
    0.14787E-02         0.38020E-03         0.00000E+00
    0.11142E-02         0.28416E-03         0.00000E+00
    0.74620E-03         0.18877E-03         0.00000E+00
    0.37478E-03         0.94044E-04         0.00000E+00
    0.00000E+00         0.00000E+00         0.00000E+00
    0.13437E-01         0.45742E-02         0.00000E+00
    0.13288E-01         0.44753E-02         0.00000E+00
    0.13135E-01         0.43766E-02         0.00000E+00
    0.12975E-01         0.42781E-02         0.00000E+00
    0.12810E-01         0.41798E-02         0.00000E+00
    0.12639E-01         0.40817E-02         0.00000E+00
    0.12462E-01         0.39839E-02         0.00000E+00
    0.12281E-01         0.38862E-02         0.00000E+00
    0.12093E-01         0.37888E-02         0.00000E+00
    0.11901E-01         0.36917E-02         0.00000E+00
    0.11703E-01         0.35948E-02         0.00000E+00
    0.11500E-01         0.34981E-02         0.00000E+00
    0.11291E-01         0.34017E-02         0.00000E+00
    0.11078E-01         0.33056E-02         0.00000E+00
    0.10859E-01         0.32097E-02         0.00000E+00
    0.10635E-01         0.31142E-02         0.00000E+00
    0.10406E-01         0.30189E-02         0.00000E+00
    0.10172E-01         0.29239E-02         0.00000E+00
    0.99338E-02         0.28291E-02         0.00000E+00
    0.96903E-02         0.27347E-02         0.00000E+00
    0.94420E-02         0.26406E-02         0.00000E+00
    0.91889E-02         0.25469E-02         0.00000E+00
    0.89310E-02         0.24534E-02         0.00000E+00
    0.86685E-02         0.23603E-02         0.00000E+00
    0.84015E-02         0.22675E-02         0.00000E+00
    0.81298E-02         0.21750E-02         0.00000E+00
    0.78536E-02         0.20829E-02         0.00000E+00
    0.75730E-02         0.19912E-02         0.00000E+00
    0.72879E-02         0.18998E-02         0.00000E+00
    0.69985E-02         0.18088E-02         0.00000E+00
    0.67048E-02         0.17182E-02         0.00000E+00
    0.64068E-02         0.16280E-02         0.00000E+00
    0.61045E-02         0.15382E-02         0.00000E+00
    0.57981E-02         0.14487E-02         0.00000E+00
    0.54876E-02         0.13597E-02         0.00000E+00
    0.51731E-02         0.12711E-02         0.00000E+00
    0.48545E-02         0.11830E-02         0.00000E+00
    0.45319E-02         0.10953E-02         0.00000E+00
    0.42054E-02         0.10080E-02         0.00000E+00
    0.38751E-02         0.92123E-03         0.00000E+00
    0.35409E-02         0.83490E-03         0.00000E+00
    0.32029E-02         0.74906E-03         0.00000E+00
    0.28613E-02         0.66371E-03         0.00000E+00
    0.25159E-02         0.57887E-03         0.00000E+00
    0.21670E-02         0.49454E-03         0.00000E+00
    0.18145E-02         0.41073E-03         0.00000E+00
    0.14584E-02         0.32746E-03         0.00000E+00
    0.10989E-02         0.24474E-03         0.00000E+00
    0.73594E-03         0.16258E-03         0.00000E+00
    0.36963E-03         0.80999E-04         0.00000E+00
    0.00000E+00         0.00000E+00         0.00000E+00
    0.13248E-01         0.38562E-02         0.00000E+00
    0.13103E-01         0.37729E-02         0.00000E+00
    0.12952E-01         0.36898E-02         0.00000E+00
    0.12796E-01         0.36068E-02         0.00000E+00
    0.12634E-01         0.35240E-02         0.00000E+00
    0.12467E-01         0.34413E-02         0.00000E+00
    0.12294E-01         0.33589E-02         0.00000E+00
    0.12116E-01         0.32767E-02         0.00000E+00
    0.11932E-01         0.31946E-02         0.00000E+00
    0.11743E-01         0.31128E-02         0.00000E+00
    0.11549E-01         0.30311E-02         0.00000E+00
    0.11349E-01         0.29497E-02         0.00000E+00
    0.11144E-01         0.28685E-02         0.00000E+00
    0.10934E-01         0.27875E-02         0.00000E+00
    0.10719E-01         0.27067E-02         0.00000E+00
    0.10499E-01         0.26262E-02         0.00000E+00
    0.10274E-01         0.25459E-02         0.00000E+00
    0.10044E-01         0.24658E-02         0.00000E+00
    0.98085E-02         0.23860E-02         0.00000E+00
    0.95686E-02         0.23065E-02         0.00000E+00
    0.93239E-02         0.22272E-02         0.00000E+00
    0.90745E-02         0.21481E-02         0.00000E+00
    0.88203E-02         0.20694E-02         0.00000E+00
    0.85615E-02         0.19909E-02         0.00000E+00
    0.82981E-02         0.19127E-02         0.00000E+00
    0.80302E-02         0.18348E-02         0.00000E+00
    0.77577E-02         0.17571E-02         0.00000E+00
    0.74808E-02         0.16798E-02         0.00000E+00
    0.71995E-02         0.16028E-02         0.00000E+00
    0.69138E-02         0.15261E-02         0.00000E+00
    0.66238E-02         0.14497E-02         0.00000E+00
    0.63296E-02         0.13736E-02         0.00000E+00
    0.60312E-02         0.12979E-02         0.00000E+00
    0.57287E-02         0.12225E-02         0.00000E+00
    0.54220E-02         0.11474E-02         0.00000E+00
    0.51113E-02         0.10727E-02         0.00000E+00
    0.47966E-02         0.99835E-03         0.00000E+00
    0.44780E-02         0.92437E-03         0.00000E+00
    0.41555E-02         0.85077E-03         0.00000E+00
    0.38291E-02         0.77755E-03         0.00000E+00
    0.34989E-02         0.70472E-03         0.00000E+00
    0.31650E-02         0.63229E-03         0.00000E+00
    0.28274E-02         0.56027E-03         0.00000E+00
    0.24862E-02         0.48867E-03         0.00000E+00
    0.21414E-02         0.41750E-03         0.00000E+00
    0.17930E-02         0.34677E-03         0.00000E+00
    0.14412E-02         0.27648E-03         0.00000E+00
    0.10859E-02         0.20665E-03         0.00000E+00
    0.72724E-03         0.13728E-03         0.00000E+00
    0.36526E-03         0.68398E-04         0.00000E+00
    0.00000E+00         0.00000E+00         0.00000E+00
    0.13092E-01         0.31540E-02         0.00000E+00
    0.12950E-01         0.30860E-02         0.00000E+00
    0.12803E-01         0.30181E-02         0.00000E+00
    0.12649E-01         0.29504E-02         0.00000E+00
    0.12491E-01         0.28828E-02         0.00000E+00
    0.12326E-01         0.28153E-02         0.00000E+00
    0.12156E-01         0.27480E-02         0.00000E+00
    0.11981E-01         0.26809E-02         0.00000E+00
    0.11800E-01         0.26139E-02         0.00000E+00
    0.11614E-01         0.25471E-02         0.00000E+00
    0.11422E-01         0.24804E-02         0.00000E+00
    0.11226E-01         0.24139E-02         0.00000E+00
    0.11024E-01         0.23476E-02         0.00000E+00
    0.10817E-01         0.22815E-02         0.00000E+00
    0.10605E-01         0.22155E-02         0.00000E+00
    0.10387E-01         0.21497E-02         0.00000E+00
    0.10165E-01         0.20841E-02         0.00000E+00
    0.99380E-02         0.20188E-02         0.00000E+00
    0.97059E-02         0.19536E-02         0.00000E+00
    0.94690E-02         0.18886E-02         0.00000E+00
    0.92273E-02         0.18238E-02         0.00000E+00
    0.89809E-02         0.17592E-02         0.00000E+00
    0.87298E-02         0.16949E-02         0.00000E+00
    0.84740E-02         0.16307E-02         0.00000E+00
    0.82136E-02         0.15668E-02         0.00000E+00
    0.79487E-02         0.15031E-02         0.00000E+00
    0.76793E-02         0.14396E-02         0.00000E+00
    0.74054E-02         0.13764E-02         0.00000E+00
    0.71272E-02         0.13134E-02         0.00000E+00
    0.68446E-02         0.12507E-02         0.00000E+00
    0.65577E-02         0.11882E-02         0.00000E+00
    0.62666E-02         0.11259E-02         0.00000E+00
    0.59714E-02         0.10639E-02         0.00000E+00
    0.56719E-02         0.10022E-02         0.00000E+00
    0.53684E-02         0.94078E-03         0.00000E+00
    0.50609E-02         0.87962E-03         0.00000E+00
    0.47494E-02         0.81874E-03         0.00000E+00
    0.44340E-02         0.75815E-03         0.00000E+00
    0.41147E-02         0.69785E-03         0.00000E+00
    0.37916E-02         0.63786E-03         0.00000E+00
    0.34647E-02         0.57818E-03         0.00000E+00
    0.31341E-02         0.51881E-03         0.00000E+00
    0.27998E-02         0.45977E-03         0.00000E+00
    0.24619E-02         0.40106E-03         0.00000E+00
    0.21205E-02         0.34269E-03         0.00000E+00
    0.17755E-02         0.28466E-03         0.00000E+00
    0.14271E-02         0.22699E-03         0.00000E+00
    0.10753E-02         0.16968E-03         0.00000E+00
    0.72014E-03         0.11274E-03         0.00000E+00
    0.36169E-03         0.56174E-04         0.00000E+00
    0.00000E+00         0.00000E+00         0.00000E+00
    0.12971E-01         0.24648E-02         0.00000E+00
    0.12831E-01         0.24119E-02         0.00000E+00
    0.12686E-01         0.23590E-02         0.00000E+00
    0.12535E-01         0.23063E-02         0.00000E+00
    0.12378E-01         0.22537E-02         0.00000E+00
    0.12216E-01         0.22012E-02         0.00000E+00
    0.12049E-01         0.21488E-02         0.00000E+00
    0.11876E-01         0.20965E-02         0.00000E+00
    0.11697E-01         0.20443E-02         0.00000E+00
    0.11513E-01         0.19923E-02         0.00000E+00
    0.11324E-01         0.19404E-02         0.00000E+00
    0.11130E-01         0.18886E-02         0.00000E+00
    0.10930E-01         0.18370E-02         0.00000E+00
    0.10726E-01         0.17854E-02         0.00000E+00
    0.10516E-01         0.17341E-02         0.00000E+00
    0.10301E-01         0.16828E-02         0.00000E+00
    0.10081E-01         0.16317E-02         0.00000E+00
    0.98562E-02         0.15807E-02         0.00000E+00
    0.96265E-02         0.15299E-02         0.00000E+00
    0.93920E-02         0.14793E-02         0.00000E+00
    0.91527E-02         0.14287E-02         0.00000E+00
    0.89086E-02         0.13784E-02         0.00000E+00
    0.86598E-02         0.13282E-02         0.00000E+00
    0.84064E-02         0.12781E-02         0.00000E+00
    0.81484E-02         0.12282E-02         0.00000E+00
    0.78858E-02         0.11785E-02         0.00000E+00
    0.76188E-02         0.11289E-02         0.00000E+00
    0.73473E-02         0.10795E-02         0.00000E+00
    0.70715E-02         0.10303E-02         0.00000E+00
    0.67913E-02         0.98128E-03         0.00000E+00
    0.65068E-02         0.93243E-03         0.00000E+00
    0.62181E-02         0.88375E-03         0.00000E+00
    0.59253E-02         0.83527E-03         0.00000E+00
    0.56283E-02         0.78697E-03         0.00000E+00
    0.53272E-02         0.73888E-03         0.00000E+00
    0.50221E-02         0.69098E-03         0.00000E+00
    0.47131E-02         0.64329E-03         0.00000E+00
    0.44002E-02         0.59581E-03         0.00000E+00
    0.40833E-02         0.54854E-03         0.00000E+00
    0.37627E-02         0.50149E-03         0.00000E+00
    0.34383E-02         0.45467E-03         0.00000E+00
    0.31103E-02         0.40808E-03         0.00000E+00
    0.27786E-02         0.36172E-03         0.00000E+00
    0.24432E-02         0.31560E-03         0.00000E+00
    0.21044E-02         0.26972E-03         0.00000E+00
    0.17621E-02         0.22410E-03         0.00000E+00
    0.14163E-02         0.17874E-03         0.00000E+00
    0.10671E-02         0.13364E-03         0.00000E+00
    0.71468E-03         0.88815E-04         0.00000E+00
    0.35895E-03         0.44265E-04         0.00000E+00
    0.00000E+00         0.00000E+00         0.00000E+00
    0.12883E-01         0.17859E-02         0.00000E+00
    0.12746E-01         0.17478E-02         0.00000E+00
    0.12602E-01         0.17098E-02         0.00000E+00
    0.12453E-01         0.16719E-02         0.00000E+00
    0.12298E-01         0.16341E-02         0.00000E+00
    0.12138E-01         0.15964E-02         0.00000E+00
    0.11972E-01         0.15587E-02         0.00000E+00
    0.11801E-01         0.15211E-02         0.00000E+00
    0.11624E-01         0.14836E-02         0.00000E+00
    0.11442E-01         0.14462E-02         0.00000E+00
    0.11255E-01         0.14088E-02         0.00000E+00
    0.11062E-01         0.13716E-02         0.00000E+00
    0.10864E-01         0.13344E-02         0.00000E+00
    0.10661E-01         0.12974E-02         0.00000E+00
    0.10453E-01         0.12604E-02         0.00000E+00
    0.10240E-01         0.12235E-02         0.00000E+00
    0.10022E-01         0.11866E-02         0.00000E+00
    0.97988E-02         0.11499E-02         0.00000E+00
    0.95708E-02         0.11133E-02         0.00000E+00
    0.93380E-02         0.10768E-02         0.00000E+00
    0.91003E-02         0.10403E-02         0.00000E+00
    0.88579E-02         0.10040E-02         0.00000E+00
    0.86109E-02         0.96771E-03         0.00000E+00
    0.83591E-02         0.93156E-03         0.00000E+00
    0.81028E-02         0.89550E-03         0.00000E+00
    0.78420E-02         0.85954E-03         0.00000E+00
    0.75766E-02         0.82369E-03         0.00000E+00
    0.73068E-02         0.78794E-03         0.00000E+00
    0.70327E-02         0.75229E-03         0.00000E+00
    0.67542E-02         0.71675E-03         0.00000E+00
    0.64714E-02         0.68132E-03         0.00000E+00
    0.61844E-02         0.64601E-03         0.00000E+00
    0.58933E-02         0.61080E-03         0.00000E+00
    0.55980E-02         0.57571E-03         0.00000E+00
    0.52986E-02         0.54075E-03         0.00000E+00
    0.49953E-02         0.50590E-03         0.00000E+00
    0.46879E-02         0.47118E-03         0.00000E+00
    0.43767E-02         0.43658E-03         0.00000E+00
    0.40616E-02         0.40211E-03         0.00000E+00
    0.37428E-02         0.36778E-03         0.00000E+00
    0.34201E-02         0.33358E-03         0.00000E+00
    0.30938E-02         0.29953E-03         0.00000E+00
    0.27639E-02         0.26562E-03         0.00000E+00
    0.24303E-02         0.23185E-03         0.00000E+00
    0.20933E-02         0.19824E-03         0.00000E+00
    0.17528E-02         0.16479E-03         0.00000E+00
    0.14088E-02         0.13149E-03         0.00000E+00
    0.10615E-02         0.98358E-04         0.00000E+00
    0.71091E-03         0.65396E-04         0.00000E+00
    0.35705E-03         0.32608E-04         0.00000E+00
    0.00000E+00         0.00000E+00         0.00000E+00
    0.12831E-01         0.11145E-02         0.00000E+00
    0.12694E-01         0.10912E-02         0.00000E+00
    0.12552E-01         0.10679E-02         0.00000E+00
    0.12404E-01         0.10447E-02         0.00000E+00
    0.12251E-01         0.10216E-02         0.00000E+00
    0.12092E-01         0.99846E-03         0.00000E+00
    0.11927E-01         0.97540E-03         0.00000E+00
    0.11757E-01         0.95238E-03         0.00000E+00
    0.11581E-01         0.92940E-03         0.00000E+00
    0.11400E-01         0.90647E-03         0.00000E+00
    0.11214E-01         0.88358E-03         0.00000E+00
    0.11023E-01         0.86073E-03         0.00000E+00
    0.10826E-01         0.83792E-03         0.00000E+00
    0.10624E-01         0.81515E-03         0.00000E+00
    0.10417E-01         0.79242E-03         0.00000E+00
    0.10205E-01         0.76973E-03         0.00000E+00
    0.99880E-02         0.74708E-03         0.00000E+00
    0.97660E-02         0.72446E-03         0.00000E+00
    0.95391E-02         0.70188E-03         0.00000E+00
    0.93073E-02         0.67934E-03         0.00000E+00
    0.90707E-02         0.65683E-03         0.00000E+00
    0.88294E-02         0.63436E-03         0.00000E+00
    0.85833E-02         0.61192E-03         0.00000E+00
    0.83326E-02         0.58952E-03         0.00000E+00
    0.80773E-02         0.56715E-03         0.00000E+00
    0.78175E-02         0.54482E-03         0.00000E+00
    0.75531E-02         0.52253E-03         0.00000E+00
    0.72843E-02         0.50026E-03         0.00000E+00
    0.70111E-02         0.47804E-03         0.00000E+00
    0.67336E-02         0.45585E-03         0.00000E+00
    0.64518E-02         0.43370E-03         0.00000E+00
    0.61658E-02         0.41158E-03         0.00000E+00
    0.58756E-02         0.38950E-03         0.00000E+00
    0.55813E-02         0.36746E-03         0.00000E+00
    0.52829E-02         0.34546E-03         0.00000E+00
    0.49805E-02         0.32349E-03         0.00000E+00
    0.46741E-02         0.30157E-03         0.00000E+00
    0.43639E-02         0.27970E-03         0.00000E+00
    0.40498E-02         0.25786E-03         0.00000E+00
    0.37318E-02         0.23607E-03         0.00000E+00
    0.34102E-02         0.21433E-03         0.00000E+00
    0.30848E-02         0.19264E-03         0.00000E+00
    0.27559E-02         0.17100E-03         0.00000E+00
    0.24233E-02         0.14941E-03         0.00000E+00
    0.20872E-02         0.12788E-03         0.00000E+00
    0.17477E-02         0.10641E-03         0.00000E+00
    0.14047E-02         0.84995E-04         0.00000E+00
    0.10584E-02         0.63645E-04         0.00000E+00
    0.70885E-03         0.42360E-04         0.00000E+00
    0.35602E-03         0.21144E-04         0.00000E+00
    0.00000E+00         0.00000E+00         0.00000E+00
    0.12814E-01         0.44796E-03         0.00000E+00
    0.12678E-01         0.43935E-03         0.00000E+00
    0.12536E-01         0.43075E-03         0.00000E+00
    0.12389E-01         0.42218E-03         0.00000E+00
    0.12236E-01         0.41362E-03         0.00000E+00
    0.12078E-01         0.40507E-03         0.00000E+00
    0.11914E-01         0.39653E-03         0.00000E+00
    0.11744E-01         0.38800E-03         0.00000E+00
    0.11569E-01         0.37947E-03         0.00000E+00
    0.11389E-01         0.37095E-03         0.00000E+00
    0.11203E-01         0.36242E-03         0.00000E+00
    0.11012E-01         0.35389E-03         0.00000E+00
    0.10816E-01         0.34536E-03         0.00000E+00
    0.10615E-01         0.33682E-03         0.00000E+00
    0.10408E-01         0.32827E-03         0.00000E+00
    0.10197E-01         0.31971E-03         0.00000E+00
    0.99799E-02         0.31113E-03         0.00000E+00
    0.97583E-02         0.30253E-03         0.00000E+00
    0.95318E-02         0.29392E-03         0.00000E+00
    0.93004E-02         0.28528E-03         0.00000E+00
    0.90642E-02         0.27663E-03         0.00000E+00
    0.88232E-02         0.26794E-03         0.00000E+00
    0.85775E-02         0.25924E-03         0.00000E+00
    0.83271E-02         0.25050E-03         0.00000E+00
    0.80722E-02         0.24173E-03         0.00000E+00
    0.78126E-02         0.23293E-03         0.00000E+00
    0.75486E-02         0.22410E-03         0.00000E+00
    0.72800E-02         0.21523E-03         0.00000E+00
    0.70071E-02         0.20633E-03         0.00000E+00
    0.67299E-02         0.19739E-03         0.00000E+00
    0.64483E-02         0.18841E-03         0.00000E+00
    0.61625E-02         0.17939E-03         0.00000E+00
    0.58726E-02         0.17033E-03         0.00000E+00
    0.55785E-02         0.16123E-03         0.00000E+00
    0.52803E-02         0.15209E-03         0.00000E+00
    0.49781E-02         0.14291E-03         0.00000E+00
    0.46719E-02         0.13368E-03         0.00000E+00
    0.43618E-02         0.12441E-03         0.00000E+00
    0.40479E-02         0.11510E-03         0.00000E+00
    0.37301E-02         0.10574E-03         0.00000E+00
    0.34086E-02         0.96338E-04         0.00000E+00
    0.30834E-02         0.86893E-04         0.00000E+00
    0.27546E-02         0.77404E-04         0.00000E+00
    0.24222E-02         0.67872E-04         0.00000E+00
    0.20863E-02         0.58298E-04         0.00000E+00
    0.17469E-02         0.48681E-04         0.00000E+00
    0.14041E-02         0.39024E-04         0.00000E+00
    0.10580E-02         0.29326E-04         0.00000E+00
    0.70854E-03         0.19588E-04         0.00000E+00
    0.35586E-03         0.98126E-05         0.00000E+00
    0.00000E+00         0.00000E+00         0.00000E+00
    0.12832E-01        -0.21633E-03         0.00000E+00
    0.12696E-01        -0.21028E-03         0.00000E+00
    0.12555E-01        -0.20424E-03         0.00000E+00
    0.12408E-01        -0.19822E-03         0.00000E+00
    0.12255E-01        -0.19221E-03         0.00000E+00
    0.12096E-01        -0.18622E-03         0.00000E+00
    0.11932E-01        -0.18026E-03         0.00000E+00
    0.11763E-01        -0.17433E-03         0.00000E+00
    0.11588E-01        -0.16844E-03         0.00000E+00
    0.11408E-01        -0.16258E-03         0.00000E+00
    0.11222E-01        -0.15677E-03         0.00000E+00
    0.11031E-01        -0.15101E-03         0.00000E+00
    0.10835E-01        -0.14529E-03         0.00000E+00
    0.10633E-01        -0.13964E-03         0.00000E+00
    0.10426E-01        -0.13404E-03         0.00000E+00
    0.10215E-01        -0.12851E-03         0.00000E+00
    0.99978E-02        -0.12304E-03         0.00000E+00
    0.97760E-02        -0.11765E-03         0.00000E+00
    0.95492E-02        -0.11233E-03         0.00000E+00
    0.93176E-02        -0.10709E-03         0.00000E+00
    0.90811E-02        -0.10194E-03         0.00000E+00
    0.88398E-02        -0.96865E-04         0.00000E+00
    0.85937E-02        -0.91884E-04         0.00000E+00
    0.83430E-02        -0.86996E-04         0.00000E+00
    0.80876E-02        -0.82204E-04         0.00000E+00
    0.78277E-02        -0.77512E-04         0.00000E+00
    0.75632E-02        -0.72922E-04         0.00000E+00
    0.72942E-02        -0.68438E-04         0.00000E+00
    0.70209E-02        -0.64063E-04         0.00000E+00
    0.67431E-02        -0.59799E-04         0.00000E+00
    0.64611E-02        -0.55649E-04         0.00000E+00
    0.61748E-02        -0.51617E-04         0.00000E+00
    0.58843E-02        -0.47704E-04         0.00000E+00
    0.55896E-02        -0.43913E-04         0.00000E+00
    0.52909E-02        -0.40246E-04         0.00000E+00
    0.49881E-02        -0.36706E-04         0.00000E+00
    0.46814E-02        -0.33294E-04         0.00000E+00
    0.43707E-02        -0.30013E-04         0.00000E+00
    0.40561E-02        -0.26865E-04         0.00000E+00
    0.37377E-02        -0.23852E-04         0.00000E+00
    0.34156E-02        -0.20975E-04         0.00000E+00
    0.30898E-02        -0.18236E-04         0.00000E+00
    0.27603E-02        -0.15636E-04         0.00000E+00
    0.24272E-02        -0.13177E-04         0.00000E+00
    0.20906E-02        -0.10860E-04         0.00000E+00
    0.17505E-02        -0.86869E-05         0.00000E+00
    0.14070E-02        -0.66576E-05         0.00000E+00
    0.10602E-02        -0.47735E-05         0.00000E+00
    0.70999E-03        -0.30354E-05         0.00000E+00
    0.35659E-03        -0.14441E-05         0.00000E+00
    0.00000E+00         0.00000E+00         0.00000E+00
    0.12886E-01        -0.88102E-03         0.00000E+00
    0.12750E-01        -0.86029E-03         0.00000E+00
    0.12608E-01        -0.83960E-03         0.00000E+00
    0.12460E-01        -0.81895E-03         0.00000E+00
    0.12307E-01        -0.79835E-03         0.00000E+00
    0.12148E-01        -0.77780E-03         0.00000E+00
    0.11984E-01        -0.75732E-03         0.00000E+00
    0.11814E-01        -0.73691E-03         0.00000E+00
    0.11638E-01        -0.71657E-03         0.00000E+00
    0.11457E-01        -0.69631E-03         0.00000E+00
    0.11271E-01        -0.67614E-03         0.00000E+00
    0.11079E-01        -0.65607E-03         0.00000E+00
    0.10882E-01        -0.63609E-03         0.00000E+00
    0.10680E-01        -0.61621E-03         0.00000E+00
    0.10472E-01        -0.59645E-03         0.00000E+00
    0.10260E-01        -0.57680E-03         0.00000E+00
    0.10042E-01        -0.55727E-03         0.00000E+00
    0.98193E-02        -0.53788E-03         0.00000E+00
    0.95916E-02        -0.51861E-03         0.00000E+00
    0.93590E-02        -0.49948E-03         0.00000E+00
    0.91216E-02        -0.48049E-03         0.00000E+00
    0.88792E-02        -0.46165E-03         0.00000E+00
    0.86322E-02        -0.44297E-03         0.00000E+00
    0.83804E-02        -0.42444E-03         0.00000E+00
    0.81239E-02        -0.40608E-03         0.00000E+00
    0.78629E-02        -0.38789E-03         0.00000E+00
    0.75973E-02        -0.36986E-03         0.00000E+00
    0.73271E-02        -0.35202E-03         0.00000E+00
    0.70526E-02        -0.33436E-03         0.00000E+00
    0.67736E-02        -0.31688E-03         0.00000E+00
    0.64904E-02        -0.29960E-03         0.00000E+00
    0.62028E-02        -0.28251E-03         0.00000E+00
    0.59110E-02        -0.26562E-03         0.00000E+00
    0.56150E-02        -0.24894E-03         0.00000E+00
    0.53149E-02        -0.23246E-03         0.00000E+00
    0.50108E-02        -0.21619E-03         0.00000E+00
    0.47027E-02        -0.20014E-03         0.00000E+00
    0.43906E-02        -0.18431E-03         0.00000E+00
    0.40746E-02        -0.16871E-03         0.00000E+00
    0.37548E-02        -0.15333E-03         0.00000E+00
    0.34312E-02        -0.13817E-03         0.00000E+00
    0.31039E-02        -0.12326E-03         0.00000E+00
    0.27729E-02        -0.10858E-03         0.00000E+00
    0.24383E-02        -0.94134E-04         0.00000E+00
    0.21001E-02        -0.79936E-04         0.00000E+00
    0.17585E-02        -0.65983E-04         0.00000E+00
    0.14134E-02        -0.52279E-04         0.00000E+00
    0.10650E-02        -0.38826E-04         0.00000E+00
    0.71324E-03        -0.25627E-04         0.00000E+00
    0.35822E-03        -0.12684E-04         0.00000E+00
    0.00000E+00         0.00000E+00         0.00000E+00
    0.12976E-01        -0.15488E-02         0.00000E+00
    0.12839E-01        -0.15133E-02         0.00000E+00
    0.12696E-01        -0.14779E-02         0.00000E+00
    0.12548E-01        -0.14425E-02         0.00000E+00
    0.12393E-01        -0.14072E-02         0.00000E+00
    0.12233E-01        -0.13721E-02         0.00000E+00
    0.12068E-01        -0.13370E-02         0.00000E+00
    0.11897E-01        -0.13020E-02         0.00000E+00
    0.11720E-01        -0.12672E-02         0.00000E+00
    0.11538E-01        -0.12324E-02         0.00000E+00
    0.11350E-01        -0.11978E-02         0.00000E+00
    0.11157E-01        -0.11634E-02         0.00000E+00
    0.10959E-01        -0.11291E-02         0.00000E+00
    0.10755E-01        -0.10949E-02         0.00000E+00
    0.10546E-01        -0.10609E-02         0.00000E+00
    0.10332E-01        -0.10271E-02         0.00000E+00
    0.10113E-01        -0.99340E-03         0.00000E+00
    0.98886E-02        -0.95993E-03         0.00000E+00
    0.96593E-02        -0.92665E-03         0.00000E+00
    0.94251E-02        -0.89356E-03         0.00000E+00
    0.91859E-02        -0.86068E-03         0.00000E+00
    0.89419E-02        -0.82801E-03         0.00000E+00
    0.86931E-02        -0.79555E-03         0.00000E+00
    0.84396E-02        -0.76332E-03         0.00000E+00
    0.81813E-02        -0.73133E-03         0.00000E+00
    0.79184E-02        -0.69957E-03         0.00000E+00
    0.76510E-02        -0.66805E-03         0.00000E+00
    0.73789E-02        -0.63678E-03         0.00000E+00
    0.71025E-02        -0.60577E-03         0.00000E+00
    0.68215E-02        -0.57503E-03         0.00000E+00
    0.65363E-02        -0.54455E-03         0.00000E+00
    0.62467E-02        -0.51435E-03         0.00000E+00
    0.59528E-02        -0.48442E-03         0.00000E+00
    0.56548E-02        -0.45479E-03         0.00000E+00
    0.53526E-02        -0.42544E-03         0.00000E+00
    0.50463E-02        -0.39640E-03         0.00000E+00
    0.47359E-02        -0.36766E-03         0.00000E+00
    0.44216E-02        -0.33922E-03         0.00000E+00
    0.41034E-02        -0.31110E-03         0.00000E+00
    0.37813E-02        -0.28330E-03         0.00000E+00
    0.34555E-02        -0.25583E-03         0.00000E+00
    0.31258E-02        -0.22868E-03         0.00000E+00
    0.27925E-02        -0.20187E-03         0.00000E+00
    0.24555E-02        -0.17540E-03         0.00000E+00
    0.21150E-02        -0.14927E-03         0.00000E+00
    0.17710E-02        -0.12349E-03         0.00000E+00
    0.14234E-02        -0.98069E-04         0.00000E+00
    0.10725E-02        -0.73003E-04         0.00000E+00
    0.71828E-03        -0.48300E-04         0.00000E+00
    0.36075E-03        -0.23964E-04         0.00000E+00
    0.00000E+00         0.00000E+00         0.00000E+00
    0.13103E-01        -0.22222E-02         0.00000E+00
    0.12964E-01        -0.21718E-02         0.00000E+00
    0.12820E-01        -0.21216E-02         0.00000E+00
    0.12670E-01        -0.20714E-02         0.00000E+00
    0.12514E-01        -0.20213E-02         0.00000E+00
    0.12352E-01        -0.19714E-02         0.00000E+00
    0.12185E-01        -0.19216E-02         0.00000E+00
    0.12012E-01        -0.18720E-02         0.00000E+00
    0.11833E-01        -0.18225E-02         0.00000E+00
    0.11649E-01        -0.17732E-02         0.00000E+00
    0.11460E-01        -0.17240E-02         0.00000E+00
    0.11265E-01        -0.16750E-02         0.00000E+00
    0.11065E-01        -0.16263E-02         0.00000E+00
    0.10859E-01        -0.15777E-02         0.00000E+00
    0.10648E-01        -0.15293E-02         0.00000E+00
    0.10432E-01        -0.14812E-02         0.00000E+00
    0.10210E-01        -0.14333E-02         0.00000E+00
    0.99839E-02        -0.13856E-02         0.00000E+00
    0.97524E-02        -0.13382E-02         0.00000E+00
    0.95159E-02        -0.12910E-02         0.00000E+00
    0.92744E-02        -0.12441E-02         0.00000E+00
    0.90280E-02        -0.11975E-02         0.00000E+00
    0.87767E-02        -0.11512E-02         0.00000E+00
    0.85207E-02        -0.11051E-02         0.00000E+00
    0.82600E-02        -0.10594E-02         0.00000E+00
    0.79945E-02        -0.10139E-02         0.00000E+00
    0.77244E-02        -0.96881E-03         0.00000E+00
    0.74498E-02        -0.92400E-03         0.00000E+00
    0.71706E-02        -0.87953E-03         0.00000E+00
    0.68870E-02        -0.83540E-03         0.00000E+00
    0.65989E-02        -0.79162E-03         0.00000E+00
    0.63066E-02        -0.74819E-03         0.00000E+00
    0.60099E-02        -0.70512E-03         0.00000E+00
    0.57089E-02        -0.66242E-03         0.00000E+00
    0.54038E-02        -0.62010E-03         0.00000E+00
    0.50946E-02        -0.57816E-03         0.00000E+00
    0.47813E-02        -0.53662E-03         0.00000E+00
    0.44640E-02        -0.49548E-03         0.00000E+00
    0.41427E-02        -0.45474E-03         0.00000E+00
    0.38175E-02        -0.41441E-03         0.00000E+00
    0.34885E-02        -0.37450E-03         0.00000E+00
    0.31557E-02        -0.33502E-03         0.00000E+00
    0.28192E-02        -0.29598E-03         0.00000E+00
    0.24790E-02        -0.25737E-03         0.00000E+00
    0.21352E-02        -0.21921E-03         0.00000E+00
    0.17879E-02        -0.18151E-03         0.00000E+00
    0.14371E-02        -0.14426E-03         0.00000E+00
    0.10828E-02        -0.10748E-03         0.00000E+00
    0.72516E-03        -0.71172E-04         0.00000E+00
    0.36420E-03        -0.35344E-04         0.00000E+00
    0.00000E+00         0.00000E+00         0.00000E+00
    0.13266E-01        -0.29041E-02         0.00000E+00
    0.13125E-01        -0.28386E-02         0.00000E+00
    0.12979E-01        -0.27733E-02         0.00000E+00
    0.12827E-01        -0.27082E-02         0.00000E+00
    0.12669E-01        -0.26431E-02         0.00000E+00
    0.12505E-01        -0.25783E-02         0.00000E+00
    0.12335E-01        -0.25136E-02         0.00000E+00
    0.12160E-01        -0.24491E-02         0.00000E+00
    0.11979E-01        -0.23848E-02         0.00000E+00
    0.11793E-01        -0.23207E-02         0.00000E+00
    0.11601E-01        -0.22568E-02         0.00000E+00
    0.11403E-01        -0.21932E-02         0.00000E+00
    0.11200E-01        -0.21297E-02         0.00000E+00
    0.10992E-01        -0.20666E-02         0.00000E+00
    0.10778E-01        -0.20037E-02         0.00000E+00
    0.10559E-01        -0.19411E-02         0.00000E+00
    0.10335E-01        -0.18788E-02         0.00000E+00
    0.10106E-01        -0.18167E-02         0.00000E+00
    0.98711E-02        -0.17550E-02         0.00000E+00
    0.96316E-02        -0.16936E-02         0.00000E+00
    0.93871E-02        -0.16325E-02         0.00000E+00
    0.91376E-02        -0.15718E-02         0.00000E+00
    0.88832E-02        -0.15114E-02         0.00000E+00
    0.86240E-02        -0.14513E-02         0.00000E+00
    0.83600E-02        -0.13917E-02         0.00000E+00
    0.80913E-02        -0.13324E-02         0.00000E+00
    0.78178E-02        -0.12735E-02         0.00000E+00
    0.75398E-02        -0.12150E-02         0.00000E+00
    0.72572E-02        -0.11569E-02         0.00000E+00
    0.69701E-02        -0.10992E-02         0.00000E+00
    0.66785E-02        -0.10419E-02         0.00000E+00
    0.63826E-02        -0.98511E-03         0.00000E+00
    0.60823E-02        -0.92873E-03         0.00000E+00
    0.57777E-02        -0.87280E-03         0.00000E+00
    0.54689E-02        -0.81734E-03         0.00000E+00
    0.51559E-02        -0.76235E-03         0.00000E+00
    0.48388E-02        -0.70784E-03         0.00000E+00
    0.45177E-02        -0.65382E-03         0.00000E+00
    0.41925E-02        -0.60029E-03         0.00000E+00
    0.38634E-02        -0.54728E-03         0.00000E+00
    0.35304E-02        -0.49478E-03         0.00000E+00
    0.31936E-02        -0.44280E-03         0.00000E+00
    0.28531E-02        -0.39136E-03         0.00000E+00
    0.25088E-02        -0.34045E-03         0.00000E+00
    0.21609E-02        -0.29010E-03         0.00000E+00
    0.18094E-02        -0.24031E-03         0.00000E+00
    0.14543E-02        -0.19108E-03         0.00000E+00
    0.10958E-02        -0.14243E-03         0.00000E+00
    0.73386E-03        -0.94359E-04         0.00000E+00
    0.36858E-03        -0.46880E-04         0.00000E+00
    0.00000E+00         0.00000E+00         0.00000E+00
    0.13466E-01        -0.35970E-02         0.00000E+00
    0.13323E-01        -0.35163E-02         0.00000E+00
    0.13174E-01        -0.34357E-02         0.00000E+00
    0.13019E-01        -0.33553E-02         0.00000E+00
    0.12859E-01        -0.32751E-02         0.00000E+00
    0.12692E-01        -0.31951E-02         0.00000E+00
    0.12519E-01        -0.31153E-02         0.00000E+00
    0.12341E-01        -0.30357E-02         0.00000E+00
    0.12157E-01        -0.29564E-02         0.00000E+00
    0.11968E-01        -0.28773E-02         0.00000E+00
    0.11772E-01        -0.27985E-02         0.00000E+00
    0.11572E-01        -0.27199E-02         0.00000E+00
    0.11365E-01        -0.26416E-02         0.00000E+00
    0.11154E-01        -0.25637E-02         0.00000E+00
    0.10937E-01        -0.24860E-02         0.00000E+00
    0.10714E-01        -0.24087E-02         0.00000E+00
    0.10487E-01        -0.23317E-02         0.00000E+00
    0.10254E-01        -0.22551E-02         0.00000E+00
    0.10016E-01        -0.21789E-02         0.00000E+00
    0.97724E-02        -0.21030E-02         0.00000E+00
    0.95241E-02        -0.20275E-02         0.00000E+00
    0.92709E-02        -0.19524E-02         0.00000E+00
    0.90126E-02        -0.18777E-02         0.00000E+00
    0.87495E-02        -0.18035E-02         0.00000E+00
    0.84815E-02        -0.17297E-02         0.00000E+00
    0.82088E-02        -0.16563E-02         0.00000E+00
    0.79313E-02        -0.15834E-02         0.00000E+00
    0.76491E-02        -0.15110E-02         0.00000E+00
    0.73623E-02        -0.14390E-02         0.00000E+00
    0.70710E-02        -0.13676E-02         0.00000E+00
    0.67751E-02        -0.12966E-02         0.00000E+00
    0.64748E-02        -0.12262E-02         0.00000E+00
    0.61701E-02        -0.11563E-02         0.00000E+00
    0.58611E-02        -0.10869E-02         0.00000E+00
    0.55478E-02        -0.10181E-02         0.00000E+00
    0.52302E-02        -0.94981E-03         0.00000E+00
    0.49085E-02        -0.88212E-03         0.00000E+00
    0.45827E-02        -0.81500E-03         0.00000E+00
    0.42529E-02        -0.74847E-03         0.00000E+00
    0.39190E-02        -0.68255E-03         0.00000E+00
    0.35812E-02        -0.61723E-03         0.00000E+00
    0.32396E-02        -0.55254E-03         0.00000E+00
    0.28941E-02        -0.48848E-03         0.00000E+00
    0.25449E-02        -0.42506E-03         0.00000E+00
    0.21919E-02        -0.36230E-03         0.00000E+00
    0.18354E-02        -0.30020E-03         0.00000E+00
    0.14752E-02        -0.23877E-03         0.00000E+00
    0.11115E-02        -0.17803E-03         0.00000E+00
    0.74441E-03        -0.11798E-03         0.00000E+00
    0.37387E-03        -0.58633E-04         0.00000E+00
    0.00000E+00         0.00000E+00         0.00000E+00
    0.13704E-01        -0.43038E-02         0.00000E+00
    0.13558E-01        -0.42076E-02         0.00000E+00
    0.13405E-01        -0.41115E-02         0.00000E+00
    0.13247E-01        -0.40156E-02         0.00000E+00
    0.13083E-01        -0.39199E-02         0.00000E+00
    0.12913E-01        -0.38244E-02         0.00000E+00
    0.12737E-01        -0.37292E-02         0.00000E+00
    0.12555E-01        -0.36343E-02         0.00000E+00
    0.12368E-01        -0.35396E-02         0.00000E+00
    0.12174E-01        -0.34452E-02         0.00000E+00
    0.11976E-01        -0.33512E-02         0.00000E+00
    0.11771E-01        -0.32575E-02         0.00000E+00
    0.11561E-01        -0.31641E-02         0.00000E+00
    0.11345E-01        -0.30710E-02         0.00000E+00
    0.11124E-01        -0.29783E-02         0.00000E+00
    0.10897E-01        -0.28861E-02         0.00000E+00
    0.10666E-01        -0.27942E-02         0.00000E+00
    0.10428E-01        -0.27027E-02         0.00000E+00
    0.10186E-01        -0.26116E-02         0.00000E+00
    0.99384E-02        -0.25210E-02         0.00000E+00
    0.96857E-02        -0.24308E-02         0.00000E+00
    0.94279E-02        -0.23411E-02         0.00000E+00
    0.91651E-02        -0.22519E-02         0.00000E+00
    0.88973E-02        -0.21632E-02         0.00000E+00
    0.86247E-02        -0.20749E-02         0.00000E+00
    0.83471E-02        -0.19872E-02         0.00000E+00
    0.80648E-02        -0.19000E-02         0.00000E+00
    0.77778E-02        -0.18134E-02         0.00000E+00
    0.74860E-02        -0.17273E-02         0.00000E+00
    0.71897E-02        -0.16418E-02         0.00000E+00
    0.68888E-02        -0.15569E-02         0.00000E+00
    0.65833E-02        -0.14726E-02         0.00000E+00
    0.62734E-02        -0.13888E-02         0.00000E+00
    0.59592E-02        -0.13057E-02         0.00000E+00
    0.56405E-02        -0.12233E-02         0.00000E+00
    0.53176E-02        -0.11414E-02         0.00000E+00
    0.49905E-02        -0.10603E-02         0.00000E+00
    0.46592E-02        -0.97979E-03         0.00000E+00
    0.43238E-02        -0.89998E-03         0.00000E+00
    0.39844E-02        -0.82087E-03         0.00000E+00
    0.36409E-02        -0.74247E-03         0.00000E+00
    0.32936E-02        -0.66478E-03         0.00000E+00
    0.29423E-02        -0.58783E-03         0.00000E+00
    0.25873E-02        -0.51162E-03         0.00000E+00
    0.22284E-02        -0.43616E-03         0.00000E+00
    0.18659E-02        -0.36148E-03         0.00000E+00
    0.14998E-02        -0.28757E-03         0.00000E+00
    0.11301E-02        -0.21446E-03         0.00000E+00
    0.75680E-03        -0.14215E-03         0.00000E+00
    0.38010E-03        -0.70663E-04         0.00000E+00
    0.00000E+00         0.00000E+00         0.00000E+00
    0.13978E-01        -0.50274E-02         0.00000E+00
    0.13829E-01        -0.49152E-02         0.00000E+00
    0.13673E-01        -0.48032E-02         0.00000E+00
    0.13511E-01        -0.46915E-02         0.00000E+00
    0.13343E-01        -0.45800E-02         0.00000E+00
    0.13169E-01        -0.44688E-02         0.00000E+00
    0.12989E-01        -0.43578E-02         0.00000E+00
    0.12803E-01        -0.42472E-02         0.00000E+00
    0.12611E-01        -0.41369E-02         0.00000E+00
    0.12413E-01        -0.40269E-02         0.00000E+00
    0.12210E-01        -0.39173E-02         0.00000E+00
    0.12001E-01        -0.38081E-02         0.00000E+00
    0.11786E-01        -0.36992E-02         0.00000E+00
    0.11566E-01        -0.35907E-02         0.00000E+00
    0.11340E-01        -0.34827E-02         0.00000E+00
    0.11109E-01        -0.33751E-02         0.00000E+00
    0.10872E-01        -0.32680E-02         0.00000E+00
    0.10630E-01        -0.31613E-02         0.00000E+00
    0.10382E-01        -0.30551E-02         0.00000E+00
    0.10130E-01        -0.29494E-02         0.00000E+00
    0.98718E-02        -0.28442E-02         0.00000E+00
    0.96088E-02        -0.27395E-02         0.00000E+00
    0.93407E-02        -0.26354E-02         0.00000E+00
    0.90675E-02        -0.25319E-02         0.00000E+00
    0.87894E-02        -0.24289E-02         0.00000E+00
    0.85064E-02        -0.23265E-02         0.00000E+00
    0.82185E-02        -0.22247E-02         0.00000E+00
    0.79258E-02        -0.21236E-02         0.00000E+00
    0.76284E-02        -0.20230E-02         0.00000E+00
    0.73262E-02        -0.19231E-02         0.00000E+00
    0.70195E-02        -0.18239E-02         0.00000E+00
    0.67081E-02        -0.17253E-02         0.00000E+00
    0.63923E-02        -0.16275E-02         0.00000E+00
    0.60719E-02        -0.15303E-02         0.00000E+00
    0.57472E-02        -0.14339E-02         0.00000E+00
    0.54181E-02        -0.13382E-02         0.00000E+00
    0.50848E-02        -0.12432E-02         0.00000E+00
    0.47472E-02        -0.11490E-02         0.00000E+00
    0.44054E-02        -0.10556E-02         0.00000E+00
    0.40595E-02        -0.96293E-03         0.00000E+00
    0.37096E-02        -0.87109E-03         0.00000E+00
    0.33556E-02        -0.78007E-03         0.00000E+00
    0.29977E-02        -0.68989E-03         0.00000E+00
    0.26360E-02        -0.60055E-03         0.00000E+00
    0.22704E-02        -0.51206E-03         0.00000E+00
    0.19011E-02        -0.42446E-03         0.00000E+00
    0.15280E-02        -0.33773E-03         0.00000E+00
    0.11513E-02        -0.25191E-03         0.00000E+00
    0.77105E-03        -0.16701E-03         0.00000E+00
    0.38726E-03        -0.83033E-04         0.00000E+00
    0.00000E+00         0.00000E+00         0.00000E+00
    0.14291E-01        -0.57705E-02         0.00000E+00
    0.14137E-01        -0.56420E-02         0.00000E+00
    0.13977E-01        -0.55138E-02         0.00000E+00
    0.13811E-01        -0.53858E-02         0.00000E+00
    0.13638E-01        -0.52581E-02         0.00000E+00
    0.13459E-01        -0.51307E-02         0.00000E+00
    0.13274E-01        -0.50037E-02         0.00000E+00
    0.13084E-01        -0.48770E-02         0.00000E+00
    0.12887E-01        -0.47507E-02         0.00000E+00
    0.12684E-01        -0.46247E-02         0.00000E+00
    0.12476E-01        -0.44991E-02         0.00000E+00
    0.12262E-01        -0.43740E-02         0.00000E+00
    0.12042E-01        -0.42493E-02         0.00000E+00
    0.11816E-01        -0.41250E-02         0.00000E+00
    0.11585E-01        -0.40013E-02         0.00000E+00
    0.11348E-01        -0.38780E-02         0.00000E+00
    0.11106E-01        -0.37552E-02         0.00000E+00
    0.10858E-01        -0.36329E-02         0.00000E+00
    0.10605E-01        -0.35112E-02         0.00000E+00
    0.10346E-01        -0.33901E-02         0.00000E+00
    0.10082E-01        -0.32695E-02         0.00000E+00
    0.98135E-02        -0.31495E-02         0.00000E+00
    0.95394E-02        -0.30301E-02         0.00000E+00
    0.92601E-02        -0.29113E-02         0.00000E+00
    0.89758E-02        -0.27932E-02         0.00000E+00
    0.86866E-02        -0.26757E-02         0.00000E+00
    0.83923E-02        -0.25590E-02         0.00000E+00
    0.80932E-02        -0.24429E-02         0.00000E+00
    0.77893E-02        -0.23275E-02         0.00000E+00
    0.74806E-02        -0.22128E-02         0.00000E+00
    0.71673E-02        -0.20989E-02         0.00000E+00
    0.68492E-02        -0.19857E-02         0.00000E+00
    0.65266E-02        -0.18733E-02         0.00000E+00
    0.61994E-02        -0.17617E-02         0.00000E+00
    0.58678E-02        -0.16509E-02         0.00000E+00
    0.55317E-02        -0.15409E-02         0.00000E+00
    0.51913E-02        -0.14317E-02         0.00000E+00
    0.48465E-02        -0.13234E-02         0.00000E+00
    0.44976E-02        -0.12160E-02         0.00000E+00
    0.41444E-02        -0.11094E-02         0.00000E+00
    0.37871E-02        -0.10037E-02         0.00000E+00
    0.34257E-02        -0.89899E-03         0.00000E+00
    0.30604E-02        -0.79517E-03         0.00000E+00
    0.26910E-02        -0.69230E-03         0.00000E+00
    0.23178E-02        -0.59038E-03         0.00000E+00
    0.19407E-02        -0.48945E-03         0.00000E+00
    0.15599E-02        -0.38951E-03         0.00000E+00
    0.11754E-02        -0.29058E-03         0.00000E+00
    0.78715E-03        -0.19267E-03         0.00000E+00
    0.39534E-03        -0.95807E-04         0.00000E+00
    0.00000E+00         0.00000E+00         0.00000E+00
    0.14642E-01        -0.65361E-02         0.00000E+00
    0.14483E-01        -0.63909E-02         0.00000E+00
    0.14318E-01        -0.62460E-02         0.00000E+00
    0.14146E-01        -0.61014E-02         0.00000E+00
    0.13968E-01        -0.59570E-02         0.00000E+00
    0.13784E-01        -0.58131E-02         0.00000E+00
    0.13594E-01        -0.56695E-02         0.00000E+00
    0.13398E-01        -0.55263E-02         0.00000E+00
    0.13196E-01        -0.53834E-02         0.00000E+00
    0.12987E-01        -0.52411E-02         0.00000E+00
    0.12773E-01        -0.50991E-02         0.00000E+00
    0.12553E-01        -0.49576E-02         0.00000E+00
    0.12327E-01        -0.48166E-02         0.00000E+00
    0.12096E-01        -0.46762E-02         0.00000E+00
    0.11858E-01        -0.45362E-02         0.00000E+00
    0.11615E-01        -0.43968E-02         0.00000E+00
    0.11367E-01        -0.42579E-02         0.00000E+00
    0.11113E-01        -0.41196E-02         0.00000E+00
    0.10853E-01        -0.39820E-02         0.00000E+00
    0.10588E-01        -0.38449E-02         0.00000E+00
    0.10318E-01        -0.37085E-02         0.00000E+00
    0.10042E-01        -0.35727E-02         0.00000E+00
    0.97611E-02        -0.34376E-02         0.00000E+00
    0.94751E-02        -0.33032E-02         0.00000E+00
    0.91839E-02        -0.31695E-02         0.00000E+00
    0.88876E-02        -0.30365E-02         0.00000E+00
    0.85863E-02        -0.29043E-02         0.00000E+00
    0.82800E-02        -0.27728E-02         0.00000E+00
    0.79688E-02        -0.26421E-02         0.00000E+00
    0.76528E-02        -0.25122E-02         0.00000E+00
    0.73320E-02        -0.23831E-02         0.00000E+00
    0.70065E-02        -0.22549E-02         0.00000E+00
    0.66763E-02        -0.21275E-02         0.00000E+00
    0.63415E-02        -0.20010E-02         0.00000E+00
    0.60022E-02        -0.18753E-02         0.00000E+00
    0.56583E-02        -0.17506E-02         0.00000E+00
    0.53100E-02        -0.16268E-02         0.00000E+00
    0.49573E-02        -0.15039E-02         0.00000E+00
    0.46003E-02        -0.13820E-02         0.00000E+00
    0.42390E-02        -0.12610E-02         0.00000E+00
    0.38735E-02        -0.11411E-02         0.00000E+00
    0.35039E-02        -0.10221E-02         0.00000E+00
    0.31302E-02        -0.90420E-03         0.00000E+00
    0.27524E-02        -0.78733E-03         0.00000E+00
    0.23706E-02        -0.67152E-03         0.00000E+00
    0.19850E-02        -0.55679E-03         0.00000E+00
    0.15955E-02        -0.44316E-03         0.00000E+00
    0.12021E-02        -0.33065E-03         0.00000E+00
    0.80509E-03        -0.21927E-03         0.00000E+00
    0.40436E-03        -0.10905E-03         0.00000E+00
    0.00000E+00         0.00000E+00         0.00000E+00
    0.15030E-01        -0.73274E-02         0.00000E+00
    0.14866E-01        -0.71650E-02         0.00000E+00
    0.14695E-01        -0.70028E-02         0.00000E+00
    0.14518E-01        -0.68410E-02         0.00000E+00
    0.14334E-01        -0.66796E-02         0.00000E+00
    0.14144E-01        -0.65185E-02         0.00000E+00
    0.13948E-01        -0.63579E-02         0.00000E+00
    0.13746E-01        -0.61977E-02         0.00000E+00
    0.13537E-01        -0.60379E-02         0.00000E+00
    0.13323E-01        -0.58786E-02         0.00000E+00
    0.13102E-01        -0.57197E-02         0.00000E+00
    0.12875E-01        -0.55614E-02         0.00000E+00
    0.12643E-01        -0.54037E-02         0.00000E+00
    0.12405E-01        -0.52464E-02         0.00000E+00
    0.12160E-01        -0.50898E-02         0.00000E+00
    0.11911E-01        -0.49337E-02         0.00000E+00
    0.11655E-01        -0.47783E-02         0.00000E+00
    0.11394E-01        -0.46235E-02         0.00000E+00
    0.11127E-01        -0.44694E-02         0.00000E+00
    0.10855E-01        -0.43159E-02         0.00000E+00
    0.10577E-01        -0.41631E-02         0.00000E+00
    0.10294E-01        -0.40111E-02         0.00000E+00
    0.10006E-01        -0.38597E-02         0.00000E+00
    0.97122E-02        -0.37092E-02         0.00000E+00
    0.94133E-02        -0.35594E-02         0.00000E+00
    0.91093E-02        -0.34104E-02         0.00000E+00
    0.88002E-02        -0.32622E-02         0.00000E+00
    0.84860E-02        -0.31148E-02         0.00000E+00
    0.81668E-02        -0.29683E-02         0.00000E+00
    0.78427E-02        -0.28227E-02         0.00000E+00
    0.75138E-02        -0.26779E-02         0.00000E+00
    0.71800E-02        -0.25341E-02         0.00000E+00
    0.68414E-02        -0.23912E-02         0.00000E+00
    0.64982E-02        -0.22493E-02         0.00000E+00
    0.61503E-02        -0.21083E-02         0.00000E+00
    0.57979E-02        -0.19683E-02         0.00000E+00
    0.54409E-02        -0.18293E-02         0.00000E+00
    0.50794E-02        -0.16913E-02         0.00000E+00
    0.47135E-02        -0.15544E-02         0.00000E+00
    0.43433E-02        -0.14185E-02         0.00000E+00
    0.39688E-02        -0.12837E-02         0.00000E+00
    0.35900E-02        -0.11501E-02         0.00000E+00
    0.32071E-02        -0.10175E-02         0.00000E+00
    0.28200E-02        -0.88612E-03         0.00000E+00
    0.24289E-02        -0.75588E-03         0.00000E+00
    0.20337E-02        -0.62683E-03         0.00000E+00
    0.16346E-02        -0.49897E-03         0.00000E+00
    0.12317E-02        -0.37234E-03         0.00000E+00
    0.82486E-03        -0.24696E-03         0.00000E+00
    0.41429E-03        -0.12284E-03         0.00000E+00
    0.00000E+00         0.00000E+00         0.00000E+00
    0.15456E-01        -0.81475E-02         0.00000E+00
    0.15286E-01        -0.79673E-02         0.00000E+00
    0.15109E-01        -0.77874E-02         0.00000E+00
    0.14925E-01        -0.76079E-02         0.00000E+00
    0.14735E-01        -0.74287E-02         0.00000E+00
    0.14539E-01        -0.72500E-02         0.00000E+00
    0.14336E-01        -0.70718E-02         0.00000E+00
    0.14127E-01        -0.68940E-02         0.00000E+00
    0.13911E-01        -0.67167E-02         0.00000E+00
    0.13690E-01        -0.65399E-02         0.00000E+00
    0.13462E-01        -0.63636E-02         0.00000E+00
    0.13228E-01        -0.61879E-02         0.00000E+00
    0.12989E-01        -0.60128E-02         0.00000E+00
    0.12743E-01        -0.58383E-02         0.00000E+00
    0.12491E-01        -0.56644E-02         0.00000E+00
    0.12234E-01        -0.54912E-02         0.00000E+00
    0.11971E-01        -0.53186E-02         0.00000E+00
    0.11702E-01        -0.51467E-02         0.00000E+00
    0.11427E-01        -0.49755E-02         0.00000E+00
    0.11147E-01        -0.48051E-02         0.00000E+00
    0.10861E-01        -0.46354E-02         0.00000E+00
    0.10570E-01        -0.44665E-02         0.00000E+00
    0.10273E-01        -0.42984E-02         0.00000E+00
    0.99714E-02        -0.41311E-02         0.00000E+00
    0.96642E-02        -0.39647E-02         0.00000E+00
    0.93516E-02        -0.37991E-02         0.00000E+00
    0.90339E-02        -0.36344E-02         0.00000E+00
    0.87110E-02        -0.34705E-02         0.00000E+00
    0.83831E-02        -0.33076E-02         0.00000E+00
    0.80502E-02        -0.31457E-02         0.00000E+00
    0.77122E-02        -0.29847E-02         0.00000E+00
    0.73694E-02        -0.28247E-02         0.00000E+00
    0.70217E-02        -0.26657E-02         0.00000E+00
    0.66693E-02        -0.25078E-02         0.00000E+00
    0.63121E-02        -0.23508E-02         0.00000E+00
    0.59502E-02        -0.21950E-02         0.00000E+00
    0.55837E-02        -0.20402E-02         0.00000E+00
    0.52127E-02        -0.18866E-02         0.00000E+00
    0.48371E-02        -0.17340E-02         0.00000E+00
    0.44571E-02        -0.15827E-02         0.00000E+00
    0.40727E-02        -0.14325E-02         0.00000E+00
    0.36840E-02        -0.12835E-02         0.00000E+00
    0.32910E-02        -0.11357E-02         0.00000E+00
    0.28938E-02        -0.98918E-03         0.00000E+00
    0.24924E-02        -0.84391E-03         0.00000E+00
    0.20869E-02        -0.69992E-03         0.00000E+00
    0.16774E-02        -0.55723E-03         0.00000E+00
    0.12639E-02        -0.41588E-03         0.00000E+00
    0.84644E-03        -0.27587E-03         0.00000E+00
    0.42513E-03        -0.13724E-03         0.00000E+00
    0.00000E+00         0.00000E+00         0.00000E+00
    0.15921E-01        -0.89997E-02         0.00000E+00
    0.15744E-01        -0.88010E-02         0.00000E+00
    0.15560E-01        -0.86027E-02         0.00000E+00
    0.15369E-01        -0.84049E-02         0.00000E+00
    0.15172E-01        -0.82075E-02         0.00000E+00
    0.14968E-01        -0.80105E-02         0.00000E+00
    0.14758E-01        -0.78140E-02         0.00000E+00
    0.14541E-01        -0.76180E-02         0.00000E+00
    0.14318E-01        -0.74226E-02         0.00000E+00
    0.14089E-01        -0.72277E-02         0.00000E+00
    0.13853E-01        -0.70334E-02         0.00000E+00
    0.13612E-01        -0.68397E-02         0.00000E+00
    0.13364E-01        -0.66466E-02         0.00000E+00
    0.13110E-01        -0.64542E-02         0.00000E+00
    0.12850E-01        -0.62625E-02         0.00000E+00
    0.12585E-01        -0.60714E-02         0.00000E+00
    0.12313E-01        -0.58811E-02         0.00000E+00
    0.12036E-01        -0.56915E-02         0.00000E+00
    0.11752E-01        -0.55027E-02         0.00000E+00
    0.11464E-01        -0.53147E-02         0.00000E+00
    0.11169E-01        -0.51275E-02         0.00000E+00
    0.10869E-01        -0.49411E-02         0.00000E+00
    0.10564E-01        -0.47556E-02         0.00000E+00
    0.10252E-01        -0.45709E-02         0.00000E+00
    0.99360E-02        -0.43872E-02         0.00000E+00
    0.96143E-02        -0.42043E-02         0.00000E+00
    0.92872E-02        -0.40225E-02         0.00000E+00
    0.89549E-02        -0.38416E-02         0.00000E+00
    0.86175E-02        -0.36616E-02         0.00000E+00
    0.82749E-02        -0.34827E-02         0.00000E+00
    0.79273E-02        -0.33049E-02         0.00000E+00
    0.75746E-02        -0.31281E-02         0.00000E+00
    0.72171E-02        -0.29523E-02         0.00000E+00
    0.68546E-02        -0.27777E-02         0.00000E+00
    0.64873E-02        -0.26042E-02         0.00000E+00
    0.61152E-02        -0.24318E-02         0.00000E+00
    0.57385E-02        -0.22606E-02         0.00000E+00
    0.53570E-02        -0.20906E-02         0.00000E+00
    0.49710E-02        -0.19219E-02         0.00000E+00
    0.45804E-02        -0.17543E-02         0.00000E+00
    0.41853E-02        -0.15880E-02         0.00000E+00
    0.37858E-02        -0.14231E-02         0.00000E+00
    0.33819E-02        -0.12594E-02         0.00000E+00
    0.29737E-02        -0.10970E-02         0.00000E+00
    0.25612E-02        -0.93604E-03         0.00000E+00
    0.21445E-02        -0.77644E-03         0.00000E+00
    0.17237E-02        -0.61824E-03         0.00000E+00
    0.12988E-02        -0.46147E-03         0.00000E+00
    0.86982E-03        -0.30616E-03         0.00000E+00
    0.43687E-03        -0.15233E-03         0.00000E+00
    0.00000E+00         0.00000E+00         0.00000E+00
    0.16423E-01        -0.98873E-02         0.00000E+00
    0.16238E-01        -0.96696E-02         0.00000E+00
    0.16047E-01        -0.94522E-02         0.00000E+00
    0.15848E-01        -0.92354E-02         0.00000E+00
    0.15643E-01        -0.90190E-02         0.00000E+00
    0.15432E-01        -0.88030E-02         0.00000E+00
    0.15213E-01        -0.85877E-02         0.00000E+00
    0.14989E-01        -0.83728E-02         0.00000E+00
    0.14757E-01        -0.81586E-02         0.00000E+00
    0.14520E-01        -0.79449E-02         0.00000E+00
    0.14276E-01        -0.77319E-02         0.00000E+00
    0.14025E-01        -0.75195E-02         0.00000E+00
    0.13769E-01        -0.73078E-02         0.00000E+00
    0.13506E-01        -0.70968E-02         0.00000E+00
    0.13237E-01        -0.68865E-02         0.00000E+00
    0.12963E-01        -0.66770E-02         0.00000E+00
    0.12682E-01        -0.64682E-02         0.00000E+00
    0.12395E-01        -0.62603E-02         0.00000E+00
    0.12103E-01        -0.60531E-02         0.00000E+00
    0.11805E-01        -0.58468E-02         0.00000E+00
    0.11501E-01        -0.56414E-02         0.00000E+00
    0.11191E-01        -0.54368E-02         0.00000E+00
    0.10876E-01        -0.52332E-02         0.00000E+00
    0.10555E-01        -0.50305E-02         0.00000E+00
    0.10229E-01        -0.48288E-02         0.00000E+00
    0.98969E-02        -0.46280E-02         0.00000E+00
    0.95598E-02        -0.44283E-02         0.00000E+00
    0.92173E-02        -0.42296E-02         0.00000E+00
    0.88696E-02        -0.40319E-02         0.00000E+00
    0.85166E-02        -0.38354E-02         0.00000E+00
    0.81585E-02        -0.36399E-02         0.00000E+00
    0.77953E-02        -0.34456E-02         0.00000E+00
    0.74271E-02        -0.32524E-02         0.00000E+00
    0.70539E-02        -0.30603E-02         0.00000E+00
    0.66757E-02        -0.28695E-02         0.00000E+00
    0.62927E-02        -0.26799E-02         0.00000E+00
    0.59048E-02        -0.24916E-02         0.00000E+00
    0.55122E-02        -0.23045E-02         0.00000E+00
    0.51149E-02        -0.21187E-02         0.00000E+00
    0.47129E-02        -0.19343E-02         0.00000E+00
    0.43064E-02        -0.17512E-02         0.00000E+00
    0.38952E-02        -0.15694E-02         0.00000E+00
    0.34796E-02        -0.13891E-02         0.00000E+00
    0.30596E-02        -0.12102E-02         0.00000E+00
    0.26352E-02        -0.10328E-02         0.00000E+00
    0.22065E-02        -0.85678E-03         0.00000E+00
    0.17735E-02        -0.68231E-03         0.00000E+00
    0.13363E-02        -0.50937E-03         0.00000E+00
    0.89494E-03        -0.33798E-03         0.00000E+00
    0.44949E-03        -0.16819E-03         0.00000E+00
    0.00000E+00         0.00000E+00         0.00000E+00
    0.16963E-01        -0.10814E-01         0.00000E+00
    0.16770E-01        -0.10576E-01         0.00000E+00
    0.16570E-01        -0.10339E-01         0.00000E+00
    0.16363E-01        -0.10103E-01         0.00000E+00
    0.16150E-01        -0.98665E-02         0.00000E+00
    0.15929E-01        -0.96309E-02         0.00000E+00
    0.15702E-01        -0.93959E-02         0.00000E+00
    0.15468E-01        -0.91615E-02         0.00000E+00
    0.15228E-01        -0.89277E-02         0.00000E+00
    0.14981E-01        -0.86945E-02         0.00000E+00
    0.14728E-01        -0.84620E-02         0.00000E+00
    0.14468E-01        -0.82302E-02         0.00000E+00
    0.14203E-01        -0.79991E-02         0.00000E+00
    0.13930E-01        -0.77688E-02         0.00000E+00
    0.13652E-01        -0.75392E-02         0.00000E+00
    0.13368E-01        -0.73105E-02         0.00000E+00
    0.13077E-01        -0.70825E-02         0.00000E+00
    0.12781E-01        -0.68554E-02         0.00000E+00
    0.12478E-01        -0.66292E-02         0.00000E+00
    0.12170E-01        -0.64039E-02         0.00000E+00
    0.11855E-01        -0.61795E-02         0.00000E+00
    0.11535E-01        -0.59560E-02         0.00000E+00
    0.11210E-01        -0.57335E-02         0.00000E+00
    0.10878E-01        -0.55120E-02         0.00000E+00
    0.10542E-01        -0.52915E-02         0.00000E+00
    0.10199E-01        -0.50721E-02         0.00000E+00
    0.98511E-02        -0.48537E-02         0.00000E+00
    0.94977E-02        -0.46364E-02         0.00000E+00
    0.91390E-02        -0.44203E-02         0.00000E+00
    0.87750E-02        -0.42052E-02         0.00000E+00
    0.84056E-02        -0.39914E-02         0.00000E+00
    0.80311E-02        -0.37787E-02         0.00000E+00
    0.76515E-02        -0.35673E-02         0.00000E+00
    0.72667E-02        -0.33571E-02         0.00000E+00
    0.68770E-02        -0.31481E-02         0.00000E+00
    0.64822E-02        -0.29405E-02         0.00000E+00
    0.60825E-02        -0.27342E-02         0.00000E+00
    0.56780E-02        -0.25292E-02         0.00000E+00
    0.52686E-02        -0.23257E-02         0.00000E+00
    0.48545E-02        -0.21235E-02         0.00000E+00
    0.44356E-02        -0.19227E-02         0.00000E+00
    0.40121E-02        -0.17234E-02         0.00000E+00
    0.35840E-02        -0.15256E-02         0.00000E+00
    0.31514E-02        -0.13293E-02         0.00000E+00
    0.27142E-02        -0.11346E-02         0.00000E+00
    0.22726E-02        -0.94137E-03         0.00000E+00
    0.18267E-02        -0.74978E-03         0.00000E+00
    0.13764E-02        -0.55982E-03         0.00000E+00
    0.92178E-03        -0.37152E-03         0.00000E+00
    0.46297E-03        -0.18490E-03         0.00000E+00
    0.00000E+00         0.00000E+00         0.00000E+00
    0.17540E-01        -0.11783E-01         0.00000E+00
    0.17338E-01        -0.11525E-01         0.00000E+00
    0.17129E-01        -0.11267E-01         0.00000E+00
    0.16913E-01        -0.11010E-01         0.00000E+00
    0.16690E-01        -0.10753E-01         0.00000E+00
    0.16460E-01        -0.10497E-01         0.00000E+00
    0.16224E-01        -0.10242E-01         0.00000E+00
    0.15980E-01        -0.99872E-02         0.00000E+00
    0.15730E-01        -0.97330E-02         0.00000E+00
    0.15474E-01        -0.94795E-02         0.00000E+00
    0.15210E-01        -0.92268E-02         0.00000E+00
    0.14941E-01        -0.89748E-02         0.00000E+00
    0.14665E-01        -0.87235E-02         0.00000E+00
    0.14382E-01        -0.84730E-02         0.00000E+00
    0.14094E-01        -0.82234E-02         0.00000E+00
    0.13799E-01        -0.79746E-02         0.00000E+00
    0.13498E-01        -0.77266E-02         0.00000E+00
    0.13190E-01        -0.74796E-02         0.00000E+00
    0.12877E-01        -0.72335E-02         0.00000E+00
    0.12558E-01        -0.69883E-02         0.00000E+00
    0.12233E-01        -0.67441E-02         0.00000E+00
    0.11902E-01        -0.65009E-02         0.00000E+00
    0.11565E-01        -0.62587E-02         0.00000E+00
    0.11222E-01        -0.60175E-02         0.00000E+00
    0.10874E-01        -0.57774E-02         0.00000E+00
    0.10520E-01        -0.55385E-02         0.00000E+00
    0.10161E-01        -0.53006E-02         0.00000E+00
    0.97957E-02        -0.50639E-02         0.00000E+00
    0.94253E-02        -0.48284E-02         0.00000E+00
    0.90494E-02        -0.45940E-02         0.00000E+00
    0.86682E-02        -0.43609E-02         0.00000E+00
    0.82816E-02        -0.41291E-02         0.00000E+00
    0.78898E-02        -0.38985E-02         0.00000E+00
    0.74928E-02        -0.36693E-02         0.00000E+00
    0.70907E-02        -0.34414E-02         0.00000E+00
    0.66835E-02        -0.32148E-02         0.00000E+00
    0.62712E-02        -0.29897E-02         0.00000E+00
    0.58540E-02        -0.27659E-02         0.00000E+00
    0.54318E-02        -0.25436E-02         0.00000E+00
    0.50047E-02        -0.23228E-02         0.00000E+00
    0.45728E-02        -0.21035E-02         0.00000E+00
    0.41362E-02        -0.18857E-02         0.00000E+00
    0.36948E-02        -0.16695E-02         0.00000E+00
    0.32488E-02        -0.14549E-02         0.00000E+00
    0.27981E-02        -0.12420E-02         0.00000E+00
    0.23429E-02        -0.10306E-02         0.00000E+00
    0.18831E-02        -0.82101E-03         0.00000E+00
    0.14189E-02        -0.61310E-03         0.00000E+00
    0.95027E-03        -0.40694E-03         0.00000E+00
    0.47729E-03        -0.20256E-03         0.00000E+00
    0.00000E+00         0.00000E+00         0.00000E+00
    0.18154E-01        -0.12799E-01         0.00000E+00
    0.17942E-01        -0.12519E-01         0.00000E+00
    0.17723E-01        -0.12240E-01         0.00000E+00
    0.17497E-01        -0.11962E-01         0.00000E+00
    0.17264E-01        -0.11683E-01         0.00000E+00
    0.17024E-01        -0.11406E-01         0.00000E+00
    0.16777E-01        -0.11129E-01         0.00000E+00
    0.16523E-01        -0.10853E-01         0.00000E+00
    0.16263E-01        -0.10578E-01         0.00000E+00
    0.15996E-01        -0.10303E-01         0.00000E+00
    0.15722E-01        -0.10029E-01         0.00000E+00
    0.15441E-01        -0.97562E-02         0.00000E+00
    0.15154E-01        -0.94839E-02         0.00000E+00
    0.14861E-01        -0.92124E-02         0.00000E+00
    0.14561E-01        -0.89418E-02         0.00000E+00
    0.14255E-01        -0.86721E-02         0.00000E+00
    0.13943E-01        -0.84033E-02         0.00000E+00
    0.13624E-01        -0.81354E-02         0.00000E+00
    0.13299E-01        -0.78685E-02         0.00000E+00
    0.12969E-01        -0.76026E-02         0.00000E+00
    0.12632E-01        -0.73377E-02         0.00000E+00
    0.12289E-01        -0.70738E-02         0.00000E+00
    0.11940E-01        -0.68110E-02         0.00000E+00
    0.11586E-01        -0.65493E-02         0.00000E+00
    0.11226E-01        -0.62887E-02         0.00000E+00
    0.10860E-01        -0.60293E-02         0.00000E+00
    0.10488E-01        -0.57710E-02         0.00000E+00
    0.10111E-01        -0.55140E-02         0.00000E+00
    0.97277E-02        -0.52582E-02         0.00000E+00
    0.93393E-02        -0.50036E-02         0.00000E+00
    0.89454E-02        -0.47503E-02         0.00000E+00
    0.85462E-02        -0.44984E-02         0.00000E+00
    0.81415E-02        -0.42477E-02         0.00000E+00
    0.77316E-02        -0.39985E-02         0.00000E+00
    0.73164E-02        -0.37506E-02         0.00000E+00
    0.68960E-02        -0.35042E-02         0.00000E+00
    0.64704E-02        -0.32592E-02         0.00000E+00
    0.60398E-02        -0.30157E-02         0.00000E+00
    0.56041E-02        -0.27737E-02         0.00000E+00
    0.51634E-02        -0.25333E-02         0.00000E+00
    0.47177E-02        -0.22945E-02         0.00000E+00
    0.42672E-02        -0.20572E-02         0.00000E+00
    0.38118E-02        -0.18216E-02         0.00000E+00
    0.33516E-02        -0.15877E-02         0.00000E+00
    0.28866E-02        -0.13555E-02         0.00000E+00
    0.24170E-02        -0.11251E-02         0.00000E+00
    0.19427E-02        -0.89636E-03         0.00000E+00
    0.14638E-02        -0.66947E-03         0.00000E+00
    0.98036E-03        -0.44443E-03         0.00000E+00
    0.49240E-03        -0.22126E-03         0.00000E+00
    0.00000E+00         0.00000E+00         0.00000E+00
    0.18803E-01        -0.13865E-01         0.00000E+00
    0.18581E-01        -0.13563E-01         0.00000E+00
    0.18351E-01        -0.13262E-01         0.00000E+00
    0.18114E-01        -0.12961E-01         0.00000E+00
    0.17870E-01        -0.12660E-01         0.00000E+00
    0.17620E-01        -0.12361E-01         0.00000E+00
    0.17362E-01        -0.12062E-01         0.00000E+00
    0.17097E-01        -0.11763E-01         0.00000E+00
    0.16825E-01        -0.11466E-01         0.00000E+00
    0.16546E-01        -0.11169E-01         0.00000E+00
    0.16261E-01        -0.10873E-01         0.00000E+00
    0.15969E-01        -0.10578E-01         0.00000E+00
    0.15670E-01        -0.10284E-01         0.00000E+00
    0.15365E-01        -0.99901E-02         0.00000E+00
    0.15054E-01        -0.96976E-02         0.00000E+00
    0.14736E-01        -0.94060E-02         0.00000E+00
    0.14411E-01        -0.91153E-02         0.00000E+00
    0.14081E-01        -0.88257E-02         0.00000E+00
    0.13744E-01        -0.85370E-02         0.00000E+00
    0.13401E-01        -0.82494E-02         0.00000E+00
    0.13052E-01        -0.79628E-02         0.00000E+00
    0.12697E-01        -0.76773E-02         0.00000E+00
    0.12335E-01        -0.73930E-02         0.00000E+00
    0.11968E-01        -0.71097E-02         0.00000E+00
    0.11595E-01        -0.68277E-02         0.00000E+00
    0.11217E-01        -0.65468E-02         0.00000E+00
    0.10832E-01        -0.62671E-02         0.00000E+00
    0.10442E-01        -0.59887E-02         0.00000E+00
    0.10046E-01        -0.57116E-02         0.00000E+00
    0.96440E-02        -0.54358E-02         0.00000E+00
    0.92368E-02        -0.51613E-02         0.00000E+00
    0.88241E-02        -0.48882E-02         0.00000E+00
    0.84059E-02        -0.46165E-02         0.00000E+00
    0.79824E-02        -0.43462E-02         0.00000E+00
    0.75534E-02        -0.40773E-02         0.00000E+00
    0.71192E-02        -0.38100E-02         0.00000E+00
    0.66797E-02        -0.35441E-02         0.00000E+00
    0.62349E-02        -0.32798E-02         0.00000E+00
    0.57850E-02        -0.30171E-02         0.00000E+00
    0.53300E-02        -0.27560E-02         0.00000E+00
    0.48699E-02        -0.24965E-02         0.00000E+00
    0.44047E-02        -0.22388E-02         0.00000E+00
    0.39346E-02        -0.19827E-02         0.00000E+00
    0.34596E-02        -0.17284E-02         0.00000E+00
    0.29796E-02        -0.14758E-02         0.00000E+00
    0.24949E-02        -0.12251E-02         0.00000E+00
    0.20053E-02        -0.97622E-03         0.00000E+00
    0.15110E-02        -0.72924E-03         0.00000E+00
    0.10120E-02        -0.48418E-03         0.00000E+00
    0.50828E-03        -0.24109E-03         0.00000E+00
    0.00000E+00         0.00000E+00         0.00000E+00
    0.19487E-01        -0.14986E-01         0.00000E+00
    0.19253E-01        -0.14660E-01         0.00000E+00
    0.19012E-01        -0.14335E-01         0.00000E+00
    0.18764E-01        -0.14011E-01         0.00000E+00
    0.18508E-01        -0.13687E-01         0.00000E+00
    0.18246E-01        -0.13364E-01         0.00000E+00
    0.17976E-01        -0.13042E-01         0.00000E+00
    0.17699E-01        -0.12721E-01         0.00000E+00
    0.17415E-01        -0.12400E-01         0.00000E+00
    0.17125E-01        -0.12080E-01         0.00000E+00
    0.16827E-01        -0.11761E-01         0.00000E+00
    0.16523E-01        -0.11443E-01         0.00000E+00
    0.16212E-01        -0.11126E-01         0.00000E+00
    0.15894E-01        -0.10809E-01         0.00000E+00
    0.15570E-01        -0.10494E-01         0.00000E+00
    0.15240E-01        -0.10179E-01         0.00000E+00
    0.14903E-01        -0.98658E-02         0.00000E+00
    0.14559E-01        -0.95533E-02         0.00000E+00
    0.14210E-01        -0.92419E-02         0.00000E+00
    0.13854E-01        -0.89315E-02         0.00000E+00
    0.13492E-01        -0.86222E-02         0.00000E+00
    0.13123E-01        -0.83141E-02         0.00000E+00
    0.12749E-01        -0.80071E-02         0.00000E+00
    0.12368E-01        -0.77012E-02         0.00000E+00
    0.11982E-01        -0.73966E-02         0.00000E+00
    0.11590E-01        -0.70932E-02         0.00000E+00
    0.11192E-01        -0.67911E-02         0.00000E+00
    0.10788E-01        -0.64903E-02         0.00000E+00
    0.10378E-01        -0.61908E-02         0.00000E+00
    0.99625E-02        -0.58926E-02         0.00000E+00
    0.95413E-02        -0.55958E-02         0.00000E+00
    0.91146E-02        -0.53004E-02         0.00000E+00
    0.86823E-02        -0.50065E-02         0.00000E+00
    0.82444E-02        -0.47140E-02         0.00000E+00
    0.78011E-02        -0.44231E-02         0.00000E+00
    0.73524E-02        -0.41337E-02         0.00000E+00
    0.68982E-02        -0.38458E-02         0.00000E+00
    0.64388E-02        -0.35595E-02         0.00000E+00
    0.59740E-02        -0.32749E-02         0.00000E+00
    0.55040E-02        -0.29920E-02         0.00000E+00
    0.50288E-02        -0.27107E-02         0.00000E+00
    0.45484E-02        -0.24312E-02         0.00000E+00
    0.40629E-02        -0.21535E-02         0.00000E+00
    0.35724E-02        -0.18775E-02         0.00000E+00
    0.30768E-02        -0.16035E-02         0.00000E+00
    0.25762E-02        -0.13313E-02         0.00000E+00
    0.20707E-02        -0.10610E-02         0.00000E+00
    0.15602E-02        -0.79272E-03         0.00000E+00
    0.10450E-02        -0.52642E-03         0.00000E+00
    0.52487E-03        -0.26217E-03         0.00000E+00
    0.00000E+00         0.00000E+00         0.00000E+00
    0.20204E-01        -0.16166E-01         0.00000E+00
    0.19958E-01        -0.15815E-01         0.00000E+00
    0.19705E-01        -0.15466E-01         0.00000E+00
    0.19444E-01        -0.15117E-01         0.00000E+00
    0.19176E-01        -0.14769E-01         0.00000E+00
    0.18901E-01        -0.14422E-01         0.00000E+00
    0.18619E-01        -0.14075E-01         0.00000E+00
    0.18329E-01        -0.13730E-01         0.00000E+00
    0.18032E-01        -0.13385E-01         0.00000E+00
    0.17729E-01        -0.13041E-01         0.00000E+00
    0.17418E-01        -0.12697E-01         0.00000E+00
    0.17101E-01        -0.12355E-01         0.00000E+00
    0.16777E-01        -0.12014E-01         0.00000E+00
    0.16446E-01        -0.11673E-01         0.00000E+00
    0.16109E-01        -0.11334E-01         0.00000E+00
    0.15765E-01        -0.10995E-01         0.00000E+00
    0.15415E-01        -0.10658E-01         0.00000E+00
    0.15058E-01        -0.10321E-01         0.00000E+00
    0.14695E-01        -0.99860E-02         0.00000E+00
    0.14325E-01        -0.96518E-02         0.00000E+00
    0.13950E-01        -0.93187E-02         0.00000E+00
    0.13567E-01        -0.89867E-02         0.00000E+00
    0.13179E-01        -0.86560E-02         0.00000E+00
    0.12785E-01        -0.83264E-02         0.00000E+00
    0.12385E-01        -0.79981E-02         0.00000E+00
    0.11978E-01        -0.76710E-02         0.00000E+00
    0.11566E-01        -0.73453E-02         0.00000E+00
    0.11148E-01        -0.70208E-02         0.00000E+00
    0.10724E-01        -0.66978E-02         0.00000E+00
    0.10294E-01        -0.63761E-02         0.00000E+00
    0.98580E-02        -0.60558E-02         0.00000E+00
    0.94166E-02        -0.57370E-02         0.00000E+00
    0.89696E-02        -0.54196E-02         0.00000E+00
    0.85169E-02        -0.51038E-02         0.00000E+00
    0.80586E-02        -0.47895E-02         0.00000E+00
    0.75948E-02        -0.44768E-02         0.00000E+00
    0.71254E-02        -0.41657E-02         0.00000E+00
    0.66506E-02        -0.38562E-02         0.00000E+00
    0.61704E-02        -0.35484E-02         0.00000E+00
    0.56849E-02        -0.32424E-02         0.00000E+00
    0.51939E-02        -0.29380E-02         0.00000E+00
    0.46977E-02        -0.26355E-02         0.00000E+00
    0.41963E-02        -0.23348E-02         0.00000E+00
    0.36896E-02        -0.20360E-02         0.00000E+00
    0.31777E-02        -0.17391E-02         0.00000E+00
    0.26607E-02        -0.14441E-02         0.00000E+00
    0.21386E-02        -0.11512E-02         0.00000E+00
    0.16115E-02        -0.86022E-03         0.00000E+00
    0.10793E-02        -0.57135E-03         0.00000E+00
    0.54211E-03        -0.28460E-03         0.00000E+00
    0.00000E+00         0.00000E+00         0.00000E+00
    0.20953E-01        -0.17408E-01         0.00000E+00
    0.20694E-01        -0.17033E-01         0.00000E+00
    0.20428E-01        -0.16658E-01         0.00000E+00
    0.20154E-01        -0.16283E-01         0.00000E+00
    0.19872E-01        -0.15910E-01         0.00000E+00
    0.19584E-01        -0.15537E-01         0.00000E+00
    0.19288E-01        -0.15165E-01         0.00000E+00
    0.18985E-01        -0.14794E-01         0.00000E+00
    0.18674E-01        -0.14423E-01         0.00000E+00
    0.18357E-01        -0.14054E-01         0.00000E+00
    0.18033E-01        -0.13685E-01         0.00000E+00
    0.17702E-01        -0.13318E-01         0.00000E+00
    0.17364E-01        -0.12951E-01         0.00000E+00
    0.17020E-01        -0.12585E-01         0.00000E+00
    0.16669E-01        -0.12221E-01         0.00000E+00
    0.16311E-01        -0.11857E-01         0.00000E+00
    0.15946E-01        -0.11494E-01         0.00000E+00
    0.15575E-01        -0.11133E-01         0.00000E+00
    0.15198E-01        -0.10773E-01         0.00000E+00
    0.14814E-01        -0.10413E-01         0.00000E+00
    0.14424E-01        -0.10055E-01         0.00000E+00
    0.14028E-01        -0.96982E-02         0.00000E+00
    0.13625E-01        -0.93424E-02         0.00000E+00
    0.13216E-01        -0.89879E-02         0.00000E+00
    0.12801E-01        -0.86347E-02         0.00000E+00
    0.12380E-01        -0.82827E-02         0.00000E+00
    0.11953E-01        -0.79321E-02         0.00000E+00
    0.11520E-01        -0.75828E-02         0.00000E+00
    0.11081E-01        -0.72349E-02         0.00000E+00
    0.10636E-01        -0.68884E-02         0.00000E+00
    0.10186E-01        -0.65433E-02         0.00000E+00
    0.97290E-02        -0.61998E-02         0.00000E+00
    0.92667E-02        -0.58577E-02         0.00000E+00
    0.87986E-02        -0.55172E-02         0.00000E+00
    0.83248E-02        -0.51782E-02         0.00000E+00
    0.78454E-02        -0.48409E-02         0.00000E+00
    0.73603E-02        -0.45052E-02         0.00000E+00
    0.68697E-02        -0.41712E-02         0.00000E+00
    0.63735E-02        -0.38389E-02         0.00000E+00
    0.58718E-02        -0.35084E-02         0.00000E+00
    0.53647E-02        -0.31796E-02         0.00000E+00
    0.48521E-02        -0.28527E-02         0.00000E+00
    0.43341E-02        -0.25277E-02         0.00000E+00
    0.38107E-02        -0.22046E-02         0.00000E+00
    0.32821E-02        -0.18834E-02         0.00000E+00
    0.27481E-02        -0.15642E-02         0.00000E+00
    0.22089E-02        -0.12471E-02         0.00000E+00
    0.16644E-02        -0.93210E-03         0.00000E+00
    0.11147E-02        -0.61921E-03         0.00000E+00
    0.55994E-03        -0.30849E-03         0.00000E+00
    0.00000E+00         0.00000E+00         0.00000E+00
    0.21732E-01        -0.18719E-01         0.00000E+00
    0.21459E-01        -0.18316E-01         0.00000E+00
    0.21178E-01        -0.17914E-01         0.00000E+00
    0.20890E-01        -0.17513E-01         0.00000E+00
    0.20594E-01        -0.17113E-01         0.00000E+00
    0.20291E-01        -0.16713E-01         0.00000E+00
    0.19981E-01        -0.16315E-01         0.00000E+00
    0.19664E-01        -0.15917E-01         0.00000E+00
    0.19339E-01        -0.15520E-01         0.00000E+00
    0.19008E-01        -0.15124E-01         0.00000E+00
    0.18669E-01        -0.14729E-01         0.00000E+00
    0.18324E-01        -0.14335E-01         0.00000E+00
    0.17972E-01        -0.13942E-01         0.00000E+00
    0.17612E-01        -0.13550E-01         0.00000E+00
    0.17247E-01        -0.13158E-01         0.00000E+00
    0.16874E-01        -0.12768E-01         0.00000E+00
    0.16495E-01        -0.12379E-01         0.00000E+00
    0.16109E-01        -0.11991E-01         0.00000E+00
    0.15717E-01        -0.11605E-01         0.00000E+00
    0.15319E-01        -0.11219E-01         0.00000E+00
    0.14914E-01        -0.10835E-01         0.00000E+00
    0.14502E-01        -0.10451E-01         0.00000E+00
    0.14085E-01        -0.10069E-01         0.00000E+00
    0.13661E-01        -0.96885E-02         0.00000E+00
    0.13231E-01        -0.93090E-02         0.00000E+00
    0.12795E-01        -0.89308E-02         0.00000E+00
    0.12352E-01        -0.85540E-02         0.00000E+00
    0.11904E-01        -0.81785E-02         0.00000E+00
    0.11449E-01        -0.78044E-02         0.00000E+00
    0.10989E-01        -0.74318E-02         0.00000E+00
    0.10523E-01        -0.70606E-02         0.00000E+00
    0.10050E-01        -0.66909E-02         0.00000E+00
    0.95723E-02        -0.63227E-02         0.00000E+00
    0.90884E-02        -0.59561E-02         0.00000E+00
    0.85986E-02        -0.55911E-02         0.00000E+00
    0.81031E-02        -0.52277E-02         0.00000E+00
    0.76019E-02        -0.48660E-02         0.00000E+00
    0.70949E-02        -0.45060E-02         0.00000E+00
    0.65823E-02        -0.41477E-02         0.00000E+00
    0.60640E-02        -0.37912E-02         0.00000E+00
    0.55402E-02        -0.34366E-02         0.00000E+00
    0.50108E-02        -0.30838E-02         0.00000E+00
    0.44758E-02        -0.27329E-02         0.00000E+00
    0.39353E-02        -0.23840E-02         0.00000E+00
    0.33894E-02        -0.20371E-02         0.00000E+00
    0.28379E-02        -0.16922E-02         0.00000E+00
    0.22811E-02        -0.13494E-02         0.00000E+00
    0.17188E-02        -0.10087E-02         0.00000E+00
    0.11512E-02        -0.67023E-03         0.00000E+00
    0.57827E-03        -0.33397E-03         0.00000E+00
    0.00000E+00         0.00000E+00         0.00000E+00
    0.22537E-01        -0.20102E-01         0.00000E+00
    0.22249E-01        -0.19671E-01         0.00000E+00
    0.21953E-01        -0.19241E-01         0.00000E+00
    0.21650E-01        -0.18812E-01         0.00000E+00
    0.21340E-01        -0.18384E-01         0.00000E+00
    0.21022E-01        -0.17956E-01         0.00000E+00
    0.20696E-01        -0.17529E-01         0.00000E+00
    0.20364E-01        -0.17104E-01         0.00000E+00
    0.20024E-01        -0.16679E-01         0.00000E+00
    0.19678E-01        -0.16255E-01         0.00000E+00
    0.19324E-01        -0.15832E-01         0.00000E+00
    0.18963E-01        -0.15410E-01         0.00000E+00
    0.18596E-01        -0.14989E-01         0.00000E+00
    0.18222E-01        -0.14569E-01         0.00000E+00
    0.17841E-01        -0.14150E-01         0.00000E+00
    0.17453E-01        -0.13733E-01         0.00000E+00
    0.17058E-01        -0.13316E-01         0.00000E+00
    0.16657E-01        -0.12900E-01         0.00000E+00
    0.16250E-01        -0.12486E-01         0.00000E+00
    0.15836E-01        -0.12072E-01         0.00000E+00
    0.15416E-01        -0.11660E-01         0.00000E+00
    0.14989E-01        -0.11249E-01         0.00000E+00
    0.14556E-01        -0.10840E-01         0.00000E+00
    0.14116E-01        -0.10431E-01         0.00000E+00
    0.13671E-01        -0.10024E-01         0.00000E+00
    0.13219E-01        -0.96182E-02         0.00000E+00
    0.12761E-01        -0.92137E-02         0.00000E+00
    0.12297E-01        -0.88106E-02         0.00000E+00
    0.11826E-01        -0.84088E-02         0.00000E+00
    0.11350E-01        -0.80086E-02         0.00000E+00
    0.10868E-01        -0.76098E-02         0.00000E+00
    0.10379E-01        -0.72124E-02         0.00000E+00
    0.98850E-02        -0.68167E-02         0.00000E+00
    0.93848E-02        -0.64225E-02         0.00000E+00
    0.88787E-02        -0.60299E-02         0.00000E+00
    0.83667E-02        -0.56389E-02         0.00000E+00
    0.78488E-02        -0.52496E-02         0.00000E+00
    0.73252E-02        -0.48621E-02         0.00000E+00
    0.67958E-02        -0.44763E-02         0.00000E+00
    0.62606E-02        -0.40923E-02         0.00000E+00
    0.57196E-02        -0.37101E-02         0.00000E+00
    0.51730E-02        -0.33299E-02         0.00000E+00
    0.46207E-02        -0.29515E-02         0.00000E+00
    0.40627E-02        -0.25752E-02         0.00000E+00
    0.34991E-02        -0.22008E-02         0.00000E+00
    0.29298E-02        -0.18286E-02         0.00000E+00
    0.23550E-02        -0.14584E-02         0.00000E+00
    0.17745E-02        -0.10904E-02         0.00000E+00
    0.11885E-02        -0.72466E-03         0.00000E+00
    0.59703E-03        -0.36117E-03         0.00000E+00
    0.00000E+00         0.00000E+00         0.00000E+00
    0.23367E-01        -0.21562E-01         0.00000E+00
    0.23063E-01        -0.21102E-01         0.00000E+00
    0.22751E-01        -0.20643E-01         0.00000E+00
    0.22432E-01        -0.20184E-01         0.00000E+00
    0.22105E-01        -0.19726E-01         0.00000E+00
    0.21772E-01        -0.19269E-01         0.00000E+00
    0.21430E-01        -0.18813E-01         0.00000E+00
    0.21082E-01        -0.18358E-01         0.00000E+00
    0.20727E-01        -0.17904E-01         0.00000E+00
    0.20364E-01        -0.17451E-01         0.00000E+00
    0.19994E-01        -0.16999E-01         0.00000E+00
    0.19618E-01        -0.16548E-01         0.00000E+00
    0.19235E-01        -0.16098E-01         0.00000E+00
    0.18845E-01        -0.15648E-01         0.00000E+00
    0.18448E-01        -0.15200E-01         0.00000E+00
    0.18044E-01        -0.14753E-01         0.00000E+00
    0.17634E-01        -0.14308E-01         0.00000E+00
    0.17217E-01        -0.13863E-01         0.00000E+00
    0.16794E-01        -0.13419E-01         0.00000E+00
    0.16364E-01        -0.12977E-01         0.00000E+00
    0.15927E-01        -0.12535E-01         0.00000E+00
    0.15485E-01        -0.12095E-01         0.00000E+00
    0.15036E-01        -0.11656E-01         0.00000E+00
    0.14580E-01        -0.11219E-01         0.00000E+00
    0.14119E-01        -0.10783E-01         0.00000E+00
    0.13651E-01        -0.10348E-01         0.00000E+00
    0.13177E-01        -0.99139E-02         0.00000E+00
    0.12696E-01        -0.94816E-02         0.00000E+00
    0.12210E-01        -0.90507E-02         0.00000E+00
    0.11717E-01        -0.86212E-02         0.00000E+00
    0.11218E-01        -0.81932E-02         0.00000E+00
    0.10714E-01        -0.77667E-02         0.00000E+00
    0.10203E-01        -0.73417E-02         0.00000E+00
    0.96861E-02        -0.69183E-02         0.00000E+00
    0.91633E-02        -0.64965E-02         0.00000E+00
    0.86346E-02        -0.60764E-02         0.00000E+00
    0.80999E-02        -0.56579E-02         0.00000E+00
    0.75592E-02        -0.52411E-02         0.00000E+00
    0.70127E-02        -0.48261E-02         0.00000E+00
    0.64603E-02        -0.44129E-02         0.00000E+00
    0.59020E-02        -0.40015E-02         0.00000E+00
    0.53379E-02        -0.35921E-02         0.00000E+00
    0.47679E-02        -0.31845E-02         0.00000E+00
    0.41921E-02        -0.27790E-02         0.00000E+00
    0.36105E-02        -0.23755E-02         0.00000E+00
    0.30232E-02        -0.19740E-02         0.00000E+00
    0.24300E-02        -0.15747E-02         0.00000E+00
    0.18311E-02        -0.11776E-02         0.00000E+00
    0.12265E-02        -0.78278E-03         0.00000E+00
    0.61610E-03        -0.39021E-03         0.00000E+00
    0.00000E+00         0.00000E+00         0.00000E+00
    0.24216E-01        -0.23105E-01         0.00000E+00
    0.23895E-01        -0.22614E-01         0.00000E+00
    0.23567E-01        -0.22123E-01         0.00000E+00
    0.23231E-01        -0.21634E-01         0.00000E+00
    0.22888E-01        -0.21145E-01         0.00000E+00
    0.22537E-01        -0.20657E-01         0.00000E+00
    0.22179E-01        -0.20171E-01         0.00000E+00
    0.21814E-01        -0.19685E-01         0.00000E+00
    0.21442E-01        -0.19200E-01         0.00000E+00
    0.21063E-01        -0.18716E-01         0.00000E+00
    0.20677E-01        -0.18233E-01         0.00000E+00
    0.20284E-01        -0.17752E-01         0.00000E+00
    0.19884E-01        -0.17271E-01         0.00000E+00
    0.19478E-01        -0.16791E-01         0.00000E+00
    0.19064E-01        -0.16312E-01         0.00000E+00
    0.18644E-01        -0.15835E-01         0.00000E+00
    0.18218E-01        -0.15358E-01         0.00000E+00
    0.17785E-01        -0.14883E-01         0.00000E+00
    0.17345E-01        -0.14408E-01         0.00000E+00
    0.16899E-01        -0.13935E-01         0.00000E+00
    0.16446E-01        -0.13463E-01         0.00000E+00
    0.15987E-01        -0.12992E-01         0.00000E+00
    0.15522E-01        -0.12523E-01         0.00000E+00
    0.15050E-01        -0.12055E-01         0.00000E+00
    0.14572E-01        -0.11588E-01         0.00000E+00
    0.14088E-01        -0.11122E-01         0.00000E+00
    0.13597E-01        -0.10657E-01         0.00000E+00
    0.13100E-01        -0.10194E-01         0.00000E+00
    0.12597E-01        -0.97325E-02         0.00000E+00
    0.12088E-01        -0.92722E-02         0.00000E+00
    0.11573E-01        -0.88133E-02         0.00000E+00
    0.11052E-01        -0.83559E-02         0.00000E+00
    0.10524E-01        -0.79001E-02         0.00000E+00
    0.99905E-02        -0.74457E-02         0.00000E+00
    0.94508E-02        -0.69930E-02         0.00000E+00
    0.89051E-02        -0.65419E-02         0.00000E+00
    0.83534E-02        -0.60924E-02         0.00000E+00
    0.77956E-02        -0.56447E-02         0.00000E+00
    0.72318E-02        -0.51986E-02         0.00000E+00
    0.66619E-02        -0.47544E-02         0.00000E+00
    0.60861E-02        -0.43120E-02         0.00000E+00
    0.55043E-02        -0.38715E-02         0.00000E+00
    0.49166E-02        -0.34329E-02         0.00000E+00
    0.43228E-02        -0.29963E-02         0.00000E+00
    0.37231E-02        -0.25618E-02         0.00000E+00
    0.31175E-02        -0.21293E-02         0.00000E+00
    0.25058E-02        -0.16989E-02         0.00000E+00
    0.18883E-02        -0.12708E-02         0.00000E+00
    0.12648E-02        -0.84485E-03         0.00000E+00
    0.63536E-03        -0.42124E-03         0.00000E+00
    0.00000E+00         0.00000E+00         0.00000E+00
    0.25082E-01        -0.24735E-01         0.00000E+00
    0.24744E-01        -0.24211E-01         0.00000E+00
    0.24397E-01        -0.23688E-01         0.00000E+00
    0.24044E-01        -0.23166E-01         0.00000E+00
    0.23683E-01        -0.22645E-01         0.00000E+00
    0.23315E-01        -0.22125E-01         0.00000E+00
    0.22939E-01        -0.21606E-01         0.00000E+00
    0.22557E-01        -0.21088E-01         0.00000E+00
    0.22167E-01        -0.20571E-01         0.00000E+00
    0.21771E-01        -0.20055E-01         0.00000E+00
    0.21368E-01        -0.19540E-01         0.00000E+00
    0.20958E-01        -0.19026E-01         0.00000E+00
    0.20541E-01        -0.18513E-01         0.00000E+00
    0.20117E-01        -0.18001E-01         0.00000E+00
    0.19687E-01        -0.17490E-01         0.00000E+00
    0.19250E-01        -0.16980E-01         0.00000E+00
    0.18807E-01        -0.16471E-01         0.00000E+00
    0.18357E-01        -0.15964E-01         0.00000E+00
    0.17900E-01        -0.15457E-01         0.00000E+00
    0.17438E-01        -0.14952E-01         0.00000E+00
    0.16968E-01        -0.14447E-01         0.00000E+00
    0.16493E-01        -0.13944E-01         0.00000E+00
    0.16011E-01        -0.13442E-01         0.00000E+00
    0.15522E-01        -0.12942E-01         0.00000E+00
    0.15028E-01        -0.12442E-01         0.00000E+00
    0.14527E-01        -0.11944E-01         0.00000E+00
    0.14020E-01        -0.11447E-01         0.00000E+00
    0.13506E-01        -0.10951E-01         0.00000E+00
    0.12987E-01        -0.10457E-01         0.00000E+00
    0.12461E-01        -0.99641E-02         0.00000E+00
    0.11929E-01        -0.94726E-02         0.00000E+00
    0.11391E-01        -0.89825E-02         0.00000E+00
    0.10846E-01        -0.84939E-02         0.00000E+00
    0.10296E-01        -0.80069E-02         0.00000E+00
    0.97392E-02        -0.75213E-02         0.00000E+00
    0.91764E-02        -0.70374E-02         0.00000E+00
    0.86075E-02        -0.65551E-02         0.00000E+00
    0.80325E-02        -0.60744E-02         0.00000E+00
    0.74514E-02        -0.55955E-02         0.00000E+00
    0.68641E-02        -0.51183E-02         0.00000E+00
    0.62707E-02        -0.46430E-02         0.00000E+00
    0.56712E-02        -0.41695E-02         0.00000E+00
    0.50656E-02        -0.36978E-02         0.00000E+00
    0.44538E-02        -0.32282E-02         0.00000E+00
    0.38360E-02        -0.27605E-02         0.00000E+00
    0.32120E-02        -0.22950E-02         0.00000E+00
    0.25819E-02        -0.18315E-02         0.00000E+00
    0.19456E-02        -0.13702E-02         0.00000E+00
    0.13032E-02        -0.91114E-03         0.00000E+00
    0.65468E-03        -0.45439E-03         0.00000E+00
    0.00000E+00         0.00000E+00         0.00000E+00
    0.25960E-01        -0.26457E-01         0.00000E+00
    0.25602E-01        -0.25899E-01         0.00000E+00
    0.25237E-01        -0.25342E-01         0.00000E+00
    0.24865E-01        -0.24786E-01         0.00000E+00
    0.24485E-01        -0.24231E-01         0.00000E+00
    0.24099E-01        -0.23678E-01         0.00000E+00
    0.23705E-01        -0.23125E-01         0.00000E+00
    0.23305E-01        -0.22573E-01         0.00000E+00
    0.22897E-01        -0.22022E-01         0.00000E+00
    0.22483E-01        -0.21472E-01         0.00000E+00
    0.22062E-01        -0.20923E-01         0.00000E+00
    0.21634E-01        -0.20375E-01         0.00000E+00
    0.21200E-01        -0.19828E-01         0.00000E+00
    0.20759E-01        -0.19283E-01         0.00000E+00
    0.20311E-01        -0.18738E-01         0.00000E+00
    0.19857E-01        -0.18194E-01         0.00000E+00
    0.19396E-01        -0.17651E-01         0.00000E+00
    0.18929E-01        -0.17110E-01         0.00000E+00
    0.18456E-01        -0.16569E-01         0.00000E+00
    0.17976E-01        -0.16030E-01         0.00000E+00
    0.17490E-01        -0.15491E-01         0.00000E+00
    0.16997E-01        -0.14954E-01         0.00000E+00
    0.16499E-01        -0.14418E-01         0.00000E+00
    0.15994E-01        -0.13883E-01         0.00000E+00
    0.15482E-01        -0.13349E-01         0.00000E+00
    0.14965E-01        -0.12817E-01         0.00000E+00
    0.14441E-01        -0.12286E-01         0.00000E+00
    0.13911E-01        -0.11756E-01         0.00000E+00
    0.13374E-01        -0.11227E-01         0.00000E+00
    0.12832E-01        -0.10700E-01         0.00000E+00
    0.12283E-01        -0.10173E-01         0.00000E+00
    0.11728E-01        -0.96489E-02         0.00000E+00
    0.11167E-01        -0.91256E-02         0.00000E+00
    0.10600E-01        -0.86039E-02         0.00000E+00
    0.10026E-01        -0.80836E-02         0.00000E+00
    0.94463E-02        -0.75649E-02         0.00000E+00
    0.88603E-02        -0.70477E-02         0.00000E+00
    0.82681E-02        -0.65322E-02         0.00000E+00
    0.76697E-02        -0.60183E-02         0.00000E+00
    0.70651E-02        -0.55061E-02         0.00000E+00
    0.64543E-02        -0.49957E-02         0.00000E+00
    0.58372E-02        -0.44871E-02         0.00000E+00
    0.52138E-02        -0.39804E-02         0.00000E+00
    0.45842E-02        -0.34755E-02         0.00000E+00
    0.39482E-02        -0.29726E-02         0.00000E+00
    0.33060E-02        -0.24718E-02         0.00000E+00
    0.26575E-02        -0.19730E-02         0.00000E+00
    0.20027E-02        -0.14764E-02         0.00000E+00
    0.13415E-02        -0.98196E-03         0.00000E+00
    0.67392E-03        -0.48981E-03         0.00000E+00
    0.00000E+00         0.00000E+00         0.00000E+00
    0.26842E-01        -0.28276E-01         0.00000E+00
    0.26465E-01        -0.27683E-01         0.00000E+00
    0.26080E-01        -0.27090E-01         0.00000E+00
    0.25688E-01        -0.26499E-01         0.00000E+00
    0.25290E-01        -0.25908E-01         0.00000E+00
    0.24884E-01        -0.25319E-01         0.00000E+00
    0.24471E-01        -0.24731E-01         0.00000E+00
    0.24052E-01        -0.24143E-01         0.00000E+00
    0.23626E-01        -0.23557E-01         0.00000E+00
    0.23193E-01        -0.22971E-01         0.00000E+00
    0.22754E-01        -0.22387E-01         0.00000E+00
    0.22308E-01        -0.21804E-01         0.00000E+00
    0.21856E-01        -0.21221E-01         0.00000E+00
    0.21397E-01        -0.20640E-01         0.00000E+00
    0.20932E-01        -0.20059E-01         0.00000E+00
    0.20460E-01        -0.19480E-01         0.00000E+00
    0.19982E-01        -0.18902E-01         0.00000E+00
    0.19498E-01        -0.18324E-01         0.00000E+00
    0.19007E-01        -0.17748E-01         0.00000E+00
    0.18510E-01        -0.17173E-01         0.00000E+00
    0.18007E-01        -0.16598E-01         0.00000E+00
    0.17497E-01        -0.16025E-01         0.00000E+00
    0.16982E-01        -0.15453E-01         0.00000E+00
    0.16460E-01        -0.14882E-01         0.00000E+00
    0.15931E-01        -0.14312E-01         0.00000E+00
    0.15397E-01        -0.13744E-01         0.00000E+00
    0.14857E-01        -0.13176E-01         0.00000E+00
    0.14310E-01        -0.12610E-01         0.00000E+00
    0.13757E-01        -0.12045E-01         0.00000E+00
    0.13198E-01        -0.11481E-01         0.00000E+00
    0.12632E-01        -0.10919E-01         0.00000E+00
    0.12061E-01        -0.10357E-01         0.00000E+00
    0.11483E-01        -0.97975E-02         0.00000E+00
    0.10899E-01        -0.92390E-02         0.00000E+00
    0.10309E-01        -0.86820E-02         0.00000E+00
    0.97122E-02        -0.81263E-02         0.00000E+00
    0.91094E-02        -0.75722E-02         0.00000E+00
    0.85004E-02        -0.70196E-02         0.00000E+00
    0.78849E-02        -0.64687E-02         0.00000E+00
    0.72632E-02        -0.59193E-02         0.00000E+00
    0.66351E-02        -0.53716E-02         0.00000E+00
    0.60007E-02        -0.48257E-02         0.00000E+00
    0.53598E-02        -0.42816E-02         0.00000E+00
    0.47126E-02        -0.37393E-02         0.00000E+00
    0.40589E-02        -0.31989E-02         0.00000E+00
    0.33987E-02        -0.26605E-02         0.00000E+00
    0.27321E-02        -0.21241E-02         0.00000E+00
    0.20589E-02        -0.15898E-02         0.00000E+00
    0.13792E-02        -0.10576E-02         0.00000E+00
    0.69289E-03        -0.52765E-03         0.00000E+00
    0.00000E+00         0.00000E+00         0.00000E+00
    0.27724E-01        -0.30198E-01         0.00000E+00
    0.27326E-01        -0.29567E-01         0.00000E+00
    0.26921E-01        -0.28937E-01         0.00000E+00
    0.26509E-01        -0.28309E-01         0.00000E+00
    0.26090E-01        -0.27681E-01         0.00000E+00
    0.25664E-01        -0.27054E-01         0.00000E+00
    0.25232E-01        -0.26429E-01         0.00000E+00
    0.24793E-01        -0.25804E-01         0.00000E+00
    0.24348E-01        -0.25180E-01         0.00000E+00
    0.23896E-01        -0.24558E-01         0.00000E+00
    0.23438E-01        -0.23936E-01         0.00000E+00
    0.22974E-01        -0.23315E-01         0.00000E+00
    0.22503E-01        -0.22695E-01         0.00000E+00
    0.22026E-01        -0.22077E-01         0.00000E+00
    0.21543E-01        -0.21459E-01         0.00000E+00
    0.21053E-01        -0.20842E-01         0.00000E+00
    0.20558E-01        -0.20226E-01         0.00000E+00
    0.20056E-01        -0.19611E-01         0.00000E+00
    0.19548E-01        -0.18997E-01         0.00000E+00
    0.19034E-01        -0.18384E-01         0.00000E+00
    0.18514E-01        -0.17772E-01         0.00000E+00
    0.17987E-01        -0.17161E-01         0.00000E+00
    0.17455E-01        -0.16551E-01         0.00000E+00
    0.16916E-01        -0.15943E-01         0.00000E+00
    0.16371E-01        -0.15335E-01         0.00000E+00
    0.15820E-01        -0.14728E-01         0.00000E+00
    0.15263E-01        -0.14122E-01         0.00000E+00
    0.14700E-01        -0.13518E-01         0.00000E+00
    0.14131E-01        -0.12914E-01         0.00000E+00
    0.13555E-01        -0.12312E-01         0.00000E+00
    0.12974E-01        -0.11711E-01         0.00000E+00
    0.12386E-01        -0.11111E-01         0.00000E+00
    0.11792E-01        -0.10512E-01         0.00000E+00
    0.11191E-01        -0.99145E-02         0.00000E+00
    0.10585E-01        -0.93185E-02         0.00000E+00
    0.99717E-02        -0.87238E-02         0.00000E+00
    0.93524E-02        -0.81304E-02         0.00000E+00
    0.87268E-02        -0.75386E-02         0.00000E+00
    0.80948E-02        -0.69482E-02         0.00000E+00
    0.74564E-02        -0.63594E-02         0.00000E+00
    0.68115E-02        -0.57721E-02         0.00000E+00
    0.61602E-02        -0.51866E-02         0.00000E+00
    0.55023E-02        -0.46027E-02         0.00000E+00
    0.48379E-02        -0.40205E-02         0.00000E+00
    0.41668E-02        -0.34402E-02         0.00000E+00
    0.34892E-02        -0.28618E-02         0.00000E+00
    0.28048E-02        -0.22852E-02         0.00000E+00
    0.21138E-02        -0.17108E-02         0.00000E+00
    0.14160E-02        -0.11383E-02         0.00000E+00
    0.71142E-03        -0.56805E-03         0.00000E+00
    0.00000E+00         0.00000E+00         0.00000E+00
    0.28598E-01        -0.32227E-01         0.00000E+00
    0.28178E-01        -0.31557E-01         0.00000E+00
    0.27751E-01        -0.30888E-01         0.00000E+00
    0.27318E-01        -0.30220E-01         0.00000E+00
    0.26878E-01        -0.29554E-01         0.00000E+00
    0.26432E-01        -0.28888E-01         0.00000E+00
    0.25979E-01        -0.28223E-01         0.00000E+00
    0.25521E-01        -0.27560E-01         0.00000E+00
    0.25056E-01        -0.26897E-01         0.00000E+00
    0.24585E-01        -0.26235E-01         0.00000E+00
    0.24108E-01        -0.25574E-01         0.00000E+00
    0.23624E-01        -0.24915E-01         0.00000E+00
    0.23135E-01        -0.24256E-01         0.00000E+00
    0.22640E-01        -0.23598E-01         0.00000E+00
    0.22138E-01        -0.22941E-01         0.00000E+00
    0.21631E-01        -0.22284E-01         0.00000E+00
    0.21118E-01        -0.21629E-01         0.00000E+00
    0.20599E-01        -0.20975E-01         0.00000E+00
    0.20073E-01        -0.20321E-01         0.00000E+00
    0.19542E-01        -0.19669E-01         0.00000E+00
    0.19005E-01        -0.19017E-01         0.00000E+00
    0.18462E-01        -0.18366E-01         0.00000E+00
    0.17913E-01        -0.17716E-01         0.00000E+00
    0.17358E-01        -0.17067E-01         0.00000E+00
    0.16796E-01        -0.16419E-01         0.00000E+00
    0.16229E-01        -0.15772E-01         0.00000E+00
    0.15656E-01        -0.15126E-01         0.00000E+00
    0.15077E-01        -0.14481E-01         0.00000E+00
    0.14492E-01        -0.13837E-01         0.00000E+00
    0.13900E-01        -0.13194E-01         0.00000E+00
    0.13303E-01        -0.12552E-01         0.00000E+00
    0.12699E-01        -0.11911E-01         0.00000E+00
    0.12089E-01        -0.11271E-01         0.00000E+00
    0.11473E-01        -0.10633E-01         0.00000E+00
    0.10850E-01        -0.99953E-02         0.00000E+00
    0.10222E-01        -0.93592E-02         0.00000E+00
    0.95865E-02        -0.87243E-02         0.00000E+00
    0.89449E-02        -0.80908E-02         0.00000E+00
    0.82969E-02        -0.74586E-02         0.00000E+00
    0.76424E-02        -0.68279E-02         0.00000E+00
    0.69814E-02        -0.61986E-02         0.00000E+00
    0.63138E-02        -0.55709E-02         0.00000E+00
    0.56395E-02        -0.49447E-02         0.00000E+00
    0.49585E-02        -0.43202E-02         0.00000E+00
    0.42708E-02        -0.36974E-02         0.00000E+00
    0.35763E-02        -0.30763E-02         0.00000E+00
    0.28750E-02        -0.24571E-02         0.00000E+00
    0.21667E-02        -0.18398E-02         0.00000E+00
    0.14515E-02        -0.12245E-02         0.00000E+00
    0.72930E-03        -0.61118E-03         0.00000E+00
    0.00000E+00         0.00000E+00         0.00000E+00
    0.29454E-01        -0.34368E-01         0.00000E+00
    0.29011E-01        -0.33657E-01         0.00000E+00
    0.28562E-01        -0.32947E-01         0.00000E+00
    0.28107E-01        -0.32239E-01         0.00000E+00
    0.27646E-01        -0.31531E-01         0.00000E+00
    0.27179E-01        -0.30825E-01         0.00000E+00
    0.26706E-01        -0.30119E-01         0.00000E+00
    0.26227E-01        -0.29415E-01         0.00000E+00
    0.25742E-01        -0.28711E-01         0.00000E+00
    0.25251E-01        -0.28008E-01         0.00000E+00
    0.24755E-01        -0.27307E-01         0.00000E+00
    0.24252E-01        -0.26606E-01         0.00000E+00
    0.23744E-01        -0.25906E-01         0.00000E+00
    0.23231E-01        -0.25207E-01         0.00000E+00
    0.22711E-01        -0.24508E-01         0.00000E+00
    0.22186E-01        -0.23811E-01         0.00000E+00
    0.21655E-01        -0.23114E-01         0.00000E+00
    0.21119E-01        -0.22418E-01         0.00000E+00
    0.20576E-01        -0.21723E-01         0.00000E+00
    0.20028E-01        -0.21029E-01         0.00000E+00
    0.19475E-01        -0.20335E-01         0.00000E+00
    0.18915E-01        -0.19642E-01         0.00000E+00
    0.18350E-01        -0.18950E-01         0.00000E+00
    0.17779E-01        -0.18259E-01         0.00000E+00
    0.17202E-01        -0.17569E-01         0.00000E+00
    0.16619E-01        -0.16880E-01         0.00000E+00
    0.16030E-01        -0.16191E-01         0.00000E+00
    0.15435E-01        -0.15503E-01         0.00000E+00
    0.14835E-01        -0.14816E-01         0.00000E+00
    0.14228E-01        -0.14130E-01         0.00000E+00
    0.13615E-01        -0.13445E-01         0.00000E+00
    0.12996E-01        -0.12761E-01         0.00000E+00
    0.12371E-01        -0.12078E-01         0.00000E+00
    0.11740E-01        -0.11396E-01         0.00000E+00
    0.11103E-01        -0.10715E-01         0.00000E+00
    0.10459E-01        -0.10035E-01         0.00000E+00
    0.98085E-02        -0.93557E-02         0.00000E+00
    0.91519E-02        -0.86780E-02         0.00000E+00
    0.84887E-02        -0.80015E-02         0.00000E+00
    0.78190E-02        -0.73263E-02         0.00000E+00
    0.71426E-02        -0.66524E-02         0.00000E+00
    0.64595E-02        -0.59799E-02         0.00000E+00
    0.57697E-02        -0.53089E-02         0.00000E+00
    0.50731E-02        -0.46393E-02         0.00000E+00
    0.43696E-02        -0.39713E-02         0.00000E+00
    0.36591E-02        -0.33050E-02         0.00000E+00
    0.29416E-02        -0.26403E-02         0.00000E+00
    0.22170E-02        -0.19774E-02         0.00000E+00
    0.14853E-02        -0.13163E-02         0.00000E+00
    0.74630E-03        -0.65716E-03         0.00000E+00
    0.00000E+00         0.00000E+00         0.00000E+00
    0.30284E-01        -0.36626E-01         0.00000E+00
    0.29818E-01        -0.35872E-01         0.00000E+00
    0.29346E-01        -0.35120E-01         0.00000E+00
    0.28868E-01        -0.34368E-01         0.00000E+00
    0.28385E-01        -0.33618E-01         0.00000E+00
    0.27896E-01        -0.32869E-01         0.00000E+00
    0.27402E-01        -0.32120E-01         0.00000E+00
    0.26902E-01        -0.31373E-01         0.00000E+00
    0.26397E-01        -0.30627E-01         0.00000E+00
    0.25886E-01        -0.29881E-01         0.00000E+00
    0.25370E-01        -0.29137E-01         0.00000E+00
    0.24849E-01        -0.28393E-01         0.00000E+00
    0.24322E-01        -0.27650E-01         0.00000E+00
    0.23791E-01        -0.26907E-01         0.00000E+00
    0.23253E-01        -0.26166E-01         0.00000E+00
    0.22710E-01        -0.25425E-01         0.00000E+00
    0.22162E-01        -0.24685E-01         0.00000E+00
    0.21609E-01        -0.23945E-01         0.00000E+00
    0.21050E-01        -0.23206E-01         0.00000E+00
    0.20486E-01        -0.22468E-01         0.00000E+00
    0.19916E-01        -0.21731E-01         0.00000E+00
    0.19340E-01        -0.20994E-01         0.00000E+00
    0.18759E-01        -0.20258E-01         0.00000E+00
    0.18173E-01        -0.19522E-01         0.00000E+00
    0.17581E-01        -0.18787E-01         0.00000E+00
    0.16983E-01        -0.18053E-01         0.00000E+00
    0.16379E-01        -0.17320E-01         0.00000E+00
    0.15770E-01        -0.16587E-01         0.00000E+00
    0.15155E-01        -0.15855E-01         0.00000E+00
    0.14534E-01        -0.15123E-01         0.00000E+00
    0.13907E-01        -0.14393E-01         0.00000E+00
    0.13274E-01        -0.13663E-01         0.00000E+00
    0.12634E-01        -0.12934E-01         0.00000E+00
    0.11989E-01        -0.12206E-01         0.00000E+00
    0.11337E-01        -0.11478E-01         0.00000E+00
    0.10680E-01        -0.10752E-01         0.00000E+00
    0.10015E-01        -0.10026E-01         0.00000E+00
    0.93445E-02        -0.93019E-02         0.00000E+00
    0.86672E-02        -0.85784E-02         0.00000E+00
    0.79833E-02        -0.78561E-02         0.00000E+00
    0.72927E-02        -0.71349E-02         0.00000E+00
    0.65953E-02        -0.64150E-02         0.00000E+00
    0.58911E-02        -0.56962E-02         0.00000E+00
    0.51799E-02        -0.49789E-02         0.00000E+00
    0.44617E-02        -0.42629E-02         0.00000E+00
    0.37363E-02        -0.35483E-02         0.00000E+00
    0.30038E-02        -0.28353E-02         0.00000E+00
    0.22640E-02        -0.21239E-02         0.00000E+00
    0.15168E-02        -0.14141E-02         0.00000E+00
    0.76219E-03        -0.70615E-03         0.00000E+00
    0.00000E+00         0.00000E+00         0.00000E+00
    0.31076E-01        -0.39004E-01         0.00000E+00
    0.30586E-01        -0.38206E-01         0.00000E+00
    0.30090E-01        -0.37409E-01         0.00000E+00
    0.29589E-01        -0.36613E-01         0.00000E+00
    0.29083E-01        -0.35818E-01         0.00000E+00
    0.28573E-01        -0.35024E-01         0.00000E+00
    0.28057E-01        -0.34231E-01         0.00000E+00
    0.27537E-01        -0.33439E-01         0.00000E+00
    0.27011E-01        -0.32648E-01         0.00000E+00
    0.26481E-01        -0.31858E-01         0.00000E+00
    0.25945E-01        -0.31068E-01         0.00000E+00
    0.25405E-01        -0.30279E-01         0.00000E+00
    0.24860E-01        -0.29491E-01         0.00000E+00
    0.24310E-01        -0.28704E-01         0.00000E+00
    0.23755E-01        -0.27917E-01         0.00000E+00
    0.23196E-01        -0.27130E-01         0.00000E+00
    0.22631E-01        -0.26345E-01         0.00000E+00
    0.22061E-01        -0.25559E-01         0.00000E+00
    0.21486E-01        -0.24775E-01         0.00000E+00
    0.20906E-01        -0.23991E-01         0.00000E+00
    0.20321E-01        -0.23207E-01         0.00000E+00
    0.19730E-01        -0.22424E-01         0.00000E+00
    0.19135E-01        -0.21641E-01         0.00000E+00
    0.18534E-01        -0.20859E-01         0.00000E+00
    0.17927E-01        -0.20077E-01         0.00000E+00
    0.17316E-01        -0.19296E-01         0.00000E+00
    0.16698E-01        -0.18515E-01         0.00000E+00
    0.16075E-01        -0.17735E-01         0.00000E+00
    0.15447E-01        -0.16955E-01         0.00000E+00
    0.14812E-01        -0.16176E-01         0.00000E+00
    0.14172E-01        -0.15397E-01         0.00000E+00
    0.13526E-01        -0.14619E-01         0.00000E+00
    0.12874E-01        -0.13841E-01         0.00000E+00
    0.12215E-01        -0.13064E-01         0.00000E+00
    0.11551E-01        -0.12288E-01         0.00000E+00
    0.10880E-01        -0.11513E-01         0.00000E+00
    0.10203E-01        -0.10738E-01         0.00000E+00
    0.95196E-02        -0.99641E-02         0.00000E+00
    0.88294E-02        -0.91909E-02         0.00000E+00
    0.81327E-02        -0.84187E-02         0.00000E+00
    0.74292E-02        -0.76474E-02         0.00000E+00
    0.67188E-02        -0.68771E-02         0.00000E+00
    0.60014E-02        -0.61078E-02         0.00000E+00
    0.52771E-02        -0.53397E-02         0.00000E+00
    0.45455E-02        -0.45727E-02         0.00000E+00
    0.38067E-02        -0.38070E-02         0.00000E+00
    0.30605E-02        -0.30427E-02         0.00000E+00
    0.23068E-02        -0.22797E-02         0.00000E+00
    0.15456E-02        -0.15182E-02         0.00000E+00
    0.77670E-03        -0.75828E-03         0.00000E+00
    0.00000E+00         0.00000E+00         0.00000E+00
    0.31819E-01        -0.41507E-01         0.00000E+00
    0.31303E-01        -0.40663E-01         0.00000E+00
    0.30783E-01        -0.39819E-01         0.00000E+00
    0.30259E-01        -0.38977E-01         0.00000E+00
    0.29730E-01        -0.38135E-01         0.00000E+00
    0.29198E-01        -0.37295E-01         0.00000E+00
    0.28660E-01        -0.36455E-01         0.00000E+00
    0.28119E-01        -0.35616E-01         0.00000E+00
    0.27573E-01        -0.34779E-01         0.00000E+00
    0.27023E-01        -0.33941E-01         0.00000E+00
    0.26469E-01        -0.33105E-01         0.00000E+00
    0.25910E-01        -0.32269E-01         0.00000E+00
    0.25347E-01        -0.31434E-01         0.00000E+00
    0.24780E-01        -0.30599E-01         0.00000E+00
    0.24208E-01        -0.29764E-01         0.00000E+00
    0.23632E-01        -0.28930E-01         0.00000E+00
    0.23051E-01        -0.28097E-01         0.00000E+00
    0.22466E-01        -0.27264E-01         0.00000E+00
    0.21876E-01        -0.26431E-01         0.00000E+00
    0.21281E-01        -0.25599E-01         0.00000E+00
    0.20681E-01        -0.24766E-01         0.00000E+00
    0.20077E-01        -0.23935E-01         0.00000E+00
    0.19468E-01        -0.23103E-01         0.00000E+00
    0.18854E-01        -0.22272E-01         0.00000E+00
    0.18234E-01        -0.21441E-01         0.00000E+00
    0.17610E-01        -0.20610E-01         0.00000E+00
    0.16980E-01        -0.19779E-01         0.00000E+00
    0.16344E-01        -0.18949E-01         0.00000E+00
    0.15704E-01        -0.18119E-01         0.00000E+00
    0.15057E-01        -0.17290E-01         0.00000E+00
    0.14405E-01        -0.16460E-01         0.00000E+00
    0.13748E-01        -0.15631E-01         0.00000E+00
    0.13084E-01        -0.14803E-01         0.00000E+00
    0.12414E-01        -0.13974E-01         0.00000E+00
    0.11739E-01        -0.13147E-01         0.00000E+00
    0.11057E-01        -0.12319E-01         0.00000E+00
    0.10368E-01        -0.11492E-01         0.00000E+00
    0.96734E-02        -0.10666E-01         0.00000E+00
    0.89721E-02        -0.98403E-02         0.00000E+00
    0.82641E-02        -0.90153E-02         0.00000E+00
    0.75493E-02        -0.81909E-02         0.00000E+00
    0.68275E-02        -0.73673E-02         0.00000E+00
    0.60987E-02        -0.65445E-02         0.00000E+00
    0.53627E-02        -0.57226E-02         0.00000E+00
    0.46195E-02        -0.49017E-02         0.00000E+00
    0.38688E-02        -0.40817E-02         0.00000E+00
    0.31106E-02        -0.32629E-02         0.00000E+00
    0.23448E-02        -0.24452E-02         0.00000E+00
    0.15711E-02        -0.16288E-02         0.00000E+00
    0.78957E-03        -0.81367E-03         0.00000E+00
    0.00000E+00         0.00000E+00         0.00000E+00
    0.32497E-01        -0.44138E-01         0.00000E+00
    0.31956E-01        -0.43245E-01         0.00000E+00
    0.31412E-01        -0.42353E-01         0.00000E+00
    0.30864E-01        -0.41462E-01         0.00000E+00
    0.30313E-01        -0.40572E-01         0.00000E+00
    0.29758E-01        -0.39683E-01         0.00000E+00
    0.29199E-01        -0.38795E-01         0.00000E+00
    0.28637E-01        -0.37908E-01         0.00000E+00
    0.28071E-01        -0.37021E-01         0.00000E+00
    0.27502E-01        -0.36135E-01         0.00000E+00
    0.26929E-01        -0.35249E-01         0.00000E+00
    0.26353E-01        -0.34364E-01         0.00000E+00
    0.25773E-01        -0.33480E-01         0.00000E+00
    0.25189E-01        -0.32595E-01         0.00000E+00
    0.24601E-01        -0.31712E-01         0.00000E+00
    0.24009E-01        -0.30828E-01         0.00000E+00
    0.23413E-01        -0.29944E-01         0.00000E+00
    0.22814E-01        -0.29061E-01         0.00000E+00
    0.22210E-01        -0.28178E-01         0.00000E+00
    0.21601E-01        -0.27295E-01         0.00000E+00
    0.20989E-01        -0.26412E-01         0.00000E+00
    0.20372E-01        -0.25529E-01         0.00000E+00
    0.19750E-01        -0.24646E-01         0.00000E+00
    0.19124E-01        -0.23763E-01         0.00000E+00
    0.18493E-01        -0.22881E-01         0.00000E+00
    0.17857E-01        -0.21998E-01         0.00000E+00
    0.17217E-01        -0.21115E-01         0.00000E+00
    0.16571E-01        -0.20232E-01         0.00000E+00
    0.15920E-01        -0.19350E-01         0.00000E+00
    0.15263E-01        -0.18467E-01         0.00000E+00
    0.14601E-01        -0.17584E-01         0.00000E+00
    0.13933E-01        -0.16702E-01         0.00000E+00
    0.13260E-01        -0.15819E-01         0.00000E+00
    0.12581E-01        -0.14937E-01         0.00000E+00
    0.11896E-01        -0.14054E-01         0.00000E+00
    0.11204E-01        -0.13172E-01         0.00000E+00
    0.10507E-01        -0.12291E-01         0.00000E+00
    0.98024E-02        -0.11409E-01         0.00000E+00
    0.90917E-02        -0.10528E-01         0.00000E+00
    0.83744E-02        -0.96470E-02         0.00000E+00
    0.76501E-02        -0.87666E-02         0.00000E+00
    0.69189E-02        -0.78866E-02         0.00000E+00
    0.61806E-02        -0.70072E-02         0.00000E+00
    0.54349E-02        -0.61284E-02         0.00000E+00
    0.46819E-02        -0.52503E-02         0.00000E+00
    0.39213E-02        -0.43729E-02         0.00000E+00
    0.31530E-02        -0.34963E-02         0.00000E+00
    0.23769E-02        -0.26207E-02         0.00000E+00
    0.15928E-02        -0.17460E-02         0.00000E+00
    0.80052E-03        -0.87243E-03         0.00000E+00
    0.00000E+00         0.00000E+00         0.00000E+00
    0.33097E-01        -0.46899E-01         0.00000E+00
    0.32530E-01        -0.45956E-01         0.00000E+00
    0.31961E-01        -0.45013E-01         0.00000E+00
    0.31389E-01        -0.44072E-01         0.00000E+00
    0.30815E-01        -0.43132E-01         0.00000E+00
    0.30238E-01        -0.42192E-01         0.00000E+00
    0.29659E-01        -0.41254E-01         0.00000E+00
    0.29077E-01        -0.40316E-01         0.00000E+00
    0.28492E-01        -0.39378E-01         0.00000E+00
    0.27904E-01        -0.38441E-01         0.00000E+00
    0.27313E-01        -0.37504E-01         0.00000E+00
    0.26720E-01        -0.36568E-01         0.00000E+00
    0.26124E-01        -0.35632E-01         0.00000E+00
    0.25524E-01        -0.34696E-01         0.00000E+00
    0.24922E-01        -0.33761E-01         0.00000E+00
    0.24316E-01        -0.32825E-01         0.00000E+00
    0.23706E-01        -0.31889E-01         0.00000E+00
    0.23094E-01        -0.30953E-01         0.00000E+00
    0.22477E-01        -0.30018E-01         0.00000E+00
    0.21857E-01        -0.29082E-01         0.00000E+00
    0.21233E-01        -0.28146E-01         0.00000E+00
    0.20605E-01        -0.27209E-01         0.00000E+00
    0.19973E-01        -0.26273E-01         0.00000E+00
    0.19337E-01        -0.25336E-01         0.00000E+00
    0.18697E-01        -0.24399E-01         0.00000E+00
    0.18051E-01        -0.23461E-01         0.00000E+00
    0.17402E-01        -0.22524E-01         0.00000E+00
    0.16747E-01        -0.21586E-01         0.00000E+00
    0.16088E-01        -0.20648E-01         0.00000E+00
    0.15423E-01        -0.19709E-01         0.00000E+00
    0.14753E-01        -0.18770E-01         0.00000E+00
    0.14078E-01        -0.17831E-01         0.00000E+00
    0.13397E-01        -0.16892E-01         0.00000E+00
    0.12710E-01        -0.15953E-01         0.00000E+00
    0.12017E-01        -0.15013E-01         0.00000E+00
    0.11319E-01        -0.14074E-01         0.00000E+00
    0.10614E-01        -0.13134E-01         0.00000E+00
    0.99025E-02        -0.12194E-01         0.00000E+00
    0.91847E-02        -0.11254E-01         0.00000E+00
    0.84602E-02        -0.10315E-01         0.00000E+00
    0.77288E-02        -0.93752E-02         0.00000E+00
    0.69903E-02        -0.84357E-02         0.00000E+00
    0.62446E-02        -0.74965E-02         0.00000E+00
    0.54916E-02        -0.65576E-02         0.00000E+00
    0.47310E-02        -0.56191E-02         0.00000E+00
    0.39627E-02        -0.46810E-02         0.00000E+00
    0.31866E-02        -0.37434E-02         0.00000E+00
    0.24024E-02        -0.28064E-02         0.00000E+00
    0.16100E-02        -0.18702E-02         0.00000E+00
    0.80926E-03        -0.93465E-03         0.00000E+00
    0.00000E+00         0.00000E+00         0.00000E+00
    0.33600E-01        -0.49792E-01         0.00000E+00
    0.33007E-01        -0.48796E-01         0.00000E+00
    0.32414E-01        -0.47801E-01         0.00000E+00
    0.31819E-01        -0.46808E-01         0.00000E+00
    0.31222E-01        -0.45815E-01         0.00000E+00
    0.30624E-01        -0.44823E-01         0.00000E+00
    0.30024E-01        -0.43832E-01         0.00000E+00
    0.29422E-01        -0.42841E-01         0.00000E+00
    0.28819E-01        -0.41851E-01         0.00000E+00
    0.28214E-01        -0.40861E-01         0.00000E+00
    0.27607E-01        -0.39871E-01         0.00000E+00
    0.26998E-01        -0.38882E-01         0.00000E+00
    0.26387E-01        -0.37892E-01         0.00000E+00
    0.25773E-01        -0.36903E-01         0.00000E+00
    0.25158E-01        -0.35913E-01         0.00000E+00
    0.24539E-01        -0.34923E-01         0.00000E+00
    0.23918E-01        -0.33933E-01         0.00000E+00
    0.23294E-01        -0.32942E-01         0.00000E+00
    0.22667E-01        -0.31951E-01         0.00000E+00
    0.22037E-01        -0.30960E-01         0.00000E+00
    0.21404E-01        -0.29968E-01         0.00000E+00
    0.20767E-01        -0.28976E-01         0.00000E+00
    0.20127E-01        -0.27983E-01         0.00000E+00
    0.19483E-01        -0.26990E-01         0.00000E+00
    0.18835E-01        -0.25996E-01         0.00000E+00
    0.18183E-01        -0.25002E-01         0.00000E+00
    0.17526E-01        -0.24007E-01         0.00000E+00
    0.16866E-01        -0.23011E-01         0.00000E+00
    0.16200E-01        -0.22015E-01         0.00000E+00
    0.15530E-01        -0.21018E-01         0.00000E+00
    0.14854E-01        -0.20020E-01         0.00000E+00
    0.14174E-01        -0.19022E-01         0.00000E+00
    0.13488E-01        -0.18023E-01         0.00000E+00
    0.12796E-01        -0.17024E-01         0.00000E+00
    0.12098E-01        -0.16024E-01         0.00000E+00
    0.11395E-01        -0.15024E-01         0.00000E+00
    0.10686E-01        -0.14023E-01         0.00000E+00
    0.99697E-02        -0.13022E-01         0.00000E+00
    0.92473E-02        -0.12021E-01         0.00000E+00
    0.85182E-02        -0.11019E-01         0.00000E+00
    0.77821E-02        -0.10017E-01         0.00000E+00
    0.70390E-02        -0.90151E-02         0.00000E+00
    0.62885E-02        -0.80129E-02         0.00000E+00
    0.55306E-02        -0.70106E-02         0.00000E+00
    0.47650E-02        -0.60084E-02         0.00000E+00
    0.39915E-02        -0.50063E-02         0.00000E+00
    0.32100E-02        -0.40043E-02         0.00000E+00
    0.24203E-02        -0.30026E-02         0.00000E+00
    0.16222E-02        -0.20013E-02         0.00000E+00
    0.81549E-03        -0.10004E-02         0.00000E+00
    0.00000E+00         0.00000E+00         0.00000E+00
    0.33987E-01        -0.52815E-01         0.00000E+00
    0.33369E-01        -0.51765E-01         0.00000E+00
    0.32751E-01        -0.50717E-01         0.00000E+00
    0.32133E-01        -0.49669E-01         0.00000E+00
    0.31515E-01        -0.48622E-01         0.00000E+00
    0.30896E-01        -0.47576E-01         0.00000E+00
    0.30277E-01        -0.46531E-01         0.00000E+00
    0.29658E-01        -0.45485E-01         0.00000E+00
    0.29038E-01        -0.44440E-01         0.00000E+00
    0.28417E-01        -0.43395E-01         0.00000E+00
    0.27795E-01        -0.42350E-01         0.00000E+00
    0.27172E-01        -0.41305E-01         0.00000E+00
    0.26548E-01        -0.40260E-01         0.00000E+00
    0.25922E-01        -0.39215E-01         0.00000E+00
    0.25295E-01        -0.38169E-01         0.00000E+00
    0.24666E-01        -0.37123E-01         0.00000E+00
    0.24036E-01        -0.36076E-01         0.00000E+00
    0.23403E-01        -0.35028E-01         0.00000E+00
    0.22768E-01        -0.33980E-01         0.00000E+00
    0.22130E-01        -0.32931E-01         0.00000E+00
    0.21490E-01        -0.31881E-01         0.00000E+00
    0.20847E-01        -0.30831E-01         0.00000E+00
    0.20201E-01        -0.29779E-01         0.00000E+00
    0.19552E-01        -0.28727E-01         0.00000E+00
    0.18899E-01        -0.27674E-01         0.00000E+00
    0.18243E-01        -0.26619E-01         0.00000E+00
    0.17583E-01        -0.25564E-01         0.00000E+00
    0.16918E-01        -0.24508E-01         0.00000E+00
    0.16249E-01        -0.23451E-01         0.00000E+00
    0.15576E-01        -0.22392E-01         0.00000E+00
    0.14898E-01        -0.21333E-01         0.00000E+00
    0.14215E-01        -0.20273E-01         0.00000E+00
    0.13527E-01        -0.19212E-01         0.00000E+00
    0.12833E-01        -0.18150E-01         0.00000E+00
    0.12134E-01        -0.17087E-01         0.00000E+00
    0.11429E-01        -0.16023E-01         0.00000E+00
    0.10717E-01        -0.14959E-01         0.00000E+00
    0.99997E-02        -0.13893E-01         0.00000E+00
    0.92757E-02        -0.12827E-01         0.00000E+00
    0.85448E-02        -0.11760E-01         0.00000E+00
    0.78070E-02        -0.10693E-01         0.00000E+00
    0.70621E-02        -0.96249E-02         0.00000E+00
    0.63097E-02        -0.85564E-02         0.00000E+00
    0.55498E-02        -0.74876E-02         0.00000E+00
    0.47821E-02        -0.64183E-02         0.00000E+00
    0.40063E-02        -0.53488E-02         0.00000E+00
    0.32223E-02        -0.42791E-02         0.00000E+00
    0.24299E-02        -0.32092E-02         0.00000E+00
    0.16288E-02        -0.21394E-02         0.00000E+00
    0.81893E-03        -0.10696E-02         0.00000E+00
    0.00000E+00         0.00000E+00         0.00000E+00
    0.34237E-01        -0.55968E-01         0.00000E+00
    0.33595E-01        -0.54863E-01         0.00000E+00
    0.32954E-01        -0.53758E-01         0.00000E+00
    0.32314E-01        -0.52655E-01         0.00000E+00
    0.31675E-01        -0.51552E-01         0.00000E+00
    0.31037E-01        -0.50450E-01         0.00000E+00
    0.30401E-01        -0.49348E-01         0.00000E+00
    0.29765E-01        -0.48246E-01         0.00000E+00
    0.29129E-01        -0.47145E-01         0.00000E+00
    0.28494E-01        -0.46043E-01         0.00000E+00
    0.27860E-01        -0.44941E-01         0.00000E+00
    0.27225E-01        -0.43838E-01         0.00000E+00
    0.26590E-01        -0.42735E-01         0.00000E+00
    0.25955E-01        -0.41632E-01         0.00000E+00
    0.25319E-01        -0.40528E-01         0.00000E+00
    0.24682E-01        -0.39423E-01         0.00000E+00
    0.24045E-01        -0.38317E-01         0.00000E+00
    0.23406E-01        -0.37210E-01         0.00000E+00
    0.22766E-01        -0.36102E-01         0.00000E+00
    0.22124E-01        -0.34994E-01         0.00000E+00
    0.21480E-01        -0.33883E-01         0.00000E+00
    0.20834E-01        -0.32772E-01         0.00000E+00
    0.20185E-01        -0.31659E-01         0.00000E+00
    0.19534E-01        -0.30546E-01         0.00000E+00
    0.18879E-01        -0.29430E-01         0.00000E+00
    0.18222E-01        -0.28314E-01         0.00000E+00
    0.17561E-01        -0.27196E-01         0.00000E+00
    0.16896E-01        -0.26076E-01         0.00000E+00
    0.16228E-01        -0.24955E-01         0.00000E+00
    0.15555E-01        -0.23833E-01         0.00000E+00
    0.14877E-01        -0.22710E-01         0.00000E+00
    0.14195E-01        -0.21585E-01         0.00000E+00
    0.13508E-01        -0.20458E-01         0.00000E+00
    0.12816E-01        -0.19331E-01         0.00000E+00
    0.12118E-01        -0.18202E-01         0.00000E+00
    0.11414E-01        -0.17071E-01         0.00000E+00
    0.10704E-01        -0.15940E-01         0.00000E+00
    0.99884E-02        -0.14807E-01         0.00000E+00
    0.92659E-02        -0.13673E-01         0.00000E+00
    0.85367E-02        -0.12538E-01         0.00000E+00
    0.78004E-02        -0.11402E-01         0.00000E+00
    0.70569E-02        -0.10265E-01         0.00000E+00
    0.63059E-02        -0.91270E-02         0.00000E+00
    0.55471E-02        -0.79882E-02         0.00000E+00
    0.47804E-02        -0.68486E-02         0.00000E+00
    0.40055E-02        -0.57084E-02         0.00000E+00
    0.32222E-02        -0.45676E-02         0.00000E+00
    0.24302E-02        -0.34262E-02         0.00000E+00
    0.16293E-02        -0.22844E-02         0.00000E+00
    0.81931E-03        -0.11423E-02         0.00000E+00
    0.00000E+00         0.00000E+00         0.00000E+00
    0.34327E-01        -0.59247E-01         0.00000E+00
    0.33661E-01        -0.58084E-01         0.00000E+00
    0.32998E-01        -0.56923E-01         0.00000E+00
    0.32337E-01        -0.55762E-01         0.00000E+00
    0.31680E-01        -0.54601E-01         0.00000E+00
    0.31025E-01        -0.53441E-01         0.00000E+00
    0.30373E-01        -0.52281E-01         0.00000E+00
    0.29723E-01        -0.51121E-01         0.00000E+00
    0.29074E-01        -0.49961E-01         0.00000E+00
    0.28428E-01        -0.48800E-01         0.00000E+00
    0.27783E-01        -0.47639E-01         0.00000E+00
    0.27140E-01        -0.46478E-01         0.00000E+00
    0.26497E-01        -0.45315E-01         0.00000E+00
    0.25855E-01        -0.44152E-01         0.00000E+00
    0.25214E-01        -0.42987E-01         0.00000E+00
    0.24573E-01        -0.41821E-01         0.00000E+00
    0.23931E-01        -0.40654E-01         0.00000E+00
    0.23290E-01        -0.39486E-01         0.00000E+00
    0.22648E-01        -0.38316E-01         0.00000E+00
    0.22005E-01        -0.37145E-01         0.00000E+00
    0.21360E-01        -0.35972E-01         0.00000E+00
    0.20714E-01        -0.34798E-01         0.00000E+00
    0.20067E-01        -0.33622E-01         0.00000E+00
    0.19417E-01        -0.32444E-01         0.00000E+00
    0.18765E-01        -0.31264E-01         0.00000E+00
    0.18110E-01        -0.30083E-01         0.00000E+00
    0.17452E-01        -0.28899E-01         0.00000E+00
    0.16791E-01        -0.27714E-01         0.00000E+00
    0.16126E-01        -0.26527E-01         0.00000E+00
    0.15457E-01        -0.25338E-01         0.00000E+00
    0.14785E-01        -0.24148E-01         0.00000E+00
    0.14107E-01        -0.22955E-01         0.00000E+00
    0.13425E-01        -0.21761E-01         0.00000E+00
    0.12738E-01        -0.20564E-01         0.00000E+00
    0.12045E-01        -0.19366E-01         0.00000E+00
    0.11346E-01        -0.18167E-01         0.00000E+00
    0.10642E-01        -0.16965E-01         0.00000E+00
    0.99313E-02        -0.15762E-01         0.00000E+00
    0.92141E-02        -0.14558E-01         0.00000E+00
    0.84901E-02        -0.13351E-01         0.00000E+00
    0.77590E-02        -0.12143E-01         0.00000E+00
    0.70206E-02        -0.10934E-01         0.00000E+00
    0.62745E-02        -0.97237E-02         0.00000E+00
    0.55205E-02        -0.85119E-02         0.00000E+00
    0.47583E-02        -0.72989E-02         0.00000E+00
    0.39878E-02        -0.60847E-02         0.00000E+00
    0.32085E-02        -0.48695E-02         0.00000E+00
    0.24204E-02        -0.36533E-02         0.00000E+00
    0.16231E-02        -0.24363E-02         0.00000E+00
    0.81635E-03        -0.12185E-02         0.00000E+00
    0.00000E+00         0.00000E+00         0.00000E+00
    0.34230E-01        -0.62645E-01         0.00000E+00
    0.33542E-01        -0.61424E-01         0.00000E+00
    0.32859E-01        -0.60203E-01         0.00000E+00
    0.32180E-01        -0.58983E-01         0.00000E+00
    0.31506E-01        -0.57763E-01         0.00000E+00
    0.30837E-01        -0.56544E-01         0.00000E+00
    0.30172E-01        -0.55324E-01         0.00000E+00
    0.29510E-01        -0.54104E-01         0.00000E+00
    0.28852E-01        -0.52884E-01         0.00000E+00
    0.28198E-01        -0.51663E-01         0.00000E+00
    0.27546E-01        -0.50441E-01         0.00000E+00
    0.26897E-01        -0.49218E-01         0.00000E+00
    0.26250E-01        -0.47994E-01         0.00000E+00
    0.25605E-01        -0.46768E-01         0.00000E+00
    0.24962E-01        -0.45542E-01         0.00000E+00
    0.24320E-01        -0.44313E-01         0.00000E+00
    0.23679E-01        -0.43083E-01         0.00000E+00
    0.23039E-01        -0.41851E-01         0.00000E+00
    0.22399E-01        -0.40617E-01         0.00000E+00
    0.21759E-01        -0.39382E-01         0.00000E+00
    0.21118E-01        -0.38144E-01         0.00000E+00
    0.20477E-01        -0.36904E-01         0.00000E+00
    0.19835E-01        -0.35662E-01         0.00000E+00
    0.19191E-01        -0.34418E-01         0.00000E+00
    0.18545E-01        -0.33172E-01         0.00000E+00
    0.17897E-01        -0.31923E-01         0.00000E+00
    0.17247E-01        -0.30672E-01         0.00000E+00
    0.16593E-01        -0.29418E-01         0.00000E+00
    0.15937E-01        -0.28163E-01         0.00000E+00
    0.15276E-01        -0.26905E-01         0.00000E+00
    0.14612E-01        -0.25644E-01         0.00000E+00
    0.13944E-01        -0.24381E-01         0.00000E+00
    0.13271E-01        -0.23116E-01         0.00000E+00
    0.12593E-01        -0.21849E-01         0.00000E+00
    0.11909E-01        -0.20579E-01         0.00000E+00
    0.11220E-01        -0.19307E-01         0.00000E+00
    0.10525E-01        -0.18033E-01         0.00000E+00
    0.98243E-02        -0.16757E-01         0.00000E+00
    0.91165E-02        -0.15479E-01         0.00000E+00
    0.84018E-02        -0.14198E-01         0.00000E+00
    0.76799E-02        -0.12916E-01         0.00000E+00
    0.69505E-02        -0.11632E-01         0.00000E+00
    0.62132E-02        -0.10345E-01         0.00000E+00
    0.54679E-02        -0.90575E-02         0.00000E+00
    0.47141E-02        -0.77679E-02         0.00000E+00
    0.39517E-02        -0.64768E-02         0.00000E+00
    0.31803E-02        -0.51841E-02         0.00000E+00
    0.23997E-02        -0.38899E-02         0.00000E+00
    0.16097E-02        -0.25945E-02         0.00000E+00
    0.80983E-03        -0.12978E-02         0.00000E+00
    0.00000E+00         0.00000E+00         0.00000E+00
    0.33918E-01        -0.66153E-01         0.00000E+00
    0.33210E-01        -0.64871E-01         0.00000E+00
    0.32509E-01        -0.63591E-01         0.00000E+00
    0.31816E-01        -0.62310E-01         0.00000E+00
    0.31129E-01        -0.61030E-01         0.00000E+00
    0.30448E-01        -0.59749E-01         0.00000E+00
    0.29773E-01        -0.58469E-01         0.00000E+00
    0.29104E-01        -0.57187E-01         0.00000E+00
    0.28441E-01        -0.55905E-01         0.00000E+00
    0.27782E-01        -0.54622E-01         0.00000E+00
    0.27127E-01        -0.53337E-01         0.00000E+00
    0.26477E-01        -0.52051E-01         0.00000E+00
    0.25830E-01        -0.50764E-01         0.00000E+00
    0.25187E-01        -0.49475E-01         0.00000E+00
    0.24546E-01        -0.48184E-01         0.00000E+00
    0.23908E-01        -0.46891E-01         0.00000E+00
    0.23272E-01        -0.45596E-01         0.00000E+00
    0.22638E-01        -0.44298E-01         0.00000E+00
    0.22005E-01        -0.42998E-01         0.00000E+00
    0.21372E-01        -0.41696E-01         0.00000E+00
    0.20740E-01        -0.40392E-01         0.00000E+00
    0.20109E-01        -0.39084E-01         0.00000E+00
    0.19476E-01        -0.37774E-01         0.00000E+00
    0.18843E-01        -0.36462E-01         0.00000E+00
    0.18209E-01        -0.35146E-01         0.00000E+00
    0.17573E-01        -0.33828E-01         0.00000E+00
    0.16934E-01        -0.32507E-01         0.00000E+00
    0.16294E-01        -0.31183E-01         0.00000E+00
    0.15650E-01        -0.29856E-01         0.00000E+00
    0.15003E-01        -0.28527E-01         0.00000E+00
    0.14353E-01        -0.27194E-01         0.00000E+00
    0.13698E-01        -0.25859E-01         0.00000E+00
    0.13039E-01        -0.24521E-01         0.00000E+00
    0.12375E-01        -0.23180E-01         0.00000E+00
    0.11706E-01        -0.21836E-01         0.00000E+00
    0.11031E-01        -0.20489E-01         0.00000E+00
    0.10350E-01        -0.19140E-01         0.00000E+00
    0.96630E-02        -0.17788E-01         0.00000E+00
    0.89691E-02        -0.16433E-01         0.00000E+00
    0.82682E-02        -0.15076E-01         0.00000E+00
    0.75599E-02        -0.13716E-01         0.00000E+00
    0.68439E-02        -0.12354E-01         0.00000E+00
    0.61198E-02        -0.10990E-01         0.00000E+00
    0.53874E-02        -0.96232E-02         0.00000E+00
    0.46462E-02        -0.82543E-02         0.00000E+00
    0.38960E-02        -0.68833E-02         0.00000E+00
    0.31366E-02        -0.55103E-02         0.00000E+00
    0.23675E-02        -0.41353E-02         0.00000E+00
    0.15886E-02        -0.27586E-02         0.00000E+00
    0.79951E-03        -0.13801E-02         0.00000E+00
    0.00000E+00         0.00000E+00         0.00000E+00
    0.33359E-01        -0.69756E-01         0.00000E+00
    0.32635E-01        -0.68414E-01         0.00000E+00
    0.31921E-01        -0.67072E-01         0.00000E+00
    0.31216E-01        -0.65730E-01         0.00000E+00
    0.30520E-01        -0.64388E-01         0.00000E+00
    0.29832E-01        -0.63045E-01         0.00000E+00
    0.29152E-01        -0.61702E-01         0.00000E+00
    0.28480E-01        -0.60357E-01         0.00000E+00
    0.27815E-01        -0.59012E-01         0.00000E+00
    0.27157E-01        -0.57665E-01         0.00000E+00
    0.26504E-01        -0.56317E-01         0.00000E+00
    0.25858E-01        -0.54966E-01         0.00000E+00
    0.25216E-01        -0.53614E-01         0.00000E+00
    0.24579E-01        -0.52259E-01         0.00000E+00
    0.23947E-01        -0.50903E-01         0.00000E+00
    0.23318E-01        -0.49543E-01         0.00000E+00
    0.22692E-01        -0.48181E-01         0.00000E+00
    0.22070E-01        -0.46817E-01         0.00000E+00
    0.21449E-01        -0.45449E-01         0.00000E+00
    0.20830E-01        -0.44079E-01         0.00000E+00
    0.20212E-01        -0.42705E-01         0.00000E+00
    0.19595E-01        -0.41328E-01         0.00000E+00
    0.18979E-01        -0.39949E-01         0.00000E+00
    0.18362E-01        -0.38566E-01         0.00000E+00
    0.17744E-01        -0.37179E-01         0.00000E+00
    0.17126E-01        -0.35790E-01         0.00000E+00
    0.16505E-01        -0.34397E-01         0.00000E+00
    0.15883E-01        -0.33000E-01         0.00000E+00
    0.15258E-01        -0.31600E-01         0.00000E+00
    0.14630E-01        -0.30197E-01         0.00000E+00
    0.13998E-01        -0.28791E-01         0.00000E+00
    0.13363E-01        -0.27381E-01         0.00000E+00
    0.12723E-01        -0.25967E-01         0.00000E+00
    0.12078E-01        -0.24550E-01         0.00000E+00
    0.11428E-01        -0.23130E-01         0.00000E+00
    0.10773E-01        -0.21707E-01         0.00000E+00
    0.10111E-01        -0.20280E-01         0.00000E+00
    0.94430E-02        -0.18850E-01         0.00000E+00
    0.87680E-02        -0.17417E-01         0.00000E+00
    0.80858E-02        -0.15981E-01         0.00000E+00
    0.73960E-02        -0.14542E-01         0.00000E+00
    0.66981E-02        -0.13099E-01         0.00000E+00
    0.59919E-02        -0.11654E-01         0.00000E+00
    0.52769E-02        -0.10206E-01         0.00000E+00
    0.45529E-02        -0.87557E-02         0.00000E+00
    0.38195E-02        -0.73025E-02         0.00000E+00
    0.30763E-02        -0.58466E-02         0.00000E+00
    0.23231E-02        -0.43884E-02         0.00000E+00
    0.15595E-02        -0.29278E-02         0.00000E+00
    0.78520E-03        -0.14650E-02         0.00000E+00
    0.00000E+00         0.00000E+00         0.00000E+00
    0.32520E-01        -0.73436E-01         0.00000E+00
    0.31785E-01        -0.72032E-01         0.00000E+00
    0.31061E-01        -0.70628E-01         0.00000E+00
    0.30350E-01        -0.69223E-01         0.00000E+00
    0.29649E-01        -0.67818E-01         0.00000E+00
    0.28960E-01        -0.66413E-01         0.00000E+00
    0.28281E-01        -0.65006E-01         0.00000E+00
    0.27611E-01        -0.63597E-01         0.00000E+00
    0.26950E-01        -0.62188E-01         0.00000E+00
    0.26298E-01        -0.60776E-01         0.00000E+00
    0.25654E-01        -0.59362E-01         0.00000E+00
    0.25017E-01        -0.57946E-01         0.00000E+00
    0.24387E-01        -0.56527E-01         0.00000E+00
    0.23763E-01        -0.55106E-01         0.00000E+00
    0.23145E-01        -0.53682E-01         0.00000E+00
    0.22532E-01        -0.52255E-01         0.00000E+00
    0.21923E-01        -0.50825E-01         0.00000E+00
    0.21318E-01        -0.49391E-01         0.00000E+00
    0.20716E-01        -0.47954E-01         0.00000E+00
    0.20116E-01        -0.46514E-01         0.00000E+00
    0.19519E-01        -0.45070E-01         0.00000E+00
    0.18924E-01        -0.43623E-01         0.00000E+00
    0.18329E-01        -0.42172E-01         0.00000E+00
    0.17734E-01        -0.40717E-01         0.00000E+00
    0.17140E-01        -0.39258E-01         0.00000E+00
    0.16545E-01        -0.37795E-01         0.00000E+00
    0.15948E-01        -0.36329E-01         0.00000E+00
    0.15350E-01        -0.34858E-01         0.00000E+00
    0.14750E-01        -0.33384E-01         0.00000E+00
    0.14147E-01        -0.31905E-01         0.00000E+00
    0.13540E-01        -0.30423E-01         0.00000E+00
    0.12930E-01        -0.28937E-01         0.00000E+00
    0.12315E-01        -0.27446E-01         0.00000E+00
    0.11695E-01        -0.25952E-01         0.00000E+00
    0.11070E-01        -0.24454E-01         0.00000E+00
    0.10440E-01        -0.22952E-01         0.00000E+00
    0.98031E-02        -0.21446E-01         0.00000E+00
    0.91596E-02        -0.19937E-01         0.00000E+00
    0.85090E-02        -0.18423E-01         0.00000E+00
    0.78509E-02        -0.16906E-01         0.00000E+00
    0.71848E-02        -0.15386E-01         0.00000E+00
    0.65103E-02        -0.13862E-01         0.00000E+00
    0.58271E-02        -0.12334E-01         0.00000E+00
    0.51346E-02        -0.10803E-01         0.00000E+00
    0.44326E-02        -0.92690E-02         0.00000E+00
    0.37207E-02        -0.77315E-02         0.00000E+00
    0.29984E-02        -0.61910E-02         0.00000E+00
    0.22656E-02        -0.46475E-02         0.00000E+00
    0.15218E-02        -0.31011E-02         0.00000E+00
    0.76667E-03        -0.15519E-02         0.00000E+00
    0.00000E+00         0.00000E+00         0.00000E+00
    0.31364E-01        -0.77168E-01         0.00000E+00
    0.30623E-01        -0.75702E-01         0.00000E+00
    0.29896E-01        -0.74234E-01         0.00000E+00
    0.29185E-01        -0.72767E-01         0.00000E+00
    0.28487E-01        -0.71298E-01         0.00000E+00
    0.27802E-01        -0.69829E-01         0.00000E+00
    0.27130E-01        -0.68357E-01         0.00000E+00
    0.26470E-01        -0.66884E-01         0.00000E+00
    0.25821E-01        -0.65409E-01         0.00000E+00
    0.25182E-01        -0.63931E-01         0.00000E+00
    0.24553E-01        -0.62451E-01         0.00000E+00
    0.23933E-01        -0.60968E-01         0.00000E+00
    0.23322E-01        -0.59482E-01         0.00000E+00
    0.22718E-01        -0.57993E-01         0.00000E+00
    0.22121E-01        -0.56500E-01         0.00000E+00
    0.21530E-01        -0.55004E-01         0.00000E+00
    0.20945E-01        -0.53505E-01         0.00000E+00
    0.20365E-01        -0.52001E-01         0.00000E+00
    0.19788E-01        -0.50494E-01         0.00000E+00
    0.19216E-01        -0.48983E-01         0.00000E+00
    0.18646E-01        -0.47468E-01         0.00000E+00
    0.18079E-01        -0.45948E-01         0.00000E+00
    0.17513E-01        -0.44424E-01         0.00000E+00
    0.16948E-01        -0.42896E-01         0.00000E+00
    0.16384E-01        -0.41364E-01         0.00000E+00
    0.15819E-01        -0.39827E-01         0.00000E+00
    0.15253E-01        -0.38286E-01         0.00000E+00
    0.14686E-01        -0.36741E-01         0.00000E+00
    0.14117E-01        -0.35191E-01         0.00000E+00
    0.13545E-01        -0.33636E-01         0.00000E+00
    0.12970E-01        -0.32077E-01         0.00000E+00
    0.12391E-01        -0.30513E-01         0.00000E+00
    0.11808E-01        -0.28945E-01         0.00000E+00
    0.11219E-01        -0.27373E-01         0.00000E+00
    0.10626E-01        -0.25796E-01         0.00000E+00
    0.10027E-01        -0.24214E-01         0.00000E+00
    0.94206E-02        -0.22629E-01         0.00000E+00
    0.88078E-02        -0.21038E-01         0.00000E+00
    0.81875E-02        -0.19444E-01         0.00000E+00
    0.75593E-02        -0.17845E-01         0.00000E+00
    0.69227E-02        -0.16242E-01         0.00000E+00
    0.62772E-02        -0.14635E-01         0.00000E+00
    0.56225E-02        -0.13024E-01         0.00000E+00
    0.49579E-02        -0.11409E-01         0.00000E+00
    0.42833E-02        -0.97899E-02         0.00000E+00
    0.35980E-02        -0.81671E-02         0.00000E+00
    0.29018E-02        -0.65406E-02         0.00000E+00
    0.21943E-02        -0.49106E-02         0.00000E+00
    0.14750E-02        -0.32770E-02         0.00000E+00
    0.74369E-03        -0.16401E-02         0.00000E+00
    0.00000E+00         0.00000E+00         0.00000E+00
    0.29853E-01        -0.80920E-01         0.00000E+00
    0.29113E-01        -0.79390E-01         0.00000E+00
    0.28391E-01        -0.77860E-01         0.00000E+00
    0.27687E-01        -0.76329E-01         0.00000E+00
    0.26999E-01        -0.74796E-01         0.00000E+00
    0.26327E-01        -0.73262E-01         0.00000E+00
    0.25671E-01        -0.71725E-01         0.00000E+00
    0.25028E-01        -0.70187E-01         0.00000E+00
    0.24399E-01        -0.68645E-01         0.00000E+00
    0.23782E-01        -0.67101E-01         0.00000E+00
    0.23176E-01        -0.65554E-01         0.00000E+00
    0.22582E-01        -0.64003E-01         0.00000E+00
    0.21997E-01        -0.62449E-01         0.00000E+00
    0.21421E-01        -0.60891E-01         0.00000E+00
    0.20854E-01        -0.59329E-01         0.00000E+00
    0.20294E-01        -0.57764E-01         0.00000E+00
    0.19740E-01        -0.56194E-01         0.00000E+00
    0.19193E-01        -0.54620E-01         0.00000E+00
    0.18651E-01        -0.53041E-01         0.00000E+00
    0.18113E-01        -0.51459E-01         0.00000E+00
    0.17578E-01        -0.49871E-01         0.00000E+00
    0.17047E-01        -0.48279E-01         0.00000E+00
    0.16517E-01        -0.46682E-01         0.00000E+00
    0.15989E-01        -0.45081E-01         0.00000E+00
    0.15462E-01        -0.43475E-01         0.00000E+00
    0.14935E-01        -0.41863E-01         0.00000E+00
    0.14407E-01        -0.40247E-01         0.00000E+00
    0.13878E-01        -0.38627E-01         0.00000E+00
    0.13348E-01        -0.37001E-01         0.00000E+00
    0.12814E-01        -0.35370E-01         0.00000E+00
    0.12277E-01        -0.33734E-01         0.00000E+00
    0.11737E-01        -0.32093E-01         0.00000E+00
    0.11192E-01        -0.30447E-01         0.00000E+00
    0.10642E-01        -0.28796E-01         0.00000E+00
    0.10087E-01        -0.27140E-01         0.00000E+00
    0.95253E-02        -0.25479E-01         0.00000E+00
    0.89569E-02        -0.23814E-01         0.00000E+00
    0.83812E-02        -0.22143E-01         0.00000E+00
    0.77977E-02        -0.20467E-01         0.00000E+00
    0.72058E-02        -0.18787E-01         0.00000E+00
    0.66049E-02        -0.17101E-01         0.00000E+00
    0.59946E-02        -0.15411E-01         0.00000E+00
    0.53744E-02        -0.13716E-01         0.00000E+00
    0.47438E-02        -0.12017E-01         0.00000E+00
    0.41023E-02        -0.10313E-01         0.00000E+00
    0.34494E-02        -0.86047E-02         0.00000E+00
    0.27848E-02        -0.68920E-02         0.00000E+00
    0.21079E-02        -0.51750E-02         0.00000E+00
    0.14184E-02        -0.34540E-02         0.00000E+00
    0.71590E-03        -0.17289E-02         0.00000E+00
    0.00000E+00         0.00000E+00         0.00000E+00
    0.27944E-01        -0.84649E-01         0.00000E+00
    0.27215E-01        -0.83056E-01         0.00000E+00
    0.26508E-01        -0.81463E-01         0.00000E+00
    0.25821E-01        -0.79868E-01         0.00000E+00
    0.25153E-01        -0.78271E-01         0.00000E+00
    0.24504E-01        -0.76672E-01         0.00000E+00
    0.23873E-01        -0.75070E-01         0.00000E+00
    0.23258E-01        -0.73465E-01         0.00000E+00
    0.22658E-01        -0.71857E-01         0.00000E+00
    0.22072E-01        -0.70246E-01         0.00000E+00
    0.21500E-01        -0.68631E-01         0.00000E+00
    0.20940E-01        -0.67012E-01         0.00000E+00
    0.20391E-01        -0.65389E-01         0.00000E+00
    0.19853E-01        -0.63763E-01         0.00000E+00
    0.19324E-01        -0.62131E-01         0.00000E+00
    0.18804E-01        -0.60496E-01         0.00000E+00
    0.18292E-01        -0.58855E-01         0.00000E+00
    0.17786E-01        -0.57210E-01         0.00000E+00
    0.17286E-01        -0.55561E-01         0.00000E+00
    0.16791E-01        -0.53906E-01         0.00000E+00
    0.16300E-01        -0.52247E-01         0.00000E+00
    0.15812E-01        -0.50582E-01         0.00000E+00
    0.15327E-01        -0.48913E-01         0.00000E+00
    0.14844E-01        -0.47238E-01         0.00000E+00
    0.14362E-01        -0.45558E-01         0.00000E+00
    0.13881E-01        -0.43873E-01         0.00000E+00
    0.13399E-01        -0.42183E-01         0.00000E+00
    0.12915E-01        -0.40488E-01         0.00000E+00
    0.12430E-01        -0.38787E-01         0.00000E+00
    0.11943E-01        -0.37081E-01         0.00000E+00
    0.11452E-01        -0.35369E-01         0.00000E+00
    0.10957E-01        -0.33652E-01         0.00000E+00
    0.10458E-01        -0.31929E-01         0.00000E+00
    0.99538E-02        -0.30201E-01         0.00000E+00
    0.94436E-02        -0.28468E-01         0.00000E+00
    0.89269E-02        -0.26729E-01         0.00000E+00
    0.84031E-02        -0.24984E-01         0.00000E+00
    0.78717E-02        -0.23234E-01         0.00000E+00
    0.73319E-02        -0.21479E-01         0.00000E+00
    0.67832E-02        -0.19717E-01         0.00000E+00
    0.62250E-02        -0.17951E-01         0.00000E+00
    0.56567E-02        -0.16179E-01         0.00000E+00
    0.50778E-02        -0.14402E-01         0.00000E+00
    0.44877E-02        -0.12619E-01         0.00000E+00
    0.38859E-02        -0.10832E-01         0.00000E+00
    0.32718E-02        -0.90386E-02         0.00000E+00
    0.26449E-02        -0.72405E-02         0.00000E+00
    0.20047E-02        -0.54375E-02         0.00000E+00
    0.13508E-02        -0.36297E-02         0.00000E+00
    0.68274E-03        -0.18171E-02         0.00000E+00
    0.00000E+00         0.00000E+00         0.00000E+00
    0.25597E-01        -0.88302E-01         0.00000E+00
    0.24891E-01        -0.86648E-01         0.00000E+00
    0.24209E-01        -0.84992E-01         0.00000E+00
    0.23552E-01        -0.83333E-01         0.00000E+00
    0.22916E-01        -0.81672E-01         0.00000E+00
    0.22302E-01        -0.80008E-01         0.00000E+00
    0.21707E-01        -0.78340E-01         0.00000E+00
    0.21131E-01        -0.76669E-01         0.00000E+00
    0.20572E-01        -0.74995E-01         0.00000E+00
    0.20029E-01        -0.73316E-01         0.00000E+00
    0.19501E-01        -0.71633E-01         0.00000E+00
    0.18987E-01        -0.69946E-01         0.00000E+00
    0.18485E-01        -0.68255E-01         0.00000E+00
    0.17994E-01        -0.66559E-01         0.00000E+00
    0.17514E-01        -0.64858E-01         0.00000E+00
    0.17044E-01        -0.63152E-01         0.00000E+00
    0.16581E-01        -0.61442E-01         0.00000E+00
    0.16126E-01        -0.59726E-01         0.00000E+00
    0.15677E-01        -0.58006E-01         0.00000E+00
    0.15234E-01        -0.56281E-01         0.00000E+00
    0.14796E-01        -0.54550E-01         0.00000E+00
    0.14361E-01        -0.52814E-01         0.00000E+00
    0.13929E-01        -0.51073E-01         0.00000E+00
    0.13498E-01        -0.49327E-01         0.00000E+00
    0.13070E-01        -0.47576E-01         0.00000E+00
    0.12641E-01        -0.45818E-01         0.00000E+00
    0.12212E-01        -0.44056E-01         0.00000E+00
    0.11783E-01        -0.42288E-01         0.00000E+00
    0.11351E-01        -0.40514E-01         0.00000E+00
    0.10917E-01        -0.38735E-01         0.00000E+00
    0.10479E-01        -0.36950E-01         0.00000E+00
    0.10038E-01        -0.35160E-01         0.00000E+00
    0.95919E-02        -0.33363E-01         0.00000E+00
    0.91405E-02        -0.31561E-01         0.00000E+00
    0.86830E-02        -0.29753E-01         0.00000E+00
    0.82189E-02        -0.27938E-01         0.00000E+00
    0.77473E-02        -0.26118E-01         0.00000E+00
    0.72677E-02        -0.24292E-01         0.00000E+00
    0.67793E-02        -0.22460E-01         0.00000E+00
    0.62815E-02        -0.20621E-01         0.00000E+00
    0.57736E-02        -0.18776E-01         0.00000E+00
    0.52549E-02        -0.16926E-01         0.00000E+00
    0.47249E-02        -0.15069E-01         0.00000E+00
    0.41829E-02        -0.13206E-01         0.00000E+00
    0.36282E-02        -0.11337E-01         0.00000E+00
    0.30602E-02        -0.94618E-02         0.00000E+00
    0.24783E-02        -0.75809E-02         0.00000E+00
    0.18819E-02        -0.56941E-02         0.00000E+00
    0.12704E-02        -0.38016E-02         0.00000E+00
    0.64327E-03        -0.19035E-02         0.00000E+00
    0.00000E+00         0.00000E+00         0.00000E+00
    0.22768E-01        -0.91815E-01         0.00000E+00
    0.22099E-01        -0.90099E-01         0.00000E+00
    0.21459E-01        -0.88380E-01         0.00000E+00
    0.20845E-01        -0.86658E-01         0.00000E+00
    0.20256E-01        -0.84933E-01         0.00000E+00
    0.19690E-01        -0.83204E-01         0.00000E+00
    0.19146E-01        -0.81471E-01         0.00000E+00
    0.18623E-01        -0.79734E-01         0.00000E+00
    0.18118E-01        -0.77993E-01         0.00000E+00
    0.17631E-01        -0.76247E-01         0.00000E+00
    0.17159E-01        -0.74497E-01         0.00000E+00
    0.16702E-01        -0.72742E-01         0.00000E+00
    0.16259E-01        -0.70982E-01         0.00000E+00
    0.15827E-01        -0.69217E-01         0.00000E+00
    0.15407E-01        -0.67447E-01         0.00000E+00
    0.14996E-01        -0.65673E-01         0.00000E+00
    0.14594E-01        -0.63893E-01         0.00000E+00
    0.14199E-01        -0.62109E-01         0.00000E+00
    0.13811E-01        -0.60319E-01         0.00000E+00
    0.13428E-01        -0.58525E-01         0.00000E+00
    0.13050E-01        -0.56725E-01         0.00000E+00
    0.12676E-01        -0.54921E-01         0.00000E+00
    0.12305E-01        -0.53111E-01         0.00000E+00
    0.11935E-01        -0.51296E-01         0.00000E+00
    0.11567E-01        -0.49475E-01         0.00000E+00
    0.11199E-01        -0.47649E-01         0.00000E+00
    0.10831E-01        -0.45818E-01         0.00000E+00
    0.10462E-01        -0.43982E-01         0.00000E+00
    0.10091E-01        -0.42140E-01         0.00000E+00
    0.97180E-02        -0.40292E-01         0.00000E+00
    0.93412E-02        -0.38438E-01         0.00000E+00
    0.89605E-02        -0.36579E-01         0.00000E+00
    0.85751E-02        -0.34713E-01         0.00000E+00
    0.81843E-02        -0.32841E-01         0.00000E+00
    0.77873E-02        -0.30963E-01         0.00000E+00
    0.73835E-02        -0.29079E-01         0.00000E+00
    0.69722E-02        -0.27189E-01         0.00000E+00
    0.65525E-02        -0.25291E-01         0.00000E+00
    0.61238E-02        -0.23387E-01         0.00000E+00
    0.56853E-02        -0.21477E-01         0.00000E+00
    0.52363E-02        -0.19559E-01         0.00000E+00
    0.47760E-02        -0.17634E-01         0.00000E+00
    0.43037E-02        -0.15703E-01         0.00000E+00
    0.38185E-02        -0.13764E-01         0.00000E+00
    0.33198E-02        -0.11819E-01         0.00000E+00
    0.28067E-02        -0.98661E-02         0.00000E+00
    0.22785E-02        -0.79065E-02         0.00000E+00
    0.17345E-02        -0.59400E-02         0.00000E+00
    0.11738E-02        -0.39667E-02         0.00000E+00
    0.59592E-03        -0.19866E-02         0.00000E+00
    0.00000E+00         0.00000E+00         0.00000E+00
    0.19415E-01        -0.95104E-01         0.00000E+00
    0.18802E-01        -0.93327E-01         0.00000E+00
    0.18221E-01        -0.91547E-01         0.00000E+00
    0.17669E-01        -0.89762E-01         0.00000E+00
    0.17144E-01        -0.87973E-01         0.00000E+00
    0.16644E-01        -0.86180E-01         0.00000E+00
    0.16168E-01        -0.84382E-01         0.00000E+00
    0.15713E-01        -0.82579E-01         0.00000E+00
    0.15278E-01        -0.80771E-01         0.00000E+00
    0.14860E-01        -0.78959E-01         0.00000E+00
    0.14459E-01        -0.77141E-01         0.00000E+00
    0.14073E-01        -0.75319E-01         0.00000E+00
    0.13700E-01        -0.73491E-01         0.00000E+00
    0.13339E-01        -0.71659E-01         0.00000E+00
    0.12989E-01        -0.69822E-01         0.00000E+00
    0.12648E-01        -0.67980E-01         0.00000E+00
    0.12316E-01        -0.66134E-01         0.00000E+00
    0.11991E-01        -0.64283E-01         0.00000E+00
    0.11671E-01        -0.62427E-01         0.00000E+00
    0.11357E-01        -0.60567E-01         0.00000E+00
    0.11048E-01        -0.58702E-01         0.00000E+00
    0.10742E-01        -0.56832E-01         0.00000E+00
    0.10438E-01        -0.54958E-01         0.00000E+00
    0.10136E-01        -0.53079E-01         0.00000E+00
    0.98354E-02        -0.51195E-01         0.00000E+00
    0.95350E-02        -0.49306E-01         0.00000E+00
    0.92343E-02        -0.47412E-01         0.00000E+00
    0.89324E-02        -0.45513E-01         0.00000E+00
    0.86287E-02        -0.43609E-01         0.00000E+00
    0.83226E-02        -0.41699E-01         0.00000E+00
    0.80133E-02        -0.39783E-01         0.00000E+00
    0.77001E-02        -0.37862E-01         0.00000E+00
    0.73825E-02        -0.35935E-01         0.00000E+00
    0.70596E-02        -0.34001E-01         0.00000E+00
    0.67308E-02        -0.32061E-01         0.00000E+00
    0.63954E-02        -0.30115E-01         0.00000E+00
    0.60525E-02        -0.28162E-01         0.00000E+00
    0.57015E-02        -0.26201E-01         0.00000E+00
    0.53415E-02        -0.24234E-01         0.00000E+00
    0.49718E-02        -0.22259E-01         0.00000E+00
    0.45914E-02        -0.20276E-01         0.00000E+00
    0.41995E-02        -0.18285E-01         0.00000E+00
    0.37952E-02        -0.16287E-01         0.00000E+00
    0.33776E-02        -0.14280E-01         0.00000E+00
    0.29457E-02        -0.12265E-01         0.00000E+00
    0.24986E-02        -0.10242E-01         0.00000E+00
    0.20352E-02        -0.82100E-02         0.00000E+00
    0.15547E-02        -0.61699E-02         0.00000E+00
    0.10560E-02        -0.41215E-02         0.00000E+00
    0.53802E-03        -0.20648E-02         0.00000E+00
    0.00000E+00         0.00000E+00         0.00000E+00
    0.15497E-01        -0.98064E-01         0.00000E+00
    0.14964E-01        -0.96228E-01         0.00000E+00
    0.14465E-01        -0.94387E-01         0.00000E+00
    0.13997E-01        -0.92540E-01         0.00000E+00
    0.13558E-01        -0.90688E-01         0.00000E+00
    0.13145E-01        -0.88831E-01         0.00000E+00
    0.12756E-01        -0.86968E-01         0.00000E+00
    0.12388E-01        -0.85100E-01         0.00000E+00
    0.12040E-01        -0.83226E-01         0.00000E+00
    0.11709E-01        -0.81347E-01         0.00000E+00
    0.11393E-01        -0.79464E-01         0.00000E+00
    0.11091E-01        -0.77575E-01         0.00000E+00
    0.10801E-01        -0.75683E-01         0.00000E+00
    0.10522E-01        -0.73786E-01         0.00000E+00
    0.10252E-01        -0.71884E-01         0.00000E+00
    0.99904E-02        -0.69979E-01         0.00000E+00
    0.97359E-02        -0.68070E-01         0.00000E+00
    0.94876E-02        -0.66157E-01         0.00000E+00
    0.92444E-02        -0.64241E-01         0.00000E+00
    0.90055E-02        -0.62321E-01         0.00000E+00
    0.87702E-02        -0.60396E-01         0.00000E+00
    0.85377E-02        -0.58469E-01         0.00000E+00
    0.83072E-02        -0.56537E-01         0.00000E+00
    0.80782E-02        -0.54601E-01         0.00000E+00
    0.78499E-02        -0.52662E-01         0.00000E+00
    0.76218E-02        -0.50718E-01         0.00000E+00
    0.73932E-02        -0.48769E-01         0.00000E+00
    0.71636E-02        -0.46817E-01         0.00000E+00
    0.69324E-02        -0.44859E-01         0.00000E+00
    0.66989E-02        -0.42897E-01         0.00000E+00
    0.64626E-02        -0.40929E-01         0.00000E+00
    0.62230E-02        -0.38956E-01         0.00000E+00
    0.59793E-02        -0.36977E-01         0.00000E+00
    0.57311E-02        -0.34992E-01         0.00000E+00
    0.54776E-02        -0.33001E-01         0.00000E+00
    0.52181E-02        -0.31003E-01         0.00000E+00
    0.49520E-02        -0.28998E-01         0.00000E+00
    0.46786E-02        -0.26986E-01         0.00000E+00
    0.43969E-02        -0.24966E-01         0.00000E+00
    0.41062E-02        -0.22937E-01         0.00000E+00
    0.38055E-02        -0.20901E-01         0.00000E+00
    0.34939E-02        -0.18855E-01         0.00000E+00
    0.31702E-02        -0.16800E-01         0.00000E+00
    0.28334E-02        -0.14736E-01         0.00000E+00
    0.24822E-02        -0.12662E-01         0.00000E+00
    0.21154E-02        -0.10577E-01         0.00000E+00
    0.17316E-02        -0.84826E-02         0.00000E+00
    0.13295E-02        -0.63776E-02         0.00000E+00
    0.90787E-03        -0.42622E-02         0.00000E+00
    0.46526E-03        -0.21363E-02         0.00000E+00
    0.00000E+00         0.00000E+00         0.00000E+00
    0.10977E-01        -0.10056E+00         0.00000E+00
    0.10554E-01        -0.98666E-01         0.00000E+00
    0.10168E-01        -0.96765E-01         0.00000E+00
    0.98135E-02        -0.94857E-01         0.00000E+00
    0.94883E-02        -0.92942E-01         0.00000E+00
    0.91883E-02        -0.91021E-01         0.00000E+00
    0.89100E-02        -0.89093E-01         0.00000E+00
    0.86507E-02        -0.87160E-01         0.00000E+00
    0.84076E-02        -0.85221E-01         0.00000E+00
    0.81786E-02        -0.83279E-01         0.00000E+00
    0.79619E-02        -0.81333E-01         0.00000E+00
    0.77558E-02        -0.79383E-01         0.00000E+00
    0.75589E-02        -0.77430E-01         0.00000E+00
    0.73700E-02        -0.75474E-01         0.00000E+00
    0.71881E-02        -0.73515E-01         0.00000E+00
    0.70121E-02        -0.71554E-01         0.00000E+00
    0.68412E-02        -0.69591E-01         0.00000E+00
    0.66747E-02        -0.67625E-01         0.00000E+00
    0.65118E-02        -0.65656E-01         0.00000E+00
    0.63519E-02        -0.63686E-01         0.00000E+00
    0.61945E-02        -0.61713E-01         0.00000E+00
    0.60389E-02        -0.59737E-01         0.00000E+00
    0.58848E-02        -0.57759E-01         0.00000E+00
    0.57315E-02        -0.55778E-01         0.00000E+00
    0.55786E-02        -0.53794E-01         0.00000E+00
    0.54258E-02        -0.51806E-01         0.00000E+00
    0.52725E-02        -0.49816E-01         0.00000E+00
    0.51183E-02        -0.47821E-01         0.00000E+00
    0.49629E-02        -0.45823E-01         0.00000E+00
    0.48058E-02        -0.43820E-01         0.00000E+00
    0.46465E-02        -0.41813E-01         0.00000E+00
    0.44847E-02        -0.39800E-01         0.00000E+00
    0.43199E-02        -0.37783E-01         0.00000E+00
    0.41516E-02        -0.35760E-01         0.00000E+00
    0.39793E-02        -0.33730E-01         0.00000E+00
    0.38024E-02        -0.31694E-01         0.00000E+00
    0.36205E-02        -0.29651E-01         0.00000E+00
    0.34329E-02        -0.27601E-01         0.00000E+00
    0.32388E-02        -0.25543E-01         0.00000E+00
    0.30376E-02        -0.23476E-01         0.00000E+00
    0.28283E-02        -0.21399E-01         0.00000E+00
    0.26101E-02        -0.19313E-01         0.00000E+00
    0.23817E-02        -0.17217E-01         0.00000E+00
    0.21420E-02        -0.15110E-01         0.00000E+00
    0.18895E-02        -0.12991E-01         0.00000E+00
    0.16225E-02        -0.10859E-01         0.00000E+00
    0.13392E-02        -0.87145E-02         0.00000E+00
    0.10373E-02        -0.65565E-02         0.00000E+00
    0.71473E-03        -0.43846E-02         0.00000E+00
    0.36930E-03        -0.21989E-02         0.00000E+00
    0.00000E+00         0.00000E+00         0.00000E+00
    0.58178E-02        -0.10240E+00         0.00000E+00
    0.55520E-02        -0.10045E+00         0.00000E+00
    0.53261E-02        -0.98489E-01         0.00000E+00
    0.51290E-02        -0.96517E-01         0.00000E+00
    0.49539E-02        -0.94537E-01         0.00000E+00
    0.47958E-02        -0.92552E-01         0.00000E+00
    0.46516E-02        -0.90562E-01         0.00000E+00
    0.45186E-02        -0.88570E-01         0.00000E+00
    0.43949E-02        -0.86575E-01         0.00000E+00
    0.42791E-02        -0.84578E-01         0.00000E+00
    0.41700E-02        -0.82580E-01         0.00000E+00
    0.40665E-02        -0.80581E-01         0.00000E+00
    0.39679E-02        -0.78581E-01         0.00000E+00
    0.38735E-02        -0.76580E-01         0.00000E+00
    0.37826E-02        -0.74579E-01         0.00000E+00
    0.36948E-02        -0.72577E-01         0.00000E+00
    0.36096E-02        -0.70574E-01         0.00000E+00
    0.35265E-02        -0.68571E-01         0.00000E+00
    0.34453E-02        -0.66566E-01         0.00000E+00
    0.33656E-02        -0.64561E-01         0.00000E+00
    0.32870E-02        -0.62555E-01         0.00000E+00
    0.32094E-02        -0.60547E-01         0.00000E+00
    0.31325E-02        -0.58538E-01         0.00000E+00
    0.30559E-02        -0.56527E-01         0.00000E+00
    0.29795E-02        -0.54513E-01         0.00000E+00
    0.29031E-02        -0.52498E-01         0.00000E+00
    0.28263E-02        -0.50480E-01         0.00000E+00
    0.27491E-02        -0.48459E-01         0.00000E+00
    0.26712E-02        -0.46434E-01         0.00000E+00
    0.25923E-02        -0.44406E-01         0.00000E+00
    0.25123E-02        -0.42374E-01         0.00000E+00
    0.24309E-02        -0.40337E-01         0.00000E+00
    0.23479E-02        -0.38296E-01         0.00000E+00
    0.22630E-02        -0.36249E-01         0.00000E+00
    0.21759E-02        -0.34197E-01         0.00000E+00
    0.20864E-02        -0.32138E-01         0.00000E+00
    0.19941E-02        -0.30073E-01         0.00000E+00
    0.18986E-02        -0.28000E-01         0.00000E+00
    0.17996E-02        -0.25919E-01         0.00000E+00
    0.16966E-02        -0.23829E-01         0.00000E+00
    0.15890E-02        -0.21730E-01         0.00000E+00
    0.14762E-02        -0.19621E-01         0.00000E+00
    0.13575E-02        -0.17500E-01         0.00000E+00
    0.12320E-02        -0.15368E-01         0.00000E+00
    0.10984E-02        -0.13223E-01         0.00000E+00
    0.95534E-03        -0.11063E-01         0.00000E+00
    0.80098E-03        -0.88879E-02         0.00000E+00
    0.63276E-03        -0.66956E-02         0.00000E+00
    0.44713E-03        -0.44847E-02         0.00000E+00
    0.23890E-03        -0.22534E-02         0.00000E+00
    0.00000E+00         0.00000E+00         0.00000E+00
    0.00000E+00        -0.10323E+00         0.00000E+00
    0.00000E+00        -0.10122E+00         0.00000E+00
    0.00000E+00        -0.99202E-01         0.00000E+00
    0.00000E+00        -0.97181E-01         0.00000E+00
    0.00000E+00        -0.95158E-01         0.00000E+00
    0.00000E+00        -0.93135E-01         0.00000E+00
    0.00000E+00        -0.91112E-01         0.00000E+00
    0.00000E+00        -0.89090E-01         0.00000E+00
    0.00000E+00        -0.87068E-01         0.00000E+00
    0.00000E+00        -0.85047E-01         0.00000E+00
    0.00000E+00        -0.83026E-01         0.00000E+00
    0.00000E+00        -0.81007E-01         0.00000E+00
    0.00000E+00        -0.78988E-01         0.00000E+00
    0.00000E+00        -0.76969E-01         0.00000E+00
    0.00000E+00        -0.74951E-01         0.00000E+00
    0.00000E+00        -0.72934E-01         0.00000E+00
    0.00000E+00        -0.70917E-01         0.00000E+00
    0.00000E+00        -0.68899E-01         0.00000E+00
    0.00000E+00        -0.66882E-01         0.00000E+00
    0.00000E+00        -0.64864E-01         0.00000E+00
    0.00000E+00        -0.62846E-01         0.00000E+00
    0.00000E+00        -0.60826E-01         0.00000E+00
    0.00000E+00        -0.58806E-01         0.00000E+00
    0.00000E+00        -0.56784E-01         0.00000E+00
    0.00000E+00        -0.54761E-01         0.00000E+00
    0.00000E+00        -0.52736E-01         0.00000E+00
    0.00000E+00        -0.50708E-01         0.00000E+00
    0.00000E+00        -0.48678E-01         0.00000E+00
    0.00000E+00        -0.46644E-01         0.00000E+00
    0.00000E+00        -0.44608E-01         0.00000E+00
    0.00000E+00        -0.42567E-01         0.00000E+00
    0.00000E+00        -0.40522E-01         0.00000E+00
    0.00000E+00        -0.38473E-01         0.00000E+00
    0.00000E+00        -0.36418E-01         0.00000E+00
    0.00000E+00        -0.34358E-01         0.00000E+00
    0.00000E+00        -0.32292E-01         0.00000E+00
    0.00000E+00        -0.30219E-01         0.00000E+00
    0.00000E+00        -0.28139E-01         0.00000E+00
    0.00000E+00        -0.26051E-01         0.00000E+00
    0.00000E+00        -0.23954E-01         0.00000E+00
    0.00000E+00        -0.21848E-01         0.00000E+00
    0.00000E+00        -0.19731E-01         0.00000E+00
    0.00000E+00        -0.17603E-01         0.00000E+00
    0.00000E+00        -0.15463E-01         0.00000E+00
    0.00000E+00        -0.13310E-01         0.00000E+00
    0.00000E+00        -0.11142E-01         0.00000E+00
    0.00000E+00        -0.89569E-02         0.00000E+00
    0.00000E+00        -0.67534E-02         0.00000E+00
    0.00000E+00        -0.45287E-02         0.00000E+00
    0.00000E+00        -0.22792E-02         0.00000E+00
    0.00000E+00         0.00000E+00         0.00000E+00
CELL_DATA       5000
VECTORS vDarcy double 
    0.76182E-07        -0.16623E-10         0.00000E+00
    0.76194E-07        -0.43677E-10         0.00000E+00
    0.76216E-07        -0.64091E-10         0.00000E+00
    0.76244E-07        -0.79513E-10         0.00000E+00
    0.76278E-07        -0.91126E-10         0.00000E+00
    0.76317E-07        -0.99794E-10         0.00000E+00
    0.76358E-07        -0.10616E-09         0.00000E+00
    0.76401E-07        -0.11072E-09         0.00000E+00
    0.76446E-07        -0.11383E-09         0.00000E+00
    0.76492E-07        -0.11579E-09         0.00000E+00
    0.76538E-07        -0.11683E-09         0.00000E+00
    0.76585E-07        -0.11713E-09         0.00000E+00
    0.76632E-07        -0.11684E-09         0.00000E+00
    0.76679E-07        -0.11606E-09         0.00000E+00
    0.76725E-07        -0.11491E-09         0.00000E+00
    0.76771E-07        -0.11346E-09         0.00000E+00
    0.76816E-07        -0.11177E-09         0.00000E+00
    0.76860E-07        -0.10990E-09         0.00000E+00
    0.76903E-07        -0.10788E-09         0.00000E+00
    0.76946E-07        -0.10577E-09         0.00000E+00
    0.76988E-07        -0.10358E-09         0.00000E+00
    0.77029E-07        -0.10135E-09         0.00000E+00
    0.77069E-07        -0.99088E-10         0.00000E+00
    0.77108E-07        -0.96818E-10         0.00000E+00
    0.77147E-07        -0.94550E-10         0.00000E+00
    0.77184E-07        -0.92296E-10         0.00000E+00
    0.77220E-07        -0.90061E-10         0.00000E+00
    0.77256E-07        -0.87853E-10         0.00000E+00
    0.77291E-07        -0.85672E-10         0.00000E+00
    0.77325E-07        -0.83520E-10         0.00000E+00
    0.77358E-07        -0.81394E-10         0.00000E+00
    0.77390E-07        -0.79291E-10         0.00000E+00
    0.77421E-07        -0.77203E-10         0.00000E+00
    0.77451E-07        -0.75121E-10         0.00000E+00
    0.77481E-07        -0.73034E-10         0.00000E+00
    0.77510E-07        -0.70925E-10         0.00000E+00
    0.77538E-07        -0.68774E-10         0.00000E+00
    0.77565E-07        -0.66557E-10         0.00000E+00
    0.77591E-07        -0.64244E-10         0.00000E+00
    0.77616E-07        -0.61795E-10         0.00000E+00
    0.77640E-07        -0.59162E-10         0.00000E+00
    0.77664E-07        -0.56286E-10         0.00000E+00
    0.77685E-07        -0.53088E-10         0.00000E+00
    0.77706E-07        -0.49468E-10         0.00000E+00
    0.77725E-07        -0.45296E-10         0.00000E+00
    0.77742E-07        -0.40397E-10         0.00000E+00
    0.77757E-07        -0.34536E-10         0.00000E+00
    0.77769E-07        -0.27388E-10         0.00000E+00
    0.77779E-07        -0.18496E-10         0.00000E+00
    0.77784E-07        -0.72077E-11         0.00000E+00
    0.76930E-07        -0.31285E-10         0.00000E+00
    0.76929E-07        -0.85354E-10         0.00000E+00
    0.76929E-07        -0.12930E-09         0.00000E+00
    0.76930E-07        -0.16478E-09         0.00000E+00
    0.76934E-07        -0.19321E-09         0.00000E+00
    0.76939E-07        -0.21578E-09         0.00000E+00
    0.76947E-07        -0.23345E-09         0.00000E+00
    0.76956E-07        -0.24705E-09         0.00000E+00
    0.76967E-07        -0.25726E-09         0.00000E+00
    0.76979E-07        -0.26464E-09         0.00000E+00
    0.76993E-07        -0.26965E-09         0.00000E+00
    0.77008E-07        -0.27269E-09         0.00000E+00
    0.77024E-07        -0.27410E-09         0.00000E+00
    0.77040E-07        -0.27415E-09         0.00000E+00
    0.77057E-07        -0.27307E-09         0.00000E+00
    0.77075E-07        -0.27106E-09         0.00000E+00
    0.77093E-07        -0.26829E-09         0.00000E+00
    0.77111E-07        -0.26490E-09         0.00000E+00
    0.77129E-07        -0.26100E-09         0.00000E+00
    0.77147E-07        -0.25671E-09         0.00000E+00
    0.77165E-07        -0.25211E-09         0.00000E+00
    0.77183E-07        -0.24726E-09         0.00000E+00
    0.77200E-07        -0.24223E-09         0.00000E+00
    0.77218E-07        -0.23706E-09         0.00000E+00
    0.77235E-07        -0.23180E-09         0.00000E+00
    0.77252E-07        -0.22647E-09         0.00000E+00
    0.77269E-07        -0.22110E-09         0.00000E+00
    0.77285E-07        -0.21571E-09         0.00000E+00
    0.77301E-07        -0.21030E-09         0.00000E+00
    0.77316E-07        -0.20488E-09         0.00000E+00
    0.77331E-07        -0.19945E-09         0.00000E+00
    0.77345E-07        -0.19399E-09         0.00000E+00
    0.77359E-07        -0.18849E-09         0.00000E+00
    0.77373E-07        -0.18293E-09         0.00000E+00
    0.77385E-07        -0.17727E-09         0.00000E+00
    0.77398E-07        -0.17148E-09         0.00000E+00
    0.77409E-07        -0.16550E-09         0.00000E+00
    0.77420E-07        -0.15927E-09         0.00000E+00
    0.77430E-07        -0.15272E-09         0.00000E+00
    0.77439E-07        -0.14576E-09         0.00000E+00
    0.77448E-07        -0.13828E-09         0.00000E+00
    0.77455E-07        -0.13015E-09         0.00000E+00
    0.77462E-07        -0.12122E-09         0.00000E+00
    0.77467E-07        -0.11128E-09         0.00000E+00
    0.77472E-07        -0.10010E-09         0.00000E+00
    0.77475E-07        -0.87407E-10         0.00000E+00
    0.77477E-07        -0.72849E-10         0.00000E+00
    0.77478E-07        -0.56010E-10         0.00000E+00
    0.77478E-07        -0.36388E-10         0.00000E+00
    0.77478E-07        -0.13393E-10         0.00000E+00
    0.77166E-07        -0.26266E-10         0.00000E+00
    0.77164E-07        -0.74786E-10         0.00000E+00
    0.77160E-07        -0.11762E-09         0.00000E+00
    0.77154E-07        -0.15488E-09         0.00000E+00
    0.77148E-07        -0.18688E-09         0.00000E+00
    0.77140E-07        -0.21400E-09         0.00000E+00
    0.77133E-07        -0.23670E-09         0.00000E+00
    0.77126E-07        -0.25543E-09         0.00000E+00
    0.77120E-07        -0.27062E-09         0.00000E+00
    0.77113E-07        -0.28269E-09         0.00000E+00
    0.77108E-07        -0.29201E-09         0.00000E+00
    0.77102E-07        -0.29894E-09         0.00000E+00
    0.77098E-07        -0.30377E-09         0.00000E+00
    0.77094E-07        -0.30679E-09         0.00000E+00
    0.77090E-07        -0.30825E-09         0.00000E+00
    0.77087E-07        -0.30836E-09         0.00000E+00
    0.77085E-07        -0.30732E-09         0.00000E+00
    0.77083E-07        -0.30529E-09         0.00000E+00
    0.77081E-07        -0.30243E-09         0.00000E+00
    0.77080E-07        -0.29886E-09         0.00000E+00
    0.77079E-07        -0.29470E-09         0.00000E+00
    0.77078E-07        -0.29004E-09         0.00000E+00
    0.77077E-07        -0.28495E-09         0.00000E+00
    0.77077E-07        -0.27952E-09         0.00000E+00
    0.77076E-07        -0.27380E-09         0.00000E+00
    0.77076E-07        -0.26783E-09         0.00000E+00
    0.77076E-07        -0.26166E-09         0.00000E+00
    0.77076E-07        -0.25530E-09         0.00000E+00
    0.77076E-07        -0.24878E-09         0.00000E+00
    0.77075E-07        -0.24210E-09         0.00000E+00
    0.77075E-07        -0.23527E-09         0.00000E+00
    0.77075E-07        -0.22827E-09         0.00000E+00
    0.77074E-07        -0.22110E-09         0.00000E+00
    0.77074E-07        -0.21372E-09         0.00000E+00
    0.77073E-07        -0.20611E-09         0.00000E+00
    0.77072E-07        -0.19822E-09         0.00000E+00
    0.77070E-07        -0.18999E-09         0.00000E+00
    0.77069E-07        -0.18137E-09         0.00000E+00
    0.77067E-07        -0.17228E-09         0.00000E+00
    0.77065E-07        -0.16264E-09         0.00000E+00
    0.77063E-07        -0.15235E-09         0.00000E+00
    0.77060E-07        -0.14131E-09         0.00000E+00
    0.77058E-07        -0.12938E-09         0.00000E+00
    0.77055E-07        -0.11646E-09         0.00000E+00
    0.77052E-07        -0.10239E-09         0.00000E+00
    0.77049E-07        -0.87060E-10         0.00000E+00
    0.77047E-07        -0.70333E-10         0.00000E+00
    0.77044E-07        -0.52119E-10         0.00000E+00
    0.77043E-07        -0.32383E-10         0.00000E+00
    0.77042E-07        -0.11188E-10         0.00000E+00
    0.76978E-07        -0.18877E-10         0.00000E+00
    0.76975E-07        -0.54224E-10         0.00000E+00
    0.76969E-07        -0.86336E-10         0.00000E+00
    0.76960E-07        -0.11527E-09         0.00000E+00
    0.76950E-07        -0.14111E-09         0.00000E+00
    0.76938E-07        -0.16393E-09         0.00000E+00
    0.76924E-07        -0.18387E-09         0.00000E+00
    0.76910E-07        -0.20108E-09         0.00000E+00
    0.76895E-07        -0.21573E-09         0.00000E+00
    0.76879E-07        -0.22801E-09         0.00000E+00
    0.76863E-07        -0.23810E-09         0.00000E+00
    0.76847E-07        -0.24620E-09         0.00000E+00
    0.76831E-07        -0.25249E-09         0.00000E+00
    0.76814E-07        -0.25715E-09         0.00000E+00
    0.76798E-07        -0.26034E-09         0.00000E+00
    0.76783E-07        -0.26224E-09         0.00000E+00
    0.76767E-07        -0.26297E-09         0.00000E+00
    0.76752E-07        -0.26268E-09         0.00000E+00
    0.76737E-07        -0.26148E-09         0.00000E+00
    0.76722E-07        -0.25949E-09         0.00000E+00
    0.76708E-07        -0.25680E-09         0.00000E+00
    0.76694E-07        -0.25351E-09         0.00000E+00
    0.76680E-07        -0.24969E-09         0.00000E+00
    0.76666E-07        -0.24540E-09         0.00000E+00
    0.76653E-07        -0.24070E-09         0.00000E+00
    0.76640E-07        -0.23564E-09         0.00000E+00
    0.76628E-07        -0.23026E-09         0.00000E+00
    0.76616E-07        -0.22459E-09         0.00000E+00
    0.76604E-07        -0.21865E-09         0.00000E+00
    0.76592E-07        -0.21246E-09         0.00000E+00
    0.76580E-07        -0.20602E-09         0.00000E+00
    0.76569E-07        -0.19933E-09         0.00000E+00
    0.76558E-07        -0.19240E-09         0.00000E+00
    0.76547E-07        -0.18520E-09         0.00000E+00
    0.76537E-07        -0.17771E-09         0.00000E+00
    0.76527E-07        -0.16992E-09         0.00000E+00
    0.76517E-07        -0.16178E-09         0.00000E+00
    0.76507E-07        -0.15327E-09         0.00000E+00
    0.76497E-07        -0.14434E-09         0.00000E+00
    0.76488E-07        -0.13495E-09         0.00000E+00
    0.76479E-07        -0.12506E-09         0.00000E+00
    0.76471E-07        -0.11462E-09         0.00000E+00
    0.76463E-07        -0.10359E-09         0.00000E+00
    0.76456E-07        -0.91921E-10         0.00000E+00
    0.76449E-07        -0.79598E-10         0.00000E+00
    0.76444E-07        -0.66598E-10         0.00000E+00
    0.76439E-07        -0.52922E-10         0.00000E+00
    0.76435E-07        -0.38585E-10         0.00000E+00
    0.76432E-07        -0.23619E-10         0.00000E+00
    0.76431E-07        -0.80583E-11         0.00000E+00
    0.76409E-07        -0.10044E-10         0.00000E+00
    0.76406E-07        -0.29384E-10         0.00000E+00
    0.76399E-07        -0.47569E-10         0.00000E+00
    0.76390E-07        -0.64493E-10         0.00000E+00
    0.76378E-07        -0.80089E-10         0.00000E+00
    0.76364E-07        -0.94316E-10         0.00000E+00
    0.76348E-07        -0.10716E-09         0.00000E+00
    0.76331E-07        -0.11862E-09         0.00000E+00
    0.76312E-07        -0.12872E-09         0.00000E+00
    0.76292E-07        -0.13750E-09         0.00000E+00
    0.76272E-07        -0.14501E-09         0.00000E+00
    0.76250E-07        -0.15131E-09         0.00000E+00
    0.76228E-07        -0.15647E-09         0.00000E+00
    0.76206E-07        -0.16057E-09         0.00000E+00
    0.76183E-07        -0.16367E-09         0.00000E+00
    0.76160E-07        -0.16586E-09         0.00000E+00
    0.76138E-07        -0.16721E-09         0.00000E+00
    0.76115E-07        -0.16780E-09         0.00000E+00
    0.76092E-07        -0.16769E-09         0.00000E+00
    0.76069E-07        -0.16695E-09         0.00000E+00
    0.76047E-07        -0.16565E-09         0.00000E+00
    0.76025E-07        -0.16384E-09         0.00000E+00
    0.76003E-07        -0.16157E-09         0.00000E+00
    0.75982E-07        -0.15890E-09         0.00000E+00
    0.75960E-07        -0.15586E-09         0.00000E+00
    0.75940E-07        -0.15249E-09         0.00000E+00
    0.75919E-07        -0.14883E-09         0.00000E+00
    0.75899E-07        -0.14489E-09         0.00000E+00
    0.75880E-07        -0.14070E-09         0.00000E+00
    0.75861E-07        -0.13628E-09         0.00000E+00
    0.75842E-07        -0.13164E-09         0.00000E+00
    0.75824E-07        -0.12679E-09         0.00000E+00
    0.75806E-07        -0.12174E-09         0.00000E+00
    0.75789E-07        -0.11647E-09         0.00000E+00
    0.75773E-07        -0.11100E-09         0.00000E+00
    0.75757E-07        -0.10532E-09         0.00000E+00
    0.75741E-07        -0.99429E-10         0.00000E+00
    0.75727E-07        -0.93312E-10         0.00000E+00
    0.75713E-07        -0.86967E-10         0.00000E+00
    0.75699E-07        -0.80388E-10         0.00000E+00
    0.75687E-07        -0.73575E-10         0.00000E+00
    0.75675E-07        -0.66526E-10         0.00000E+00
    0.75665E-07        -0.59248E-10         0.00000E+00
    0.75655E-07        -0.51753E-10         0.00000E+00
    0.75646E-07        -0.44061E-10         0.00000E+00
    0.75639E-07        -0.36199E-10         0.00000E+00
    0.75633E-07        -0.28204E-10         0.00000E+00
    0.75628E-07        -0.20123E-10         0.00000E+00
    0.75625E-07        -0.12016E-10         0.00000E+00
    0.75623E-07        -0.39573E-11         0.00000E+00
    0.75500E-07        -0.12006E-11         0.00000E+00
    0.75496E-07        -0.40637E-11         0.00000E+00
    0.75490E-07        -0.74187E-11         0.00000E+00
    0.75481E-07        -0.11090E-10         0.00000E+00
    0.75469E-07        -0.14926E-10         0.00000E+00
    0.75455E-07        -0.18797E-10         0.00000E+00
    0.75438E-07        -0.22599E-10         0.00000E+00
    0.75420E-07        -0.26243E-10         0.00000E+00
    0.75401E-07        -0.29661E-10         0.00000E+00
    0.75380E-07        -0.32802E-10         0.00000E+00
    0.75358E-07        -0.35625E-10         0.00000E+00
    0.75335E-07        -0.38107E-10         0.00000E+00
    0.75311E-07        -0.40232E-10         0.00000E+00
    0.75286E-07        -0.41993E-10         0.00000E+00
    0.75261E-07        -0.43394E-10         0.00000E+00
    0.75236E-07        -0.44442E-10         0.00000E+00
    0.75210E-07        -0.45151E-10         0.00000E+00
    0.75184E-07        -0.45536E-10         0.00000E+00
    0.75158E-07        -0.45618E-10         0.00000E+00
    0.75131E-07        -0.45418E-10         0.00000E+00
    0.75105E-07        -0.44958E-10         0.00000E+00
    0.75079E-07        -0.44259E-10         0.00000E+00
    0.75054E-07        -0.43346E-10         0.00000E+00
    0.75028E-07        -0.42238E-10         0.00000E+00
    0.75003E-07        -0.40958E-10         0.00000E+00
    0.74978E-07        -0.39525E-10         0.00000E+00
    0.74954E-07        -0.37956E-10         0.00000E+00
    0.74930E-07        -0.36269E-10         0.00000E+00
    0.74906E-07        -0.34479E-10         0.00000E+00
    0.74884E-07        -0.32600E-10         0.00000E+00
    0.74861E-07        -0.30646E-10         0.00000E+00
    0.74840E-07        -0.28627E-10         0.00000E+00
    0.74819E-07        -0.26556E-10         0.00000E+00
    0.74798E-07        -0.24442E-10         0.00000E+00
    0.74779E-07        -0.22296E-10         0.00000E+00
    0.74760E-07        -0.20130E-10         0.00000E+00
    0.74742E-07        -0.17954E-10         0.00000E+00
    0.74725E-07        -0.15782E-10         0.00000E+00
    0.74709E-07        -0.13630E-10         0.00000E+00
    0.74693E-07        -0.11515E-10         0.00000E+00
    0.74679E-07        -0.94580E-11         0.00000E+00
    0.74666E-07        -0.74845E-11         0.00000E+00
    0.74654E-07        -0.56243E-11         0.00000E+00
    0.74644E-07        -0.39125E-11         0.00000E+00
    0.74634E-07        -0.23904E-11         0.00000E+00
    0.74626E-07        -0.11057E-11         0.00000E+00
    0.74620E-07        -0.11376E-12         0.00000E+00
    0.74615E-07         0.52208E-12         0.00000E+00
    0.74611E-07         0.72969E-12         0.00000E+00
    0.74610E-07         0.42887E-12         0.00000E+00
    0.74286E-07         0.70671E-11         0.00000E+00
    0.74283E-07         0.19772E-10         0.00000E+00
    0.74277E-07         0.30688E-10         0.00000E+00
    0.74268E-07         0.40034E-10         0.00000E+00
    0.74257E-07         0.48009E-10         0.00000E+00
    0.74244E-07         0.54791E-10         0.00000E+00
    0.74229E-07         0.60539E-10         0.00000E+00
    0.74212E-07         0.65396E-10         0.00000E+00
    0.74193E-07         0.69487E-10         0.00000E+00
    0.74173E-07         0.72920E-10         0.00000E+00
    0.74152E-07         0.75793E-10         0.00000E+00
    0.74129E-07         0.78187E-10         0.00000E+00
    0.74106E-07         0.80173E-10         0.00000E+00
    0.74082E-07         0.81811E-10         0.00000E+00
    0.74057E-07         0.83153E-10         0.00000E+00
    0.74031E-07         0.84239E-10         0.00000E+00
    0.74005E-07         0.85104E-10         0.00000E+00
    0.73979E-07         0.85776E-10         0.00000E+00
    0.73953E-07         0.86276E-10         0.00000E+00
    0.73926E-07         0.86623E-10         0.00000E+00
    0.73899E-07         0.86827E-10         0.00000E+00
    0.73873E-07         0.86899E-10         0.00000E+00
    0.73846E-07         0.86844E-10         0.00000E+00
    0.73820E-07         0.86665E-10         0.00000E+00
    0.73794E-07         0.86363E-10         0.00000E+00
    0.73768E-07         0.85937E-10         0.00000E+00
    0.73743E-07         0.85384E-10         0.00000E+00
    0.73718E-07         0.84699E-10         0.00000E+00
    0.73693E-07         0.83877E-10         0.00000E+00
    0.73669E-07         0.82910E-10         0.00000E+00
    0.73646E-07         0.81791E-10         0.00000E+00
    0.73623E-07         0.80508E-10         0.00000E+00
    0.73601E-07         0.79052E-10         0.00000E+00
    0.73580E-07         0.77408E-10         0.00000E+00
    0.73560E-07         0.75563E-10         0.00000E+00
    0.73540E-07         0.73499E-10         0.00000E+00
    0.73522E-07         0.71198E-10         0.00000E+00
    0.73504E-07         0.68637E-10         0.00000E+00
    0.73488E-07         0.65792E-10         0.00000E+00
    0.73472E-07         0.62636E-10         0.00000E+00
    0.73458E-07         0.59136E-10         0.00000E+00
    0.73445E-07         0.55258E-10         0.00000E+00
    0.73433E-07         0.50962E-10         0.00000E+00
    0.73422E-07         0.46203E-10         0.00000E+00
    0.73413E-07         0.40933E-10         0.00000E+00
    0.73405E-07         0.35097E-10         0.00000E+00
    0.73398E-07         0.28636E-10         0.00000E+00
    0.73393E-07         0.21483E-10         0.00000E+00
    0.73390E-07         0.13568E-10         0.00000E+00
    0.73388E-07         0.48128E-11         0.00000E+00
    0.72804E-07         0.14368E-10         0.00000E+00
    0.72802E-07         0.40949E-10         0.00000E+00
    0.72797E-07         0.64747E-10         0.00000E+00
    0.72789E-07         0.86003E-10         0.00000E+00
    0.72780E-07         0.10494E-09         0.00000E+00
    0.72768E-07         0.12176E-09         0.00000E+00
    0.72755E-07         0.13667E-09         0.00000E+00
    0.72739E-07         0.14982E-09         0.00000E+00
    0.72723E-07         0.16137E-09         0.00000E+00
    0.72705E-07         0.17148E-09         0.00000E+00
    0.72686E-07         0.18027E-09         0.00000E+00
    0.72665E-07         0.18786E-09         0.00000E+00
    0.72644E-07         0.19435E-09         0.00000E+00
    0.72622E-07         0.19985E-09         0.00000E+00
    0.72599E-07         0.20443E-09         0.00000E+00
    0.72575E-07         0.20818E-09         0.00000E+00
    0.72551E-07         0.21116E-09         0.00000E+00
    0.72527E-07         0.21342E-09         0.00000E+00
    0.72502E-07         0.21503E-09         0.00000E+00
    0.72477E-07         0.21602E-09         0.00000E+00
    0.72452E-07         0.21644E-09         0.00000E+00
    0.72427E-07         0.21632E-09         0.00000E+00
    0.72401E-07         0.21569E-09         0.00000E+00
    0.72376E-07         0.21456E-09         0.00000E+00
    0.72352E-07         0.21297E-09         0.00000E+00
    0.72327E-07         0.21093E-09         0.00000E+00
    0.72303E-07         0.20845E-09         0.00000E+00
    0.72279E-07         0.20553E-09         0.00000E+00
    0.72256E-07         0.20218E-09         0.00000E+00
    0.72233E-07         0.19841E-09         0.00000E+00
    0.72210E-07         0.19422E-09         0.00000E+00
    0.72189E-07         0.18959E-09         0.00000E+00
    0.72168E-07         0.18452E-09         0.00000E+00
    0.72147E-07         0.17901E-09         0.00000E+00
    0.72128E-07         0.17303E-09         0.00000E+00
    0.72109E-07         0.16658E-09         0.00000E+00
    0.72092E-07         0.15963E-09         0.00000E+00
    0.72075E-07         0.15216E-09         0.00000E+00
    0.72059E-07         0.14415E-09         0.00000E+00
    0.72044E-07         0.13556E-09         0.00000E+00
    0.72031E-07         0.12637E-09         0.00000E+00
    0.72018E-07         0.11653E-09         0.00000E+00
    0.72007E-07         0.10601E-09         0.00000E+00
    0.71997E-07         0.94761E-10         0.00000E+00
    0.71988E-07         0.82734E-10         0.00000E+00
    0.71981E-07         0.69877E-10         0.00000E+00
    0.71975E-07         0.56132E-10         0.00000E+00
    0.71970E-07         0.41439E-10         0.00000E+00
    0.71967E-07         0.25732E-10         0.00000E+00
    0.71966E-07         0.89412E-11         0.00000E+00
    0.71093E-07         0.20504E-10         0.00000E+00
    0.71090E-07         0.58829E-10         0.00000E+00
    0.71086E-07         0.93646E-10         0.00000E+00
    0.71080E-07         0.12520E-09         0.00000E+00
    0.71072E-07         0.15372E-09         0.00000E+00
    0.71062E-07         0.17943E-09         0.00000E+00
    0.71051E-07         0.20253E-09         0.00000E+00
    0.71038E-07         0.22321E-09         0.00000E+00
    0.71024E-07         0.24163E-09         0.00000E+00
    0.71009E-07         0.25796E-09         0.00000E+00
    0.70992E-07         0.27236E-09         0.00000E+00
    0.70975E-07         0.28495E-09         0.00000E+00
    0.70957E-07         0.29587E-09         0.00000E+00
    0.70937E-07         0.30524E-09         0.00000E+00
    0.70918E-07         0.31315E-09         0.00000E+00
    0.70897E-07         0.31970E-09         0.00000E+00
    0.70876E-07         0.32500E-09         0.00000E+00
    0.70855E-07         0.32910E-09         0.00000E+00
    0.70833E-07         0.33209E-09         0.00000E+00
    0.70811E-07         0.33404E-09         0.00000E+00
    0.70789E-07         0.33499E-09         0.00000E+00
    0.70766E-07         0.33500E-09         0.00000E+00
    0.70744E-07         0.33412E-09         0.00000E+00
    0.70722E-07         0.33239E-09         0.00000E+00
    0.70700E-07         0.32983E-09         0.00000E+00
    0.70678E-07         0.32649E-09         0.00000E+00
    0.70656E-07         0.32238E-09         0.00000E+00
    0.70635E-07         0.31752E-09         0.00000E+00
    0.70614E-07         0.31194E-09         0.00000E+00
    0.70593E-07         0.30563E-09         0.00000E+00
    0.70573E-07         0.29861E-09         0.00000E+00
    0.70554E-07         0.29089E-09         0.00000E+00
    0.70535E-07         0.28245E-09         0.00000E+00
    0.70517E-07         0.27331E-09         0.00000E+00
    0.70499E-07         0.26344E-09         0.00000E+00
    0.70483E-07         0.25284E-09         0.00000E+00
    0.70467E-07         0.24149E-09         0.00000E+00
    0.70452E-07         0.22937E-09         0.00000E+00
    0.70437E-07         0.21647E-09         0.00000E+00
    0.70424E-07         0.20276E-09         0.00000E+00
    0.70412E-07         0.18820E-09         0.00000E+00
    0.70401E-07         0.17276E-09         0.00000E+00
    0.70391E-07         0.15641E-09         0.00000E+00
    0.70382E-07         0.13911E-09         0.00000E+00
    0.70374E-07         0.12082E-09         0.00000E+00
    0.70368E-07         0.10148E-09         0.00000E+00
    0.70362E-07         0.81047E-10         0.00000E+00
    0.70358E-07         0.59470E-10         0.00000E+00
    0.70356E-07         0.36690E-10         0.00000E+00
    0.70354E-07         0.12647E-10         0.00000E+00
    0.69186E-07         0.25394E-10         0.00000E+00
    0.69184E-07         0.73146E-10         0.00000E+00
    0.69181E-07         0.11690E-09         0.00000E+00
    0.69176E-07         0.15689E-09         0.00000E+00
    0.69170E-07         0.19334E-09         0.00000E+00
    0.69162E-07         0.22648E-09         0.00000E+00
    0.69153E-07         0.25651E-09         0.00000E+00
    0.69143E-07         0.28360E-09         0.00000E+00
    0.69132E-07         0.30796E-09         0.00000E+00
    0.69119E-07         0.32973E-09         0.00000E+00
    0.69106E-07         0.34909E-09         0.00000E+00
    0.69092E-07         0.36617E-09         0.00000E+00
    0.69077E-07         0.38111E-09         0.00000E+00
    0.69061E-07         0.39404E-09         0.00000E+00
    0.69045E-07         0.40508E-09         0.00000E+00
    0.69028E-07         0.41433E-09         0.00000E+00
    0.69011E-07         0.42190E-09         0.00000E+00
    0.68993E-07         0.42787E-09         0.00000E+00
    0.68975E-07         0.43233E-09         0.00000E+00
    0.68957E-07         0.43536E-09         0.00000E+00
    0.68938E-07         0.43703E-09         0.00000E+00
    0.68920E-07         0.43740E-09         0.00000E+00
    0.68901E-07         0.43653E-09         0.00000E+00
    0.68883E-07         0.43447E-09         0.00000E+00
    0.68864E-07         0.43127E-09         0.00000E+00
    0.68845E-07         0.42695E-09         0.00000E+00
    0.68827E-07         0.42157E-09         0.00000E+00
    0.68809E-07         0.41514E-09         0.00000E+00
    0.68792E-07         0.40770E-09         0.00000E+00
    0.68774E-07         0.39926E-09         0.00000E+00
    0.68757E-07         0.38984E-09         0.00000E+00
    0.68741E-07         0.37944E-09         0.00000E+00
    0.68725E-07         0.36808E-09         0.00000E+00
    0.68709E-07         0.35576E-09         0.00000E+00
    0.68694E-07         0.34248E-09         0.00000E+00
    0.68680E-07         0.32822E-09         0.00000E+00
    0.68667E-07         0.31300E-09         0.00000E+00
    0.68654E-07         0.29678E-09         0.00000E+00
    0.68642E-07         0.27955E-09         0.00000E+00
    0.68631E-07         0.26130E-09         0.00000E+00
    0.68621E-07         0.24201E-09         0.00000E+00
    0.68611E-07         0.22164E-09         0.00000E+00
    0.68603E-07         0.20016E-09         0.00000E+00
    0.68595E-07         0.17755E-09         0.00000E+00
    0.68589E-07         0.15377E-09         0.00000E+00
    0.68583E-07         0.12877E-09         0.00000E+00
    0.68579E-07         0.10253E-09         0.00000E+00
    0.68575E-07         0.74986E-10         0.00000E+00
    0.68573E-07         0.46100E-10         0.00000E+00
    0.68572E-07         0.15821E-10         0.00000E+00
    0.67119E-07         0.29045E-10         0.00000E+00
    0.67117E-07         0.83897E-10         0.00000E+00
    0.67115E-07         0.13445E-09         0.00000E+00
    0.67112E-07         0.18094E-09         0.00000E+00
    0.67107E-07         0.22357E-09         0.00000E+00
    0.67101E-07         0.26256E-09         0.00000E+00
    0.67095E-07         0.29809E-09         0.00000E+00
    0.67087E-07         0.33036E-09         0.00000E+00
    0.67079E-07         0.35954E-09         0.00000E+00
    0.67070E-07         0.38579E-09         0.00000E+00
    0.67060E-07         0.40927E-09         0.00000E+00
    0.67049E-07         0.43012E-09         0.00000E+00
    0.67038E-07         0.44849E-09         0.00000E+00
    0.67026E-07         0.46451E-09         0.00000E+00
    0.67013E-07         0.47828E-09         0.00000E+00
    0.67000E-07         0.48994E-09         0.00000E+00
    0.66987E-07         0.49957E-09         0.00000E+00
    0.66973E-07         0.50728E-09         0.00000E+00
    0.66959E-07         0.51316E-09         0.00000E+00
    0.66945E-07         0.51730E-09         0.00000E+00
    0.66930E-07         0.51976E-09         0.00000E+00
    0.66916E-07         0.52062E-09         0.00000E+00
    0.66901E-07         0.51994E-09         0.00000E+00
    0.66886E-07         0.51779E-09         0.00000E+00
    0.66872E-07         0.51421E-09         0.00000E+00
    0.66857E-07         0.50924E-09         0.00000E+00
    0.66843E-07         0.50294E-09         0.00000E+00
    0.66828E-07         0.49534E-09         0.00000E+00
    0.66814E-07         0.48646E-09         0.00000E+00
    0.66801E-07         0.47635E-09         0.00000E+00
    0.66787E-07         0.46501E-09         0.00000E+00
    0.66774E-07         0.45246E-09         0.00000E+00
    0.66761E-07         0.43873E-09         0.00000E+00
    0.66749E-07         0.42381E-09         0.00000E+00
    0.66737E-07         0.40772E-09         0.00000E+00
    0.66726E-07         0.39046E-09         0.00000E+00
    0.66715E-07         0.37202E-09         0.00000E+00
    0.66705E-07         0.35240E-09         0.00000E+00
    0.66695E-07         0.33159E-09         0.00000E+00
    0.66686E-07         0.30958E-09         0.00000E+00
    0.66678E-07         0.28634E-09         0.00000E+00
    0.66671E-07         0.26187E-09         0.00000E+00
    0.66664E-07         0.23614E-09         0.00000E+00
    0.66658E-07         0.20913E-09         0.00000E+00
    0.66653E-07         0.18081E-09         0.00000E+00
    0.66648E-07         0.15115E-09         0.00000E+00
    0.66645E-07         0.12011E-09         0.00000E+00
    0.66642E-07         0.87666E-10         0.00000E+00
    0.66640E-07         0.53778E-10         0.00000E+00
    0.66639E-07         0.18405E-10         0.00000E+00
    0.64924E-07         0.31526E-10         0.00000E+00
    0.64924E-07         0.91259E-10         0.00000E+00
    0.64922E-07         0.14657E-09         0.00000E+00
    0.64920E-07         0.19766E-09         0.00000E+00
    0.64917E-07         0.24474E-09         0.00000E+00
    0.64913E-07         0.28799E-09         0.00000E+00
    0.64909E-07         0.32760E-09         0.00000E+00
    0.64904E-07         0.36374E-09         0.00000E+00
    0.64898E-07         0.39657E-09         0.00000E+00
    0.64892E-07         0.42626E-09         0.00000E+00
    0.64885E-07         0.45295E-09         0.00000E+00
    0.64878E-07         0.47678E-09         0.00000E+00
    0.64870E-07         0.49789E-09         0.00000E+00
    0.64861E-07         0.51639E-09         0.00000E+00
    0.64853E-07         0.53242E-09         0.00000E+00
    0.64844E-07         0.54608E-09         0.00000E+00
    0.64834E-07         0.55748E-09         0.00000E+00
    0.64824E-07         0.56670E-09         0.00000E+00
    0.64814E-07         0.57386E-09         0.00000E+00
    0.64804E-07         0.57902E-09         0.00000E+00
    0.64794E-07         0.58227E-09         0.00000E+00
    0.64783E-07         0.58368E-09         0.00000E+00
    0.64773E-07         0.58332E-09         0.00000E+00
    0.64762E-07         0.58125E-09         0.00000E+00
    0.64751E-07         0.57753E-09         0.00000E+00
    0.64740E-07         0.57220E-09         0.00000E+00
    0.64730E-07         0.56532E-09         0.00000E+00
    0.64719E-07         0.55692E-09         0.00000E+00
    0.64709E-07         0.54704E-09         0.00000E+00
    0.64699E-07         0.53572E-09         0.00000E+00
    0.64689E-07         0.52297E-09         0.00000E+00
    0.64679E-07         0.50883E-09         0.00000E+00
    0.64670E-07         0.49331E-09         0.00000E+00
    0.64661E-07         0.47642E-09         0.00000E+00
    0.64652E-07         0.45819E-09         0.00000E+00
    0.64643E-07         0.43861E-09         0.00000E+00
    0.64635E-07         0.41770E-09         0.00000E+00
    0.64628E-07         0.39545E-09         0.00000E+00
    0.64621E-07         0.37185E-09         0.00000E+00
    0.64614E-07         0.34692E-09         0.00000E+00
    0.64608E-07         0.32063E-09         0.00000E+00
    0.64603E-07         0.29297E-09         0.00000E+00
    0.64597E-07         0.26393E-09         0.00000E+00
    0.64593E-07         0.23350E-09         0.00000E+00
    0.64589E-07         0.20166E-09         0.00000E+00
    0.64586E-07         0.16837E-09         0.00000E+00
    0.64583E-07         0.13363E-09         0.00000E+00
    0.64581E-07         0.97404E-10         0.00000E+00
    0.64580E-07         0.59664E-10         0.00000E+00
    0.64579E-07         0.20383E-10         0.00000E+00
    0.62634E-07         0.32944E-10         0.00000E+00
    0.62634E-07         0.95532E-10         0.00000E+00
    0.62633E-07         0.15371E-09         0.00000E+00
    0.62632E-07         0.20765E-09         0.00000E+00
    0.62630E-07         0.25755E-09         0.00000E+00
    0.62629E-07         0.30356E-09         0.00000E+00
    0.62626E-07         0.34587E-09         0.00000E+00
    0.62623E-07         0.38463E-09         0.00000E+00
    0.62620E-07         0.41998E-09         0.00000E+00
    0.62617E-07         0.45207E-09         0.00000E+00
    0.62613E-07         0.48105E-09         0.00000E+00
    0.62608E-07         0.50703E-09         0.00000E+00
    0.62604E-07         0.53016E-09         0.00000E+00
    0.62599E-07         0.55054E-09         0.00000E+00
    0.62594E-07         0.56829E-09         0.00000E+00
    0.62588E-07         0.58351E-09         0.00000E+00
    0.62582E-07         0.59630E-09         0.00000E+00
    0.62576E-07         0.60677E-09         0.00000E+00
    0.62570E-07         0.61499E-09         0.00000E+00
    0.62564E-07         0.62105E-09         0.00000E+00
    0.62557E-07         0.62503E-09         0.00000E+00
    0.62550E-07         0.62700E-09         0.00000E+00
    0.62543E-07         0.62703E-09         0.00000E+00
    0.62537E-07         0.62518E-09         0.00000E+00
    0.62530E-07         0.62151E-09         0.00000E+00
    0.62523E-07         0.61606E-09         0.00000E+00
    0.62516E-07         0.60889E-09         0.00000E+00
    0.62509E-07         0.60005E-09         0.00000E+00
    0.62502E-07         0.58957E-09         0.00000E+00
    0.62496E-07         0.57748E-09         0.00000E+00
    0.62489E-07         0.56382E-09         0.00000E+00
    0.62483E-07         0.54861E-09         0.00000E+00
    0.62476E-07         0.53188E-09         0.00000E+00
    0.62470E-07         0.51365E-09         0.00000E+00
    0.62465E-07         0.49393E-09         0.00000E+00
    0.62459E-07         0.47274E-09         0.00000E+00
    0.62454E-07         0.45009E-09         0.00000E+00
    0.62449E-07         0.42598E-09         0.00000E+00
    0.62444E-07         0.40042E-09         0.00000E+00
    0.62440E-07         0.37340E-09         0.00000E+00
    0.62436E-07         0.34494E-09         0.00000E+00
    0.62432E-07         0.31501E-09         0.00000E+00
    0.62428E-07         0.28361E-09         0.00000E+00
    0.62426E-07         0.25074E-09         0.00000E+00
    0.62423E-07         0.21639E-09         0.00000E+00
    0.62421E-07         0.18053E-09         0.00000E+00
    0.62419E-07         0.14316E-09         0.00000E+00
    0.62418E-07         0.10426E-09         0.00000E+00
    0.62417E-07         0.63798E-10         0.00000E+00
    0.62417E-07         0.21768E-10         0.00000E+00
    0.60277E-07         0.33428E-10         0.00000E+00
    0.60277E-07         0.97085E-10         0.00000E+00
    0.60277E-07         0.15644E-09         0.00000E+00
    0.60277E-07         0.21167E-09         0.00000E+00
    0.60277E-07         0.26292E-09         0.00000E+00
    0.60276E-07         0.31034E-09         0.00000E+00
    0.60276E-07         0.35409E-09         0.00000E+00
    0.60275E-07         0.39430E-09         0.00000E+00
    0.60274E-07         0.43110E-09         0.00000E+00
    0.60273E-07         0.46464E-09         0.00000E+00
    0.60271E-07         0.49502E-09         0.00000E+00
    0.60270E-07         0.52238E-09         0.00000E+00
    0.60268E-07         0.54682E-09         0.00000E+00
    0.60266E-07         0.56846E-09         0.00000E+00
    0.60264E-07         0.58740E-09         0.00000E+00
    0.60261E-07         0.60373E-09         0.00000E+00
    0.60259E-07         0.61755E-09         0.00000E+00
    0.60256E-07         0.62895E-09         0.00000E+00
    0.60253E-07         0.63801E-09         0.00000E+00
    0.60251E-07         0.64481E-09         0.00000E+00
    0.60247E-07         0.64943E-09         0.00000E+00
    0.60244E-07         0.65192E-09         0.00000E+00
    0.60241E-07         0.65237E-09         0.00000E+00
    0.60238E-07         0.65083E-09         0.00000E+00
    0.60234E-07         0.64735E-09         0.00000E+00
    0.60231E-07         0.64199E-09         0.00000E+00
    0.60227E-07         0.63479E-09         0.00000E+00
    0.60224E-07         0.62581E-09         0.00000E+00
    0.60220E-07         0.61508E-09         0.00000E+00
    0.60217E-07         0.60263E-09         0.00000E+00
    0.60214E-07         0.58851E-09         0.00000E+00
    0.60210E-07         0.57273E-09         0.00000E+00
    0.60207E-07         0.55533E-09         0.00000E+00
    0.60204E-07         0.53633E-09         0.00000E+00
    0.60201E-07         0.51575E-09         0.00000E+00
    0.60198E-07         0.49361E-09         0.00000E+00
    0.60195E-07         0.46991E-09         0.00000E+00
    0.60192E-07         0.44468E-09         0.00000E+00
    0.60190E-07         0.41792E-09         0.00000E+00
    0.60187E-07         0.38963E-09         0.00000E+00
    0.60185E-07         0.35982E-09         0.00000E+00
    0.60183E-07         0.32849E-09         0.00000E+00
    0.60181E-07         0.29564E-09         0.00000E+00
    0.60180E-07         0.26127E-09         0.00000E+00
    0.60178E-07         0.22536E-09         0.00000E+00
    0.60177E-07         0.18792E-09         0.00000E+00
    0.60176E-07         0.14894E-09         0.00000E+00
    0.60176E-07         0.10839E-09         0.00000E+00
    0.60175E-07         0.66286E-10         0.00000E+00
    0.60175E-07         0.22597E-10         0.00000E+00
    0.57880E-07         0.33121E-10         0.00000E+00
    0.57880E-07         0.96322E-10         0.00000E+00
    0.57880E-07         0.15543E-09         0.00000E+00
    0.57881E-07         0.21058E-09         0.00000E+00
    0.57882E-07         0.26190E-09         0.00000E+00
    0.57883E-07         0.30954E-09         0.00000E+00
    0.57883E-07         0.35361E-09         0.00000E+00
    0.57884E-07         0.39424E-09         0.00000E+00
    0.57885E-07         0.43155E-09         0.00000E+00
    0.57886E-07         0.46565E-09         0.00000E+00
    0.57887E-07         0.49665E-09         0.00000E+00
    0.57888E-07         0.52466E-09         0.00000E+00
    0.57888E-07         0.54978E-09         0.00000E+00
    0.57889E-07         0.57210E-09         0.00000E+00
    0.57890E-07         0.59172E-09         0.00000E+00
    0.57890E-07         0.60873E-09         0.00000E+00
    0.57890E-07         0.62321E-09         0.00000E+00
    0.57891E-07         0.63524E-09         0.00000E+00
    0.57891E-07         0.64490E-09         0.00000E+00
    0.57891E-07         0.65226E-09         0.00000E+00
    0.57891E-07         0.65740E-09         0.00000E+00
    0.57891E-07         0.66037E-09         0.00000E+00
    0.57891E-07         0.66123E-09         0.00000E+00
    0.57890E-07         0.66005E-09         0.00000E+00
    0.57890E-07         0.65688E-09         0.00000E+00
    0.57890E-07         0.65176E-09         0.00000E+00
    0.57889E-07         0.64475E-09         0.00000E+00
    0.57889E-07         0.63588E-09         0.00000E+00
    0.57888E-07         0.62521E-09         0.00000E+00
    0.57887E-07         0.61275E-09         0.00000E+00
    0.57887E-07         0.59856E-09         0.00000E+00
    0.57886E-07         0.58265E-09         0.00000E+00
    0.57886E-07         0.56506E-09         0.00000E+00
    0.57885E-07         0.54581E-09         0.00000E+00
    0.57884E-07         0.52492E-09         0.00000E+00
    0.57884E-07         0.50242E-09         0.00000E+00
    0.57883E-07         0.47832E-09         0.00000E+00
    0.57882E-07         0.45262E-09         0.00000E+00
    0.57882E-07         0.42536E-09         0.00000E+00
    0.57881E-07         0.39653E-09         0.00000E+00
    0.57881E-07         0.36614E-09         0.00000E+00
    0.57880E-07         0.33420E-09         0.00000E+00
    0.57880E-07         0.30072E-09         0.00000E+00
    0.57880E-07         0.26568E-09         0.00000E+00
    0.57879E-07         0.22911E-09         0.00000E+00
    0.57879E-07         0.19098E-09         0.00000E+00
    0.57879E-07         0.15130E-09         0.00000E+00
    0.57879E-07         0.11007E-09         0.00000E+00
    0.57879E-07         0.67282E-10         0.00000E+00
    0.57879E-07         0.22923E-10         0.00000E+00
    0.55465E-07         0.32163E-10         0.00000E+00
    0.55466E-07         0.93650E-10         0.00000E+00
    0.55467E-07         0.15130E-09         0.00000E+00
    0.55468E-07         0.20524E-09         0.00000E+00
    0.55470E-07         0.25557E-09         0.00000E+00
    0.55472E-07         0.30241E-09         0.00000E+00
    0.55474E-07         0.34587E-09         0.00000E+00
    0.55476E-07         0.38604E-09         0.00000E+00
    0.55478E-07         0.42303E-09         0.00000E+00
    0.55481E-07         0.45694E-09         0.00000E+00
    0.55484E-07         0.48786E-09         0.00000E+00
    0.55486E-07         0.51588E-09         0.00000E+00
    0.55489E-07         0.54109E-09         0.00000E+00
    0.55492E-07         0.56358E-09         0.00000E+00
    0.55495E-07         0.58343E-09         0.00000E+00
    0.55498E-07         0.60072E-09         0.00000E+00
    0.55500E-07         0.61551E-09         0.00000E+00
    0.55503E-07         0.62789E-09         0.00000E+00
    0.55506E-07         0.63793E-09         0.00000E+00
    0.55508E-07         0.64567E-09         0.00000E+00
    0.55511E-07         0.65120E-09         0.00000E+00
    0.55513E-07         0.65457E-09         0.00000E+00
    0.55516E-07         0.65583E-09         0.00000E+00
    0.55518E-07         0.65504E-09         0.00000E+00
    0.55520E-07         0.65224E-09         0.00000E+00
    0.55523E-07         0.64749E-09         0.00000E+00
    0.55525E-07         0.64082E-09         0.00000E+00
    0.55527E-07         0.63228E-09         0.00000E+00
    0.55529E-07         0.62192E-09         0.00000E+00
    0.55531E-07         0.60975E-09         0.00000E+00
    0.55532E-07         0.59582E-09         0.00000E+00
    0.55534E-07         0.58015E-09         0.00000E+00
    0.55536E-07         0.56278E-09         0.00000E+00
    0.55537E-07         0.54372E-09         0.00000E+00
    0.55539E-07         0.52301E-09         0.00000E+00
    0.55540E-07         0.50066E-09         0.00000E+00
    0.55541E-07         0.47670E-09         0.00000E+00
    0.55543E-07         0.45113E-09         0.00000E+00
    0.55544E-07         0.42397E-09         0.00000E+00
    0.55545E-07         0.39524E-09         0.00000E+00
    0.55546E-07         0.36494E-09         0.00000E+00
    0.55547E-07         0.33309E-09         0.00000E+00
    0.55547E-07         0.29968E-09         0.00000E+00
    0.55548E-07         0.26474E-09         0.00000E+00
    0.55549E-07         0.22826E-09         0.00000E+00
    0.55549E-07         0.19024E-09         0.00000E+00
    0.55550E-07         0.15068E-09         0.00000E+00
    0.55550E-07         0.10959E-09         0.00000E+00
    0.55550E-07         0.66970E-10         0.00000E+00
    0.55550E-07         0.22808E-10         0.00000E+00
    0.53056E-07         0.30690E-10         0.00000E+00
    0.53057E-07         0.89465E-10         0.00000E+00
    0.53058E-07         0.14471E-09         0.00000E+00
    0.53060E-07         0.19652E-09         0.00000E+00
    0.53062E-07         0.24499E-09         0.00000E+00
    0.53065E-07         0.29021E-09         0.00000E+00
    0.53068E-07         0.33227E-09         0.00000E+00
    0.53071E-07         0.37125E-09         0.00000E+00
    0.53075E-07         0.40723E-09         0.00000E+00
    0.53079E-07         0.44031E-09         0.00000E+00
    0.53083E-07         0.47056E-09         0.00000E+00
    0.53087E-07         0.49806E-09         0.00000E+00
    0.53091E-07         0.52288E-09         0.00000E+00
    0.53096E-07         0.54509E-09         0.00000E+00
    0.53101E-07         0.56477E-09         0.00000E+00
    0.53105E-07         0.58198E-09         0.00000E+00
    0.53110E-07         0.59679E-09         0.00000E+00
    0.53115E-07         0.60926E-09         0.00000E+00
    0.53120E-07         0.61944E-09         0.00000E+00
    0.53124E-07         0.62741E-09         0.00000E+00
    0.53129E-07         0.63321E-09         0.00000E+00
    0.53134E-07         0.63689E-09         0.00000E+00
    0.53138E-07         0.63851E-09         0.00000E+00
    0.53143E-07         0.63810E-09         0.00000E+00
    0.53147E-07         0.63573E-09         0.00000E+00
    0.53151E-07         0.63142E-09         0.00000E+00
    0.53156E-07         0.62523E-09         0.00000E+00
    0.53160E-07         0.61718E-09         0.00000E+00
    0.53164E-07         0.60732E-09         0.00000E+00
    0.53168E-07         0.59567E-09         0.00000E+00
    0.53171E-07         0.58227E-09         0.00000E+00
    0.53175E-07         0.56715E-09         0.00000E+00
    0.53178E-07         0.55033E-09         0.00000E+00
    0.53182E-07         0.53184E-09         0.00000E+00
    0.53185E-07         0.51171E-09         0.00000E+00
    0.53188E-07         0.48995E-09         0.00000E+00
    0.53191E-07         0.46658E-09         0.00000E+00
    0.53194E-07         0.44161E-09         0.00000E+00
    0.53196E-07         0.41508E-09         0.00000E+00
    0.53199E-07         0.38699E-09         0.00000E+00
    0.53201E-07         0.35734E-09         0.00000E+00
    0.53203E-07         0.32617E-09         0.00000E+00
    0.53205E-07         0.29346E-09         0.00000E+00
    0.53206E-07         0.25924E-09         0.00000E+00
    0.53208E-07         0.22350E-09         0.00000E+00
    0.53209E-07         0.18626E-09         0.00000E+00
    0.53210E-07         0.14752E-09         0.00000E+00
    0.53210E-07         0.10728E-09         0.00000E+00
    0.53211E-07         0.65545E-10         0.00000E+00
    0.53211E-07         0.22318E-10         0.00000E+00
    0.50670E-07         0.28830E-10         0.00000E+00
    0.50671E-07         0.84135E-10         0.00000E+00
    0.50672E-07         0.13624E-09         0.00000E+00
    0.50674E-07         0.18522E-09         0.00000E+00
    0.50677E-07         0.23115E-09         0.00000E+00
    0.50681E-07         0.27410E-09         0.00000E+00
    0.50684E-07         0.31414E-09         0.00000E+00
    0.50689E-07         0.35135E-09         0.00000E+00
    0.50693E-07         0.38579E-09         0.00000E+00
    0.50698E-07         0.41752E-09         0.00000E+00
    0.50703E-07         0.44662E-09         0.00000E+00
    0.50709E-07         0.47315E-09         0.00000E+00
    0.50714E-07         0.49716E-09         0.00000E+00
    0.50720E-07         0.51872E-09         0.00000E+00
    0.50726E-07         0.53790E-09         0.00000E+00
    0.50732E-07         0.55473E-09         0.00000E+00
    0.50739E-07         0.56929E-09         0.00000E+00
    0.50745E-07         0.58162E-09         0.00000E+00
    0.50751E-07         0.59178E-09         0.00000E+00
    0.50758E-07         0.59980E-09         0.00000E+00
    0.50764E-07         0.60575E-09         0.00000E+00
    0.50770E-07         0.60967E-09         0.00000E+00
    0.50777E-07         0.61159E-09         0.00000E+00
    0.50783E-07         0.61157E-09         0.00000E+00
    0.50789E-07         0.60963E-09         0.00000E+00
    0.50795E-07         0.60583E-09         0.00000E+00
    0.50801E-07         0.60019E-09         0.00000E+00
    0.50807E-07         0.59275E-09         0.00000E+00
    0.50812E-07         0.58354E-09         0.00000E+00
    0.50818E-07         0.57259E-09         0.00000E+00
    0.50823E-07         0.55993E-09         0.00000E+00
    0.50828E-07         0.54560E-09         0.00000E+00
    0.50833E-07         0.52960E-09         0.00000E+00
    0.50838E-07         0.51197E-09         0.00000E+00
    0.50843E-07         0.49273E-09         0.00000E+00
    0.50847E-07         0.47190E-09         0.00000E+00
    0.50851E-07         0.44950E-09         0.00000E+00
    0.50855E-07         0.42554E-09         0.00000E+00
    0.50859E-07         0.40005E-09         0.00000E+00
    0.50862E-07         0.37303E-09         0.00000E+00
    0.50865E-07         0.34451E-09         0.00000E+00
    0.50868E-07         0.31448E-09         0.00000E+00
    0.50871E-07         0.28297E-09         0.00000E+00
    0.50873E-07         0.24999E-09         0.00000E+00
    0.50875E-07         0.21554E-09         0.00000E+00
    0.50877E-07         0.17963E-09         0.00000E+00
    0.50878E-07         0.14226E-09         0.00000E+00
    0.50879E-07         0.10346E-09         0.00000E+00
    0.50880E-07         0.63206E-10         0.00000E+00
    0.50880E-07         0.21520E-10         0.00000E+00
    0.48324E-07         0.26696E-10         0.00000E+00
    0.48325E-07         0.77990E-10         0.00000E+00
    0.48326E-07         0.12643E-09         0.00000E+00
    0.48329E-07         0.17206E-09         0.00000E+00
    0.48332E-07         0.21495E-09         0.00000E+00
    0.48336E-07         0.25516E-09         0.00000E+00
    0.48340E-07         0.29273E-09         0.00000E+00
    0.48345E-07         0.32772E-09         0.00000E+00
    0.48350E-07         0.36018E-09         0.00000E+00
    0.48356E-07         0.39017E-09         0.00000E+00
    0.48362E-07         0.41775E-09         0.00000E+00
    0.48368E-07         0.44295E-09         0.00000E+00
    0.48375E-07         0.46584E-09         0.00000E+00
    0.48381E-07         0.48646E-09         0.00000E+00
    0.48388E-07         0.50485E-09         0.00000E+00
    0.48396E-07         0.52107E-09         0.00000E+00
    0.48403E-07         0.53515E-09         0.00000E+00
    0.48410E-07         0.54715E-09         0.00000E+00
    0.48418E-07         0.55711E-09         0.00000E+00
    0.48425E-07         0.56506E-09         0.00000E+00
    0.48433E-07         0.57105E-09         0.00000E+00
    0.48441E-07         0.57512E-09         0.00000E+00
    0.48448E-07         0.57730E-09         0.00000E+00
    0.48456E-07         0.57762E-09         0.00000E+00
    0.48463E-07         0.57613E-09         0.00000E+00
    0.48470E-07         0.57285E-09         0.00000E+00
    0.48477E-07         0.56782E-09         0.00000E+00
    0.48484E-07         0.56107E-09         0.00000E+00
    0.48491E-07         0.55261E-09         0.00000E+00
    0.48498E-07         0.54250E-09         0.00000E+00
    0.48504E-07         0.53073E-09         0.00000E+00
    0.48511E-07         0.51735E-09         0.00000E+00
    0.48517E-07         0.50238E-09         0.00000E+00
    0.48523E-07         0.48583E-09         0.00000E+00
    0.48528E-07         0.46773E-09         0.00000E+00
    0.48534E-07         0.44810E-09         0.00000E+00
    0.48539E-07         0.42695E-09         0.00000E+00
    0.48544E-07         0.40431E-09         0.00000E+00
    0.48548E-07         0.38018E-09         0.00000E+00
    0.48553E-07         0.35458E-09         0.00000E+00
    0.48557E-07         0.32754E-09         0.00000E+00
    0.48560E-07         0.29905E-09         0.00000E+00
    0.48563E-07         0.26913E-09         0.00000E+00
    0.48566E-07         0.23779E-09         0.00000E+00
    0.48569E-07         0.20504E-09         0.00000E+00
    0.48571E-07         0.17090E-09         0.00000E+00
    0.48573E-07         0.13536E-09         0.00000E+00
    0.48574E-07         0.98441E-10         0.00000E+00
    0.48575E-07         0.60144E-10         0.00000E+00
    0.48575E-07         0.20478E-10         0.00000E+00
    0.46031E-07         0.24388E-10         0.00000E+00
    0.46032E-07         0.71323E-10         0.00000E+00
    0.46034E-07         0.11574E-09         0.00000E+00
    0.46036E-07         0.15769E-09         0.00000E+00
    0.46040E-07         0.19720E-09         0.00000E+00
    0.46044E-07         0.23433E-09         0.00000E+00
    0.46048E-07         0.26910E-09         0.00000E+00
    0.46053E-07         0.30156E-09         0.00000E+00
    0.46059E-07         0.33175E-09         0.00000E+00
    0.46065E-07         0.35971E-09         0.00000E+00
    0.46072E-07         0.38548E-09         0.00000E+00
    0.46079E-07         0.40911E-09         0.00000E+00
    0.46086E-07         0.43062E-09         0.00000E+00
    0.46093E-07         0.45006E-09         0.00000E+00
    0.46101E-07         0.46746E-09         0.00000E+00
    0.46109E-07         0.48287E-09         0.00000E+00
    0.46117E-07         0.49631E-09         0.00000E+00
    0.46125E-07         0.50782E-09         0.00000E+00
    0.46134E-07         0.51745E-09         0.00000E+00
    0.46142E-07         0.52521E-09         0.00000E+00
    0.46150E-07         0.53114E-09         0.00000E+00
    0.46159E-07         0.53528E-09         0.00000E+00
    0.46167E-07         0.53766E-09         0.00000E+00
    0.46175E-07         0.53830E-09         0.00000E+00
    0.46184E-07         0.53723E-09         0.00000E+00
    0.46192E-07         0.53449E-09         0.00000E+00
    0.46200E-07         0.53009E-09         0.00000E+00
    0.46208E-07         0.52406E-09         0.00000E+00
    0.46216E-07         0.51644E-09         0.00000E+00
    0.46223E-07         0.50723E-09         0.00000E+00
    0.46231E-07         0.49647E-09         0.00000E+00
    0.46238E-07         0.48417E-09         0.00000E+00
    0.46245E-07         0.47035E-09         0.00000E+00
    0.46251E-07         0.45505E-09         0.00000E+00
    0.46258E-07         0.43826E-09         0.00000E+00
    0.46264E-07         0.42002E-09         0.00000E+00
    0.46270E-07         0.40033E-09         0.00000E+00
    0.46275E-07         0.37922E-09         0.00000E+00
    0.46280E-07         0.35670E-09         0.00000E+00
    0.46285E-07         0.33278E-09         0.00000E+00
    0.46290E-07         0.30747E-09         0.00000E+00
    0.46294E-07         0.28080E-09         0.00000E+00
    0.46297E-07         0.25276E-09         0.00000E+00
    0.46301E-07         0.22337E-09         0.00000E+00
    0.46304E-07         0.19265E-09         0.00000E+00
    0.46306E-07         0.16059E-09         0.00000E+00
    0.46308E-07         0.12722E-09         0.00000E+00
    0.46309E-07         0.92531E-10         0.00000E+00
    0.46310E-07         0.56540E-10         0.00000E+00
    0.46311E-07         0.19253E-10         0.00000E+00
    0.43804E-07         0.21992E-10         0.00000E+00
    0.43805E-07         0.64385E-10         0.00000E+00
    0.43806E-07         0.10460E-09         0.00000E+00
    0.43809E-07         0.14266E-09         0.00000E+00
    0.43812E-07         0.17860E-09         0.00000E+00
    0.43817E-07         0.21244E-09         0.00000E+00
    0.43821E-07         0.24421E-09         0.00000E+00
    0.43827E-07         0.27394E-09         0.00000E+00
    0.43833E-07         0.30166E-09         0.00000E+00
    0.43839E-07         0.32739E-09         0.00000E+00
    0.43846E-07         0.35118E-09         0.00000E+00
    0.43853E-07         0.37304E-09         0.00000E+00
    0.43860E-07         0.39300E-09         0.00000E+00
    0.43868E-07         0.41110E-09         0.00000E+00
    0.43876E-07         0.42736E-09         0.00000E+00
    0.43885E-07         0.44181E-09         0.00000E+00
    0.43893E-07         0.45447E-09         0.00000E+00
    0.43902E-07         0.46538E-09         0.00000E+00
    0.43911E-07         0.47456E-09         0.00000E+00
    0.43919E-07         0.48204E-09         0.00000E+00
    0.43928E-07         0.48783E-09         0.00000E+00
    0.43937E-07         0.49198E-09         0.00000E+00
    0.43946E-07         0.49450E-09         0.00000E+00
    0.43955E-07         0.49541E-09         0.00000E+00
    0.43964E-07         0.49474E-09         0.00000E+00
    0.43973E-07         0.49252E-09         0.00000E+00
    0.43981E-07         0.48875E-09         0.00000E+00
    0.43990E-07         0.48348E-09         0.00000E+00
    0.43998E-07         0.47670E-09         0.00000E+00
    0.44006E-07         0.46845E-09         0.00000E+00
    0.44014E-07         0.45875E-09         0.00000E+00
    0.44022E-07         0.44760E-09         0.00000E+00
    0.44029E-07         0.43504E-09         0.00000E+00
    0.44036E-07         0.42107E-09         0.00000E+00
    0.44043E-07         0.40571E-09         0.00000E+00
    0.44050E-07         0.38899E-09         0.00000E+00
    0.44056E-07         0.37090E-09         0.00000E+00
    0.44062E-07         0.35147E-09         0.00000E+00
    0.44068E-07         0.33071E-09         0.00000E+00
    0.44073E-07         0.30864E-09         0.00000E+00
    0.44078E-07         0.28526E-09         0.00000E+00
    0.44082E-07         0.26059E-09         0.00000E+00
    0.44086E-07         0.23464E-09         0.00000E+00
    0.44090E-07         0.20741E-09         0.00000E+00
    0.44093E-07         0.17893E-09         0.00000E+00
    0.44095E-07         0.14919E-09         0.00000E+00
    0.44097E-07         0.11821E-09         0.00000E+00
    0.44099E-07         0.85996E-10         0.00000E+00
    0.44100E-07         0.52557E-10         0.00000E+00
    0.44101E-07         0.17900E-10         0.00000E+00
    0.41651E-07         0.19579E-10         0.00000E+00
    0.41652E-07         0.57386E-10         0.00000E+00
    0.41654E-07         0.93334E-10         0.00000E+00
    0.41656E-07         0.12744E-09         0.00000E+00
    0.41660E-07         0.15971E-09         0.00000E+00
    0.41664E-07         0.19018E-09         0.00000E+00
    0.41669E-07         0.21885E-09         0.00000E+00
    0.41674E-07         0.24575E-09         0.00000E+00
    0.41680E-07         0.27089E-09         0.00000E+00
    0.41686E-07         0.29430E-09         0.00000E+00
    0.41693E-07         0.31598E-09         0.00000E+00
    0.41700E-07         0.33597E-09         0.00000E+00
    0.41708E-07         0.35428E-09         0.00000E+00
    0.41716E-07         0.37093E-09         0.00000E+00
    0.41724E-07         0.38594E-09         0.00000E+00
    0.41733E-07         0.39933E-09         0.00000E+00
    0.41741E-07         0.41112E-09         0.00000E+00
    0.41750E-07         0.42133E-09         0.00000E+00
    0.41759E-07         0.42999E-09         0.00000E+00
    0.41768E-07         0.43710E-09         0.00000E+00
    0.41777E-07         0.44269E-09         0.00000E+00
    0.41786E-07         0.44678E-09         0.00000E+00
    0.41795E-07         0.44939E-09         0.00000E+00
    0.41805E-07         0.45054E-09         0.00000E+00
    0.41814E-07         0.45023E-09         0.00000E+00
    0.41823E-07         0.44850E-09         0.00000E+00
    0.41832E-07         0.44536E-09         0.00000E+00
    0.41840E-07         0.44082E-09         0.00000E+00
    0.41849E-07         0.43490E-09         0.00000E+00
    0.41857E-07         0.42762E-09         0.00000E+00
    0.41865E-07         0.41900E-09         0.00000E+00
    0.41873E-07         0.40904E-09         0.00000E+00
    0.41881E-07         0.39776E-09         0.00000E+00
    0.41889E-07         0.38519E-09         0.00000E+00
    0.41896E-07         0.37132E-09         0.00000E+00
    0.41903E-07         0.35617E-09         0.00000E+00
    0.41909E-07         0.33977E-09         0.00000E+00
    0.41915E-07         0.32211E-09         0.00000E+00
    0.41921E-07         0.30321E-09         0.00000E+00
    0.41926E-07         0.28308E-09         0.00000E+00
    0.41931E-07         0.26174E-09         0.00000E+00
    0.41936E-07         0.23918E-09         0.00000E+00
    0.41940E-07         0.21544E-09         0.00000E+00
    0.41944E-07         0.19050E-09         0.00000E+00
    0.41947E-07         0.16439E-09         0.00000E+00
    0.41950E-07         0.13711E-09         0.00000E+00
    0.41952E-07         0.10867E-09         0.00000E+00
    0.41954E-07         0.79076E-10         0.00000E+00
    0.41955E-07         0.48340E-10         0.00000E+00
    0.41955E-07         0.16469E-10         0.00000E+00
    0.39580E-07         0.17208E-10         0.00000E+00
    0.39581E-07         0.50497E-10         0.00000E+00
    0.39583E-07         0.82228E-10         0.00000E+00
    0.39585E-07         0.11241E-09         0.00000E+00
    0.39589E-07         0.14104E-09         0.00000E+00
    0.39593E-07         0.16814E-09         0.00000E+00
    0.39597E-07         0.19370E-09         0.00000E+00
    0.39603E-07         0.21774E-09         0.00000E+00
    0.39609E-07         0.24028E-09         0.00000E+00
    0.39615E-07         0.26131E-09         0.00000E+00
    0.39622E-07         0.28085E-09         0.00000E+00
    0.39629E-07         0.29892E-09         0.00000E+00
    0.39636E-07         0.31551E-09         0.00000E+00
    0.39644E-07         0.33066E-09         0.00000E+00
    0.39652E-07         0.34436E-09         0.00000E+00
    0.39661E-07         0.35664E-09         0.00000E+00
    0.39669E-07         0.36750E-09         0.00000E+00
    0.39678E-07         0.37695E-09         0.00000E+00
    0.39687E-07         0.38502E-09         0.00000E+00
    0.39696E-07         0.39172E-09         0.00000E+00
    0.39705E-07         0.39705E-09         0.00000E+00
    0.39714E-07         0.40104E-09         0.00000E+00
    0.39723E-07         0.40369E-09         0.00000E+00
    0.39732E-07         0.40502E-09         0.00000E+00
    0.39742E-07         0.40504E-09         0.00000E+00
    0.39751E-07         0.40377E-09         0.00000E+00
    0.39759E-07         0.40122E-09         0.00000E+00
    0.39768E-07         0.39740E-09         0.00000E+00
    0.39777E-07         0.39232E-09         0.00000E+00
    0.39785E-07         0.38600E-09         0.00000E+00
    0.39794E-07         0.37844E-09         0.00000E+00
    0.39802E-07         0.36967E-09         0.00000E+00
    0.39809E-07         0.35968E-09         0.00000E+00
    0.39817E-07         0.34850E-09         0.00000E+00
    0.39824E-07         0.33614E-09         0.00000E+00
    0.39831E-07         0.32260E-09         0.00000E+00
    0.39838E-07         0.30789E-09         0.00000E+00
    0.39844E-07         0.29203E-09         0.00000E+00
    0.39850E-07         0.27502E-09         0.00000E+00
    0.39855E-07         0.25688E-09         0.00000E+00
    0.39860E-07         0.23762E-09         0.00000E+00
    0.39865E-07         0.21724E-09         0.00000E+00
    0.39869E-07         0.19575E-09         0.00000E+00
    0.39873E-07         0.17316E-09         0.00000E+00
    0.39876E-07         0.14948E-09         0.00000E+00
    0.39879E-07         0.12472E-09         0.00000E+00
    0.39881E-07         0.98881E-10         0.00000E+00
    0.39883E-07         0.71978E-10         0.00000E+00
    0.39884E-07         0.44016E-10         0.00000E+00
    0.39884E-07         0.15001E-10         0.00000E+00
    0.37598E-07         0.14925E-10         0.00000E+00
    0.37598E-07         0.43854E-10         0.00000E+00
    0.37600E-07         0.71505E-10         0.00000E+00
    0.37603E-07         0.97874E-10         0.00000E+00
    0.37606E-07         0.12296E-09         0.00000E+00
    0.37610E-07         0.14676E-09         0.00000E+00
    0.37614E-07         0.16928E-09         0.00000E+00
    0.37619E-07         0.19052E-09         0.00000E+00
    0.37625E-07         0.21048E-09         0.00000E+00
    0.37631E-07         0.22916E-09         0.00000E+00
    0.37637E-07         0.24657E-09         0.00000E+00
    0.37644E-07         0.26271E-09         0.00000E+00
    0.37652E-07         0.27759E-09         0.00000E+00
    0.37659E-07         0.29122E-09         0.00000E+00
    0.37667E-07         0.30359E-09         0.00000E+00
    0.37675E-07         0.31473E-09         0.00000E+00
    0.37684E-07         0.32462E-09         0.00000E+00
    0.37692E-07         0.33329E-09         0.00000E+00
    0.37701E-07         0.34074E-09         0.00000E+00
    0.37710E-07         0.34698E-09         0.00000E+00
    0.37719E-07         0.35201E-09         0.00000E+00
    0.37727E-07         0.35585E-09         0.00000E+00
    0.37736E-07         0.35851E-09         0.00000E+00
    0.37745E-07         0.35998E-09         0.00000E+00
    0.37754E-07         0.36029E-09         0.00000E+00
    0.37763E-07         0.35943E-09         0.00000E+00
    0.37772E-07         0.35743E-09         0.00000E+00
    0.37780E-07         0.35429E-09         0.00000E+00
    0.37789E-07         0.35001E-09         0.00000E+00
    0.37797E-07         0.34461E-09         0.00000E+00
    0.37805E-07         0.33809E-09         0.00000E+00
    0.37813E-07         0.33047E-09         0.00000E+00
    0.37821E-07         0.32175E-09         0.00000E+00
    0.37828E-07         0.31195E-09         0.00000E+00
    0.37835E-07         0.30106E-09         0.00000E+00
    0.37842E-07         0.28910E-09         0.00000E+00
    0.37849E-07         0.27608E-09         0.00000E+00
    0.37855E-07         0.26200E-09         0.00000E+00
    0.37860E-07         0.24688E-09         0.00000E+00
    0.37866E-07         0.23071E-09         0.00000E+00
    0.37871E-07         0.21352E-09         0.00000E+00
    0.37875E-07         0.19530E-09         0.00000E+00
    0.37880E-07         0.17606E-09         0.00000E+00
    0.37883E-07         0.15582E-09         0.00000E+00
    0.37886E-07         0.13457E-09         0.00000E+00
    0.37889E-07         0.11232E-09         0.00000E+00
    0.37891E-07         0.89092E-10         0.00000E+00
    0.37893E-07         0.64878E-10         0.00000E+00
    0.37894E-07         0.39690E-10         0.00000E+00
    0.37895E-07         0.13533E-10         0.00000E+00
    0.35707E-07         0.12765E-10         0.00000E+00
    0.35708E-07         0.37562E-10         0.00000E+00
    0.35710E-07         0.61334E-10         0.00000E+00
    0.35712E-07         0.84071E-10         0.00000E+00
    0.35715E-07         0.10577E-09         0.00000E+00
    0.35719E-07         0.12641E-09         0.00000E+00
    0.35723E-07         0.14600E-09         0.00000E+00
    0.35728E-07         0.16454E-09         0.00000E+00
    0.35733E-07         0.18200E-09         0.00000E+00
    0.35739E-07         0.19841E-09         0.00000E+00
    0.35745E-07         0.21374E-09         0.00000E+00
    0.35752E-07         0.22801E-09         0.00000E+00
    0.35759E-07         0.24120E-09         0.00000E+00
    0.35766E-07         0.25333E-09         0.00000E+00
    0.35773E-07         0.26439E-09         0.00000E+00
    0.35781E-07         0.27438E-09         0.00000E+00
    0.35789E-07         0.28331E-09         0.00000E+00
    0.35797E-07         0.29118E-09         0.00000E+00
    0.35805E-07         0.29799E-09         0.00000E+00
    0.35814E-07         0.30375E-09         0.00000E+00
    0.35822E-07         0.30846E-09         0.00000E+00
    0.35831E-07         0.31212E-09         0.00000E+00
    0.35839E-07         0.31473E-09         0.00000E+00
    0.35848E-07         0.31631E-09         0.00000E+00
    0.35857E-07         0.31686E-09         0.00000E+00
    0.35865E-07         0.31638E-09         0.00000E+00
    0.35873E-07         0.31489E-09         0.00000E+00
    0.35882E-07         0.31237E-09         0.00000E+00
    0.35890E-07         0.30885E-09         0.00000E+00
    0.35898E-07         0.30432E-09         0.00000E+00
    0.35906E-07         0.29879E-09         0.00000E+00
    0.35913E-07         0.29227E-09         0.00000E+00
    0.35921E-07         0.28476E-09         0.00000E+00
    0.35928E-07         0.27628E-09         0.00000E+00
    0.35935E-07         0.26682E-09         0.00000E+00
    0.35941E-07         0.25639E-09         0.00000E+00
    0.35948E-07         0.24500E-09         0.00000E+00
    0.35954E-07         0.23265E-09         0.00000E+00
    0.35959E-07         0.21935E-09         0.00000E+00
    0.35964E-07         0.20511E-09         0.00000E+00
    0.35969E-07         0.18994E-09         0.00000E+00
    0.35974E-07         0.17383E-09         0.00000E+00
    0.35978E-07         0.15679E-09         0.00000E+00
    0.35981E-07         0.13883E-09         0.00000E+00
    0.35984E-07         0.11996E-09         0.00000E+00
    0.35987E-07         0.10018E-09         0.00000E+00
    0.35989E-07         0.79501E-10         0.00000E+00
    0.35991E-07         0.57922E-10         0.00000E+00
    0.35992E-07         0.35451E-10         0.00000E+00
    0.35992E-07         0.12094E-10         0.00000E+00
    0.33912E-07         0.10754E-10         0.00000E+00
    0.33913E-07         0.31696E-10         0.00000E+00
    0.33915E-07         0.51841E-10         0.00000E+00
    0.33917E-07         0.71174E-10         0.00000E+00
    0.33920E-07         0.89683E-10         0.00000E+00
    0.33923E-07         0.10736E-09         0.00000E+00
    0.33927E-07         0.12418E-09         0.00000E+00
    0.33931E-07         0.14015E-09         0.00000E+00
    0.33936E-07         0.15525E-09         0.00000E+00
    0.33942E-07         0.16948E-09         0.00000E+00
    0.33947E-07         0.18283E-09         0.00000E+00
    0.33954E-07         0.19530E-09         0.00000E+00
    0.33960E-07         0.20687E-09         0.00000E+00
    0.33967E-07         0.21755E-09         0.00000E+00
    0.33974E-07         0.22733E-09         0.00000E+00
    0.33981E-07         0.23622E-09         0.00000E+00
    0.33989E-07         0.24420E-09         0.00000E+00
    0.33996E-07         0.25127E-09         0.00000E+00
    0.34004E-07         0.25744E-09         0.00000E+00
    0.34012E-07         0.26271E-09         0.00000E+00
    0.34020E-07         0.26707E-09         0.00000E+00
    0.34028E-07         0.27052E-09         0.00000E+00
    0.34036E-07         0.27308E-09         0.00000E+00
    0.34044E-07         0.27472E-09         0.00000E+00
    0.34052E-07         0.27547E-09         0.00000E+00
    0.34060E-07         0.27532E-09         0.00000E+00
    0.34068E-07         0.27428E-09         0.00000E+00
    0.34076E-07         0.27234E-09         0.00000E+00
    0.34084E-07         0.26951E-09         0.00000E+00
    0.34091E-07         0.26579E-09         0.00000E+00
    0.34099E-07         0.26118E-09         0.00000E+00
    0.34106E-07         0.25570E-09         0.00000E+00
    0.34113E-07         0.24933E-09         0.00000E+00
    0.34120E-07         0.24209E-09         0.00000E+00
    0.34126E-07         0.23398E-09         0.00000E+00
    0.34133E-07         0.22501E-09         0.00000E+00
    0.34139E-07         0.21517E-09         0.00000E+00
    0.34144E-07         0.20447E-09         0.00000E+00
    0.34150E-07         0.19292E-09         0.00000E+00
    0.34155E-07         0.18052E-09         0.00000E+00
    0.34159E-07         0.16727E-09         0.00000E+00
    0.34163E-07         0.15318E-09         0.00000E+00
    0.34167E-07         0.13826E-09         0.00000E+00
    0.34171E-07         0.12250E-09         0.00000E+00
    0.34174E-07         0.10591E-09         0.00000E+00
    0.34176E-07         0.88501E-10         0.00000E+00
    0.34178E-07         0.70271E-10         0.00000E+00
    0.34180E-07         0.51225E-10         0.00000E+00
    0.34181E-07         0.31370E-10         0.00000E+00
    0.34181E-07         0.10709E-10         0.00000E+00
    0.32215E-07         0.89086E-11         0.00000E+00
    0.32215E-07         0.26307E-10         0.00000E+00
    0.32217E-07         0.43111E-10         0.00000E+00
    0.32219E-07         0.59301E-10         0.00000E+00
    0.32221E-07         0.74860E-10         0.00000E+00
    0.32224E-07         0.89773E-10         0.00000E+00
    0.32228E-07         0.10403E-09         0.00000E+00
    0.32232E-07         0.11760E-09         0.00000E+00
    0.32236E-07         0.13049E-09         0.00000E+00
    0.32241E-07         0.14269E-09         0.00000E+00
    0.32247E-07         0.15417E-09         0.00000E+00
    0.32252E-07         0.16494E-09         0.00000E+00
    0.32258E-07         0.17498E-09         0.00000E+00
    0.32265E-07         0.18428E-09         0.00000E+00
    0.32271E-07         0.19285E-09         0.00000E+00
    0.32278E-07         0.20066E-09         0.00000E+00
    0.32285E-07         0.20773E-09         0.00000E+00
    0.32292E-07         0.21403E-09         0.00000E+00
    0.32299E-07         0.21957E-09         0.00000E+00
    0.32306E-07         0.22435E-09         0.00000E+00
    0.32314E-07         0.22836E-09         0.00000E+00
    0.32321E-07         0.23159E-09         0.00000E+00
    0.32329E-07         0.23405E-09         0.00000E+00
    0.32336E-07         0.23574E-09         0.00000E+00
    0.32344E-07         0.23665E-09         0.00000E+00
    0.32351E-07         0.23678E-09         0.00000E+00
    0.32359E-07         0.23613E-09         0.00000E+00
    0.32366E-07         0.23471E-09         0.00000E+00
    0.32373E-07         0.23251E-09         0.00000E+00
    0.32380E-07         0.22953E-09         0.00000E+00
    0.32387E-07         0.22577E-09         0.00000E+00
    0.32394E-07         0.22124E-09         0.00000E+00
    0.32400E-07         0.21594E-09         0.00000E+00
    0.32407E-07         0.20986E-09         0.00000E+00
    0.32413E-07         0.20301E-09         0.00000E+00
    0.32419E-07         0.19539E-09         0.00000E+00
    0.32424E-07         0.18700E-09         0.00000E+00
    0.32430E-07         0.17785E-09         0.00000E+00
    0.32435E-07         0.16794E-09         0.00000E+00
    0.32439E-07         0.15727E-09         0.00000E+00
    0.32444E-07         0.14584E-09         0.00000E+00
    0.32448E-07         0.13366E-09         0.00000E+00
    0.32451E-07         0.12072E-09         0.00000E+00
    0.32454E-07         0.10704E-09         0.00000E+00
    0.32457E-07         0.92607E-10         0.00000E+00
    0.32460E-07         0.77436E-10         0.00000E+00
    0.32461E-07         0.61526E-10         0.00000E+00
    0.32463E-07         0.44880E-10         0.00000E+00
    0.32464E-07         0.27502E-10         0.00000E+00
    0.32464E-07         0.93956E-11         0.00000E+00
    0.30615E-07         0.72390E-11         0.00000E+00
    0.30615E-07         0.21427E-10         0.00000E+00
    0.30616E-07         0.35196E-10         0.00000E+00
    0.30618E-07         0.48525E-10         0.00000E+00
    0.30620E-07         0.61393E-10         0.00000E+00
    0.30623E-07         0.73783E-10         0.00000E+00
    0.30627E-07         0.85677E-10         0.00000E+00
    0.30630E-07         0.97059E-10         0.00000E+00
    0.30634E-07         0.10791E-09         0.00000E+00
    0.30639E-07         0.11822E-09         0.00000E+00
    0.30644E-07         0.12798E-09         0.00000E+00
    0.30649E-07         0.13717E-09         0.00000E+00
    0.30654E-07         0.14578E-09         0.00000E+00
    0.30660E-07         0.15380E-09         0.00000E+00
    0.30666E-07         0.16121E-09         0.00000E+00
    0.30672E-07         0.16803E-09         0.00000E+00
    0.30678E-07         0.17422E-09         0.00000E+00
    0.30685E-07         0.17979E-09         0.00000E+00
    0.30691E-07         0.18472E-09         0.00000E+00
    0.30698E-07         0.18902E-09         0.00000E+00
    0.30705E-07         0.19268E-09         0.00000E+00
    0.30712E-07         0.19568E-09         0.00000E+00
    0.30718E-07         0.19804E-09         0.00000E+00
    0.30725E-07         0.19973E-09         0.00000E+00
    0.30732E-07         0.20076E-09         0.00000E+00
    0.30739E-07         0.20113E-09         0.00000E+00
    0.30746E-07         0.20083E-09         0.00000E+00
    0.30753E-07         0.19987E-09         0.00000E+00
    0.30759E-07         0.19823E-09         0.00000E+00
    0.30766E-07         0.19591E-09         0.00000E+00
    0.30772E-07         0.19292E-09         0.00000E+00
    0.30778E-07         0.18926E-09         0.00000E+00
    0.30784E-07         0.18492E-09         0.00000E+00
    0.30790E-07         0.17990E-09         0.00000E+00
    0.30796E-07         0.17421E-09         0.00000E+00
    0.30801E-07         0.16784E-09         0.00000E+00
    0.30806E-07         0.16079E-09         0.00000E+00
    0.30811E-07         0.15307E-09         0.00000E+00
    0.30816E-07         0.14468E-09         0.00000E+00
    0.30820E-07         0.13561E-09         0.00000E+00
    0.30824E-07         0.12586E-09         0.00000E+00
    0.30828E-07         0.11545E-09         0.00000E+00
    0.30831E-07         0.10436E-09         0.00000E+00
    0.30834E-07         0.92609E-10         0.00000E+00
    0.30837E-07         0.80189E-10         0.00000E+00
    0.30839E-07         0.67105E-10         0.00000E+00
    0.30841E-07         0.53359E-10         0.00000E+00
    0.30842E-07         0.38953E-10         0.00000E+00
    0.30843E-07         0.23888E-10         0.00000E+00
    0.30844E-07         0.81683E-11         0.00000E+00
    0.29112E-07         0.57497E-11         0.00000E+00
    0.29113E-07         0.17069E-10         0.00000E+00
    0.29114E-07         0.28121E-10         0.00000E+00
    0.29116E-07         0.38882E-10         0.00000E+00
    0.29118E-07         0.49330E-10         0.00000E+00
    0.29120E-07         0.59445E-10         0.00000E+00
    0.29123E-07         0.69208E-10         0.00000E+00
    0.29126E-07         0.78599E-10         0.00000E+00
    0.29130E-07         0.87602E-10         0.00000E+00
    0.29134E-07         0.96200E-10         0.00000E+00
    0.29138E-07         0.10438E-09         0.00000E+00
    0.29143E-07         0.11212E-09         0.00000E+00
    0.29148E-07         0.11942E-09         0.00000E+00
    0.29153E-07         0.12625E-09         0.00000E+00
    0.29158E-07         0.13261E-09         0.00000E+00
    0.29164E-07         0.13849E-09         0.00000E+00
    0.29169E-07         0.14387E-09         0.00000E+00
    0.29175E-07         0.14874E-09         0.00000E+00
    0.29181E-07         0.15311E-09         0.00000E+00
    0.29187E-07         0.15695E-09         0.00000E+00
    0.29193E-07         0.16026E-09         0.00000E+00
    0.29199E-07         0.16303E-09         0.00000E+00
    0.29206E-07         0.16526E-09         0.00000E+00
    0.29212E-07         0.16694E-09         0.00000E+00
    0.29218E-07         0.16806E-09         0.00000E+00
    0.29224E-07         0.16862E-09         0.00000E+00
    0.29230E-07         0.16862E-09         0.00000E+00
    0.29237E-07         0.16805E-09         0.00000E+00
    0.29243E-07         0.16690E-09         0.00000E+00
    0.29248E-07         0.16518E-09         0.00000E+00
    0.29254E-07         0.16288E-09         0.00000E+00
    0.29260E-07         0.15999E-09         0.00000E+00
    0.29265E-07         0.15652E-09         0.00000E+00
    0.29271E-07         0.15246E-09         0.00000E+00
    0.29276E-07         0.14781E-09         0.00000E+00
    0.29281E-07         0.14257E-09         0.00000E+00
    0.29285E-07         0.13674E-09         0.00000E+00
    0.29290E-07         0.13032E-09         0.00000E+00
    0.29294E-07         0.12331E-09         0.00000E+00
    0.29298E-07         0.11570E-09         0.00000E+00
    0.29302E-07         0.10750E-09         0.00000E+00
    0.29305E-07         0.98702E-10         0.00000E+00
    0.29308E-07         0.89313E-10         0.00000E+00
    0.29311E-07         0.79332E-10         0.00000E+00
    0.29313E-07         0.68758E-10         0.00000E+00
    0.29315E-07         0.57592E-10         0.00000E+00
    0.29317E-07         0.45836E-10         0.00000E+00
    0.29318E-07         0.33491E-10         0.00000E+00
    0.29319E-07         0.20557E-10         0.00000E+00
    0.29319E-07         0.70366E-11         0.00000E+00
    0.27707E-07         0.44405E-11         0.00000E+00
    0.27708E-07         0.13234E-10         0.00000E+00
    0.27709E-07         0.21888E-10         0.00000E+00
    0.27710E-07         0.30377E-10         0.00000E+00
    0.27712E-07         0.38680E-10         0.00000E+00
    0.27714E-07         0.46773E-10         0.00000E+00
    0.27717E-07         0.54636E-10         0.00000E+00
    0.27720E-07         0.62251E-10         0.00000E+00
    0.27723E-07         0.69597E-10         0.00000E+00
    0.27726E-07         0.76657E-10         0.00000E+00
    0.27730E-07         0.83414E-10         0.00000E+00
    0.27734E-07         0.89853E-10         0.00000E+00
    0.27738E-07         0.95958E-10         0.00000E+00
    0.27743E-07         0.10171E-09         0.00000E+00
    0.27748E-07         0.10711E-09         0.00000E+00
    0.27753E-07         0.11213E-09         0.00000E+00
    0.27758E-07         0.11676E-09         0.00000E+00
    0.27763E-07         0.12100E-09         0.00000E+00
    0.27768E-07         0.12482E-09         0.00000E+00
    0.27773E-07         0.12823E-09         0.00000E+00
    0.27779E-07         0.13121E-09         0.00000E+00
    0.27784E-07         0.13375E-09         0.00000E+00
    0.27790E-07         0.13585E-09         0.00000E+00
    0.27795E-07         0.13749E-09         0.00000E+00
    0.27801E-07         0.13868E-09         0.00000E+00
    0.27806E-07         0.13939E-09         0.00000E+00
    0.27812E-07         0.13964E-09         0.00000E+00
    0.27817E-07         0.13940E-09         0.00000E+00
    0.27823E-07         0.13868E-09         0.00000E+00
    0.27828E-07         0.13747E-09         0.00000E+00
    0.27833E-07         0.13577E-09         0.00000E+00
    0.27838E-07         0.13357E-09         0.00000E+00
    0.27843E-07         0.13086E-09         0.00000E+00
    0.27848E-07         0.12766E-09         0.00000E+00
    0.27853E-07         0.12394E-09         0.00000E+00
    0.27857E-07         0.11971E-09         0.00000E+00
    0.27861E-07         0.11497E-09         0.00000E+00
    0.27865E-07         0.10972E-09         0.00000E+00
    0.27869E-07         0.10395E-09         0.00000E+00
    0.27873E-07         0.97655E-10         0.00000E+00
    0.27876E-07         0.90844E-10         0.00000E+00
    0.27879E-07         0.83510E-10         0.00000E+00
    0.27882E-07         0.75654E-10         0.00000E+00
    0.27884E-07         0.67276E-10         0.00000E+00
    0.27886E-07         0.58373E-10         0.00000E+00
    0.27888E-07         0.48947E-10         0.00000E+00
    0.27889E-07         0.38998E-10         0.00000E+00
    0.27891E-07         0.28524E-10         0.00000E+00
    0.27891E-07         0.17527E-10         0.00000E+00
    0.27892E-07         0.60067E-11         0.00000E+00
    0.26398E-07         0.33073E-11         0.00000E+00
    0.26399E-07         0.99114E-11         0.00000E+00
    0.26399E-07         0.16481E-10         0.00000E+00
    0.26401E-07         0.22991E-10         0.00000E+00
    0.26402E-07         0.29419E-10         0.00000E+00
    0.26404E-07         0.35742E-10         0.00000E+00
    0.26406E-07         0.41939E-10         0.00000E+00
    0.26409E-07         0.47989E-10         0.00000E+00
    0.26411E-07         0.53874E-10         0.00000E+00
    0.26415E-07         0.59573E-10         0.00000E+00
    0.26418E-07         0.65071E-10         0.00000E+00
    0.26421E-07         0.70348E-10         0.00000E+00
    0.26425E-07         0.75391E-10         0.00000E+00
    0.26429E-07         0.80182E-10         0.00000E+00
    0.26433E-07         0.84708E-10         0.00000E+00
    0.26437E-07         0.88955E-10         0.00000E+00
    0.26442E-07         0.92909E-10         0.00000E+00
    0.26446E-07         0.96559E-10         0.00000E+00
    0.26451E-07         0.99891E-10         0.00000E+00
    0.26455E-07         0.10290E-09         0.00000E+00
    0.26460E-07         0.10556E-09         0.00000E+00
    0.26465E-07         0.10788E-09         0.00000E+00
    0.26470E-07         0.10984E-09         0.00000E+00
    0.26475E-07         0.11143E-09         0.00000E+00
    0.26480E-07         0.11265E-09         0.00000E+00
    0.26485E-07         0.11348E-09         0.00000E+00
    0.26489E-07         0.11392E-09         0.00000E+00
    0.26494E-07         0.11397E-09         0.00000E+00
    0.26499E-07         0.11361E-09         0.00000E+00
    0.26504E-07         0.11284E-09         0.00000E+00
    0.26508E-07         0.11166E-09         0.00000E+00
    0.26513E-07         0.11005E-09         0.00000E+00
    0.26517E-07         0.10802E-09         0.00000E+00
    0.26521E-07         0.10555E-09         0.00000E+00
    0.26525E-07         0.10266E-09         0.00000E+00
    0.26529E-07         0.99320E-10         0.00000E+00
    0.26533E-07         0.95542E-10         0.00000E+00
    0.26536E-07         0.91318E-10         0.00000E+00
    0.26540E-07         0.86646E-10         0.00000E+00
    0.26543E-07         0.81523E-10         0.00000E+00
    0.26546E-07         0.75946E-10         0.00000E+00
    0.26549E-07         0.69914E-10         0.00000E+00
    0.26551E-07         0.63424E-10         0.00000E+00
    0.26553E-07         0.56476E-10         0.00000E+00
    0.26555E-07         0.49067E-10         0.00000E+00
    0.26557E-07         0.41197E-10         0.00000E+00
    0.26558E-07         0.32863E-10         0.00000E+00
    0.26559E-07         0.24067E-10         0.00000E+00
    0.26560E-07         0.14807E-10         0.00000E+00
    0.26560E-07         0.50818E-11         0.00000E+00
    0.25183E-07         0.23435E-11         0.00000E+00
    0.25183E-07         0.70814E-11         0.00000E+00
    0.25184E-07         0.11870E-10         0.00000E+00
    0.25185E-07         0.16685E-10         0.00000E+00
    0.25186E-07         0.21502E-10         0.00000E+00
    0.25188E-07         0.26301E-10         0.00000E+00
    0.25190E-07         0.31058E-10         0.00000E+00
    0.25192E-07         0.35755E-10         0.00000E+00
    0.25194E-07         0.40369E-10         0.00000E+00
    0.25197E-07         0.44884E-10         0.00000E+00
    0.25200E-07         0.49280E-10         0.00000E+00
    0.25203E-07         0.53541E-10         0.00000E+00
    0.25206E-07         0.57649E-10         0.00000E+00
    0.25209E-07         0.61589E-10         0.00000E+00
    0.25213E-07         0.65345E-10         0.00000E+00
    0.25216E-07         0.68904E-10         0.00000E+00
    0.25220E-07         0.72251E-10         0.00000E+00
    0.25224E-07         0.75372E-10         0.00000E+00
    0.25228E-07         0.78257E-10         0.00000E+00
    0.25232E-07         0.80891E-10         0.00000E+00
    0.25236E-07         0.83265E-10         0.00000E+00
    0.25240E-07         0.85367E-10         0.00000E+00
    0.25244E-07         0.87187E-10         0.00000E+00
    0.25249E-07         0.88715E-10         0.00000E+00
    0.25253E-07         0.89943E-10         0.00000E+00
    0.25257E-07         0.90860E-10         0.00000E+00
    0.25261E-07         0.91460E-10         0.00000E+00
    0.25265E-07         0.91733E-10         0.00000E+00
    0.25270E-07         0.91673E-10         0.00000E+00
    0.25274E-07         0.91274E-10         0.00000E+00
    0.25278E-07         0.90527E-10         0.00000E+00
    0.25281E-07         0.89427E-10         0.00000E+00
    0.25285E-07         0.87969E-10         0.00000E+00
    0.25289E-07         0.86147E-10         0.00000E+00
    0.25292E-07         0.83955E-10         0.00000E+00
    0.25296E-07         0.81389E-10         0.00000E+00
    0.25299E-07         0.78445E-10         0.00000E+00
    0.25302E-07         0.75119E-10         0.00000E+00
    0.25305E-07         0.71406E-10         0.00000E+00
    0.25308E-07         0.67304E-10         0.00000E+00
    0.25310E-07         0.62809E-10         0.00000E+00
    0.25313E-07         0.57918E-10         0.00000E+00
    0.25315E-07         0.52628E-10         0.00000E+00
    0.25317E-07         0.46937E-10         0.00000E+00
    0.25318E-07         0.40843E-10         0.00000E+00
    0.25320E-07         0.34344E-10         0.00000E+00
    0.25321E-07         0.27437E-10         0.00000E+00
    0.25322E-07         0.20123E-10         0.00000E+00
    0.25323E-07         0.12398E-10         0.00000E+00
    0.25323E-07         0.42623E-11         0.00000E+00
    0.24060E-07         0.15402E-11         0.00000E+00
    0.24060E-07         0.47193E-11         0.00000E+00
    0.24061E-07         0.80158E-11         0.00000E+00
    0.24062E-07         0.11406E-10         0.00000E+00
    0.24063E-07         0.14866E-10         0.00000E+00
    0.24064E-07         0.18376E-10         0.00000E+00
    0.24066E-07         0.21913E-10         0.00000E+00
    0.24067E-07         0.25457E-10         0.00000E+00
    0.24069E-07         0.28989E-10         0.00000E+00
    0.24072E-07         0.32489E-10         0.00000E+00
    0.24074E-07         0.35940E-10         0.00000E+00
    0.24076E-07         0.39323E-10         0.00000E+00
    0.24079E-07         0.42623E-10         0.00000E+00
    0.24082E-07         0.45824E-10         0.00000E+00
    0.24085E-07         0.48909E-10         0.00000E+00
    0.24088E-07         0.51864E-10         0.00000E+00
    0.24091E-07         0.54675E-10         0.00000E+00
    0.24094E-07         0.57329E-10         0.00000E+00
    0.24098E-07         0.59812E-10         0.00000E+00
    0.24101E-07         0.62112E-10         0.00000E+00
    0.24105E-07         0.64217E-10         0.00000E+00
    0.24108E-07         0.66116E-10         0.00000E+00
    0.24112E-07         0.67798E-10         0.00000E+00
    0.24115E-07         0.69253E-10         0.00000E+00
    0.24119E-07         0.70472E-10         0.00000E+00
    0.24122E-07         0.71443E-10         0.00000E+00
    0.24126E-07         0.72160E-10         0.00000E+00
    0.24129E-07         0.72613E-10         0.00000E+00
    0.24133E-07         0.72795E-10         0.00000E+00
    0.24136E-07         0.72697E-10         0.00000E+00
    0.24140E-07         0.72314E-10         0.00000E+00
    0.24143E-07         0.71636E-10         0.00000E+00
    0.24146E-07         0.70660E-10         0.00000E+00
    0.24149E-07         0.69378E-10         0.00000E+00
    0.24152E-07         0.67784E-10         0.00000E+00
    0.24155E-07         0.65873E-10         0.00000E+00
    0.24158E-07         0.63641E-10         0.00000E+00
    0.24161E-07         0.61082E-10         0.00000E+00
    0.24163E-07         0.58192E-10         0.00000E+00
    0.24166E-07         0.54967E-10         0.00000E+00
    0.24168E-07         0.51402E-10         0.00000E+00
    0.24170E-07         0.47495E-10         0.00000E+00
    0.24172E-07         0.43242E-10         0.00000E+00
    0.24173E-07         0.38639E-10         0.00000E+00
    0.24175E-07         0.33685E-10         0.00000E+00
    0.24176E-07         0.28376E-10         0.00000E+00
    0.24177E-07         0.22709E-10         0.00000E+00
    0.24178E-07         0.16684E-10         0.00000E+00
    0.24178E-07         0.10297E-10         0.00000E+00
    0.24179E-07         0.35471E-11         0.00000E+00
    0.23027E-07         0.88722E-12         0.00000E+00
    0.23027E-07         0.27959E-11         0.00000E+00
    0.23028E-07         0.48718E-11         0.00000E+00
    0.23028E-07         0.70921E-11         0.00000E+00
    0.23029E-07         0.94348E-11         0.00000E+00
    0.23030E-07         0.11878E-10         0.00000E+00
    0.23031E-07         0.14403E-10         0.00000E+00
    0.23033E-07         0.16987E-10         0.00000E+00
    0.23034E-07         0.19614E-10         0.00000E+00
    0.23036E-07         0.22263E-10         0.00000E+00
    0.23038E-07         0.24917E-10         0.00000E+00
    0.23040E-07         0.27560E-10         0.00000E+00
    0.23042E-07         0.30173E-10         0.00000E+00
    0.23045E-07         0.32743E-10         0.00000E+00
    0.23047E-07         0.35253E-10         0.00000E+00
    0.23050E-07         0.37688E-10         0.00000E+00
    0.23052E-07         0.40035E-10         0.00000E+00
    0.23055E-07         0.42279E-10         0.00000E+00
    0.23058E-07         0.44408E-10         0.00000E+00
    0.23060E-07         0.46410E-10         0.00000E+00
    0.23063E-07         0.48272E-10         0.00000E+00
    0.23066E-07         0.49982E-10         0.00000E+00
    0.23069E-07         0.51531E-10         0.00000E+00
    0.23072E-07         0.52906E-10         0.00000E+00
    0.23075E-07         0.54099E-10         0.00000E+00
    0.23078E-07         0.55099E-10         0.00000E+00
    0.23081E-07         0.55898E-10         0.00000E+00
    0.23084E-07         0.56486E-10         0.00000E+00
    0.23087E-07         0.56855E-10         0.00000E+00
    0.23090E-07         0.56997E-10         0.00000E+00
    0.23093E-07         0.56905E-10         0.00000E+00
    0.23095E-07         0.56572E-10         0.00000E+00
    0.23098E-07         0.55990E-10         0.00000E+00
    0.23101E-07         0.55152E-10         0.00000E+00
    0.23103E-07         0.54054E-10         0.00000E+00
    0.23106E-07         0.52688E-10         0.00000E+00
    0.23108E-07         0.51050E-10         0.00000E+00
    0.23110E-07         0.49134E-10         0.00000E+00
    0.23112E-07         0.46935E-10         0.00000E+00
    0.23114E-07         0.44449E-10         0.00000E+00
    0.23116E-07         0.41670E-10         0.00000E+00
    0.23118E-07         0.38596E-10         0.00000E+00
    0.23119E-07         0.35222E-10         0.00000E+00
    0.23121E-07         0.31544E-10         0.00000E+00
    0.23122E-07         0.27560E-10         0.00000E+00
    0.23123E-07         0.23265E-10         0.00000E+00
    0.23124E-07         0.18658E-10         0.00000E+00
    0.23125E-07         0.13735E-10         0.00000E+00
    0.23125E-07         0.84941E-11         0.00000E+00
    0.23125E-07         0.29328E-11         0.00000E+00
    0.22081E-07         0.37348E-12         0.00000E+00
    0.22081E-07         0.12792E-11         0.00000E+00
    0.22082E-07         0.23871E-11         0.00000E+00
    0.22082E-07         0.36753E-11         0.00000E+00
    0.22083E-07         0.51230E-11         0.00000E+00
    0.22084E-07         0.67098E-11         0.00000E+00
    0.22085E-07         0.84159E-11         0.00000E+00
    0.22086E-07         0.10222E-10         0.00000E+00
    0.22087E-07         0.12111E-10         0.00000E+00
    0.22088E-07         0.14064E-10         0.00000E+00
    0.22090E-07         0.16063E-10         0.00000E+00
    0.22092E-07         0.18093E-10         0.00000E+00
    0.22093E-07         0.20137E-10         0.00000E+00
    0.22095E-07         0.22179E-10         0.00000E+00
    0.22097E-07         0.24206E-10         0.00000E+00
    0.22099E-07         0.26202E-10         0.00000E+00
    0.22101E-07         0.28153E-10         0.00000E+00
    0.22103E-07         0.30046E-10         0.00000E+00
    0.22105E-07         0.31869E-10         0.00000E+00
    0.22108E-07         0.33608E-10         0.00000E+00
    0.22110E-07         0.35253E-10         0.00000E+00
    0.22112E-07         0.36791E-10         0.00000E+00
    0.22115E-07         0.38211E-10         0.00000E+00
    0.22117E-07         0.39503E-10         0.00000E+00
    0.22120E-07         0.40657E-10         0.00000E+00
    0.22122E-07         0.41663E-10         0.00000E+00
    0.22124E-07         0.42512E-10         0.00000E+00
    0.22127E-07         0.43194E-10         0.00000E+00
    0.22129E-07         0.43702E-10         0.00000E+00
    0.22131E-07         0.44027E-10         0.00000E+00
    0.22134E-07         0.44161E-10         0.00000E+00
    0.22136E-07         0.44098E-10         0.00000E+00
    0.22138E-07         0.43828E-10         0.00000E+00
    0.22140E-07         0.43347E-10         0.00000E+00
    0.22142E-07         0.42647E-10         0.00000E+00
    0.22144E-07         0.41723E-10         0.00000E+00
    0.22146E-07         0.40568E-10         0.00000E+00
    0.22148E-07         0.39177E-10         0.00000E+00
    0.22150E-07         0.37545E-10         0.00000E+00
    0.22152E-07         0.35666E-10         0.00000E+00
    0.22153E-07         0.33537E-10         0.00000E+00
    0.22155E-07         0.31152E-10         0.00000E+00
    0.22156E-07         0.28507E-10         0.00000E+00
    0.22157E-07         0.25598E-10         0.00000E+00
    0.22158E-07         0.22422E-10         0.00000E+00
    0.22159E-07         0.18975E-10         0.00000E+00
    0.22160E-07         0.15254E-10         0.00000E+00
    0.22160E-07         0.11256E-10         0.00000E+00
    0.22160E-07         0.69769E-11         0.00000E+00
    0.22161E-07         0.24154E-11         0.00000E+00
    0.21221E-07        -0.12558E-13         0.00000E+00
    0.21221E-07         0.13589E-12         0.00000E+00
    0.21221E-07         0.50798E-12         0.00000E+00
    0.21221E-07         0.10834E-11         0.00000E+00
    0.21222E-07         0.18423E-11         0.00000E+00
    0.21222E-07         0.27656E-11         0.00000E+00
    0.21223E-07         0.38346E-11         0.00000E+00
    0.21224E-07         0.50313E-11         0.00000E+00
    0.21225E-07         0.63383E-11         0.00000E+00
    0.21226E-07         0.77385E-11         0.00000E+00
    0.21227E-07         0.92155E-11         0.00000E+00
    0.21228E-07         0.10754E-10         0.00000E+00
    0.21230E-07         0.12337E-10         0.00000E+00
    0.21231E-07         0.13952E-10         0.00000E+00
    0.21232E-07         0.15582E-10         0.00000E+00
    0.21234E-07         0.17215E-10         0.00000E+00
    0.21236E-07         0.18837E-10         0.00000E+00
    0.21237E-07         0.20435E-10         0.00000E+00
    0.21239E-07         0.21997E-10         0.00000E+00
    0.21241E-07         0.23510E-10         0.00000E+00
    0.21242E-07         0.24963E-10         0.00000E+00
    0.21244E-07         0.26345E-10         0.00000E+00
    0.21246E-07         0.27645E-10         0.00000E+00
    0.21248E-07         0.28852E-10         0.00000E+00
    0.21250E-07         0.29956E-10         0.00000E+00
    0.21252E-07         0.30949E-10         0.00000E+00
    0.21254E-07         0.31819E-10         0.00000E+00
    0.21255E-07         0.32560E-10         0.00000E+00
    0.21257E-07         0.33162E-10         0.00000E+00
    0.21259E-07         0.33617E-10         0.00000E+00
    0.21261E-07         0.33918E-10         0.00000E+00
    0.21263E-07         0.34056E-10         0.00000E+00
    0.21265E-07         0.34024E-10         0.00000E+00
    0.21266E-07         0.33817E-10         0.00000E+00
    0.21268E-07         0.33426E-10         0.00000E+00
    0.21269E-07         0.32846E-10         0.00000E+00
    0.21271E-07         0.32072E-10         0.00000E+00
    0.21273E-07         0.31096E-10         0.00000E+00
    0.21274E-07         0.29914E-10         0.00000E+00
    0.21275E-07         0.28520E-10         0.00000E+00
    0.21276E-07         0.26911E-10         0.00000E+00
    0.21278E-07         0.25080E-10         0.00000E+00
    0.21279E-07         0.23023E-10         0.00000E+00
    0.21280E-07         0.20737E-10         0.00000E+00
    0.21280E-07         0.18217E-10         0.00000E+00
    0.21281E-07         0.15460E-10         0.00000E+00
    0.21282E-07         0.12462E-10         0.00000E+00
    0.21282E-07         0.92196E-11         0.00000E+00
    0.21282E-07         0.57298E-11         0.00000E+00
    0.21282E-07         0.19896E-11         0.00000E+00
    0.20443E-07        -0.28253E-12         0.00000E+00
    0.20443E-07        -0.66779E-12         0.00000E+00
    0.20443E-07        -0.81961E-12         0.00000E+00
    0.20443E-07        -0.75689E-12         0.00000E+00
    0.20443E-07        -0.49801E-12         0.00000E+00
    0.20444E-07        -0.60865E-13         0.00000E+00
    0.20444E-07         0.53716E-12         0.00000E+00
    0.20445E-07         0.12792E-11         0.00000E+00
    0.20446E-07         0.21488E-11         0.00000E+00
    0.20446E-07         0.31300E-11         0.00000E+00
    0.20447E-07         0.42074E-11         0.00000E+00
    0.20448E-07         0.53661E-11         0.00000E+00
    0.20449E-07         0.65914E-11         0.00000E+00
    0.20450E-07         0.78693E-11         0.00000E+00
    0.20451E-07         0.91861E-11         0.00000E+00
    0.20452E-07         0.10529E-10         0.00000E+00
    0.20453E-07         0.11884E-10         0.00000E+00
    0.20454E-07         0.13240E-10         0.00000E+00
    0.20456E-07         0.14585E-10         0.00000E+00
    0.20457E-07         0.15906E-10         0.00000E+00
    0.20458E-07         0.17194E-10         0.00000E+00
    0.20459E-07         0.18436E-10         0.00000E+00
    0.20461E-07         0.19623E-10         0.00000E+00
    0.20462E-07         0.20745E-10         0.00000E+00
    0.20463E-07         0.21792E-10         0.00000E+00
    0.20465E-07         0.22754E-10         0.00000E+00
    0.20466E-07         0.23623E-10         0.00000E+00
    0.20468E-07         0.24390E-10         0.00000E+00
    0.20469E-07         0.25046E-10         0.00000E+00
    0.20470E-07         0.25584E-10         0.00000E+00
    0.20472E-07         0.25996E-10         0.00000E+00
    0.20473E-07         0.26274E-10         0.00000E+00
    0.20475E-07         0.26411E-10         0.00000E+00
    0.20476E-07         0.26402E-10         0.00000E+00
    0.20477E-07         0.26238E-10         0.00000E+00
    0.20478E-07         0.25914E-10         0.00000E+00
    0.20479E-07         0.25424E-10         0.00000E+00
    0.20481E-07         0.24762E-10         0.00000E+00
    0.20482E-07         0.23922E-10         0.00000E+00
    0.20483E-07         0.22900E-10         0.00000E+00
    0.20484E-07         0.21690E-10         0.00000E+00
    0.20484E-07         0.20288E-10         0.00000E+00
    0.20485E-07         0.18689E-10         0.00000E+00
    0.20486E-07         0.16889E-10         0.00000E+00
    0.20487E-07         0.14884E-10         0.00000E+00
    0.20487E-07         0.12669E-10         0.00000E+00
    0.20488E-07         0.10242E-10         0.00000E+00
    0.20488E-07         0.75984E-11         0.00000E+00
    0.20488E-07         0.47352E-11         0.00000E+00
    0.20488E-07         0.16494E-11         0.00000E+00
    0.19745E-07        -0.44789E-12         0.00000E+00
    0.19745E-07        -0.11651E-11         0.00000E+00
    0.19745E-07        -0.16494E-11         0.00000E+00
    0.19745E-07        -0.19180E-11         0.00000E+00
    0.19745E-07        -0.19880E-11         0.00000E+00
    0.19745E-07        -0.18758E-11         0.00000E+00
    0.19746E-07        -0.15975E-11         0.00000E+00
    0.19746E-07        -0.11688E-11         0.00000E+00
    0.19747E-07        -0.60483E-12         0.00000E+00
    0.19747E-07         0.79592E-13         0.00000E+00
    0.19747E-07         0.87007E-12         0.00000E+00
    0.19748E-07         0.17526E-11         0.00000E+00
    0.19749E-07         0.27137E-11         0.00000E+00
    0.19749E-07         0.37402E-11         0.00000E+00
    0.19750E-07         0.48191E-11         0.00000E+00
    0.19751E-07         0.59383E-11         0.00000E+00
    0.19751E-07         0.70855E-11         0.00000E+00
    0.19752E-07         0.82493E-11         0.00000E+00
    0.19753E-07         0.94182E-11         0.00000E+00
    0.19754E-07         0.10581E-10         0.00000E+00
    0.19755E-07         0.11728E-10         0.00000E+00
    0.19755E-07         0.12848E-10         0.00000E+00
    0.19756E-07         0.13932E-10         0.00000E+00
    0.19757E-07         0.14970E-10         0.00000E+00
    0.19758E-07         0.15952E-10         0.00000E+00
    0.19759E-07         0.16871E-10         0.00000E+00
    0.19760E-07         0.17716E-10         0.00000E+00
    0.19761E-07         0.18480E-10         0.00000E+00
    0.19762E-07         0.19156E-10         0.00000E+00
    0.19763E-07         0.19734E-10         0.00000E+00
    0.19764E-07         0.20208E-10         0.00000E+00
    0.19765E-07         0.20571E-10         0.00000E+00
    0.19766E-07         0.20815E-10         0.00000E+00
    0.19767E-07         0.20934E-10         0.00000E+00
    0.19768E-07         0.20922E-10         0.00000E+00
    0.19769E-07         0.20773E-10         0.00000E+00
    0.19769E-07         0.20480E-10         0.00000E+00
    0.19770E-07         0.20039E-10         0.00000E+00
    0.19771E-07         0.19443E-10         0.00000E+00
    0.19772E-07         0.18688E-10         0.00000E+00
    0.19772E-07         0.17768E-10         0.00000E+00
    0.19773E-07         0.16680E-10         0.00000E+00
    0.19774E-07         0.15418E-10         0.00000E+00
    0.19774E-07         0.13978E-10         0.00000E+00
    0.19775E-07         0.12356E-10         0.00000E+00
    0.19775E-07         0.10548E-10         0.00000E+00
    0.19775E-07         0.85513E-11         0.00000E+00
    0.19776E-07         0.63611E-11         0.00000E+00
    0.19776E-07         0.39746E-11         0.00000E+00
    0.19776E-07         0.13886E-11         0.00000E+00
    0.19125E-07        -0.51976E-12         0.00000E+00
    0.19125E-07        -0.13884E-11         0.00000E+00
    0.19125E-07        -0.20335E-11         0.00000E+00
    0.19125E-07        -0.24708E-11         0.00000E+00
    0.19125E-07        -0.27157E-11         0.00000E+00
    0.19125E-07        -0.27833E-11         0.00000E+00
    0.19125E-07        -0.26883E-11         0.00000E+00
    0.19125E-07        -0.24450E-11         0.00000E+00
    0.19126E-07        -0.20673E-11         0.00000E+00
    0.19126E-07        -0.15689E-11         0.00000E+00
    0.19126E-07        -0.96301E-12         0.00000E+00
    0.19126E-07        -0.26241E-12         0.00000E+00
    0.19126E-07         0.52034E-12         0.00000E+00
    0.19127E-07         0.13731E-11         0.00000E+00
    0.19127E-07         0.22839E-11         0.00000E+00
    0.19127E-07         0.32415E-11         0.00000E+00
    0.19128E-07         0.42345E-11         0.00000E+00
    0.19128E-07         0.52522E-11         0.00000E+00
    0.19129E-07         0.62841E-11         0.00000E+00
    0.19129E-07         0.73199E-11         0.00000E+00
    0.19130E-07         0.83499E-11         0.00000E+00
    0.19130E-07         0.93644E-11         0.00000E+00
    0.19131E-07         0.10354E-10         0.00000E+00
    0.19131E-07         0.11310E-10         0.00000E+00
    0.19132E-07         0.12224E-10         0.00000E+00
    0.19132E-07         0.13087E-10         0.00000E+00
    0.19133E-07         0.13890E-10         0.00000E+00
    0.19133E-07         0.14628E-10         0.00000E+00
    0.19134E-07         0.15290E-10         0.00000E+00
    0.19134E-07         0.15872E-10         0.00000E+00
    0.19135E-07         0.16364E-10         0.00000E+00
    0.19136E-07         0.16761E-10         0.00000E+00
    0.19136E-07         0.17056E-10         0.00000E+00
    0.19137E-07         0.17243E-10         0.00000E+00
    0.19137E-07         0.17315E-10         0.00000E+00
    0.19138E-07         0.17267E-10         0.00000E+00
    0.19138E-07         0.17093E-10         0.00000E+00
    0.19139E-07         0.16788E-10         0.00000E+00
    0.19139E-07         0.16346E-10         0.00000E+00
    0.19140E-07         0.15763E-10         0.00000E+00
    0.19140E-07         0.15033E-10         0.00000E+00
    0.19141E-07         0.14153E-10         0.00000E+00
    0.19141E-07         0.13118E-10         0.00000E+00
    0.19142E-07         0.11923E-10         0.00000E+00
    0.19142E-07         0.10566E-10         0.00000E+00
    0.19142E-07         0.90408E-11         0.00000E+00
    0.19142E-07         0.73452E-11         0.00000E+00
    0.19142E-07         0.54755E-11         0.00000E+00
    0.19143E-07         0.34283E-11         0.00000E+00
    0.19143E-07         0.12005E-11         0.00000E+00
    0.18581E-07        -0.50875E-12         0.00000E+00
    0.18581E-07        -0.13687E-11         0.00000E+00
    0.18581E-07        -0.20220E-11         0.00000E+00
    0.18581E-07        -0.24831E-11         0.00000E+00
    0.18581E-07        -0.27657E-11         0.00000E+00
    0.18581E-07        -0.28835E-11         0.00000E+00
    0.18581E-07        -0.28497E-11         0.00000E+00
    0.18581E-07        -0.26774E-11         0.00000E+00
    0.18581E-07        -0.23791E-11         0.00000E+00
    0.18581E-07        -0.19671E-11         0.00000E+00
    0.18580E-07        -0.14536E-11         0.00000E+00
    0.18580E-07        -0.85010E-12         0.00000E+00
    0.18580E-07        -0.16808E-12         0.00000E+00
    0.18580E-07         0.58136E-12         0.00000E+00
    0.18580E-07         0.13874E-11         0.00000E+00
    0.18581E-07         0.22396E-11         0.00000E+00
    0.18581E-07         0.31278E-11         0.00000E+00
    0.18581E-07         0.40419E-11         0.00000E+00
    0.18581E-07         0.49723E-11         0.00000E+00
    0.18581E-07         0.59098E-11         0.00000E+00
    0.18581E-07         0.68451E-11         0.00000E+00
    0.18581E-07         0.77696E-11         0.00000E+00
    0.18581E-07         0.86746E-11         0.00000E+00
    0.18581E-07         0.95518E-11         0.00000E+00
    0.18582E-07         0.10393E-10         0.00000E+00
    0.18582E-07         0.11191E-10         0.00000E+00
    0.18582E-07         0.11938E-10         0.00000E+00
    0.18582E-07         0.12627E-10         0.00000E+00
    0.18582E-07         0.13250E-10         0.00000E+00
    0.18583E-07         0.13801E-10         0.00000E+00
    0.18583E-07         0.14273E-10         0.00000E+00
    0.18583E-07         0.14660E-10         0.00000E+00
    0.18583E-07         0.14956E-10         0.00000E+00
    0.18584E-07         0.15154E-10         0.00000E+00
    0.18584E-07         0.15250E-10         0.00000E+00
    0.18584E-07         0.15238E-10         0.00000E+00
    0.18584E-07         0.15111E-10         0.00000E+00
    0.18585E-07         0.14867E-10         0.00000E+00
    0.18585E-07         0.14498E-10         0.00000E+00
    0.18585E-07         0.14002E-10         0.00000E+00
    0.18585E-07         0.13372E-10         0.00000E+00
    0.18586E-07         0.12606E-10         0.00000E+00
    0.18586E-07         0.11698E-10         0.00000E+00
    0.18586E-07         0.10645E-10         0.00000E+00
    0.18586E-07         0.94436E-11         0.00000E+00
    0.18586E-07         0.80892E-11         0.00000E+00
    0.18587E-07         0.65786E-11         0.00000E+00
    0.18587E-07         0.49088E-11         0.00000E+00
    0.18587E-07         0.30764E-11         0.00000E+00
    0.18587E-07         0.10784E-11         0.00000E+00
    0.18111E-07        -0.42491E-12         0.00000E+00
    0.18111E-07        -0.11352E-11         0.00000E+00
    0.18111E-07        -0.16625E-11         0.00000E+00
    0.18111E-07        -0.20195E-11         0.00000E+00
    0.18110E-07        -0.22186E-11         0.00000E+00
    0.18110E-07        -0.22720E-11         0.00000E+00
    0.18110E-07        -0.21914E-11         0.00000E+00
    0.18110E-07        -0.19885E-11         0.00000E+00
    0.18110E-07        -0.16744E-11         0.00000E+00
    0.18109E-07        -0.12604E-11         0.00000E+00
    0.18109E-07        -0.75706E-12         0.00000E+00
    0.18109E-07        -0.17494E-12         0.00000E+00
    0.18109E-07         0.47572E-12         0.00000E+00
    0.18108E-07         0.11850E-11         0.00000E+00
    0.18108E-07         0.19431E-11         0.00000E+00
    0.18108E-07         0.27406E-11         0.00000E+00
    0.18108E-07         0.35683E-11         0.00000E+00
    0.18107E-07         0.44172E-11         0.00000E+00
    0.18107E-07         0.52787E-11         0.00000E+00
    0.18107E-07         0.61442E-11         0.00000E+00
    0.18107E-07         0.70055E-11         0.00000E+00
    0.18107E-07         0.78548E-11         0.00000E+00
    0.18106E-07         0.86840E-11         0.00000E+00
    0.18106E-07         0.94859E-11         0.00000E+00
    0.18106E-07         0.10253E-10         0.00000E+00
    0.18106E-07         0.10978E-10         0.00000E+00
    0.18106E-07         0.11655E-10         0.00000E+00
    0.18106E-07         0.12276E-10         0.00000E+00
    0.18106E-07         0.12836E-10         0.00000E+00
    0.18106E-07         0.13328E-10         0.00000E+00
    0.18106E-07         0.13746E-10         0.00000E+00
    0.18106E-07         0.14084E-10         0.00000E+00
    0.18106E-07         0.14336E-10         0.00000E+00
    0.18106E-07         0.14498E-10         0.00000E+00
    0.18106E-07         0.14564E-10         0.00000E+00
    0.18106E-07         0.14529E-10         0.00000E+00
    0.18106E-07         0.14388E-10         0.00000E+00
    0.18106E-07         0.14136E-10         0.00000E+00
    0.18106E-07         0.13769E-10         0.00000E+00
    0.18106E-07         0.13283E-10         0.00000E+00
    0.18106E-07         0.12673E-10         0.00000E+00
    0.18106E-07         0.11936E-10         0.00000E+00
    0.18106E-07         0.11067E-10         0.00000E+00
    0.18106E-07         0.10063E-10         0.00000E+00
    0.18106E-07         0.89205E-11         0.00000E+00
    0.18106E-07         0.76360E-11         0.00000E+00
    0.18106E-07         0.62062E-11         0.00000E+00
    0.18106E-07         0.46282E-11         0.00000E+00
    0.18106E-07         0.28989E-11         0.00000E+00
    0.18106E-07         0.10156E-11         0.00000E+00
    0.17713E-07        -0.27767E-12         0.00000E+00
    0.17713E-07        -0.71545E-12         0.00000E+00
    0.17712E-07        -0.99951E-12         0.00000E+00
    0.17712E-07        -0.11409E-11         0.00000E+00
    0.17712E-07        -0.11506E-11         0.00000E+00
    0.17712E-07        -0.10392E-11         0.00000E+00
    0.17711E-07        -0.81702E-12         0.00000E+00
    0.17711E-07        -0.49435E-12         0.00000E+00
    0.17711E-07        -0.81090E-13         0.00000E+00
    0.17710E-07         0.41303E-12         0.00000E+00
    0.17710E-07         0.97851E-12         0.00000E+00
    0.17709E-07         0.16061E-11         0.00000E+00
    0.17709E-07         0.22867E-11         0.00000E+00
    0.17708E-07         0.30116E-11         0.00000E+00
    0.17708E-07         0.37722E-11         0.00000E+00
    0.17708E-07         0.45600E-11         0.00000E+00
    0.17707E-07         0.53669E-11         0.00000E+00
    0.17707E-07         0.61850E-11         0.00000E+00
    0.17706E-07         0.70065E-11         0.00000E+00
    0.17706E-07         0.78239E-11         0.00000E+00
    0.17705E-07         0.86300E-11         0.00000E+00
    0.17705E-07         0.94175E-11         0.00000E+00
    0.17704E-07         0.10180E-10         0.00000E+00
    0.17704E-07         0.10910E-10         0.00000E+00
    0.17703E-07         0.11601E-10         0.00000E+00
    0.17703E-07         0.12248E-10         0.00000E+00
    0.17703E-07         0.12843E-10         0.00000E+00
    0.17702E-07         0.13382E-10         0.00000E+00
    0.17702E-07         0.13857E-10         0.00000E+00
    0.17702E-07         0.14265E-10         0.00000E+00
    0.17701E-07         0.14599E-10         0.00000E+00
    0.17701E-07         0.14854E-10         0.00000E+00
    0.17701E-07         0.15025E-10         0.00000E+00
    0.17700E-07         0.15107E-10         0.00000E+00
    0.17700E-07         0.15096E-10         0.00000E+00
    0.17700E-07         0.14987E-10         0.00000E+00
    0.17700E-07         0.14776E-10         0.00000E+00
    0.17700E-07         0.14458E-10         0.00000E+00
    0.17699E-07         0.14029E-10         0.00000E+00
    0.17699E-07         0.13486E-10         0.00000E+00
    0.17699E-07         0.12825E-10         0.00000E+00
    0.17699E-07         0.12042E-10         0.00000E+00
    0.17699E-07         0.11134E-10         0.00000E+00
    0.17699E-07         0.10097E-10         0.00000E+00
    0.17699E-07         0.89280E-11         0.00000E+00
    0.17699E-07         0.76244E-11         0.00000E+00
    0.17699E-07         0.61831E-11         0.00000E+00
    0.17699E-07         0.46012E-11         0.00000E+00
    0.17699E-07         0.28761E-11         0.00000E+00
    0.17699E-07         0.10053E-11         0.00000E+00
    0.17385E-07        -0.75843E-13         0.00000E+00
    0.17385E-07        -0.13537E-12         0.00000E+00
    0.17385E-07        -0.75083E-13         0.00000E+00
    0.17385E-07         0.95438E-13         0.00000E+00
    0.17384E-07         0.36682E-12         0.00000E+00
    0.17384E-07         0.72990E-12         0.00000E+00
    0.17384E-07         0.11757E-11         0.00000E+00
    0.17383E-07         0.16953E-11         0.00000E+00
    0.17383E-07         0.22803E-11         0.00000E+00
    0.17382E-07         0.29222E-11         0.00000E+00
    0.17381E-07         0.36128E-11         0.00000E+00
    0.17381E-07         0.43441E-11         0.00000E+00
    0.17380E-07         0.51082E-11         0.00000E+00
    0.17379E-07         0.58975E-11         0.00000E+00
    0.17379E-07         0.67045E-11         0.00000E+00
    0.17378E-07         0.75220E-11         0.00000E+00
    0.17377E-07         0.83430E-11         0.00000E+00
    0.17377E-07         0.91604E-11         0.00000E+00
    0.17376E-07         0.99676E-11         0.00000E+00
    0.17375E-07         0.10758E-10         0.00000E+00
    0.17375E-07         0.11525E-10         0.00000E+00
    0.17374E-07         0.12263E-10         0.00000E+00
    0.17373E-07         0.12966E-10         0.00000E+00
    0.17372E-07         0.13628E-10         0.00000E+00
    0.17372E-07         0.14243E-10         0.00000E+00
    0.17371E-07         0.14805E-10         0.00000E+00
    0.17371E-07         0.15310E-10         0.00000E+00
    0.17370E-07         0.15753E-10         0.00000E+00
    0.17369E-07         0.16127E-10         0.00000E+00
    0.17369E-07         0.16429E-10         0.00000E+00
    0.17368E-07         0.16653E-10         0.00000E+00
    0.17368E-07         0.16796E-10         0.00000E+00
    0.17367E-07         0.16852E-10         0.00000E+00
    0.17367E-07         0.16818E-10         0.00000E+00
    0.17366E-07         0.16690E-10         0.00000E+00
    0.17366E-07         0.16462E-10         0.00000E+00
    0.17366E-07         0.16133E-10         0.00000E+00
    0.17365E-07         0.15697E-10         0.00000E+00
    0.17365E-07         0.15152E-10         0.00000E+00
    0.17365E-07         0.14494E-10         0.00000E+00
    0.17364E-07         0.13720E-10         0.00000E+00
    0.17364E-07         0.12826E-10         0.00000E+00
    0.17364E-07         0.11810E-10         0.00000E+00
    0.17364E-07         0.10668E-10         0.00000E+00
    0.17364E-07         0.93988E-11         0.00000E+00
    0.17364E-07         0.79986E-11         0.00000E+00
    0.17363E-07         0.64650E-11         0.00000E+00
    0.17363E-07         0.47958E-11         0.00000E+00
    0.17363E-07         0.29885E-11         0.00000E+00
    0.17363E-07         0.10410E-11         0.00000E+00
    0.17127E-07         0.17236E-12         0.00000E+00
    0.17127E-07         0.58102E-12         0.00000E+00
    0.17126E-07         0.10716E-11         0.00000E+00
    0.17126E-07         0.16361E-11         0.00000E+00
    0.17126E-07         0.22666E-11         0.00000E+00
    0.17125E-07         0.29553E-11         0.00000E+00
    0.17125E-07         0.36947E-11         0.00000E+00
    0.17124E-07         0.44774E-11         0.00000E+00
    0.17124E-07         0.52961E-11         0.00000E+00
    0.17123E-07         0.61437E-11         0.00000E+00
    0.17122E-07         0.70132E-11         0.00000E+00
    0.17121E-07         0.78980E-11         0.00000E+00
    0.17121E-07         0.87914E-11         0.00000E+00
    0.17120E-07         0.96870E-11         0.00000E+00
    0.17119E-07         0.10578E-10         0.00000E+00
    0.17118E-07         0.11460E-10         0.00000E+00
    0.17117E-07         0.12324E-10         0.00000E+00
    0.17116E-07         0.13167E-10         0.00000E+00
    0.17115E-07         0.13982E-10         0.00000E+00
    0.17114E-07         0.14764E-10         0.00000E+00
    0.17114E-07         0.15507E-10         0.00000E+00
    0.17113E-07         0.16207E-10         0.00000E+00
    0.17112E-07         0.16857E-10         0.00000E+00
    0.17111E-07         0.17454E-10         0.00000E+00
    0.17110E-07         0.17991E-10         0.00000E+00
    0.17109E-07         0.18466E-10         0.00000E+00
    0.17108E-07         0.18873E-10         0.00000E+00
    0.17108E-07         0.19208E-10         0.00000E+00
    0.17107E-07         0.19466E-10         0.00000E+00
    0.17106E-07         0.19644E-10         0.00000E+00
    0.17105E-07         0.19738E-10         0.00000E+00
    0.17105E-07         0.19743E-10         0.00000E+00
    0.17104E-07         0.19656E-10         0.00000E+00
    0.17103E-07         0.19474E-10         0.00000E+00
    0.17103E-07         0.19193E-10         0.00000E+00
    0.17102E-07         0.18810E-10         0.00000E+00
    0.17102E-07         0.18321E-10         0.00000E+00
    0.17101E-07         0.17724E-10         0.00000E+00
    0.17101E-07         0.17015E-10         0.00000E+00
    0.17100E-07         0.16192E-10         0.00000E+00
    0.17100E-07         0.15251E-10         0.00000E+00
    0.17100E-07         0.14191E-10         0.00000E+00
    0.17099E-07         0.13009E-10         0.00000E+00
    0.17099E-07         0.11702E-10         0.00000E+00
    0.17099E-07         0.10267E-10         0.00000E+00
    0.17099E-07         0.87038E-11         0.00000E+00
    0.17098E-07         0.70089E-11         0.00000E+00
    0.17098E-07         0.51806E-11         0.00000E+00
    0.17098E-07         0.32169E-11         0.00000E+00
    0.17098E-07         0.11160E-11         0.00000E+00
    0.16937E-07         0.45927E-12         0.00000E+00
    0.16936E-07         0.14112E-11         0.00000E+00
    0.16936E-07         0.24039E-11         0.00000E+00
    0.16936E-07         0.34309E-11         0.00000E+00
    0.16935E-07         0.44857E-11         0.00000E+00
    0.16935E-07         0.55621E-11         0.00000E+00
    0.16934E-07         0.66537E-11         0.00000E+00
    0.16934E-07         0.77546E-11         0.00000E+00
    0.16933E-07         0.88588E-11         0.00000E+00
    0.16932E-07         0.99606E-11         0.00000E+00
    0.16931E-07         0.11054E-10         0.00000E+00
    0.16930E-07         0.12134E-10         0.00000E+00
    0.16929E-07         0.13196E-10         0.00000E+00
    0.16929E-07         0.14233E-10         0.00000E+00
    0.16928E-07         0.15240E-10         0.00000E+00
    0.16927E-07         0.16213E-10         0.00000E+00
    0.16925E-07         0.17147E-10         0.00000E+00
    0.16924E-07         0.18038E-10         0.00000E+00
    0.16923E-07         0.18879E-10         0.00000E+00
    0.16922E-07         0.19668E-10         0.00000E+00
    0.16921E-07         0.20399E-10         0.00000E+00
    0.16920E-07         0.21069E-10         0.00000E+00
    0.16919E-07         0.21672E-10         0.00000E+00
    0.16918E-07         0.22207E-10         0.00000E+00
    0.16917E-07         0.22667E-10         0.00000E+00
    0.16916E-07         0.23051E-10         0.00000E+00
    0.16915E-07         0.23353E-10         0.00000E+00
    0.16914E-07         0.23571E-10         0.00000E+00
    0.16913E-07         0.23701E-10         0.00000E+00
    0.16912E-07         0.23740E-10         0.00000E+00
    0.16911E-07         0.23685E-10         0.00000E+00
    0.16911E-07         0.23532E-10         0.00000E+00
    0.16910E-07         0.23279E-10         0.00000E+00
    0.16909E-07         0.22922E-10         0.00000E+00
    0.16908E-07         0.22460E-10         0.00000E+00
    0.16907E-07         0.21889E-10         0.00000E+00
    0.16907E-07         0.21206E-10         0.00000E+00
    0.16906E-07         0.20410E-10         0.00000E+00
    0.16906E-07         0.19498E-10         0.00000E+00
    0.16905E-07         0.18468E-10         0.00000E+00
    0.16905E-07         0.17317E-10         0.00000E+00
    0.16904E-07         0.16044E-10         0.00000E+00
    0.16904E-07         0.14646E-10         0.00000E+00
    0.16903E-07         0.13122E-10         0.00000E+00
    0.16903E-07         0.11469E-10         0.00000E+00
    0.16903E-07         0.96867E-11         0.00000E+00
    0.16903E-07         0.77724E-11         0.00000E+00
    0.16903E-07         0.57249E-11         0.00000E+00
    0.16902E-07         0.35426E-11         0.00000E+00
    0.16902E-07         0.12241E-11         0.00000E+00
    0.16814E-07         0.77770E-12         0.00000E+00
    0.16814E-07         0.23340E-11         0.00000E+00
    0.16813E-07         0.38874E-11         0.00000E+00
    0.16813E-07         0.54327E-11         0.00000E+00
    0.16812E-07         0.69649E-11         0.00000E+00
    0.16812E-07         0.84792E-11         0.00000E+00
    0.16811E-07         0.99708E-11         0.00000E+00
    0.16810E-07         0.11435E-10         0.00000E+00
    0.16810E-07         0.12867E-10         0.00000E+00
    0.16809E-07         0.14262E-10         0.00000E+00
    0.16808E-07         0.15617E-10         0.00000E+00
    0.16807E-07         0.16926E-10         0.00000E+00
    0.16806E-07         0.18187E-10         0.00000E+00
    0.16805E-07         0.19394E-10         0.00000E+00
    0.16804E-07         0.20543E-10         0.00000E+00
    0.16803E-07         0.21632E-10         0.00000E+00
    0.16801E-07         0.22655E-10         0.00000E+00
    0.16800E-07         0.23611E-10         0.00000E+00
    0.16799E-07         0.24494E-10         0.00000E+00
    0.16798E-07         0.25302E-10         0.00000E+00
    0.16797E-07         0.26031E-10         0.00000E+00
    0.16795E-07         0.26678E-10         0.00000E+00
    0.16794E-07         0.27240E-10         0.00000E+00
    0.16793E-07         0.27714E-10         0.00000E+00
    0.16792E-07         0.28097E-10         0.00000E+00
    0.16791E-07         0.28387E-10         0.00000E+00
    0.16790E-07         0.28579E-10         0.00000E+00
    0.16789E-07         0.28673E-10         0.00000E+00
    0.16788E-07         0.28665E-10         0.00000E+00
    0.16786E-07         0.28552E-10         0.00000E+00
    0.16785E-07         0.28333E-10         0.00000E+00
    0.16784E-07         0.28005E-10         0.00000E+00
    0.16784E-07         0.27566E-10         0.00000E+00
    0.16783E-07         0.27014E-10         0.00000E+00
    0.16782E-07         0.26346E-10         0.00000E+00
    0.16781E-07         0.25561E-10         0.00000E+00
    0.16780E-07         0.24658E-10         0.00000E+00
    0.16780E-07         0.23633E-10         0.00000E+00
    0.16779E-07         0.22486E-10         0.00000E+00
    0.16778E-07         0.21214E-10         0.00000E+00
    0.16778E-07         0.19817E-10         0.00000E+00
    0.16777E-07         0.18293E-10         0.00000E+00
    0.16777E-07         0.16640E-10         0.00000E+00
    0.16776E-07         0.14856E-10         0.00000E+00
    0.16776E-07         0.12942E-10         0.00000E+00
    0.16776E-07         0.10895E-10         0.00000E+00
    0.16775E-07         0.87141E-11         0.00000E+00
    0.16775E-07         0.63986E-11         0.00000E+00
    0.16775E-07         0.39472E-11         0.00000E+00
    0.16775E-07         0.13591E-11         0.00000E+00
    0.16758E-07         0.11208E-11         0.00000E+00
    0.16757E-07         0.33295E-11         0.00000E+00
    0.16757E-07         0.54893E-11         0.00000E+00
    0.16757E-07         0.75966E-11         0.00000E+00
    0.16756E-07         0.96479E-11         0.00000E+00
    0.16756E-07         0.11640E-10         0.00000E+00
    0.16755E-07         0.13568E-10         0.00000E+00
    0.16754E-07         0.15431E-10         0.00000E+00
    0.16753E-07         0.17223E-10         0.00000E+00
    0.16752E-07         0.18943E-10         0.00000E+00
    0.16751E-07         0.20587E-10         0.00000E+00
    0.16750E-07         0.22153E-10         0.00000E+00
    0.16749E-07         0.23636E-10         0.00000E+00
    0.16748E-07         0.25035E-10         0.00000E+00
    0.16747E-07         0.26347E-10         0.00000E+00
    0.16746E-07         0.27569E-10         0.00000E+00
    0.16744E-07         0.28698E-10         0.00000E+00
    0.16743E-07         0.29732E-10         0.00000E+00
    0.16742E-07         0.30668E-10         0.00000E+00
    0.16741E-07         0.31505E-10         0.00000E+00
    0.16739E-07         0.32240E-10         0.00000E+00
    0.16738E-07         0.32870E-10         0.00000E+00
    0.16737E-07         0.33394E-10         0.00000E+00
    0.16735E-07         0.33810E-10         0.00000E+00
    0.16734E-07         0.34115E-10         0.00000E+00
    0.16733E-07         0.34308E-10         0.00000E+00
    0.16732E-07         0.34386E-10         0.00000E+00
    0.16730E-07         0.34349E-10         0.00000E+00
    0.16729E-07         0.34194E-10         0.00000E+00
    0.16728E-07         0.33921E-10         0.00000E+00
    0.16727E-07         0.33526E-10         0.00000E+00
    0.16726E-07         0.33010E-10         0.00000E+00
    0.16725E-07         0.32370E-10         0.00000E+00
    0.16724E-07         0.31605E-10         0.00000E+00
    0.16723E-07         0.30713E-10         0.00000E+00
    0.16722E-07         0.29695E-10         0.00000E+00
    0.16721E-07         0.28548E-10         0.00000E+00
    0.16721E-07         0.27271E-10         0.00000E+00
    0.16720E-07         0.25864E-10         0.00000E+00
    0.16719E-07         0.24325E-10         0.00000E+00
    0.16718E-07         0.22653E-10         0.00000E+00
    0.16718E-07         0.20848E-10         0.00000E+00
    0.16717E-07         0.18908E-10         0.00000E+00
    0.16717E-07         0.16834E-10         0.00000E+00
    0.16717E-07         0.14624E-10         0.00000E+00
    0.16716E-07         0.12277E-10         0.00000E+00
    0.16716E-07         0.97935E-11         0.00000E+00
    0.16716E-07         0.71722E-11         0.00000E+00
    0.16716E-07         0.44127E-11         0.00000E+00
    0.16716E-07         0.15147E-11         0.00000E+00
    0.16768E-07         0.14822E-11         0.00000E+00
    0.16768E-07         0.43785E-11         0.00000E+00
    0.16767E-07         0.71784E-11         0.00000E+00
    0.16767E-07         0.98798E-11         0.00000E+00
    0.16767E-07         0.12481E-10         0.00000E+00
    0.16766E-07         0.14978E-10         0.00000E+00
    0.16765E-07         0.17371E-10         0.00000E+00
    0.16764E-07         0.19658E-10         0.00000E+00
    0.16763E-07         0.21835E-10         0.00000E+00
    0.16762E-07         0.23902E-10         0.00000E+00
    0.16761E-07         0.25856E-10         0.00000E+00
    0.16760E-07         0.27696E-10         0.00000E+00
    0.16759E-07         0.29421E-10         0.00000E+00
    0.16758E-07         0.31028E-10         0.00000E+00
    0.16757E-07         0.32516E-10         0.00000E+00
    0.16755E-07         0.33883E-10         0.00000E+00
    0.16754E-07         0.35129E-10         0.00000E+00
    0.16753E-07         0.36251E-10         0.00000E+00
    0.16751E-07         0.37249E-10         0.00000E+00
    0.16750E-07         0.38121E-10         0.00000E+00
    0.16749E-07         0.38867E-10         0.00000E+00
    0.16747E-07         0.39484E-10         0.00000E+00
    0.16746E-07         0.39972E-10         0.00000E+00
    0.16745E-07         0.40329E-10         0.00000E+00
    0.16743E-07         0.40556E-10         0.00000E+00
    0.16742E-07         0.40650E-10         0.00000E+00
    0.16741E-07         0.40611E-10         0.00000E+00
    0.16740E-07         0.40439E-10         0.00000E+00
    0.16738E-07         0.40132E-10         0.00000E+00
    0.16737E-07         0.39689E-10         0.00000E+00
    0.16736E-07         0.39111E-10         0.00000E+00
    0.16735E-07         0.38396E-10         0.00000E+00
    0.16734E-07         0.37543E-10         0.00000E+00
    0.16733E-07         0.36553E-10         0.00000E+00
    0.16732E-07         0.35425E-10         0.00000E+00
    0.16731E-07         0.34158E-10         0.00000E+00
    0.16730E-07         0.32751E-10         0.00000E+00
    0.16729E-07         0.31206E-10         0.00000E+00
    0.16728E-07         0.29520E-10         0.00000E+00
    0.16727E-07         0.27694E-10         0.00000E+00
    0.16727E-07         0.25728E-10         0.00000E+00
    0.16726E-07         0.23621E-10         0.00000E+00
    0.16726E-07         0.21373E-10         0.00000E+00
    0.16725E-07         0.18984E-10         0.00000E+00
    0.16725E-07         0.16454E-10         0.00000E+00
    0.16724E-07         0.13783E-10         0.00000E+00
    0.16724E-07         0.10970E-10         0.00000E+00
    0.16724E-07         0.80165E-11         0.00000E+00
    0.16724E-07         0.49214E-11         0.00000E+00
    0.16724E-07         0.16849E-11         0.00000E+00
    0.16845E-07         0.18555E-11         0.00000E+00
    0.16845E-07         0.54624E-11         0.00000E+00
    0.16844E-07         0.89244E-11         0.00000E+00
    0.16844E-07         0.12241E-10         0.00000E+00
    0.16843E-07         0.15410E-10         0.00000E+00
    0.16843E-07         0.18433E-10         0.00000E+00
    0.16842E-07         0.21307E-10         0.00000E+00
    0.16841E-07         0.24033E-10         0.00000E+00
    0.16840E-07         0.26611E-10         0.00000E+00
    0.16839E-07         0.29038E-10         0.00000E+00
    0.16838E-07         0.31315E-10         0.00000E+00
    0.16837E-07         0.33442E-10         0.00000E+00
    0.16836E-07         0.35418E-10         0.00000E+00
    0.16835E-07         0.37243E-10         0.00000E+00
    0.16833E-07         0.38915E-10         0.00000E+00
    0.16832E-07         0.40436E-10         0.00000E+00
    0.16831E-07         0.41805E-10         0.00000E+00
    0.16829E-07         0.43022E-10         0.00000E+00
    0.16828E-07         0.44086E-10         0.00000E+00
    0.16827E-07         0.44997E-10         0.00000E+00
    0.16825E-07         0.45755E-10         0.00000E+00
    0.16824E-07         0.46361E-10         0.00000E+00
    0.16822E-07         0.46813E-10         0.00000E+00
    0.16821E-07         0.47113E-10         0.00000E+00
    0.16820E-07         0.47260E-10         0.00000E+00
    0.16818E-07         0.47254E-10         0.00000E+00
    0.16817E-07         0.47095E-10         0.00000E+00
    0.16816E-07         0.46784E-10         0.00000E+00
    0.16814E-07         0.46320E-10         0.00000E+00
    0.16813E-07         0.45703E-10         0.00000E+00
    0.16812E-07         0.44935E-10         0.00000E+00
    0.16811E-07         0.44015E-10         0.00000E+00
    0.16810E-07         0.42943E-10         0.00000E+00
    0.16809E-07         0.41720E-10         0.00000E+00
    0.16808E-07         0.40345E-10         0.00000E+00
    0.16807E-07         0.38820E-10         0.00000E+00
    0.16806E-07         0.37145E-10         0.00000E+00
    0.16805E-07         0.35319E-10         0.00000E+00
    0.16804E-07         0.33344E-10         0.00000E+00
    0.16803E-07         0.31219E-10         0.00000E+00
    0.16803E-07         0.28946E-10         0.00000E+00
    0.16802E-07         0.26524E-10         0.00000E+00
    0.16801E-07         0.23954E-10         0.00000E+00
    0.16801E-07         0.21237E-10         0.00000E+00
    0.16801E-07         0.18373E-10         0.00000E+00
    0.16800E-07         0.15362E-10         0.00000E+00
    0.16800E-07         0.12205E-10         0.00000E+00
    0.16800E-07         0.89025E-11         0.00000E+00
    0.16800E-07         0.54553E-11         0.00000E+00
    0.16799E-07         0.18637E-11         0.00000E+00
    0.16989E-07         0.22346E-11         0.00000E+00
    0.16989E-07         0.65631E-11         0.00000E+00
    0.16988E-07         0.10697E-10         0.00000E+00
    0.16988E-07         0.14638E-10         0.00000E+00
    0.16987E-07         0.18385E-10         0.00000E+00
    0.16987E-07         0.21941E-10         0.00000E+00
    0.16986E-07         0.25304E-10         0.00000E+00
    0.16985E-07         0.28477E-10         0.00000E+00
    0.16984E-07         0.31460E-10         0.00000E+00
    0.16983E-07         0.34254E-10         0.00000E+00
    0.16982E-07         0.36859E-10         0.00000E+00
    0.16981E-07         0.39277E-10         0.00000E+00
    0.16980E-07         0.41508E-10         0.00000E+00
    0.16978E-07         0.43554E-10         0.00000E+00
    0.16977E-07         0.45414E-10         0.00000E+00
    0.16976E-07         0.47091E-10         0.00000E+00
    0.16974E-07         0.48585E-10         0.00000E+00
    0.16973E-07         0.49897E-10         0.00000E+00
    0.16972E-07         0.51028E-10         0.00000E+00
    0.16970E-07         0.51978E-10         0.00000E+00
    0.16969E-07         0.52750E-10         0.00000E+00
    0.16968E-07         0.53344E-10         0.00000E+00
    0.16966E-07         0.53760E-10         0.00000E+00
    0.16965E-07         0.54001E-10         0.00000E+00
    0.16963E-07         0.54067E-10         0.00000E+00
    0.16962E-07         0.53959E-10         0.00000E+00
    0.16961E-07         0.53678E-10         0.00000E+00
    0.16959E-07         0.53225E-10         0.00000E+00
    0.16958E-07         0.52602E-10         0.00000E+00
    0.16957E-07         0.51809E-10         0.00000E+00
    0.16956E-07         0.50848E-10         0.00000E+00
    0.16954E-07         0.49719E-10         0.00000E+00
    0.16953E-07         0.48424E-10         0.00000E+00
    0.16952E-07         0.46964E-10         0.00000E+00
    0.16951E-07         0.45340E-10         0.00000E+00
    0.16950E-07         0.43552E-10         0.00000E+00
    0.16949E-07         0.41603E-10         0.00000E+00
    0.16949E-07         0.39494E-10         0.00000E+00
    0.16948E-07         0.37224E-10         0.00000E+00
    0.16947E-07         0.34796E-10         0.00000E+00
    0.16946E-07         0.32211E-10         0.00000E+00
    0.16946E-07         0.29470E-10         0.00000E+00
    0.16945E-07         0.26573E-10         0.00000E+00
    0.16945E-07         0.23522E-10         0.00000E+00
    0.16944E-07         0.20319E-10         0.00000E+00
    0.16944E-07         0.16963E-10         0.00000E+00
    0.16944E-07         0.13457E-10         0.00000E+00
    0.16943E-07         0.98012E-11         0.00000E+00
    0.16943E-07         0.59968E-11         0.00000E+00
    0.16943E-07         0.20450E-11         0.00000E+00
    0.17200E-07         0.26132E-11         0.00000E+00
    0.17200E-07         0.76621E-11         0.00000E+00
    0.17199E-07         0.12467E-10         0.00000E+00
    0.17199E-07         0.17030E-10         0.00000E+00
    0.17199E-07         0.21353E-10         0.00000E+00
    0.17198E-07         0.25439E-10         0.00000E+00
    0.17197E-07         0.29290E-10         0.00000E+00
    0.17196E-07         0.32907E-10         0.00000E+00
    0.17195E-07         0.36293E-10         0.00000E+00
    0.17194E-07         0.39450E-10         0.00000E+00
    0.17193E-07         0.42381E-10         0.00000E+00
    0.17192E-07         0.45087E-10         0.00000E+00
    0.17191E-07         0.47570E-10         0.00000E+00
    0.17190E-07         0.49834E-10         0.00000E+00
    0.17189E-07         0.51879E-10         0.00000E+00
    0.17187E-07         0.53709E-10         0.00000E+00
    0.17186E-07         0.55325E-10         0.00000E+00
    0.17185E-07         0.56729E-10         0.00000E+00
    0.17183E-07         0.57924E-10         0.00000E+00
    0.17182E-07         0.58912E-10         0.00000E+00
    0.17180E-07         0.59694E-10         0.00000E+00
    0.17179E-07         0.60274E-10         0.00000E+00
    0.17178E-07         0.60652E-10         0.00000E+00
    0.17176E-07         0.60832E-10         0.00000E+00
    0.17175E-07         0.60815E-10         0.00000E+00
    0.17174E-07         0.60603E-10         0.00000E+00
    0.17172E-07         0.60199E-10         0.00000E+00
    0.17171E-07         0.59604E-10         0.00000E+00
    0.17170E-07         0.58821E-10         0.00000E+00
    0.17169E-07         0.57851E-10         0.00000E+00
    0.17167E-07         0.56696E-10         0.00000E+00
    0.17166E-07         0.55359E-10         0.00000E+00
    0.17165E-07         0.53841E-10         0.00000E+00
    0.17164E-07         0.52145E-10         0.00000E+00
    0.17163E-07         0.50272E-10         0.00000E+00
    0.17162E-07         0.48224E-10         0.00000E+00
    0.17161E-07         0.46003E-10         0.00000E+00
    0.17161E-07         0.43611E-10         0.00000E+00
    0.17160E-07         0.41050E-10         0.00000E+00
    0.17159E-07         0.38321E-10         0.00000E+00
    0.17158E-07         0.35427E-10         0.00000E+00
    0.17158E-07         0.32369E-10         0.00000E+00
    0.17157E-07         0.29150E-10         0.00000E+00
    0.17157E-07         0.25770E-10         0.00000E+00
    0.17156E-07         0.22232E-10         0.00000E+00
    0.17156E-07         0.18537E-10         0.00000E+00
    0.17156E-07         0.14687E-10         0.00000E+00
    0.17156E-07         0.10683E-10         0.00000E+00
    0.17155E-07         0.65280E-11         0.00000E+00
    0.17155E-07         0.22227E-11         0.00000E+00
    0.17480E-07         0.29849E-11         0.00000E+00
    0.17479E-07         0.87406E-11         0.00000E+00
    0.17479E-07         0.14203E-10         0.00000E+00
    0.17479E-07         0.19375E-10         0.00000E+00
    0.17478E-07         0.24261E-10         0.00000E+00
    0.17478E-07         0.28865E-10         0.00000E+00
    0.17477E-07         0.33189E-10         0.00000E+00
    0.17476E-07         0.37239E-10         0.00000E+00
    0.17475E-07         0.41016E-10         0.00000E+00
    0.17474E-07         0.44526E-10         0.00000E+00
    0.17473E-07         0.47770E-10         0.00000E+00
    0.17472E-07         0.50754E-10         0.00000E+00
    0.17471E-07         0.53480E-10         0.00000E+00
    0.17470E-07         0.55952E-10         0.00000E+00
    0.17469E-07         0.58174E-10         0.00000E+00
    0.17467E-07         0.60148E-10         0.00000E+00
    0.17466E-07         0.61878E-10         0.00000E+00
    0.17465E-07         0.63368E-10         0.00000E+00
    0.17463E-07         0.64621E-10         0.00000E+00
    0.17462E-07         0.65640E-10         0.00000E+00
    0.17461E-07         0.66428E-10         0.00000E+00
    0.17459E-07         0.66989E-10         0.00000E+00
    0.17458E-07         0.67326E-10         0.00000E+00
    0.17457E-07         0.67442E-10         0.00000E+00
    0.17456E-07         0.67340E-10         0.00000E+00
    0.17454E-07         0.67023E-10         0.00000E+00
    0.17453E-07         0.66495E-10         0.00000E+00
    0.17452E-07         0.65758E-10         0.00000E+00
    0.17451E-07         0.64815E-10         0.00000E+00
    0.17450E-07         0.63669E-10         0.00000E+00
    0.17448E-07         0.62324E-10         0.00000E+00
    0.17447E-07         0.60782E-10         0.00000E+00
    0.17446E-07         0.59046E-10         0.00000E+00
    0.17445E-07         0.57118E-10         0.00000E+00
    0.17444E-07         0.55002E-10         0.00000E+00
    0.17443E-07         0.52700E-10         0.00000E+00
    0.17443E-07         0.50214E-10         0.00000E+00
    0.17442E-07         0.47549E-10         0.00000E+00
    0.17441E-07         0.44705E-10         0.00000E+00
    0.17440E-07         0.41686E-10         0.00000E+00
    0.17440E-07         0.38495E-10         0.00000E+00
    0.17439E-07         0.35133E-10         0.00000E+00
    0.17439E-07         0.31603E-10         0.00000E+00
    0.17438E-07         0.27907E-10         0.00000E+00
    0.17438E-07         0.24049E-10         0.00000E+00
    0.17438E-07         0.20030E-10         0.00000E+00
    0.17437E-07         0.15852E-10         0.00000E+00
    0.17437E-07         0.11518E-10         0.00000E+00
    0.17437E-07         0.70304E-11         0.00000E+00
    0.17437E-07         0.23906E-11         0.00000E+00
    0.17829E-07         0.33431E-11         0.00000E+00
    0.17829E-07         0.97790E-11         0.00000E+00
    0.17828E-07         0.15872E-10         0.00000E+00
    0.17828E-07         0.21629E-10         0.00000E+00
    0.17828E-07         0.27053E-10         0.00000E+00
    0.17827E-07         0.32151E-10         0.00000E+00
    0.17826E-07         0.36926E-10         0.00000E+00
    0.17825E-07         0.41386E-10         0.00000E+00
    0.17825E-07         0.45534E-10         0.00000E+00
    0.17824E-07         0.49375E-10         0.00000E+00
    0.17823E-07         0.52915E-10         0.00000E+00
    0.17822E-07         0.56158E-10         0.00000E+00
    0.17821E-07         0.59110E-10         0.00000E+00
    0.17820E-07         0.61774E-10         0.00000E+00
    0.17818E-07         0.64157E-10         0.00000E+00
    0.17817E-07         0.66262E-10         0.00000E+00
    0.17816E-07         0.68094E-10         0.00000E+00
    0.17815E-07         0.69658E-10         0.00000E+00
    0.17814E-07         0.70958E-10         0.00000E+00
    0.17812E-07         0.71999E-10         0.00000E+00
    0.17811E-07         0.72786E-10         0.00000E+00
    0.17810E-07         0.73322E-10         0.00000E+00
    0.17809E-07         0.73612E-10         0.00000E+00
    0.17808E-07         0.73660E-10         0.00000E+00
    0.17806E-07         0.73471E-10         0.00000E+00
    0.17805E-07         0.73048E-10         0.00000E+00
    0.17804E-07         0.72395E-10         0.00000E+00
    0.17803E-07         0.71517E-10         0.00000E+00
    0.17802E-07         0.70418E-10         0.00000E+00
    0.17801E-07         0.69102E-10         0.00000E+00
    0.17800E-07         0.67571E-10         0.00000E+00
    0.17799E-07         0.65831E-10         0.00000E+00
    0.17798E-07         0.63884E-10         0.00000E+00
    0.17797E-07         0.61735E-10         0.00000E+00
    0.17796E-07         0.59387E-10         0.00000E+00
    0.17795E-07         0.56843E-10         0.00000E+00
    0.17794E-07         0.54107E-10         0.00000E+00
    0.17794E-07         0.51183E-10         0.00000E+00
    0.17793E-07         0.48074E-10         0.00000E+00
    0.17792E-07         0.44782E-10         0.00000E+00
    0.17792E-07         0.41312E-10         0.00000E+00
    0.17791E-07         0.37666E-10         0.00000E+00
    0.17791E-07         0.33848E-10         0.00000E+00
    0.17791E-07         0.29861E-10         0.00000E+00
    0.17790E-07         0.25707E-10         0.00000E+00
    0.17790E-07         0.21390E-10         0.00000E+00
    0.17790E-07         0.16912E-10         0.00000E+00
    0.17790E-07         0.12276E-10         0.00000E+00
    0.17789E-07         0.74852E-11         0.00000E+00
    0.17789E-07         0.25422E-11         0.00000E+00
    0.18249E-07         0.36808E-11         0.00000E+00
    0.18249E-07         0.10757E-10         0.00000E+00
    0.18249E-07         0.17442E-10         0.00000E+00
    0.18248E-07         0.23744E-10         0.00000E+00
    0.18248E-07         0.29670E-10         0.00000E+00
    0.18247E-07         0.35226E-10         0.00000E+00
    0.18247E-07         0.40420E-10         0.00000E+00
    0.18246E-07         0.45257E-10         0.00000E+00
    0.18245E-07         0.49744E-10         0.00000E+00
    0.18244E-07         0.53888E-10         0.00000E+00
    0.18244E-07         0.57695E-10         0.00000E+00
    0.18243E-07         0.61171E-10         0.00000E+00
    0.18242E-07         0.64323E-10         0.00000E+00
    0.18241E-07         0.67158E-10         0.00000E+00
    0.18240E-07         0.69680E-10         0.00000E+00
    0.18238E-07         0.71896E-10         0.00000E+00
    0.18237E-07         0.73813E-10         0.00000E+00
    0.18236E-07         0.75435E-10         0.00000E+00
    0.18235E-07         0.76769E-10         0.00000E+00
    0.18234E-07         0.77820E-10         0.00000E+00
    0.18233E-07         0.78594E-10         0.00000E+00
    0.18232E-07         0.79096E-10         0.00000E+00
    0.18231E-07         0.79333E-10         0.00000E+00
    0.18230E-07         0.79309E-10         0.00000E+00
    0.18229E-07         0.79029E-10         0.00000E+00
    0.18228E-07         0.78499E-10         0.00000E+00
    0.18227E-07         0.77724E-10         0.00000E+00
    0.18226E-07         0.76708E-10         0.00000E+00
    0.18225E-07         0.75457E-10         0.00000E+00
    0.18224E-07         0.73976E-10         0.00000E+00
    0.18223E-07         0.72269E-10         0.00000E+00
    0.18222E-07         0.70342E-10         0.00000E+00
    0.18221E-07         0.68197E-10         0.00000E+00
    0.18220E-07         0.65841E-10         0.00000E+00
    0.18220E-07         0.63277E-10         0.00000E+00
    0.18219E-07         0.60510E-10         0.00000E+00
    0.18218E-07         0.57544E-10         0.00000E+00
    0.18218E-07         0.54384E-10         0.00000E+00
    0.18217E-07         0.51033E-10         0.00000E+00
    0.18217E-07         0.47495E-10         0.00000E+00
    0.18216E-07         0.43774E-10         0.00000E+00
    0.18216E-07         0.39874E-10         0.00000E+00
    0.18215E-07         0.35799E-10         0.00000E+00
    0.18215E-07         0.31553E-10         0.00000E+00
    0.18215E-07         0.27139E-10         0.00000E+00
    0.18215E-07         0.22561E-10         0.00000E+00
    0.18214E-07         0.17821E-10         0.00000E+00
    0.18214E-07         0.12924E-10         0.00000E+00
    0.18214E-07         0.78731E-11         0.00000E+00
    0.18214E-07         0.26710E-11         0.00000E+00
    0.18742E-07         0.39904E-11         0.00000E+00
    0.18742E-07         0.11651E-10         0.00000E+00
    0.18742E-07         0.18875E-10         0.00000E+00
    0.18742E-07         0.25672E-10         0.00000E+00
    0.18741E-07         0.32050E-10         0.00000E+00
    0.18741E-07         0.38017E-10         0.00000E+00
    0.18740E-07         0.43582E-10         0.00000E+00
    0.18740E-07         0.48753E-10         0.00000E+00
    0.18739E-07         0.53538E-10         0.00000E+00
    0.18738E-07         0.57945E-10         0.00000E+00
    0.18737E-07         0.61983E-10         0.00000E+00
    0.18737E-07         0.65658E-10         0.00000E+00
    0.18736E-07         0.68978E-10         0.00000E+00
    0.18735E-07         0.71952E-10         0.00000E+00
    0.18734E-07         0.74586E-10         0.00000E+00
    0.18733E-07         0.76888E-10         0.00000E+00
    0.18732E-07         0.78866E-10         0.00000E+00
    0.18731E-07         0.80526E-10         0.00000E+00
    0.18730E-07         0.81875E-10         0.00000E+00
    0.18729E-07         0.82921E-10         0.00000E+00
    0.18728E-07         0.83669E-10         0.00000E+00
    0.18727E-07         0.84128E-10         0.00000E+00
    0.18726E-07         0.84303E-10         0.00000E+00
    0.18726E-07         0.84200E-10         0.00000E+00
    0.18725E-07         0.83827E-10         0.00000E+00
    0.18724E-07         0.83190E-10         0.00000E+00
    0.18723E-07         0.82294E-10         0.00000E+00
    0.18722E-07         0.81145E-10         0.00000E+00
    0.18721E-07         0.79750E-10         0.00000E+00
    0.18721E-07         0.78114E-10         0.00000E+00
    0.18720E-07         0.76243E-10         0.00000E+00
    0.18719E-07         0.74142E-10         0.00000E+00
    0.18719E-07         0.71818E-10         0.00000E+00
    0.18718E-07         0.69274E-10         0.00000E+00
    0.18717E-07         0.66517E-10         0.00000E+00
    0.18717E-07         0.63552E-10         0.00000E+00
    0.18716E-07         0.60383E-10         0.00000E+00
    0.18716E-07         0.57015E-10         0.00000E+00
    0.18715E-07         0.53454E-10         0.00000E+00
    0.18715E-07         0.49704E-10         0.00000E+00
    0.18715E-07         0.45770E-10         0.00000E+00
    0.18714E-07         0.41655E-10         0.00000E+00
    0.18714E-07         0.37365E-10         0.00000E+00
    0.18714E-07         0.32904E-10         0.00000E+00
    0.18713E-07         0.28276E-10         0.00000E+00
    0.18713E-07         0.23485E-10         0.00000E+00
    0.18713E-07         0.18535E-10         0.00000E+00
    0.18713E-07         0.13430E-10         0.00000E+00
    0.18713E-07         0.81737E-11         0.00000E+00
    0.18713E-07         0.27699E-11         0.00000E+00
    0.19311E-07         0.42637E-11         0.00000E+00
    0.19310E-07         0.12438E-10         0.00000E+00
    0.19310E-07         0.20133E-10         0.00000E+00
    0.19310E-07         0.27359E-10         0.00000E+00
    0.19310E-07         0.34125E-10         0.00000E+00
    0.19309E-07         0.40443E-10         0.00000E+00
    0.19309E-07         0.46321E-10         0.00000E+00
    0.19308E-07         0.51771E-10         0.00000E+00
    0.19308E-07         0.56801E-10         0.00000E+00
    0.19307E-07         0.61422E-10         0.00000E+00
    0.19306E-07         0.65642E-10         0.00000E+00
    0.19306E-07         0.69472E-10         0.00000E+00
    0.19305E-07         0.72920E-10         0.00000E+00
    0.19304E-07         0.75995E-10         0.00000E+00
    0.19304E-07         0.78707E-10         0.00000E+00
    0.19303E-07         0.81064E-10         0.00000E+00
    0.19302E-07         0.83074E-10         0.00000E+00
    0.19301E-07         0.84746E-10         0.00000E+00
    0.19301E-07         0.86089E-10         0.00000E+00
    0.19300E-07         0.87110E-10         0.00000E+00
    0.19299E-07         0.87817E-10         0.00000E+00
    0.19298E-07         0.88219E-10         0.00000E+00
    0.19298E-07         0.88323E-10         0.00000E+00
    0.19297E-07         0.88136E-10         0.00000E+00
    0.19296E-07         0.87667E-10         0.00000E+00
    0.19296E-07         0.86922E-10         0.00000E+00
    0.19295E-07         0.85908E-10         0.00000E+00
    0.19294E-07         0.84633E-10         0.00000E+00
    0.19294E-07         0.83103E-10         0.00000E+00
    0.19293E-07         0.81325E-10         0.00000E+00
    0.19293E-07         0.79306E-10         0.00000E+00
    0.19292E-07         0.77052E-10         0.00000E+00
    0.19292E-07         0.74569E-10         0.00000E+00
    0.19291E-07         0.71863E-10         0.00000E+00
    0.19291E-07         0.68941E-10         0.00000E+00
    0.19291E-07         0.65809E-10         0.00000E+00
    0.19290E-07         0.62471E-10         0.00000E+00
    0.19290E-07         0.58935E-10         0.00000E+00
    0.19290E-07         0.55204E-10         0.00000E+00
    0.19289E-07         0.51285E-10         0.00000E+00
    0.19289E-07         0.47184E-10         0.00000E+00
    0.19289E-07         0.42904E-10         0.00000E+00
    0.19289E-07         0.38451E-10         0.00000E+00
    0.19289E-07         0.33830E-10         0.00000E+00
    0.19288E-07         0.29046E-10         0.00000E+00
    0.19288E-07         0.24103E-10         0.00000E+00
    0.19288E-07         0.19005E-10         0.00000E+00
    0.19288E-07         0.13758E-10         0.00000E+00
    0.19288E-07         0.83658E-11         0.00000E+00
    0.19288E-07         0.28318E-11         0.00000E+00
    0.19956E-07         0.44918E-11         0.00000E+00
    0.19956E-07         0.13092E-10         0.00000E+00
    0.19956E-07         0.21173E-10         0.00000E+00
    0.19956E-07         0.28745E-10         0.00000E+00
    0.19955E-07         0.35822E-10         0.00000E+00
    0.19955E-07         0.42414E-10         0.00000E+00
    0.19955E-07         0.48535E-10         0.00000E+00
    0.19954E-07         0.54195E-10         0.00000E+00
    0.19954E-07         0.59407E-10         0.00000E+00
    0.19953E-07         0.64180E-10         0.00000E+00
    0.19953E-07         0.68527E-10         0.00000E+00
    0.19952E-07         0.72458E-10         0.00000E+00
    0.19952E-07         0.75984E-10         0.00000E+00
    0.19951E-07         0.79115E-10         0.00000E+00
    0.19951E-07         0.81862E-10         0.00000E+00
    0.19950E-07         0.84235E-10         0.00000E+00
    0.19950E-07         0.86244E-10         0.00000E+00
    0.19949E-07         0.87898E-10         0.00000E+00
    0.19949E-07         0.89207E-10         0.00000E+00
    0.19948E-07         0.90181E-10         0.00000E+00
    0.19948E-07         0.90829E-10         0.00000E+00
    0.19947E-07         0.91159E-10         0.00000E+00
    0.19947E-07         0.91181E-10         0.00000E+00
    0.19947E-07         0.90904E-10         0.00000E+00
    0.19946E-07         0.90335E-10         0.00000E+00
    0.19946E-07         0.89484E-10         0.00000E+00
    0.19945E-07         0.88357E-10         0.00000E+00
    0.19945E-07         0.86964E-10         0.00000E+00
    0.19945E-07         0.85312E-10         0.00000E+00
    0.19944E-07         0.83408E-10         0.00000E+00
    0.19944E-07         0.81261E-10         0.00000E+00
    0.19944E-07         0.78877E-10         0.00000E+00
    0.19944E-07         0.76263E-10         0.00000E+00
    0.19943E-07         0.73427E-10         0.00000E+00
    0.19943E-07         0.70375E-10         0.00000E+00
    0.19943E-07         0.67114E-10         0.00000E+00
    0.19943E-07         0.63651E-10         0.00000E+00
    0.19943E-07         0.59991E-10         0.00000E+00
    0.19943E-07         0.56141E-10         0.00000E+00
    0.19943E-07         0.52106E-10         0.00000E+00
    0.19942E-07         0.47893E-10         0.00000E+00
    0.19942E-07         0.43508E-10         0.00000E+00
    0.19942E-07         0.38956E-10         0.00000E+00
    0.19942E-07         0.34242E-10         0.00000E+00
    0.19942E-07         0.29371E-10         0.00000E+00
    0.19942E-07         0.24350E-10         0.00000E+00
    0.19942E-07         0.19182E-10         0.00000E+00
    0.19942E-07         0.13873E-10         0.00000E+00
    0.19942E-07         0.84271E-11         0.00000E+00
    0.19942E-07         0.28492E-11         0.00000E+00
    0.20682E-07         0.46649E-11         0.00000E+00
    0.20682E-07         0.13584E-10         0.00000E+00
    0.20682E-07         0.21947E-10         0.00000E+00
    0.20682E-07         0.29767E-10         0.00000E+00
    0.20681E-07         0.37060E-10         0.00000E+00
    0.20681E-07         0.43837E-10         0.00000E+00
    0.20681E-07         0.50114E-10         0.00000E+00
    0.20681E-07         0.55903E-10         0.00000E+00
    0.20681E-07         0.61218E-10         0.00000E+00
    0.20680E-07         0.66072E-10         0.00000E+00
    0.20680E-07         0.70477E-10         0.00000E+00
    0.20680E-07         0.74446E-10         0.00000E+00
    0.20679E-07         0.77991E-10         0.00000E+00
    0.20679E-07         0.81124E-10         0.00000E+00
    0.20679E-07         0.83857E-10         0.00000E+00
    0.20679E-07         0.86201E-10         0.00000E+00
    0.20678E-07         0.88168E-10         0.00000E+00
    0.20678E-07         0.89769E-10         0.00000E+00
    0.20678E-07         0.91014E-10         0.00000E+00
    0.20678E-07         0.91915E-10         0.00000E+00
    0.20677E-07         0.92482E-10         0.00000E+00
    0.20677E-07         0.92724E-10         0.00000E+00
    0.20677E-07         0.92652E-10         0.00000E+00
    0.20677E-07         0.92276E-10         0.00000E+00
    0.20677E-07         0.91606E-10         0.00000E+00
    0.20677E-07         0.90649E-10         0.00000E+00
    0.20677E-07         0.89417E-10         0.00000E+00
    0.20677E-07         0.87917E-10         0.00000E+00
    0.20677E-07         0.86158E-10         0.00000E+00
    0.20677E-07         0.84149E-10         0.00000E+00
    0.20677E-07         0.81899E-10         0.00000E+00
    0.20677E-07         0.79414E-10         0.00000E+00
    0.20677E-07         0.76703E-10         0.00000E+00
    0.20677E-07         0.73774E-10         0.00000E+00
    0.20677E-07         0.70635E-10         0.00000E+00
    0.20677E-07         0.67292E-10         0.00000E+00
    0.20677E-07         0.63753E-10         0.00000E+00
    0.20677E-07         0.60025E-10         0.00000E+00
    0.20677E-07         0.56114E-10         0.00000E+00
    0.20677E-07         0.52027E-10         0.00000E+00
    0.20677E-07         0.47771E-10         0.00000E+00
    0.20677E-07         0.43351E-10         0.00000E+00
    0.20678E-07         0.38775E-10         0.00000E+00
    0.20678E-07         0.34047E-10         0.00000E+00
    0.20678E-07         0.29173E-10         0.00000E+00
    0.20678E-07         0.24160E-10         0.00000E+00
    0.20678E-07         0.19012E-10         0.00000E+00
    0.20678E-07         0.13735E-10         0.00000E+00
    0.20678E-07         0.83344E-11         0.00000E+00
    0.20678E-07         0.28142E-11         0.00000E+00
    0.21491E-07         0.47724E-11         0.00000E+00
    0.21491E-07         0.13883E-10         0.00000E+00
    0.21491E-07         0.22405E-10         0.00000E+00
    0.21491E-07         0.30356E-10         0.00000E+00
    0.21491E-07         0.37752E-10         0.00000E+00
    0.21491E-07         0.44607E-10         0.00000E+00
    0.21491E-07         0.50938E-10         0.00000E+00
    0.21490E-07         0.56760E-10         0.00000E+00
    0.21490E-07         0.62089E-10         0.00000E+00
    0.21490E-07         0.66937E-10         0.00000E+00
    0.21490E-07         0.71321E-10         0.00000E+00
    0.21490E-07         0.75253E-10         0.00000E+00
    0.21490E-07         0.78748E-10         0.00000E+00
    0.21490E-07         0.81820E-10         0.00000E+00
    0.21490E-07         0.84481E-10         0.00000E+00
    0.21490E-07         0.86745E-10         0.00000E+00
    0.21490E-07         0.88624E-10         0.00000E+00
    0.21490E-07         0.90130E-10         0.00000E+00
    0.21490E-07         0.91277E-10         0.00000E+00
    0.21491E-07         0.92075E-10         0.00000E+00
    0.21491E-07         0.92536E-10         0.00000E+00
    0.21491E-07         0.92672E-10         0.00000E+00
    0.21491E-07         0.92493E-10         0.00000E+00
    0.21491E-07         0.92011E-10         0.00000E+00
    0.21492E-07         0.91237E-10         0.00000E+00
    0.21492E-07         0.90179E-10         0.00000E+00
    0.21492E-07         0.88849E-10         0.00000E+00
    0.21492E-07         0.87256E-10         0.00000E+00
    0.21493E-07         0.85410E-10         0.00000E+00
    0.21493E-07         0.83320E-10         0.00000E+00
    0.21493E-07         0.80996E-10         0.00000E+00
    0.21494E-07         0.78446E-10         0.00000E+00
    0.21494E-07         0.75678E-10         0.00000E+00
    0.21494E-07         0.72701E-10         0.00000E+00
    0.21495E-07         0.69524E-10         0.00000E+00
    0.21495E-07         0.66155E-10         0.00000E+00
    0.21496E-07         0.62600E-10         0.00000E+00
    0.21496E-07         0.58868E-10         0.00000E+00
    0.21496E-07         0.54966E-10         0.00000E+00
    0.21497E-07         0.50901E-10         0.00000E+00
    0.21497E-07         0.46680E-10         0.00000E+00
    0.21497E-07         0.42309E-10         0.00000E+00
    0.21498E-07         0.37796E-10         0.00000E+00
    0.21498E-07         0.33147E-10         0.00000E+00
    0.21498E-07         0.28367E-10         0.00000E+00
    0.21498E-07         0.23463E-10         0.00000E+00
    0.21498E-07         0.18441E-10         0.00000E+00
    0.21499E-07         0.13306E-10         0.00000E+00
    0.21499E-07         0.80631E-11         0.00000E+00
    0.21499E-07         0.27183E-11         0.00000E+00
    0.22386E-07         0.48026E-11         0.00000E+00
    0.22386E-07         0.13954E-10         0.00000E+00
    0.22386E-07         0.22492E-10         0.00000E+00
    0.22386E-07         0.30436E-10         0.00000E+00
    0.22386E-07         0.37803E-10         0.00000E+00
    0.22386E-07         0.44611E-10         0.00000E+00
    0.22387E-07         0.50878E-10         0.00000E+00
    0.22387E-07         0.56621E-10         0.00000E+00
    0.22387E-07         0.61857E-10         0.00000E+00
    0.22387E-07         0.66602E-10         0.00000E+00
    0.22387E-07         0.70871E-10         0.00000E+00
    0.22387E-07         0.74681E-10         0.00000E+00
    0.22388E-07         0.78048E-10         0.00000E+00
    0.22388E-07         0.80986E-10         0.00000E+00
    0.22388E-07         0.83509E-10         0.00000E+00
    0.22389E-07         0.85633E-10         0.00000E+00
    0.22389E-07         0.87371E-10         0.00000E+00
    0.22390E-07         0.88737E-10         0.00000E+00
    0.22390E-07         0.89745E-10         0.00000E+00
    0.22391E-07         0.90407E-10         0.00000E+00
    0.22391E-07         0.90736E-10         0.00000E+00
    0.22392E-07         0.90745E-10         0.00000E+00
    0.22392E-07         0.90446E-10         0.00000E+00
    0.22393E-07         0.89851E-10         0.00000E+00
    0.22394E-07         0.88970E-10         0.00000E+00
    0.22394E-07         0.87816E-10         0.00000E+00
    0.22395E-07         0.86400E-10         0.00000E+00
    0.22396E-07         0.84732E-10         0.00000E+00
    0.22396E-07         0.82822E-10         0.00000E+00
    0.22397E-07         0.80680E-10         0.00000E+00
    0.22398E-07         0.78317E-10         0.00000E+00
    0.22399E-07         0.75742E-10         0.00000E+00
    0.22399E-07         0.72965E-10         0.00000E+00
    0.22400E-07         0.69993E-10         0.00000E+00
    0.22401E-07         0.66837E-10         0.00000E+00
    0.22401E-07         0.63504E-10         0.00000E+00
    0.22402E-07         0.60003E-10         0.00000E+00
    0.22403E-07         0.56343E-10         0.00000E+00
    0.22403E-07         0.52530E-10         0.00000E+00
    0.22404E-07         0.48572E-10         0.00000E+00
    0.22405E-07         0.44477E-10         0.00000E+00
    0.22405E-07         0.40252E-10         0.00000E+00
    0.22406E-07         0.35904E-10         0.00000E+00
    0.22406E-07         0.31439E-10         0.00000E+00
    0.22406E-07         0.26864E-10         0.00000E+00
    0.22407E-07         0.22186E-10         0.00000E+00
    0.22407E-07         0.17410E-10         0.00000E+00
    0.22407E-07         0.12542E-10         0.00000E+00
    0.22408E-07         0.75877E-11         0.00000E+00
    0.22408E-07         0.25530E-11         0.00000E+00
    0.23372E-07         0.47426E-11         0.00000E+00
    0.23372E-07         0.13760E-10         0.00000E+00
    0.23372E-07         0.22147E-10         0.00000E+00
    0.23372E-07         0.29924E-10         0.00000E+00
    0.23372E-07         0.37111E-10         0.00000E+00
    0.23372E-07         0.43728E-10         0.00000E+00
    0.23373E-07         0.49794E-10         0.00000E+00
    0.23373E-07         0.55329E-10         0.00000E+00
    0.23373E-07         0.60351E-10         0.00000E+00
    0.23374E-07         0.64878E-10         0.00000E+00
    0.23374E-07         0.68928E-10         0.00000E+00
    0.23375E-07         0.72519E-10         0.00000E+00
    0.23376E-07         0.75666E-10         0.00000E+00
    0.23376E-07         0.78388E-10         0.00000E+00
    0.23377E-07         0.80699E-10         0.00000E+00
    0.23378E-07         0.82616E-10         0.00000E+00
    0.23379E-07         0.84154E-10         0.00000E+00
    0.23380E-07         0.85328E-10         0.00000E+00
    0.23380E-07         0.86153E-10         0.00000E+00
    0.23381E-07         0.86642E-10         0.00000E+00
    0.23382E-07         0.86810E-10         0.00000E+00
    0.23383E-07         0.86670E-10         0.00000E+00
    0.23384E-07         0.86236E-10         0.00000E+00
    0.23386E-07         0.85520E-10         0.00000E+00
    0.23387E-07         0.84534E-10         0.00000E+00
    0.23388E-07         0.83291E-10         0.00000E+00
    0.23389E-07         0.81802E-10         0.00000E+00
    0.23390E-07         0.80079E-10         0.00000E+00
    0.23391E-07         0.78133E-10         0.00000E+00
    0.23392E-07         0.75974E-10         0.00000E+00
    0.23394E-07         0.73614E-10         0.00000E+00
    0.23395E-07         0.71063E-10         0.00000E+00
    0.23396E-07         0.68330E-10         0.00000E+00
    0.23397E-07         0.65424E-10         0.00000E+00
    0.23398E-07         0.62356E-10         0.00000E+00
    0.23399E-07         0.59134E-10         0.00000E+00
    0.23400E-07         0.55767E-10         0.00000E+00
    0.23401E-07         0.52264E-10         0.00000E+00
    0.23402E-07         0.48632E-10         0.00000E+00
    0.23403E-07         0.44880E-10         0.00000E+00
    0.23404E-07         0.41015E-10         0.00000E+00
    0.23405E-07         0.37044E-10         0.00000E+00
    0.23405E-07         0.32976E-10         0.00000E+00
    0.23406E-07         0.28817E-10         0.00000E+00
    0.23407E-07         0.24573E-10         0.00000E+00
    0.23407E-07         0.20252E-10         0.00000E+00
    0.23408E-07         0.15859E-10         0.00000E+00
    0.23408E-07         0.11400E-10         0.00000E+00
    0.23408E-07         0.68816E-11         0.00000E+00
    0.23408E-07         0.23092E-11         0.00000E+00
    0.24451E-07         0.45788E-11         0.00000E+00
    0.24451E-07         0.13261E-10         0.00000E+00
    0.24451E-07         0.21304E-10         0.00000E+00
    0.24451E-07         0.28731E-10         0.00000E+00
    0.24452E-07         0.35564E-10         0.00000E+00
    0.24452E-07         0.41825E-10         0.00000E+00
    0.24453E-07         0.47535E-10         0.00000E+00
    0.24453E-07         0.52715E-10         0.00000E+00
    0.24454E-07         0.57386E-10         0.00000E+00
    0.24455E-07         0.61567E-10         0.00000E+00
    0.24456E-07         0.65278E-10         0.00000E+00
    0.24457E-07         0.68538E-10         0.00000E+00
    0.24458E-07         0.71366E-10         0.00000E+00
    0.24459E-07         0.73778E-10         0.00000E+00
    0.24460E-07         0.75794E-10         0.00000E+00
    0.24461E-07         0.77429E-10         0.00000E+00
    0.24462E-07         0.78701E-10         0.00000E+00
    0.24464E-07         0.79626E-10         0.00000E+00
    0.24465E-07         0.80219E-10         0.00000E+00
    0.24467E-07         0.80495E-10         0.00000E+00
    0.24468E-07         0.80470E-10         0.00000E+00
    0.24470E-07         0.80158E-10         0.00000E+00
    0.24471E-07         0.79574E-10         0.00000E+00
    0.24473E-07         0.78730E-10         0.00000E+00
    0.24474E-07         0.77640E-10         0.00000E+00
    0.24476E-07         0.76316E-10         0.00000E+00
    0.24478E-07         0.74772E-10         0.00000E+00
    0.24479E-07         0.73020E-10         0.00000E+00
    0.24481E-07         0.71071E-10         0.00000E+00
    0.24483E-07         0.68936E-10         0.00000E+00
    0.24484E-07         0.66627E-10         0.00000E+00
    0.24486E-07         0.64154E-10         0.00000E+00
    0.24488E-07         0.61528E-10         0.00000E+00
    0.24489E-07         0.58759E-10         0.00000E+00
    0.24491E-07         0.55855E-10         0.00000E+00
    0.24492E-07         0.52828E-10         0.00000E+00
    0.24494E-07         0.49686E-10         0.00000E+00
    0.24495E-07         0.46437E-10         0.00000E+00
    0.24496E-07         0.43091E-10         0.00000E+00
    0.24498E-07         0.39655E-10         0.00000E+00
    0.24499E-07         0.36137E-10         0.00000E+00
    0.24500E-07         0.32545E-10         0.00000E+00
    0.24501E-07         0.28887E-10         0.00000E+00
    0.24502E-07         0.25169E-10         0.00000E+00
    0.24503E-07         0.21398E-10         0.00000E+00
    0.24503E-07         0.17581E-10         0.00000E+00
    0.24504E-07         0.13725E-10         0.00000E+00
    0.24504E-07         0.98349E-11         0.00000E+00
    0.24504E-07         0.59173E-11         0.00000E+00
    0.24505E-07         0.19777E-11         0.00000E+00
    0.25628E-07         0.42963E-11         0.00000E+00
    0.25628E-07         0.12414E-10         0.00000E+00
    0.25628E-07         0.19894E-10         0.00000E+00
    0.25628E-07         0.26763E-10         0.00000E+00
    0.25629E-07         0.33044E-10         0.00000E+00
    0.25630E-07         0.38762E-10         0.00000E+00
    0.25630E-07         0.43939E-10         0.00000E+00
    0.25631E-07         0.48599E-10         0.00000E+00
    0.25632E-07         0.52764E-10         0.00000E+00
    0.25634E-07         0.56455E-10         0.00000E+00
    0.25635E-07         0.59694E-10         0.00000E+00
    0.25636E-07         0.62500E-10         0.00000E+00
    0.25638E-07         0.64894E-10         0.00000E+00
    0.25639E-07         0.66895E-10         0.00000E+00
    0.25641E-07         0.68522E-10         0.00000E+00
    0.25643E-07         0.69793E-10         0.00000E+00
    0.25645E-07         0.70726E-10         0.00000E+00
    0.25646E-07         0.71338E-10         0.00000E+00
    0.25648E-07         0.71646E-10         0.00000E+00
    0.25650E-07         0.71667E-10         0.00000E+00
    0.25652E-07         0.71415E-10         0.00000E+00
    0.25655E-07         0.70907E-10         0.00000E+00
    0.25657E-07         0.70157E-10         0.00000E+00
    0.25659E-07         0.69179E-10         0.00000E+00
    0.25661E-07         0.67988E-10         0.00000E+00
    0.25663E-07         0.66597E-10         0.00000E+00
    0.25666E-07         0.65019E-10         0.00000E+00
    0.25668E-07         0.63267E-10         0.00000E+00
    0.25670E-07         0.61352E-10         0.00000E+00
    0.25672E-07         0.59288E-10         0.00000E+00
    0.25674E-07         0.57085E-10         0.00000E+00
    0.25677E-07         0.54754E-10         0.00000E+00
    0.25679E-07         0.52307E-10         0.00000E+00
    0.25681E-07         0.49752E-10         0.00000E+00
    0.25683E-07         0.47102E-10         0.00000E+00
    0.25685E-07         0.44364E-10         0.00000E+00
    0.25687E-07         0.41548E-10         0.00000E+00
    0.25688E-07         0.38664E-10         0.00000E+00
    0.25690E-07         0.35720E-10         0.00000E+00
    0.25692E-07         0.32725E-10         0.00000E+00
    0.25693E-07         0.29685E-10         0.00000E+00
    0.25695E-07         0.26610E-10         0.00000E+00
    0.25696E-07         0.23506E-10         0.00000E+00
    0.25697E-07         0.20381E-10         0.00000E+00
    0.25698E-07         0.17241E-10         0.00000E+00
    0.25699E-07         0.14094E-10         0.00000E+00
    0.25700E-07         0.10945E-10         0.00000E+00
    0.25700E-07         0.78008E-11         0.00000E+00
    0.25701E-07         0.46668E-11         0.00000E+00
    0.25701E-07         0.15489E-11         0.00000E+00
    0.26906E-07         0.38793E-11         0.00000E+00
    0.26907E-07         0.11172E-10         0.00000E+00
    0.26907E-07         0.17843E-10         0.00000E+00
    0.26908E-07         0.23919E-10         0.00000E+00
    0.26908E-07         0.29426E-10         0.00000E+00
    0.26909E-07         0.34391E-10         0.00000E+00
    0.26910E-07         0.38838E-10         0.00000E+00
    0.26912E-07         0.42793E-10         0.00000E+00
    0.26913E-07         0.46279E-10         0.00000E+00
    0.26915E-07         0.49319E-10         0.00000E+00
    0.26916E-07         0.51936E-10         0.00000E+00
    0.26918E-07         0.54152E-10         0.00000E+00
    0.26920E-07         0.55987E-10         0.00000E+00
    0.26922E-07         0.57463E-10         0.00000E+00
    0.26924E-07         0.58600E-10         0.00000E+00
    0.26927E-07         0.59416E-10         0.00000E+00
    0.26929E-07         0.59931E-10         0.00000E+00
    0.26932E-07         0.60163E-10         0.00000E+00
    0.26934E-07         0.60129E-10         0.00000E+00
    0.26937E-07         0.59847E-10         0.00000E+00
    0.26940E-07         0.59333E-10         0.00000E+00
    0.26942E-07         0.58603E-10         0.00000E+00
    0.26945E-07         0.57672E-10         0.00000E+00
    0.26948E-07         0.56557E-10         0.00000E+00
    0.26951E-07         0.55270E-10         0.00000E+00
    0.26954E-07         0.53827E-10         0.00000E+00
    0.26957E-07         0.52240E-10         0.00000E+00
    0.26959E-07         0.50523E-10         0.00000E+00
    0.26962E-07         0.48688E-10         0.00000E+00
    0.26965E-07         0.46747E-10         0.00000E+00
    0.26968E-07         0.44713E-10         0.00000E+00
    0.26971E-07         0.42596E-10         0.00000E+00
    0.26973E-07         0.40407E-10         0.00000E+00
    0.26976E-07         0.38157E-10         0.00000E+00
    0.26979E-07         0.35856E-10         0.00000E+00
    0.26981E-07         0.33514E-10         0.00000E+00
    0.26983E-07         0.31140E-10         0.00000E+00
    0.26986E-07         0.28743E-10         0.00000E+00
    0.26988E-07         0.26331E-10         0.00000E+00
    0.26990E-07         0.23914E-10         0.00000E+00
    0.26992E-07         0.21498E-10         0.00000E+00
    0.26993E-07         0.19092E-10         0.00000E+00
    0.26995E-07         0.16704E-10         0.00000E+00
    0.26996E-07         0.14339E-10         0.00000E+00
    0.26998E-07         0.12005E-10         0.00000E+00
    0.26999E-07         0.97081E-11         0.00000E+00
    0.27000E-07         0.74548E-11         0.00000E+00
    0.27000E-07         0.52509E-11         0.00000E+00
    0.27001E-07         0.31020E-11         0.00000E+00
    0.27001E-07         0.10134E-11         0.00000E+00
    0.28292E-07         0.33113E-11         0.00000E+00
    0.28292E-07         0.94884E-11         0.00000E+00
    0.28292E-07         0.15072E-10         0.00000E+00
    0.28293E-07         0.20093E-10         0.00000E+00
    0.28294E-07         0.24579E-10         0.00000E+00
    0.28295E-07         0.28558E-10         0.00000E+00
    0.28297E-07         0.32056E-10         0.00000E+00
    0.28298E-07         0.35100E-10         0.00000E+00
    0.28300E-07         0.37716E-10         0.00000E+00
    0.28302E-07         0.39928E-10         0.00000E+00
    0.28304E-07         0.41760E-10         0.00000E+00
    0.28307E-07         0.43234E-10         0.00000E+00
    0.28309E-07         0.44374E-10         0.00000E+00
    0.28312E-07         0.45201E-10         0.00000E+00
    0.28315E-07         0.45736E-10         0.00000E+00
    0.28318E-07         0.45999E-10         0.00000E+00
    0.28321E-07         0.46010E-10         0.00000E+00
    0.28324E-07         0.45788E-10         0.00000E+00
    0.28327E-07         0.45352E-10         0.00000E+00
    0.28331E-07         0.44718E-10         0.00000E+00
    0.28334E-07         0.43904E-10         0.00000E+00
    0.28337E-07         0.42927E-10         0.00000E+00
    0.28341E-07         0.41803E-10         0.00000E+00
    0.28344E-07         0.40546E-10         0.00000E+00
    0.28348E-07         0.39173E-10         0.00000E+00
    0.28352E-07         0.37696E-10         0.00000E+00
    0.28355E-07         0.36130E-10         0.00000E+00
    0.28359E-07         0.34488E-10         0.00000E+00
    0.28362E-07         0.32783E-10         0.00000E+00
    0.28366E-07         0.31027E-10         0.00000E+00
    0.28369E-07         0.29232E-10         0.00000E+00
    0.28373E-07         0.27409E-10         0.00000E+00
    0.28376E-07         0.25569E-10         0.00000E+00
    0.28379E-07         0.23723E-10         0.00000E+00
    0.28382E-07         0.21881E-10         0.00000E+00
    0.28385E-07         0.20051E-10         0.00000E+00
    0.28388E-07         0.18245E-10         0.00000E+00
    0.28391E-07         0.16469E-10         0.00000E+00
    0.28394E-07         0.14734E-10         0.00000E+00
    0.28396E-07         0.13047E-10         0.00000E+00
    0.28398E-07         0.11415E-10         0.00000E+00
    0.28400E-07         0.98466E-11         0.00000E+00
    0.28402E-07         0.83485E-11         0.00000E+00
    0.28404E-07         0.69275E-11         0.00000E+00
    0.28406E-07         0.55901E-11         0.00000E+00
    0.28407E-07         0.43424E-11         0.00000E+00
    0.28408E-07         0.31902E-11         0.00000E+00
    0.28409E-07         0.21392E-11         0.00000E+00
    0.28409E-07         0.11947E-11         0.00000E+00
    0.28410E-07         0.36167E-12         0.00000E+00
    0.29787E-07         0.25751E-11         0.00000E+00
    0.29788E-07         0.73120E-11         0.00000E+00
    0.29788E-07         0.11502E-10         0.00000E+00
    0.29789E-07         0.15177E-10         0.00000E+00
    0.29790E-07         0.18368E-10         0.00000E+00
    0.29792E-07         0.21103E-10         0.00000E+00
    0.29794E-07         0.23411E-10         0.00000E+00
    0.29796E-07         0.25320E-10         0.00000E+00
    0.29798E-07         0.26856E-10         0.00000E+00
    0.29801E-07         0.28045E-10         0.00000E+00
    0.29803E-07         0.28913E-10         0.00000E+00
    0.29806E-07         0.29483E-10         0.00000E+00
    0.29809E-07         0.29778E-10         0.00000E+00
    0.29813E-07         0.29822E-10         0.00000E+00
    0.29816E-07         0.29636E-10         0.00000E+00
    0.29820E-07         0.29241E-10         0.00000E+00
    0.29824E-07         0.28657E-10         0.00000E+00
    0.29828E-07         0.27903E-10         0.00000E+00
    0.29832E-07         0.26999E-10         0.00000E+00
    0.29836E-07         0.25963E-10         0.00000E+00
    0.29840E-07         0.24812E-10         0.00000E+00
    0.29844E-07         0.23562E-10         0.00000E+00
    0.29848E-07         0.22231E-10         0.00000E+00
    0.29853E-07         0.20833E-10         0.00000E+00
    0.29857E-07         0.19383E-10         0.00000E+00
    0.29861E-07         0.17897E-10         0.00000E+00
    0.29866E-07         0.16387E-10         0.00000E+00
    0.29870E-07         0.14866E-10         0.00000E+00
    0.29874E-07         0.13349E-10         0.00000E+00
    0.29878E-07         0.11846E-10         0.00000E+00
    0.29883E-07         0.10369E-10         0.00000E+00
    0.29887E-07         0.89293E-11         0.00000E+00
    0.29891E-07         0.75381E-11         0.00000E+00
    0.29895E-07         0.62053E-11         0.00000E+00
    0.29898E-07         0.49407E-11         0.00000E+00
    0.29902E-07         0.37536E-11         0.00000E+00
    0.29905E-07         0.26529E-11         0.00000E+00
    0.29909E-07         0.16472E-11         0.00000E+00
    0.29912E-07         0.74466E-12         0.00000E+00
    0.29915E-07        -0.47098E-13         0.00000E+00
    0.29918E-07        -0.72064E-12         0.00000E+00
    0.29920E-07        -0.12690E-11         0.00000E+00
    0.29922E-07        -0.16854E-11         0.00000E+00
    0.29924E-07        -0.19636E-11         0.00000E+00
    0.29926E-07        -0.20976E-11         0.00000E+00
    0.29928E-07        -0.20817E-11         0.00000E+00
    0.29929E-07        -0.19104E-11         0.00000E+00
    0.29930E-07        -0.15788E-11         0.00000E+00
    0.29931E-07        -0.10819E-11         0.00000E+00
    0.29931E-07        -0.41538E-12         0.00000E+00
    0.31398E-07         0.16532E-11         0.00000E+00
    0.31399E-07         0.45927E-11         0.00000E+00
    0.31399E-07         0.70514E-11         0.00000E+00
    0.31401E-07         0.90622E-11         0.00000E+00
    0.31402E-07         0.10657E-10         0.00000E+00
    0.31404E-07         0.11867E-10         0.00000E+00
    0.31406E-07         0.12721E-10         0.00000E+00
    0.31409E-07         0.13249E-10         0.00000E+00
    0.31411E-07         0.13478E-10         0.00000E+00
    0.31414E-07         0.13435E-10         0.00000E+00
    0.31418E-07         0.13146E-10         0.00000E+00
    0.31421E-07         0.12635E-10         0.00000E+00
    0.31425E-07         0.11927E-10         0.00000E+00
    0.31429E-07         0.11044E-10         0.00000E+00
    0.31433E-07         0.10009E-10         0.00000E+00
    0.31438E-07         0.88432E-11         0.00000E+00
    0.31442E-07         0.75672E-11         0.00000E+00
    0.31447E-07         0.62007E-11         0.00000E+00
    0.31452E-07         0.47626E-11         0.00000E+00
    0.31457E-07         0.32711E-11         0.00000E+00
    0.31462E-07         0.17438E-11         0.00000E+00
    0.31467E-07         0.19736E-12         0.00000E+00
    0.31472E-07        -0.13521E-11         0.00000E+00
    0.31477E-07        -0.28892E-11         0.00000E+00
    0.31482E-07        -0.43991E-11         0.00000E+00
    0.31487E-07        -0.58678E-11         0.00000E+00
    0.31492E-07        -0.72817E-11         0.00000E+00
    0.31498E-07        -0.86280E-11         0.00000E+00
    0.31503E-07        -0.98941E-11         0.00000E+00
    0.31508E-07        -0.11068E-10         0.00000E+00
    0.31513E-07        -0.12140E-10         0.00000E+00
    0.31517E-07        -0.13097E-10         0.00000E+00
    0.31522E-07        -0.13930E-10         0.00000E+00
    0.31527E-07        -0.14630E-10         0.00000E+00
    0.31531E-07        -0.15186E-10         0.00000E+00
    0.31535E-07        -0.15591E-10         0.00000E+00
    0.31539E-07        -0.15835E-10         0.00000E+00
    0.31543E-07        -0.15911E-10         0.00000E+00
    0.31547E-07        -0.15811E-10         0.00000E+00
    0.31551E-07        -0.15529E-10         0.00000E+00
    0.31554E-07        -0.15056E-10         0.00000E+00
    0.31557E-07        -0.14388E-10         0.00000E+00
    0.31559E-07        -0.13517E-10         0.00000E+00
    0.31562E-07        -0.12439E-10         0.00000E+00
    0.31564E-07        -0.11147E-10         0.00000E+00
    0.31566E-07        -0.96376E-11         0.00000E+00
    0.31567E-07        -0.79049E-11         0.00000E+00
    0.31568E-07        -0.59448E-11         0.00000E+00
    0.31569E-07        -0.37532E-11         0.00000E+00
    0.31569E-07        -0.13263E-11         0.00000E+00
    0.33129E-07         0.52823E-12         0.00000E+00
    0.33129E-07         0.12803E-11         0.00000E+00
    0.33130E-07         0.16392E-11         0.00000E+00
    0.33131E-07         0.16392E-11         0.00000E+00
    0.33133E-07         0.13133E-11         0.00000E+00
    0.33135E-07         0.69333E-12         0.00000E+00
    0.33138E-07        -0.19000E-12         0.00000E+00
    0.33141E-07        -0.13072E-11         0.00000E+00
    0.33144E-07        -0.26299E-11         0.00000E+00
    0.33148E-07        -0.41307E-11         0.00000E+00
    0.33152E-07        -0.57834E-11         0.00000E+00
    0.33156E-07        -0.75628E-11         0.00000E+00
    0.33161E-07        -0.94446E-11         0.00000E+00
    0.33166E-07        -0.11406E-10         0.00000E+00
    0.33171E-07        -0.13424E-10         0.00000E+00
    0.33176E-07        -0.15477E-10         0.00000E+00
    0.33181E-07        -0.17546E-10         0.00000E+00
    0.33187E-07        -0.19610E-10         0.00000E+00
    0.33192E-07        -0.21651E-10         0.00000E+00
    0.33198E-07        -0.23651E-10         0.00000E+00
    0.33204E-07        -0.25592E-10         0.00000E+00
    0.33210E-07        -0.27459E-10         0.00000E+00
    0.33216E-07        -0.29235E-10         0.00000E+00
    0.33222E-07        -0.30906E-10         0.00000E+00
    0.33228E-07        -0.32457E-10         0.00000E+00
    0.33234E-07        -0.33875E-10         0.00000E+00
    0.33240E-07        -0.35147E-10         0.00000E+00
    0.33246E-07        -0.36260E-10         0.00000E+00
    0.33252E-07        -0.37203E-10         0.00000E+00
    0.33258E-07        -0.37965E-10         0.00000E+00
    0.33263E-07        -0.38535E-10         0.00000E+00
    0.33269E-07        -0.38903E-10         0.00000E+00
    0.33275E-07        -0.39060E-10         0.00000E+00
    0.33280E-07        -0.38996E-10         0.00000E+00
    0.33285E-07        -0.38704E-10         0.00000E+00
    0.33290E-07        -0.38175E-10         0.00000E+00
    0.33295E-07        -0.37401E-10         0.00000E+00
    0.33299E-07        -0.36376E-10         0.00000E+00
    0.33303E-07        -0.35092E-10         0.00000E+00
    0.33307E-07        -0.33544E-10         0.00000E+00
    0.33311E-07        -0.31725E-10         0.00000E+00
    0.33315E-07        -0.29631E-10         0.00000E+00
    0.33318E-07        -0.27254E-10         0.00000E+00
    0.33320E-07        -0.24592E-10         0.00000E+00
    0.33323E-07        -0.21639E-10         0.00000E+00
    0.33325E-07        -0.18391E-10         0.00000E+00
    0.33327E-07        -0.14845E-10         0.00000E+00
    0.33328E-07        -0.10996E-10         0.00000E+00
    0.33329E-07        -0.68416E-11         0.00000E+00
    0.33329E-07        -0.23785E-11         0.00000E+00
    0.34983E-07        -0.81646E-12         0.00000E+00
    0.34983E-07        -0.26732E-11         0.00000E+00
    0.34984E-07        -0.48110E-11         0.00000E+00
    0.34986E-07        -0.71947E-11         0.00000E+00
    0.34988E-07        -0.97906E-11         0.00000E+00
    0.34991E-07        -0.12566E-10         0.00000E+00
    0.34994E-07        -0.15491E-10         0.00000E+00
    0.34997E-07        -0.18535E-10         0.00000E+00
    0.35001E-07        -0.21669E-10         0.00000E+00
    0.35006E-07        -0.24866E-10         0.00000E+00
    0.35010E-07        -0.28099E-10         0.00000E+00
    0.35015E-07        -0.31345E-10         0.00000E+00
    0.35020E-07        -0.34578E-10         0.00000E+00
    0.35026E-07        -0.37777E-10         0.00000E+00
    0.35032E-07        -0.40918E-10         0.00000E+00
    0.35038E-07        -0.43981E-10         0.00000E+00
    0.35044E-07        -0.46946E-10         0.00000E+00
    0.35050E-07        -0.49794E-10         0.00000E+00
    0.35057E-07        -0.52507E-10         0.00000E+00
    0.35064E-07        -0.55068E-10         0.00000E+00
    0.35071E-07        -0.57460E-10         0.00000E+00
    0.35077E-07        -0.59667E-10         0.00000E+00
    0.35084E-07        -0.61676E-10         0.00000E+00
    0.35091E-07        -0.63471E-10         0.00000E+00
    0.35098E-07        -0.65039E-10         0.00000E+00
    0.35105E-07        -0.66368E-10         0.00000E+00
    0.35112E-07        -0.67445E-10         0.00000E+00
    0.35119E-07        -0.68260E-10         0.00000E+00
    0.35126E-07        -0.68802E-10         0.00000E+00
    0.35133E-07        -0.69060E-10         0.00000E+00
    0.35139E-07        -0.69026E-10         0.00000E+00
    0.35146E-07        -0.68689E-10         0.00000E+00
    0.35152E-07        -0.68042E-10         0.00000E+00
    0.35158E-07        -0.67076E-10         0.00000E+00
    0.35164E-07        -0.65785E-10         0.00000E+00
    0.35170E-07        -0.64161E-10         0.00000E+00
    0.35175E-07        -0.62198E-10         0.00000E+00
    0.35180E-07        -0.59890E-10         0.00000E+00
    0.35185E-07        -0.57231E-10         0.00000E+00
    0.35190E-07        -0.54215E-10         0.00000E+00
    0.35194E-07        -0.50839E-10         0.00000E+00
    0.35198E-07        -0.47097E-10         0.00000E+00
    0.35201E-07        -0.42986E-10         0.00000E+00
    0.35204E-07        -0.38501E-10         0.00000E+00
    0.35207E-07        -0.33639E-10         0.00000E+00
    0.35209E-07        -0.28397E-10         0.00000E+00
    0.35211E-07        -0.22773E-10         0.00000E+00
    0.35213E-07        -0.16763E-10         0.00000E+00
    0.35214E-07        -0.10366E-10         0.00000E+00
    0.35214E-07        -0.35784E-11         0.00000E+00
    0.36964E-07        -0.23963E-11         0.00000E+00
    0.36965E-07        -0.73122E-11         0.00000E+00
    0.36966E-07        -0.12370E-10         0.00000E+00
    0.36968E-07        -0.17533E-10         0.00000E+00
    0.36971E-07        -0.22769E-10         0.00000E+00
    0.36974E-07        -0.28046E-10         0.00000E+00
    0.36978E-07        -0.33332E-10         0.00000E+00
    0.36982E-07        -0.38598E-10         0.00000E+00
    0.36986E-07        -0.43815E-10         0.00000E+00
    0.36991E-07        -0.48958E-10         0.00000E+00
    0.36996E-07        -0.54000E-10         0.00000E+00
    0.37002E-07        -0.58917E-10         0.00000E+00
    0.37008E-07        -0.63686E-10         0.00000E+00
    0.37015E-07        -0.68285E-10         0.00000E+00
    0.37021E-07        -0.72692E-10         0.00000E+00
    0.37028E-07        -0.76889E-10         0.00000E+00
    0.37035E-07        -0.80855E-10         0.00000E+00
    0.37043E-07        -0.84574E-10         0.00000E+00
    0.37050E-07        -0.88027E-10         0.00000E+00
    0.37058E-07        -0.91200E-10         0.00000E+00
    0.37066E-07        -0.94076E-10         0.00000E+00
    0.37073E-07        -0.96642E-10         0.00000E+00
    0.37081E-07        -0.98885E-10         0.00000E+00
    0.37089E-07        -0.10079E-09         0.00000E+00
    0.37097E-07        -0.10235E-09         0.00000E+00
    0.37105E-07        -0.10354E-09         0.00000E+00
    0.37113E-07        -0.10437E-09         0.00000E+00
    0.37121E-07        -0.10481E-09         0.00000E+00
    0.37129E-07        -0.10487E-09         0.00000E+00
    0.37136E-07        -0.10453E-09         0.00000E+00
    0.37144E-07        -0.10377E-09         0.00000E+00
    0.37151E-07        -0.10261E-09         0.00000E+00
    0.37158E-07        -0.10102E-09         0.00000E+00
    0.37165E-07        -0.99010E-10         0.00000E+00
    0.37172E-07        -0.96562E-10         0.00000E+00
    0.37178E-07        -0.93675E-10         0.00000E+00
    0.37184E-07        -0.90343E-10         0.00000E+00
    0.37190E-07        -0.86561E-10         0.00000E+00
    0.37195E-07        -0.82326E-10         0.00000E+00
    0.37200E-07        -0.77633E-10         0.00000E+00
    0.37205E-07        -0.72479E-10         0.00000E+00
    0.37210E-07        -0.66861E-10         0.00000E+00
    0.37214E-07        -0.60776E-10         0.00000E+00
    0.37217E-07        -0.54221E-10         0.00000E+00
    0.37220E-07        -0.47195E-10         0.00000E+00
    0.37223E-07        -0.39695E-10         0.00000E+00
    0.37225E-07        -0.31720E-10         0.00000E+00
    0.37227E-07        -0.23268E-10         0.00000E+00
    0.37228E-07        -0.14338E-10         0.00000E+00
    0.37228E-07        -0.49302E-11         0.00000E+00
    0.39078E-07        -0.42246E-11         0.00000E+00
    0.39078E-07        -0.12674E-10         0.00000E+00
    0.39080E-07        -0.21096E-10         0.00000E+00
    0.39082E-07        -0.29456E-10         0.00000E+00
    0.39085E-07        -0.37719E-10         0.00000E+00
    0.39088E-07        -0.45856E-10         0.00000E+00
    0.39093E-07        -0.53836E-10         0.00000E+00
    0.39097E-07        -0.61631E-10         0.00000E+00
    0.39102E-07        -0.69214E-10         0.00000E+00
    0.39108E-07        -0.76559E-10         0.00000E+00
    0.39114E-07        -0.83642E-10         0.00000E+00
    0.39121E-07        -0.90440E-10         0.00000E+00
    0.39128E-07        -0.96932E-10         0.00000E+00
    0.39135E-07        -0.10310E-09         0.00000E+00
    0.39142E-07        -0.10891E-09         0.00000E+00
    0.39150E-07        -0.11437E-09         0.00000E+00
    0.39158E-07        -0.11944E-09         0.00000E+00
    0.39166E-07        -0.12411E-09         0.00000E+00
    0.39175E-07        -0.12837E-09         0.00000E+00
    0.39184E-07        -0.13220E-09         0.00000E+00
    0.39192E-07        -0.13560E-09         0.00000E+00
    0.39201E-07        -0.13853E-09         0.00000E+00
    0.39210E-07        -0.14101E-09         0.00000E+00
    0.39219E-07        -0.14300E-09         0.00000E+00
    0.39228E-07        -0.14451E-09         0.00000E+00
    0.39237E-07        -0.14553E-09         0.00000E+00
    0.39246E-07        -0.14604E-09         0.00000E+00
    0.39254E-07        -0.14604E-09         0.00000E+00
    0.39263E-07        -0.14551E-09         0.00000E+00
    0.39272E-07        -0.14447E-09         0.00000E+00
    0.39280E-07        -0.14288E-09         0.00000E+00
    0.39288E-07        -0.14076E-09         0.00000E+00
    0.39296E-07        -0.13809E-09         0.00000E+00
    0.39304E-07        -0.13488E-09         0.00000E+00
    0.39311E-07        -0.13111E-09         0.00000E+00
    0.39318E-07        -0.12678E-09         0.00000E+00
    0.39325E-07        -0.12190E-09         0.00000E+00
    0.39332E-07        -0.11645E-09         0.00000E+00
    0.39338E-07        -0.11043E-09         0.00000E+00
    0.39343E-07        -0.10385E-09         0.00000E+00
    0.39349E-07        -0.96689E-10         0.00000E+00
    0.39354E-07        -0.88960E-10         0.00000E+00
    0.39358E-07        -0.80658E-10         0.00000E+00
    0.39362E-07        -0.71782E-10         0.00000E+00
    0.39365E-07        -0.62330E-10         0.00000E+00
    0.39368E-07        -0.52302E-10         0.00000E+00
    0.39371E-07        -0.41699E-10         0.00000E+00
    0.39373E-07        -0.30520E-10         0.00000E+00
    0.39374E-07        -0.18765E-10         0.00000E+00
    0.39374E-07        -0.64359E-11         0.00000E+00
    0.41325E-07        -0.63117E-11         0.00000E+00
    0.41326E-07        -0.18789E-10         0.00000E+00
    0.41328E-07        -0.31036E-10         0.00000E+00
    0.41330E-07        -0.43020E-10         0.00000E+00
    0.41334E-07        -0.54710E-10         0.00000E+00
    0.41337E-07        -0.66076E-10         0.00000E+00
    0.41342E-07        -0.77091E-10         0.00000E+00
    0.41347E-07        -0.87727E-10         0.00000E+00
    0.41353E-07        -0.97960E-10         0.00000E+00
    0.41359E-07        -0.10777E-09         0.00000E+00
    0.41366E-07        -0.11713E-09         0.00000E+00
    0.41374E-07        -0.12601E-09         0.00000E+00
    0.41381E-07        -0.13442E-09         0.00000E+00
    0.41389E-07        -0.14231E-09         0.00000E+00
    0.41398E-07        -0.14968E-09         0.00000E+00
    0.41407E-07        -0.15651E-09         0.00000E+00
    0.41416E-07        -0.16279E-09         0.00000E+00
    0.41425E-07        -0.16850E-09         0.00000E+00
    0.41434E-07        -0.17362E-09         0.00000E+00
    0.41444E-07        -0.17816E-09         0.00000E+00
    0.41454E-07        -0.18209E-09         0.00000E+00
    0.41464E-07        -0.18541E-09         0.00000E+00
    0.41473E-07        -0.18810E-09         0.00000E+00
    0.41483E-07        -0.19017E-09         0.00000E+00
    0.41493E-07        -0.19159E-09         0.00000E+00
    0.41503E-07        -0.19237E-09         0.00000E+00
    0.41513E-07        -0.19250E-09         0.00000E+00
    0.41523E-07        -0.19196E-09         0.00000E+00
    0.41532E-07        -0.19077E-09         0.00000E+00
    0.41542E-07        -0.18890E-09         0.00000E+00
    0.41551E-07        -0.18637E-09         0.00000E+00
    0.41560E-07        -0.18315E-09         0.00000E+00
    0.41569E-07        -0.17926E-09         0.00000E+00
    0.41577E-07        -0.17469E-09         0.00000E+00
    0.41585E-07        -0.16943E-09         0.00000E+00
    0.41593E-07        -0.16349E-09         0.00000E+00
    0.41601E-07        -0.15686E-09         0.00000E+00
    0.41608E-07        -0.14955E-09         0.00000E+00
    0.41615E-07        -0.14154E-09         0.00000E+00
    0.41621E-07        -0.13284E-09         0.00000E+00
    0.41627E-07        -0.12346E-09         0.00000E+00
    0.41632E-07        -0.11339E-09         0.00000E+00
    0.41637E-07        -0.10262E-09         0.00000E+00
    0.41641E-07        -0.91173E-10         0.00000E+00
    0.41645E-07        -0.79036E-10         0.00000E+00
    0.41648E-07        -0.66213E-10         0.00000E+00
    0.41651E-07        -0.52706E-10         0.00000E+00
    0.41653E-07        -0.38515E-10         0.00000E+00
    0.41654E-07        -0.23644E-10         0.00000E+00
    0.41655E-07        -0.80945E-11         0.00000E+00
    0.43710E-07        -0.86635E-11         0.00000E+00
    0.43711E-07        -0.25672E-10         0.00000E+00
    0.43713E-07        -0.42213E-10         0.00000E+00
    0.43715E-07        -0.58257E-10         0.00000E+00
    0.43719E-07        -0.73776E-10         0.00000E+00
    0.43723E-07        -0.88742E-10         0.00000E+00
    0.43728E-07        -0.10313E-09         0.00000E+00
    0.43734E-07        -0.11692E-09         0.00000E+00
    0.43741E-07        -0.13009E-09         0.00000E+00
    0.43748E-07        -0.14261E-09         0.00000E+00
    0.43755E-07        -0.15448E-09         0.00000E+00
    0.43764E-07        -0.16566E-09         0.00000E+00
    0.43772E-07        -0.17615E-09         0.00000E+00
    0.43781E-07        -0.18593E-09         0.00000E+00
    0.43790E-07        -0.19499E-09         0.00000E+00
    0.43800E-07        -0.20331E-09         0.00000E+00
    0.43810E-07        -0.21089E-09         0.00000E+00
    0.43820E-07        -0.21771E-09         0.00000E+00
    0.43831E-07        -0.22375E-09         0.00000E+00
    0.43841E-07        -0.22903E-09         0.00000E+00
    0.43852E-07        -0.23352E-09         0.00000E+00
    0.43863E-07        -0.23722E-09         0.00000E+00
    0.43874E-07        -0.24012E-09         0.00000E+00
    0.43884E-07        -0.24222E-09         0.00000E+00
    0.43895E-07        -0.24351E-09         0.00000E+00
    0.43906E-07        -0.24400E-09         0.00000E+00
    0.43917E-07        -0.24367E-09         0.00000E+00
    0.43928E-07        -0.24252E-09         0.00000E+00
    0.43938E-07        -0.24055E-09         0.00000E+00
    0.43948E-07        -0.23776E-09         0.00000E+00
    0.43958E-07        -0.23414E-09         0.00000E+00
    0.43968E-07        -0.22971E-09         0.00000E+00
    0.43978E-07        -0.22444E-09         0.00000E+00
    0.43987E-07        -0.21836E-09         0.00000E+00
    0.43996E-07        -0.21145E-09         0.00000E+00
    0.44005E-07        -0.20371E-09         0.00000E+00
    0.44013E-07        -0.19515E-09         0.00000E+00
    0.44021E-07        -0.18577E-09         0.00000E+00
    0.44028E-07        -0.17557E-09         0.00000E+00
    0.44035E-07        -0.16456E-09         0.00000E+00
    0.44041E-07        -0.15272E-09         0.00000E+00
    0.44047E-07        -0.14007E-09         0.00000E+00
    0.44052E-07        -0.12661E-09         0.00000E+00
    0.44057E-07        -0.11234E-09         0.00000E+00
    0.44061E-07        -0.97267E-10         0.00000E+00
    0.44065E-07        -0.81387E-10         0.00000E+00
    0.44067E-07        -0.64708E-10         0.00000E+00
    0.44070E-07        -0.47231E-10         0.00000E+00
    0.44071E-07        -0.28961E-10         0.00000E+00
    0.44072E-07        -0.99012E-11         0.00000E+00
    0.46233E-07        -0.11281E-10         0.00000E+00
    0.46234E-07        -0.33323E-10         0.00000E+00
    0.46236E-07        -0.54624E-10         0.00000E+00
    0.46239E-07        -0.75159E-10         0.00000E+00
    0.46243E-07        -0.94904E-10         0.00000E+00
    0.46248E-07        -0.11383E-09         0.00000E+00
    0.46253E-07        -0.13193E-09         0.00000E+00
    0.46260E-07        -0.14918E-09         0.00000E+00
    0.46267E-07        -0.16555E-09         0.00000E+00
    0.46274E-07        -0.18104E-09         0.00000E+00
    0.46283E-07        -0.19563E-09         0.00000E+00
    0.46292E-07        -0.20930E-09         0.00000E+00
    0.46301E-07        -0.22205E-09         0.00000E+00
    0.46311E-07        -0.23387E-09         0.00000E+00
    0.46321E-07        -0.24474E-09         0.00000E+00
    0.46332E-07        -0.25465E-09         0.00000E+00
    0.46342E-07        -0.26361E-09         0.00000E+00
    0.46354E-07        -0.27160E-09         0.00000E+00
    0.46365E-07        -0.27861E-09         0.00000E+00
    0.46376E-07        -0.28465E-09         0.00000E+00
    0.46388E-07        -0.28971E-09         0.00000E+00
    0.46400E-07        -0.29378E-09         0.00000E+00
    0.46412E-07        -0.29687E-09         0.00000E+00
    0.46423E-07        -0.29897E-09         0.00000E+00
    0.46435E-07        -0.30009E-09         0.00000E+00
    0.46447E-07        -0.30021E-09         0.00000E+00
    0.46458E-07        -0.29934E-09         0.00000E+00
    0.46470E-07        -0.29749E-09         0.00000E+00
    0.46481E-07        -0.29464E-09         0.00000E+00
    0.46492E-07        -0.29081E-09         0.00000E+00
    0.46503E-07        -0.28600E-09         0.00000E+00
    0.46514E-07        -0.28020E-09         0.00000E+00
    0.46524E-07        -0.27343E-09         0.00000E+00
    0.46534E-07        -0.26568E-09         0.00000E+00
    0.46544E-07        -0.25695E-09         0.00000E+00
    0.46553E-07        -0.24725E-09         0.00000E+00
    0.46562E-07        -0.23658E-09         0.00000E+00
    0.46570E-07        -0.22496E-09         0.00000E+00
    0.46578E-07        -0.21237E-09         0.00000E+00
    0.46586E-07        -0.19882E-09         0.00000E+00
    0.46592E-07        -0.18433E-09         0.00000E+00
    0.46599E-07        -0.16889E-09         0.00000E+00
    0.46604E-07        -0.15250E-09         0.00000E+00
    0.46609E-07        -0.13518E-09         0.00000E+00
    0.46614E-07        -0.11693E-09         0.00000E+00
    0.46617E-07        -0.97748E-10         0.00000E+00
    0.46620E-07        -0.77644E-10         0.00000E+00
    0.46623E-07        -0.56622E-10         0.00000E+00
    0.46624E-07        -0.34688E-10         0.00000E+00
    0.46625E-07        -0.11847E-10         0.00000E+00
    0.48894E-07        -0.14156E-10         0.00000E+00
    0.48895E-07        -0.41721E-10         0.00000E+00
    0.48898E-07        -0.68234E-10         0.00000E+00
    0.48901E-07        -0.93674E-10         0.00000E+00
    0.48905E-07        -0.11802E-09         0.00000E+00
    0.48911E-07        -0.14126E-09         0.00000E+00
    0.48917E-07        -0.16338E-09         0.00000E+00
    0.48924E-07        -0.18437E-09         0.00000E+00
    0.48931E-07        -0.20420E-09         0.00000E+00
    0.48940E-07        -0.22288E-09         0.00000E+00
    0.48949E-07        -0.24040E-09         0.00000E+00
    0.48958E-07        -0.25674E-09         0.00000E+00
    0.48968E-07        -0.27190E-09         0.00000E+00
    0.48979E-07        -0.28587E-09         0.00000E+00
    0.48990E-07        -0.29866E-09         0.00000E+00
    0.49001E-07        -0.31026E-09         0.00000E+00
    0.49013E-07        -0.32066E-09         0.00000E+00
    0.49025E-07        -0.32987E-09         0.00000E+00
    0.49037E-07        -0.33788E-09         0.00000E+00
    0.49050E-07        -0.34470E-09         0.00000E+00
    0.49062E-07        -0.35033E-09         0.00000E+00
    0.49075E-07        -0.35476E-09         0.00000E+00
    0.49087E-07        -0.35800E-09         0.00000E+00
    0.49100E-07        -0.36006E-09         0.00000E+00
    0.49112E-07        -0.36094E-09         0.00000E+00
    0.49125E-07        -0.36063E-09         0.00000E+00
    0.49137E-07        -0.35915E-09         0.00000E+00
    0.49150E-07        -0.35650E-09         0.00000E+00
    0.49162E-07        -0.35268E-09         0.00000E+00
    0.49174E-07        -0.34771E-09         0.00000E+00
    0.49185E-07        -0.34158E-09         0.00000E+00
    0.49197E-07        -0.33429E-09         0.00000E+00
    0.49208E-07        -0.32587E-09         0.00000E+00
    0.49218E-07        -0.31630E-09         0.00000E+00
    0.49228E-07        -0.30561E-09         0.00000E+00
    0.49238E-07        -0.29379E-09         0.00000E+00
    0.49248E-07        -0.28085E-09         0.00000E+00
    0.49256E-07        -0.26680E-09         0.00000E+00
    0.49265E-07        -0.25165E-09         0.00000E+00
    0.49273E-07        -0.23539E-09         0.00000E+00
    0.49280E-07        -0.21804E-09         0.00000E+00
    0.49286E-07        -0.19961E-09         0.00000E+00
    0.49292E-07        -0.18010E-09         0.00000E+00
    0.49298E-07        -0.15952E-09         0.00000E+00
    0.49302E-07        -0.13787E-09         0.00000E+00
    0.49306E-07        -0.11517E-09         0.00000E+00
    0.49310E-07        -0.91415E-10         0.00000E+00
    0.49312E-07        -0.66617E-10         0.00000E+00
    0.49314E-07        -0.40781E-10         0.00000E+00
    0.49315E-07        -0.13916E-10         0.00000E+00
    0.51694E-07        -0.17276E-10         0.00000E+00
    0.51695E-07        -0.50822E-10         0.00000E+00
    0.51698E-07        -0.82964E-10         0.00000E+00
    0.51701E-07        -0.11369E-09         0.00000E+00
    0.51706E-07        -0.14299E-09         0.00000E+00
    0.51712E-07        -0.17086E-09         0.00000E+00
    0.51718E-07        -0.19728E-09         0.00000E+00
    0.51726E-07        -0.22225E-09         0.00000E+00
    0.51734E-07        -0.24577E-09         0.00000E+00
    0.51743E-07        -0.26784E-09         0.00000E+00
    0.51752E-07        -0.28845E-09         0.00000E+00
    0.51763E-07        -0.30760E-09         0.00000E+00
    0.51773E-07        -0.32530E-09         0.00000E+00
    0.51785E-07        -0.34154E-09         0.00000E+00
    0.51796E-07        -0.35633E-09         0.00000E+00
    0.51808E-07        -0.36967E-09         0.00000E+00
    0.51821E-07        -0.38157E-09         0.00000E+00
    0.51833E-07        -0.39203E-09         0.00000E+00
    0.51846E-07        -0.40105E-09         0.00000E+00
    0.51859E-07        -0.40865E-09         0.00000E+00
    0.51873E-07        -0.41483E-09         0.00000E+00
    0.51886E-07        -0.41960E-09         0.00000E+00
    0.51899E-07        -0.42296E-09         0.00000E+00
    0.51913E-07        -0.42493E-09         0.00000E+00
    0.51926E-07        -0.42550E-09         0.00000E+00
    0.51939E-07        -0.42470E-09         0.00000E+00
    0.51952E-07        -0.42253E-09         0.00000E+00
    0.51965E-07        -0.41900E-09         0.00000E+00
    0.51978E-07        -0.41411E-09         0.00000E+00
    0.51990E-07        -0.40788E-09         0.00000E+00
    0.52002E-07        -0.40032E-09         0.00000E+00
    0.52014E-07        -0.39144E-09         0.00000E+00
    0.52026E-07        -0.38124E-09         0.00000E+00
    0.52037E-07        -0.36974E-09         0.00000E+00
    0.52048E-07        -0.35694E-09         0.00000E+00
    0.52058E-07        -0.34286E-09         0.00000E+00
    0.52068E-07        -0.32751E-09         0.00000E+00
    0.52077E-07        -0.31089E-09         0.00000E+00
    0.52086E-07        -0.29301E-09         0.00000E+00
    0.52094E-07        -0.27388E-09         0.00000E+00
    0.52101E-07        -0.25352E-09         0.00000E+00
    0.52108E-07        -0.23193E-09         0.00000E+00
    0.52115E-07        -0.20912E-09         0.00000E+00
    0.52120E-07        -0.18511E-09         0.00000E+00
    0.52125E-07        -0.15989E-09         0.00000E+00
    0.52129E-07        -0.13348E-09         0.00000E+00
    0.52133E-07        -0.10588E-09         0.00000E+00
    0.52135E-07        -0.77114E-10         0.00000E+00
    0.52137E-07        -0.47180E-10         0.00000E+00
    0.52138E-07        -0.16088E-10         0.00000E+00
    0.54630E-07        -0.20613E-10         0.00000E+00
    0.54631E-07        -0.60546E-10         0.00000E+00
    0.54634E-07        -0.98687E-10         0.00000E+00
    0.54637E-07        -0.13503E-09         0.00000E+00
    0.54642E-07        -0.16958E-09         0.00000E+00
    0.54648E-07        -0.20233E-09         0.00000E+00
    0.54655E-07        -0.23329E-09         0.00000E+00
    0.54663E-07        -0.26246E-09         0.00000E+00
    0.54672E-07        -0.28985E-09         0.00000E+00
    0.54681E-07        -0.31546E-09         0.00000E+00
    0.54691E-07        -0.33929E-09         0.00000E+00
    0.54702E-07        -0.36137E-09         0.00000E+00
    0.54713E-07        -0.38169E-09         0.00000E+00
    0.54725E-07        -0.40026E-09         0.00000E+00
    0.54737E-07        -0.41711E-09         0.00000E+00
    0.54750E-07        -0.43223E-09         0.00000E+00
    0.54763E-07        -0.44564E-09         0.00000E+00
    0.54776E-07        -0.45736E-09         0.00000E+00
    0.54789E-07        -0.46739E-09         0.00000E+00
    0.54803E-07        -0.47575E-09         0.00000E+00
    0.54817E-07        -0.48246E-09         0.00000E+00
    0.54831E-07        -0.48752E-09         0.00000E+00
    0.54844E-07        -0.49095E-09         0.00000E+00
    0.54858E-07        -0.49277E-09         0.00000E+00
    0.54872E-07        -0.49299E-09         0.00000E+00
    0.54886E-07        -0.49162E-09         0.00000E+00
    0.54899E-07        -0.48868E-09         0.00000E+00
    0.54913E-07        -0.48419E-09         0.00000E+00
    0.54926E-07        -0.47815E-09         0.00000E+00
    0.54939E-07        -0.47058E-09         0.00000E+00
    0.54951E-07        -0.46149E-09         0.00000E+00
    0.54964E-07        -0.45091E-09         0.00000E+00
    0.54975E-07        -0.43884E-09         0.00000E+00
    0.54987E-07        -0.42529E-09         0.00000E+00
    0.54998E-07        -0.41028E-09         0.00000E+00
    0.55009E-07        -0.39383E-09         0.00000E+00
    0.55019E-07        -0.37594E-09         0.00000E+00
    0.55028E-07        -0.35663E-09         0.00000E+00
    0.55037E-07        -0.33591E-09         0.00000E+00
    0.55046E-07        -0.31380E-09         0.00000E+00
    0.55053E-07        -0.29030E-09         0.00000E+00
    0.55061E-07        -0.26543E-09         0.00000E+00
    0.55067E-07        -0.23919E-09         0.00000E+00
    0.55073E-07        -0.21161E-09         0.00000E+00
    0.55078E-07        -0.18268E-09         0.00000E+00
    0.55082E-07        -0.15243E-09         0.00000E+00
    0.55085E-07        -0.12086E-09         0.00000E+00
    0.55088E-07        -0.87977E-10         0.00000E+00
    0.55090E-07        -0.53800E-10         0.00000E+00
    0.55091E-07        -0.18336E-10         0.00000E+00
    0.57697E-07        -0.24129E-10         0.00000E+00
    0.57698E-07        -0.70781E-10         0.00000E+00
    0.57701E-07        -0.11521E-09         0.00000E+00
    0.57705E-07        -0.15744E-09         0.00000E+00
    0.57710E-07        -0.19746E-09         0.00000E+00
    0.57716E-07        -0.23530E-09         0.00000E+00
    0.57724E-07        -0.27097E-09         0.00000E+00
    0.57732E-07        -0.30448E-09         0.00000E+00
    0.57741E-07        -0.33585E-09         0.00000E+00
    0.57750E-07        -0.36509E-09         0.00000E+00
    0.57761E-07        -0.39223E-09         0.00000E+00
    0.57772E-07        -0.41729E-09         0.00000E+00
    0.57783E-07        -0.44027E-09         0.00000E+00
    0.57796E-07        -0.46121E-09         0.00000E+00
    0.57808E-07        -0.48012E-09         0.00000E+00
    0.57821E-07        -0.49703E-09         0.00000E+00
    0.57834E-07        -0.51194E-09         0.00000E+00
    0.57848E-07        -0.52490E-09         0.00000E+00
    0.57862E-07        -0.53591E-09         0.00000E+00
    0.57876E-07        -0.54499E-09         0.00000E+00
    0.57890E-07        -0.55218E-09         0.00000E+00
    0.57904E-07        -0.55749E-09         0.00000E+00
    0.57918E-07        -0.56093E-09         0.00000E+00
    0.57932E-07        -0.56255E-09         0.00000E+00
    0.57946E-07        -0.56234E-09         0.00000E+00
    0.57960E-07        -0.56034E-09         0.00000E+00
    0.57974E-07        -0.55656E-09         0.00000E+00
    0.57987E-07        -0.55103E-09         0.00000E+00
    0.58001E-07        -0.54376E-09         0.00000E+00
    0.58014E-07        -0.53478E-09         0.00000E+00
    0.58027E-07        -0.52410E-09         0.00000E+00
    0.58039E-07        -0.51174E-09         0.00000E+00
    0.58051E-07        -0.49771E-09         0.00000E+00
    0.58063E-07        -0.48205E-09         0.00000E+00
    0.58074E-07        -0.46476E-09         0.00000E+00
    0.58085E-07        -0.44586E-09         0.00000E+00
    0.58095E-07        -0.42536E-09         0.00000E+00
    0.58104E-07        -0.40329E-09         0.00000E+00
    0.58114E-07        -0.37966E-09         0.00000E+00
    0.58122E-07        -0.35448E-09         0.00000E+00
    0.58130E-07        -0.32777E-09         0.00000E+00
    0.58137E-07        -0.29954E-09         0.00000E+00
    0.58144E-07        -0.26981E-09         0.00000E+00
    0.58149E-07        -0.23859E-09         0.00000E+00
    0.58154E-07        -0.20588E-09         0.00000E+00
    0.58159E-07        -0.17172E-09         0.00000E+00
    0.58162E-07        -0.13609E-09         0.00000E+00
    0.58165E-07        -0.99030E-10         0.00000E+00
    0.58167E-07        -0.60536E-10         0.00000E+00
    0.58167E-07        -0.20622E-10         0.00000E+00
    0.60890E-07        -0.27773E-10         0.00000E+00
    0.60891E-07        -0.81369E-10         0.00000E+00
    0.60894E-07        -0.13229E-09         0.00000E+00
    0.60898E-07        -0.18055E-09         0.00000E+00
    0.60903E-07        -0.22619E-09         0.00000E+00
    0.60910E-07        -0.26922E-09         0.00000E+00
    0.60917E-07        -0.30968E-09         0.00000E+00
    0.60925E-07        -0.34759E-09         0.00000E+00
    0.60934E-07        -0.38299E-09         0.00000E+00
    0.60944E-07        -0.41590E-09         0.00000E+00
    0.60955E-07        -0.44635E-09         0.00000E+00
    0.60966E-07        -0.47438E-09         0.00000E+00
    0.60978E-07        -0.50002E-09         0.00000E+00
    0.60990E-07        -0.52329E-09         0.00000E+00
    0.61002E-07        -0.54423E-09         0.00000E+00
    0.61016E-07        -0.56288E-09         0.00000E+00
    0.61029E-07        -0.57925E-09         0.00000E+00
    0.61042E-07        -0.59338E-09         0.00000E+00
    0.61056E-07        -0.60531E-09         0.00000E+00
    0.61070E-07        -0.61506E-09         0.00000E+00
    0.61084E-07        -0.62267E-09         0.00000E+00
    0.61098E-07        -0.62815E-09         0.00000E+00
    0.61113E-07        -0.63155E-09         0.00000E+00
    0.61127E-07        -0.63289E-09         0.00000E+00
    0.61141E-07        -0.63220E-09         0.00000E+00
    0.61154E-07        -0.62950E-09         0.00000E+00
    0.61168E-07        -0.62483E-09         0.00000E+00
    0.61182E-07        -0.61821E-09         0.00000E+00
    0.61195E-07        -0.60966E-09         0.00000E+00
    0.61208E-07        -0.59921E-09         0.00000E+00
    0.61221E-07        -0.58688E-09         0.00000E+00
    0.61233E-07        -0.57270E-09         0.00000E+00
    0.61245E-07        -0.55669E-09         0.00000E+00
    0.61256E-07        -0.53887E-09         0.00000E+00
    0.61267E-07        -0.51927E-09         0.00000E+00
    0.61278E-07        -0.49789E-09         0.00000E+00
    0.61288E-07        -0.47477E-09         0.00000E+00
    0.61298E-07        -0.44992E-09         0.00000E+00
    0.61307E-07        -0.42336E-09         0.00000E+00
    0.61315E-07        -0.39511E-09         0.00000E+00
    0.61323E-07        -0.36518E-09         0.00000E+00
    0.61330E-07        -0.33360E-09         0.00000E+00
    0.61336E-07        -0.30036E-09         0.00000E+00
    0.61342E-07        -0.26550E-09         0.00000E+00
    0.61347E-07        -0.22903E-09         0.00000E+00
    0.61351E-07        -0.19095E-09         0.00000E+00
    0.61355E-07        -0.15129E-09         0.00000E+00
    0.61357E-07        -0.11005E-09         0.00000E+00
    0.61359E-07        -0.67254E-10         0.00000E+00
    0.61360E-07        -0.22903E-10         0.00000E+00
    0.64199E-07        -0.31473E-10         0.00000E+00
    0.64201E-07        -0.92108E-10         0.00000E+00
    0.64204E-07        -0.14957E-09         0.00000E+00
    0.64208E-07        -0.20392E-09         0.00000E+00
    0.64213E-07        -0.25518E-09         0.00000E+00
    0.64219E-07        -0.30340E-09         0.00000E+00
    0.64227E-07        -0.34862E-09         0.00000E+00
    0.64235E-07        -0.39090E-09         0.00000E+00
    0.64244E-07        -0.43027E-09         0.00000E+00
    0.64254E-07        -0.46678E-09         0.00000E+00
    0.64264E-07        -0.50048E-09         0.00000E+00
    0.64275E-07        -0.53140E-09         0.00000E+00
    0.64287E-07        -0.55960E-09         0.00000E+00
    0.64299E-07        -0.58512E-09         0.00000E+00
    0.64311E-07        -0.60800E-09         0.00000E+00
    0.64324E-07        -0.62829E-09         0.00000E+00
    0.64337E-07        -0.64602E-09         0.00000E+00
    0.64350E-07        -0.66124E-09         0.00000E+00
    0.64364E-07        -0.67400E-09         0.00000E+00
    0.64377E-07        -0.68433E-09         0.00000E+00
    0.64391E-07        -0.69226E-09         0.00000E+00
    0.64405E-07        -0.69785E-09         0.00000E+00
    0.64419E-07        -0.70113E-09         0.00000E+00
    0.64432E-07        -0.70213E-09         0.00000E+00
    0.64446E-07        -0.70089E-09         0.00000E+00
    0.64459E-07        -0.69745E-09         0.00000E+00
    0.64473E-07        -0.69184E-09         0.00000E+00
    0.64486E-07        -0.68409E-09         0.00000E+00
    0.64499E-07        -0.67423E-09         0.00000E+00
    0.64511E-07        -0.66230E-09         0.00000E+00
    0.64523E-07        -0.64832E-09         0.00000E+00
    0.64535E-07        -0.63232E-09         0.00000E+00
    0.64547E-07        -0.61433E-09         0.00000E+00
    0.64558E-07        -0.59437E-09         0.00000E+00
    0.64568E-07        -0.57247E-09         0.00000E+00
    0.64579E-07        -0.54866E-09         0.00000E+00
    0.64588E-07        -0.52296E-09         0.00000E+00
    0.64598E-07        -0.49538E-09         0.00000E+00
    0.64606E-07        -0.46595E-09         0.00000E+00
    0.64614E-07        -0.43469E-09         0.00000E+00
    0.64622E-07        -0.40162E-09         0.00000E+00
    0.64629E-07        -0.36675E-09         0.00000E+00
    0.64635E-07        -0.33011E-09         0.00000E+00
    0.64640E-07        -0.29171E-09         0.00000E+00
    0.64645E-07        -0.25156E-09         0.00000E+00
    0.64649E-07        -0.20968E-09         0.00000E+00
    0.64652E-07        -0.16608E-09         0.00000E+00
    0.64655E-07        -0.12078E-09         0.00000E+00
    0.64656E-07        -0.73793E-10         0.00000E+00
    0.64657E-07        -0.25123E-10         0.00000E+00
    0.67615E-07        -0.35144E-10         0.00000E+00
    0.67616E-07        -0.10274E-09         0.00000E+00
    0.67619E-07        -0.16665E-09         0.00000E+00
    0.67623E-07        -0.22696E-09         0.00000E+00
    0.67628E-07        -0.28371E-09         0.00000E+00
    0.67634E-07        -0.33697E-09         0.00000E+00
    0.67641E-07        -0.38681E-09         0.00000E+00
    0.67649E-07        -0.43329E-09         0.00000E+00
    0.67658E-07        -0.47646E-09         0.00000E+00
    0.67667E-07        -0.51640E-09         0.00000E+00
    0.67677E-07        -0.55317E-09         0.00000E+00
    0.67688E-07        -0.58682E-09         0.00000E+00
    0.67699E-07        -0.61741E-09         0.00000E+00
    0.67711E-07        -0.64500E-09         0.00000E+00
    0.67722E-07        -0.66966E-09         0.00000E+00
    0.67735E-07        -0.69144E-09         0.00000E+00
    0.67747E-07        -0.71038E-09         0.00000E+00
    0.67760E-07        -0.72656E-09         0.00000E+00
    0.67772E-07        -0.74001E-09         0.00000E+00
    0.67785E-07        -0.75080E-09         0.00000E+00
    0.67798E-07        -0.75897E-09         0.00000E+00
    0.67811E-07        -0.76457E-09         0.00000E+00
    0.67824E-07        -0.76764E-09         0.00000E+00
    0.67837E-07        -0.76824E-09         0.00000E+00
    0.67850E-07        -0.76640E-09         0.00000E+00
    0.67862E-07        -0.76218E-09         0.00000E+00
    0.67875E-07        -0.75560E-09         0.00000E+00
    0.67887E-07        -0.74671E-09         0.00000E+00
    0.67899E-07        -0.73556E-09         0.00000E+00
    0.67910E-07        -0.72216E-09         0.00000E+00
    0.67922E-07        -0.70656E-09         0.00000E+00
    0.67933E-07        -0.68879E-09         0.00000E+00
    0.67944E-07        -0.66889E-09         0.00000E+00
    0.67954E-07        -0.64687E-09         0.00000E+00
    0.67964E-07        -0.62278E-09         0.00000E+00
    0.67973E-07        -0.59664E-09         0.00000E+00
    0.67982E-07        -0.56847E-09         0.00000E+00
    0.67991E-07        -0.53830E-09         0.00000E+00
    0.67999E-07        -0.50615E-09         0.00000E+00
    0.68006E-07        -0.47204E-09         0.00000E+00
    0.68013E-07        -0.43599E-09         0.00000E+00
    0.68019E-07        -0.39803E-09         0.00000E+00
    0.68025E-07        -0.35817E-09         0.00000E+00
    0.68030E-07        -0.31642E-09         0.00000E+00
    0.68035E-07        -0.27281E-09         0.00000E+00
    0.68038E-07        -0.22734E-09         0.00000E+00
    0.68041E-07        -0.18004E-09         0.00000E+00
    0.68044E-07        -0.13091E-09         0.00000E+00
    0.68045E-07        -0.79965E-10         0.00000E+00
    0.68046E-07        -0.27219E-10         0.00000E+00
    0.71122E-07        -0.38676E-10         0.00000E+00
    0.71124E-07        -0.11294E-09         0.00000E+00
    0.71126E-07        -0.18301E-09         0.00000E+00
    0.71130E-07        -0.24897E-09         0.00000E+00
    0.71135E-07        -0.31090E-09         0.00000E+00
    0.71141E-07        -0.36890E-09         0.00000E+00
    0.71147E-07        -0.42303E-09         0.00000E+00
    0.71155E-07        -0.47340E-09         0.00000E+00
    0.71163E-07        -0.52008E-09         0.00000E+00
    0.71171E-07        -0.56315E-09         0.00000E+00
    0.71180E-07        -0.60269E-09         0.00000E+00
    0.71190E-07        -0.63878E-09         0.00000E+00
    0.71200E-07        -0.67150E-09         0.00000E+00
    0.71211E-07        -0.70092E-09         0.00000E+00
    0.71222E-07        -0.72712E-09         0.00000E+00
    0.71233E-07        -0.75016E-09         0.00000E+00
    0.71244E-07        -0.77012E-09         0.00000E+00
    0.71255E-07        -0.78706E-09         0.00000E+00
    0.71267E-07        -0.80104E-09         0.00000E+00
    0.71279E-07        -0.81214E-09         0.00000E+00
    0.71290E-07        -0.82041E-09         0.00000E+00
    0.71302E-07        -0.82592E-09         0.00000E+00
    0.71313E-07        -0.82871E-09         0.00000E+00
    0.71325E-07        -0.82884E-09         0.00000E+00
    0.71336E-07        -0.82636E-09         0.00000E+00
    0.71348E-07        -0.82134E-09         0.00000E+00
    0.71359E-07        -0.81380E-09         0.00000E+00
    0.71369E-07        -0.80380E-09         0.00000E+00
    0.71380E-07        -0.79139E-09         0.00000E+00
    0.71390E-07        -0.77660E-09         0.00000E+00
    0.71400E-07        -0.75948E-09         0.00000E+00
    0.71410E-07        -0.74005E-09         0.00000E+00
    0.71420E-07        -0.71837E-09         0.00000E+00
    0.71429E-07        -0.69445E-09         0.00000E+00
    0.71438E-07        -0.66834E-09         0.00000E+00
    0.71446E-07        -0.64006E-09         0.00000E+00
    0.71454E-07        -0.60964E-09         0.00000E+00
    0.71461E-07        -0.57710E-09         0.00000E+00
    0.71468E-07        -0.54248E-09         0.00000E+00
    0.71475E-07        -0.50578E-09         0.00000E+00
    0.71481E-07        -0.46705E-09         0.00000E+00
    0.71486E-07        -0.42628E-09         0.00000E+00
    0.71491E-07        -0.38351E-09         0.00000E+00
    0.71496E-07        -0.33875E-09         0.00000E+00
    0.71500E-07        -0.29201E-09         0.00000E+00
    0.71503E-07        -0.24330E-09         0.00000E+00
    0.71506E-07        -0.19265E-09         0.00000E+00
    0.71508E-07        -0.14007E-09         0.00000E+00
    0.71509E-07        -0.85550E-10         0.00000E+00
    0.71510E-07        -0.29117E-10         0.00000E+00
    0.74705E-07        -0.41941E-10         0.00000E+00
    0.74706E-07        -0.12235E-09         0.00000E+00
    0.74708E-07        -0.19804E-09         0.00000E+00
    0.74711E-07        -0.26912E-09         0.00000E+00
    0.74716E-07        -0.33571E-09         0.00000E+00
    0.74721E-07        -0.39793E-09         0.00000E+00
    0.74727E-07        -0.45587E-09         0.00000E+00
    0.74733E-07        -0.50964E-09         0.00000E+00
    0.74740E-07        -0.55936E-09         0.00000E+00
    0.74748E-07        -0.60511E-09         0.00000E+00
    0.74756E-07        -0.64701E-09         0.00000E+00
    0.74764E-07        -0.68514E-09         0.00000E+00
    0.74773E-07        -0.71961E-09         0.00000E+00
    0.74782E-07        -0.75051E-09         0.00000E+00
    0.74791E-07        -0.77792E-09         0.00000E+00
    0.74801E-07        -0.80194E-09         0.00000E+00
    0.74810E-07        -0.82264E-09         0.00000E+00
    0.74820E-07        -0.84010E-09         0.00000E+00
    0.74830E-07        -0.85442E-09         0.00000E+00
    0.74839E-07        -0.86565E-09         0.00000E+00
    0.74849E-07        -0.87388E-09         0.00000E+00
    0.74859E-07        -0.87917E-09         0.00000E+00
    0.74868E-07        -0.88158E-09         0.00000E+00
    0.74878E-07        -0.88120E-09         0.00000E+00
    0.74887E-07        -0.87806E-09         0.00000E+00
    0.74897E-07        -0.87224E-09         0.00000E+00
    0.74906E-07        -0.86378E-09         0.00000E+00
    0.74915E-07        -0.85275E-09         0.00000E+00
    0.74924E-07        -0.83918E-09         0.00000E+00
    0.74932E-07        -0.82312E-09         0.00000E+00
    0.74940E-07        -0.80463E-09         0.00000E+00
    0.74948E-07        -0.78374E-09         0.00000E+00
    0.74956E-07        -0.76048E-09         0.00000E+00
    0.74963E-07        -0.73490E-09         0.00000E+00
    0.74970E-07        -0.70704E-09         0.00000E+00
    0.74977E-07        -0.67691E-09         0.00000E+00
    0.74984E-07        -0.64456E-09         0.00000E+00
    0.74990E-07        -0.61000E-09         0.00000E+00
    0.74995E-07        -0.57327E-09         0.00000E+00
    0.75001E-07        -0.53438E-09         0.00000E+00
    0.75006E-07        -0.49336E-09         0.00000E+00
    0.75010E-07        -0.45022E-09         0.00000E+00
    0.75014E-07        -0.40499E-09         0.00000E+00
    0.75018E-07        -0.35767E-09         0.00000E+00
    0.75021E-07        -0.30829E-09         0.00000E+00
    0.75024E-07        -0.25685E-09         0.00000E+00
    0.75026E-07        -0.20337E-09         0.00000E+00
    0.75028E-07        -0.14785E-09         0.00000E+00
    0.75029E-07        -0.90303E-10         0.00000E+00
    0.75029E-07        -0.30735E-10         0.00000E+00
    0.78341E-07        -0.44788E-10         0.00000E+00
    0.78342E-07        -0.13051E-09         0.00000E+00
    0.78344E-07        -0.21101E-09         0.00000E+00
    0.78346E-07        -0.28644E-09         0.00000E+00
    0.78350E-07        -0.35693E-09         0.00000E+00
    0.78354E-07        -0.42263E-09         0.00000E+00
    0.78359E-07        -0.48367E-09         0.00000E+00
    0.78364E-07        -0.54018E-09         0.00000E+00
    0.78370E-07        -0.59229E-09         0.00000E+00
    0.78376E-07        -0.64013E-09         0.00000E+00
    0.78382E-07        -0.68381E-09         0.00000E+00
    0.78388E-07        -0.72346E-09         0.00000E+00
    0.78395E-07        -0.75918E-09         0.00000E+00
    0.78402E-07        -0.79110E-09         0.00000E+00
    0.78409E-07        -0.81931E-09         0.00000E+00
    0.78417E-07        -0.84392E-09         0.00000E+00
    0.78424E-07        -0.86503E-09         0.00000E+00
    0.78431E-07        -0.88273E-09         0.00000E+00
    0.78439E-07        -0.89712E-09         0.00000E+00
    0.78446E-07        -0.90828E-09         0.00000E+00
    0.78453E-07        -0.91630E-09         0.00000E+00
    0.78460E-07        -0.92125E-09         0.00000E+00
    0.78467E-07        -0.92321E-09         0.00000E+00
    0.78474E-07        -0.92226E-09         0.00000E+00
    0.78481E-07        -0.91847E-09         0.00000E+00
    0.78488E-07        -0.91189E-09         0.00000E+00
    0.78495E-07        -0.90259E-09         0.00000E+00
    0.78501E-07        -0.89063E-09         0.00000E+00
    0.78507E-07        -0.87607E-09         0.00000E+00
    0.78513E-07        -0.85895E-09         0.00000E+00
    0.78519E-07        -0.83932E-09         0.00000E+00
    0.78525E-07        -0.81722E-09         0.00000E+00
    0.78530E-07        -0.79271E-09         0.00000E+00
    0.78535E-07        -0.76581E-09         0.00000E+00
    0.78540E-07        -0.73656E-09         0.00000E+00
    0.78545E-07        -0.70499E-09         0.00000E+00
    0.78550E-07        -0.67114E-09         0.00000E+00
    0.78554E-07        -0.63503E-09         0.00000E+00
    0.78558E-07        -0.59668E-09         0.00000E+00
    0.78562E-07        -0.55612E-09         0.00000E+00
    0.78565E-07        -0.51337E-09         0.00000E+00
    0.78568E-07        -0.46843E-09         0.00000E+00
    0.78571E-07        -0.42134E-09         0.00000E+00
    0.78573E-07        -0.37209E-09         0.00000E+00
    0.78576E-07        -0.32071E-09         0.00000E+00
    0.78578E-07        -0.26720E-09         0.00000E+00
    0.78579E-07        -0.21157E-09         0.00000E+00
    0.78580E-07        -0.15381E-09         0.00000E+00
    0.78581E-07        -0.93952E-10         0.00000E+00
    0.78581E-07        -0.31981E-10         0.00000E+00
    0.82007E-07        -0.47045E-10         0.00000E+00
    0.82007E-07        -0.13693E-09         0.00000E+00
    0.82009E-07        -0.22113E-09         0.00000E+00
    0.82011E-07        -0.29983E-09         0.00000E+00
    0.82013E-07        -0.37320E-09         0.00000E+00
    0.82016E-07        -0.44140E-09         0.00000E+00
    0.82019E-07        -0.50460E-09         0.00000E+00
    0.82023E-07        -0.56296E-09         0.00000E+00
    0.82027E-07        -0.61664E-09         0.00000E+00
    0.82031E-07        -0.66577E-09         0.00000E+00
    0.82035E-07        -0.71051E-09         0.00000E+00
    0.82039E-07        -0.75099E-09         0.00000E+00
    0.82043E-07        -0.78735E-09         0.00000E+00
    0.82048E-07        -0.81972E-09         0.00000E+00
    0.82052E-07        -0.84822E-09         0.00000E+00
    0.82056E-07        -0.87298E-09         0.00000E+00
    0.82061E-07        -0.89409E-09         0.00000E+00
    0.82065E-07        -0.91169E-09         0.00000E+00
    0.82069E-07        -0.92586E-09         0.00000E+00
    0.82073E-07        -0.93671E-09         0.00000E+00
    0.82077E-07        -0.94433E-09         0.00000E+00
    0.82081E-07        -0.94882E-09         0.00000E+00
    0.82085E-07        -0.95026E-09         0.00000E+00
    0.82089E-07        -0.94873E-09         0.00000E+00
    0.82092E-07        -0.94430E-09         0.00000E+00
    0.82096E-07        -0.93704E-09         0.00000E+00
    0.82099E-07        -0.92704E-09         0.00000E+00
    0.82103E-07        -0.91433E-09         0.00000E+00
    0.82106E-07        -0.89900E-09         0.00000E+00
    0.82109E-07        -0.88108E-09         0.00000E+00
    0.82111E-07        -0.86063E-09         0.00000E+00
    0.82114E-07        -0.83770E-09         0.00000E+00
    0.82117E-07        -0.81232E-09         0.00000E+00
    0.82119E-07        -0.78455E-09         0.00000E+00
    0.82121E-07        -0.75440E-09         0.00000E+00
    0.82124E-07        -0.72192E-09         0.00000E+00
    0.82126E-07        -0.68714E-09         0.00000E+00
    0.82128E-07        -0.65007E-09         0.00000E+00
    0.82130E-07        -0.61075E-09         0.00000E+00
    0.82131E-07        -0.56918E-09         0.00000E+00
    0.82133E-07        -0.52540E-09         0.00000E+00
    0.82134E-07        -0.47940E-09         0.00000E+00
    0.82136E-07        -0.43120E-09         0.00000E+00
    0.82137E-07        -0.38082E-09         0.00000E+00
    0.82138E-07        -0.32825E-09         0.00000E+00
    0.82139E-07        -0.27350E-09         0.00000E+00
    0.82140E-07        -0.21658E-09         0.00000E+00
    0.82140E-07        -0.15748E-09         0.00000E+00
    0.82140E-07        -0.96211E-10         0.00000E+00
    0.82141E-07        -0.32758E-10         0.00000E+00
    0.85674E-07        -0.48523E-10         0.00000E+00
    0.85675E-07        -0.14105E-09         0.00000E+00
    0.85675E-07        -0.22750E-09         0.00000E+00
    0.85676E-07        -0.30809E-09         0.00000E+00
    0.85677E-07        -0.38301E-09         0.00000E+00
    0.85679E-07        -0.45247E-09         0.00000E+00
    0.85680E-07        -0.51665E-09         0.00000E+00
    0.85682E-07        -0.57575E-09         0.00000E+00
    0.85683E-07        -0.62995E-09         0.00000E+00
    0.85684E-07        -0.67941E-09         0.00000E+00
    0.85686E-07        -0.72432E-09         0.00000E+00
    0.85687E-07        -0.76481E-09         0.00000E+00
    0.85688E-07        -0.80106E-09         0.00000E+00
    0.85689E-07        -0.83321E-09         0.00000E+00
    0.85690E-07        -0.86139E-09         0.00000E+00
    0.85691E-07        -0.88575E-09         0.00000E+00
    0.85692E-07        -0.90642E-09         0.00000E+00
    0.85692E-07        -0.92351E-09         0.00000E+00
    0.85693E-07        -0.93714E-09         0.00000E+00
    0.85693E-07        -0.94742E-09         0.00000E+00
    0.85693E-07        -0.95447E-09         0.00000E+00
    0.85693E-07        -0.95837E-09         0.00000E+00
    0.85693E-07        -0.95922E-09         0.00000E+00
    0.85693E-07        -0.95710E-09         0.00000E+00
    0.85692E-07        -0.95211E-09         0.00000E+00
    0.85692E-07        -0.94431E-09         0.00000E+00
    0.85691E-07        -0.93377E-09         0.00000E+00
    0.85691E-07        -0.92057E-09         0.00000E+00
    0.85690E-07        -0.90476E-09         0.00000E+00
    0.85689E-07        -0.88640E-09         0.00000E+00
    0.85688E-07        -0.86555E-09         0.00000E+00
    0.85688E-07        -0.84224E-09         0.00000E+00
    0.85687E-07        -0.81652E-09         0.00000E+00
    0.85686E-07        -0.78842E-09         0.00000E+00
    0.85685E-07        -0.75799E-09         0.00000E+00
    0.85684E-07        -0.72526E-09         0.00000E+00
    0.85683E-07        -0.69024E-09         0.00000E+00
    0.85683E-07        -0.65296E-09         0.00000E+00
    0.85682E-07        -0.61343E-09         0.00000E+00
    0.85681E-07        -0.57168E-09         0.00000E+00
    0.85681E-07        -0.52772E-09         0.00000E+00
    0.85680E-07        -0.48155E-09         0.00000E+00
    0.85680E-07        -0.43318E-09         0.00000E+00
    0.85679E-07        -0.38262E-09         0.00000E+00
    0.85679E-07        -0.32986E-09         0.00000E+00
    0.85679E-07        -0.27490E-09         0.00000E+00
    0.85678E-07        -0.21774E-09         0.00000E+00
    0.85678E-07        -0.15837E-09         0.00000E+00
    0.85678E-07        -0.96780E-10         0.00000E+00
    0.85678E-07        -0.32965E-10         0.00000E+00
    0.89311E-07        -0.49015E-10         0.00000E+00
    0.89311E-07        -0.14229E-09         0.00000E+00
    0.89311E-07        -0.22918E-09         0.00000E+00
    0.89311E-07        -0.30992E-09         0.00000E+00
    0.89311E-07        -0.38477E-09         0.00000E+00
    0.89310E-07        -0.45396E-09         0.00000E+00
    0.89309E-07        -0.51769E-09         0.00000E+00
    0.89308E-07        -0.57619E-09         0.00000E+00
    0.89307E-07        -0.62967E-09         0.00000E+00
    0.89305E-07        -0.67832E-09         0.00000E+00
    0.89303E-07        -0.72233E-09         0.00000E+00
    0.89301E-07        -0.76187E-09         0.00000E+00
    0.89298E-07        -0.79714E-09         0.00000E+00
    0.89295E-07        -0.82828E-09         0.00000E+00
    0.89292E-07        -0.85546E-09         0.00000E+00
    0.89289E-07        -0.87882E-09         0.00000E+00
    0.89285E-07        -0.89851E-09         0.00000E+00
    0.89281E-07        -0.91467E-09         0.00000E+00
    0.89277E-07        -0.92741E-09         0.00000E+00
    0.89273E-07        -0.93686E-09         0.00000E+00
    0.89268E-07        -0.94313E-09         0.00000E+00
    0.89264E-07        -0.94633E-09         0.00000E+00
    0.89259E-07        -0.94656E-09         0.00000E+00
    0.89254E-07        -0.94390E-09         0.00000E+00
    0.89249E-07        -0.93845E-09         0.00000E+00
    0.89244E-07        -0.93029E-09         0.00000E+00
    0.89239E-07        -0.91948E-09         0.00000E+00
    0.89233E-07        -0.90609E-09         0.00000E+00
    0.89228E-07        -0.89019E-09         0.00000E+00
    0.89223E-07        -0.87184E-09         0.00000E+00
    0.89218E-07        -0.85107E-09         0.00000E+00
    0.89213E-07        -0.82795E-09         0.00000E+00
    0.89209E-07        -0.80250E-09         0.00000E+00
    0.89204E-07        -0.77477E-09         0.00000E+00
    0.89199E-07        -0.74478E-09         0.00000E+00
    0.89195E-07        -0.71257E-09         0.00000E+00
    0.89191E-07        -0.67814E-09         0.00000E+00
    0.89187E-07        -0.64152E-09         0.00000E+00
    0.89183E-07        -0.60273E-09         0.00000E+00
    0.89180E-07        -0.56177E-09         0.00000E+00
    0.89177E-07        -0.51864E-09         0.00000E+00
    0.89174E-07        -0.47336E-09         0.00000E+00
    0.89171E-07        -0.42591E-09         0.00000E+00
    0.89169E-07        -0.37629E-09         0.00000E+00
    0.89167E-07        -0.32450E-09         0.00000E+00
    0.89165E-07        -0.27053E-09         0.00000E+00
    0.89164E-07        -0.21436E-09         0.00000E+00
    0.89163E-07        -0.15598E-09         0.00000E+00
    0.89162E-07        -0.95363E-10         0.00000E+00
    0.89162E-07        -0.32502E-10         0.00000E+00
    0.92883E-07        -0.48309E-10         0.00000E+00
    0.92882E-07        -0.14002E-09         0.00000E+00
    0.92881E-07        -0.22516E-09         0.00000E+00
    0.92879E-07        -0.30402E-09         0.00000E+00
    0.92877E-07        -0.37687E-09         0.00000E+00
    0.92874E-07        -0.44397E-09         0.00000E+00
    0.92870E-07        -0.50557E-09         0.00000E+00
    0.92866E-07        -0.56192E-09         0.00000E+00
    0.92862E-07        -0.61324E-09         0.00000E+00
    0.92856E-07        -0.65974E-09         0.00000E+00
    0.92850E-07        -0.70165E-09         0.00000E+00
    0.92844E-07        -0.73916E-09         0.00000E+00
    0.92837E-07        -0.77246E-09         0.00000E+00
    0.92830E-07        -0.80173E-09         0.00000E+00
    0.92822E-07        -0.82713E-09         0.00000E+00
    0.92814E-07        -0.84884E-09         0.00000E+00
    0.92805E-07        -0.86701E-09         0.00000E+00
    0.92796E-07        -0.88177E-09         0.00000E+00
    0.92787E-07        -0.89326E-09         0.00000E+00
    0.92777E-07        -0.90161E-09         0.00000E+00
    0.92767E-07        -0.90694E-09         0.00000E+00
    0.92757E-07        -0.90935E-09         0.00000E+00
    0.92747E-07        -0.90895E-09         0.00000E+00
    0.92737E-07        -0.90584E-09         0.00000E+00
    0.92727E-07        -0.90010E-09         0.00000E+00
    0.92716E-07        -0.89180E-09         0.00000E+00
    0.92706E-07        -0.88104E-09         0.00000E+00
    0.92696E-07        -0.86786E-09         0.00000E+00
    0.92686E-07        -0.85233E-09         0.00000E+00
    0.92676E-07        -0.83451E-09         0.00000E+00
    0.92666E-07        -0.81444E-09         0.00000E+00
    0.92657E-07        -0.79216E-09         0.00000E+00
    0.92647E-07        -0.76771E-09         0.00000E+00
    0.92638E-07        -0.74113E-09         0.00000E+00
    0.92630E-07        -0.71242E-09         0.00000E+00
    0.92621E-07        -0.68163E-09         0.00000E+00
    0.92613E-07        -0.64875E-09         0.00000E+00
    0.92606E-07        -0.61380E-09         0.00000E+00
    0.92599E-07        -0.57680E-09         0.00000E+00
    0.92592E-07        -0.53772E-09         0.00000E+00
    0.92586E-07        -0.49659E-09         0.00000E+00
    0.92581E-07        -0.45339E-09         0.00000E+00
    0.92576E-07        -0.40810E-09         0.00000E+00
    0.92571E-07        -0.36072E-09         0.00000E+00
    0.92568E-07        -0.31123E-09         0.00000E+00
    0.92564E-07        -0.25960E-09         0.00000E+00
    0.92562E-07        -0.20582E-09         0.00000E+00
    0.92560E-07        -0.14986E-09         0.00000E+00
    0.92559E-07        -0.91688E-10         0.00000E+00
    0.92558E-07        -0.31278E-10         0.00000E+00
    0.96348E-07        -0.46191E-10         0.00000E+00
    0.96347E-07        -0.13363E-09         0.00000E+00
    0.96344E-07        -0.21449E-09         0.00000E+00
    0.96341E-07        -0.28909E-09         0.00000E+00
    0.96337E-07        -0.35772E-09         0.00000E+00
    0.96331E-07        -0.42068E-09         0.00000E+00
    0.96324E-07        -0.47825E-09         0.00000E+00
    0.96317E-07        -0.53068E-09         0.00000E+00
    0.96308E-07        -0.57823E-09         0.00000E+00
    0.96299E-07        -0.62113E-09         0.00000E+00
    0.96289E-07        -0.65962E-09         0.00000E+00
    0.96278E-07        -0.69390E-09         0.00000E+00
    0.96266E-07        -0.72417E-09         0.00000E+00
    0.96253E-07        -0.75064E-09         0.00000E+00
    0.96240E-07        -0.77347E-09         0.00000E+00
    0.96227E-07        -0.79284E-09         0.00000E+00
    0.96212E-07        -0.80891E-09         0.00000E+00
    0.96198E-07        -0.82182E-09         0.00000E+00
    0.96183E-07        -0.83172E-09         0.00000E+00
    0.96167E-07        -0.83872E-09         0.00000E+00
    0.96152E-07        -0.84296E-09         0.00000E+00
    0.96136E-07        -0.84454E-09         0.00000E+00
    0.96120E-07        -0.84357E-09         0.00000E+00
    0.96104E-07        -0.84013E-09         0.00000E+00
    0.96088E-07        -0.83431E-09         0.00000E+00
    0.96072E-07        -0.82620E-09         0.00000E+00
    0.96056E-07        -0.81586E-09         0.00000E+00
    0.96041E-07        -0.80336E-09         0.00000E+00
    0.96025E-07        -0.78874E-09         0.00000E+00
    0.96010E-07        -0.77206E-09         0.00000E+00
    0.95995E-07        -0.75336E-09         0.00000E+00
    0.95980E-07        -0.73268E-09         0.00000E+00
    0.95966E-07        -0.71005E-09         0.00000E+00
    0.95953E-07        -0.68548E-09         0.00000E+00
    0.95939E-07        -0.65900E-09         0.00000E+00
    0.95927E-07        -0.63062E-09         0.00000E+00
    0.95915E-07        -0.60035E-09         0.00000E+00
    0.95903E-07        -0.56818E-09         0.00000E+00
    0.95893E-07        -0.53412E-09         0.00000E+00
    0.95883E-07        -0.49816E-09         0.00000E+00
    0.95874E-07        -0.46028E-09         0.00000E+00
    0.95865E-07        -0.42047E-09         0.00000E+00
    0.95858E-07        -0.37871E-09         0.00000E+00
    0.95851E-07        -0.33498E-09         0.00000E+00
    0.95846E-07        -0.28923E-09         0.00000E+00
    0.95841E-07        -0.24145E-09         0.00000E+00
    0.95837E-07        -0.19160E-09         0.00000E+00
    0.95834E-07        -0.13964E-09         0.00000E+00
    0.95832E-07        -0.85524E-10         0.00000E+00
    0.95831E-07        -0.29213E-10         0.00000E+00
    0.99664E-07        -0.42466E-10         0.00000E+00
    0.99662E-07        -0.12258E-09         0.00000E+00
    0.99658E-07        -0.19630E-09         0.00000E+00
    0.99653E-07        -0.26398E-09         0.00000E+00
    0.99646E-07        -0.32594E-09         0.00000E+00
    0.99638E-07        -0.38249E-09         0.00000E+00
    0.99628E-07        -0.43394E-09         0.00000E+00
    0.99617E-07        -0.48056E-09         0.00000E+00
    0.99604E-07        -0.52261E-09         0.00000E+00
    0.99590E-07        -0.56036E-09         0.00000E+00
    0.99575E-07        -0.59403E-09         0.00000E+00
    0.99559E-07        -0.62384E-09         0.00000E+00
    0.99542E-07        -0.65001E-09         0.00000E+00
    0.99524E-07        -0.67273E-09         0.00000E+00
    0.99505E-07        -0.69219E-09         0.00000E+00
    0.99486E-07        -0.70855E-09         0.00000E+00
    0.99466E-07        -0.72198E-09         0.00000E+00
    0.99445E-07        -0.73262E-09         0.00000E+00
    0.99424E-07        -0.74061E-09         0.00000E+00
    0.99403E-07        -0.74608E-09         0.00000E+00
    0.99381E-07        -0.74914E-09         0.00000E+00
    0.99359E-07        -0.74990E-09         0.00000E+00
    0.99337E-07        -0.74845E-09         0.00000E+00
    0.99315E-07        -0.74489E-09         0.00000E+00
    0.99293E-07        -0.73930E-09         0.00000E+00
    0.99271E-07        -0.73174E-09         0.00000E+00
    0.99249E-07        -0.72228E-09         0.00000E+00
    0.99228E-07        -0.71097E-09         0.00000E+00
    0.99207E-07        -0.69787E-09         0.00000E+00
    0.99186E-07        -0.68301E-09         0.00000E+00
    0.99166E-07        -0.66643E-09         0.00000E+00
    0.99146E-07        -0.64815E-09         0.00000E+00
    0.99127E-07        -0.62820E-09         0.00000E+00
    0.99108E-07        -0.60659E-09         0.00000E+00
    0.99091E-07        -0.58333E-09         0.00000E+00
    0.99074E-07        -0.55842E-09         0.00000E+00
    0.99057E-07        -0.53187E-09         0.00000E+00
    0.99042E-07        -0.50365E-09         0.00000E+00
    0.99028E-07        -0.47377E-09         0.00000E+00
    0.99014E-07        -0.44219E-09         0.00000E+00
    0.99002E-07        -0.40891E-09         0.00000E+00
    0.98991E-07        -0.37388E-09         0.00000E+00
    0.98981E-07        -0.33708E-09         0.00000E+00
    0.98972E-07        -0.29847E-09         0.00000E+00
    0.98964E-07        -0.25801E-09         0.00000E+00
    0.98957E-07        -0.21565E-09         0.00000E+00
    0.98952E-07        -0.17135E-09         0.00000E+00
    0.98948E-07        -0.12506E-09         0.00000E+00
    0.98945E-07        -0.76709E-10         0.00000E+00
    0.98944E-07        -0.26253E-10         0.00000E+00
    0.10278E-06        -0.36973E-10         0.00000E+00
    0.10278E-06        -0.10640E-09         0.00000E+00
    0.10278E-06        -0.16989E-09         0.00000E+00
    0.10277E-06        -0.22779E-09         0.00000E+00
    0.10276E-06        -0.28046E-09         0.00000E+00
    0.10275E-06        -0.32822E-09         0.00000E+00
    0.10273E-06        -0.37138E-09         0.00000E+00
    0.10272E-06        -0.41023E-09         0.00000E+00
    0.10270E-06        -0.44504E-09         0.00000E+00
    0.10268E-06        -0.47605E-09         0.00000E+00
    0.10266E-06        -0.50352E-09         0.00000E+00
    0.10264E-06        -0.52767E-09         0.00000E+00
    0.10262E-06        -0.54869E-09         0.00000E+00
    0.10260E-06        -0.56678E-09         0.00000E+00
    0.10257E-06        -0.58212E-09         0.00000E+00
    0.10255E-06        -0.59488E-09         0.00000E+00
    0.10252E-06        -0.60521E-09         0.00000E+00
    0.10249E-06        -0.61324E-09         0.00000E+00
    0.10247E-06        -0.61911E-09         0.00000E+00
    0.10244E-06        -0.62293E-09         0.00000E+00
    0.10241E-06        -0.62480E-09         0.00000E+00
    0.10238E-06        -0.62483E-09         0.00000E+00
    0.10236E-06        -0.62310E-09         0.00000E+00
    0.10233E-06        -0.61969E-09         0.00000E+00
    0.10230E-06        -0.61467E-09         0.00000E+00
    0.10227E-06        -0.60810E-09         0.00000E+00
    0.10224E-06        -0.60002E-09         0.00000E+00
    0.10222E-06        -0.59050E-09         0.00000E+00
    0.10219E-06        -0.57955E-09         0.00000E+00
    0.10216E-06        -0.56722E-09         0.00000E+00
    0.10214E-06        -0.55352E-09         0.00000E+00
    0.10211E-06        -0.53848E-09         0.00000E+00
    0.10209E-06        -0.52210E-09         0.00000E+00
    0.10207E-06        -0.50440E-09         0.00000E+00
    0.10204E-06        -0.48536E-09         0.00000E+00
    0.10202E-06        -0.46498E-09         0.00000E+00
    0.10200E-06        -0.44325E-09         0.00000E+00
    0.10198E-06        -0.42015E-09         0.00000E+00
    0.10197E-06        -0.39565E-09         0.00000E+00
    0.10195E-06        -0.36973E-09         0.00000E+00
    0.10193E-06        -0.34236E-09         0.00000E+00
    0.10192E-06        -0.31349E-09         0.00000E+00
    0.10191E-06        -0.28308E-09         0.00000E+00
    0.10190E-06        -0.25107E-09         0.00000E+00
    0.10189E-06        -0.21743E-09         0.00000E+00
    0.10188E-06        -0.18208E-09         0.00000E+00
    0.10187E-06        -0.14497E-09         0.00000E+00
    0.10187E-06        -0.10603E-09         0.00000E+00
    0.10186E-06        -0.65192E-10         0.00000E+00
    0.10186E-06        -0.22376E-10         0.00000E+00
    0.10566E-06        -0.29610E-10         0.00000E+00
    0.10565E-06        -0.84846E-10         0.00000E+00
    0.10565E-06        -0.13488E-09         0.00000E+00
    0.10564E-06        -0.18009E-09         0.00000E+00
    0.10563E-06        -0.22082E-09         0.00000E+00
    0.10561E-06        -0.25740E-09         0.00000E+00
    0.10559E-06        -0.29013E-09         0.00000E+00
    0.10558E-06        -0.31931E-09         0.00000E+00
    0.10555E-06        -0.34520E-09         0.00000E+00
    0.10553E-06        -0.36803E-09         0.00000E+00
    0.10551E-06        -0.38805E-09         0.00000E+00
    0.10548E-06        -0.40545E-09         0.00000E+00
    0.10545E-06        -0.42042E-09         0.00000E+00
    0.10542E-06        -0.43316E-09         0.00000E+00
    0.10539E-06        -0.44381E-09         0.00000E+00
    0.10536E-06        -0.45253E-09         0.00000E+00
    0.10533E-06        -0.45945E-09         0.00000E+00
    0.10530E-06        -0.46468E-09         0.00000E+00
    0.10527E-06        -0.46835E-09         0.00000E+00
    0.10523E-06        -0.47054E-09         0.00000E+00
    0.10520E-06        -0.47135E-09         0.00000E+00
    0.10517E-06        -0.47086E-09         0.00000E+00
    0.10513E-06        -0.46913E-09         0.00000E+00
    0.10510E-06        -0.46622E-09         0.00000E+00
    0.10507E-06        -0.46219E-09         0.00000E+00
    0.10503E-06        -0.45708E-09         0.00000E+00
    0.10500E-06        -0.45093E-09         0.00000E+00
    0.10497E-06        -0.44378E-09         0.00000E+00
    0.10494E-06        -0.43563E-09         0.00000E+00
    0.10491E-06        -0.42652E-09         0.00000E+00
    0.10488E-06        -0.41645E-09         0.00000E+00
    0.10485E-06        -0.40542E-09         0.00000E+00
    0.10482E-06        -0.39345E-09         0.00000E+00
    0.10479E-06        -0.38052E-09         0.00000E+00
    0.10476E-06        -0.36662E-09         0.00000E+00
    0.10474E-06        -0.35173E-09         0.00000E+00
    0.10472E-06        -0.33584E-09         0.00000E+00
    0.10469E-06        -0.31890E-09         0.00000E+00
    0.10467E-06        -0.30091E-09         0.00000E+00
    0.10465E-06        -0.28180E-09         0.00000E+00
    0.10463E-06        -0.26154E-09         0.00000E+00
    0.10462E-06        -0.24009E-09         0.00000E+00
    0.10460E-06        -0.21738E-09         0.00000E+00
    0.10459E-06        -0.19335E-09         0.00000E+00
    0.10458E-06        -0.16795E-09         0.00000E+00
    0.10457E-06        -0.14110E-09         0.00000E+00
    0.10456E-06        -0.11272E-09         0.00000E+00
    0.10455E-06        -0.82738E-10         0.00000E+00
    0.10455E-06        -0.51065E-10         0.00000E+00
    0.10455E-06        -0.17611E-10         0.00000E+00
    0.10823E-06        -0.20366E-10         0.00000E+00
    0.10823E-06        -0.57911E-10         0.00000E+00
    0.10822E-06        -0.91351E-10         0.00000E+00
    0.10821E-06        -0.12105E-09         0.00000E+00
    0.10819E-06        -0.14735E-09         0.00000E+00
    0.10818E-06        -0.17055E-09         0.00000E+00
    0.10816E-06        -0.19096E-09         0.00000E+00
    0.10813E-06        -0.20882E-09         0.00000E+00
    0.10811E-06        -0.22438E-09         0.00000E+00
    0.10808E-06        -0.23785E-09         0.00000E+00
    0.10805E-06        -0.24944E-09         0.00000E+00
    0.10802E-06        -0.25932E-09         0.00000E+00
    0.10799E-06        -0.26766E-09         0.00000E+00
    0.10796E-06        -0.27459E-09         0.00000E+00
    0.10792E-06        -0.28026E-09         0.00000E+00
    0.10789E-06        -0.28476E-09         0.00000E+00
    0.10785E-06        -0.28821E-09         0.00000E+00
    0.10781E-06        -0.29070E-09         0.00000E+00
    0.10778E-06        -0.29230E-09         0.00000E+00
    0.10774E-06        -0.29309E-09         0.00000E+00
    0.10770E-06        -0.29311E-09         0.00000E+00
    0.10766E-06        -0.29243E-09         0.00000E+00
    0.10763E-06        -0.29109E-09         0.00000E+00
    0.10759E-06        -0.28912E-09         0.00000E+00
    0.10755E-06        -0.28656E-09         0.00000E+00
    0.10751E-06        -0.28342E-09         0.00000E+00
    0.10748E-06        -0.27973E-09         0.00000E+00
    0.10744E-06        -0.27550E-09         0.00000E+00
    0.10741E-06        -0.27074E-09         0.00000E+00
    0.10737E-06        -0.26544E-09         0.00000E+00
    0.10734E-06        -0.25962E-09         0.00000E+00
    0.10731E-06        -0.25326E-09         0.00000E+00
    0.10727E-06        -0.24635E-09         0.00000E+00
    0.10724E-06        -0.23889E-09         0.00000E+00
    0.10722E-06        -0.23084E-09         0.00000E+00
    0.10719E-06        -0.22219E-09         0.00000E+00
    0.10716E-06        -0.21291E-09         0.00000E+00
    0.10714E-06        -0.20296E-09         0.00000E+00
    0.10711E-06        -0.19231E-09         0.00000E+00
    0.10709E-06        -0.18091E-09         0.00000E+00
    0.10707E-06        -0.16871E-09         0.00000E+00
    0.10705E-06        -0.15566E-09         0.00000E+00
    0.10703E-06        -0.14170E-09         0.00000E+00
    0.10702E-06        -0.12676E-09         0.00000E+00
    0.10701E-06        -0.11077E-09         0.00000E+00
    0.10699E-06        -0.93650E-10         0.00000E+00
    0.10699E-06        -0.75312E-10         0.00000E+00
    0.10698E-06        -0.55666E-10         0.00000E+00
    0.10697E-06        -0.34613E-10         0.00000E+00
    0.10697E-06        -0.12048E-10         0.00000E+00
    0.11045E-06        -0.93667E-11         0.00000E+00
    0.11045E-06        -0.26011E-10         0.00000E+00
    0.11044E-06        -0.40052E-10         0.00000E+00
    0.11043E-06        -0.51820E-10         0.00000E+00
    0.11041E-06        -0.61618E-10         0.00000E+00
    0.11039E-06        -0.69716E-10         0.00000E+00
    0.11037E-06        -0.76354E-10         0.00000E+00
    0.11034E-06        -0.81749E-10         0.00000E+00
    0.11032E-06        -0.86089E-10         0.00000E+00
    0.11029E-06        -0.89542E-10         0.00000E+00
    0.11025E-06        -0.92251E-10         0.00000E+00
    0.11022E-06        -0.94342E-10         0.00000E+00
    0.11018E-06        -0.95921E-10         0.00000E+00
    0.11015E-06        -0.97081E-10         0.00000E+00
    0.11011E-06        -0.97897E-10         0.00000E+00
    0.11007E-06        -0.98433E-10         0.00000E+00
    0.11003E-06        -0.98741E-10         0.00000E+00
    0.10999E-06        -0.98863E-10         0.00000E+00
    0.10995E-06        -0.98831E-10         0.00000E+00
    0.10991E-06        -0.98673E-10         0.00000E+00
    0.10987E-06        -0.98407E-10         0.00000E+00
    0.10983E-06        -0.98046E-10         0.00000E+00
    0.10979E-06        -0.97600E-10         0.00000E+00
    0.10975E-06        -0.97073E-10         0.00000E+00
    0.10972E-06        -0.96467E-10         0.00000E+00
    0.10968E-06        -0.95781E-10         0.00000E+00
    0.10964E-06        -0.95010E-10         0.00000E+00
    0.10960E-06        -0.94148E-10         0.00000E+00
    0.10956E-06        -0.93187E-10         0.00000E+00
    0.10953E-06        -0.92117E-10         0.00000E+00
    0.10949E-06        -0.90925E-10         0.00000E+00
    0.10946E-06        -0.89597E-10         0.00000E+00
    0.10943E-06        -0.88117E-10         0.00000E+00
    0.10940E-06        -0.86465E-10         0.00000E+00
    0.10937E-06        -0.84621E-10         0.00000E+00
    0.10934E-06        -0.82558E-10         0.00000E+00
    0.10931E-06        -0.80250E-10         0.00000E+00
    0.10928E-06        -0.77665E-10         0.00000E+00
    0.10926E-06        -0.74766E-10         0.00000E+00
    0.10923E-06        -0.71511E-10         0.00000E+00
    0.10921E-06        -0.67855E-10         0.00000E+00
    0.10919E-06        -0.63745E-10         0.00000E+00
    0.10917E-06        -0.59121E-10         0.00000E+00
    0.10916E-06        -0.53918E-10         0.00000E+00
    0.10914E-06        -0.48063E-10         0.00000E+00
    0.10913E-06        -0.41473E-10         0.00000E+00
    0.10912E-06        -0.34060E-10         0.00000E+00
    0.10912E-06        -0.25725E-10         0.00000E+00
    0.10911E-06        -0.16362E-10         0.00000E+00
    0.10911E-06        -0.58533E-11         0.00000E+00
    0.11227E-06         0.30850E-11         0.00000E+00
    0.11226E-06         0.98811E-11         0.00000E+00
    0.11226E-06         0.17320E-10         0.00000E+00
    0.11224E-06         0.25135E-10         0.00000E+00
    0.11222E-06         0.33096E-10         0.00000E+00
    0.11220E-06         0.41008E-10         0.00000E+00
    0.11218E-06         0.48712E-10         0.00000E+00
    0.11215E-06         0.56075E-10         0.00000E+00
    0.11212E-06         0.62993E-10         0.00000E+00
    0.11209E-06         0.69388E-10         0.00000E+00
    0.11206E-06         0.75202E-10         0.00000E+00
    0.11202E-06         0.80396E-10         0.00000E+00
    0.11199E-06         0.84948E-10         0.00000E+00
    0.11195E-06         0.88850E-10         0.00000E+00
    0.11191E-06         0.92104E-10         0.00000E+00
    0.11187E-06         0.94724E-10         0.00000E+00
    0.11183E-06         0.96730E-10         0.00000E+00
    0.11180E-06         0.98147E-10         0.00000E+00
    0.11176E-06         0.99005E-10         0.00000E+00
    0.11172E-06         0.99335E-10         0.00000E+00
    0.11168E-06         0.99173E-10         0.00000E+00
    0.11164E-06         0.98552E-10         0.00000E+00
    0.11160E-06         0.97505E-10         0.00000E+00
    0.11156E-06         0.96065E-10         0.00000E+00
    0.11153E-06         0.94265E-10         0.00000E+00
    0.11149E-06         0.92132E-10         0.00000E+00
    0.11145E-06         0.89695E-10         0.00000E+00
    0.11142E-06         0.86978E-10         0.00000E+00
    0.11138E-06         0.84004E-10         0.00000E+00
    0.11135E-06         0.80795E-10         0.00000E+00
    0.11131E-06         0.77369E-10         0.00000E+00
    0.11128E-06         0.73743E-10         0.00000E+00
    0.11125E-06         0.69934E-10         0.00000E+00
    0.11122E-06         0.65956E-10         0.00000E+00
    0.11119E-06         0.61824E-10         0.00000E+00
    0.11116E-06         0.57554E-10         0.00000E+00
    0.11113E-06         0.53163E-10         0.00000E+00
    0.11111E-06         0.48670E-10         0.00000E+00
    0.11109E-06         0.44096E-10         0.00000E+00
    0.11106E-06         0.39466E-10         0.00000E+00
    0.11104E-06         0.34813E-10         0.00000E+00
    0.11102E-06         0.30173E-10         0.00000E+00
    0.11100E-06         0.25588E-10         0.00000E+00
    0.11099E-06         0.21112E-10         0.00000E+00
    0.11097E-06         0.16806E-10         0.00000E+00
    0.11096E-06         0.12740E-10         0.00000E+00
    0.11095E-06         0.89965E-11         0.00000E+00
    0.11094E-06         0.56706E-11         0.00000E+00
    0.11094E-06         0.28701E-11         0.00000E+00
    0.11094E-06         0.71511E-12         0.00000E+00
    0.11362E-06         0.16392E-10         0.00000E+00
    0.11362E-06         0.47974E-10         0.00000E+00
    0.11361E-06         0.77705E-10         0.00000E+00
    0.11359E-06         0.10543E-09         0.00000E+00
    0.11357E-06         0.13104E-09         0.00000E+00
    0.11355E-06         0.15447E-09         0.00000E+00
    0.11353E-06         0.17571E-09         0.00000E+00
    0.11350E-06         0.19476E-09         0.00000E+00
    0.11348E-06         0.21165E-09         0.00000E+00
    0.11345E-06         0.22644E-09         0.00000E+00
    0.11341E-06         0.23922E-09         0.00000E+00
    0.11338E-06         0.25007E-09         0.00000E+00
    0.11335E-06         0.25909E-09         0.00000E+00
    0.11332E-06         0.26641E-09         0.00000E+00
    0.11328E-06         0.27213E-09         0.00000E+00
    0.11325E-06         0.27638E-09         0.00000E+00
    0.11321E-06         0.27926E-09         0.00000E+00
    0.11318E-06         0.28090E-09         0.00000E+00
    0.11315E-06         0.28139E-09         0.00000E+00
    0.11311E-06         0.28084E-09         0.00000E+00
    0.11308E-06         0.27935E-09         0.00000E+00
    0.11305E-06         0.27700E-09         0.00000E+00
    0.11301E-06         0.27387E-09         0.00000E+00
    0.11298E-06         0.27004E-09         0.00000E+00
    0.11295E-06         0.26556E-09         0.00000E+00
    0.11292E-06         0.26049E-09         0.00000E+00
    0.11289E-06         0.25488E-09         0.00000E+00
    0.11286E-06         0.24877E-09         0.00000E+00
    0.11283E-06         0.24220E-09         0.00000E+00
    0.11280E-06         0.23518E-09         0.00000E+00
    0.11278E-06         0.22774E-09         0.00000E+00
    0.11275E-06         0.21988E-09         0.00000E+00
    0.11272E-06         0.21162E-09         0.00000E+00
    0.11270E-06         0.20295E-09         0.00000E+00
    0.11267E-06         0.19388E-09         0.00000E+00
    0.11265E-06         0.18439E-09         0.00000E+00
    0.11263E-06         0.17447E-09         0.00000E+00
    0.11260E-06         0.16412E-09         0.00000E+00
    0.11258E-06         0.15332E-09         0.00000E+00
    0.11256E-06         0.14206E-09         0.00000E+00
    0.11255E-06         0.13034E-09         0.00000E+00
    0.11253E-06         0.11816E-09         0.00000E+00
    0.11251E-06         0.10552E-09         0.00000E+00
    0.11250E-06         0.92447E-10         0.00000E+00
    0.11249E-06         0.78959E-10         0.00000E+00
    0.11247E-06         0.65098E-10         0.00000E+00
    0.11247E-06         0.50920E-10         0.00000E+00
    0.11246E-06         0.36493E-10         0.00000E+00
    0.11245E-06         0.21905E-10         0.00000E+00
    0.11245E-06         0.72679E-11         0.00000E+00
    0.11445E-06         0.29663E-10         0.00000E+00
    0.11445E-06         0.85270E-10         0.00000E+00
    0.11444E-06         0.13588E-09         0.00000E+00
    0.11443E-06         0.18158E-09         0.00000E+00
    0.11441E-06         0.22248E-09         0.00000E+00
    0.11439E-06         0.25872E-09         0.00000E+00
    0.11437E-06         0.29050E-09         0.00000E+00
    0.11435E-06         0.31805E-09         0.00000E+00
    0.11433E-06         0.34163E-09         0.00000E+00
    0.11431E-06         0.36153E-09         0.00000E+00
    0.11428E-06         0.37803E-09         0.00000E+00
    0.11426E-06         0.39142E-09         0.00000E+00
    0.11423E-06         0.40198E-09         0.00000E+00
    0.11421E-06         0.41000E-09         0.00000E+00
    0.11419E-06         0.41571E-09         0.00000E+00
    0.11416E-06         0.41937E-09         0.00000E+00
    0.11414E-06         0.42119E-09         0.00000E+00
    0.11412E-06         0.42138E-09         0.00000E+00
    0.11410E-06         0.42013E-09         0.00000E+00
    0.11407E-06         0.41760E-09         0.00000E+00
    0.11405E-06         0.41393E-09         0.00000E+00
    0.11403E-06         0.40928E-09         0.00000E+00
    0.11401E-06         0.40374E-09         0.00000E+00
    0.11399E-06         0.39742E-09         0.00000E+00
    0.11397E-06         0.39041E-09         0.00000E+00
    0.11396E-06         0.38278E-09         0.00000E+00
    0.11394E-06         0.37458E-09         0.00000E+00
    0.11392E-06         0.36587E-09         0.00000E+00
    0.11390E-06         0.35668E-09         0.00000E+00
    0.11389E-06         0.34702E-09         0.00000E+00
    0.11387E-06         0.33692E-09         0.00000E+00
    0.11385E-06         0.32636E-09         0.00000E+00
    0.11384E-06         0.31535E-09         0.00000E+00
    0.11382E-06         0.30385E-09         0.00000E+00
    0.11381E-06         0.29184E-09         0.00000E+00
    0.11379E-06         0.27927E-09         0.00000E+00
    0.11378E-06         0.26611E-09         0.00000E+00
    0.11376E-06         0.25228E-09         0.00000E+00
    0.11375E-06         0.23774E-09         0.00000E+00
    0.11374E-06         0.22240E-09         0.00000E+00
    0.11372E-06         0.20621E-09         0.00000E+00
    0.11371E-06         0.18909E-09         0.00000E+00
    0.11370E-06         0.17097E-09         0.00000E+00
    0.11369E-06         0.15179E-09         0.00000E+00
    0.11368E-06         0.13151E-09         0.00000E+00
    0.11367E-06         0.11009E-09         0.00000E+00
    0.11366E-06         0.87535E-10         0.00000E+00
    0.11366E-06         0.63865E-10         0.00000E+00
    0.11365E-06         0.39124E-10         0.00000E+00
    0.11365E-06         0.13361E-10         0.00000E+00
    0.11471E-06         0.40710E-10         0.00000E+00
    0.11470E-06         0.11598E-09         0.00000E+00
    0.11470E-06         0.18253E-09         0.00000E+00
    0.11469E-06         0.24055E-09         0.00000E+00
    0.11468E-06         0.29048E-09         0.00000E+00
    0.11467E-06         0.33294E-09         0.00000E+00
    0.11466E-06         0.36861E-09         0.00000E+00
    0.11465E-06         0.39817E-09         0.00000E+00
    0.11464E-06         0.42230E-09         0.00000E+00
    0.11463E-06         0.44161E-09         0.00000E+00
    0.11462E-06         0.45669E-09         0.00000E+00
    0.11461E-06         0.46806E-09         0.00000E+00
    0.11461E-06         0.47619E-09         0.00000E+00
    0.11460E-06         0.48151E-09         0.00000E+00
    0.11460E-06         0.48439E-09         0.00000E+00
    0.11459E-06         0.48517E-09         0.00000E+00
    0.11459E-06         0.48414E-09         0.00000E+00
    0.11459E-06         0.48156E-09         0.00000E+00
    0.11459E-06         0.47765E-09         0.00000E+00
    0.11459E-06         0.47261E-09         0.00000E+00
    0.11459E-06         0.46662E-09         0.00000E+00
    0.11459E-06         0.45980E-09         0.00000E+00
    0.11459E-06         0.45230E-09         0.00000E+00
    0.11459E-06         0.44421E-09         0.00000E+00
    0.11459E-06         0.43562E-09         0.00000E+00
    0.11459E-06         0.42660E-09         0.00000E+00
    0.11459E-06         0.41721E-09         0.00000E+00
    0.11459E-06         0.40749E-09         0.00000E+00
    0.11459E-06         0.39746E-09         0.00000E+00
    0.11459E-06         0.38714E-09         0.00000E+00
    0.11459E-06         0.37652E-09         0.00000E+00
    0.11459E-06         0.36559E-09         0.00000E+00
    0.11459E-06         0.35434E-09         0.00000E+00
    0.11459E-06         0.34271E-09         0.00000E+00
    0.11459E-06         0.33066E-09         0.00000E+00
    0.11459E-06         0.31812E-09         0.00000E+00
    0.11459E-06         0.30500E-09         0.00000E+00
    0.11459E-06         0.29122E-09         0.00000E+00
    0.11459E-06         0.27666E-09         0.00000E+00
    0.11459E-06         0.26118E-09         0.00000E+00
    0.11458E-06         0.24464E-09         0.00000E+00
    0.11458E-06         0.22687E-09         0.00000E+00
    0.11458E-06         0.20768E-09         0.00000E+00
    0.11457E-06         0.18689E-09         0.00000E+00
    0.11457E-06         0.16427E-09         0.00000E+00
    0.11456E-06         0.13963E-09         0.00000E+00
    0.11456E-06         0.11277E-09         0.00000E+00
    0.11456E-06         0.83554E-10         0.00000E+00
    0.11455E-06         0.51911E-10         0.00000E+00
    0.11455E-06         0.17938E-10         0.00000E+00
    0.11431E-06         0.48116E-10         0.00000E+00
    0.11431E-06         0.13137E-09         0.00000E+00
    0.11431E-06         0.19917E-09         0.00000E+00
    0.11431E-06         0.25404E-09         0.00000E+00
    0.11432E-06         0.29813E-09         0.00000E+00
    0.11433E-06         0.33325E-09         0.00000E+00
    0.11434E-06         0.36089E-09         0.00000E+00
    0.11435E-06         0.38229E-09         0.00000E+00
    0.11437E-06         0.39848E-09         0.00000E+00
    0.11439E-06         0.41033E-09         0.00000E+00
    0.11441E-06         0.41854E-09         0.00000E+00
    0.11444E-06         0.42371E-09         0.00000E+00
    0.11446E-06         0.42636E-09         0.00000E+00
    0.11449E-06         0.42690E-09         0.00000E+00
    0.11451E-06         0.42569E-09         0.00000E+00
    0.11454E-06         0.42303E-09         0.00000E+00
    0.11457E-06         0.41918E-09         0.00000E+00
    0.11460E-06         0.41435E-09         0.00000E+00
    0.11463E-06         0.40872E-09         0.00000E+00
    0.11466E-06         0.40245E-09         0.00000E+00
    0.11468E-06         0.39566E-09         0.00000E+00
    0.11471E-06         0.38848E-09         0.00000E+00
    0.11474E-06         0.38097E-09         0.00000E+00
    0.11477E-06         0.37323E-09         0.00000E+00
    0.11480E-06         0.36531E-09         0.00000E+00
    0.11482E-06         0.35726E-09         0.00000E+00
    0.11485E-06         0.34910E-09         0.00000E+00
    0.11488E-06         0.34088E-09         0.00000E+00
    0.11490E-06         0.33259E-09         0.00000E+00
    0.11493E-06         0.32425E-09         0.00000E+00
    0.11495E-06         0.31585E-09         0.00000E+00
    0.11498E-06         0.30738E-09         0.00000E+00
    0.11500E-06         0.29880E-09         0.00000E+00
    0.11502E-06         0.29009E-09         0.00000E+00
    0.11504E-06         0.28119E-09         0.00000E+00
    0.11506E-06         0.27204E-09         0.00000E+00
    0.11508E-06         0.26256E-09         0.00000E+00
    0.11510E-06         0.25267E-09         0.00000E+00
    0.11511E-06         0.24224E-09         0.00000E+00
    0.11513E-06         0.23113E-09         0.00000E+00
    0.11514E-06         0.21918E-09         0.00000E+00
    0.11515E-06         0.20619E-09         0.00000E+00
    0.11516E-06         0.19191E-09         0.00000E+00
    0.11517E-06         0.17604E-09         0.00000E+00
    0.11518E-06         0.15823E-09         0.00000E+00
    0.11519E-06         0.13804E-09         0.00000E+00
    0.11519E-06         0.11493E-09         0.00000E+00
    0.11519E-06         0.88269E-10         0.00000E+00
    0.11519E-06         0.57279E-10         0.00000E+00
    0.11519E-06         0.21053E-10         0.00000E+00
    0.11313E-06         0.25488E-10         0.00000E+00
    0.11315E-06         0.67023E-10         0.00000E+00
    0.11319E-06         0.98426E-10         0.00000E+00
    0.11323E-06         0.12221E-09         0.00000E+00
    0.11328E-06         0.14018E-09         0.00000E+00
    0.11334E-06         0.15365E-09         0.00000E+00
    0.11341E-06         0.16361E-09         0.00000E+00
    0.11347E-06         0.17078E-09         0.00000E+00
    0.11354E-06         0.17575E-09         0.00000E+00
    0.11361E-06         0.17896E-09         0.00000E+00
    0.11368E-06         0.18074E-09         0.00000E+00
    0.11376E-06         0.18139E-09         0.00000E+00
    0.11383E-06         0.18112E-09         0.00000E+00
    0.11390E-06         0.18011E-09         0.00000E+00
    0.11397E-06         0.17852E-09         0.00000E+00
    0.11404E-06         0.17644E-09         0.00000E+00
    0.11411E-06         0.17400E-09         0.00000E+00
    0.11418E-06         0.17127E-09         0.00000E+00
    0.11425E-06         0.16831E-09         0.00000E+00
    0.11432E-06         0.16518E-09         0.00000E+00
    0.11438E-06         0.16194E-09         0.00000E+00
    0.11445E-06         0.15861E-09         0.00000E+00
    0.11451E-06         0.15522E-09         0.00000E+00
    0.11457E-06         0.15181E-09         0.00000E+00
    0.11463E-06         0.14839E-09         0.00000E+00
    0.11469E-06         0.14498E-09         0.00000E+00
    0.11475E-06         0.14159E-09         0.00000E+00
    0.11480E-06         0.13823E-09         0.00000E+00
    0.11486E-06         0.13489E-09         0.00000E+00
    0.11491E-06         0.13159E-09         0.00000E+00
    0.11496E-06         0.12831E-09         0.00000E+00
    0.11501E-06         0.12505E-09         0.00000E+00
    0.11506E-06         0.12180E-09         0.00000E+00
    0.11511E-06         0.11855E-09         0.00000E+00
    0.11516E-06         0.11528E-09         0.00000E+00
    0.11520E-06         0.11196E-09         0.00000E+00
    0.11525E-06         0.10856E-09         0.00000E+00
    0.11529E-06         0.10504E-09         0.00000E+00
    0.11533E-06         0.10136E-09         0.00000E+00
    0.11537E-06         0.97453E-10         0.00000E+00
    0.11541E-06         0.93251E-10         0.00000E+00
    0.11545E-06         0.88656E-10         0.00000E+00
    0.11548E-06         0.83551E-10         0.00000E+00
    0.11551E-06         0.77781E-10         0.00000E+00
    0.11554E-06         0.71145E-10         0.00000E+00
    0.11557E-06         0.63375E-10         0.00000E+00
    0.11559E-06         0.54109E-10         0.00000E+00
    0.11561E-06         0.42848E-10         0.00000E+00
    0.11563E-06         0.28892E-10         0.00000E+00
    0.11563E-06         0.11236E-10         0.00000E+00
POINT_DATA       5151
VECTORS vDarcyNodal double 
    0.76179E-07         0.00000E+00         0.00000E+00
    0.76185E-07         0.00000E+00         0.00000E+00
    0.76203E-07         0.00000E+00         0.00000E+00
    0.76228E-07         0.00000E+00         0.00000E+00
    0.76260E-07         0.00000E+00         0.00000E+00
    0.76297E-07         0.00000E+00         0.00000E+00
    0.76337E-07         0.00000E+00         0.00000E+00
    0.76379E-07         0.00000E+00         0.00000E+00
    0.76423E-07         0.00000E+00         0.00000E+00
    0.76469E-07         0.00000E+00         0.00000E+00
    0.76515E-07         0.00000E+00         0.00000E+00
    0.76562E-07         0.00000E+00         0.00000E+00
    0.76609E-07         0.00000E+00         0.00000E+00
    0.76655E-07         0.00000E+00         0.00000E+00
    0.76702E-07         0.00000E+00         0.00000E+00
    0.76748E-07         0.00000E+00         0.00000E+00
    0.76793E-07         0.00000E+00         0.00000E+00
    0.76838E-07         0.00000E+00         0.00000E+00
    0.76882E-07         0.00000E+00         0.00000E+00
    0.76925E-07         0.00000E+00         0.00000E+00
    0.76967E-07         0.00000E+00         0.00000E+00
    0.77009E-07         0.00000E+00         0.00000E+00
    0.77049E-07         0.00000E+00         0.00000E+00
    0.77089E-07         0.00000E+00         0.00000E+00
    0.77128E-07         0.00000E+00         0.00000E+00
    0.77165E-07         0.00000E+00         0.00000E+00
    0.77202E-07         0.00000E+00         0.00000E+00
    0.77238E-07         0.00000E+00         0.00000E+00
    0.77274E-07         0.00000E+00         0.00000E+00
    0.77308E-07         0.00000E+00         0.00000E+00
    0.77341E-07         0.00000E+00         0.00000E+00
    0.77374E-07         0.00000E+00         0.00000E+00
    0.77406E-07         0.00000E+00         0.00000E+00
    0.77436E-07         0.00000E+00         0.00000E+00
    0.77466E-07         0.00000E+00         0.00000E+00
    0.77496E-07         0.00000E+00         0.00000E+00
    0.77524E-07         0.00000E+00         0.00000E+00
    0.77552E-07         0.00000E+00         0.00000E+00
    0.77578E-07         0.00000E+00         0.00000E+00
    0.77604E-07         0.00000E+00         0.00000E+00
    0.77629E-07         0.00000E+00         0.00000E+00
    0.77652E-07         0.00000E+00         0.00000E+00
    0.77675E-07         0.00000E+00         0.00000E+00
    0.77696E-07         0.00000E+00         0.00000E+00
    0.77716E-07         0.00000E+00         0.00000E+00
    0.77734E-07         0.00000E+00         0.00000E+00
    0.77750E-07         0.00000E+00         0.00000E+00
    0.77764E-07         0.00000E+00         0.00000E+00
    0.77775E-07         0.00000E+00         0.00000E+00
    0.77782E-07         0.00000E+00         0.00000E+00
    0.77785E-07         0.00000E+00         0.00000E+00
    0.76554E-07        -0.33246E-10         0.00000E+00
    0.76557E-07        -0.60300E-10         0.00000E+00
    0.76566E-07        -0.10777E-09         0.00000E+00
    0.76579E-07        -0.14360E-09         0.00000E+00
    0.76596E-07        -0.17064E-09         0.00000E+00
    0.76616E-07        -0.19092E-09         0.00000E+00
    0.76639E-07        -0.20596E-09         0.00000E+00
    0.76665E-07        -0.21688E-09         0.00000E+00
    0.76692E-07        -0.22454E-09         0.00000E+00
    0.76721E-07        -0.22962E-09         0.00000E+00
    0.76751E-07        -0.23262E-09         0.00000E+00
    0.76781E-07        -0.23396E-09         0.00000E+00
    0.76812E-07        -0.23397E-09         0.00000E+00
    0.76844E-07        -0.23290E-09         0.00000E+00
    0.76875E-07        -0.23098E-09         0.00000E+00
    0.76907E-07        -0.22837E-09         0.00000E+00
    0.76938E-07        -0.22523E-09         0.00000E+00
    0.76970E-07        -0.22167E-09         0.00000E+00
    0.77001E-07        -0.21778E-09         0.00000E+00
    0.77031E-07        -0.21365E-09         0.00000E+00
    0.77062E-07        -0.20935E-09         0.00000E+00
    0.77091E-07        -0.20493E-09         0.00000E+00
    0.77120E-07        -0.20044E-09         0.00000E+00
    0.77149E-07        -0.19591E-09         0.00000E+00
    0.77177E-07        -0.19137E-09         0.00000E+00
    0.77205E-07        -0.18685E-09         0.00000E+00
    0.77231E-07        -0.18236E-09         0.00000E+00
    0.77258E-07        -0.17791E-09         0.00000E+00
    0.77283E-07        -0.17353E-09         0.00000E+00
    0.77308E-07        -0.16919E-09         0.00000E+00
    0.77332E-07        -0.16491E-09         0.00000E+00
    0.77356E-07        -0.16068E-09         0.00000E+00
    0.77379E-07        -0.15649E-09         0.00000E+00
    0.77401E-07        -0.15232E-09         0.00000E+00
    0.77423E-07        -0.14815E-09         0.00000E+00
    0.77444E-07        -0.14396E-09         0.00000E+00
    0.77464E-07        -0.13970E-09         0.00000E+00
    0.77483E-07        -0.13533E-09         0.00000E+00
    0.77502E-07        -0.13080E-09         0.00000E+00
    0.77519E-07        -0.12604E-09         0.00000E+00
    0.77536E-07        -0.12096E-09         0.00000E+00
    0.77552E-07        -0.11545E-09         0.00000E+00
    0.77567E-07        -0.10937E-09         0.00000E+00
    0.77580E-07        -0.10256E-09         0.00000E+00
    0.77593E-07        -0.94764E-10         0.00000E+00
    0.77604E-07        -0.85692E-10         0.00000E+00
    0.77613E-07        -0.74932E-10         0.00000E+00
    0.77621E-07        -0.61924E-10         0.00000E+00
    0.77626E-07        -0.45884E-10         0.00000E+00
    0.77630E-07        -0.25704E-10         0.00000E+00
    0.77631E-07        -0.14415E-10         0.00000E+00
    0.77049E-07        -0.29323E-10         0.00000E+00
    0.77048E-07        -0.56338E-10         0.00000E+00
    0.77046E-07        -0.10688E-09         0.00000E+00
    0.77043E-07        -0.15047E-09         0.00000E+00
    0.77041E-07        -0.18735E-09         0.00000E+00
    0.77040E-07        -0.21807E-09         0.00000E+00
    0.77040E-07        -0.24327E-09         0.00000E+00
    0.77040E-07        -0.26363E-09         0.00000E+00
    0.77042E-07        -0.27977E-09         0.00000E+00
    0.77045E-07        -0.29228E-09         0.00000E+00
    0.77048E-07        -0.30167E-09         0.00000E+00
    0.77053E-07        -0.30838E-09         0.00000E+00
    0.77058E-07        -0.31283E-09         0.00000E+00
    0.77064E-07        -0.31535E-09         0.00000E+00
    0.77070E-07        -0.31624E-09         0.00000E+00
    0.77077E-07        -0.31575E-09         0.00000E+00
    0.77085E-07        -0.31411E-09         0.00000E+00
    0.77093E-07        -0.31152E-09         0.00000E+00
    0.77101E-07        -0.30812E-09         0.00000E+00
    0.77109E-07        -0.30406E-09         0.00000E+00
    0.77118E-07        -0.29947E-09         0.00000E+00
    0.77126E-07        -0.29443E-09         0.00000E+00
    0.77135E-07        -0.28905E-09         0.00000E+00
    0.77143E-07        -0.28338E-09         0.00000E+00
    0.77152E-07        -0.27749E-09         0.00000E+00
    0.77160E-07        -0.27142E-09         0.00000E+00
    0.77168E-07        -0.26522E-09         0.00000E+00
    0.77176E-07        -0.25890E-09         0.00000E+00
    0.77184E-07        -0.25249E-09         0.00000E+00
    0.77192E-07        -0.24600E-09         0.00000E+00
    0.77199E-07        -0.23942E-09         0.00000E+00
    0.77207E-07        -0.23276E-09         0.00000E+00
    0.77213E-07        -0.22599E-09         0.00000E+00
    0.77220E-07        -0.21910E-09         0.00000E+00
    0.77226E-07        -0.21205E-09         0.00000E+00
    0.77232E-07        -0.20479E-09         0.00000E+00
    0.77237E-07        -0.19727E-09         0.00000E+00
    0.77242E-07        -0.18943E-09         0.00000E+00
    0.77247E-07        -0.18119E-09         0.00000E+00
    0.77250E-07        -0.17244E-09         0.00000E+00
    0.77254E-07        -0.16309E-09         0.00000E+00
    0.77257E-07        -0.15299E-09         0.00000E+00
    0.77259E-07        -0.14200E-09         0.00000E+00
    0.77261E-07        -0.12994E-09         0.00000E+00
    0.77262E-07        -0.11661E-09         0.00000E+00
    0.77262E-07        -0.10182E-09         0.00000E+00
    0.77262E-07        -0.85323E-10         0.00000E+00
    0.77261E-07        -0.66935E-10         0.00000E+00
    0.77261E-07        -0.46513E-10         0.00000E+00
    0.77260E-07        -0.24077E-10         0.00000E+00
    0.77259E-07        -0.12371E-10         0.00000E+00
    0.77073E-07        -0.23209E-10         0.00000E+00
    0.77071E-07        -0.44714E-10         0.00000E+00
    0.77067E-07        -0.85526E-10         0.00000E+00
    0.77061E-07        -0.12204E-09         0.00000E+00
    0.77053E-07        -0.15441E-09         0.00000E+00
    0.77044E-07        -0.18281E-09         0.00000E+00
    0.77034E-07        -0.20743E-09         0.00000E+00
    0.77023E-07        -0.22850E-09         0.00000E+00
    0.77013E-07        -0.24628E-09         0.00000E+00
    0.77002E-07        -0.26103E-09         0.00000E+00
    0.76991E-07        -0.27304E-09         0.00000E+00
    0.76980E-07        -0.28256E-09         0.00000E+00
    0.76969E-07        -0.28988E-09         0.00000E+00
    0.76959E-07        -0.29521E-09         0.00000E+00
    0.76949E-07        -0.29880E-09         0.00000E+00
    0.76940E-07        -0.30086E-09         0.00000E+00
    0.76930E-07        -0.30157E-09         0.00000E+00
    0.76921E-07        -0.30110E-09         0.00000E+00
    0.76913E-07        -0.29961E-09         0.00000E+00
    0.76905E-07        -0.29723E-09         0.00000E+00
    0.76897E-07        -0.29410E-09         0.00000E+00
    0.76889E-07        -0.29030E-09         0.00000E+00
    0.76882E-07        -0.28594E-09         0.00000E+00
    0.76875E-07        -0.28110E-09         0.00000E+00
    0.76868E-07        -0.27584E-09         0.00000E+00
    0.76862E-07        -0.27021E-09         0.00000E+00
    0.76855E-07        -0.26428E-09         0.00000E+00
    0.76849E-07        -0.25806E-09         0.00000E+00
    0.76843E-07        -0.25159E-09         0.00000E+00
    0.76837E-07        -0.24488E-09         0.00000E+00
    0.76831E-07        -0.23794E-09         0.00000E+00
    0.76825E-07        -0.23078E-09         0.00000E+00
    0.76819E-07        -0.22337E-09         0.00000E+00
    0.76813E-07        -0.21572E-09         0.00000E+00
    0.76808E-07        -0.20778E-09         0.00000E+00
    0.76802E-07        -0.19953E-09         0.00000E+00
    0.76796E-07        -0.19093E-09         0.00000E+00
    0.76791E-07        -0.18193E-09         0.00000E+00
    0.76785E-07        -0.17246E-09         0.00000E+00
    0.76779E-07        -0.16248E-09         0.00000E+00
    0.76774E-07        -0.15191E-09         0.00000E+00
    0.76768E-07        -0.14067E-09         0.00000E+00
    0.76763E-07        -0.12869E-09         0.00000E+00
    0.76758E-07        -0.11590E-09         0.00000E+00
    0.76753E-07        -0.10224E-09         0.00000E+00
    0.76748E-07        -0.87639E-10         0.00000E+00
    0.76744E-07        -0.72069E-10         0.00000E+00
    0.76741E-07        -0.55517E-10         0.00000E+00
    0.76738E-07        -0.37990E-10         0.00000E+00
    0.76736E-07        -0.19495E-10         0.00000E+00
    0.76736E-07        -0.10005E-10         0.00000E+00
    0.76695E-07        -0.14544E-10         0.00000E+00
    0.76693E-07        -0.28386E-10         0.00000E+00
    0.76688E-07        -0.55033E-10         0.00000E+00
    0.76680E-07        -0.79575E-10         0.00000E+00
    0.76670E-07        -0.10197E-09         0.00000E+00
    0.76658E-07        -0.12223E-09         0.00000E+00
    0.76644E-07        -0.14037E-09         0.00000E+00
    0.76629E-07        -0.15645E-09         0.00000E+00
    0.76612E-07        -0.17053E-09         0.00000E+00
    0.76595E-07        -0.18271E-09         0.00000E+00
    0.76577E-07        -0.19307E-09         0.00000E+00
    0.76558E-07        -0.20173E-09         0.00000E+00
    0.76539E-07        -0.20881E-09         0.00000E+00
    0.76520E-07        -0.21442E-09         0.00000E+00
    0.76500E-07        -0.21869E-09         0.00000E+00
    0.76481E-07        -0.22172E-09         0.00000E+00
    0.76462E-07        -0.22364E-09         0.00000E+00
    0.76443E-07        -0.22455E-09         0.00000E+00
    0.76424E-07        -0.22455E-09         0.00000E+00
    0.76405E-07        -0.22374E-09         0.00000E+00
    0.76386E-07        -0.22220E-09         0.00000E+00
    0.76368E-07        -0.22002E-09         0.00000E+00
    0.76350E-07        -0.21726E-09         0.00000E+00
    0.76333E-07        -0.21399E-09         0.00000E+00
    0.76315E-07        -0.21026E-09         0.00000E+00
    0.76298E-07        -0.20613E-09         0.00000E+00
    0.76282E-07        -0.20163E-09         0.00000E+00
    0.76265E-07        -0.19679E-09         0.00000E+00
    0.76250E-07        -0.19165E-09         0.00000E+00
    0.76234E-07        -0.18623E-09         0.00000E+00
    0.76219E-07        -0.18053E-09         0.00000E+00
    0.76204E-07        -0.17458E-09         0.00000E+00
    0.76189E-07        -0.16836E-09         0.00000E+00
    0.76175E-07        -0.16188E-09         0.00000E+00
    0.76161E-07        -0.15513E-09         0.00000E+00
    0.76148E-07        -0.14809E-09         0.00000E+00
    0.76135E-07        -0.14076E-09         0.00000E+00
    0.76123E-07        -0.13312E-09         0.00000E+00
    0.76111E-07        -0.12514E-09         0.00000E+00
    0.76099E-07        -0.11681E-09         0.00000E+00
    0.76088E-07        -0.10811E-09         0.00000E+00
    0.76078E-07        -0.99012E-10         0.00000E+00
    0.76068E-07        -0.89513E-10         0.00000E+00
    0.76060E-07        -0.79602E-10         0.00000E+00
    0.76052E-07        -0.69281E-10         0.00000E+00
    0.76044E-07        -0.58557E-10         0.00000E+00
    0.76038E-07        -0.47451E-10         0.00000E+00
    0.76033E-07        -0.35989E-10         0.00000E+00
    0.76030E-07        -0.24214E-10         0.00000E+00
    0.76027E-07        -0.12183E-10         0.00000E+00
    0.76027E-07        -0.61120E-11         0.00000E+00
    0.75955E-07        -0.55428E-11         0.00000E+00
    0.75954E-07        -0.11041E-10         0.00000E+00
    0.75949E-07        -0.21920E-10         0.00000E+00
    0.75941E-07        -0.32487E-10         0.00000E+00
    0.75930E-07        -0.42609E-10         0.00000E+00
    0.75917E-07        -0.52176E-10         0.00000E+00
    0.75902E-07        -0.61102E-10         0.00000E+00
    0.75885E-07        -0.69326E-10         0.00000E+00
    0.75866E-07        -0.76805E-10         0.00000E+00
    0.75847E-07        -0.83513E-10         0.00000E+00
    0.75826E-07        -0.89440E-10         0.00000E+00
    0.75804E-07        -0.94590E-10         0.00000E+00
    0.75781E-07        -0.98975E-10         0.00000E+00
    0.75758E-07        -0.10262E-09         0.00000E+00
    0.75734E-07        -0.10555E-09         0.00000E+00
    0.75710E-07        -0.10781E-09         0.00000E+00
    0.75686E-07        -0.10943E-09         0.00000E+00
    0.75661E-07        -0.11046E-09         0.00000E+00
    0.75637E-07        -0.11094E-09         0.00000E+00
    0.75613E-07        -0.11090E-09         0.00000E+00
    0.75588E-07        -0.11040E-09         0.00000E+00
    0.75564E-07        -0.10947E-09         0.00000E+00
    0.75540E-07        -0.10816E-09         0.00000E+00
    0.75517E-07        -0.10649E-09         0.00000E+00
    0.75493E-07        -0.10450E-09         0.00000E+00
    0.75470E-07        -0.10223E-09         0.00000E+00
    0.75448E-07        -0.99693E-10         0.00000E+00
    0.75425E-07        -0.96922E-10         0.00000E+00
    0.75404E-07        -0.93936E-10         0.00000E+00
    0.75382E-07        -0.90754E-10         0.00000E+00
    0.75362E-07        -0.87391E-10         0.00000E+00
    0.75342E-07        -0.83859E-10         0.00000E+00
    0.75322E-07        -0.80169E-10         0.00000E+00
    0.75303E-07        -0.76331E-10         0.00000E+00
    0.75284E-07        -0.72350E-10         0.00000E+00
    0.75267E-07        -0.68234E-10         0.00000E+00
    0.75250E-07        -0.63989E-10         0.00000E+00
    0.75233E-07        -0.59620E-10         0.00000E+00
    0.75218E-07        -0.55135E-10         0.00000E+00
    0.75203E-07        -0.50543E-10         0.00000E+00
    0.75189E-07        -0.45855E-10         0.00000E+00
    0.75177E-07        -0.41088E-10         0.00000E+00
    0.75165E-07        -0.36261E-10         0.00000E+00
    0.75154E-07        -0.31399E-10         0.00000E+00
    0.75145E-07        -0.26534E-10         0.00000E+00
    0.75136E-07        -0.21702E-10         0.00000E+00
    0.75129E-07        -0.16952E-10         0.00000E+00
    0.75124E-07        -0.12337E-10         0.00000E+00
    0.75119E-07        -0.79249E-11         0.00000E+00
    0.75117E-07        -0.37903E-11         0.00000E+00
    0.75116E-07        -0.18026E-11         0.00000E+00
    0.74894E-07         0.31417E-11         0.00000E+00
    0.74892E-07         0.57771E-11         0.00000E+00
    0.74887E-07         0.10437E-10         0.00000E+00
    0.74879E-07         0.13979E-10         0.00000E+00
    0.74869E-07         0.16594E-10         0.00000E+00
    0.74857E-07         0.18453E-10         0.00000E+00
    0.74842E-07         0.19706E-10         0.00000E+00
    0.74825E-07         0.20485E-10         0.00000E+00
    0.74807E-07         0.20901E-10         0.00000E+00
    0.74787E-07         0.21050E-10         0.00000E+00
    0.74766E-07         0.21013E-10         0.00000E+00
    0.74744E-07         0.20857E-10         0.00000E+00
    0.74720E-07         0.20637E-10         0.00000E+00
    0.74696E-07         0.20395E-10         0.00000E+00
    0.74672E-07         0.20167E-10         0.00000E+00
    0.74646E-07         0.19976E-10         0.00000E+00
    0.74621E-07         0.19841E-10         0.00000E+00
    0.74595E-07         0.19774E-10         0.00000E+00
    0.74568E-07         0.19781E-10         0.00000E+00
    0.74542E-07         0.19865E-10         0.00000E+00
    0.74515E-07         0.20024E-10         0.00000E+00
    0.74489E-07         0.20255E-10         0.00000E+00
    0.74463E-07         0.20550E-10         0.00000E+00
    0.74437E-07         0.20903E-10         0.00000E+00
    0.74411E-07         0.21305E-10         0.00000E+00
    0.74386E-07         0.21744E-10         0.00000E+00
    0.74361E-07         0.22212E-10         0.00000E+00
    0.74336E-07         0.22698E-10         0.00000E+00
    0.74312E-07         0.23189E-10         0.00000E+00
    0.74288E-07         0.23675E-10         0.00000E+00
    0.74265E-07         0.24145E-10         0.00000E+00
    0.74242E-07         0.24586E-10         0.00000E+00
    0.74221E-07         0.24987E-10         0.00000E+00
    0.74199E-07         0.25334E-10         0.00000E+00
    0.74179E-07         0.25613E-10         0.00000E+00
    0.74159E-07         0.25809E-10         0.00000E+00
    0.74141E-07         0.25905E-10         0.00000E+00
    0.74123E-07         0.25883E-10         0.00000E+00
    0.74106E-07         0.25722E-10         0.00000E+00
    0.74090E-07         0.25398E-10         0.00000E+00
    0.74075E-07         0.24882E-10         0.00000E+00
    0.74062E-07         0.24146E-10         0.00000E+00
    0.74049E-07         0.23153E-10         0.00000E+00
    0.74038E-07         0.21863E-10         0.00000E+00
    0.74028E-07         0.20231E-10         0.00000E+00
    0.74019E-07         0.18206E-10         0.00000E+00
    0.74012E-07         0.15732E-10         0.00000E+00
    0.74006E-07         0.12746E-10         0.00000E+00
    0.74002E-07         0.91766E-11         0.00000E+00
    0.73999E-07         0.49489E-11         0.00000E+00
    0.73998E-07         0.26604E-11         0.00000E+00
    0.73546E-07         0.10993E-10         0.00000E+00
    0.73544E-07         0.21062E-10         0.00000E+00
    0.73540E-07         0.40023E-10         0.00000E+00
    0.73533E-07         0.56744E-10         0.00000E+00
    0.73524E-07         0.71450E-10         0.00000E+00
    0.73513E-07         0.84347E-10         0.00000E+00
    0.73499E-07         0.95624E-10         0.00000E+00
    0.73484E-07         0.10545E-09         0.00000E+00
    0.73467E-07         0.11398E-09         0.00000E+00
    0.73449E-07         0.12136E-09         0.00000E+00
    0.73429E-07         0.12770E-09         0.00000E+00
    0.73408E-07         0.13312E-09         0.00000E+00
    0.73386E-07         0.13772E-09         0.00000E+00
    0.73363E-07         0.14159E-09         0.00000E+00
    0.73340E-07         0.14480E-09         0.00000E+00
    0.73316E-07         0.14742E-09         0.00000E+00
    0.73291E-07         0.14950E-09         0.00000E+00
    0.73266E-07         0.15111E-09         0.00000E+00
    0.73240E-07         0.15227E-09         0.00000E+00
    0.73214E-07         0.15303E-09         0.00000E+00
    0.73188E-07         0.15343E-09         0.00000E+00
    0.73163E-07         0.15347E-09         0.00000E+00
    0.73137E-07         0.15319E-09         0.00000E+00
    0.73111E-07         0.15261E-09         0.00000E+00
    0.73085E-07         0.15172E-09         0.00000E+00
    0.73060E-07         0.15056E-09         0.00000E+00
    0.73035E-07         0.14911E-09         0.00000E+00
    0.73010E-07         0.14739E-09         0.00000E+00
    0.72986E-07         0.14539E-09         0.00000E+00
    0.72963E-07         0.14311E-09         0.00000E+00
    0.72939E-07         0.14056E-09         0.00000E+00
    0.72917E-07         0.13771E-09         0.00000E+00
    0.72895E-07         0.13457E-09         0.00000E+00
    0.72874E-07         0.13113E-09         0.00000E+00
    0.72854E-07         0.12736E-09         0.00000E+00
    0.72834E-07         0.12325E-09         0.00000E+00
    0.72816E-07         0.11879E-09         0.00000E+00
    0.72798E-07         0.11395E-09         0.00000E+00
    0.72781E-07         0.10871E-09         0.00000E+00
    0.72766E-07         0.10303E-09         0.00000E+00
    0.72751E-07         0.96889E-10         0.00000E+00
    0.72738E-07         0.90248E-10         0.00000E+00
    0.72725E-07         0.83067E-10         0.00000E+00
    0.72714E-07         0.75302E-10         0.00000E+00
    0.72705E-07         0.66905E-10         0.00000E+00
    0.72696E-07         0.57824E-10         0.00000E+00
    0.72689E-07         0.48001E-10         0.00000E+00
    0.72684E-07         0.37373E-10         0.00000E+00
    0.72680E-07         0.25874E-10         0.00000E+00
    0.72677E-07         0.13432E-10         0.00000E+00
    0.72676E-07         0.69653E-11         0.00000E+00
    0.71949E-07         0.17744E-10         0.00000E+00
    0.71948E-07         0.34255E-10         0.00000E+00
    0.71944E-07         0.65673E-10         0.00000E+00
    0.71939E-07         0.94006E-10         0.00000E+00
    0.71931E-07         0.11949E-09         0.00000E+00
    0.71921E-07         0.14236E-09         0.00000E+00
    0.71909E-07         0.16281E-09         0.00000E+00
    0.71896E-07         0.18103E-09         0.00000E+00
    0.71882E-07         0.19721E-09         0.00000E+00
    0.71865E-07         0.21150E-09         0.00000E+00
    0.71848E-07         0.22405E-09         0.00000E+00
    0.71830E-07         0.23501E-09         0.00000E+00
    0.71810E-07         0.24449E-09         0.00000E+00
    0.71790E-07         0.25262E-09         0.00000E+00
    0.71769E-07         0.25949E-09         0.00000E+00
    0.71747E-07         0.26520E-09         0.00000E+00
    0.71725E-07         0.26984E-09         0.00000E+00
    0.71702E-07         0.27347E-09         0.00000E+00
    0.71679E-07         0.27618E-09         0.00000E+00
    0.71656E-07         0.27802E-09         0.00000E+00
    0.71632E-07         0.27904E-09         0.00000E+00
    0.71608E-07         0.27929E-09         0.00000E+00
    0.71585E-07         0.27881E-09         0.00000E+00
    0.71561E-07         0.27764E-09         0.00000E+00
    0.71537E-07         0.27581E-09         0.00000E+00
    0.71514E-07         0.27335E-09         0.00000E+00
    0.71491E-07         0.27027E-09         0.00000E+00
    0.71468E-07         0.26659E-09         0.00000E+00
    0.71446E-07         0.26233E-09         0.00000E+00
    0.71424E-07         0.25749E-09         0.00000E+00
    0.71402E-07         0.25207E-09         0.00000E+00
    0.71381E-07         0.24609E-09         0.00000E+00
    0.71361E-07         0.23954E-09         0.00000E+00
    0.71342E-07         0.23240E-09         0.00000E+00
    0.71323E-07         0.22468E-09         0.00000E+00
    0.71305E-07         0.21636E-09         0.00000E+00
    0.71287E-07         0.20742E-09         0.00000E+00
    0.71271E-07         0.19784E-09         0.00000E+00
    0.71256E-07         0.18760E-09         0.00000E+00
    0.71241E-07         0.17668E-09         0.00000E+00
    0.71228E-07         0.16504E-09         0.00000E+00
    0.71215E-07         0.15265E-09         0.00000E+00
    0.71204E-07         0.13948E-09         0.00000E+00
    0.71194E-07         0.12547E-09         0.00000E+00
    0.71185E-07         0.11059E-09         0.00000E+00
    0.71177E-07         0.94786E-10         0.00000E+00
    0.71171E-07         0.78008E-10         0.00000E+00
    0.71166E-07         0.60198E-10         0.00000E+00
    0.71163E-07         0.41297E-10         0.00000E+00
    0.71160E-07         0.21242E-10         0.00000E+00
    0.71160E-07         0.10917E-10         0.00000E+00
    0.70140E-07         0.23264E-10         0.00000E+00
    0.70139E-07         0.45078E-10         0.00000E+00
    0.70136E-07         0.86802E-10         0.00000E+00
    0.70131E-07         0.12484E-09         0.00000E+00
    0.70125E-07         0.15943E-09         0.00000E+00
    0.70117E-07         0.19080E-09         0.00000E+00
    0.70107E-07         0.21916E-09         0.00000E+00
    0.70097E-07         0.24471E-09         0.00000E+00
    0.70085E-07         0.26763E-09         0.00000E+00
    0.70071E-07         0.28810E-09         0.00000E+00
    0.70057E-07         0.30627E-09         0.00000E+00
    0.70042E-07         0.32230E-09         0.00000E+00
    0.70025E-07         0.33634E-09         0.00000E+00
    0.70008E-07         0.34849E-09         0.00000E+00
    0.69991E-07         0.35889E-09         0.00000E+00
    0.69972E-07         0.36765E-09         0.00000E+00
    0.69953E-07         0.37486E-09         0.00000E+00
    0.69934E-07         0.38062E-09         0.00000E+00
    0.69914E-07         0.38501E-09         0.00000E+00
    0.69894E-07         0.38811E-09         0.00000E+00
    0.69874E-07         0.38999E-09         0.00000E+00
    0.69853E-07         0.39070E-09         0.00000E+00
    0.69833E-07         0.39031E-09         0.00000E+00
    0.69812E-07         0.38887E-09         0.00000E+00
    0.69792E-07         0.38641E-09         0.00000E+00
    0.69772E-07         0.38297E-09         0.00000E+00
    0.69752E-07         0.37860E-09         0.00000E+00
    0.69732E-07         0.37331E-09         0.00000E+00
    0.69712E-07         0.36713E-09         0.00000E+00
    0.69693E-07         0.36008E-09         0.00000E+00
    0.69674E-07         0.35217E-09         0.00000E+00
    0.69656E-07         0.34341E-09         0.00000E+00
    0.69638E-07         0.33381E-09         0.00000E+00
    0.69621E-07         0.32336E-09         0.00000E+00
    0.69605E-07         0.31206E-09         0.00000E+00
    0.69589E-07         0.29992E-09         0.00000E+00
    0.69574E-07         0.28691E-09         0.00000E+00
    0.69560E-07         0.27302E-09         0.00000E+00
    0.69546E-07         0.25824E-09         0.00000E+00
    0.69533E-07         0.24254E-09         0.00000E+00
    0.69522E-07         0.22591E-09         0.00000E+00
    0.69511E-07         0.20830E-09         0.00000E+00
    0.69501E-07         0.18970E-09         0.00000E+00
    0.69492E-07         0.17005E-09         0.00000E+00
    0.69485E-07         0.14934E-09         0.00000E+00
    0.69478E-07         0.12751E-09         0.00000E+00
    0.69473E-07         0.10452E-09         0.00000E+00
    0.69468E-07         0.80319E-10         0.00000E+00
    0.69465E-07         0.54863E-10         0.00000E+00
    0.69463E-07         0.28095E-10         0.00000E+00
    0.69463E-07         0.14377E-10         0.00000E+00
    0.68152E-07         0.27524E-10         0.00000E+00
    0.68152E-07         0.53462E-10         0.00000E+00
    0.68150E-07         0.10324E-09         0.00000E+00
    0.68146E-07         0.14894E-09         0.00000E+00
    0.68141E-07         0.19080E-09         0.00000E+00
    0.68135E-07         0.22902E-09         0.00000E+00
    0.68128E-07         0.26383E-09         0.00000E+00
    0.68120E-07         0.29540E-09         0.00000E+00
    0.68110E-07         0.32394E-09         0.00000E+00
    0.68100E-07         0.34960E-09         0.00000E+00
    0.68089E-07         0.37255E-09         0.00000E+00
    0.68077E-07         0.39296E-09         0.00000E+00
    0.68064E-07         0.41095E-09         0.00000E+00
    0.68051E-07         0.42666E-09         0.00000E+00
    0.68036E-07         0.44023E-09         0.00000E+00
    0.68022E-07         0.45176E-09         0.00000E+00
    0.68007E-07         0.46136E-09         0.00000E+00
    0.67991E-07         0.46914E-09         0.00000E+00
    0.67975E-07         0.47519E-09         0.00000E+00
    0.67959E-07         0.47958E-09         0.00000E+00
    0.67943E-07         0.48241E-09         0.00000E+00
    0.67926E-07         0.48373E-09         0.00000E+00
    0.67910E-07         0.48363E-09         0.00000E+00
    0.67893E-07         0.48214E-09         0.00000E+00
    0.67876E-07         0.47933E-09         0.00000E+00
    0.67860E-07         0.47524E-09         0.00000E+00
    0.67843E-07         0.46992E-09         0.00000E+00
    0.67827E-07         0.46340E-09         0.00000E+00
    0.67811E-07         0.45571E-09         0.00000E+00
    0.67795E-07         0.44688E-09         0.00000E+00
    0.67780E-07         0.43693E-09         0.00000E+00
    0.67765E-07         0.42587E-09         0.00000E+00
    0.67750E-07         0.41372E-09         0.00000E+00
    0.67736E-07         0.40049E-09         0.00000E+00
    0.67722E-07         0.38617E-09         0.00000E+00
    0.67709E-07         0.37078E-09         0.00000E+00
    0.67697E-07         0.35431E-09         0.00000E+00
    0.67685E-07         0.33675E-09         0.00000E+00
    0.67674E-07         0.31809E-09         0.00000E+00
    0.67663E-07         0.29831E-09         0.00000E+00
    0.67654E-07         0.27740E-09         0.00000E+00
    0.67645E-07         0.25534E-09         0.00000E+00
    0.67637E-07         0.23210E-09         0.00000E+00
    0.67630E-07         0.20766E-09         0.00000E+00
    0.67623E-07         0.18198E-09         0.00000E+00
    0.67618E-07         0.15504E-09         0.00000E+00
    0.67613E-07         0.12679E-09         0.00000E+00
    0.67610E-07         0.97196E-10         0.00000E+00
    0.67607E-07         0.66223E-10         0.00000E+00
    0.67606E-07         0.33826E-10         0.00000E+00
    0.67605E-07         0.17265E-10         0.00000E+00
    0.66022E-07         0.30567E-10         0.00000E+00
    0.66021E-07         0.59480E-10         0.00000E+00
    0.66020E-07         0.11511E-09         0.00000E+00
    0.66017E-07         0.16645E-09         0.00000E+00
    0.66014E-07         0.21371E-09         0.00000E+00
    0.66010E-07         0.25710E-09         0.00000E+00
    0.66005E-07         0.29682E-09         0.00000E+00
    0.65999E-07         0.33305E-09         0.00000E+00
    0.65992E-07         0.36596E-09         0.00000E+00
    0.65985E-07         0.39573E-09         0.00000E+00
    0.65977E-07         0.42250E-09         0.00000E+00
    0.65968E-07         0.44644E-09         0.00000E+00
    0.65959E-07         0.46767E-09         0.00000E+00
    0.65949E-07         0.48634E-09         0.00000E+00
    0.65938E-07         0.50256E-09         0.00000E+00
    0.65927E-07         0.51646E-09         0.00000E+00
    0.65916E-07         0.52814E-09         0.00000E+00
    0.65905E-07         0.53771E-09         0.00000E+00
    0.65893E-07         0.54526E-09         0.00000E+00
    0.65881E-07         0.55088E-09         0.00000E+00
    0.65868E-07         0.55465E-09         0.00000E+00
    0.65856E-07         0.55664E-09         0.00000E+00
    0.65843E-07         0.55694E-09         0.00000E+00
    0.65831E-07         0.55559E-09         0.00000E+00
    0.65818E-07         0.55266E-09         0.00000E+00
    0.65805E-07         0.54820E-09         0.00000E+00
    0.65793E-07         0.54226E-09         0.00000E+00
    0.65780E-07         0.53488E-09         0.00000E+00
    0.65768E-07         0.52609E-09         0.00000E+00
    0.65756E-07         0.51593E-09         0.00000E+00
    0.65744E-07         0.50443E-09         0.00000E+00
    0.65732E-07         0.49160E-09         0.00000E+00
    0.65721E-07         0.47747E-09         0.00000E+00
    0.65710E-07         0.46206E-09         0.00000E+00
    0.65699E-07         0.44537E-09         0.00000E+00
    0.65689E-07         0.42740E-09         0.00000E+00
    0.65680E-07         0.40817E-09         0.00000E+00
    0.65671E-07         0.38767E-09         0.00000E+00
    0.65662E-07         0.36590E-09         0.00000E+00
    0.65654E-07         0.34285E-09         0.00000E+00
    0.65646E-07         0.31851E-09         0.00000E+00
    0.65640E-07         0.29287E-09         0.00000E+00
    0.65633E-07         0.26592E-09         0.00000E+00
    0.65628E-07         0.23762E-09         0.00000E+00
    0.65623E-07         0.20796E-09         0.00000E+00
    0.65619E-07         0.17692E-09         0.00000E+00
    0.65615E-07         0.14447E-09         0.00000E+00
    0.65613E-07         0.11058E-09         0.00000E+00
    0.65611E-07         0.75221E-10         0.00000E+00
    0.65610E-07         0.38357E-10         0.00000E+00
    0.65609E-07         0.19546E-10         0.00000E+00
    0.63780E-07         0.32486E-10         0.00000E+00
    0.63779E-07         0.63305E-10         0.00000E+00
    0.63778E-07         0.12272E-09         0.00000E+00
    0.63777E-07         0.17778E-09         0.00000E+00
    0.63775E-07         0.22869E-09         0.00000E+00
    0.63772E-07         0.27562E-09         0.00000E+00
    0.63769E-07         0.31877E-09         0.00000E+00
    0.63766E-07         0.35829E-09         0.00000E+00
    0.63761E-07         0.39435E-09         0.00000E+00
    0.63757E-07         0.42711E-09         0.00000E+00
    0.63752E-07         0.45671E-09         0.00000E+00
    0.63746E-07         0.48329E-09         0.00000E+00
    0.63740E-07         0.50700E-09         0.00000E+00
    0.63733E-07         0.52795E-09         0.00000E+00
    0.63727E-07         0.54626E-09         0.00000E+00
    0.63719E-07         0.56205E-09         0.00000E+00
    0.63712E-07         0.57542E-09         0.00000E+00
    0.63704E-07         0.58647E-09         0.00000E+00
    0.63696E-07         0.59530E-09         0.00000E+00
    0.63688E-07         0.60200E-09         0.00000E+00
    0.63680E-07         0.60664E-09         0.00000E+00
    0.63671E-07         0.60931E-09         0.00000E+00
    0.63662E-07         0.61007E-09         0.00000E+00
    0.63654E-07         0.60898E-09         0.00000E+00
    0.63645E-07         0.60612E-09         0.00000E+00
    0.63636E-07         0.60153E-09         0.00000E+00
    0.63627E-07         0.59526E-09         0.00000E+00
    0.63619E-07         0.58736E-09         0.00000E+00
    0.63610E-07         0.57787E-09         0.00000E+00
    0.63601E-07         0.56682E-09         0.00000E+00
    0.63593E-07         0.55426E-09         0.00000E+00
    0.63585E-07         0.54019E-09         0.00000E+00
    0.63577E-07         0.52466E-09         0.00000E+00
    0.63569E-07         0.50767E-09         0.00000E+00
    0.63562E-07         0.48925E-09         0.00000E+00
    0.63555E-07         0.46940E-09         0.00000E+00
    0.63548E-07         0.44814E-09         0.00000E+00
    0.63541E-07         0.42547E-09         0.00000E+00
    0.63535E-07         0.40140E-09         0.00000E+00
    0.63530E-07         0.37592E-09         0.00000E+00
    0.63524E-07         0.34903E-09         0.00000E+00
    0.63519E-07         0.32072E-09         0.00000E+00
    0.63515E-07         0.29099E-09         0.00000E+00
    0.63511E-07         0.25982E-09         0.00000E+00
    0.63508E-07         0.22719E-09         0.00000E+00
    0.63505E-07         0.19311E-09         0.00000E+00
    0.63502E-07         0.15753E-09         0.00000E+00
    0.63500E-07         0.12045E-09         0.00000E+00
    0.63499E-07         0.81848E-10         0.00000E+00
    0.63498E-07         0.41690E-10         0.00000E+00
    0.63498E-07         0.21220E-10         0.00000E+00
    0.61456E-07         0.33402E-10         0.00000E+00
    0.61456E-07         0.65171E-10         0.00000E+00
    0.61455E-07         0.12652E-09         0.00000E+00
    0.61455E-07         0.18357E-09         0.00000E+00
    0.61454E-07         0.23651E-09         0.00000E+00
    0.61453E-07         0.28549E-09         0.00000E+00
    0.61452E-07         0.33067E-09         0.00000E+00
    0.61450E-07         0.37221E-09         0.00000E+00
    0.61448E-07         0.41025E-09         0.00000E+00
    0.61446E-07         0.44494E-09         0.00000E+00
    0.61443E-07         0.47641E-09         0.00000E+00
    0.61441E-07         0.50479E-09         0.00000E+00
    0.61437E-07         0.53020E-09         0.00000E+00
    0.61434E-07         0.55275E-09         0.00000E+00
    0.61431E-07         0.57257E-09         0.00000E+00
    0.61427E-07         0.58975E-09         0.00000E+00
    0.61423E-07         0.60439E-09         0.00000E+00
    0.61418E-07         0.61660E-09         0.00000E+00
    0.61414E-07         0.62646E-09         0.00000E+00
    0.61409E-07         0.63404E-09         0.00000E+00
    0.61405E-07         0.63944E-09         0.00000E+00
    0.61400E-07         0.64273E-09         0.00000E+00
    0.61395E-07         0.64397E-09         0.00000E+00
    0.61390E-07         0.64323E-09         0.00000E+00
    0.61385E-07         0.64057E-09         0.00000E+00
    0.61379E-07         0.63604E-09         0.00000E+00
    0.61374E-07         0.62969E-09         0.00000E+00
    0.61369E-07         0.62158E-09         0.00000E+00
    0.61364E-07         0.61174E-09         0.00000E+00
    0.61359E-07         0.60022E-09         0.00000E+00
    0.61354E-07         0.58704E-09         0.00000E+00
    0.61349E-07         0.57223E-09         0.00000E+00
    0.61344E-07         0.55583E-09         0.00000E+00
    0.61339E-07         0.53786E-09         0.00000E+00
    0.61335E-07         0.51834E-09         0.00000E+00
    0.61330E-07         0.49728E-09         0.00000E+00
    0.61326E-07         0.47469E-09         0.00000E+00
    0.61322E-07         0.45060E-09         0.00000E+00
    0.61319E-07         0.42500E-09         0.00000E+00
    0.61315E-07         0.39791E-09         0.00000E+00
    0.61312E-07         0.36931E-09         0.00000E+00
    0.61309E-07         0.33922E-09         0.00000E+00
    0.61306E-07         0.30763E-09         0.00000E+00
    0.61304E-07         0.27454E-09         0.00000E+00
    0.61302E-07         0.23994E-09         0.00000E+00
    0.61300E-07         0.20382E-09         0.00000E+00
    0.61298E-07         0.16616E-09         0.00000E+00
    0.61297E-07         0.12696E-09         0.00000E+00
    0.61296E-07         0.86206E-10         0.00000E+00
    0.61296E-07         0.43876E-10         0.00000E+00
    0.61296E-07         0.22316E-10         0.00000E+00
    0.59078E-07         0.33455E-10         0.00000E+00
    0.59078E-07         0.65343E-10         0.00000E+00
    0.59079E-07         0.12701E-09         0.00000E+00
    0.59079E-07         0.18454E-09         0.00000E+00
    0.59079E-07         0.23808E-09         0.00000E+00
    0.59079E-07         0.28778E-09         0.00000E+00
    0.59079E-07         0.33376E-09         0.00000E+00
    0.59080E-07         0.37618E-09         0.00000E+00
    0.59080E-07         0.41515E-09         0.00000E+00
    0.59079E-07         0.45080E-09         0.00000E+00
    0.59079E-07         0.48325E-09         0.00000E+00
    0.59079E-07         0.51261E-09         0.00000E+00
    0.59078E-07         0.53901E-09         0.00000E+00
    0.59078E-07         0.56253E-09         0.00000E+00
    0.59077E-07         0.58329E-09         0.00000E+00
    0.59076E-07         0.60138E-09         0.00000E+00
    0.59075E-07         0.61689E-09         0.00000E+00
    0.59074E-07         0.62990E-09         0.00000E+00
    0.59073E-07         0.64051E-09         0.00000E+00
    0.59071E-07         0.64878E-09         0.00000E+00
    0.59070E-07         0.65480E-09         0.00000E+00
    0.59068E-07         0.65862E-09         0.00000E+00
    0.59067E-07         0.66033E-09         0.00000E+00
    0.59065E-07         0.65997E-09         0.00000E+00
    0.59063E-07         0.65761E-09         0.00000E+00
    0.59061E-07         0.65330E-09         0.00000E+00
    0.59059E-07         0.64709E-09         0.00000E+00
    0.59057E-07         0.63902E-09         0.00000E+00
    0.59055E-07         0.62914E-09         0.00000E+00
    0.59053E-07         0.61749E-09         0.00000E+00
    0.59051E-07         0.60410E-09         0.00000E+00
    0.59049E-07         0.58900E-09         0.00000E+00
    0.59047E-07         0.57223E-09         0.00000E+00
    0.59045E-07         0.55380E-09         0.00000E+00
    0.59043E-07         0.53375E-09         0.00000E+00
    0.59042E-07         0.51209E-09         0.00000E+00
    0.59040E-07         0.48883E-09         0.00000E+00
    0.59038E-07         0.46400E-09         0.00000E+00
    0.59036E-07         0.43760E-09         0.00000E+00
    0.59035E-07         0.40964E-09         0.00000E+00
    0.59034E-07         0.38014E-09         0.00000E+00
    0.59032E-07         0.34909E-09         0.00000E+00
    0.59031E-07         0.31650E-09         0.00000E+00
    0.59030E-07         0.28237E-09         0.00000E+00
    0.59029E-07         0.24669E-09         0.00000E+00
    0.59029E-07         0.20947E-09         0.00000E+00
    0.59028E-07         0.17070E-09         0.00000E+00
    0.59027E-07         0.13037E-09         0.00000E+00
    0.59027E-07         0.88474E-10         0.00000E+00
    0.59027E-07         0.45007E-10         0.00000E+00
    0.59027E-07         0.22879E-10         0.00000E+00
    0.56672E-07         0.32787E-10         0.00000E+00
    0.56673E-07         0.64100E-10         0.00000E+00
    0.56673E-07         0.12474E-09         0.00000E+00
    0.56674E-07         0.18146E-09         0.00000E+00
    0.56675E-07         0.23439E-09         0.00000E+00
    0.56676E-07         0.28366E-09         0.00000E+00
    0.56678E-07         0.32939E-09         0.00000E+00
    0.56679E-07         0.37168E-09         0.00000E+00
    0.56681E-07         0.41065E-09         0.00000E+00
    0.56683E-07         0.44641E-09         0.00000E+00
    0.56684E-07         0.47906E-09         0.00000E+00
    0.56686E-07         0.50870E-09         0.00000E+00
    0.56688E-07         0.53543E-09         0.00000E+00
    0.56690E-07         0.55934E-09         0.00000E+00
    0.56691E-07         0.58053E-09         0.00000E+00
    0.56693E-07         0.59907E-09         0.00000E+00
    0.56695E-07         0.61505E-09         0.00000E+00
    0.56696E-07         0.62855E-09         0.00000E+00
    0.56698E-07         0.63963E-09         0.00000E+00
    0.56699E-07         0.64839E-09         0.00000E+00
    0.56700E-07         0.65487E-09         0.00000E+00
    0.56702E-07         0.65914E-09         0.00000E+00
    0.56703E-07         0.66127E-09         0.00000E+00
    0.56704E-07         0.66131E-09         0.00000E+00
    0.56705E-07         0.65932E-09         0.00000E+00
    0.56706E-07         0.65534E-09         0.00000E+00
    0.56707E-07         0.64942E-09         0.00000E+00
    0.56707E-07         0.64161E-09         0.00000E+00
    0.56708E-07         0.63195E-09         0.00000E+00
    0.56709E-07         0.62047E-09         0.00000E+00
    0.56709E-07         0.60721E-09         0.00000E+00
    0.56710E-07         0.59221E-09         0.00000E+00
    0.56710E-07         0.57548E-09         0.00000E+00
    0.56711E-07         0.55707E-09         0.00000E+00
    0.56711E-07         0.53699E-09         0.00000E+00
    0.56712E-07         0.51526E-09         0.00000E+00
    0.56712E-07         0.49191E-09         0.00000E+00
    0.56712E-07         0.46694E-09         0.00000E+00
    0.56713E-07         0.44038E-09         0.00000E+00
    0.56713E-07         0.41224E-09         0.00000E+00
    0.56713E-07         0.38253E-09         0.00000E+00
    0.56713E-07         0.35125E-09         0.00000E+00
    0.56714E-07         0.31842E-09         0.00000E+00
    0.56714E-07         0.28403E-09         0.00000E+00
    0.56714E-07         0.24810E-09         0.00000E+00
    0.56714E-07         0.21062E-09         0.00000E+00
    0.56714E-07         0.17159E-09         0.00000E+00
    0.56714E-07         0.13101E-09         0.00000E+00
    0.56715E-07         0.88881E-10         0.00000E+00
    0.56715E-07         0.45198E-10         0.00000E+00
    0.56715E-07         0.22968E-10         0.00000E+00
    0.54261E-07         0.31538E-10         0.00000E+00
    0.54261E-07         0.61713E-10         0.00000E+00
    0.54262E-07         0.12022E-09         0.00000E+00
    0.54263E-07         0.17509E-09         0.00000E+00
    0.54265E-07         0.22642E-09         0.00000E+00
    0.54267E-07         0.27432E-09         0.00000E+00
    0.54269E-07         0.31889E-09         0.00000E+00
    0.54272E-07         0.36023E-09         0.00000E+00
    0.54275E-07         0.39842E-09         0.00000E+00
    0.54278E-07         0.43356E-09         0.00000E+00
    0.54281E-07         0.46574E-09         0.00000E+00
    0.54285E-07         0.49504E-09         0.00000E+00
    0.54288E-07         0.52154E-09         0.00000E+00
    0.54292E-07         0.54533E-09         0.00000E+00
    0.54296E-07         0.56649E-09         0.00000E+00
    0.54300E-07         0.58508E-09         0.00000E+00
    0.54303E-07         0.60118E-09         0.00000E+00
    0.54307E-07         0.61486E-09         0.00000E+00
    0.54311E-07         0.62618E-09         0.00000E+00
    0.54314E-07         0.63521E-09         0.00000E+00
    0.54318E-07         0.64201E-09         0.00000E+00
    0.54322E-07         0.64663E-09         0.00000E+00
    0.54325E-07         0.64913E-09         0.00000E+00
    0.54329E-07         0.64955E-09         0.00000E+00
    0.54332E-07         0.64796E-09         0.00000E+00
    0.54335E-07         0.64439E-09         0.00000E+00
    0.54339E-07         0.63889E-09         0.00000E+00
    0.54342E-07         0.63150E-09         0.00000E+00
    0.54345E-07         0.62225E-09         0.00000E+00
    0.54348E-07         0.61120E-09         0.00000E+00
    0.54350E-07         0.59835E-09         0.00000E+00
    0.54353E-07         0.58376E-09         0.00000E+00
    0.54356E-07         0.56744E-09         0.00000E+00
    0.54358E-07         0.54943E-09         0.00000E+00
    0.54361E-07         0.52975E-09         0.00000E+00
    0.54363E-07         0.50842E-09         0.00000E+00
    0.54365E-07         0.48545E-09         0.00000E+00
    0.54367E-07         0.46088E-09         0.00000E+00
    0.54369E-07         0.43471E-09         0.00000E+00
    0.54371E-07         0.40696E-09         0.00000E+00
    0.54372E-07         0.37764E-09         0.00000E+00
    0.54374E-07         0.34677E-09         0.00000E+00
    0.54375E-07         0.31435E-09         0.00000E+00
    0.54377E-07         0.28039E-09         0.00000E+00
    0.54378E-07         0.24490E-09         0.00000E+00
    0.54379E-07         0.20788E-09         0.00000E+00
    0.54379E-07         0.16933E-09         0.00000E+00
    0.54380E-07         0.12927E-09         0.00000E+00
    0.54381E-07         0.87682E-10         0.00000E+00
    0.54381E-07         0.44579E-10         0.00000E+00
    0.54381E-07         0.22648E-10         0.00000E+00
    0.51863E-07         0.29842E-10         0.00000E+00
    0.51863E-07         0.58442E-10         0.00000E+00
    0.51864E-07         0.11396E-09         0.00000E+00
    0.51866E-07         0.16615E-09         0.00000E+00
    0.51868E-07         0.21509E-09         0.00000E+00
    0.51871E-07         0.26088E-09         0.00000E+00
    0.51874E-07         0.30358E-09         0.00000E+00
    0.51878E-07         0.34329E-09         0.00000E+00
    0.51882E-07         0.38006E-09         0.00000E+00
    0.51886E-07         0.41399E-09         0.00000E+00
    0.51891E-07         0.44514E-09         0.00000E+00
    0.51895E-07         0.47358E-09         0.00000E+00
    0.51900E-07         0.49939E-09         0.00000E+00
    0.51906E-07         0.52263E-09         0.00000E+00
    0.51911E-07         0.54337E-09         0.00000E+00
    0.51916E-07         0.56167E-09         0.00000E+00
    0.51922E-07         0.57758E-09         0.00000E+00
    0.51927E-07         0.59118E-09         0.00000E+00
    0.51933E-07         0.60251E-09         0.00000E+00
    0.51938E-07         0.61164E-09         0.00000E+00
    0.51944E-07         0.61861E-09         0.00000E+00
    0.51949E-07         0.62347E-09         0.00000E+00
    0.51955E-07         0.62627E-09         0.00000E+00
    0.51960E-07         0.62706E-09         0.00000E+00
    0.51965E-07         0.62587E-09         0.00000E+00
    0.51971E-07         0.62276E-09         0.00000E+00
    0.51976E-07         0.61776E-09         0.00000E+00
    0.51981E-07         0.61091E-09         0.00000E+00
    0.51986E-07         0.60225E-09         0.00000E+00
    0.51990E-07         0.59179E-09         0.00000E+00
    0.51995E-07         0.57959E-09         0.00000E+00
    0.51999E-07         0.56566E-09         0.00000E+00
    0.52004E-07         0.55004E-09         0.00000E+00
    0.52008E-07         0.53275E-09         0.00000E+00
    0.52012E-07         0.51380E-09         0.00000E+00
    0.52016E-07         0.49324E-09         0.00000E+00
    0.52019E-07         0.47107E-09         0.00000E+00
    0.52023E-07         0.44731E-09         0.00000E+00
    0.52026E-07         0.42199E-09         0.00000E+00
    0.52029E-07         0.39511E-09         0.00000E+00
    0.52032E-07         0.36669E-09         0.00000E+00
    0.52034E-07         0.33674E-09         0.00000E+00
    0.52037E-07         0.30528E-09         0.00000E+00
    0.52039E-07         0.27231E-09         0.00000E+00
    0.52041E-07         0.23784E-09         0.00000E+00
    0.52042E-07         0.20189E-09         0.00000E+00
    0.52043E-07         0.16445E-09         0.00000E+00
    0.52044E-07         0.12553E-09         0.00000E+00
    0.52045E-07         0.85141E-10         0.00000E+00
    0.52046E-07         0.43283E-10         0.00000E+00
    0.52046E-07         0.21988E-10         0.00000E+00
    0.49497E-07         0.27818E-10         0.00000E+00
    0.49497E-07         0.54522E-10         0.00000E+00
    0.49498E-07         0.10642E-09         0.00000E+00
    0.49500E-07         0.15531E-09         0.00000E+00
    0.49503E-07         0.20128E-09         0.00000E+00
    0.49506E-07         0.24437E-09         0.00000E+00
    0.49510E-07         0.28466E-09         0.00000E+00
    0.49514E-07         0.32221E-09         0.00000E+00
    0.49519E-07         0.35708E-09         0.00000E+00
    0.49524E-07         0.38932E-09         0.00000E+00
    0.49530E-07         0.41901E-09         0.00000E+00
    0.49535E-07         0.44618E-09         0.00000E+00
    0.49541E-07         0.47091E-09         0.00000E+00
    0.49548E-07         0.49325E-09         0.00000E+00
    0.49554E-07         0.51325E-09         0.00000E+00
    0.49561E-07         0.53097E-09         0.00000E+00
    0.49567E-07         0.54644E-09         0.00000E+00
    0.49574E-07         0.55973E-09         0.00000E+00
    0.49581E-07         0.57088E-09         0.00000E+00
    0.49588E-07         0.57994E-09         0.00000E+00
    0.49595E-07         0.58695E-09         0.00000E+00
    0.49602E-07         0.59195E-09         0.00000E+00
    0.49609E-07         0.59499E-09         0.00000E+00
    0.49616E-07         0.59610E-09         0.00000E+00
    0.49623E-07         0.59532E-09         0.00000E+00
    0.49629E-07         0.59270E-09         0.00000E+00
    0.49636E-07         0.58825E-09         0.00000E+00
    0.49642E-07         0.58202E-09         0.00000E+00
    0.49649E-07         0.57404E-09         0.00000E+00
    0.49655E-07         0.56434E-09         0.00000E+00
    0.49661E-07         0.55294E-09         0.00000E+00
    0.49667E-07         0.53987E-09         0.00000E+00
    0.49672E-07         0.52516E-09         0.00000E+00
    0.49678E-07         0.50882E-09         0.00000E+00
    0.49683E-07         0.49090E-09         0.00000E+00
    0.49688E-07         0.47139E-09         0.00000E+00
    0.49693E-07         0.45033E-09         0.00000E+00
    0.49697E-07         0.42773E-09         0.00000E+00
    0.49702E-07         0.40360E-09         0.00000E+00
    0.49705E-07         0.37797E-09         0.00000E+00
    0.49709E-07         0.35085E-09         0.00000E+00
    0.49713E-07         0.32225E-09         0.00000E+00
    0.49716E-07         0.29218E-09         0.00000E+00
    0.49718E-07         0.26066E-09         0.00000E+00
    0.49721E-07         0.22769E-09         0.00000E+00
    0.49723E-07         0.19328E-09         0.00000E+00
    0.49725E-07         0.15744E-09         0.00000E+00
    0.49726E-07         0.12019E-09         0.00000E+00
    0.49727E-07         0.81520E-10         0.00000E+00
    0.49728E-07         0.41442E-10         0.00000E+00
    0.49728E-07         0.21052E-10         0.00000E+00
    0.47177E-07         0.25573E-10         0.00000E+00
    0.47178E-07         0.50163E-10         0.00000E+00
    0.47179E-07         0.98000E-10         0.00000E+00
    0.47181E-07         0.14318E-09         0.00000E+00
    0.47184E-07         0.18574E-09         0.00000E+00
    0.47188E-07         0.22574E-09         0.00000E+00
    0.47192E-07         0.26322E-09         0.00000E+00
    0.47196E-07         0.29823E-09         0.00000E+00
    0.47202E-07         0.33082E-09         0.00000E+00
    0.47207E-07         0.36103E-09         0.00000E+00
    0.47213E-07         0.38892E-09         0.00000E+00
    0.47220E-07         0.41452E-09         0.00000E+00
    0.47227E-07         0.43788E-09         0.00000E+00
    0.47234E-07         0.45904E-09         0.00000E+00
    0.47241E-07         0.47805E-09         0.00000E+00
    0.47249E-07         0.49495E-09         0.00000E+00
    0.47256E-07         0.50978E-09         0.00000E+00
    0.47264E-07         0.52258E-09         0.00000E+00
    0.47272E-07         0.53338E-09         0.00000E+00
    0.47280E-07         0.54223E-09         0.00000E+00
    0.47288E-07         0.54917E-09         0.00000E+00
    0.47296E-07         0.55422E-09         0.00000E+00
    0.47304E-07         0.55743E-09         0.00000E+00
    0.47312E-07         0.55882E-09         0.00000E+00
    0.47319E-07         0.55843E-09         0.00000E+00
    0.47327E-07         0.55629E-09         0.00000E+00
    0.47335E-07         0.55242E-09         0.00000E+00
    0.47342E-07         0.54686E-09         0.00000E+00
    0.47350E-07         0.53964E-09         0.00000E+00
    0.47357E-07         0.53077E-09         0.00000E+00
    0.47364E-07         0.52029E-09         0.00000E+00
    0.47371E-07         0.50822E-09         0.00000E+00
    0.47378E-07         0.49458E-09         0.00000E+00
    0.47384E-07         0.47939E-09         0.00000E+00
    0.47390E-07         0.46267E-09         0.00000E+00
    0.47396E-07         0.44444E-09         0.00000E+00
    0.47402E-07         0.42473E-09         0.00000E+00
    0.47407E-07         0.40353E-09         0.00000E+00
    0.47412E-07         0.38088E-09         0.00000E+00
    0.47417E-07         0.35679E-09         0.00000E+00
    0.47421E-07         0.33127E-09         0.00000E+00
    0.47425E-07         0.30433E-09         0.00000E+00
    0.47429E-07         0.27599E-09         0.00000E+00
    0.47432E-07         0.24626E-09         0.00000E+00
    0.47435E-07         0.21515E-09         0.00000E+00
    0.47437E-07         0.18266E-09         0.00000E+00
    0.47439E-07         0.14881E-09         0.00000E+00
    0.47441E-07         0.11361E-09         0.00000E+00
    0.47442E-07         0.77065E-10         0.00000E+00
    0.47443E-07         0.39180E-10         0.00000E+00
    0.47443E-07         0.19904E-10         0.00000E+00
    0.44917E-07         0.23202E-10         0.00000E+00
    0.44918E-07         0.45547E-10         0.00000E+00
    0.44919E-07         0.89067E-10         0.00000E+00
    0.44921E-07         0.13026E-09         0.00000E+00
    0.44924E-07         0.16916E-09         0.00000E+00
    0.44928E-07         0.20579E-09         0.00000E+00
    0.44932E-07         0.24020E-09         0.00000E+00
    0.44937E-07         0.27242E-09         0.00000E+00
    0.44943E-07         0.30249E-09         0.00000E+00
    0.44949E-07         0.33043E-09         0.00000E+00
    0.44955E-07         0.35628E-09         0.00000E+00
    0.44962E-07         0.38007E-09         0.00000E+00
    0.44969E-07         0.40185E-09         0.00000E+00
    0.44977E-07         0.42164E-09         0.00000E+00
    0.44985E-07         0.43947E-09         0.00000E+00
    0.44993E-07         0.45538E-09         0.00000E+00
    0.45001E-07         0.46940E-09         0.00000E+00
    0.45009E-07         0.48156E-09         0.00000E+00
    0.45018E-07         0.49189E-09         0.00000E+00
    0.45026E-07         0.50042E-09         0.00000E+00
    0.45035E-07         0.50719E-09         0.00000E+00
    0.45044E-07         0.51221E-09         0.00000E+00
    0.45052E-07         0.51552E-09         0.00000E+00
    0.45061E-07         0.51714E-09         0.00000E+00
    0.45070E-07         0.51710E-09         0.00000E+00
    0.45078E-07         0.51543E-09         0.00000E+00
    0.45086E-07         0.51215E-09         0.00000E+00
    0.45095E-07         0.50729E-09         0.00000E+00
    0.45103E-07         0.50086E-09         0.00000E+00
    0.45111E-07         0.49289E-09         0.00000E+00
    0.45119E-07         0.48340E-09         0.00000E+00
    0.45126E-07         0.47241E-09         0.00000E+00
    0.45133E-07         0.45994E-09         0.00000E+00
    0.45140E-07         0.44601E-09         0.00000E+00
    0.45147E-07         0.43064E-09         0.00000E+00
    0.45154E-07         0.41384E-09         0.00000E+00
    0.45160E-07         0.39563E-09         0.00000E+00
    0.45166E-07         0.37602E-09         0.00000E+00
    0.45171E-07         0.35504E-09         0.00000E+00
    0.45177E-07         0.33269E-09         0.00000E+00
    0.45181E-07         0.30898E-09         0.00000E+00
    0.45186E-07         0.28394E-09         0.00000E+00
    0.45190E-07         0.25756E-09         0.00000E+00
    0.45194E-07         0.22987E-09         0.00000E+00
    0.45197E-07         0.20087E-09         0.00000E+00
    0.45199E-07         0.17058E-09         0.00000E+00
    0.45202E-07         0.13900E-09         0.00000E+00
    0.45204E-07         0.10614E-09         0.00000E+00
    0.45205E-07         0.72006E-10         0.00000E+00
    0.45206E-07         0.36613E-10         0.00000E+00
    0.45206E-07         0.18602E-10         0.00000E+00
    0.42727E-07         0.20781E-10         0.00000E+00
    0.42727E-07         0.40829E-10         0.00000E+00
    0.42729E-07         0.79917E-10         0.00000E+00
    0.42731E-07         0.11700E-09         0.00000E+00
    0.42734E-07         0.15210E-09         0.00000E+00
    0.42738E-07         0.18524E-09         0.00000E+00
    0.42742E-07         0.21644E-09         0.00000E+00
    0.42747E-07         0.24572E-09         0.00000E+00
    0.42753E-07         0.27311E-09         0.00000E+00
    0.42759E-07         0.29862E-09         0.00000E+00
    0.42766E-07         0.32229E-09         0.00000E+00
    0.42773E-07         0.34414E-09         0.00000E+00
    0.42780E-07         0.36419E-09         0.00000E+00
    0.42788E-07         0.38247E-09         0.00000E+00
    0.42796E-07         0.39899E-09         0.00000E+00
    0.42804E-07         0.41379E-09         0.00000E+00
    0.42813E-07         0.42688E-09         0.00000E+00
    0.42822E-07         0.43829E-09         0.00000E+00
    0.42830E-07         0.44805E-09         0.00000E+00
    0.42839E-07         0.45617E-09         0.00000E+00
    0.42848E-07         0.46268E-09         0.00000E+00
    0.42857E-07         0.46761E-09         0.00000E+00
    0.42866E-07         0.47096E-09         0.00000E+00
    0.42875E-07         0.47277E-09         0.00000E+00
    0.42884E-07         0.47305E-09         0.00000E+00
    0.42893E-07         0.47183E-09         0.00000E+00
    0.42902E-07         0.46912E-09         0.00000E+00
    0.42911E-07         0.46494E-09         0.00000E+00
    0.42919E-07         0.45932E-09         0.00000E+00
    0.42928E-07         0.45226E-09         0.00000E+00
    0.42936E-07         0.44380E-09         0.00000E+00
    0.42944E-07         0.43394E-09         0.00000E+00
    0.42951E-07         0.42270E-09         0.00000E+00
    0.42959E-07         0.41009E-09         0.00000E+00
    0.42966E-07         0.39614E-09         0.00000E+00
    0.42973E-07         0.38086E-09         0.00000E+00
    0.42980E-07         0.36426E-09         0.00000E+00
    0.42986E-07         0.34635E-09         0.00000E+00
    0.42992E-07         0.32715E-09         0.00000E+00
    0.42997E-07         0.30667E-09         0.00000E+00
    0.43002E-07         0.28492E-09         0.00000E+00
    0.43007E-07         0.26191E-09         0.00000E+00
    0.43011E-07         0.23766E-09         0.00000E+00
    0.43015E-07         0.21218E-09         0.00000E+00
    0.43018E-07         0.18546E-09         0.00000E+00
    0.43021E-07         0.15754E-09         0.00000E+00
    0.43024E-07         0.12840E-09         0.00000E+00
    0.43026E-07         0.98069E-10         0.00000E+00
    0.43027E-07         0.66548E-10         0.00000E+00
    0.43028E-07         0.33844E-10         0.00000E+00
    0.43028E-07         0.17199E-10         0.00000E+00
    0.40615E-07         0.18377E-10         0.00000E+00
    0.40616E-07         0.36136E-10         0.00000E+00
    0.40617E-07         0.70802E-10         0.00000E+00
    0.40619E-07         0.10377E-09         0.00000E+00
    0.40622E-07         0.13505E-09         0.00000E+00
    0.40626E-07         0.16466E-09         0.00000E+00
    0.40630E-07         0.19260E-09         0.00000E+00
    0.40636E-07         0.21889E-09         0.00000E+00
    0.40641E-07         0.24354E-09         0.00000E+00
    0.40647E-07         0.26656E-09         0.00000E+00
    0.40654E-07         0.28798E-09         0.00000E+00
    0.40661E-07         0.30781E-09         0.00000E+00
    0.40668E-07         0.32605E-09         0.00000E+00
    0.40676E-07         0.34273E-09         0.00000E+00
    0.40684E-07         0.35787E-09         0.00000E+00
    0.40692E-07         0.37148E-09         0.00000E+00
    0.40701E-07         0.38357E-09         0.00000E+00
    0.40710E-07         0.39416E-09         0.00000E+00
    0.40719E-07         0.40327E-09         0.00000E+00
    0.40728E-07         0.41091E-09         0.00000E+00
    0.40737E-07         0.41711E-09         0.00000E+00
    0.40746E-07         0.42187E-09         0.00000E+00
    0.40755E-07         0.42522E-09         0.00000E+00
    0.40764E-07         0.42716E-09         0.00000E+00
    0.40773E-07         0.42772E-09         0.00000E+00
    0.40782E-07         0.42691E-09         0.00000E+00
    0.40791E-07         0.42474E-09         0.00000E+00
    0.40800E-07         0.42124E-09         0.00000E+00
    0.40809E-07         0.41641E-09         0.00000E+00
    0.40817E-07         0.41026E-09         0.00000E+00
    0.40825E-07         0.40282E-09         0.00000E+00
    0.40834E-07         0.39410E-09         0.00000E+00
    0.40841E-07         0.38411E-09         0.00000E+00
    0.40849E-07         0.37286E-09         0.00000E+00
    0.40856E-07         0.36036E-09         0.00000E+00
    0.40863E-07         0.34663E-09         0.00000E+00
    0.40870E-07         0.33168E-09         0.00000E+00
    0.40877E-07         0.31552E-09         0.00000E+00
    0.40883E-07         0.29816E-09         0.00000E+00
    0.40888E-07         0.27962E-09         0.00000E+00
    0.40893E-07         0.25990E-09         0.00000E+00
    0.40898E-07         0.23901E-09         0.00000E+00
    0.40903E-07         0.21696E-09         0.00000E+00
    0.40907E-07         0.19376E-09         0.00000E+00
    0.40910E-07         0.16943E-09         0.00000E+00
    0.40913E-07         0.14396E-09         0.00000E+00
    0.40915E-07         0.11738E-09         0.00000E+00
    0.40917E-07         0.89675E-10         0.00000E+00
    0.40919E-07         0.60869E-10         0.00000E+00
    0.40920E-07         0.30965E-10         0.00000E+00
    0.40920E-07         0.15739E-10         0.00000E+00
    0.38589E-07         0.16040E-10         0.00000E+00
    0.38589E-07         0.31569E-10         0.00000E+00
    0.38590E-07         0.61923E-10         0.00000E+00
    0.38593E-07         0.90865E-10         0.00000E+00
    0.38595E-07         0.11840E-09         0.00000E+00
    0.38599E-07         0.14452E-09         0.00000E+00
    0.38603E-07         0.16924E-09         0.00000E+00
    0.38608E-07         0.19256E-09         0.00000E+00
    0.38614E-07         0.21449E-09         0.00000E+00
    0.38620E-07         0.23502E-09         0.00000E+00
    0.38626E-07         0.25418E-09         0.00000E+00
    0.38633E-07         0.27196E-09         0.00000E+00
    0.38640E-07         0.28838E-09         0.00000E+00
    0.38648E-07         0.30344E-09         0.00000E+00
    0.38656E-07         0.31715E-09         0.00000E+00
    0.38664E-07         0.32952E-09         0.00000E+00
    0.38672E-07         0.34057E-09         0.00000E+00
    0.38681E-07         0.35029E-09         0.00000E+00
    0.38690E-07         0.35871E-09         0.00000E+00
    0.38698E-07         0.36583E-09         0.00000E+00
    0.38707E-07         0.37166E-09         0.00000E+00
    0.38716E-07         0.37622E-09         0.00000E+00
    0.38725E-07         0.37951E-09         0.00000E+00
    0.38734E-07         0.38155E-09         0.00000E+00
    0.38743E-07         0.38234E-09         0.00000E+00
    0.38752E-07         0.38191E-09         0.00000E+00
    0.38761E-07         0.38025E-09         0.00000E+00
    0.38770E-07         0.37738E-09         0.00000E+00
    0.38779E-07         0.37331E-09         0.00000E+00
    0.38787E-07         0.36805E-09         0.00000E+00
    0.38795E-07         0.36161E-09         0.00000E+00
    0.38803E-07         0.35401E-09         0.00000E+00
    0.38811E-07         0.34524E-09         0.00000E+00
    0.38819E-07         0.33533E-09         0.00000E+00
    0.38826E-07         0.32428E-09         0.00000E+00
    0.38833E-07         0.31210E-09         0.00000E+00
    0.38840E-07         0.29880E-09         0.00000E+00
    0.38846E-07         0.28440E-09         0.00000E+00
    0.38852E-07         0.26889E-09         0.00000E+00
    0.38858E-07         0.25229E-09         0.00000E+00
    0.38863E-07         0.23461E-09         0.00000E+00
    0.38868E-07         0.21585E-09         0.00000E+00
    0.38872E-07         0.19602E-09         0.00000E+00
    0.38876E-07         0.17514E-09         0.00000E+00
    0.38880E-07         0.15321E-09         0.00000E+00
    0.38883E-07         0.13023E-09         0.00000E+00
    0.38885E-07         0.10622E-09         0.00000E+00
    0.38887E-07         0.81184E-10         0.00000E+00
    0.38889E-07         0.55125E-10         0.00000E+00
    0.38889E-07         0.28052E-10         0.00000E+00
    0.38890E-07         0.14263E-10         0.00000E+00
    0.36652E-07         0.13811E-10         0.00000E+00
    0.36653E-07         0.27210E-10         0.00000E+00
    0.36654E-07         0.53436E-10         0.00000E+00
    0.36656E-07         0.78514E-10         0.00000E+00
    0.36659E-07         0.10244E-09         0.00000E+00
    0.36662E-07         0.12520E-09         0.00000E+00
    0.36666E-07         0.14680E-09         0.00000E+00
    0.36671E-07         0.16724E-09         0.00000E+00
    0.36676E-07         0.18651E-09         0.00000E+00
    0.36682E-07         0.20461E-09         0.00000E+00
    0.36688E-07         0.22155E-09         0.00000E+00
    0.36695E-07         0.23732E-09         0.00000E+00
    0.36701E-07         0.25193E-09         0.00000E+00
    0.36709E-07         0.26537E-09         0.00000E+00
    0.36716E-07         0.27766E-09         0.00000E+00
    0.36724E-07         0.28880E-09         0.00000E+00
    0.36732E-07         0.29878E-09         0.00000E+00
    0.36740E-07         0.30762E-09         0.00000E+00
    0.36749E-07         0.31532E-09         0.00000E+00
    0.36757E-07         0.32189E-09         0.00000E+00
    0.36766E-07         0.32733E-09         0.00000E+00
    0.36775E-07         0.33165E-09         0.00000E+00
    0.36784E-07         0.33484E-09         0.00000E+00
    0.36792E-07         0.33694E-09         0.00000E+00
    0.36801E-07         0.33792E-09         0.00000E+00
    0.36810E-07         0.33782E-09         0.00000E+00
    0.36818E-07         0.33662E-09         0.00000E+00
    0.36827E-07         0.33434E-09         0.00000E+00
    0.36835E-07         0.33099E-09         0.00000E+00
    0.36843E-07         0.32657E-09         0.00000E+00
    0.36852E-07         0.32109E-09         0.00000E+00
    0.36859E-07         0.31456E-09         0.00000E+00
    0.36867E-07         0.30698E-09         0.00000E+00
    0.36874E-07         0.29837E-09         0.00000E+00
    0.36882E-07         0.28873E-09         0.00000E+00
    0.36888E-07         0.27806E-09         0.00000E+00
    0.36895E-07         0.26638E-09         0.00000E+00
    0.36901E-07         0.25369E-09         0.00000E+00
    0.36907E-07         0.23999E-09         0.00000E+00
    0.36913E-07         0.22530E-09         0.00000E+00
    0.36918E-07         0.20963E-09         0.00000E+00
    0.36922E-07         0.19297E-09         0.00000E+00
    0.36927E-07         0.17534E-09         0.00000E+00
    0.36931E-07         0.15674E-09         0.00000E+00
    0.36934E-07         0.13717E-09         0.00000E+00
    0.36937E-07         0.11666E-09         0.00000E+00
    0.36939E-07         0.95193E-10         0.00000E+00
    0.36941E-07         0.72786E-10         0.00000E+00
    0.36943E-07         0.49443E-10         0.00000E+00
    0.36943E-07         0.25171E-10         0.00000E+00
    0.36944E-07         0.12803E-10         0.00000E+00
    0.34810E-07         0.11720E-10         0.00000E+00
    0.34810E-07         0.23117E-10         0.00000E+00
    0.34811E-07         0.45460E-10         0.00000E+00
    0.34813E-07         0.66892E-10         0.00000E+00
    0.34816E-07         0.87402E-10         0.00000E+00
    0.34819E-07         0.10698E-09         0.00000E+00
    0.34823E-07         0.12562E-09         0.00000E+00
    0.34827E-07         0.14330E-09         0.00000E+00
    0.34832E-07         0.16003E-09         0.00000E+00
    0.34837E-07         0.17580E-09         0.00000E+00
    0.34843E-07         0.19060E-09         0.00000E+00
    0.34849E-07         0.20443E-09         0.00000E+00
    0.34856E-07         0.21728E-09         0.00000E+00
    0.34863E-07         0.22916E-09         0.00000E+00
    0.34870E-07         0.24006E-09         0.00000E+00
    0.34877E-07         0.24998E-09         0.00000E+00
    0.34885E-07         0.25892E-09         0.00000E+00
    0.34893E-07         0.26688E-09         0.00000E+00
    0.34901E-07         0.27385E-09         0.00000E+00
    0.34909E-07         0.27985E-09         0.00000E+00
    0.34917E-07         0.28488E-09         0.00000E+00
    0.34925E-07         0.28893E-09         0.00000E+00
    0.34934E-07         0.29200E-09         0.00000E+00
    0.34942E-07         0.29411E-09         0.00000E+00
    0.34950E-07         0.29525E-09         0.00000E+00
    0.34959E-07         0.29543E-09         0.00000E+00
    0.34967E-07         0.29465E-09         0.00000E+00
    0.34975E-07         0.29291E-09         0.00000E+00
    0.34983E-07         0.29023E-09         0.00000E+00
    0.34991E-07         0.28659E-09         0.00000E+00
    0.34998E-07         0.28201E-09         0.00000E+00
    0.35006E-07         0.27650E-09         0.00000E+00
    0.35013E-07         0.27005E-09         0.00000E+00
    0.35020E-07         0.26267E-09         0.00000E+00
    0.35027E-07         0.25437E-09         0.00000E+00
    0.35034E-07         0.24514E-09         0.00000E+00
    0.35040E-07         0.23501E-09         0.00000E+00
    0.35046E-07         0.22396E-09         0.00000E+00
    0.35052E-07         0.21201E-09         0.00000E+00
    0.35057E-07         0.19917E-09         0.00000E+00
    0.35062E-07         0.18542E-09         0.00000E+00
    0.35066E-07         0.17079E-09         0.00000E+00
    0.35071E-07         0.15528E-09         0.00000E+00
    0.35074E-07         0.13889E-09         0.00000E+00
    0.35078E-07         0.12162E-09         0.00000E+00
    0.35080E-07         0.10349E-09         0.00000E+00
    0.35083E-07         0.84492E-10         0.00000E+00
    0.35085E-07         0.64637E-10         0.00000E+00
    0.35086E-07         0.43929E-10         0.00000E+00
    0.35087E-07         0.22374E-10         0.00000E+00
    0.35087E-07         0.11386E-10         0.00000E+00
    0.33063E-07         0.97883E-11         0.00000E+00
    0.33064E-07         0.19333E-10         0.00000E+00
    0.33065E-07         0.38077E-10         0.00000E+00
    0.33067E-07         0.56123E-10         0.00000E+00
    0.33069E-07         0.73455E-10         0.00000E+00
    0.33072E-07         0.90059E-10         0.00000E+00
    0.33075E-07         0.10592E-09         0.00000E+00
    0.33079E-07         0.12103E-09         0.00000E+00
    0.33084E-07         0.13537E-09         0.00000E+00
    0.33089E-07         0.14893E-09         0.00000E+00
    0.33094E-07         0.16171E-09         0.00000E+00
    0.33100E-07         0.17370E-09         0.00000E+00
    0.33106E-07         0.18488E-09         0.00000E+00
    0.33112E-07         0.19526E-09         0.00000E+00
    0.33119E-07         0.20483E-09         0.00000E+00
    0.33126E-07         0.21357E-09         0.00000E+00
    0.33133E-07         0.22150E-09         0.00000E+00
    0.33140E-07         0.22859E-09         0.00000E+00
    0.33148E-07         0.23486E-09         0.00000E+00
    0.33155E-07         0.24030E-09         0.00000E+00
    0.33163E-07         0.24490E-09         0.00000E+00
    0.33171E-07         0.24866E-09         0.00000E+00
    0.33179E-07         0.25159E-09         0.00000E+00
    0.33186E-07         0.25369E-09         0.00000E+00
    0.33194E-07         0.25494E-09         0.00000E+00
    0.33202E-07         0.25537E-09         0.00000E+00
    0.33210E-07         0.25495E-09         0.00000E+00
    0.33217E-07         0.25370E-09         0.00000E+00
    0.33225E-07         0.25162E-09         0.00000E+00
    0.33232E-07         0.24870E-09         0.00000E+00
    0.33239E-07         0.24496E-09         0.00000E+00
    0.33247E-07         0.24038E-09         0.00000E+00
    0.33253E-07         0.23498E-09         0.00000E+00
    0.33260E-07         0.22876E-09         0.00000E+00
    0.33267E-07         0.22171E-09         0.00000E+00
    0.33273E-07         0.21385E-09         0.00000E+00
    0.33279E-07         0.20517E-09         0.00000E+00
    0.33284E-07         0.19568E-09         0.00000E+00
    0.33290E-07         0.18538E-09         0.00000E+00
    0.33295E-07         0.17428E-09         0.00000E+00
    0.33299E-07         0.16237E-09         0.00000E+00
    0.33304E-07         0.14966E-09         0.00000E+00
    0.33307E-07         0.13616E-09         0.00000E+00
    0.33311E-07         0.12187E-09         0.00000E+00
    0.33314E-07         0.10679E-09         0.00000E+00
    0.33317E-07         0.90925E-10         0.00000E+00
    0.33319E-07         0.74280E-10         0.00000E+00
    0.33321E-07         0.56859E-10         0.00000E+00
    0.33322E-07         0.38666E-10         0.00000E+00
    0.33323E-07         0.19704E-10         0.00000E+00
    0.33323E-07         0.10032E-10         0.00000E+00
    0.31414E-07         0.80290E-11         0.00000E+00
    0.31415E-07         0.15883E-10         0.00000E+00
    0.31416E-07         0.31341E-10         0.00000E+00
    0.31417E-07         0.46288E-10         0.00000E+00
    0.31419E-07         0.60705E-10         0.00000E+00
    0.31422E-07         0.74574E-10         0.00000E+00
    0.31425E-07         0.87878E-10         0.00000E+00
    0.31429E-07         0.10060E-09         0.00000E+00
    0.31433E-07         0.11273E-09         0.00000E+00
    0.31438E-07         0.12425E-09         0.00000E+00
    0.31443E-07         0.13515E-09         0.00000E+00
    0.31448E-07         0.14541E-09         0.00000E+00
    0.31453E-07         0.15503E-09         0.00000E+00
    0.31459E-07         0.16400E-09         0.00000E+00
    0.31465E-07         0.17230E-09         0.00000E+00
    0.31472E-07         0.17994E-09         0.00000E+00
    0.31478E-07         0.18689E-09         0.00000E+00
    0.31485E-07         0.19316E-09         0.00000E+00
    0.31492E-07         0.19874E-09         0.00000E+00
    0.31499E-07         0.20363E-09         0.00000E+00
    0.31506E-07         0.20781E-09         0.00000E+00
    0.31513E-07         0.21128E-09         0.00000E+00
    0.31520E-07         0.21405E-09         0.00000E+00
    0.31527E-07         0.21610E-09         0.00000E+00
    0.31534E-07         0.21744E-09         0.00000E+00
    0.31542E-07         0.21806E-09         0.00000E+00
    0.31549E-07         0.21797E-09         0.00000E+00
    0.31556E-07         0.21714E-09         0.00000E+00
    0.31563E-07         0.21560E-09         0.00000E+00
    0.31570E-07         0.21334E-09         0.00000E+00
    0.31576E-07         0.21035E-09         0.00000E+00
    0.31583E-07         0.20663E-09         0.00000E+00
    0.31589E-07         0.20220E-09         0.00000E+00
    0.31596E-07         0.19704E-09         0.00000E+00
    0.31602E-07         0.19115E-09         0.00000E+00
    0.31607E-07         0.18455E-09         0.00000E+00
    0.31613E-07         0.17722E-09         0.00000E+00
    0.31618E-07         0.16918E-09         0.00000E+00
    0.31623E-07         0.16041E-09         0.00000E+00
    0.31628E-07         0.15093E-09         0.00000E+00
    0.31632E-07         0.14074E-09         0.00000E+00
    0.31636E-07         0.12983E-09         0.00000E+00
    0.31640E-07         0.11821E-09         0.00000E+00
    0.31643E-07         0.10589E-09         0.00000E+00
    0.31646E-07         0.92854E-10         0.00000E+00
    0.31648E-07         0.79118E-10         0.00000E+00
    0.31650E-07         0.64681E-10         0.00000E+00
    0.31652E-07         0.49546E-10         0.00000E+00
    0.31653E-07         0.33716E-10         0.00000E+00
    0.31654E-07         0.17193E-10         0.00000E+00
    0.31654E-07         0.87590E-11         0.00000E+00
    0.29863E-07         0.64491E-11         0.00000E+00
    0.29864E-07         0.12783E-10         0.00000E+00
    0.29865E-07         0.25282E-10         0.00000E+00
    0.29866E-07         0.37432E-10         0.00000E+00
    0.29868E-07         0.49213E-10         0.00000E+00
    0.29870E-07         0.60602E-10         0.00000E+00
    0.29873E-07         0.71582E-10         0.00000E+00
    0.29876E-07         0.82134E-10         0.00000E+00
    0.29880E-07         0.92241E-10         0.00000E+00
    0.29884E-07         0.10189E-09         0.00000E+00
    0.29889E-07         0.11106E-09         0.00000E+00
    0.29893E-07         0.11974E-09         0.00000E+00
    0.29898E-07         0.12791E-09         0.00000E+00
    0.29904E-07         0.13557E-09         0.00000E+00
    0.29909E-07         0.14271E-09         0.00000E+00
    0.29915E-07         0.14930E-09         0.00000E+00
    0.29921E-07         0.15535E-09         0.00000E+00
    0.29927E-07         0.16084E-09         0.00000E+00
    0.29933E-07         0.16577E-09         0.00000E+00
    0.29939E-07         0.17012E-09         0.00000E+00
    0.29946E-07         0.17389E-09         0.00000E+00
    0.29952E-07         0.17708E-09         0.00000E+00
    0.29959E-07         0.17967E-09         0.00000E+00
    0.29965E-07         0.18166E-09         0.00000E+00
    0.29972E-07         0.18305E-09         0.00000E+00
    0.29978E-07         0.18383E-09         0.00000E+00
    0.29985E-07         0.18400E-09         0.00000E+00
    0.29991E-07         0.18355E-09         0.00000E+00
    0.29998E-07         0.18249E-09         0.00000E+00
    0.30004E-07         0.18080E-09         0.00000E+00
    0.30010E-07         0.17849E-09         0.00000E+00
    0.30016E-07         0.17555E-09         0.00000E+00
    0.30022E-07         0.17198E-09         0.00000E+00
    0.30028E-07         0.16779E-09         0.00000E+00
    0.30033E-07         0.16296E-09         0.00000E+00
    0.30038E-07         0.15750E-09         0.00000E+00
    0.30044E-07         0.15141E-09         0.00000E+00
    0.30048E-07         0.14469E-09         0.00000E+00
    0.30053E-07         0.13733E-09         0.00000E+00
    0.30057E-07         0.12935E-09         0.00000E+00
    0.30061E-07         0.12073E-09         0.00000E+00
    0.30065E-07         0.11148E-09         0.00000E+00
    0.30068E-07         0.10160E-09         0.00000E+00
    0.30071E-07         0.91084E-10         0.00000E+00
    0.30074E-07         0.79944E-10         0.00000E+00
    0.30076E-07         0.68177E-10         0.00000E+00
    0.30078E-07         0.55783E-10         0.00000E+00
    0.30080E-07         0.42765E-10         0.00000E+00
    0.30081E-07         0.29125E-10         0.00000E+00
    0.30081E-07         0.14863E-10         0.00000E+00
    0.30082E-07         0.75775E-11         0.00000E+00
    0.28410E-07         0.50504E-11         0.00000E+00
    0.28410E-07         0.10036E-10         0.00000E+00
    0.28411E-07         0.19909E-10         0.00000E+00
    0.28412E-07         0.29571E-10         0.00000E+00
    0.28414E-07         0.39000E-10         0.00000E+00
    0.28416E-07         0.48173E-10         0.00000E+00
    0.28418E-07         0.57071E-10         0.00000E+00
    0.28421E-07         0.65673E-10         0.00000E+00
    0.28425E-07         0.73960E-10         0.00000E+00
    0.28428E-07         0.81916E-10         0.00000E+00
    0.28432E-07         0.89522E-10         0.00000E+00
    0.28436E-07         0.96763E-10         0.00000E+00
    0.28441E-07         0.10362E-09         0.00000E+00
    0.28445E-07         0.11009E-09         0.00000E+00
    0.28450E-07         0.11615E-09         0.00000E+00
    0.28455E-07         0.12179E-09         0.00000E+00
    0.28461E-07         0.12700E-09         0.00000E+00
    0.28466E-07         0.13177E-09         0.00000E+00
    0.28472E-07         0.13608E-09         0.00000E+00
    0.28477E-07         0.13993E-09         0.00000E+00
    0.28483E-07         0.14331E-09         0.00000E+00
    0.28489E-07         0.14621E-09         0.00000E+00
    0.28495E-07         0.14862E-09         0.00000E+00
    0.28501E-07         0.15054E-09         0.00000E+00
    0.28507E-07         0.15195E-09         0.00000E+00
    0.28512E-07         0.15285E-09         0.00000E+00
    0.28518E-07         0.15324E-09         0.00000E+00
    0.28524E-07         0.15312E-09         0.00000E+00
    0.28530E-07         0.15246E-09         0.00000E+00
    0.28535E-07         0.15128E-09         0.00000E+00
    0.28541E-07         0.14957E-09         0.00000E+00
    0.28546E-07         0.14731E-09         0.00000E+00
    0.28552E-07         0.14452E-09         0.00000E+00
    0.28557E-07         0.14119E-09         0.00000E+00
    0.28562E-07         0.13731E-09         0.00000E+00
    0.28567E-07         0.13288E-09         0.00000E+00
    0.28571E-07         0.12790E-09         0.00000E+00
    0.28575E-07         0.12238E-09         0.00000E+00
    0.28580E-07         0.11629E-09         0.00000E+00
    0.28583E-07         0.10966E-09         0.00000E+00
    0.28587E-07         0.10247E-09         0.00000E+00
    0.28590E-07         0.94722E-10         0.00000E+00
    0.28593E-07         0.86420E-10         0.00000E+00
    0.28596E-07         0.77561E-10         0.00000E+00
    0.28599E-07         0.68145E-10         0.00000E+00
    0.28601E-07         0.58173E-10         0.00000E+00
    0.28602E-07         0.47645E-10         0.00000E+00
    0.28604E-07         0.36561E-10         0.00000E+00
    0.28605E-07         0.24923E-10         0.00000E+00
    0.28605E-07         0.12730E-10         0.00000E+00
    0.28606E-07         0.64956E-11         0.00000E+00
    0.27053E-07         0.38306E-11         0.00000E+00
    0.27053E-07         0.76387E-11         0.00000E+00
    0.27054E-07         0.15214E-10         0.00000E+00
    0.27055E-07         0.22695E-10         0.00000E+00
    0.27056E-07         0.30057E-10         0.00000E+00
    0.27058E-07         0.37279E-10         0.00000E+00
    0.27060E-07         0.44338E-10         0.00000E+00
    0.27063E-07         0.51214E-10         0.00000E+00
    0.27066E-07         0.57887E-10         0.00000E+00
    0.27069E-07         0.64338E-10         0.00000E+00
    0.27072E-07         0.70550E-10         0.00000E+00
    0.27076E-07         0.76504E-10         0.00000E+00
    0.27080E-07         0.82186E-10         0.00000E+00
    0.27084E-07         0.87579E-10         0.00000E+00
    0.27088E-07         0.92670E-10         0.00000E+00
    0.27093E-07         0.97444E-10         0.00000E+00
    0.27097E-07         0.10189E-09         0.00000E+00
    0.27102E-07         0.10599E-09         0.00000E+00
    0.27107E-07         0.10974E-09         0.00000E+00
    0.27112E-07         0.11312E-09         0.00000E+00
    0.27117E-07         0.11613E-09         0.00000E+00
    0.27122E-07         0.11875E-09         0.00000E+00
    0.27127E-07         0.12098E-09         0.00000E+00
    0.27132E-07         0.12281E-09         0.00000E+00
    0.27138E-07         0.12422E-09         0.00000E+00
    0.27143E-07         0.12521E-09         0.00000E+00
    0.27148E-07         0.12578E-09         0.00000E+00
    0.27153E-07         0.12592E-09         0.00000E+00
    0.27158E-07         0.12562E-09         0.00000E+00
    0.27163E-07         0.12487E-09         0.00000E+00
    0.27168E-07         0.12367E-09         0.00000E+00
    0.27173E-07         0.12202E-09         0.00000E+00
    0.27178E-07         0.11991E-09         0.00000E+00
    0.27182E-07         0.11733E-09         0.00000E+00
    0.27187E-07         0.11429E-09         0.00000E+00
    0.27191E-07         0.11077E-09         0.00000E+00
    0.27195E-07         0.10678E-09         0.00000E+00
    0.27199E-07         0.10232E-09         0.00000E+00
    0.27203E-07         0.97372E-10         0.00000E+00
    0.27206E-07         0.91943E-10         0.00000E+00
    0.27209E-07         0.86031E-10         0.00000E+00
    0.27212E-07         0.79632E-10         0.00000E+00
    0.27215E-07         0.72745E-10         0.00000E+00
    0.27217E-07         0.65370E-10         0.00000E+00
    0.27220E-07         0.57504E-10         0.00000E+00
    0.27221E-07         0.49148E-10         0.00000E+00
    0.27223E-07         0.40300E-10         0.00000E+00
    0.27224E-07         0.30960E-10         0.00000E+00
    0.27225E-07         0.21128E-10         0.00000E+00
    0.27226E-07         0.10803E-10         0.00000E+00
    0.27226E-07         0.55178E-11         0.00000E+00
    0.25791E-07         0.27841E-11         0.00000E+00
    0.25791E-07         0.55800E-11         0.00000E+00
    0.25791E-07         0.11178E-10         0.00000E+00
    0.25792E-07         0.16777E-10         0.00000E+00
    0.25793E-07         0.22353E-10         0.00000E+00
    0.25795E-07         0.27882E-10         0.00000E+00
    0.25797E-07         0.33343E-10         0.00000E+00
    0.25799E-07         0.38714E-10         0.00000E+00
    0.25802E-07         0.43976E-10         0.00000E+00
    0.25804E-07         0.49109E-10         0.00000E+00
    0.25807E-07         0.54094E-10         0.00000E+00
    0.25810E-07         0.58915E-10         0.00000E+00
    0.25814E-07         0.63553E-10         0.00000E+00
    0.25817E-07         0.67994E-10         0.00000E+00
    0.25821E-07         0.72221E-10         0.00000E+00
    0.25825E-07         0.76220E-10         0.00000E+00
    0.25829E-07         0.79976E-10         0.00000E+00
    0.25833E-07         0.83478E-10         0.00000E+00
    0.25837E-07         0.86712E-10         0.00000E+00
    0.25842E-07         0.89666E-10         0.00000E+00
    0.25846E-07         0.92328E-10         0.00000E+00
    0.25850E-07         0.94689E-10         0.00000E+00
    0.25855E-07         0.96737E-10         0.00000E+00
    0.25859E-07         0.98463E-10         0.00000E+00
    0.25864E-07         0.99858E-10         0.00000E+00
    0.25869E-07         0.10091E-09         0.00000E+00
    0.25873E-07         0.10162E-09         0.00000E+00
    0.25878E-07         0.10197E-09         0.00000E+00
    0.25882E-07         0.10196E-09         0.00000E+00
    0.25886E-07         0.10158E-09         0.00000E+00
    0.25891E-07         0.10082E-09         0.00000E+00
    0.25895E-07         0.99685E-10         0.00000E+00
    0.25899E-07         0.98159E-10         0.00000E+00
    0.25903E-07         0.96239E-10         0.00000E+00
    0.25907E-07         0.93922E-10         0.00000E+00
    0.25911E-07         0.91203E-10         0.00000E+00
    0.25914E-07         0.88078E-10         0.00000E+00
    0.25918E-07         0.84542E-10         0.00000E+00
    0.25921E-07         0.80592E-10         0.00000E+00
    0.25924E-07         0.76225E-10         0.00000E+00
    0.25927E-07         0.71438E-10         0.00000E+00
    0.25929E-07         0.66228E-10         0.00000E+00
    0.25932E-07         0.60593E-10         0.00000E+00
    0.25934E-07         0.54531E-10         0.00000E+00
    0.25936E-07         0.48039E-10         0.00000E+00
    0.25938E-07         0.41116E-10         0.00000E+00
    0.25939E-07         0.33760E-10         0.00000E+00
    0.25940E-07         0.25970E-10         0.00000E+00
    0.25941E-07         0.17746E-10         0.00000E+00
    0.25941E-07         0.90851E-11         0.00000E+00
    0.25941E-07         0.46457E-11         0.00000E+00
    0.24621E-07         0.19029E-11         0.00000E+00
    0.24622E-07         0.38449E-11         0.00000E+00
    0.24622E-07         0.77730E-11         0.00000E+00
    0.24623E-07         0.11777E-10         0.00000E+00
    0.24624E-07         0.15834E-10         0.00000E+00
    0.24625E-07         0.19921E-10         0.00000E+00
    0.24627E-07         0.24017E-10         0.00000E+00
    0.24629E-07         0.28099E-10         0.00000E+00
    0.24631E-07         0.32148E-10         0.00000E+00
    0.24633E-07         0.36145E-10         0.00000E+00
    0.24635E-07         0.40070E-10         0.00000E+00
    0.24638E-07         0.43906E-10         0.00000E+00
    0.24641E-07         0.47637E-10         0.00000E+00
    0.24644E-07         0.51244E-10         0.00000E+00
    0.24647E-07         0.54714E-10         0.00000E+00
    0.24650E-07         0.58030E-10         0.00000E+00
    0.24654E-07         0.61178E-10         0.00000E+00
    0.24657E-07         0.64145E-10         0.00000E+00
    0.24661E-07         0.66917E-10         0.00000E+00
    0.24665E-07         0.69482E-10         0.00000E+00
    0.24668E-07         0.71828E-10         0.00000E+00
    0.24672E-07         0.73943E-10         0.00000E+00
    0.24676E-07         0.75817E-10         0.00000E+00
    0.24680E-07         0.77439E-10         0.00000E+00
    0.24684E-07         0.78800E-10         0.00000E+00
    0.24688E-07         0.79889E-10         0.00000E+00
    0.24692E-07         0.80699E-10         0.00000E+00
    0.24695E-07         0.81220E-10         0.00000E+00
    0.24699E-07         0.81445E-10         0.00000E+00
    0.24703E-07         0.81366E-10         0.00000E+00
    0.24707E-07         0.80976E-10         0.00000E+00
    0.24710E-07         0.80269E-10         0.00000E+00
    0.24714E-07         0.79237E-10         0.00000E+00
    0.24717E-07         0.77876E-10         0.00000E+00
    0.24721E-07         0.76179E-10         0.00000E+00
    0.24724E-07         0.74141E-10         0.00000E+00
    0.24727E-07         0.71757E-10         0.00000E+00
    0.24730E-07         0.69023E-10         0.00000E+00
    0.24733E-07         0.65934E-10         0.00000E+00
    0.24736E-07         0.62485E-10         0.00000E+00
    0.24738E-07         0.58675E-10         0.00000E+00
    0.24740E-07         0.54498E-10         0.00000E+00
    0.24742E-07         0.49952E-10         0.00000E+00
    0.24744E-07         0.45034E-10         0.00000E+00
    0.24746E-07         0.39741E-10         0.00000E+00
    0.24747E-07         0.34071E-10         0.00000E+00
    0.24749E-07         0.28021E-10         0.00000E+00
    0.24750E-07         0.21590E-10         0.00000E+00
    0.24750E-07         0.14775E-10         0.00000E+00
    0.24751E-07         0.75752E-11         0.00000E+00
    0.24751E-07         0.38790E-11         0.00000E+00
    0.23543E-07         0.11775E-11         0.00000E+00
    0.23544E-07         0.24147E-11         0.00000E+00
    0.23544E-07         0.49621E-11         0.00000E+00
    0.23545E-07         0.76442E-11         0.00000E+00
    0.23545E-07         0.10438E-10         0.00000E+00
    0.23546E-07         0.13321E-10         0.00000E+00
    0.23548E-07         0.16272E-10         0.00000E+00
    0.23549E-07         0.19271E-10         0.00000E+00
    0.23551E-07         0.22298E-10         0.00000E+00
    0.23553E-07         0.25333E-10         0.00000E+00
    0.23555E-07         0.28359E-10         0.00000E+00
    0.23557E-07         0.31357E-10         0.00000E+00
    0.23559E-07         0.34310E-10         0.00000E+00
    0.23562E-07         0.37203E-10         0.00000E+00
    0.23565E-07         0.40019E-10         0.00000E+00
    0.23567E-07         0.42743E-10         0.00000E+00
    0.23570E-07         0.45361E-10         0.00000E+00
    0.23573E-07         0.47859E-10         0.00000E+00
    0.23576E-07         0.50223E-10         0.00000E+00
    0.23579E-07         0.52441E-10         0.00000E+00
    0.23582E-07         0.54501E-10         0.00000E+00
    0.23585E-07         0.56390E-10         0.00000E+00
    0.23589E-07         0.58097E-10         0.00000E+00
    0.23592E-07         0.59612E-10         0.00000E+00
    0.23595E-07         0.60925E-10         0.00000E+00
    0.23599E-07         0.62026E-10         0.00000E+00
    0.23602E-07         0.62905E-10         0.00000E+00
    0.23605E-07         0.63554E-10         0.00000E+00
    0.23608E-07         0.63963E-10         0.00000E+00
    0.23611E-07         0.64126E-10         0.00000E+00
    0.23615E-07         0.64035E-10         0.00000E+00
    0.23618E-07         0.63681E-10         0.00000E+00
    0.23621E-07         0.63059E-10         0.00000E+00
    0.23624E-07         0.62161E-10         0.00000E+00
    0.23626E-07         0.60982E-10         0.00000E+00
    0.23629E-07         0.59516E-10         0.00000E+00
    0.23632E-07         0.57757E-10         0.00000E+00
    0.23634E-07         0.55700E-10         0.00000E+00
    0.23637E-07         0.53340E-10         0.00000E+00
    0.23639E-07         0.50673E-10         0.00000E+00
    0.23641E-07         0.47694E-10         0.00000E+00
    0.23643E-07         0.44399E-10         0.00000E+00
    0.23645E-07         0.40785E-10         0.00000E+00
    0.23646E-07         0.36847E-10         0.00000E+00
    0.23648E-07         0.32583E-10         0.00000E+00
    0.23649E-07         0.27990E-10         0.00000E+00
    0.23650E-07         0.23064E-10         0.00000E+00
    0.23651E-07         0.17803E-10         0.00000E+00
    0.23652E-07         0.12206E-10         0.00000E+00
    0.23652E-07         0.62687E-11         0.00000E+00
    0.23652E-07         0.32151E-11         0.00000E+00
    0.22554E-07         0.59697E-12         0.00000E+00
    0.22554E-07         0.12685E-11         0.00000E+00
    0.22554E-07         0.27056E-11         0.00000E+00
    0.22555E-07         0.43198E-11         0.00000E+00
    0.22556E-07         0.60891E-11         0.00000E+00
    0.22556E-07         0.79923E-11         0.00000E+00
    0.22557E-07         0.10009E-10         0.00000E+00
    0.22559E-07         0.12119E-10         0.00000E+00
    0.22560E-07         0.14303E-10         0.00000E+00
    0.22562E-07         0.16543E-10         0.00000E+00
    0.22563E-07         0.18821E-10         0.00000E+00
    0.22565E-07         0.21120E-10         0.00000E+00
    0.22567E-07         0.23423E-10         0.00000E+00
    0.22569E-07         0.25713E-10         0.00000E+00
    0.22571E-07         0.27977E-10         0.00000E+00
    0.22573E-07         0.30197E-10         0.00000E+00
    0.22575E-07         0.32361E-10         0.00000E+00
    0.22578E-07         0.34455E-10         0.00000E+00
    0.22580E-07         0.36464E-10         0.00000E+00
    0.22583E-07         0.38377E-10         0.00000E+00
    0.22585E-07         0.40181E-10         0.00000E+00
    0.22588E-07         0.41864E-10         0.00000E+00
    0.22591E-07         0.43416E-10         0.00000E+00
    0.22593E-07         0.44824E-10         0.00000E+00
    0.22596E-07         0.46080E-10         0.00000E+00
    0.22599E-07         0.47172E-10         0.00000E+00
    0.22601E-07         0.48092E-10         0.00000E+00
    0.22604E-07         0.48830E-10         0.00000E+00
    0.22607E-07         0.49377E-10         0.00000E+00
    0.22609E-07         0.49726E-10         0.00000E+00
    0.22612E-07         0.49868E-10         0.00000E+00
    0.22614E-07         0.49796E-10         0.00000E+00
    0.22617E-07         0.49503E-10         0.00000E+00
    0.22619E-07         0.48981E-10         0.00000E+00
    0.22622E-07         0.48224E-10         0.00000E+00
    0.22624E-07         0.47226E-10         0.00000E+00
    0.22626E-07         0.45981E-10         0.00000E+00
    0.22628E-07         0.44484E-10         0.00000E+00
    0.22630E-07         0.42729E-10         0.00000E+00
    0.22632E-07         0.40711E-10         0.00000E+00
    0.22634E-07         0.38425E-10         0.00000E+00
    0.22636E-07         0.35867E-10         0.00000E+00
    0.22637E-07         0.33033E-10         0.00000E+00
    0.22638E-07         0.29919E-10         0.00000E+00
    0.22640E-07         0.26521E-10         0.00000E+00
    0.22641E-07         0.22835E-10         0.00000E+00
    0.22641E-07         0.18859E-10         0.00000E+00
    0.22642E-07         0.14590E-10         0.00000E+00
    0.22643E-07         0.10023E-10         0.00000E+00
    0.22643E-07         0.51582E-11         0.00000E+00
    0.22643E-07         0.26505E-11         0.00000E+00
    0.21651E-07         0.14999E-12         0.00000E+00
    0.21651E-07         0.38422E-12         0.00000E+00
    0.21651E-07         0.96066E-12         0.00000E+00
    0.21652E-07         0.17426E-11         0.00000E+00
    0.21652E-07         0.27092E-11         0.00000E+00
    0.21653E-07         0.38405E-11         0.00000E+00
    0.21653E-07         0.51169E-11         0.00000E+00
    0.21654E-07         0.65196E-11         0.00000E+00
    0.21655E-07         0.80303E-11         0.00000E+00
    0.21657E-07         0.96311E-11         0.00000E+00
    0.21658E-07         0.11305E-10         0.00000E+00
    0.21659E-07         0.13036E-10         0.00000E+00
    0.21661E-07         0.14807E-10         0.00000E+00
    0.21662E-07         0.16603E-10         0.00000E+00
    0.21664E-07         0.18409E-10         0.00000E+00
    0.21666E-07         0.20210E-10         0.00000E+00
    0.21667E-07         0.21993E-10         0.00000E+00
    0.21669E-07         0.23745E-10         0.00000E+00
    0.21671E-07         0.25451E-10         0.00000E+00
    0.21673E-07         0.27100E-10         0.00000E+00
    0.21675E-07         0.28680E-10         0.00000E+00
    0.21677E-07         0.30179E-10         0.00000E+00
    0.21679E-07         0.31586E-10         0.00000E+00
    0.21681E-07         0.32890E-10         0.00000E+00
    0.21684E-07         0.34080E-10         0.00000E+00
    0.21686E-07         0.35148E-10         0.00000E+00
    0.21688E-07         0.36083E-10         0.00000E+00
    0.21690E-07         0.36876E-10         0.00000E+00
    0.21692E-07         0.37519E-10         0.00000E+00
    0.21694E-07         0.38003E-10         0.00000E+00
    0.21696E-07         0.38320E-10         0.00000E+00
    0.21698E-07         0.38463E-10         0.00000E+00
    0.21700E-07         0.38423E-10         0.00000E+00
    0.21702E-07         0.38195E-10         0.00000E+00
    0.21704E-07         0.37771E-10         0.00000E+00
    0.21706E-07         0.37144E-10         0.00000E+00
    0.21708E-07         0.36310E-10         0.00000E+00
    0.21710E-07         0.35262E-10         0.00000E+00
    0.21711E-07         0.33994E-10         0.00000E+00
    0.21713E-07         0.32501E-10         0.00000E+00
    0.21714E-07         0.30778E-10         0.00000E+00
    0.21715E-07         0.28821E-10         0.00000E+00
    0.21717E-07         0.26625E-10         0.00000E+00
    0.21718E-07         0.24186E-10         0.00000E+00
    0.21719E-07         0.21499E-10         0.00000E+00
    0.21720E-07         0.18562E-10         0.00000E+00
    0.21720E-07         0.15370E-10         0.00000E+00
    0.21721E-07         0.11920E-10         0.00000E+00
    0.21721E-07         0.82090E-11         0.00000E+00
    0.21722E-07         0.42341E-11         0.00000E+00
    0.21722E-07         0.21803E-11         0.00000E+00
    0.20832E-07        -0.17511E-12         0.00000E+00
    0.20832E-07        -0.26088E-12         0.00000E+00
    0.20832E-07        -0.31679E-12         0.00000E+00
    0.20832E-07        -0.15122E-12         0.00000E+00
    0.20832E-07         0.21643E-12         0.00000E+00
    0.20833E-07         0.76733E-12         0.00000E+00
    0.20833E-07         0.14832E-11         0.00000E+00
    0.20834E-07         0.23463E-11         0.00000E+00
    0.20835E-07         0.33393E-11         0.00000E+00
    0.20836E-07         0.44456E-11         0.00000E+00
    0.20837E-07         0.56489E-11         0.00000E+00
    0.20838E-07         0.69335E-11         0.00000E+00
    0.20839E-07         0.82841E-11         0.00000E+00
    0.20840E-07         0.96860E-11         0.00000E+00
    0.20841E-07         0.11125E-10         0.00000E+00
    0.20842E-07         0.12587E-10         0.00000E+00
    0.20844E-07         0.14059E-10         0.00000E+00
    0.20845E-07         0.15528E-10         0.00000E+00
    0.20846E-07         0.16981E-10         0.00000E+00
    0.20848E-07         0.18407E-10         0.00000E+00
    0.20849E-07         0.19793E-10         0.00000E+00
    0.20851E-07         0.21129E-10         0.00000E+00
    0.20853E-07         0.22404E-10         0.00000E+00
    0.20854E-07         0.23607E-10         0.00000E+00
    0.20856E-07         0.24727E-10         0.00000E+00
    0.20857E-07         0.25757E-10         0.00000E+00
    0.20859E-07         0.26685E-10         0.00000E+00
    0.20861E-07         0.27503E-10         0.00000E+00
    0.20862E-07         0.28203E-10         0.00000E+00
    0.20864E-07         0.28776E-10         0.00000E+00
    0.20866E-07         0.29215E-10         0.00000E+00
    0.20867E-07         0.29511E-10         0.00000E+00
    0.20869E-07         0.29657E-10         0.00000E+00
    0.20870E-07         0.29646E-10         0.00000E+00
    0.20872E-07         0.29472E-10         0.00000E+00
    0.20873E-07         0.29128E-10         0.00000E+00
    0.20875E-07         0.28608E-10         0.00000E+00
    0.20876E-07         0.27906E-10         0.00000E+00
    0.20877E-07         0.27016E-10         0.00000E+00
    0.20878E-07         0.25933E-10         0.00000E+00
    0.20880E-07         0.24653E-10         0.00000E+00
    0.20881E-07         0.23169E-10         0.00000E+00
    0.20882E-07         0.21478E-10         0.00000E+00
    0.20882E-07         0.19574E-10         0.00000E+00
    0.20883E-07         0.17455E-10         0.00000E+00
    0.20884E-07         0.15116E-10         0.00000E+00
    0.20884E-07         0.12552E-10         0.00000E+00
    0.20885E-07         0.97617E-11         0.00000E+00
    0.20885E-07         0.67403E-11         0.00000E+00
    0.20885E-07         0.34852E-11         0.00000E+00
    0.20885E-07         0.17988E-11         0.00000E+00
    0.20094E-07        -0.38994E-12         0.00000E+00
    0.20094E-07        -0.68944E-12         0.00000E+00
    0.20094E-07        -0.11706E-11         0.00000E+00
    0.20094E-07        -0.14253E-11         0.00000E+00
    0.20094E-07        -0.14713E-11         0.00000E+00
    0.20094E-07        -0.13262E-11         0.00000E+00
    0.20095E-07        -0.10069E-11         0.00000E+00
    0.20095E-07        -0.52995E-12         0.00000E+00
    0.20096E-07         0.88617E-13         0.00000E+00
    0.20096E-07         0.83318E-12         0.00000E+00
    0.20097E-07         0.16886E-11         0.00000E+00
    0.20098E-07         0.26401E-11         0.00000E+00
    0.20098E-07         0.36734E-11         0.00000E+00
    0.20099E-07         0.47746E-11         0.00000E+00
    0.20100E-07         0.59304E-11         0.00000E+00
    0.20101E-07         0.71275E-11         0.00000E+00
    0.20102E-07         0.83535E-11         0.00000E+00
    0.20103E-07         0.95961E-11         0.00000E+00
    0.20104E-07         0.10843E-10         0.00000E+00
    0.20105E-07         0.12084E-10         0.00000E+00
    0.20106E-07         0.13307E-10         0.00000E+00
    0.20107E-07         0.14501E-10         0.00000E+00
    0.20108E-07         0.15656E-10         0.00000E+00
    0.20109E-07         0.16762E-10         0.00000E+00
    0.20110E-07         0.17810E-10         0.00000E+00
    0.20111E-07         0.18789E-10         0.00000E+00
    0.20113E-07         0.19692E-10         0.00000E+00
    0.20114E-07         0.20509E-10         0.00000E+00
    0.20115E-07         0.21232E-10         0.00000E+00
    0.20116E-07         0.21853E-10         0.00000E+00
    0.20117E-07         0.22365E-10         0.00000E+00
    0.20118E-07         0.22759E-10         0.00000E+00
    0.20120E-07         0.23028E-10         0.00000E+00
    0.20121E-07         0.23167E-10         0.00000E+00
    0.20122E-07         0.23167E-10         0.00000E+00
    0.20123E-07         0.23024E-10         0.00000E+00
    0.20124E-07         0.22730E-10         0.00000E+00
    0.20125E-07         0.22280E-10         0.00000E+00
    0.20126E-07         0.21668E-10         0.00000E+00
    0.20127E-07         0.20889E-10         0.00000E+00
    0.20128E-07         0.19938E-10         0.00000E+00
    0.20128E-07         0.18810E-10         0.00000E+00
    0.20129E-07         0.17500E-10         0.00000E+00
    0.20130E-07         0.16004E-10         0.00000E+00
    0.20130E-07         0.14318E-10         0.00000E+00
    0.20131E-07         0.12438E-10         0.00000E+00
    0.20131E-07         0.10359E-10         0.00000E+00
    0.20132E-07         0.80788E-11         0.00000E+00
    0.20132E-07         0.55933E-11         0.00000E+00
    0.20132E-07         0.28994E-11         0.00000E+00
    0.20132E-07         0.15000E-11         0.00000E+00
    0.19435E-07        -0.50584E-12         0.00000E+00
    0.19435E-07        -0.92358E-12         0.00000E+00
    0.19435E-07        -0.16439E-11         0.00000E+00
    0.19435E-07        -0.21421E-11         0.00000E+00
    0.19435E-07        -0.24347E-11         0.00000E+00
    0.19435E-07        -0.25376E-11         0.00000E+00
    0.19435E-07        -0.24664E-11         0.00000E+00
    0.19436E-07        -0.22364E-11         0.00000E+00
    0.19436E-07        -0.18622E-11         0.00000E+00
    0.19436E-07        -0.13584E-11         0.00000E+00
    0.19437E-07        -0.73891E-12         0.00000E+00
    0.19437E-07        -0.17349E-13         0.00000E+00
    0.19437E-07         0.79300E-12         0.00000E+00
    0.19438E-07         0.16793E-11         0.00000E+00
    0.19438E-07         0.26289E-11         0.00000E+00
    0.19439E-07         0.36299E-11         0.00000E+00
    0.19439E-07         0.46703E-11         0.00000E+00
    0.19440E-07         0.57387E-11         0.00000E+00
    0.19440E-07         0.68241E-11         0.00000E+00
    0.19441E-07         0.79156E-11         0.00000E+00
    0.19442E-07         0.90029E-11         0.00000E+00
    0.19442E-07         0.10076E-10         0.00000E+00
    0.19443E-07         0.11125E-10         0.00000E+00
    0.19444E-07         0.12140E-10         0.00000E+00
    0.19445E-07         0.13113E-10         0.00000E+00
    0.19445E-07         0.14034E-10         0.00000E+00
    0.19446E-07         0.14895E-10         0.00000E+00
    0.19447E-07         0.15687E-10         0.00000E+00
    0.19448E-07         0.16404E-10         0.00000E+00
    0.19448E-07         0.17036E-10         0.00000E+00
    0.19449E-07         0.17577E-10         0.00000E+00
    0.19450E-07         0.18020E-10         0.00000E+00
    0.19451E-07         0.18357E-10         0.00000E+00
    0.19451E-07         0.18582E-10         0.00000E+00
    0.19452E-07         0.18689E-10         0.00000E+00
    0.19453E-07         0.18672E-10         0.00000E+00
    0.19454E-07         0.18524E-10         0.00000E+00
    0.19454E-07         0.18240E-10         0.00000E+00
    0.19455E-07         0.17814E-10         0.00000E+00
    0.19455E-07         0.17242E-10         0.00000E+00
    0.19456E-07         0.16519E-10         0.00000E+00
    0.19457E-07         0.15639E-10         0.00000E+00
    0.19457E-07         0.14598E-10         0.00000E+00
    0.19458E-07         0.13391E-10         0.00000E+00
    0.19458E-07         0.12016E-10         0.00000E+00
    0.19458E-07         0.10467E-10         0.00000E+00
    0.19459E-07         0.87406E-11         0.00000E+00
    0.19459E-07         0.68336E-11         0.00000E+00
    0.19459E-07         0.47424E-11         0.00000E+00
    0.19459E-07         0.24638E-11         0.00000E+00
    0.19459E-07         0.12772E-11         0.00000E+00
    0.18853E-07        -0.53368E-12         0.00000E+00
    0.18853E-07        -0.98462E-12         0.00000E+00
    0.18853E-07        -0.17781E-11         0.00000E+00
    0.18853E-07        -0.23621E-11         0.00000E+00
    0.18853E-07        -0.27517E-11         0.00000E+00
    0.18853E-07        -0.29613E-11         0.00000E+00
    0.18853E-07        -0.30051E-11         0.00000E+00
    0.18853E-07        -0.28969E-11         0.00000E+00
    0.18853E-07        -0.26501E-11         0.00000E+00
    0.18853E-07        -0.22779E-11         0.00000E+00
    0.18853E-07        -0.17930E-11         0.00000E+00
    0.18853E-07        -0.12081E-11         0.00000E+00
    0.18853E-07        -0.53507E-12         0.00000E+00
    0.18854E-07         0.21413E-12         0.00000E+00
    0.18854E-07         0.10281E-11         0.00000E+00
    0.18854E-07         0.18955E-11         0.00000E+00
    0.18854E-07         0.28057E-11         0.00000E+00
    0.18854E-07         0.37480E-11         0.00000E+00
    0.18855E-07         0.47123E-11         0.00000E+00
    0.18855E-07         0.56885E-11         0.00000E+00
    0.18855E-07         0.66670E-11         0.00000E+00
    0.18855E-07         0.76384E-11         0.00000E+00
    0.18856E-07         0.85938E-11         0.00000E+00
    0.18856E-07         0.95242E-11         0.00000E+00
    0.18856E-07         0.10421E-10         0.00000E+00
    0.18857E-07         0.11277E-10         0.00000E+00
    0.18857E-07         0.12082E-10         0.00000E+00
    0.18858E-07         0.12831E-10         0.00000E+00
    0.18858E-07         0.13514E-10         0.00000E+00
    0.18858E-07         0.14126E-10         0.00000E+00
    0.18859E-07         0.14658E-10         0.00000E+00
    0.18859E-07         0.15105E-10         0.00000E+00
    0.18860E-07         0.15460E-10         0.00000E+00
    0.18860E-07         0.15716E-10         0.00000E+00
    0.18860E-07         0.15868E-10         0.00000E+00
    0.18861E-07         0.15910E-10         0.00000E+00
    0.18861E-07         0.15836E-10         0.00000E+00
    0.18862E-07         0.15641E-10         0.00000E+00
    0.18862E-07         0.15319E-10         0.00000E+00
    0.18862E-07         0.14866E-10         0.00000E+00
    0.18863E-07         0.14277E-10         0.00000E+00
    0.18863E-07         0.13548E-10         0.00000E+00
    0.18863E-07         0.12674E-10         0.00000E+00
    0.18864E-07         0.11650E-10         0.00000E+00
    0.18864E-07         0.10473E-10         0.00000E+00
    0.18864E-07         0.91397E-11         0.00000E+00
    0.18864E-07         0.76455E-11         0.00000E+00
    0.18864E-07         0.59871E-11         0.00000E+00
    0.18865E-07         0.41613E-11         0.00000E+00
    0.18865E-07         0.21650E-11         0.00000E+00
    0.18865E-07         0.11238E-11         0.00000E+00
    0.18346E-07        -0.48382E-12         0.00000E+00
    0.18346E-07        -0.89281E-12         0.00000E+00
    0.18346E-07        -0.16126E-11         0.00000E+00
    0.18346E-07        -0.21429E-11         0.00000E+00
    0.18346E-07        -0.24970E-11         0.00000E+00
    0.18346E-07        -0.26878E-11         0.00000E+00
    0.18345E-07        -0.27281E-11         0.00000E+00
    0.18345E-07        -0.26303E-11         0.00000E+00
    0.18345E-07        -0.24064E-11         0.00000E+00
    0.18345E-07        -0.20684E-11         0.00000E+00
    0.18345E-07        -0.16277E-11         0.00000E+00
    0.18345E-07        -0.10956E-11         0.00000E+00
    0.18345E-07        -0.48311E-12         0.00000E+00
    0.18344E-07         0.19914E-12         0.00000E+00
    0.18344E-07         0.94073E-12         0.00000E+00
    0.18344E-07         0.17315E-11         0.00000E+00
    0.18344E-07         0.25617E-11         0.00000E+00
    0.18344E-07         0.34216E-11         0.00000E+00
    0.18344E-07         0.43019E-11         0.00000E+00
    0.18344E-07         0.51937E-11         0.00000E+00
    0.18344E-07         0.60880E-11         0.00000E+00
    0.18344E-07         0.69763E-11         0.00000E+00
    0.18344E-07         0.78504E-11         0.00000E+00
    0.18344E-07         0.87022E-11         0.00000E+00
    0.18344E-07         0.95239E-11         0.00000E+00
    0.18344E-07         0.10308E-10         0.00000E+00
    0.18344E-07         0.11047E-10         0.00000E+00
    0.18344E-07         0.11734E-10         0.00000E+00
    0.18344E-07         0.12362E-10         0.00000E+00
    0.18344E-07         0.12925E-10         0.00000E+00
    0.18344E-07         0.13415E-10         0.00000E+00
    0.18344E-07         0.13827E-10         0.00000E+00
    0.18344E-07         0.14155E-10         0.00000E+00
    0.18345E-07         0.14393E-10         0.00000E+00
    0.18345E-07         0.14536E-10         0.00000E+00
    0.18345E-07         0.14578E-10         0.00000E+00
    0.18345E-07         0.14513E-10         0.00000E+00
    0.18345E-07         0.14337E-10         0.00000E+00
    0.18345E-07         0.14046E-10         0.00000E+00
    0.18345E-07         0.13634E-10         0.00000E+00
    0.18346E-07         0.13097E-10         0.00000E+00
    0.18346E-07         0.12430E-10         0.00000E+00
    0.18346E-07         0.11631E-10         0.00000E+00
    0.18346E-07         0.10694E-10         0.00000E+00
    0.18346E-07         0.96156E-11         0.00000E+00
    0.18346E-07         0.83930E-11         0.00000E+00
    0.18346E-07         0.70223E-11         0.00000E+00
    0.18346E-07         0.55003E-11         0.00000E+00
    0.18346E-07         0.38238E-11         0.00000E+00
    0.18346E-07         0.19898E-11         0.00000E+00
    0.18346E-07         0.10331E-11         0.00000E+00
    0.17912E-07        -0.36601E-12         0.00000E+00
    0.17912E-07        -0.66726E-12         0.00000E+00
    0.17912E-07        -0.11850E-11         0.00000E+00
    0.17911E-07        -0.15390E-11         0.00000E+00
    0.17911E-07        -0.17411E-11         0.00000E+00
    0.17911E-07        -0.18028E-11         0.00000E+00
    0.17911E-07        -0.17353E-11         0.00000E+00
    0.17911E-07        -0.15496E-11         0.00000E+00
    0.17910E-07        -0.12565E-11         0.00000E+00
    0.17910E-07        -0.86648E-12         0.00000E+00
    0.17910E-07        -0.38977E-12         0.00000E+00
    0.17909E-07         0.16361E-12         0.00000E+00
    0.17909E-07         0.78389E-12         0.00000E+00
    0.17909E-07         0.14616E-11         0.00000E+00
    0.17908E-07         0.21873E-11         0.00000E+00
    0.17908E-07         0.29521E-11         0.00000E+00
    0.17907E-07         0.37472E-11         0.00000E+00
    0.17907E-07         0.45639E-11         0.00000E+00
    0.17907E-07         0.53939E-11         0.00000E+00
    0.17906E-07         0.62292E-11         0.00000E+00
    0.17906E-07         0.70618E-11         0.00000E+00
    0.17906E-07         0.78840E-11         0.00000E+00
    0.17905E-07         0.86884E-11         0.00000E+00
    0.17905E-07         0.94677E-11         0.00000E+00
    0.17905E-07         0.10215E-10         0.00000E+00
    0.17905E-07         0.10923E-10         0.00000E+00
    0.17904E-07         0.11586E-10         0.00000E+00
    0.17904E-07         0.12197E-10         0.00000E+00
    0.17904E-07         0.12750E-10         0.00000E+00
    0.17904E-07         0.13239E-10         0.00000E+00
    0.17903E-07         0.13658E-10         0.00000E+00
    0.17903E-07         0.14002E-10         0.00000E+00
    0.17903E-07         0.14265E-10         0.00000E+00
    0.17903E-07         0.14441E-10         0.00000E+00
    0.17903E-07         0.14526E-10         0.00000E+00
    0.17903E-07         0.14515E-10         0.00000E+00
    0.17903E-07         0.14403E-10         0.00000E+00
    0.17903E-07         0.14186E-10         0.00000E+00
    0.17903E-07         0.13859E-10         0.00000E+00
    0.17903E-07         0.13418E-10         0.00000E+00
    0.17902E-07         0.12860E-10         0.00000E+00
    0.17902E-07         0.12179E-10         0.00000E+00
    0.17902E-07         0.11372E-10         0.00000E+00
    0.17902E-07         0.10436E-10         0.00000E+00
    0.17902E-07         0.93679E-11         0.00000E+00
    0.17902E-07         0.81635E-11         0.00000E+00
    0.17902E-07         0.68199E-11         0.00000E+00
    0.17902E-07         0.53341E-11         0.00000E+00
    0.17902E-07         0.37033E-11         0.00000E+00
    0.17902E-07         0.19247E-11         0.00000E+00
    0.17902E-07         0.99817E-12         0.00000E+00
    0.17549E-07        -0.18934E-12         0.00000E+00
    0.17549E-07        -0.32587E-12         0.00000E+00
    0.17549E-07        -0.53000E-12         0.00000E+00
    0.17549E-07        -0.60145E-12         0.00000E+00
    0.17548E-07        -0.55044E-12         0.00000E+00
    0.17548E-07        -0.38699E-12         0.00000E+00
    0.17548E-07        -0.12090E-12         0.00000E+00
    0.17547E-07         0.23825E-12         0.00000E+00
    0.17547E-07         0.68107E-12         0.00000E+00
    0.17546E-07         0.11984E-11         0.00000E+00
    0.17546E-07         0.17813E-11         0.00000E+00
    0.17545E-07         0.24210E-11         0.00000E+00
    0.17545E-07         0.31089E-11         0.00000E+00
    0.17544E-07         0.38368E-11         0.00000E+00
    0.17544E-07         0.45965E-11         0.00000E+00
    0.17543E-07         0.53800E-11         0.00000E+00
    0.17542E-07         0.61797E-11         0.00000E+00
    0.17542E-07         0.69880E-11         0.00000E+00
    0.17541E-07         0.77975E-11         0.00000E+00
    0.17541E-07         0.86012E-11         0.00000E+00
    0.17540E-07         0.93921E-11         0.00000E+00
    0.17540E-07         0.10164E-10         0.00000E+00
    0.17539E-07         0.10909E-10         0.00000E+00
    0.17538E-07         0.11622E-10         0.00000E+00
    0.17538E-07         0.12296E-10         0.00000E+00
    0.17537E-07         0.12925E-10         0.00000E+00
    0.17537E-07         0.13504E-10         0.00000E+00
    0.17536E-07         0.14027E-10         0.00000E+00
    0.17536E-07         0.14488E-10         0.00000E+00
    0.17535E-07         0.14883E-10         0.00000E+00
    0.17535E-07         0.15205E-10         0.00000E+00
    0.17535E-07         0.15450E-10         0.00000E+00
    0.17534E-07         0.15614E-10         0.00000E+00
    0.17534E-07         0.15691E-10         0.00000E+00
    0.17533E-07         0.15677E-10         0.00000E+00
    0.17533E-07         0.15568E-10         0.00000E+00
    0.17533E-07         0.15359E-10         0.00000E+00
    0.17533E-07         0.15047E-10         0.00000E+00
    0.17532E-07         0.14628E-10         0.00000E+00
    0.17532E-07         0.14097E-10         0.00000E+00
    0.17532E-07         0.13452E-10         0.00000E+00
    0.17532E-07         0.12688E-10         0.00000E+00
    0.17532E-07         0.11804E-10         0.00000E+00
    0.17531E-07         0.10794E-10         0.00000E+00
    0.17531E-07         0.96568E-11         0.00000E+00
    0.17531E-07         0.83889E-11         0.00000E+00
    0.17531E-07         0.69876E-11         0.00000E+00
    0.17531E-07         0.54502E-11         0.00000E+00
    0.17531E-07         0.37740E-11         0.00000E+00
    0.17531E-07         0.19567E-11         0.00000E+00
    0.17531E-07         0.10125E-11         0.00000E+00
    0.17256E-07         0.37657E-13         0.00000E+00
    0.17256E-07         0.11466E-12         0.00000E+00
    0.17256E-07         0.31955E-12         0.00000E+00
    0.17256E-07         0.62180E-12         0.00000E+00
    0.17255E-07         0.10127E-11         0.00000E+00
    0.17255E-07         0.14837E-11         0.00000E+00
    0.17254E-07         0.20265E-11         0.00000E+00
    0.17254E-07         0.26328E-11         0.00000E+00
    0.17253E-07         0.32946E-11         0.00000E+00
    0.17253E-07         0.40042E-11         0.00000E+00
    0.17252E-07         0.47537E-11         0.00000E+00
    0.17251E-07         0.55359E-11         0.00000E+00
    0.17251E-07         0.63433E-11         0.00000E+00
    0.17250E-07         0.71688E-11         0.00000E+00
    0.17249E-07         0.80055E-11         0.00000E+00
    0.17248E-07         0.88465E-11         0.00000E+00
    0.17248E-07         0.96853E-11         0.00000E+00
    0.17247E-07         0.10515E-10         0.00000E+00
    0.17246E-07         0.11330E-10         0.00000E+00
    0.17245E-07         0.12124E-10         0.00000E+00
    0.17244E-07         0.12891E-10         0.00000E+00
    0.17244E-07         0.13625E-10         0.00000E+00
    0.17243E-07         0.14321E-10         0.00000E+00
    0.17242E-07         0.14973E-10         0.00000E+00
    0.17241E-07         0.15575E-10         0.00000E+00
    0.17241E-07         0.16123E-10         0.00000E+00
    0.17240E-07         0.16612E-10         0.00000E+00
    0.17239E-07         0.17036E-10         0.00000E+00
    0.17238E-07         0.17391E-10         0.00000E+00
    0.17238E-07         0.17673E-10         0.00000E+00
    0.17237E-07         0.17877E-10         0.00000E+00
    0.17237E-07         0.17999E-10         0.00000E+00
    0.17236E-07         0.18035E-10         0.00000E+00
    0.17235E-07         0.17980E-10         0.00000E+00
    0.17235E-07         0.17831E-10         0.00000E+00
    0.17234E-07         0.17584E-10         0.00000E+00
    0.17234E-07         0.17236E-10         0.00000E+00
    0.17233E-07         0.16783E-10         0.00000E+00
    0.17233E-07         0.16222E-10         0.00000E+00
    0.17233E-07         0.15549E-10         0.00000E+00
    0.17232E-07         0.14762E-10         0.00000E+00
    0.17232E-07         0.13857E-10         0.00000E+00
    0.17232E-07         0.12832E-10         0.00000E+00
    0.17231E-07         0.11684E-10         0.00000E+00
    0.17231E-07         0.10410E-10         0.00000E+00
    0.17231E-07         0.90085E-11         0.00000E+00
    0.17231E-07         0.74760E-11         0.00000E+00
    0.17231E-07         0.58107E-11         0.00000E+00
    0.17231E-07         0.40103E-11         0.00000E+00
    0.17231E-07         0.20727E-11         0.00000E+00
    0.17231E-07         0.10694E-11         0.00000E+00
    0.17032E-07         0.30707E-12         0.00000E+00
    0.17032E-07         0.63872E-12         0.00000E+00
    0.17031E-07         0.13331E-11         0.00000E+00
    0.17031E-07         0.20859E-11         0.00000E+00
    0.17031E-07         0.28900E-11         0.00000E+00
    0.17030E-07         0.37382E-11         0.00000E+00
    0.17030E-07         0.46236E-11         0.00000E+00
    0.17029E-07         0.55394E-11         0.00000E+00
    0.17029E-07         0.64789E-11         0.00000E+00
    0.17028E-07         0.74356E-11         0.00000E+00
    0.17027E-07         0.84032E-11         0.00000E+00
    0.17026E-07         0.93754E-11         0.00000E+00
    0.17025E-07         0.10346E-10         0.00000E+00
    0.17025E-07         0.11310E-10         0.00000E+00
    0.17024E-07         0.12260E-10         0.00000E+00
    0.17023E-07         0.13191E-10         0.00000E+00
    0.17022E-07         0.14099E-10         0.00000E+00
    0.17021E-07         0.14976E-10         0.00000E+00
    0.17020E-07         0.15819E-10         0.00000E+00
    0.17019E-07         0.16622E-10         0.00000E+00
    0.17018E-07         0.17380E-10         0.00000E+00
    0.17017E-07         0.18088E-10         0.00000E+00
    0.17016E-07         0.18743E-10         0.00000E+00
    0.17015E-07         0.19338E-10         0.00000E+00
    0.17014E-07         0.19870E-10         0.00000E+00
    0.17013E-07         0.20334E-10         0.00000E+00
    0.17012E-07         0.20727E-10         0.00000E+00
    0.17011E-07         0.21045E-10         0.00000E+00
    0.17010E-07         0.21282E-10         0.00000E+00
    0.17010E-07         0.21437E-10         0.00000E+00
    0.17009E-07         0.21504E-10         0.00000E+00
    0.17008E-07         0.21481E-10         0.00000E+00
    0.17007E-07         0.21365E-10         0.00000E+00
    0.17006E-07         0.21151E-10         0.00000E+00
    0.17006E-07         0.20836E-10         0.00000E+00
    0.17005E-07         0.20419E-10         0.00000E+00
    0.17005E-07         0.19895E-10         0.00000E+00
    0.17004E-07         0.19262E-10         0.00000E+00
    0.17003E-07         0.18517E-10         0.00000E+00
    0.17003E-07         0.17658E-10         0.00000E+00
    0.17002E-07         0.16681E-10         0.00000E+00
    0.17002E-07         0.15585E-10         0.00000E+00
    0.17002E-07         0.14368E-10         0.00000E+00
    0.17001E-07         0.13026E-10         0.00000E+00
    0.17001E-07         0.11559E-10         0.00000E+00
    0.17001E-07         0.99627E-11         0.00000E+00
    0.17001E-07         0.82367E-11         0.00000E+00
    0.17000E-07         0.63788E-11         0.00000E+00
    0.17000E-07         0.43872E-11         0.00000E+00
    0.17000E-07         0.22602E-11         0.00000E+00
    0.17000E-07         0.11626E-11         0.00000E+00
    0.16875E-07         0.61148E-12         0.00000E+00
    0.16875E-07         0.12317E-11         0.00000E+00
    0.16875E-07         0.24820E-11         0.00000E+00
    0.16875E-07         0.37489E-11         0.00000E+00
    0.16874E-07         0.50267E-11         0.00000E+00
    0.16874E-07         0.63096E-11         0.00000E+00
    0.16873E-07         0.75921E-11         0.00000E+00
    0.16872E-07         0.88689E-11         0.00000E+00
    0.16872E-07         0.10134E-10         0.00000E+00
    0.16871E-07         0.11384E-10         0.00000E+00
    0.16870E-07         0.12612E-10         0.00000E+00
    0.16869E-07         0.13813E-10         0.00000E+00
    0.16868E-07         0.14984E-10         0.00000E+00
    0.16867E-07         0.16119E-10         0.00000E+00
    0.16866E-07         0.17213E-10         0.00000E+00
    0.16865E-07         0.18262E-10         0.00000E+00
    0.16864E-07         0.19262E-10         0.00000E+00
    0.16863E-07         0.20209E-10         0.00000E+00
    0.16862E-07         0.21098E-10         0.00000E+00
    0.16861E-07         0.21925E-10         0.00000E+00
    0.16860E-07         0.22687E-10         0.00000E+00
    0.16858E-07         0.23379E-10         0.00000E+00
    0.16857E-07         0.23998E-10         0.00000E+00
    0.16856E-07         0.24541E-10         0.00000E+00
    0.16855E-07         0.25004E-10         0.00000E+00
    0.16854E-07         0.25383E-10         0.00000E+00
    0.16853E-07         0.25676E-10         0.00000E+00
    0.16852E-07         0.25879E-10         0.00000E+00
    0.16851E-07         0.25990E-10         0.00000E+00
    0.16850E-07         0.26004E-10         0.00000E+00
    0.16849E-07         0.25920E-10         0.00000E+00
    0.16848E-07         0.25735E-10         0.00000E+00
    0.16847E-07         0.25446E-10         0.00000E+00
    0.16846E-07         0.25050E-10         0.00000E+00
    0.16845E-07         0.24545E-10         0.00000E+00
    0.16845E-07         0.23929E-10         0.00000E+00
    0.16844E-07         0.23200E-10         0.00000E+00
    0.16843E-07         0.22355E-10         0.00000E+00
    0.16843E-07         0.21392E-10         0.00000E+00
    0.16842E-07         0.20309E-10         0.00000E+00
    0.16841E-07         0.19104E-10         0.00000E+00
    0.16841E-07         0.17776E-10         0.00000E+00
    0.16840E-07         0.16322E-10         0.00000E+00
    0.16840E-07         0.14742E-10         0.00000E+00
    0.16840E-07         0.13033E-10         0.00000E+00
    0.16839E-07         0.11193E-10         0.00000E+00
    0.16839E-07         0.92224E-11         0.00000E+00
    0.16839E-07         0.71184E-11         0.00000E+00
    0.16839E-07         0.48802E-11         0.00000E+00
    0.16839E-07         0.25065E-11         0.00000E+00
    0.16839E-07         0.12857E-11         0.00000E+00
    0.16786E-07         0.94392E-12         0.00000E+00
    0.16786E-07         0.18800E-11         0.00000E+00
    0.16785E-07         0.37393E-11         0.00000E+00
    0.16785E-07         0.55711E-11         0.00000E+00
    0.16785E-07         0.73710E-11         0.00000E+00
    0.16784E-07         0.91346E-11         0.00000E+00
    0.16783E-07         0.10858E-10         0.00000E+00
    0.16783E-07         0.12537E-10         0.00000E+00
    0.16782E-07         0.14167E-10         0.00000E+00
    0.16781E-07         0.15745E-10         0.00000E+00
    0.16780E-07         0.17268E-10         0.00000E+00
    0.16779E-07         0.18730E-10         0.00000E+00
    0.16778E-07         0.20129E-10         0.00000E+00
    0.16777E-07         0.21462E-10         0.00000E+00
    0.16776E-07         0.22724E-10         0.00000E+00
    0.16775E-07         0.23913E-10         0.00000E+00
    0.16773E-07         0.25025E-10         0.00000E+00
    0.16772E-07         0.26057E-10         0.00000E+00
    0.16771E-07         0.27007E-10         0.00000E+00
    0.16770E-07         0.27871E-10         0.00000E+00
    0.16769E-07         0.28646E-10         0.00000E+00
    0.16767E-07         0.29330E-10         0.00000E+00
    0.16766E-07         0.29920E-10         0.00000E+00
    0.16765E-07         0.30413E-10         0.00000E+00
    0.16764E-07         0.30808E-10         0.00000E+00
    0.16762E-07         0.31101E-10         0.00000E+00
    0.16761E-07         0.31290E-10         0.00000E+00
    0.16760E-07         0.31373E-10         0.00000E+00
    0.16759E-07         0.31348E-10         0.00000E+00
    0.16758E-07         0.31213E-10         0.00000E+00
    0.16757E-07         0.30965E-10         0.00000E+00
    0.16756E-07         0.30603E-10         0.00000E+00
    0.16755E-07         0.30125E-10         0.00000E+00
    0.16754E-07         0.29530E-10         0.00000E+00
    0.16753E-07         0.28814E-10         0.00000E+00
    0.16752E-07         0.27978E-10         0.00000E+00
    0.16751E-07         0.27019E-10         0.00000E+00
    0.16750E-07         0.25936E-10         0.00000E+00
    0.16750E-07         0.24727E-10         0.00000E+00
    0.16749E-07         0.23391E-10         0.00000E+00
    0.16748E-07         0.21928E-10         0.00000E+00
    0.16748E-07         0.20334E-10         0.00000E+00
    0.16747E-07         0.18610E-10         0.00000E+00
    0.16747E-07         0.16754E-10         0.00000E+00
    0.16746E-07         0.14766E-10         0.00000E+00
    0.16746E-07         0.12644E-10         0.00000E+00
    0.16746E-07         0.10387E-10         0.00000E+00
    0.16746E-07         0.79943E-11         0.00000E+00
    0.16745E-07         0.54655E-11         0.00000E+00
    0.16745E-07         0.27997E-11         0.00000E+00
    0.16745E-07         0.14325E-11         0.00000E+00
    0.16763E-07         0.12978E-11         0.00000E+00
    0.16763E-07         0.25703E-11         0.00000E+00
    0.16762E-07         0.50794E-11         0.00000E+00
    0.16762E-07         0.75148E-11         0.00000E+00
    0.16762E-07         0.98735E-11         0.00000E+00
    0.16761E-07         0.12153E-10         0.00000E+00
    0.16760E-07         0.14350E-10         0.00000E+00
    0.16760E-07         0.16462E-10         0.00000E+00
    0.16759E-07         0.18487E-10         0.00000E+00
    0.16758E-07         0.20421E-10         0.00000E+00
    0.16757E-07         0.22263E-10         0.00000E+00
    0.16756E-07         0.24010E-10         0.00000E+00
    0.16755E-07         0.25660E-10         0.00000E+00
    0.16754E-07         0.27210E-10         0.00000E+00
    0.16752E-07         0.28658E-10         0.00000E+00
    0.16751E-07         0.30003E-10         0.00000E+00
    0.16750E-07         0.31242E-10         0.00000E+00
    0.16749E-07         0.32372E-10         0.00000E+00
    0.16747E-07         0.33393E-10         0.00000E+00
    0.16746E-07         0.34303E-10         0.00000E+00
    0.16745E-07         0.35099E-10         0.00000E+00
    0.16743E-07         0.35780E-10         0.00000E+00
    0.16742E-07         0.36344E-10         0.00000E+00
    0.16741E-07         0.36790E-10         0.00000E+00
    0.16739E-07         0.37116E-10         0.00000E+00
    0.16738E-07         0.37321E-10         0.00000E+00
    0.16737E-07         0.37404E-10         0.00000E+00
    0.16736E-07         0.37362E-10         0.00000E+00
    0.16734E-07         0.37196E-10         0.00000E+00
    0.16733E-07         0.36903E-10         0.00000E+00
    0.16732E-07         0.36482E-10         0.00000E+00
    0.16731E-07         0.35933E-10         0.00000E+00
    0.16730E-07         0.35254E-10         0.00000E+00
    0.16729E-07         0.34445E-10         0.00000E+00
    0.16728E-07         0.33504E-10         0.00000E+00
    0.16727E-07         0.32430E-10         0.00000E+00
    0.16726E-07         0.31223E-10         0.00000E+00
    0.16725E-07         0.29883E-10         0.00000E+00
    0.16724E-07         0.28407E-10         0.00000E+00
    0.16724E-07         0.26797E-10         0.00000E+00
    0.16723E-07         0.25050E-10         0.00000E+00
    0.16722E-07         0.23167E-10         0.00000E+00
    0.16722E-07         0.21146E-10         0.00000E+00
    0.16721E-07         0.18988E-10         0.00000E+00
    0.16721E-07         0.16692E-10         0.00000E+00
    0.16721E-07         0.14257E-10         0.00000E+00
    0.16720E-07         0.11684E-10         0.00000E+00
    0.16720E-07         0.89714E-11         0.00000E+00
    0.16720E-07         0.61194E-11         0.00000E+00
    0.16720E-07         0.31277E-11         0.00000E+00
    0.16720E-07         0.15969E-11         0.00000E+00
    0.16806E-07         0.16667E-11         0.00000E+00
    0.16806E-07         0.32903E-11         0.00000E+00
    0.16806E-07         0.64775E-11         0.00000E+00
    0.16806E-07         0.95434E-11         0.00000E+00
    0.16805E-07         0.12487E-10         0.00000E+00
    0.16805E-07         0.15306E-10         0.00000E+00
    0.16804E-07         0.18000E-10         0.00000E+00
    0.16803E-07         0.20567E-10         0.00000E+00
    0.16802E-07         0.23006E-10         0.00000E+00
    0.16801E-07         0.25315E-10         0.00000E+00
    0.16800E-07         0.27494E-10         0.00000E+00
    0.16799E-07         0.29542E-10         0.00000E+00
    0.16798E-07         0.31457E-10         0.00000E+00
    0.16797E-07         0.33238E-10         0.00000E+00
    0.16796E-07         0.34885E-10         0.00000E+00
    0.16794E-07         0.36396E-10         0.00000E+00
    0.16793E-07         0.37770E-10         0.00000E+00
    0.16792E-07         0.39008E-10         0.00000E+00
    0.16790E-07         0.40107E-10         0.00000E+00
    0.16789E-07         0.41068E-10         0.00000E+00
    0.16788E-07         0.41889E-10         0.00000E+00
    0.16786E-07         0.42570E-10         0.00000E+00
    0.16785E-07         0.43111E-10         0.00000E+00
    0.16784E-07         0.43511E-10         0.00000E+00
    0.16782E-07         0.43769E-10         0.00000E+00
    0.16781E-07         0.43884E-10         0.00000E+00
    0.16780E-07         0.43857E-10         0.00000E+00
    0.16778E-07         0.43688E-10         0.00000E+00
    0.16777E-07         0.43375E-10         0.00000E+00
    0.16776E-07         0.42918E-10         0.00000E+00
    0.16775E-07         0.42318E-10         0.00000E+00
    0.16773E-07         0.41574E-10         0.00000E+00
    0.16772E-07         0.40685E-10         0.00000E+00
    0.16771E-07         0.39652E-10         0.00000E+00
    0.16770E-07         0.38475E-10         0.00000E+00
    0.16769E-07         0.37152E-10         0.00000E+00
    0.16768E-07         0.35686E-10         0.00000E+00
    0.16767E-07         0.34074E-10         0.00000E+00
    0.16767E-07         0.32318E-10         0.00000E+00
    0.16766E-07         0.30417E-10         0.00000E+00
    0.16765E-07         0.28372E-10         0.00000E+00
    0.16764E-07         0.26182E-10         0.00000E+00
    0.16764E-07         0.23847E-10         0.00000E+00
    0.16763E-07         0.21369E-10         0.00000E+00
    0.16763E-07         0.18746E-10         0.00000E+00
    0.16762E-07         0.15980E-10         0.00000E+00
    0.16762E-07         0.13069E-10         0.00000E+00
    0.16762E-07         0.10015E-10         0.00000E+00
    0.16762E-07         0.68185E-11         0.00000E+00
    0.16762E-07         0.34786E-11         0.00000E+00
    0.16762E-07         0.17729E-11         0.00000E+00
    0.16917E-07         0.20444E-11         0.00000E+00
    0.16917E-07         0.40277E-11         0.00000E+00
    0.16916E-07         0.79094E-11         0.00000E+00
    0.16916E-07         0.11622E-10         0.00000E+00
    0.16916E-07         0.15164E-10         0.00000E+00
    0.16915E-07         0.18537E-10         0.00000E+00
    0.16914E-07         0.21740E-10         0.00000E+00
    0.16914E-07         0.24774E-10         0.00000E+00
    0.16913E-07         0.27638E-10         0.00000E+00
    0.16912E-07         0.30333E-10         0.00000E+00
    0.16911E-07         0.32859E-10         0.00000E+00
    0.16910E-07         0.35215E-10         0.00000E+00
    0.16908E-07         0.37403E-10         0.00000E+00
    0.16907E-07         0.39422E-10         0.00000E+00
    0.16906E-07         0.41273E-10         0.00000E+00
    0.16905E-07         0.42956E-10         0.00000E+00
    0.16903E-07         0.44471E-10         0.00000E+00
    0.16902E-07         0.45819E-10         0.00000E+00
    0.16901E-07         0.47000E-10         0.00000E+00
    0.16899E-07         0.48015E-10         0.00000E+00
    0.16898E-07         0.48863E-10         0.00000E+00
    0.16896E-07         0.49545E-10         0.00000E+00
    0.16895E-07         0.50063E-10         0.00000E+00
    0.16894E-07         0.50416E-10         0.00000E+00
    0.16892E-07         0.50604E-10         0.00000E+00
    0.16891E-07         0.50629E-10         0.00000E+00
    0.16889E-07         0.50491E-10         0.00000E+00
    0.16888E-07         0.50191E-10         0.00000E+00
    0.16887E-07         0.49728E-10         0.00000E+00
    0.16886E-07         0.49105E-10         0.00000E+00
    0.16884E-07         0.48320E-10         0.00000E+00
    0.16883E-07         0.47376E-10         0.00000E+00
    0.16882E-07         0.46273E-10         0.00000E+00
    0.16881E-07         0.45011E-10         0.00000E+00
    0.16880E-07         0.43590E-10         0.00000E+00
    0.16879E-07         0.42013E-10         0.00000E+00
    0.16878E-07         0.40279E-10         0.00000E+00
    0.16877E-07         0.38390E-10         0.00000E+00
    0.16876E-07         0.36345E-10         0.00000E+00
    0.16875E-07         0.34146E-10         0.00000E+00
    0.16875E-07         0.31793E-10         0.00000E+00
    0.16874E-07         0.29288E-10         0.00000E+00
    0.16874E-07         0.26631E-10         0.00000E+00
    0.16873E-07         0.23822E-10         0.00000E+00
    0.16873E-07         0.20863E-10         0.00000E+00
    0.16872E-07         0.17755E-10         0.00000E+00
    0.16872E-07         0.14497E-10         0.00000E+00
    0.16872E-07         0.11092E-10         0.00000E+00
    0.16871E-07         0.75394E-11         0.00000E+00
    0.16871E-07         0.38405E-11         0.00000E+00
    0.16871E-07         0.19545E-11         0.00000E+00
    0.17094E-07         0.24248E-11         0.00000E+00
    0.17094E-07         0.47701E-11         0.00000E+00
    0.17094E-07         0.93510E-11         0.00000E+00
    0.17094E-07         0.13714E-10         0.00000E+00
    0.17093E-07         0.17859E-10         0.00000E+00
    0.17093E-07         0.21789E-10         0.00000E+00
    0.17092E-07         0.25504E-10         0.00000E+00
    0.17091E-07         0.29007E-10         0.00000E+00
    0.17090E-07         0.32299E-10         0.00000E+00
    0.17089E-07         0.35381E-10         0.00000E+00
    0.17088E-07         0.38254E-10         0.00000E+00
    0.17087E-07         0.40921E-10         0.00000E+00
    0.17086E-07         0.43382E-10         0.00000E+00
    0.17085E-07         0.45640E-10         0.00000E+00
    0.17083E-07         0.47695E-10         0.00000E+00
    0.17082E-07         0.49549E-10         0.00000E+00
    0.17081E-07         0.51205E-10         0.00000E+00
    0.17080E-07         0.52663E-10         0.00000E+00
    0.17078E-07         0.53924E-10         0.00000E+00
    0.17077E-07         0.54991E-10         0.00000E+00
    0.17075E-07         0.55865E-10         0.00000E+00
    0.17074E-07         0.56548E-10         0.00000E+00
    0.17073E-07         0.57041E-10         0.00000E+00
    0.17071E-07         0.57346E-10         0.00000E+00
    0.17070E-07         0.57464E-10         0.00000E+00
    0.17069E-07         0.57396E-10         0.00000E+00
    0.17067E-07         0.57145E-10         0.00000E+00
    0.17066E-07         0.56712E-10         0.00000E+00
    0.17065E-07         0.56099E-10         0.00000E+00
    0.17063E-07         0.55306E-10         0.00000E+00
    0.17062E-07         0.54336E-10         0.00000E+00
    0.17061E-07         0.53191E-10         0.00000E+00
    0.17060E-07         0.51870E-10         0.00000E+00
    0.17059E-07         0.50377E-10         0.00000E+00
    0.17058E-07         0.48713E-10         0.00000E+00
    0.17057E-07         0.46879E-10         0.00000E+00
    0.17056E-07         0.44877E-10         0.00000E+00
    0.17055E-07         0.42708E-10         0.00000E+00
    0.17054E-07         0.40373E-10         0.00000E+00
    0.17053E-07         0.37875E-10         0.00000E+00
    0.17053E-07         0.35214E-10         0.00000E+00
    0.17052E-07         0.32393E-10         0.00000E+00
    0.17051E-07         0.29412E-10         0.00000E+00
    0.17051E-07         0.26273E-10         0.00000E+00
    0.17050E-07         0.22978E-10         0.00000E+00
    0.17050E-07         0.19527E-10         0.00000E+00
    0.17050E-07         0.15923E-10         0.00000E+00
    0.17050E-07         0.12166E-10         0.00000E+00
    0.17049E-07         0.82587E-11         0.00000E+00
    0.17049E-07         0.42014E-11         0.00000E+00
    0.17049E-07         0.21356E-11         0.00000E+00
    0.17340E-07         0.28016E-11         0.00000E+00
    0.17340E-07         0.55052E-11         0.00000E+00
    0.17339E-07         0.10778E-10         0.00000E+00
    0.17339E-07         0.15784E-10         0.00000E+00
    0.17339E-07         0.20524E-10         0.00000E+00
    0.17338E-07         0.25004E-10         0.00000E+00
    0.17337E-07         0.29224E-10         0.00000E+00
    0.17337E-07         0.33189E-10         0.00000E+00
    0.17336E-07         0.36901E-10         0.00000E+00
    0.17335E-07         0.40362E-10         0.00000E+00
    0.17334E-07         0.43577E-10         0.00000E+00
    0.17333E-07         0.46547E-10         0.00000E+00
    0.17332E-07         0.49275E-10         0.00000E+00
    0.17330E-07         0.51765E-10         0.00000E+00
    0.17329E-07         0.54018E-10         0.00000E+00
    0.17328E-07         0.56039E-10         0.00000E+00
    0.17327E-07         0.57829E-10         0.00000E+00
    0.17325E-07         0.59391E-10         0.00000E+00
    0.17324E-07         0.60729E-10         0.00000E+00
    0.17323E-07         0.61845E-10         0.00000E+00
    0.17321E-07         0.62741E-10         0.00000E+00
    0.17320E-07         0.63420E-10         0.00000E+00
    0.17319E-07         0.63885E-10         0.00000E+00
    0.17317E-07         0.64139E-10         0.00000E+00
    0.17316E-07         0.64184E-10         0.00000E+00
    0.17315E-07         0.64022E-10         0.00000E+00
    0.17313E-07         0.63657E-10         0.00000E+00
    0.17312E-07         0.63091E-10         0.00000E+00
    0.17311E-07         0.62326E-10         0.00000E+00
    0.17310E-07         0.61365E-10         0.00000E+00
    0.17309E-07         0.60210E-10         0.00000E+00
    0.17307E-07         0.58864E-10         0.00000E+00
    0.17306E-07         0.57330E-10         0.00000E+00
    0.17305E-07         0.55608E-10         0.00000E+00
    0.17304E-07         0.53703E-10         0.00000E+00
    0.17303E-07         0.51616E-10         0.00000E+00
    0.17302E-07         0.49349E-10         0.00000E+00
    0.17302E-07         0.46906E-10         0.00000E+00
    0.17301E-07         0.44287E-10         0.00000E+00
    0.17300E-07         0.41496E-10         0.00000E+00
    0.17299E-07         0.38534E-10         0.00000E+00
    0.17299E-07         0.35404E-10         0.00000E+00
    0.17298E-07         0.32107E-10         0.00000E+00
    0.17298E-07         0.28646E-10         0.00000E+00
    0.17297E-07         0.25024E-10         0.00000E+00
    0.17297E-07         0.21241E-10         0.00000E+00
    0.17297E-07         0.17300E-10         0.00000E+00
    0.17296E-07         0.13203E-10         0.00000E+00
    0.17296E-07         0.89524E-11         0.00000E+00
    0.17296E-07         0.45493E-11         0.00000E+00
    0.17296E-07         0.23099E-11         0.00000E+00
    0.17654E-07         0.31682E-11         0.00000E+00
    0.17654E-07         0.62203E-11         0.00000E+00
    0.17654E-07         0.12165E-10         0.00000E+00
    0.17654E-07         0.17794E-10         0.00000E+00
    0.17653E-07         0.23112E-10         0.00000E+00
    0.17653E-07         0.28122E-10         0.00000E+00
    0.17652E-07         0.32830E-10         0.00000E+00
    0.17651E-07         0.37239E-10         0.00000E+00
    0.17650E-07         0.41354E-10         0.00000E+00
    0.17649E-07         0.45179E-10         0.00000E+00
    0.17648E-07         0.48719E-10         0.00000E+00
    0.17647E-07         0.51978E-10         0.00000E+00
    0.17646E-07         0.54960E-10         0.00000E+00
    0.17645E-07         0.57668E-10         0.00000E+00
    0.17644E-07         0.60108E-10         0.00000E+00
    0.17643E-07         0.62283E-10         0.00000E+00
    0.17642E-07         0.64197E-10         0.00000E+00
    0.17640E-07         0.65855E-10         0.00000E+00
    0.17639E-07         0.67260E-10         0.00000E+00
    0.17638E-07         0.68416E-10         0.00000E+00
    0.17637E-07         0.69327E-10         0.00000E+00
    0.17635E-07         0.69997E-10         0.00000E+00
    0.17634E-07         0.70430E-10         0.00000E+00
    0.17633E-07         0.70629E-10         0.00000E+00
    0.17632E-07         0.70598E-10         0.00000E+00
    0.17630E-07         0.70341E-10         0.00000E+00
    0.17629E-07         0.69861E-10         0.00000E+00
    0.17628E-07         0.69161E-10         0.00000E+00
    0.17627E-07         0.68246E-10         0.00000E+00
    0.17626E-07         0.67119E-10         0.00000E+00
    0.17625E-07         0.65783E-10         0.00000E+00
    0.17624E-07         0.64242E-10         0.00000E+00
    0.17623E-07         0.62498E-10         0.00000E+00
    0.17622E-07         0.60555E-10         0.00000E+00
    0.17621E-07         0.58417E-10         0.00000E+00
    0.17620E-07         0.56085E-10         0.00000E+00
    0.17619E-07         0.53565E-10         0.00000E+00
    0.17618E-07         0.50858E-10         0.00000E+00
    0.17617E-07         0.47967E-10         0.00000E+00
    0.17617E-07         0.44896E-10         0.00000E+00
    0.17616E-07         0.41647E-10         0.00000E+00
    0.17616E-07         0.38224E-10         0.00000E+00
    0.17615E-07         0.34628E-10         0.00000E+00
    0.17615E-07         0.30864E-10         0.00000E+00
    0.17614E-07         0.26933E-10         0.00000E+00
    0.17614E-07         0.22838E-10         0.00000E+00
    0.17614E-07         0.18582E-10         0.00000E+00
    0.17613E-07         0.14167E-10         0.00000E+00
    0.17613E-07         0.95962E-11         0.00000E+00
    0.17613E-07         0.48717E-11         0.00000E+00
    0.17613E-07         0.24713E-11         0.00000E+00
    0.18039E-07         0.35180E-11         0.00000E+00
    0.18039E-07         0.69018E-11         0.00000E+00
    0.18039E-07         0.13486E-10         0.00000E+00
    0.18038E-07         0.19707E-10         0.00000E+00
    0.18038E-07         0.25570E-10         0.00000E+00
    0.18037E-07         0.31081E-10         0.00000E+00
    0.18037E-07         0.36247E-10         0.00000E+00
    0.18036E-07         0.41073E-10         0.00000E+00
    0.18035E-07         0.45565E-10         0.00000E+00
    0.18035E-07         0.49729E-10         0.00000E+00
    0.18034E-07         0.53571E-10         0.00000E+00
    0.18033E-07         0.57095E-10         0.00000E+00
    0.18032E-07         0.60308E-10         0.00000E+00
    0.18031E-07         0.63216E-10         0.00000E+00
    0.18030E-07         0.65823E-10         0.00000E+00
    0.18028E-07         0.68135E-10         0.00000E+00
    0.18027E-07         0.70158E-10         0.00000E+00
    0.18026E-07         0.71897E-10         0.00000E+00
    0.18025E-07         0.73356E-10         0.00000E+00
    0.18024E-07         0.74541E-10         0.00000E+00
    0.18023E-07         0.75458E-10         0.00000E+00
    0.18022E-07         0.76110E-10         0.00000E+00
    0.18020E-07         0.76504E-10         0.00000E+00
    0.18019E-07         0.76643E-10         0.00000E+00
    0.18018E-07         0.76533E-10         0.00000E+00
    0.18017E-07         0.76177E-10         0.00000E+00
    0.18016E-07         0.75582E-10         0.00000E+00
    0.18015E-07         0.74751E-10         0.00000E+00
    0.18014E-07         0.73689E-10         0.00000E+00
    0.18013E-07         0.72401E-10         0.00000E+00
    0.18012E-07         0.70889E-10         0.00000E+00
    0.18011E-07         0.69160E-10         0.00000E+00
    0.18010E-07         0.67217E-10         0.00000E+00
    0.18009E-07         0.65064E-10         0.00000E+00
    0.18008E-07         0.62705E-10         0.00000E+00
    0.18007E-07         0.60144E-10         0.00000E+00
    0.18007E-07         0.57386E-10         0.00000E+00
    0.18006E-07         0.54433E-10         0.00000E+00
    0.18005E-07         0.51290E-10         0.00000E+00
    0.18005E-07         0.47960E-10         0.00000E+00
    0.18004E-07         0.44447E-10         0.00000E+00
    0.18004E-07         0.40755E-10         0.00000E+00
    0.18003E-07         0.36886E-10         0.00000E+00
    0.18003E-07         0.32845E-10         0.00000E+00
    0.18003E-07         0.28635E-10         0.00000E+00
    0.18002E-07         0.24259E-10         0.00000E+00
    0.18002E-07         0.19719E-10         0.00000E+00
    0.18002E-07         0.15020E-10         0.00000E+00
    0.18002E-07         0.10165E-10         0.00000E+00
    0.18002E-07         0.51558E-11         0.00000E+00
    0.18002E-07         0.26132E-11         0.00000E+00
    0.18496E-07         0.38436E-11         0.00000E+00
    0.18496E-07         0.75355E-11         0.00000E+00
    0.18495E-07         0.14712E-10         0.00000E+00
    0.18495E-07         0.21480E-10         0.00000E+00
    0.18495E-07         0.27845E-10         0.00000E+00
    0.18494E-07         0.33815E-10         0.00000E+00
    0.18494E-07         0.39399E-10         0.00000E+00
    0.18493E-07         0.44603E-10         0.00000E+00
    0.18492E-07         0.49435E-10         0.00000E+00
    0.18492E-07         0.53902E-10         0.00000E+00
    0.18491E-07         0.58012E-10         0.00000E+00
    0.18490E-07         0.61771E-10         0.00000E+00
    0.18489E-07         0.65186E-10         0.00000E+00
    0.18488E-07         0.68265E-10         0.00000E+00
    0.18487E-07         0.71014E-10         0.00000E+00
    0.18486E-07         0.73441E-10         0.00000E+00
    0.18485E-07         0.75551E-10         0.00000E+00
    0.18484E-07         0.77351E-10         0.00000E+00
    0.18483E-07         0.78847E-10         0.00000E+00
    0.18482E-07         0.80047E-10         0.00000E+00
    0.18481E-07         0.80956E-10         0.00000E+00
    0.18480E-07         0.81580E-10         0.00000E+00
    0.18479E-07         0.81926E-10         0.00000E+00
    0.18478E-07         0.81999E-10         0.00000E+00
    0.18477E-07         0.81805E-10         0.00000E+00
    0.18476E-07         0.81350E-10         0.00000E+00
    0.18475E-07         0.80640E-10         0.00000E+00
    0.18474E-07         0.79680E-10         0.00000E+00
    0.18473E-07         0.78476E-10         0.00000E+00
    0.18473E-07         0.77033E-10         0.00000E+00
    0.18472E-07         0.75356E-10         0.00000E+00
    0.18471E-07         0.73451E-10         0.00000E+00
    0.18470E-07         0.71322E-10         0.00000E+00
    0.18470E-07         0.68974E-10         0.00000E+00
    0.18469E-07         0.66413E-10         0.00000E+00
    0.18468E-07         0.63643E-10         0.00000E+00
    0.18468E-07         0.60669E-10         0.00000E+00
    0.18467E-07         0.57495E-10         0.00000E+00
    0.18466E-07         0.54127E-10         0.00000E+00
    0.18466E-07         0.50567E-10         0.00000E+00
    0.18466E-07         0.46821E-10         0.00000E+00
    0.18465E-07         0.42893E-10         0.00000E+00
    0.18465E-07         0.38787E-10         0.00000E+00
    0.18464E-07         0.34507E-10         0.00000E+00
    0.18464E-07         0.30057E-10         0.00000E+00
    0.18464E-07         0.25441E-10         0.00000E+00
    0.18464E-07         0.20662E-10         0.00000E+00
    0.18464E-07         0.15725E-10         0.00000E+00
    0.18464E-07         0.10632E-10         0.00000E+00
    0.18463E-07         0.53883E-11         0.00000E+00
    0.18463E-07         0.27288E-11         0.00000E+00
    0.19026E-07         0.41371E-11         0.00000E+00
    0.19026E-07         0.81059E-11         0.00000E+00
    0.19026E-07         0.15814E-10         0.00000E+00
    0.19026E-07         0.23068E-10         0.00000E+00
    0.19026E-07         0.29878E-10         0.00000E+00
    0.19025E-07         0.36252E-10         0.00000E+00
    0.19025E-07         0.42201E-10         0.00000E+00
    0.19024E-07         0.47733E-10         0.00000E+00
    0.19024E-07         0.52857E-10         0.00000E+00
    0.19023E-07         0.57582E-10         0.00000E+00
    0.19022E-07         0.61916E-10         0.00000E+00
    0.19021E-07         0.65869E-10         0.00000E+00
    0.19021E-07         0.69449E-10         0.00000E+00
    0.19020E-07         0.72665E-10         0.00000E+00
    0.19019E-07         0.75523E-10         0.00000E+00
    0.19018E-07         0.78034E-10         0.00000E+00
    0.19017E-07         0.80204E-10         0.00000E+00
    0.19017E-07         0.82041E-10         0.00000E+00
    0.19016E-07         0.83553E-10         0.00000E+00
    0.19015E-07         0.84749E-10         0.00000E+00
    0.19014E-07         0.85634E-10         0.00000E+00
    0.19013E-07         0.86217E-10         0.00000E+00
    0.19012E-07         0.86505E-10         0.00000E+00
    0.19012E-07         0.86504E-10         0.00000E+00
    0.19011E-07         0.86223E-10         0.00000E+00
    0.19010E-07         0.85667E-10         0.00000E+00
    0.19009E-07         0.84843E-10         0.00000E+00
    0.19009E-07         0.83758E-10         0.00000E+00
    0.19008E-07         0.82419E-10         0.00000E+00
    0.19007E-07         0.80831E-10         0.00000E+00
    0.19007E-07         0.79001E-10         0.00000E+00
    0.19006E-07         0.76935E-10         0.00000E+00
    0.19005E-07         0.74638E-10         0.00000E+00
    0.19005E-07         0.72117E-10         0.00000E+00
    0.19004E-07         0.69378E-10         0.00000E+00
    0.19004E-07         0.66425E-10         0.00000E+00
    0.19003E-07         0.63265E-10         0.00000E+00
    0.19003E-07         0.59903E-10         0.00000E+00
    0.19003E-07         0.56343E-10         0.00000E+00
    0.19002E-07         0.52591E-10         0.00000E+00
    0.19002E-07         0.48652E-10         0.00000E+00
    0.19002E-07         0.44532E-10         0.00000E+00
    0.19001E-07         0.40233E-10         0.00000E+00
    0.19001E-07         0.35762E-10         0.00000E+00
    0.19001E-07         0.31123E-10         0.00000E+00
    0.19001E-07         0.26320E-10         0.00000E+00
    0.19001E-07         0.21358E-10         0.00000E+00
    0.19001E-07         0.16240E-10         0.00000E+00
    0.19001E-07         0.10971E-10         0.00000E+00
    0.19001E-07         0.55553E-11         0.00000E+00
    0.19001E-07         0.28110E-11         0.00000E+00
    0.19633E-07         0.43902E-11         0.00000E+00
    0.19633E-07         0.85961E-11         0.00000E+00
    0.19633E-07         0.16758E-10         0.00000E+00
    0.19633E-07         0.24424E-10         0.00000E+00
    0.19633E-07         0.31606E-10         0.00000E+00
    0.19632E-07         0.38315E-10         0.00000E+00
    0.19632E-07         0.44563E-10         0.00000E+00
    0.19632E-07         0.50359E-10         0.00000E+00
    0.19631E-07         0.55715E-10         0.00000E+00
    0.19631E-07         0.60642E-10         0.00000E+00
    0.19630E-07         0.65148E-10         0.00000E+00
    0.19629E-07         0.69245E-10         0.00000E+00
    0.19629E-07         0.72943E-10         0.00000E+00
    0.19628E-07         0.76251E-10         0.00000E+00
    0.19628E-07         0.79179E-10         0.00000E+00
    0.19627E-07         0.81737E-10         0.00000E+00
    0.19626E-07         0.83934E-10         0.00000E+00
    0.19626E-07         0.85779E-10         0.00000E+00
    0.19625E-07         0.87281E-10         0.00000E+00
    0.19624E-07         0.88450E-10         0.00000E+00
    0.19624E-07         0.89293E-10         0.00000E+00
    0.19623E-07         0.89819E-10         0.00000E+00
    0.19623E-07         0.90037E-10         0.00000E+00
    0.19622E-07         0.89955E-10         0.00000E+00
    0.19621E-07         0.89580E-10         0.00000E+00
    0.19621E-07         0.88922E-10         0.00000E+00
    0.19620E-07         0.87987E-10         0.00000E+00
    0.19620E-07         0.86783E-10         0.00000E+00
    0.19619E-07         0.85317E-10         0.00000E+00
    0.19619E-07         0.83597E-10         0.00000E+00
    0.19619E-07         0.81630E-10         0.00000E+00
    0.19618E-07         0.79423E-10         0.00000E+00
    0.19618E-07         0.76982E-10         0.00000E+00
    0.19618E-07         0.74315E-10         0.00000E+00
    0.19617E-07         0.71427E-10         0.00000E+00
    0.19617E-07         0.68325E-10         0.00000E+00
    0.19617E-07         0.65015E-10         0.00000E+00
    0.19616E-07         0.61503E-10         0.00000E+00
    0.19616E-07         0.57796E-10         0.00000E+00
    0.19616E-07         0.53898E-10         0.00000E+00
    0.19616E-07         0.49817E-10         0.00000E+00
    0.19616E-07         0.45556E-10         0.00000E+00
    0.19616E-07         0.41121E-10         0.00000E+00
    0.19615E-07         0.36518E-10         0.00000E+00
    0.19615E-07         0.31752E-10         0.00000E+00
    0.19615E-07         0.26828E-10         0.00000E+00
    0.19615E-07         0.21750E-10         0.00000E+00
    0.19615E-07         0.16524E-10         0.00000E+00
    0.19615E-07         0.11153E-10         0.00000E+00
    0.19615E-07         0.56423E-11         0.00000E+00
    0.19615E-07         0.28527E-11         0.00000E+00
    0.20319E-07         0.45934E-11         0.00000E+00
    0.20319E-07         0.89880E-11         0.00000E+00
    0.20319E-07         0.17507E-10         0.00000E+00
    0.20319E-07         0.25494E-10         0.00000E+00
    0.20319E-07         0.32961E-10         0.00000E+00
    0.20318E-07         0.39921E-10         0.00000E+00
    0.20318E-07         0.46387E-10         0.00000E+00
    0.20318E-07         0.52371E-10         0.00000E+00
    0.20317E-07         0.57887E-10         0.00000E+00
    0.20317E-07         0.62945E-10         0.00000E+00
    0.20317E-07         0.67559E-10         0.00000E+00
    0.20316E-07         0.71740E-10         0.00000E+00
    0.20316E-07         0.75499E-10         0.00000E+00
    0.20315E-07         0.78848E-10         0.00000E+00
    0.20315E-07         0.81798E-10         0.00000E+00
    0.20315E-07         0.84360E-10         0.00000E+00
    0.20314E-07         0.86545E-10         0.00000E+00
    0.20314E-07         0.88363E-10         0.00000E+00
    0.20314E-07         0.89824E-10         0.00000E+00
    0.20313E-07         0.90939E-10         0.00000E+00
    0.20313E-07         0.91718E-10         0.00000E+00
    0.20312E-07         0.92169E-10         0.00000E+00
    0.20312E-07         0.92304E-10         0.00000E+00
    0.20312E-07         0.92131E-10         0.00000E+00
    0.20312E-07         0.91659E-10         0.00000E+00
    0.20311E-07         0.90897E-10         0.00000E+00
    0.20311E-07         0.89854E-10         0.00000E+00
    0.20311E-07         0.88538E-10         0.00000E+00
    0.20311E-07         0.86959E-10         0.00000E+00
    0.20311E-07         0.85123E-10         0.00000E+00
    0.20310E-07         0.83039E-10         0.00000E+00
    0.20310E-07         0.80715E-10         0.00000E+00
    0.20310E-07         0.78158E-10         0.00000E+00
    0.20310E-07         0.75376E-10         0.00000E+00
    0.20310E-07         0.72376E-10         0.00000E+00
    0.20310E-07         0.69165E-10         0.00000E+00
    0.20310E-07         0.65750E-10         0.00000E+00
    0.20310E-07         0.62138E-10         0.00000E+00
    0.20310E-07         0.58335E-10         0.00000E+00
    0.20310E-07         0.54348E-10         0.00000E+00
    0.20310E-07         0.50183E-10         0.00000E+00
    0.20310E-07         0.45846E-10         0.00000E+00
    0.20310E-07         0.41343E-10         0.00000E+00
    0.20310E-07         0.36679E-10         0.00000E+00
    0.20310E-07         0.31861E-10         0.00000E+00
    0.20310E-07         0.26893E-10         0.00000E+00
    0.20310E-07         0.21782E-10         0.00000E+00
    0.20310E-07         0.16531E-10         0.00000E+00
    0.20310E-07         0.11147E-10         0.00000E+00
    0.20310E-07         0.56340E-11         0.00000E+00
    0.20310E-07         0.28458E-11         0.00000E+00
    0.21086E-07         0.47365E-11         0.00000E+00
    0.21086E-07         0.92613E-11         0.00000E+00
    0.21086E-07         0.18024E-10         0.00000E+00
    0.21086E-07         0.26221E-10         0.00000E+00
    0.21086E-07         0.33866E-10         0.00000E+00
    0.21086E-07         0.40976E-10         0.00000E+00
    0.21086E-07         0.47565E-10         0.00000E+00
    0.21086E-07         0.53646E-10         0.00000E+00
    0.21086E-07         0.59235E-10         0.00000E+00
    0.21085E-07         0.64345E-10         0.00000E+00
    0.21085E-07         0.68990E-10         0.00000E+00
    0.21085E-07         0.73183E-10         0.00000E+00
    0.21085E-07         0.76938E-10         0.00000E+00
    0.21085E-07         0.80267E-10         0.00000E+00
    0.21085E-07         0.83183E-10         0.00000E+00
    0.21084E-07         0.85698E-10         0.00000E+00
    0.21084E-07         0.87824E-10         0.00000E+00
    0.21084E-07         0.89574E-10         0.00000E+00
    0.21084E-07         0.90959E-10         0.00000E+00
    0.21084E-07         0.91990E-10         0.00000E+00
    0.21084E-07         0.92679E-10         0.00000E+00
    0.21084E-07         0.93036E-10         0.00000E+00
    0.21084E-07         0.93072E-10         0.00000E+00
    0.21084E-07         0.92798E-10         0.00000E+00
    0.21084E-07         0.92223E-10         0.00000E+00
    0.21084E-07         0.91358E-10         0.00000E+00
    0.21084E-07         0.90212E-10         0.00000E+00
    0.21084E-07         0.88795E-10         0.00000E+00
    0.21085E-07         0.87117E-10         0.00000E+00
    0.21085E-07         0.85185E-10         0.00000E+00
    0.21085E-07         0.83009E-10         0.00000E+00
    0.21085E-07         0.80597E-10         0.00000E+00
    0.21085E-07         0.77959E-10         0.00000E+00
    0.21085E-07         0.75102E-10         0.00000E+00
    0.21086E-07         0.72033E-10         0.00000E+00
    0.21086E-07         0.68762E-10         0.00000E+00
    0.21086E-07         0.65295E-10         0.00000E+00
    0.21086E-07         0.61639E-10         0.00000E+00
    0.21087E-07         0.57803E-10         0.00000E+00
    0.21087E-07         0.53792E-10         0.00000E+00
    0.21087E-07         0.49615E-10         0.00000E+00
    0.21087E-07         0.45276E-10         0.00000E+00
    0.21087E-07         0.40783E-10         0.00000E+00
    0.21088E-07         0.36142E-10         0.00000E+00
    0.21088E-07         0.31359E-10         0.00000E+00
    0.21088E-07         0.26440E-10         0.00000E+00
    0.21088E-07         0.21391E-10         0.00000E+00
    0.21088E-07         0.16216E-10         0.00000E+00
    0.21088E-07         0.10923E-10         0.00000E+00
    0.21088E-07         0.55145E-11         0.00000E+00
    0.21088E-07         0.27825E-11         0.00000E+00
    0.21939E-07         0.48084E-11         0.00000E+00
    0.21939E-07         0.93941E-11         0.00000E+00
    0.21939E-07         0.18264E-10         0.00000E+00
    0.21939E-07         0.26541E-10         0.00000E+00
    0.21939E-07         0.34242E-10         0.00000E+00
    0.21939E-07         0.41383E-10         0.00000E+00
    0.21939E-07         0.47981E-10         0.00000E+00
    0.21939E-07         0.54053E-10         0.00000E+00
    0.21939E-07         0.59614E-10         0.00000E+00
    0.21939E-07         0.64680E-10         0.00000E+00
    0.21939E-07         0.69268E-10         0.00000E+00
    0.21939E-07         0.73390E-10         0.00000E+00
    0.21939E-07         0.77064E-10         0.00000E+00
    0.21939E-07         0.80302E-10         0.00000E+00
    0.21939E-07         0.83118E-10         0.00000E+00
    0.21939E-07         0.85528E-10         0.00000E+00
    0.21940E-07         0.87544E-10         0.00000E+00
    0.21940E-07         0.89180E-10         0.00000E+00
    0.21940E-07         0.90448E-10         0.00000E+00
    0.21940E-07         0.91361E-10         0.00000E+00
    0.21941E-07         0.91931E-10         0.00000E+00
    0.21941E-07         0.92171E-10         0.00000E+00
    0.21942E-07         0.92093E-10         0.00000E+00
    0.21942E-07         0.91707E-10         0.00000E+00
    0.21942E-07         0.91025E-10         0.00000E+00
    0.21943E-07         0.90057E-10         0.00000E+00
    0.21943E-07         0.88816E-10         0.00000E+00
    0.21944E-07         0.87310E-10         0.00000E+00
    0.21944E-07         0.85550E-10         0.00000E+00
    0.21945E-07         0.83546E-10         0.00000E+00
    0.21945E-07         0.81308E-10         0.00000E+00
    0.21946E-07         0.78844E-10         0.00000E+00
    0.21946E-07         0.76164E-10         0.00000E+00
    0.21947E-07         0.73278E-10         0.00000E+00
    0.21948E-07         0.70192E-10         0.00000E+00
    0.21948E-07         0.66917E-10         0.00000E+00
    0.21949E-07         0.63460E-10         0.00000E+00
    0.21949E-07         0.59828E-10         0.00000E+00
    0.21950E-07         0.56030E-10         0.00000E+00
    0.21950E-07         0.52074E-10         0.00000E+00
    0.21951E-07         0.47966E-10         0.00000E+00
    0.21951E-07         0.43713E-10         0.00000E+00
    0.21951E-07         0.39322E-10         0.00000E+00
    0.21952E-07         0.34801E-10         0.00000E+00
    0.21952E-07         0.30155E-10         0.00000E+00
    0.21952E-07         0.25390E-10         0.00000E+00
    0.21953E-07         0.20513E-10         0.00000E+00
    0.21953E-07         0.15530E-10         0.00000E+00
    0.21953E-07         0.10446E-10         0.00000E+00
    0.21953E-07         0.52669E-11         0.00000E+00
    0.21953E-07         0.26541E-11         0.00000E+00
    0.22879E-07         0.47968E-11         0.00000E+00
    0.22879E-07         0.93625E-11         0.00000E+00
    0.22879E-07         0.18182E-10         0.00000E+00
    0.22879E-07         0.26387E-10         0.00000E+00
    0.22879E-07         0.33997E-10         0.00000E+00
    0.22879E-07         0.41032E-10         0.00000E+00
    0.22880E-07         0.47509E-10         0.00000E+00
    0.22880E-07         0.53447E-10         0.00000E+00
    0.22880E-07         0.58864E-10         0.00000E+00
    0.22880E-07         0.63778E-10         0.00000E+00
    0.22881E-07         0.68205E-10         0.00000E+00
    0.22881E-07         0.72162E-10         0.00000E+00
    0.22881E-07         0.75666E-10         0.00000E+00
    0.22882E-07         0.78732E-10         0.00000E+00
    0.22882E-07         0.81376E-10         0.00000E+00
    0.22883E-07         0.83614E-10         0.00000E+00
    0.22884E-07         0.85460E-10         0.00000E+00
    0.22884E-07         0.86929E-10         0.00000E+00
    0.22885E-07         0.88034E-10         0.00000E+00
    0.22886E-07         0.88791E-10         0.00000E+00
    0.22886E-07         0.89212E-10         0.00000E+00
    0.22887E-07         0.89310E-10         0.00000E+00
    0.22888E-07         0.89098E-10         0.00000E+00
    0.22889E-07         0.88590E-10         0.00000E+00
    0.22890E-07         0.87796E-10         0.00000E+00
    0.22891E-07         0.86729E-10         0.00000E+00
    0.22892E-07         0.85401E-10         0.00000E+00
    0.22892E-07         0.83822E-10         0.00000E+00
    0.22893E-07         0.82003E-10         0.00000E+00
    0.22894E-07         0.79956E-10         0.00000E+00
    0.22895E-07         0.77690E-10         0.00000E+00
    0.22896E-07         0.75216E-10         0.00000E+00
    0.22897E-07         0.72543E-10         0.00000E+00
    0.22898E-07         0.69680E-10         0.00000E+00
    0.22899E-07         0.66638E-10         0.00000E+00
    0.22900E-07         0.63424E-10         0.00000E+00
    0.22901E-07         0.60048E-10         0.00000E+00
    0.22902E-07         0.56518E-10         0.00000E+00
    0.22902E-07         0.52842E-10         0.00000E+00
    0.22903E-07         0.49028E-10         0.00000E+00
    0.22904E-07         0.45084E-10         0.00000E+00
    0.22905E-07         0.41017E-10         0.00000E+00
    0.22905E-07         0.36834E-10         0.00000E+00
    0.22906E-07         0.32542E-10         0.00000E+00
    0.22906E-07         0.28149E-10         0.00000E+00
    0.22907E-07         0.23660E-10         0.00000E+00
    0.22907E-07         0.19082E-10         0.00000E+00
    0.22908E-07         0.14421E-10         0.00000E+00
    0.22908E-07         0.96833E-11         0.00000E+00
    0.22908E-07         0.48738E-11         0.00000E+00
    0.22908E-07         0.24519E-11         0.00000E+00
    0.23911E-07         0.46885E-11         0.00000E+00
    0.23911E-07         0.91403E-11         0.00000E+00
    0.23911E-07         0.17725E-10         0.00000E+00
    0.23912E-07         0.25684E-10         0.00000E+00
    0.23912E-07         0.33037E-10         0.00000E+00
    0.23912E-07         0.39807E-10         0.00000E+00
    0.23912E-07         0.46013E-10         0.00000E+00
    0.23913E-07         0.51676E-10         0.00000E+00
    0.23913E-07         0.56816E-10         0.00000E+00
    0.23914E-07         0.61451E-10         0.00000E+00
    0.23915E-07         0.65602E-10         0.00000E+00
    0.23915E-07         0.69285E-10         0.00000E+00
    0.23916E-07         0.72519E-10         0.00000E+00
    0.23917E-07         0.75322E-10         0.00000E+00
    0.23918E-07         0.77711E-10         0.00000E+00
    0.23919E-07         0.79701E-10         0.00000E+00
    0.23920E-07         0.81311E-10         0.00000E+00
    0.23921E-07         0.82554E-10         0.00000E+00
    0.23922E-07         0.83447E-10         0.00000E+00
    0.23923E-07         0.84004E-10         0.00000E+00
    0.23925E-07         0.84241E-10         0.00000E+00
    0.23926E-07         0.84171E-10         0.00000E+00
    0.23927E-07         0.83808E-10         0.00000E+00
    0.23929E-07         0.83166E-10         0.00000E+00
    0.23930E-07         0.82257E-10         0.00000E+00
    0.23931E-07         0.81095E-10         0.00000E+00
    0.23933E-07         0.79691E-10         0.00000E+00
    0.23934E-07         0.78059E-10         0.00000E+00
    0.23935E-07         0.76208E-10         0.00000E+00
    0.23937E-07         0.74151E-10         0.00000E+00
    0.23938E-07         0.71899E-10         0.00000E+00
    0.23940E-07         0.69462E-10         0.00000E+00
    0.23941E-07         0.66850E-10         0.00000E+00
    0.23942E-07         0.64074E-10         0.00000E+00
    0.23944E-07         0.61143E-10         0.00000E+00
    0.23945E-07         0.58066E-10         0.00000E+00
    0.23946E-07         0.54853E-10         0.00000E+00
    0.23948E-07         0.51513E-10         0.00000E+00
    0.23949E-07         0.48054E-10         0.00000E+00
    0.23950E-07         0.44483E-10         0.00000E+00
    0.23951E-07         0.40810E-10         0.00000E+00
    0.23952E-07         0.37042E-10         0.00000E+00
    0.23953E-07         0.33187E-10         0.00000E+00
    0.23954E-07         0.29251E-10         0.00000E+00
    0.23954E-07         0.25241E-10         0.00000E+00
    0.23955E-07         0.21165E-10         0.00000E+00
    0.23955E-07         0.17028E-10         0.00000E+00
    0.23956E-07         0.12837E-10         0.00000E+00
    0.23956E-07         0.85982E-11         0.00000E+00
    0.23956E-07         0.43170E-11         0.00000E+00
    0.23956E-07         0.21666E-11         0.00000E+00
    0.25039E-07         0.44692E-11         0.00000E+00
    0.25039E-07         0.86997E-11         0.00000E+00
    0.25039E-07         0.16840E-10         0.00000E+00
    0.25040E-07         0.24352E-10         0.00000E+00
    0.25040E-07         0.31258E-10         0.00000E+00
    0.25041E-07         0.37582E-10         0.00000E+00
    0.25041E-07         0.43346E-10         0.00000E+00
    0.25042E-07         0.48573E-10         0.00000E+00
    0.25043E-07         0.53285E-10         0.00000E+00
    0.25044E-07         0.57501E-10         0.00000E+00
    0.25045E-07         0.61244E-10         0.00000E+00
    0.25046E-07         0.64532E-10         0.00000E+00
    0.25047E-07         0.67385E-10         0.00000E+00
    0.25048E-07         0.69822E-10         0.00000E+00
    0.25050E-07         0.71862E-10         0.00000E+00
    0.25051E-07         0.73522E-10         0.00000E+00
    0.25053E-07         0.74820E-10         0.00000E+00
    0.25054E-07         0.75773E-10         0.00000E+00
    0.25056E-07         0.76398E-10         0.00000E+00
    0.25058E-07         0.76710E-10         0.00000E+00
    0.25059E-07         0.76725E-10         0.00000E+00
    0.25061E-07         0.76458E-10         0.00000E+00
    0.25063E-07         0.75924E-10         0.00000E+00
    0.25065E-07         0.75138E-10         0.00000E+00
    0.25067E-07         0.74112E-10         0.00000E+00
    0.25069E-07         0.72861E-10         0.00000E+00
    0.25071E-07         0.71397E-10         0.00000E+00
    0.25073E-07         0.69734E-10         0.00000E+00
    0.25075E-07         0.67883E-10         0.00000E+00
    0.25077E-07         0.65856E-10         0.00000E+00
    0.25079E-07         0.63664E-10         0.00000E+00
    0.25080E-07         0.61319E-10         0.00000E+00
    0.25082E-07         0.58832E-10         0.00000E+00
    0.25084E-07         0.56213E-10         0.00000E+00
    0.25086E-07         0.53471E-10         0.00000E+00
    0.25088E-07         0.50618E-10         0.00000E+00
    0.25089E-07         0.47661E-10         0.00000E+00
    0.25091E-07         0.44610E-10         0.00000E+00
    0.25093E-07         0.41475E-10         0.00000E+00
    0.25094E-07         0.38262E-10         0.00000E+00
    0.25095E-07         0.34981E-10         0.00000E+00
    0.25097E-07         0.31640E-10         0.00000E+00
    0.25098E-07         0.28245E-10         0.00000E+00
    0.25099E-07         0.24805E-10         0.00000E+00
    0.25100E-07         0.21326E-10         0.00000E+00
    0.25101E-07         0.17815E-10         0.00000E+00
    0.25101E-07         0.14278E-10         0.00000E+00
    0.25102E-07         0.10723E-10         0.00000E+00
    0.25102E-07         0.71541E-11         0.00000E+00
    0.25103E-07         0.35780E-11         0.00000E+00
    0.25103E-07         0.17888E-11         0.00000E+00
    0.26267E-07         0.41235E-11         0.00000E+00
    0.26267E-07         0.80106E-11         0.00000E+00
    0.26267E-07         0.15468E-10         0.00000E+00
    0.26268E-07         0.22306E-10         0.00000E+00
    0.26268E-07         0.28549E-10         0.00000E+00
    0.26269E-07         0.34224E-10         0.00000E+00
    0.26270E-07         0.39355E-10         0.00000E+00
    0.26271E-07         0.43965E-10         0.00000E+00
    0.26272E-07         0.48078E-10         0.00000E+00
    0.26273E-07         0.51718E-10         0.00000E+00
    0.26275E-07         0.54905E-10         0.00000E+00
    0.26276E-07         0.57662E-10         0.00000E+00
    0.26278E-07         0.60009E-10         0.00000E+00
    0.26280E-07         0.61967E-10         0.00000E+00
    0.26282E-07         0.63555E-10         0.00000E+00
    0.26284E-07         0.64793E-10         0.00000E+00
    0.26286E-07         0.65699E-10         0.00000E+00
    0.26288E-07         0.66291E-10         0.00000E+00
    0.26290E-07         0.66587E-10         0.00000E+00
    0.26292E-07         0.66603E-10         0.00000E+00
    0.26295E-07         0.66357E-10         0.00000E+00
    0.26297E-07         0.65864E-10         0.00000E+00
    0.26300E-07         0.65139E-10         0.00000E+00
    0.26302E-07         0.64198E-10         0.00000E+00
    0.26305E-07         0.63055E-10         0.00000E+00
    0.26307E-07         0.61724E-10         0.00000E+00
    0.26310E-07         0.60219E-10         0.00000E+00
    0.26312E-07         0.58552E-10         0.00000E+00
    0.26315E-07         0.56737E-10         0.00000E+00
    0.26317E-07         0.54785E-10         0.00000E+00
    0.26320E-07         0.52709E-10         0.00000E+00
    0.26322E-07         0.50520E-10         0.00000E+00
    0.26325E-07         0.48229E-10         0.00000E+00
    0.26327E-07         0.45846E-10         0.00000E+00
    0.26330E-07         0.43383E-10         0.00000E+00
    0.26332E-07         0.40848E-10         0.00000E+00
    0.26334E-07         0.38251E-10         0.00000E+00
    0.26336E-07         0.35603E-10         0.00000E+00
    0.26338E-07         0.32910E-10         0.00000E+00
    0.26340E-07         0.30183E-10         0.00000E+00
    0.26342E-07         0.27429E-10         0.00000E+00
    0.26343E-07         0.24655E-10         0.00000E+00
    0.26345E-07         0.21871E-10         0.00000E+00
    0.26346E-07         0.19082E-10         0.00000E+00
    0.26347E-07         0.16297E-10         0.00000E+00
    0.26348E-07         0.13521E-10         0.00000E+00
    0.26349E-07         0.10761E-10         0.00000E+00
    0.26350E-07         0.80231E-11         0.00000E+00
    0.26351E-07         0.53136E-11         0.00000E+00
    0.26351E-07         0.26378E-11         0.00000E+00
    0.26351E-07         0.13091E-11         0.00000E+00
    0.27599E-07         0.36352E-11         0.00000E+00
    0.27599E-07         0.70412E-11         0.00000E+00
    0.27599E-07         0.13547E-10         0.00000E+00
    0.27600E-07         0.19456E-10         0.00000E+00
    0.27601E-07         0.24796E-10         0.00000E+00
    0.27602E-07         0.29593E-10         0.00000E+00
    0.27603E-07         0.33875E-10         0.00000E+00
    0.27604E-07         0.37667E-10         0.00000E+00
    0.27606E-07         0.40994E-10         0.00000E+00
    0.27607E-07         0.43881E-10         0.00000E+00
    0.27609E-07         0.46350E-10         0.00000E+00
    0.27611E-07         0.48426E-10         0.00000E+00
    0.27614E-07         0.50130E-10         0.00000E+00
    0.27616E-07         0.51484E-10         0.00000E+00
    0.27618E-07         0.52508E-10         0.00000E+00
    0.27621E-07         0.53223E-10         0.00000E+00
    0.27624E-07         0.53648E-10         0.00000E+00
    0.27626E-07         0.53802E-10         0.00000E+00
    0.27629E-07         0.53704E-10         0.00000E+00
    0.27632E-07         0.53372E-10         0.00000E+00
    0.27635E-07         0.52822E-10         0.00000E+00
    0.27638E-07         0.52071E-10         0.00000E+00
    0.27641E-07         0.51136E-10         0.00000E+00
    0.27645E-07         0.50031E-10         0.00000E+00
    0.27648E-07         0.48772E-10         0.00000E+00
    0.27651E-07         0.47373E-10         0.00000E+00
    0.27654E-07         0.45848E-10         0.00000E+00
    0.27657E-07         0.44211E-10         0.00000E+00
    0.27661E-07         0.42474E-10         0.00000E+00
    0.27664E-07         0.40650E-10         0.00000E+00
    0.27667E-07         0.38751E-10         0.00000E+00
    0.27670E-07         0.36789E-10         0.00000E+00
    0.27673E-07         0.34774E-10         0.00000E+00
    0.27676E-07         0.32718E-10         0.00000E+00
    0.27679E-07         0.30631E-10         0.00000E+00
    0.27682E-07         0.28522E-10         0.00000E+00
    0.27685E-07         0.26402E-10         0.00000E+00
    0.27687E-07         0.24280E-10         0.00000E+00
    0.27690E-07         0.22164E-10         0.00000E+00
    0.27692E-07         0.20062E-10         0.00000E+00
    0.27694E-07         0.17983E-10         0.00000E+00
    0.27696E-07         0.15935E-10         0.00000E+00
    0.27698E-07         0.13925E-10         0.00000E+00
    0.27700E-07         0.11960E-10         0.00000E+00
    0.27701E-07         0.10047E-10         0.00000E+00
    0.27702E-07         0.81921E-11         0.00000E+00
    0.27703E-07         0.64021E-11         0.00000E+00
    0.27704E-07         0.46826E-11         0.00000E+00
    0.27705E-07         0.30393E-11         0.00000E+00
    0.27705E-07         0.14776E-11         0.00000E+00
    0.27705E-07         0.71776E-12         0.00000E+00
    0.29039E-07         0.29874E-11         0.00000E+00
    0.29039E-07         0.57585E-11         0.00000E+00
    0.29040E-07         0.11013E-10         0.00000E+00
    0.29041E-07         0.15709E-10         0.00000E+00
    0.29042E-07         0.19876E-10         0.00000E+00
    0.29043E-07         0.23543E-10         0.00000E+00
    0.29044E-07         0.26739E-10         0.00000E+00
    0.29046E-07         0.29490E-10         0.00000E+00
    0.29048E-07         0.31823E-10         0.00000E+00
    0.29050E-07         0.33764E-10         0.00000E+00
    0.29053E-07         0.35337E-10         0.00000E+00
    0.29055E-07         0.36568E-10         0.00000E+00
    0.29058E-07         0.37478E-10         0.00000E+00
    0.29061E-07         0.38091E-10         0.00000E+00
    0.29064E-07         0.38429E-10         0.00000E+00
    0.29067E-07         0.38512E-10         0.00000E+00
    0.29070E-07         0.38362E-10         0.00000E+00
    0.29074E-07         0.37996E-10         0.00000E+00
    0.29078E-07         0.37435E-10         0.00000E+00
    0.29081E-07         0.36697E-10         0.00000E+00
    0.29085E-07         0.35800E-10         0.00000E+00
    0.29089E-07         0.34760E-10         0.00000E+00
    0.29093E-07         0.33594E-10         0.00000E+00
    0.29097E-07         0.32318E-10         0.00000E+00
    0.29101E-07         0.30947E-10         0.00000E+00
    0.29104E-07         0.29495E-10         0.00000E+00
    0.29108E-07         0.27978E-10         0.00000E+00
    0.29112E-07         0.26407E-10         0.00000E+00
    0.29116E-07         0.24797E-10         0.00000E+00
    0.29120E-07         0.23160E-10         0.00000E+00
    0.29124E-07         0.21508E-10         0.00000E+00
    0.29128E-07         0.19852E-10         0.00000E+00
    0.29131E-07         0.18204E-10         0.00000E+00
    0.29135E-07         0.16574E-10         0.00000E+00
    0.29139E-07         0.14973E-10         0.00000E+00
    0.29142E-07         0.13410E-10         0.00000E+00
    0.29145E-07         0.11894E-10         0.00000E+00
    0.29148E-07         0.10434E-10         0.00000E+00
    0.29151E-07         0.90399E-11         0.00000E+00
    0.29154E-07         0.77187E-11         0.00000E+00
    0.29157E-07         0.64784E-11         0.00000E+00
    0.29159E-07         0.53266E-11         0.00000E+00
    0.29161E-07         0.42702E-11         0.00000E+00
    0.29163E-07         0.33162E-11         0.00000E+00
    0.29165E-07         0.24708E-11         0.00000E+00
    0.29167E-07         0.17403E-11         0.00000E+00
    0.29168E-07         0.11305E-11         0.00000E+00
    0.29169E-07         0.64684E-12         0.00000E+00
    0.29170E-07         0.29463E-12         0.00000E+00
    0.29170E-07         0.78800E-13         0.00000E+00
    0.29170E-07         0.55855E-14         0.00000E+00
    0.30593E-07         0.21627E-11         0.00000E+00
    0.30593E-07         0.41286E-11         0.00000E+00
    0.30593E-07         0.78008E-11         0.00000E+00
    0.30594E-07         0.10970E-10         0.00000E+00
    0.30595E-07         0.13669E-10         0.00000E+00
    0.30597E-07         0.15927E-10         0.00000E+00
    0.30599E-07         0.17775E-10         0.00000E+00
    0.30601E-07         0.19241E-10         0.00000E+00
    0.30603E-07         0.20353E-10         0.00000E+00
    0.30606E-07         0.21137E-10         0.00000E+00
    0.30609E-07         0.21621E-10         0.00000E+00
    0.30612E-07         0.21828E-10         0.00000E+00
    0.30616E-07         0.21783E-10         0.00000E+00
    0.30619E-07         0.21509E-10         0.00000E+00
    0.30623E-07         0.21029E-10         0.00000E+00
    0.30627E-07         0.20364E-10         0.00000E+00
    0.30631E-07         0.19536E-10         0.00000E+00
    0.30635E-07         0.18564E-10         0.00000E+00
    0.30639E-07         0.17467E-10         0.00000E+00
    0.30644E-07         0.16265E-10         0.00000E+00
    0.30648E-07         0.14974E-10         0.00000E+00
    0.30653E-07         0.13614E-10         0.00000E+00
    0.30658E-07         0.12199E-10         0.00000E+00
    0.30662E-07         0.10746E-10         0.00000E+00
    0.30667E-07         0.92693E-11         0.00000E+00
    0.30672E-07         0.77847E-11         0.00000E+00
    0.30677E-07         0.63057E-11         0.00000E+00
    0.30681E-07         0.48457E-11         0.00000E+00
    0.30686E-07         0.34177E-11         0.00000E+00
    0.30691E-07         0.20339E-11         0.00000E+00
    0.30695E-07         0.70607E-12         0.00000E+00
    0.30700E-07        -0.55444E-12         0.00000E+00
    0.30704E-07        -0.17369E-11         0.00000E+00
    0.30709E-07        -0.28310E-11         0.00000E+00
    0.30713E-07        -0.38269E-11         0.00000E+00
    0.30717E-07        -0.47153E-11         0.00000E+00
    0.30721E-07        -0.54872E-11         0.00000E+00
    0.30724E-07        -0.61342E-11         0.00000E+00
    0.30728E-07        -0.66480E-11         0.00000E+00
    0.30731E-07        -0.70211E-11         0.00000E+00
    0.30734E-07        -0.72462E-11         0.00000E+00
    0.30737E-07        -0.73162E-11         0.00000E+00
    0.30740E-07        -0.72246E-11         0.00000E+00
    0.30742E-07        -0.69652E-11         0.00000E+00
    0.30744E-07        -0.65320E-11         0.00000E+00
    0.30746E-07        -0.59196E-11         0.00000E+00
    0.30748E-07        -0.51226E-11         0.00000E+00
    0.30749E-07        -0.41360E-11         0.00000E+00
    0.30750E-07        -0.29554E-11         0.00000E+00
    0.30750E-07        -0.15761E-11         0.00000E+00
    0.30750E-07        -0.83635E-12         0.00000E+00
    0.32263E-07         0.11436E-11         0.00000E+00
    0.32263E-07         0.21173E-11         0.00000E+00
    0.32264E-07         0.38432E-11         0.00000E+00
    0.32265E-07         0.51432E-11         0.00000E+00
    0.32267E-07         0.60504E-11         0.00000E+00
    0.32269E-07         0.65969E-11         0.00000E+00
    0.32271E-07         0.68134E-11         0.00000E+00
    0.32273E-07         0.67298E-11         0.00000E+00
    0.32276E-07         0.63748E-11         0.00000E+00
    0.32280E-07         0.57760E-11         0.00000E+00
    0.32283E-07         0.49601E-11         0.00000E+00
    0.32287E-07         0.39527E-11         0.00000E+00
    0.32291E-07         0.27786E-11         0.00000E+00
    0.32295E-07         0.14613E-11         0.00000E+00
    0.32300E-07         0.23789E-13         0.00000E+00
    0.32304E-07        -0.15121E-11         0.00000E+00
    0.32309E-07        -0.31253E-11         0.00000E+00
    0.32314E-07        -0.47956E-11         0.00000E+00
    0.32319E-07        -0.65037E-11         0.00000E+00
    0.32325E-07        -0.82309E-11         0.00000E+00
    0.32330E-07        -0.99596E-11         0.00000E+00
    0.32335E-07        -0.11673E-10         0.00000E+00
    0.32341E-07        -0.13353E-10         0.00000E+00
    0.32347E-07        -0.14987E-10         0.00000E+00
    0.32352E-07        -0.16558E-10         0.00000E+00
    0.32358E-07        -0.18052E-10         0.00000E+00
    0.32363E-07        -0.19455E-10         0.00000E+00
    0.32369E-07        -0.20755E-10         0.00000E+00
    0.32375E-07        -0.21940E-10         0.00000E+00
    0.32380E-07        -0.22996E-10         0.00000E+00
    0.32385E-07        -0.23914E-10         0.00000E+00
    0.32391E-07        -0.24682E-10         0.00000E+00
    0.32396E-07        -0.25291E-10         0.00000E+00
    0.32401E-07        -0.25729E-10         0.00000E+00
    0.32406E-07        -0.25989E-10         0.00000E+00
    0.32410E-07        -0.26062E-10         0.00000E+00
    0.32415E-07        -0.25939E-10         0.00000E+00
    0.32419E-07        -0.25612E-10         0.00000E+00
    0.32423E-07        -0.25075E-10         0.00000E+00
    0.32427E-07        -0.24319E-10         0.00000E+00
    0.32431E-07        -0.23339E-10         0.00000E+00
    0.32434E-07        -0.22128E-10         0.00000E+00
    0.32437E-07        -0.20681E-10         0.00000E+00
    0.32440E-07        -0.18991E-10         0.00000E+00
    0.32442E-07        -0.17054E-10         0.00000E+00
    0.32444E-07        -0.14865E-10         0.00000E+00
    0.32446E-07        -0.12420E-10         0.00000E+00
    0.32448E-07        -0.97137E-11         0.00000E+00
    0.32449E-07        -0.67427E-11         0.00000E+00
    0.32449E-07        -0.35033E-11         0.00000E+00
    0.32449E-07        -0.18162E-11         0.00000E+00
    0.34055E-07        -0.87148E-13         0.00000E+00
    0.34056E-07        -0.30873E-12         0.00000E+00
    0.34057E-07        -0.92368E-12         0.00000E+00
    0.34058E-07        -0.18648E-11         0.00000E+00
    0.34060E-07        -0.30980E-11         0.00000E+00
    0.34062E-07        -0.45903E-11         0.00000E+00
    0.34064E-07        -0.63101E-11         0.00000E+00
    0.34068E-07        -0.82270E-11         0.00000E+00
    0.34071E-07        -0.10312E-10         0.00000E+00
    0.34075E-07        -0.12537E-10         0.00000E+00
    0.34079E-07        -0.14874E-10         0.00000E+00
    0.34083E-07        -0.17299E-10         0.00000E+00
    0.34088E-07        -0.19786E-10         0.00000E+00
    0.34093E-07        -0.22312E-10         0.00000E+00
    0.34098E-07        -0.24853E-10         0.00000E+00
    0.34104E-07        -0.27389E-10         0.00000E+00
    0.34110E-07        -0.29898E-10         0.00000E+00
    0.34116E-07        -0.32361E-10         0.00000E+00
    0.34122E-07        -0.34758E-10         0.00000E+00
    0.34128E-07        -0.37072E-10         0.00000E+00
    0.34134E-07        -0.39284E-10         0.00000E+00
    0.34140E-07        -0.41379E-10         0.00000E+00
    0.34147E-07        -0.43341E-10         0.00000E+00
    0.34153E-07        -0.45154E-10         0.00000E+00
    0.34160E-07        -0.46805E-10         0.00000E+00
    0.34166E-07        -0.48280E-10         0.00000E+00
    0.34173E-07        -0.49566E-10         0.00000E+00
    0.34179E-07        -0.50651E-10         0.00000E+00
    0.34186E-07        -0.51523E-10         0.00000E+00
    0.34192E-07        -0.52171E-10         0.00000E+00
    0.34198E-07        -0.52585E-10         0.00000E+00
    0.34204E-07        -0.52755E-10         0.00000E+00
    0.34210E-07        -0.52672E-10         0.00000E+00
    0.34216E-07        -0.52327E-10         0.00000E+00
    0.34222E-07        -0.51711E-10         0.00000E+00
    0.34227E-07        -0.50817E-10         0.00000E+00
    0.34232E-07        -0.49637E-10         0.00000E+00
    0.34237E-07        -0.48165E-10         0.00000E+00
    0.34242E-07        -0.46393E-10         0.00000E+00
    0.34246E-07        -0.44317E-10         0.00000E+00
    0.34251E-07        -0.41930E-10         0.00000E+00
    0.34254E-07        -0.39228E-10         0.00000E+00
    0.34258E-07        -0.36204E-10         0.00000E+00
    0.34261E-07        -0.32855E-10         0.00000E+00
    0.34264E-07        -0.29177E-10         0.00000E+00
    0.34266E-07        -0.25165E-10         0.00000E+00
    0.34268E-07        -0.20816E-10         0.00000E+00
    0.34270E-07        -0.16127E-10         0.00000E+00
    0.34271E-07        -0.11095E-10         0.00000E+00
    0.34272E-07        -0.57167E-11         0.00000E+00
    0.34272E-07        -0.29409E-11         0.00000E+00
    0.35973E-07        -0.15458E-11         0.00000E+00
    0.35974E-07        -0.31809E-11         0.00000E+00
    0.35975E-07        -0.65605E-11         0.00000E+00
    0.35976E-07        -0.10141E-10         0.00000E+00
    0.35978E-07        -0.13887E-10         0.00000E+00
    0.35981E-07        -0.17767E-10         0.00000E+00
    0.35984E-07        -0.21747E-10         0.00000E+00
    0.35987E-07        -0.25799E-10         0.00000E+00
    0.35992E-07        -0.29891E-10         0.00000E+00
    0.35996E-07        -0.33998E-10         0.00000E+00
    0.36001E-07        -0.38091E-10         0.00000E+00
    0.36006E-07        -0.42146E-10         0.00000E+00
    0.36011E-07        -0.46138E-10         0.00000E+00
    0.36017E-07        -0.50043E-10         0.00000E+00
    0.36023E-07        -0.53841E-10         0.00000E+00
    0.36030E-07        -0.57510E-10         0.00000E+00
    0.36036E-07        -0.61029E-10         0.00000E+00
    0.36043E-07        -0.64379E-10         0.00000E+00
    0.36050E-07        -0.67544E-10         0.00000E+00
    0.36057E-07        -0.70504E-10         0.00000E+00
    0.36064E-07        -0.73244E-10         0.00000E+00
    0.36072E-07        -0.75749E-10         0.00000E+00
    0.36079E-07        -0.78003E-10         0.00000E+00
    0.36087E-07        -0.79992E-10         0.00000E+00
    0.36094E-07        -0.81705E-10         0.00000E+00
    0.36101E-07        -0.83127E-10         0.00000E+00
    0.36109E-07        -0.84247E-10         0.00000E+00
    0.36116E-07        -0.85055E-10         0.00000E+00
    0.36124E-07        -0.85540E-10         0.00000E+00
    0.36131E-07        -0.85691E-10         0.00000E+00
    0.36138E-07        -0.85501E-10         0.00000E+00
    0.36145E-07        -0.84959E-10         0.00000E+00
    0.36152E-07        -0.84059E-10         0.00000E+00
    0.36158E-07        -0.82792E-10         0.00000E+00
    0.36165E-07        -0.81151E-10         0.00000E+00
    0.36171E-07        -0.79130E-10         0.00000E+00
    0.36177E-07        -0.76723E-10         0.00000E+00
    0.36182E-07        -0.73924E-10         0.00000E+00
    0.36188E-07        -0.70727E-10         0.00000E+00
    0.36193E-07        -0.67129E-10         0.00000E+00
    0.36197E-07        -0.63124E-10         0.00000E+00
    0.36202E-07        -0.58709E-10         0.00000E+00
    0.36206E-07        -0.53879E-10         0.00000E+00
    0.36209E-07        -0.48631E-10         0.00000E+00
    0.36212E-07        -0.42963E-10         0.00000E+00
    0.36215E-07        -0.36872E-10         0.00000E+00
    0.36217E-07        -0.30354E-10         0.00000E+00
    0.36219E-07        -0.23409E-10         0.00000E+00
    0.36220E-07        -0.16034E-10         0.00000E+00
    0.36221E-07        -0.82271E-11         0.00000E+00
    0.36221E-07        -0.42159E-11         0.00000E+00
    0.38021E-07        -0.32468E-11         0.00000E+00
    0.38021E-07        -0.65275E-11         0.00000E+00
    0.38022E-07        -0.13121E-10         0.00000E+00
    0.38024E-07        -0.19762E-10         0.00000E+00
    0.38026E-07        -0.26415E-10         0.00000E+00
    0.38029E-07        -0.33049E-10         0.00000E+00
    0.38033E-07        -0.39630E-10         0.00000E+00
    0.38037E-07        -0.46131E-10         0.00000E+00
    0.38042E-07        -0.52522E-10         0.00000E+00
    0.38047E-07        -0.58776E-10         0.00000E+00
    0.38052E-07        -0.64867E-10         0.00000E+00
    0.38058E-07        -0.70771E-10         0.00000E+00
    0.38065E-07        -0.76466E-10         0.00000E+00
    0.38071E-07        -0.81927E-10         0.00000E+00
    0.38078E-07        -0.87136E-10         0.00000E+00
    0.38085E-07        -0.92071E-10         0.00000E+00
    0.38093E-07        -0.96715E-10         0.00000E+00
    0.38101E-07        -0.10105E-09         0.00000E+00
    0.38109E-07        -0.10506E-09         0.00000E+00
    0.38117E-07        -0.10872E-09         0.00000E+00
    0.38125E-07        -0.11203E-09         0.00000E+00
    0.38133E-07        -0.11497E-09         0.00000E+00
    0.38141E-07        -0.11752E-09         0.00000E+00
    0.38150E-07        -0.11968E-09         0.00000E+00
    0.38158E-07        -0.12143E-09         0.00000E+00
    0.38167E-07        -0.12276E-09         0.00000E+00
    0.38175E-07        -0.12366E-09         0.00000E+00
    0.38183E-07        -0.12413E-09         0.00000E+00
    0.38192E-07        -0.12414E-09         0.00000E+00
    0.38200E-07        -0.12370E-09         0.00000E+00
    0.38208E-07        -0.12280E-09         0.00000E+00
    0.38216E-07        -0.12143E-09         0.00000E+00
    0.38223E-07        -0.11958E-09         0.00000E+00
    0.38231E-07        -0.11724E-09         0.00000E+00
    0.38238E-07        -0.11442E-09         0.00000E+00
    0.38245E-07        -0.11111E-09         0.00000E+00
    0.38251E-07        -0.10729E-09         0.00000E+00
    0.38258E-07        -0.10298E-09         0.00000E+00
    0.38264E-07        -0.98160E-10         0.00000E+00
    0.38269E-07        -0.92830E-10         0.00000E+00
    0.38275E-07        -0.86988E-10         0.00000E+00
    0.38279E-07        -0.80632E-10         0.00000E+00
    0.38284E-07        -0.73759E-10         0.00000E+00
    0.38288E-07        -0.66366E-10         0.00000E+00
    0.38291E-07        -0.58453E-10         0.00000E+00
    0.38294E-07        -0.50018E-10         0.00000E+00
    0.38297E-07        -0.41060E-10         0.00000E+00
    0.38299E-07        -0.31578E-10         0.00000E+00
    0.38300E-07        -0.21572E-10         0.00000E+00
    0.38301E-07        -0.11041E-10         0.00000E+00
    0.38302E-07        -0.56445E-11         0.00000E+00
    0.40201E-07        -0.52024E-11         0.00000E+00
    0.40202E-07        -0.10372E-10         0.00000E+00
    0.40203E-07        -0.20650E-10         0.00000E+00
    0.40205E-07        -0.30790E-10         0.00000E+00
    0.40208E-07        -0.40760E-10         0.00000E+00
    0.40211E-07        -0.50527E-10         0.00000E+00
    0.40215E-07        -0.60062E-10         0.00000E+00
    0.40220E-07        -0.69336E-10         0.00000E+00
    0.40225E-07        -0.78323E-10         0.00000E+00
    0.40231E-07        -0.86997E-10         0.00000E+00
    0.40237E-07        -0.95333E-10         0.00000E+00
    0.40244E-07        -0.10331E-09         0.00000E+00
    0.40251E-07        -0.11091E-09         0.00000E+00
    0.40258E-07        -0.11810E-09         0.00000E+00
    0.40266E-07        -0.12487E-09         0.00000E+00
    0.40274E-07        -0.13121E-09         0.00000E+00
    0.40283E-07        -0.13709E-09         0.00000E+00
    0.40291E-07        -0.14250E-09         0.00000E+00
    0.40300E-07        -0.14743E-09         0.00000E+00
    0.40309E-07        -0.15185E-09         0.00000E+00
    0.40318E-07        -0.15577E-09         0.00000E+00
    0.40328E-07        -0.15916E-09         0.00000E+00
    0.40337E-07        -0.16202E-09         0.00000E+00
    0.40346E-07        -0.16433E-09         0.00000E+00
    0.40356E-07        -0.16609E-09         0.00000E+00
    0.40365E-07        -0.16728E-09         0.00000E+00
    0.40375E-07        -0.16790E-09         0.00000E+00
    0.40384E-07        -0.16795E-09         0.00000E+00
    0.40393E-07        -0.16741E-09         0.00000E+00
    0.40402E-07        -0.16628E-09         0.00000E+00
    0.40411E-07        -0.16455E-09         0.00000E+00
    0.40420E-07        -0.16222E-09         0.00000E+00
    0.40428E-07        -0.15928E-09         0.00000E+00
    0.40437E-07        -0.15573E-09         0.00000E+00
    0.40444E-07        -0.15157E-09         0.00000E+00
    0.40452E-07        -0.14679E-09         0.00000E+00
    0.40459E-07        -0.14139E-09         0.00000E+00
    0.40466E-07        -0.13537E-09         0.00000E+00
    0.40473E-07        -0.12872E-09         0.00000E+00
    0.40479E-07        -0.12145E-09         0.00000E+00
    0.40485E-07        -0.11355E-09         0.00000E+00
    0.40490E-07        -0.10502E-09         0.00000E+00
    0.40495E-07        -0.95860E-10         0.00000E+00
    0.40500E-07        -0.86074E-10         0.00000E+00
    0.40504E-07        -0.75658E-10         0.00000E+00
    0.40507E-07        -0.64614E-10         0.00000E+00
    0.40510E-07        -0.52941E-10         0.00000E+00
    0.40512E-07        -0.40641E-10         0.00000E+00
    0.40514E-07        -0.27713E-10         0.00000E+00
    0.40515E-07        -0.14160E-10         0.00000E+00
    0.40515E-07        -0.72273E-11         0.00000E+00
    0.42517E-07        -0.74209E-11         0.00000E+00
    0.42518E-07        -0.14729E-10         0.00000E+00
    0.42519E-07        -0.29175E-10         0.00000E+00
    0.42521E-07        -0.43266E-10         0.00000E+00
    0.42524E-07        -0.56971E-10         0.00000E+00
    0.42528E-07        -0.70260E-10         0.00000E+00
    0.42533E-07        -0.83105E-10         0.00000E+00
    0.42538E-07        -0.95481E-10         0.00000E+00
    0.42544E-07        -0.10736E-09         0.00000E+00
    0.42550E-07        -0.11873E-09         0.00000E+00
    0.42557E-07        -0.12956E-09         0.00000E+00
    0.42565E-07        -0.13983E-09         0.00000E+00
    0.42573E-07        -0.14952E-09         0.00000E+00
    0.42581E-07        -0.15862E-09         0.00000E+00
    0.42590E-07        -0.16711E-09         0.00000E+00
    0.42599E-07        -0.17498E-09         0.00000E+00
    0.42608E-07        -0.18221E-09         0.00000E+00
    0.42618E-07        -0.18878E-09         0.00000E+00
    0.42627E-07        -0.19469E-09         0.00000E+00
    0.42638E-07        -0.19993E-09         0.00000E+00
    0.42648E-07        -0.20448E-09         0.00000E+00
    0.42658E-07        -0.20834E-09         0.00000E+00
    0.42668E-07        -0.21149E-09         0.00000E+00
    0.42679E-07        -0.21394E-09         0.00000E+00
    0.42689E-07        -0.21567E-09         0.00000E+00
    0.42700E-07        -0.21668E-09         0.00000E+00
    0.42710E-07        -0.21696E-09         0.00000E+00
    0.42720E-07        -0.21651E-09         0.00000E+00
    0.42730E-07        -0.21532E-09         0.00000E+00
    0.42740E-07        -0.21339E-09         0.00000E+00
    0.42750E-07        -0.21072E-09         0.00000E+00
    0.42759E-07        -0.20730E-09         0.00000E+00
    0.42769E-07        -0.20314E-09         0.00000E+00
    0.42778E-07        -0.19822E-09         0.00000E+00
    0.42787E-07        -0.19256E-09         0.00000E+00
    0.42795E-07        -0.18614E-09         0.00000E+00
    0.42803E-07        -0.17897E-09         0.00000E+00
    0.42811E-07        -0.17104E-09         0.00000E+00
    0.42818E-07        -0.16237E-09         0.00000E+00
    0.42825E-07        -0.15294E-09         0.00000E+00
    0.42831E-07        -0.14276E-09         0.00000E+00
    0.42837E-07        -0.13183E-09         0.00000E+00
    0.42842E-07        -0.12015E-09         0.00000E+00
    0.42847E-07        -0.10772E-09         0.00000E+00
    0.42851E-07        -0.94551E-10         0.00000E+00
    0.42855E-07        -0.80635E-10         0.00000E+00
    0.42858E-07        -0.65977E-10         0.00000E+00
    0.42860E-07        -0.50580E-10         0.00000E+00
    0.42862E-07        -0.34447E-10         0.00000E+00
    0.42863E-07        -0.17579E-10         0.00000E+00
    0.42864E-07        -0.89617E-11         0.00000E+00
    0.44971E-07        -0.99060E-11         0.00000E+00
    0.44971E-07        -0.19606E-10         0.00000E+00
    0.44973E-07        -0.38709E-10         0.00000E+00
    0.44975E-07        -0.57204E-10         0.00000E+00
    0.44979E-07        -0.75062E-10         0.00000E+00
    0.44983E-07        -0.92259E-10         0.00000E+00
    0.44988E-07        -0.10877E-09         0.00000E+00
    0.44994E-07        -0.12457E-09         0.00000E+00
    0.45000E-07        -0.13965E-09         0.00000E+00
    0.45007E-07        -0.15397E-09         0.00000E+00
    0.45015E-07        -0.16753E-09         0.00000E+00
    0.45023E-07        -0.18031E-09         0.00000E+00
    0.45032E-07        -0.19229E-09         0.00000E+00
    0.45041E-07        -0.20346E-09         0.00000E+00
    0.45051E-07        -0.21381E-09         0.00000E+00
    0.45061E-07        -0.22333E-09         0.00000E+00
    0.45071E-07        -0.23200E-09         0.00000E+00
    0.45081E-07        -0.23981E-09         0.00000E+00
    0.45092E-07        -0.24677E-09         0.00000E+00
    0.45103E-07        -0.25286E-09         0.00000E+00
    0.45114E-07        -0.25807E-09         0.00000E+00
    0.45126E-07        -0.26240E-09         0.00000E+00
    0.45137E-07        -0.26585E-09         0.00000E+00
    0.45148E-07        -0.26840E-09         0.00000E+00
    0.45160E-07        -0.27006E-09         0.00000E+00
    0.45171E-07        -0.27083E-09         0.00000E+00
    0.45182E-07        -0.27070E-09         0.00000E+00
    0.45193E-07        -0.26967E-09         0.00000E+00
    0.45204E-07        -0.26774E-09         0.00000E+00
    0.45215E-07        -0.26491E-09         0.00000E+00
    0.45226E-07        -0.26118E-09         0.00000E+00
    0.45236E-07        -0.25654E-09         0.00000E+00
    0.45246E-07        -0.25101E-09         0.00000E+00
    0.45256E-07        -0.24458E-09         0.00000E+00
    0.45265E-07        -0.23725E-09         0.00000E+00
    0.45275E-07        -0.22902E-09         0.00000E+00
    0.45283E-07        -0.21990E-09         0.00000E+00
    0.45292E-07        -0.20988E-09         0.00000E+00
    0.45299E-07        -0.19898E-09         0.00000E+00
    0.45307E-07        -0.18719E-09         0.00000E+00
    0.45314E-07        -0.17452E-09         0.00000E+00
    0.45320E-07        -0.16097E-09         0.00000E+00
    0.45326E-07        -0.14654E-09         0.00000E+00
    0.45331E-07        -0.13123E-09         0.00000E+00
    0.45335E-07        -0.11506E-09         0.00000E+00
    0.45339E-07        -0.98019E-10         0.00000E+00
    0.45343E-07        -0.80118E-10         0.00000E+00
    0.45345E-07        -0.61358E-10         0.00000E+00
    0.45347E-07        -0.41746E-10         0.00000E+00
    0.45348E-07        -0.21283E-10         0.00000E+00
    0.45349E-07        -0.10841E-10         0.00000E+00
    0.47563E-07        -0.12655E-10         0.00000E+00
    0.47564E-07        -0.24997E-10         0.00000E+00
    0.47565E-07        -0.49238E-10         0.00000E+00
    0.47568E-07        -0.72580E-10         0.00000E+00
    0.47572E-07        -0.95001E-10         0.00000E+00
    0.47576E-07        -0.11648E-09         0.00000E+00
    0.47582E-07        -0.13700E-09         0.00000E+00
    0.47588E-07        -0.15654E-09         0.00000E+00
    0.47595E-07        -0.17508E-09         0.00000E+00
    0.47603E-07        -0.19262E-09         0.00000E+00
    0.47611E-07        -0.20914E-09         0.00000E+00
    0.47620E-07        -0.22462E-09         0.00000E+00
    0.47630E-07        -0.23907E-09         0.00000E+00
    0.47640E-07        -0.25246E-09         0.00000E+00
    0.47650E-07        -0.26479E-09         0.00000E+00
    0.47661E-07        -0.27607E-09         0.00000E+00
    0.47672E-07        -0.28627E-09         0.00000E+00
    0.47683E-07        -0.29539E-09         0.00000E+00
    0.47695E-07        -0.30344E-09         0.00000E+00
    0.47707E-07        -0.31041E-09         0.00000E+00
    0.47719E-07        -0.31629E-09         0.00000E+00
    0.47731E-07        -0.32109E-09         0.00000E+00
    0.47743E-07        -0.32481E-09         0.00000E+00
    0.47755E-07        -0.32744E-09         0.00000E+00
    0.47768E-07        -0.32899E-09         0.00000E+00
    0.47780E-07        -0.32946E-09         0.00000E+00
    0.47792E-07        -0.32885E-09         0.00000E+00
    0.47804E-07        -0.32716E-09         0.00000E+00
    0.47816E-07        -0.32439E-09         0.00000E+00
    0.47827E-07        -0.32055E-09         0.00000E+00
    0.47839E-07        -0.31564E-09         0.00000E+00
    0.47850E-07        -0.30966E-09         0.00000E+00
    0.47861E-07        -0.30262E-09         0.00000E+00
    0.47871E-07        -0.29453E-09         0.00000E+00
    0.47881E-07        -0.28538E-09         0.00000E+00
    0.47891E-07        -0.27518E-09         0.00000E+00
    0.47900E-07        -0.26394E-09         0.00000E+00
    0.47909E-07        -0.25166E-09         0.00000E+00
    0.47918E-07        -0.23834E-09         0.00000E+00
    0.47925E-07        -0.22400E-09         0.00000E+00
    0.47933E-07        -0.20863E-09         0.00000E+00
    0.47939E-07        -0.19225E-09         0.00000E+00
    0.47946E-07        -0.17486E-09         0.00000E+00
    0.47951E-07        -0.15645E-09         0.00000E+00
    0.47956E-07        -0.13705E-09         0.00000E+00
    0.47960E-07        -0.11666E-09         0.00000E+00
    0.47964E-07        -0.95274E-10         0.00000E+00
    0.47966E-07        -0.72907E-10         0.00000E+00
    0.47968E-07        -0.49564E-10         0.00000E+00
    0.47970E-07        -0.25251E-10         0.00000E+00
    0.47970E-07        -0.12852E-10         0.00000E+00
    0.50294E-07        -0.15658E-10         0.00000E+00
    0.50294E-07        -0.30881E-10         0.00000E+00
    0.50296E-07        -0.60718E-10         0.00000E+00
    0.50299E-07        -0.89328E-10         0.00000E+00
    0.50303E-07        -0.11670E-09         0.00000E+00
    0.50308E-07        -0.14281E-09         0.00000E+00
    0.50314E-07        -0.16765E-09         0.00000E+00
    0.50321E-07        -0.19121E-09         0.00000E+00
    0.50328E-07        -0.21349E-09         0.00000E+00
    0.50337E-07        -0.23446E-09         0.00000E+00
    0.50346E-07        -0.25414E-09         0.00000E+00
    0.50355E-07        -0.27251E-09         0.00000E+00
    0.50366E-07        -0.28957E-09         0.00000E+00
    0.50376E-07        -0.30531E-09         0.00000E+00
    0.50387E-07        -0.31974E-09         0.00000E+00
    0.50399E-07        -0.33285E-09         0.00000E+00
    0.50411E-07        -0.34465E-09         0.00000E+00
    0.50423E-07        -0.35513E-09         0.00000E+00
    0.50435E-07        -0.36431E-09         0.00000E+00
    0.50448E-07        -0.37217E-09         0.00000E+00
    0.50461E-07        -0.37873E-09         0.00000E+00
    0.50474E-07        -0.38399E-09         0.00000E+00
    0.50487E-07        -0.38795E-09         0.00000E+00
    0.50500E-07        -0.39062E-09         0.00000E+00
    0.50513E-07        -0.39200E-09         0.00000E+00
    0.50526E-07        -0.39211E-09         0.00000E+00
    0.50538E-07        -0.39094E-09         0.00000E+00
    0.50551E-07        -0.38850E-09         0.00000E+00
    0.50564E-07        -0.38480E-09         0.00000E+00
    0.50576E-07        -0.37985E-09         0.00000E+00
    0.50588E-07        -0.37365E-09         0.00000E+00
    0.50600E-07        -0.36621E-09         0.00000E+00
    0.50611E-07        -0.35754E-09         0.00000E+00
    0.50622E-07        -0.34765E-09         0.00000E+00
    0.50633E-07        -0.33654E-09         0.00000E+00
    0.50643E-07        -0.32422E-09         0.00000E+00
    0.50653E-07        -0.31070E-09         0.00000E+00
    0.50662E-07        -0.29600E-09         0.00000E+00
    0.50671E-07        -0.28010E-09         0.00000E+00
    0.50679E-07        -0.26304E-09         0.00000E+00
    0.50687E-07        -0.24480E-09         0.00000E+00
    0.50694E-07        -0.22541E-09         0.00000E+00
    0.50701E-07        -0.20486E-09         0.00000E+00
    0.50706E-07        -0.18317E-09         0.00000E+00
    0.50712E-07        -0.16034E-09         0.00000E+00
    0.50716E-07        -0.13639E-09         0.00000E+00
    0.50720E-07        -0.11131E-09         0.00000E+00
    0.50722E-07        -0.85125E-10         0.00000E+00
    0.50725E-07        -0.57834E-10         0.00000E+00
    0.50726E-07        -0.29446E-10         0.00000E+00
    0.50726E-07        -0.14979E-10         0.00000E+00
    0.53162E-07        -0.18894E-10         0.00000E+00
    0.53162E-07        -0.37217E-10         0.00000E+00
    0.53164E-07        -0.73068E-10         0.00000E+00
    0.53167E-07        -0.10733E-09         0.00000E+00
    0.53172E-07        -0.13999E-09         0.00000E+00
    0.53177E-07        -0.17104E-09         0.00000E+00
    0.53183E-07        -0.20049E-09         0.00000E+00
    0.53190E-07        -0.22832E-09         0.00000E+00
    0.53198E-07        -0.25454E-09         0.00000E+00
    0.53207E-07        -0.27915E-09         0.00000E+00
    0.53217E-07        -0.30215E-09         0.00000E+00
    0.53227E-07        -0.32354E-09         0.00000E+00
    0.53238E-07        -0.34333E-09         0.00000E+00
    0.53249E-07        -0.36153E-09         0.00000E+00
    0.53261E-07        -0.37813E-09         0.00000E+00
    0.53273E-07        -0.39315E-09         0.00000E+00
    0.53285E-07        -0.40659E-09         0.00000E+00
    0.53298E-07        -0.41846E-09         0.00000E+00
    0.53311E-07        -0.42877E-09         0.00000E+00
    0.53325E-07        -0.43753E-09         0.00000E+00
    0.53338E-07        -0.44475E-09         0.00000E+00
    0.53351E-07        -0.45044E-09         0.00000E+00
    0.53365E-07        -0.45461E-09         0.00000E+00
    0.53379E-07        -0.45726E-09         0.00000E+00
    0.53392E-07        -0.45842E-09         0.00000E+00
    0.53406E-07        -0.45810E-09         0.00000E+00
    0.53419E-07        -0.45630E-09         0.00000E+00
    0.53432E-07        -0.45303E-09         0.00000E+00
    0.53445E-07        -0.44831E-09         0.00000E+00
    0.53458E-07        -0.44215E-09         0.00000E+00
    0.53471E-07        -0.43456E-09         0.00000E+00
    0.53483E-07        -0.42555E-09         0.00000E+00
    0.53495E-07        -0.41514E-09         0.00000E+00
    0.53506E-07        -0.40334E-09         0.00000E+00
    0.53517E-07        -0.39015E-09         0.00000E+00
    0.53528E-07        -0.37559E-09         0.00000E+00
    0.53538E-07        -0.35967E-09         0.00000E+00
    0.53548E-07        -0.34240E-09         0.00000E+00
    0.53557E-07        -0.32379E-09         0.00000E+00
    0.53566E-07        -0.30386E-09         0.00000E+00
    0.53574E-07        -0.28261E-09         0.00000E+00
    0.53581E-07        -0.26005E-09         0.00000E+00
    0.53588E-07        -0.23620E-09         0.00000E+00
    0.53594E-07        -0.21106E-09         0.00000E+00
    0.53599E-07        -0.18465E-09         0.00000E+00
    0.53604E-07        -0.15698E-09         0.00000E+00
    0.53607E-07        -0.12805E-09         0.00000E+00
    0.53610E-07        -0.97872E-10         0.00000E+00
    0.53613E-07        -0.66460E-10         0.00000E+00
    0.53614E-07        -0.33822E-10         0.00000E+00
    0.53614E-07        -0.17197E-10         0.00000E+00
    0.56163E-07        -0.22332E-10         0.00000E+00
    0.56164E-07        -0.43942E-10         0.00000E+00
    0.56166E-07        -0.86164E-10         0.00000E+00
    0.56169E-07        -0.12639E-09         0.00000E+00
    0.56173E-07        -0.16463E-09         0.00000E+00
    0.56179E-07        -0.20087E-09         0.00000E+00
    0.56186E-07        -0.23514E-09         0.00000E+00
    0.56193E-07        -0.26744E-09         0.00000E+00
    0.56202E-07        -0.29777E-09         0.00000E+00
    0.56211E-07        -0.32616E-09         0.00000E+00
    0.56221E-07        -0.35260E-09         0.00000E+00
    0.56231E-07        -0.37712E-09         0.00000E+00
    0.56242E-07        -0.39972E-09         0.00000E+00
    0.56254E-07        -0.42042E-09         0.00000E+00
    0.56266E-07        -0.43924E-09         0.00000E+00
    0.56279E-07        -0.45619E-09         0.00000E+00
    0.56292E-07        -0.47128E-09         0.00000E+00
    0.56305E-07        -0.48454E-09         0.00000E+00
    0.56319E-07        -0.49598E-09         0.00000E+00
    0.56332E-07        -0.50561E-09         0.00000E+00
    0.56346E-07        -0.51346E-09         0.00000E+00
    0.56360E-07        -0.51954E-09         0.00000E+00
    0.56374E-07        -0.52387E-09         0.00000E+00
    0.56388E-07        -0.52646E-09         0.00000E+00
    0.56402E-07        -0.52734E-09         0.00000E+00
    0.56416E-07        -0.52652E-09         0.00000E+00
    0.56430E-07        -0.52401E-09         0.00000E+00
    0.56443E-07        -0.51984E-09         0.00000E+00
    0.56457E-07        -0.51402E-09         0.00000E+00
    0.56470E-07        -0.50657E-09         0.00000E+00
    0.56483E-07        -0.49751E-09         0.00000E+00
    0.56495E-07        -0.48685E-09         0.00000E+00
    0.56507E-07        -0.47460E-09         0.00000E+00
    0.56519E-07        -0.46079E-09         0.00000E+00
    0.56530E-07        -0.44543E-09         0.00000E+00
    0.56541E-07        -0.42853E-09         0.00000E+00
    0.56552E-07        -0.41011E-09         0.00000E+00
    0.56562E-07        -0.39018E-09         0.00000E+00
    0.56571E-07        -0.36876E-09         0.00000E+00
    0.56580E-07        -0.34586E-09         0.00000E+00
    0.56588E-07        -0.32149E-09         0.00000E+00
    0.56595E-07        -0.29568E-09         0.00000E+00
    0.56602E-07        -0.26842E-09         0.00000E+00
    0.56608E-07        -0.23973E-09         0.00000E+00
    0.56614E-07        -0.20963E-09         0.00000E+00
    0.56618E-07        -0.17813E-09         0.00000E+00
    0.56622E-07        -0.14524E-09         0.00000E+00
    0.56625E-07        -0.11096E-09         0.00000E+00
    0.56627E-07        -0.75317E-10         0.00000E+00
    0.56629E-07        -0.38314E-10         0.00000E+00
    0.56629E-07        -0.19474E-10         0.00000E+00
    0.59293E-07        -0.25927E-10         0.00000E+00
    0.59294E-07        -0.50968E-10         0.00000E+00
    0.59296E-07        -0.99829E-10         0.00000E+00
    0.59299E-07        -0.14626E-09         0.00000E+00
    0.59304E-07        -0.19027E-09         0.00000E+00
    0.59310E-07        -0.23189E-09         0.00000E+00
    0.59316E-07        -0.27112E-09         0.00000E+00
    0.59324E-07        -0.30800E-09         0.00000E+00
    0.59333E-07        -0.34255E-09         0.00000E+00
    0.59342E-07        -0.37478E-09         0.00000E+00
    0.59352E-07        -0.40473E-09         0.00000E+00
    0.59363E-07        -0.43240E-09         0.00000E+00
    0.59375E-07        -0.45784E-09         0.00000E+00
    0.59386E-07        -0.48106E-09         0.00000E+00
    0.59399E-07        -0.50209E-09         0.00000E+00
    0.59412E-07        -0.52096E-09         0.00000E+00
    0.59425E-07        -0.53769E-09         0.00000E+00
    0.59438E-07        -0.55230E-09         0.00000E+00
    0.59452E-07        -0.56482E-09         0.00000E+00
    0.59466E-07        -0.57528E-09         0.00000E+00
    0.59480E-07        -0.58371E-09         0.00000E+00
    0.59494E-07        -0.59012E-09         0.00000E+00
    0.59508E-07        -0.59455E-09         0.00000E+00
    0.59522E-07        -0.59702E-09         0.00000E+00
    0.59536E-07        -0.59755E-09         0.00000E+00
    0.59550E-07        -0.59616E-09         0.00000E+00
    0.59564E-07        -0.59289E-09         0.00000E+00
    0.59578E-07        -0.58775E-09         0.00000E+00
    0.59591E-07        -0.58077E-09         0.00000E+00
    0.59604E-07        -0.57197E-09         0.00000E+00
    0.59617E-07        -0.56137E-09         0.00000E+00
    0.59630E-07        -0.54898E-09         0.00000E+00
    0.59642E-07        -0.53485E-09         0.00000E+00
    0.59654E-07        -0.51897E-09         0.00000E+00
    0.59665E-07        -0.50138E-09         0.00000E+00
    0.59676E-07        -0.48209E-09         0.00000E+00
    0.59687E-07        -0.46111E-09         0.00000E+00
    0.59696E-07        -0.43848E-09         0.00000E+00
    0.59706E-07        -0.41419E-09         0.00000E+00
    0.59714E-07        -0.38828E-09         0.00000E+00
    0.59723E-07        -0.36076E-09         0.00000E+00
    0.59730E-07        -0.33164E-09         0.00000E+00
    0.59737E-07        -0.30093E-09         0.00000E+00
    0.59743E-07        -0.26866E-09         0.00000E+00
    0.59748E-07        -0.23483E-09         0.00000E+00
    0.59753E-07        -0.19947E-09         0.00000E+00
    0.59757E-07        -0.16257E-09         0.00000E+00
    0.59760E-07        -0.12416E-09         0.00000E+00
    0.59762E-07        -0.84248E-10         0.00000E+00
    0.59763E-07        -0.42844E-10         0.00000E+00
    0.59764E-07        -0.21770E-10         0.00000E+00
    0.62544E-07        -0.29618E-10         0.00000E+00
    0.62545E-07        -0.58174E-10         0.00000E+00
    0.62547E-07        -0.11383E-09         0.00000E+00
    0.62551E-07        -0.16658E-09         0.00000E+00
    0.62555E-07        -0.21647E-09         0.00000E+00
    0.62561E-07        -0.26352E-09         0.00000E+00
    0.62568E-07        -0.30777E-09         0.00000E+00
    0.62576E-07        -0.34926E-09         0.00000E+00
    0.62584E-07        -0.38803E-09         0.00000E+00
    0.62594E-07        -0.42410E-09         0.00000E+00
    0.62604E-07        -0.45752E-09         0.00000E+00
    0.62615E-07        -0.48833E-09         0.00000E+00
    0.62626E-07        -0.51656E-09         0.00000E+00
    0.62638E-07        -0.54225E-09         0.00000E+00
    0.62650E-07        -0.56543E-09         0.00000E+00
    0.62663E-07        -0.58615E-09         0.00000E+00
    0.62676E-07        -0.60444E-09         0.00000E+00
    0.62690E-07        -0.62033E-09         0.00000E+00
    0.62703E-07        -0.63387E-09         0.00000E+00
    0.62717E-07        -0.64509E-09         0.00000E+00
    0.62731E-07        -0.65402E-09         0.00000E+00
    0.62745E-07        -0.66069E-09         0.00000E+00
    0.62759E-07        -0.66515E-09         0.00000E+00
    0.62773E-07        -0.66742E-09         0.00000E+00
    0.62786E-07        -0.66754E-09         0.00000E+00
    0.62800E-07        -0.66554E-09         0.00000E+00
    0.62814E-07        -0.66144E-09         0.00000E+00
    0.62827E-07        -0.65529E-09         0.00000E+00
    0.62840E-07        -0.64710E-09         0.00000E+00
    0.62853E-07        -0.63690E-09         0.00000E+00
    0.62866E-07        -0.62473E-09         0.00000E+00
    0.62878E-07        -0.61060E-09         0.00000E+00
    0.62890E-07        -0.59455E-09         0.00000E+00
    0.62902E-07        -0.57659E-09         0.00000E+00
    0.62913E-07        -0.55676E-09         0.00000E+00
    0.62923E-07        -0.53507E-09         0.00000E+00
    0.62933E-07        -0.51155E-09         0.00000E+00
    0.62943E-07        -0.48622E-09         0.00000E+00
    0.62952E-07        -0.45909E-09         0.00000E+00
    0.62961E-07        -0.43019E-09         0.00000E+00
    0.62969E-07        -0.39953E-09         0.00000E+00
    0.62976E-07        -0.36714E-09         0.00000E+00
    0.62983E-07        -0.33303E-09         0.00000E+00
    0.62988E-07        -0.29721E-09         0.00000E+00
    0.62994E-07        -0.25970E-09         0.00000E+00
    0.62998E-07        -0.22052E-09         0.00000E+00
    0.63002E-07        -0.17967E-09         0.00000E+00
    0.63005E-07        -0.13718E-09         0.00000E+00
    0.63007E-07        -0.93059E-10         0.00000E+00
    0.63008E-07        -0.47312E-10         0.00000E+00
    0.63009E-07        -0.24035E-10         0.00000E+00
    0.65907E-07        -0.33328E-10         0.00000E+00
    0.65908E-07        -0.65407E-10         0.00000E+00
    0.65910E-07        -0.12786E-09         0.00000E+00
    0.65913E-07        -0.18691E-09         0.00000E+00
    0.65918E-07        -0.24263E-09         0.00000E+00
    0.65923E-07        -0.29506E-09         0.00000E+00
    0.65930E-07        -0.34425E-09         0.00000E+00
    0.65938E-07        -0.39026E-09         0.00000E+00
    0.65946E-07        -0.43314E-09         0.00000E+00
    0.65956E-07        -0.47295E-09         0.00000E+00
    0.65965E-07        -0.50974E-09         0.00000E+00
    0.65976E-07        -0.54355E-09         0.00000E+00
    0.65987E-07        -0.57445E-09         0.00000E+00
    0.65999E-07        -0.60248E-09         0.00000E+00
    0.66011E-07        -0.62769E-09         0.00000E+00
    0.66023E-07        -0.65014E-09         0.00000E+00
    0.66036E-07        -0.66987E-09         0.00000E+00
    0.66048E-07        -0.68693E-09         0.00000E+00
    0.66061E-07        -0.70137E-09         0.00000E+00
    0.66075E-07        -0.71324E-09         0.00000E+00
    0.66088E-07        -0.72257E-09         0.00000E+00
    0.66101E-07        -0.72942E-09         0.00000E+00
    0.66115E-07        -0.73383E-09         0.00000E+00
    0.66128E-07        -0.73583E-09         0.00000E+00
    0.66141E-07        -0.73548E-09         0.00000E+00
    0.66154E-07        -0.73280E-09         0.00000E+00
    0.66167E-07        -0.72785E-09         0.00000E+00
    0.66180E-07        -0.72064E-09         0.00000E+00
    0.66193E-07        -0.71122E-09         0.00000E+00
    0.66205E-07        -0.69963E-09         0.00000E+00
    0.66217E-07        -0.68589E-09         0.00000E+00
    0.66228E-07        -0.67003E-09         0.00000E+00
    0.66240E-07        -0.65209E-09         0.00000E+00
    0.66251E-07        -0.63210E-09         0.00000E+00
    0.66261E-07        -0.61008E-09         0.00000E+00
    0.66271E-07        -0.58606E-09         0.00000E+00
    0.66281E-07        -0.56006E-09         0.00000E+00
    0.66290E-07        -0.53212E-09         0.00000E+00
    0.66298E-07        -0.50224E-09         0.00000E+00
    0.66307E-07        -0.47045E-09         0.00000E+00
    0.66314E-07        -0.43678E-09         0.00000E+00
    0.66321E-07        -0.40123E-09         0.00000E+00
    0.66327E-07        -0.36384E-09         0.00000E+00
    0.66333E-07        -0.32461E-09         0.00000E+00
    0.66338E-07        -0.28357E-09         0.00000E+00
    0.66342E-07        -0.24072E-09         0.00000E+00
    0.66345E-07        -0.19609E-09         0.00000E+00
    0.66348E-07        -0.14968E-09         0.00000E+00
    0.66350E-07        -0.10152E-09         0.00000E+00
    0.66351E-07        -0.51603E-10         0.00000E+00
    0.66352E-07        -0.26211E-10         0.00000E+00
    0.69368E-07        -0.36959E-10         0.00000E+00
    0.69369E-07        -0.72475E-10         0.00000E+00
    0.69371E-07        -0.14154E-09         0.00000E+00
    0.69374E-07        -0.20670E-09         0.00000E+00
    0.69379E-07        -0.26804E-09         0.00000E+00
    0.69384E-07        -0.32562E-09         0.00000E+00
    0.69391E-07        -0.37953E-09         0.00000E+00
    0.69398E-07        -0.42984E-09         0.00000E+00
    0.69406E-07        -0.47661E-09         0.00000E+00
    0.69415E-07        -0.51992E-09         0.00000E+00
    0.69424E-07        -0.55983E-09         0.00000E+00
    0.69434E-07        -0.59643E-09         0.00000E+00
    0.69444E-07        -0.62978E-09         0.00000E+00
    0.69455E-07        -0.65994E-09         0.00000E+00
    0.69466E-07        -0.68698E-09         0.00000E+00
    0.69478E-07        -0.71096E-09         0.00000E+00
    0.69490E-07        -0.73195E-09         0.00000E+00
    0.69501E-07        -0.75001E-09         0.00000E+00
    0.69514E-07        -0.76520E-09         0.00000E+00
    0.69526E-07        -0.77758E-09         0.00000E+00
    0.69538E-07        -0.78720E-09         0.00000E+00
    0.69550E-07        -0.79411E-09         0.00000E+00
    0.69563E-07        -0.79838E-09         0.00000E+00
    0.69575E-07        -0.80005E-09         0.00000E+00
    0.69587E-07        -0.79916E-09         0.00000E+00
    0.69599E-07        -0.79578E-09         0.00000E+00
    0.69611E-07        -0.78993E-09         0.00000E+00
    0.69622E-07        -0.78168E-09         0.00000E+00
    0.69634E-07        -0.77105E-09         0.00000E+00
    0.69645E-07        -0.75809E-09         0.00000E+00
    0.69656E-07        -0.74283E-09         0.00000E+00
    0.69666E-07        -0.72532E-09         0.00000E+00
    0.69677E-07        -0.70559E-09         0.00000E+00
    0.69687E-07        -0.68366E-09         0.00000E+00
    0.69696E-07        -0.65958E-09         0.00000E+00
    0.69705E-07        -0.63336E-09         0.00000E+00
    0.69714E-07        -0.60504E-09         0.00000E+00
    0.69722E-07        -0.57465E-09         0.00000E+00
    0.69730E-07        -0.54221E-09         0.00000E+00
    0.69737E-07        -0.50773E-09         0.00000E+00
    0.69744E-07        -0.47126E-09         0.00000E+00
    0.69750E-07        -0.43279E-09         0.00000E+00
    0.69756E-07        -0.39236E-09         0.00000E+00
    0.69761E-07        -0.34998E-09         0.00000E+00
    0.69765E-07        -0.30566E-09         0.00000E+00
    0.69769E-07        -0.25943E-09         0.00000E+00
    0.69772E-07        -0.21129E-09         0.00000E+00
    0.69775E-07        -0.16126E-09         0.00000E+00
    0.69777E-07        -0.10935E-09         0.00000E+00
    0.69778E-07        -0.55580E-10         0.00000E+00
    0.69778E-07        -0.28227E-10         0.00000E+00
    0.72913E-07        -0.40392E-10         0.00000E+00
    0.72914E-07        -0.79145E-10         0.00000E+00
    0.72916E-07        -0.15442E-09         0.00000E+00
    0.72919E-07        -0.22528E-09         0.00000E+00
    0.72923E-07        -0.29183E-09         0.00000E+00
    0.72928E-07        -0.35417E-09         0.00000E+00
    0.72934E-07        -0.41239E-09         0.00000E+00
    0.72940E-07        -0.46660E-09         0.00000E+00
    0.72947E-07        -0.51687E-09         0.00000E+00
    0.72955E-07        -0.56331E-09         0.00000E+00
    0.72964E-07        -0.60600E-09         0.00000E+00
    0.72972E-07        -0.64504E-09         0.00000E+00
    0.72982E-07        -0.68050E-09         0.00000E+00
    0.72991E-07        -0.71248E-09         0.00000E+00
    0.73001E-07        -0.74106E-09         0.00000E+00
    0.73011E-07        -0.76631E-09         0.00000E+00
    0.73022E-07        -0.78832E-09         0.00000E+00
    0.73032E-07        -0.80716E-09         0.00000E+00
    0.73043E-07        -0.82290E-09         0.00000E+00
    0.73054E-07        -0.83561E-09         0.00000E+00
    0.73064E-07        -0.84536E-09         0.00000E+00
    0.73075E-07        -0.85222E-09         0.00000E+00
    0.73086E-07        -0.85624E-09         0.00000E+00
    0.73096E-07        -0.85750E-09         0.00000E+00
    0.73107E-07        -0.85604E-09         0.00000E+00
    0.73117E-07        -0.85192E-09         0.00000E+00
    0.73127E-07        -0.84520E-09         0.00000E+00
    0.73137E-07        -0.83593E-09         0.00000E+00
    0.73147E-07        -0.82415E-09         0.00000E+00
    0.73157E-07        -0.80990E-09         0.00000E+00
    0.73166E-07        -0.79325E-09         0.00000E+00
    0.73175E-07        -0.77421E-09         0.00000E+00
    0.73184E-07        -0.75283E-09         0.00000E+00
    0.73192E-07        -0.72916E-09         0.00000E+00
    0.73200E-07        -0.70321E-09         0.00000E+00
    0.73208E-07        -0.67503E-09         0.00000E+00
    0.73215E-07        -0.64465E-09         0.00000E+00
    0.73222E-07        -0.61209E-09         0.00000E+00
    0.73229E-07        -0.57737E-09         0.00000E+00
    0.73235E-07        -0.54052E-09         0.00000E+00
    0.73241E-07        -0.50157E-09         0.00000E+00
    0.73246E-07        -0.46054E-09         0.00000E+00
    0.73251E-07        -0.41743E-09         0.00000E+00
    0.73255E-07        -0.37228E-09         0.00000E+00
    0.73259E-07        -0.32509E-09         0.00000E+00
    0.73262E-07        -0.27588E-09         0.00000E+00
    0.73265E-07        -0.22467E-09         0.00000E+00
    0.73267E-07        -0.17146E-09         0.00000E+00
    0.73268E-07        -0.11626E-09         0.00000E+00
    0.73269E-07        -0.59087E-10         0.00000E+00
    0.73270E-07        -0.30007E-10         0.00000E+00
    0.76522E-07        -0.43489E-10         0.00000E+00
    0.76523E-07        -0.85143E-10         0.00000E+00
    0.76525E-07        -0.16596E-09         0.00000E+00
    0.76527E-07        -0.24187E-09         0.00000E+00
    0.76531E-07        -0.31300E-09         0.00000E+00
    0.76535E-07        -0.37947E-09         0.00000E+00
    0.76540E-07        -0.44140E-09         0.00000E+00
    0.76545E-07        -0.49891E-09         0.00000E+00
    0.76551E-07        -0.55213E-09         0.00000E+00
    0.76558E-07        -0.60116E-09         0.00000E+00
    0.76565E-07        -0.64612E-09         0.00000E+00
    0.76572E-07        -0.68712E-09         0.00000E+00
    0.76580E-07        -0.72426E-09         0.00000E+00
    0.76588E-07        -0.75764E-09         0.00000E+00
    0.76596E-07        -0.78737E-09         0.00000E+00
    0.76604E-07        -0.81354E-09         0.00000E+00
    0.76613E-07        -0.83625E-09         0.00000E+00
    0.76621E-07        -0.85558E-09         0.00000E+00
    0.76630E-07        -0.87162E-09         0.00000E+00
    0.76638E-07        -0.88446E-09         0.00000E+00
    0.76647E-07        -0.89417E-09         0.00000E+00
    0.76655E-07        -0.90083E-09         0.00000E+00
    0.76664E-07        -0.90451E-09         0.00000E+00
    0.76672E-07        -0.90528E-09         0.00000E+00
    0.76680E-07        -0.90322E-09         0.00000E+00
    0.76688E-07        -0.89838E-09         0.00000E+00
    0.76696E-07        -0.89082E-09         0.00000E+00
    0.76704E-07        -0.88060E-09         0.00000E+00
    0.76712E-07        -0.86777E-09         0.00000E+00
    0.76719E-07        -0.85239E-09         0.00000E+00
    0.76726E-07        -0.83451E-09         0.00000E+00
    0.76733E-07        -0.81416E-09         0.00000E+00
    0.76740E-07        -0.79138E-09         0.00000E+00
    0.76746E-07        -0.76623E-09         0.00000E+00
    0.76752E-07        -0.73873E-09         0.00000E+00
    0.76758E-07        -0.70891E-09         0.00000E+00
    0.76764E-07        -0.67682E-09         0.00000E+00
    0.76769E-07        -0.64247E-09         0.00000E+00
    0.76774E-07        -0.60590E-09         0.00000E+00
    0.76779E-07        -0.56712E-09         0.00000E+00
    0.76783E-07        -0.52616E-09         0.00000E+00
    0.76787E-07        -0.48304E-09         0.00000E+00
    0.76791E-07        -0.43778E-09         0.00000E+00
    0.76794E-07        -0.39038E-09         0.00000E+00
    0.76797E-07        -0.34087E-09         0.00000E+00
    0.76800E-07        -0.28926E-09         0.00000E+00
    0.76802E-07        -0.23555E-09         0.00000E+00
    0.76803E-07        -0.17976E-09         0.00000E+00
    0.76805E-07        -0.12189E-09         0.00000E+00
    0.76805E-07        -0.61951E-10         0.00000E+00
    0.76806E-07        -0.31463E-10         0.00000E+00
    0.80173E-07        -0.46087E-10         0.00000E+00
    0.80174E-07        -0.90154E-10         0.00000E+00
    0.80175E-07        -0.17556E-09         0.00000E+00
    0.80177E-07        -0.25558E-09         0.00000E+00
    0.80180E-07        -0.33037E-09         0.00000E+00
    0.80183E-07        -0.40010E-09         0.00000E+00
    0.80187E-07        -0.46490E-09         0.00000E+00
    0.80191E-07        -0.52494E-09         0.00000E+00
    0.80196E-07        -0.58034E-09         0.00000E+00
    0.80200E-07        -0.63126E-09         0.00000E+00
    0.80206E-07        -0.67782E-09         0.00000E+00
    0.80211E-07        -0.72015E-09         0.00000E+00
    0.80216E-07        -0.75838E-09         0.00000E+00
    0.80222E-07        -0.79264E-09         0.00000E+00
    0.80228E-07        -0.82304E-09         0.00000E+00
    0.80234E-07        -0.84969E-09         0.00000E+00
    0.80239E-07        -0.87270E-09         0.00000E+00
    0.80245E-07        -0.89218E-09         0.00000E+00
    0.80251E-07        -0.90823E-09         0.00000E+00
    0.80257E-07        -0.92094E-09         0.00000E+00
    0.80262E-07        -0.93041E-09         0.00000E+00
    0.80268E-07        -0.93672E-09         0.00000E+00
    0.80274E-07        -0.93995E-09         0.00000E+00
    0.80279E-07        -0.94019E-09         0.00000E+00
    0.80284E-07        -0.93751E-09         0.00000E+00
    0.80289E-07        -0.93198E-09         0.00000E+00
    0.80294E-07        -0.92366E-09         0.00000E+00
    0.80299E-07        -0.91263E-09         0.00000E+00
    0.80304E-07        -0.89893E-09         0.00000E+00
    0.80309E-07        -0.88262E-09         0.00000E+00
    0.80313E-07        -0.86375E-09         0.00000E+00
    0.80317E-07        -0.84238E-09         0.00000E+00
    0.80321E-07        -0.81854E-09         0.00000E+00
    0.80325E-07        -0.79228E-09         0.00000E+00
    0.80329E-07        -0.76363E-09         0.00000E+00
    0.80333E-07        -0.73263E-09         0.00000E+00
    0.80336E-07        -0.69931E-09         0.00000E+00
    0.80339E-07        -0.66370E-09         0.00000E+00
    0.80342E-07        -0.62581E-09         0.00000E+00
    0.80345E-07        -0.58568E-09         0.00000E+00
    0.80348E-07        -0.54332E-09         0.00000E+00
    0.80350E-07        -0.49876E-09         0.00000E+00
    0.80352E-07        -0.45199E-09         0.00000E+00
    0.80354E-07        -0.40305E-09         0.00000E+00
    0.80356E-07        -0.35193E-09         0.00000E+00
    0.80358E-07        -0.29865E-09         0.00000E+00
    0.80359E-07        -0.24321E-09         0.00000E+00
    0.80360E-07        -0.18562E-09         0.00000E+00
    0.80361E-07        -0.12588E-09         0.00000E+00
    0.80361E-07        -0.63983E-10         0.00000E+00
    0.80361E-07        -0.32499E-10         0.00000E+00
    0.83840E-07        -0.48004E-10         0.00000E+00
    0.83841E-07        -0.93821E-10         0.00000E+00
    0.83841E-07        -0.18250E-09         0.00000E+00
    0.83843E-07        -0.26539E-09         0.00000E+00
    0.83844E-07        -0.34265E-09         0.00000E+00
    0.83846E-07        -0.41450E-09         0.00000E+00
    0.83848E-07        -0.48110E-09         0.00000E+00
    0.83851E-07        -0.54263E-09         0.00000E+00
    0.83853E-07        -0.59926E-09         0.00000E+00
    0.83856E-07        -0.65115E-09         0.00000E+00
    0.83859E-07        -0.69846E-09         0.00000E+00
    0.83862E-07        -0.74135E-09         0.00000E+00
    0.83864E-07        -0.77996E-09         0.00000E+00
    0.83867E-07        -0.81444E-09         0.00000E+00
    0.83870E-07        -0.84491E-09         0.00000E+00
    0.83872E-07        -0.87151E-09         0.00000E+00
    0.83875E-07        -0.89437E-09         0.00000E+00
    0.83877E-07        -0.91360E-09         0.00000E+00
    0.83880E-07        -0.92932E-09         0.00000E+00
    0.83882E-07        -0.94163E-09         0.00000E+00
    0.83884E-07        -0.95063E-09         0.00000E+00
    0.83886E-07        -0.95644E-09         0.00000E+00
    0.83888E-07        -0.95913E-09         0.00000E+00
    0.83890E-07        -0.95879E-09         0.00000E+00
    0.83892E-07        -0.95551E-09         0.00000E+00
    0.83893E-07        -0.94936E-09         0.00000E+00
    0.83895E-07        -0.94042E-09         0.00000E+00
    0.83896E-07        -0.92874E-09         0.00000E+00
    0.83897E-07        -0.91440E-09         0.00000E+00
    0.83898E-07        -0.89745E-09         0.00000E+00
    0.83899E-07        -0.87795E-09         0.00000E+00
    0.83900E-07        -0.85594E-09         0.00000E+00
    0.83901E-07        -0.83147E-09         0.00000E+00
    0.83902E-07        -0.80459E-09         0.00000E+00
    0.83903E-07        -0.77531E-09         0.00000E+00
    0.83904E-07        -0.74369E-09         0.00000E+00
    0.83904E-07        -0.70975E-09         0.00000E+00
    0.83905E-07        -0.67352E-09         0.00000E+00
    0.83906E-07        -0.63501E-09         0.00000E+00
    0.83906E-07        -0.59425E-09         0.00000E+00
    0.83907E-07        -0.55126E-09         0.00000E+00
    0.83907E-07        -0.50604E-09         0.00000E+00
    0.83907E-07        -0.45861E-09         0.00000E+00
    0.83908E-07        -0.40897E-09         0.00000E+00
    0.83908E-07        -0.35714E-09         0.00000E+00
    0.83909E-07        -0.30310E-09         0.00000E+00
    0.83909E-07        -0.24687E-09         0.00000E+00
    0.83909E-07        -0.18845E-09         0.00000E+00
    0.83909E-07        -0.12782E-09         0.00000E+00
    0.83909E-07        -0.64986E-10         0.00000E+00
    0.83909E-07        -0.33016E-10         0.00000E+00
    0.87493E-07        -0.49042E-10         0.00000E+00
    0.87493E-07        -0.95756E-10         0.00000E+00
    0.87493E-07        -0.18605E-09         0.00000E+00
    0.87493E-07        -0.27021E-09         0.00000E+00
    0.87494E-07        -0.34844E-09         0.00000E+00
    0.87494E-07        -0.42097E-09         0.00000E+00
    0.87494E-07        -0.48802E-09         0.00000E+00
    0.87495E-07        -0.54978E-09         0.00000E+00
    0.87495E-07        -0.60645E-09         0.00000E+00
    0.87495E-07        -0.65822E-09         0.00000E+00
    0.87495E-07        -0.70527E-09         0.00000E+00
    0.87494E-07        -0.74778E-09         0.00000E+00
    0.87494E-07        -0.78591E-09         0.00000E+00
    0.87493E-07        -0.81983E-09         0.00000E+00
    0.87492E-07        -0.84969E-09         0.00000E+00
    0.87491E-07        -0.87563E-09         0.00000E+00
    0.87489E-07        -0.89780E-09         0.00000E+00
    0.87488E-07        -0.91632E-09         0.00000E+00
    0.87486E-07        -0.93133E-09         0.00000E+00
    0.87484E-07        -0.94294E-09         0.00000E+00
    0.87482E-07        -0.95126E-09         0.00000E+00
    0.87480E-07        -0.95640E-09         0.00000E+00
    0.87477E-07        -0.95846E-09         0.00000E+00
    0.87475E-07        -0.95753E-09         0.00000E+00
    0.87472E-07        -0.95370E-09         0.00000E+00
    0.87469E-07        -0.94705E-09         0.00000E+00
    0.87466E-07        -0.93766E-09         0.00000E+00
    0.87464E-07        -0.92560E-09         0.00000E+00
    0.87461E-07        -0.91093E-09         0.00000E+00
    0.87458E-07        -0.89371E-09         0.00000E+00
    0.87455E-07        -0.87400E-09         0.00000E+00
    0.87452E-07        -0.85184E-09         0.00000E+00
    0.87449E-07        -0.82728E-09         0.00000E+00
    0.87446E-07        -0.80036E-09         0.00000E+00
    0.87444E-07        -0.77110E-09         0.00000E+00
    0.87441E-07        -0.73956E-09         0.00000E+00
    0.87438E-07        -0.70574E-09         0.00000E+00
    0.87436E-07        -0.66967E-09         0.00000E+00
    0.87434E-07        -0.63138E-09         0.00000E+00
    0.87431E-07        -0.59087E-09         0.00000E+00
    0.87430E-07        -0.54815E-09         0.00000E+00
    0.87428E-07        -0.50324E-09         0.00000E+00
    0.87426E-07        -0.45613E-09         0.00000E+00
    0.87425E-07        -0.40683E-09         0.00000E+00
    0.87423E-07        -0.35534E-09         0.00000E+00
    0.87422E-07        -0.30165E-09         0.00000E+00
    0.87421E-07        -0.24576E-09         0.00000E+00
    0.87421E-07        -0.18766E-09         0.00000E+00
    0.87420E-07        -0.12733E-09         0.00000E+00
    0.87420E-07        -0.64758E-10         0.00000E+00
    0.87420E-07        -0.32913E-10         0.00000E+00
    0.91097E-07        -0.48989E-10         0.00000E+00
    0.91097E-07        -0.95547E-10         0.00000E+00
    0.91097E-07        -0.18541E-09         0.00000E+00
    0.91096E-07        -0.26889E-09         0.00000E+00
    0.91095E-07        -0.34626E-09         0.00000E+00
    0.91093E-07        -0.41776E-09         0.00000E+00
    0.91091E-07        -0.48363E-09         0.00000E+00
    0.91089E-07        -0.54411E-09         0.00000E+00
    0.91086E-07        -0.59942E-09         0.00000E+00
    0.91082E-07        -0.64977E-09         0.00000E+00
    0.91079E-07        -0.69538E-09         0.00000E+00
    0.91075E-07        -0.73642E-09         0.00000E+00
    0.91070E-07        -0.77310E-09         0.00000E+00
    0.91065E-07        -0.80558E-09         0.00000E+00
    0.91060E-07        -0.83404E-09         0.00000E+00
    0.91054E-07        -0.85864E-09         0.00000E+00
    0.91048E-07        -0.87953E-09         0.00000E+00
    0.91042E-07        -0.89685E-09         0.00000E+00
    0.91035E-07        -0.91074E-09         0.00000E+00
    0.91028E-07        -0.92133E-09         0.00000E+00
    0.91021E-07        -0.92874E-09         0.00000E+00
    0.91014E-07        -0.93307E-09         0.00000E+00
    0.91007E-07        -0.93444E-09         0.00000E+00
    0.90999E-07        -0.93293E-09         0.00000E+00
    0.90992E-07        -0.92866E-09         0.00000E+00
    0.90984E-07        -0.92168E-09         0.00000E+00
    0.90976E-07        -0.91210E-09         0.00000E+00
    0.90969E-07        -0.89996E-09         0.00000E+00
    0.90961E-07        -0.88535E-09         0.00000E+00
    0.90953E-07        -0.86832E-09         0.00000E+00
    0.90946E-07        -0.84891E-09         0.00000E+00
    0.90939E-07        -0.82718E-09         0.00000E+00
    0.90931E-07        -0.80317E-09         0.00000E+00
    0.90924E-07        -0.77692E-09         0.00000E+00
    0.90918E-07        -0.74845E-09         0.00000E+00
    0.90911E-07        -0.71779E-09         0.00000E+00
    0.90905E-07        -0.68497E-09         0.00000E+00
    0.90899E-07        -0.64999E-09         0.00000E+00
    0.90894E-07        -0.61288E-09         0.00000E+00
    0.90888E-07        -0.57363E-09         0.00000E+00
    0.90884E-07        -0.53226E-09         0.00000E+00
    0.90879E-07        -0.48876E-09         0.00000E+00
    0.90875E-07        -0.44313E-09         0.00000E+00
    0.90872E-07        -0.39537E-09         0.00000E+00
    0.90869E-07        -0.34545E-09         0.00000E+00
    0.90866E-07        -0.29338E-09         0.00000E+00
    0.90864E-07        -0.23912E-09         0.00000E+00
    0.90862E-07        -0.18268E-09         0.00000E+00
    0.90861E-07        -0.12401E-09         0.00000E+00
    0.90860E-07        -0.63107E-10         0.00000E+00
    0.90860E-07        -0.32092E-10         0.00000E+00
    0.94615E-07        -0.47629E-10         0.00000E+00
    0.94615E-07        -0.92778E-10         0.00000E+00
    0.94614E-07        -0.17977E-09         0.00000E+00
    0.94612E-07        -0.26029E-09         0.00000E+00
    0.94609E-07        -0.33463E-09         0.00000E+00
    0.94605E-07        -0.40308E-09         0.00000E+00
    0.94600E-07        -0.46592E-09         0.00000E+00
    0.94595E-07        -0.52338E-09         0.00000E+00
    0.94588E-07        -0.57573E-09         0.00000E+00
    0.94581E-07        -0.62320E-09         0.00000E+00
    0.94574E-07        -0.66602E-09         0.00000E+00
    0.94565E-07        -0.70439E-09         0.00000E+00
    0.94556E-07        -0.73852E-09         0.00000E+00
    0.94547E-07        -0.76860E-09         0.00000E+00
    0.94536E-07        -0.79481E-09         0.00000E+00
    0.94526E-07        -0.81733E-09         0.00000E+00
    0.94514E-07        -0.83632E-09         0.00000E+00
    0.94503E-07        -0.85192E-09         0.00000E+00
    0.94491E-07        -0.86428E-09         0.00000E+00
    0.94479E-07        -0.87354E-09         0.00000E+00
    0.94466E-07        -0.87981E-09         0.00000E+00
    0.94453E-07        -0.88322E-09         0.00000E+00
    0.94440E-07        -0.88387E-09         0.00000E+00
    0.94427E-07        -0.88186E-09         0.00000E+00
    0.94414E-07        -0.87728E-09         0.00000E+00
    0.94401E-07        -0.87022E-09         0.00000E+00
    0.94388E-07        -0.86074E-09         0.00000E+00
    0.94375E-07        -0.84893E-09         0.00000E+00
    0.94362E-07        -0.83484E-09         0.00000E+00
    0.94349E-07        -0.81852E-09         0.00000E+00
    0.94337E-07        -0.80004E-09         0.00000E+00
    0.94324E-07        -0.77942E-09         0.00000E+00
    0.94312E-07        -0.75670E-09         0.00000E+00
    0.94301E-07        -0.73192E-09         0.00000E+00
    0.94290E-07        -0.70510E-09         0.00000E+00
    0.94279E-07        -0.67626E-09         0.00000E+00
    0.94269E-07        -0.64541E-09         0.00000E+00
    0.94259E-07        -0.61256E-09         0.00000E+00
    0.94250E-07        -0.57772E-09         0.00000E+00
    0.94242E-07        -0.54089E-09         0.00000E+00
    0.94234E-07        -0.50206E-09         0.00000E+00
    0.94226E-07        -0.46121E-09         0.00000E+00
    0.94220E-07        -0.41835E-09         0.00000E+00
    0.94214E-07        -0.37345E-09         0.00000E+00
    0.94209E-07        -0.32649E-09         0.00000E+00
    0.94204E-07        -0.27745E-09         0.00000E+00
    0.94201E-07        -0.22630E-09         0.00000E+00
    0.94198E-07        -0.17300E-09         0.00000E+00
    0.94196E-07        -0.11754E-09         0.00000E+00
    0.94195E-07        -0.59859E-10         0.00000E+00
    0.94194E-07        -0.30464E-10         0.00000E+00
    0.98006E-07        -0.44753E-10         0.00000E+00
    0.98005E-07        -0.87045E-10         0.00000E+00
    0.98003E-07        -0.16836E-09         0.00000E+00
    0.98000E-07        -0.24329E-09         0.00000E+00
    0.97995E-07        -0.31218E-09         0.00000E+00
    0.97988E-07        -0.37532E-09         0.00000E+00
    0.97981E-07        -0.43302E-09         0.00000E+00
    0.97972E-07        -0.48554E-09         0.00000E+00
    0.97962E-07        -0.53317E-09         0.00000E+00
    0.97951E-07        -0.57616E-09         0.00000E+00
    0.97938E-07        -0.61473E-09         0.00000E+00
    0.97925E-07        -0.64912E-09         0.00000E+00
    0.97911E-07        -0.67955E-09         0.00000E+00
    0.97896E-07        -0.70621E-09         0.00000E+00
    0.97881E-07        -0.72930E-09         0.00000E+00
    0.97865E-07        -0.74898E-09         0.00000E+00
    0.97848E-07        -0.76544E-09         0.00000E+00
    0.97830E-07        -0.77881E-09         0.00000E+00
    0.97813E-07        -0.78925E-09         0.00000E+00
    0.97794E-07        -0.79690E-09         0.00000E+00
    0.97776E-07        -0.80187E-09         0.00000E+00
    0.97757E-07        -0.80428E-09         0.00000E+00
    0.97738E-07        -0.80423E-09         0.00000E+00
    0.97719E-07        -0.80183E-09         0.00000E+00
    0.97700E-07        -0.79716E-09         0.00000E+00
    0.97681E-07        -0.79030E-09         0.00000E+00
    0.97662E-07        -0.78132E-09         0.00000E+00
    0.97643E-07        -0.77029E-09         0.00000E+00
    0.97625E-07        -0.75726E-09         0.00000E+00
    0.97607E-07        -0.74228E-09         0.00000E+00
    0.97589E-07        -0.72539E-09         0.00000E+00
    0.97572E-07        -0.70663E-09         0.00000E+00
    0.97555E-07        -0.68603E-09         0.00000E+00
    0.97538E-07        -0.66360E-09         0.00000E+00
    0.97523E-07        -0.63938E-09         0.00000E+00
    0.97507E-07        -0.61336E-09         0.00000E+00
    0.97493E-07        -0.58556E-09         0.00000E+00
    0.97479E-07        -0.55596E-09         0.00000E+00
    0.97466E-07        -0.52458E-09         0.00000E+00
    0.97454E-07        -0.49139E-09         0.00000E+00
    0.97443E-07        -0.45639E-09         0.00000E+00
    0.97433E-07        -0.41954E-09         0.00000E+00
    0.97423E-07        -0.38084E-09         0.00000E+00
    0.97415E-07        -0.34024E-09         0.00000E+00
    0.97408E-07        -0.29772E-09         0.00000E+00
    0.97402E-07        -0.25324E-09         0.00000E+00
    0.97396E-07        -0.20676E-09         0.00000E+00
    0.97392E-07        -0.15824E-09         0.00000E+00
    0.97389E-07        -0.10763E-09         0.00000E+00
    0.97388E-07        -0.54878E-10         0.00000E+00
    0.97387E-07        -0.27962E-10         0.00000E+00
    0.10122E-06        -0.40179E-10         0.00000E+00
    0.10122E-06        -0.77999E-10         0.00000E+00
    0.10122E-06        -0.15052E-09         0.00000E+00
    0.10121E-06        -0.21698E-09         0.00000E+00
    0.10121E-06        -0.27773E-09         0.00000E+00
    0.10120E-06        -0.33311E-09         0.00000E+00
    0.10119E-06        -0.38342E-09         0.00000E+00
    0.10117E-06        -0.42895E-09         0.00000E+00
    0.10116E-06        -0.47000E-09         0.00000E+00
    0.10115E-06        -0.50682E-09         0.00000E+00
    0.10113E-06        -0.53966E-09         0.00000E+00
    0.10111E-06        -0.56874E-09         0.00000E+00
    0.10109E-06        -0.59430E-09         0.00000E+00
    0.10107E-06        -0.61653E-09         0.00000E+00
    0.10105E-06        -0.63563E-09         0.00000E+00
    0.10103E-06        -0.65176E-09         0.00000E+00
    0.10100E-06        -0.66510E-09         0.00000E+00
    0.10098E-06        -0.67579E-09         0.00000E+00
    0.10096E-06        -0.68398E-09         0.00000E+00
    0.10093E-06        -0.68979E-09         0.00000E+00
    0.10091E-06        -0.69335E-09         0.00000E+00
    0.10088E-06        -0.69476E-09         0.00000E+00
    0.10086E-06        -0.69411E-09         0.00000E+00
    0.10083E-06        -0.69151E-09         0.00000E+00
    0.10081E-06        -0.68703E-09         0.00000E+00
    0.10078E-06        -0.68073E-09         0.00000E+00
    0.10076E-06        -0.67269E-09         0.00000E+00
    0.10073E-06        -0.66296E-09         0.00000E+00
    0.10071E-06        -0.65158E-09         0.00000E+00
    0.10069E-06        -0.63860E-09         0.00000E+00
    0.10066E-06        -0.62405E-09         0.00000E+00
    0.10064E-06        -0.60795E-09         0.00000E+00
    0.10062E-06        -0.59032E-09         0.00000E+00
    0.10060E-06        -0.57119E-09         0.00000E+00
    0.10058E-06        -0.55054E-09         0.00000E+00
    0.10056E-06        -0.52839E-09         0.00000E+00
    0.10054E-06        -0.50473E-09         0.00000E+00
    0.10052E-06        -0.47956E-09         0.00000E+00
    0.10050E-06        -0.45284E-09         0.00000E+00
    0.10049E-06        -0.42457E-09         0.00000E+00
    0.10047E-06        -0.39471E-09         0.00000E+00
    0.10046E-06        -0.36324E-09         0.00000E+00
    0.10045E-06        -0.33012E-09         0.00000E+00
    0.10044E-06        -0.29531E-09         0.00000E+00
    0.10043E-06        -0.25876E-09         0.00000E+00
    0.10042E-06        -0.22042E-09         0.00000E+00
    0.10041E-06        -0.18024E-09         0.00000E+00
    0.10041E-06        -0.13817E-09         0.00000E+00
    0.10041E-06        -0.94138E-10         0.00000E+00
    0.10040E-06        -0.48084E-10         0.00000E+00
    0.10040E-06        -0.24543E-10         0.00000E+00
    0.10422E-06        -0.33767E-10         0.00000E+00
    0.10422E-06        -0.65379E-10         0.00000E+00
    0.10422E-06        -0.12578E-09         0.00000E+00
    0.10421E-06        -0.18070E-09         0.00000E+00
    0.10420E-06        -0.23052E-09         0.00000E+00
    0.10419E-06        -0.27558E-09         0.00000E+00
    0.10417E-06        -0.31619E-09         0.00000E+00
    0.10416E-06        -0.35266E-09         0.00000E+00
    0.10414E-06        -0.38527E-09         0.00000E+00
    0.10412E-06        -0.41427E-09         0.00000E+00
    0.10410E-06        -0.43992E-09         0.00000E+00
    0.10407E-06        -0.46244E-09         0.00000E+00
    0.10405E-06        -0.48205E-09         0.00000E+00
    0.10402E-06        -0.49893E-09         0.00000E+00
    0.10400E-06        -0.51328E-09         0.00000E+00
    0.10397E-06        -0.52525E-09         0.00000E+00
    0.10394E-06        -0.53499E-09         0.00000E+00
    0.10391E-06        -0.54266E-09         0.00000E+00
    0.10388E-06        -0.54837E-09         0.00000E+00
    0.10385E-06        -0.55224E-09         0.00000E+00
    0.10382E-06        -0.55438E-09         0.00000E+00
    0.10379E-06        -0.55488E-09         0.00000E+00
    0.10376E-06        -0.55382E-09         0.00000E+00
    0.10373E-06        -0.55129E-09         0.00000E+00
    0.10370E-06        -0.54734E-09         0.00000E+00
    0.10367E-06        -0.54204E-09         0.00000E+00
    0.10364E-06        -0.53543E-09         0.00000E+00
    0.10361E-06        -0.52756E-09         0.00000E+00
    0.10358E-06        -0.51846E-09         0.00000E+00
    0.10355E-06        -0.50817E-09         0.00000E+00
    0.10352E-06        -0.49669E-09         0.00000E+00
    0.10349E-06        -0.48405E-09         0.00000E+00
    0.10347E-06        -0.47026E-09         0.00000E+00
    0.10344E-06        -0.45531E-09         0.00000E+00
    0.10342E-06        -0.43921E-09         0.00000E+00
    0.10339E-06        -0.42194E-09         0.00000E+00
    0.10337E-06        -0.40349E-09         0.00000E+00
    0.10335E-06        -0.38384E-09         0.00000E+00
    0.10333E-06        -0.36296E-09         0.00000E+00
    0.10331E-06        -0.34082E-09         0.00000E+00
    0.10329E-06        -0.31738E-09         0.00000E+00
    0.10328E-06        -0.29261E-09         0.00000E+00
    0.10326E-06        -0.26644E-09         0.00000E+00
    0.10325E-06        -0.23884E-09         0.00000E+00
    0.10324E-06        -0.20975E-09         0.00000E+00
    0.10323E-06        -0.17909E-09         0.00000E+00
    0.10322E-06        -0.14681E-09         0.00000E+00
    0.10321E-06        -0.11284E-09         0.00000E+00
    0.10321E-06        -0.77087E-10         0.00000E+00
    0.10320E-06        -0.39484E-10         0.00000E+00
    0.10320E-06        -0.20209E-10         0.00000E+00
    0.10695E-06        -0.25453E-10         0.00000E+00
    0.10694E-06        -0.49077E-10         0.00000E+00
    0.10694E-06        -0.93951E-10         0.00000E+00
    0.10693E-06        -0.13426E-09         0.00000E+00
    0.10692E-06        -0.17038E-09         0.00000E+00
    0.10690E-06        -0.20263E-09         0.00000E+00
    0.10689E-06        -0.23134E-09         0.00000E+00
    0.10687E-06        -0.25678E-09         0.00000E+00
    0.10684E-06        -0.27924E-09         0.00000E+00
    0.10682E-06        -0.29896E-09         0.00000E+00
    0.10679E-06        -0.31616E-09         0.00000E+00
    0.10677E-06        -0.33105E-09         0.00000E+00
    0.10674E-06        -0.34382E-09         0.00000E+00
    0.10671E-06        -0.35465E-09         0.00000E+00
    0.10667E-06        -0.36370E-09         0.00000E+00
    0.10664E-06        -0.37110E-09         0.00000E+00
    0.10661E-06        -0.37698E-09         0.00000E+00
    0.10657E-06        -0.38147E-09         0.00000E+00
    0.10654E-06        -0.38466E-09         0.00000E+00
    0.10650E-06        -0.38665E-09         0.00000E+00
    0.10647E-06        -0.38751E-09         0.00000E+00
    0.10643E-06        -0.38733E-09         0.00000E+00
    0.10640E-06        -0.38616E-09         0.00000E+00
    0.10636E-06        -0.38406E-09         0.00000E+00
    0.10633E-06        -0.38107E-09         0.00000E+00
    0.10629E-06        -0.37723E-09         0.00000E+00
    0.10626E-06        -0.37259E-09         0.00000E+00
    0.10622E-06        -0.36715E-09         0.00000E+00
    0.10619E-06        -0.36094E-09         0.00000E+00
    0.10616E-06        -0.35398E-09         0.00000E+00
    0.10612E-06        -0.34627E-09         0.00000E+00
    0.10609E-06        -0.33782E-09         0.00000E+00
    0.10606E-06        -0.32861E-09         0.00000E+00
    0.10603E-06        -0.31865E-09         0.00000E+00
    0.10600E-06        -0.30793E-09         0.00000E+00
    0.10598E-06        -0.29641E-09         0.00000E+00
    0.10595E-06        -0.28408E-09         0.00000E+00
    0.10593E-06        -0.27090E-09         0.00000E+00
    0.10590E-06        -0.25685E-09         0.00000E+00
    0.10588E-06        -0.24189E-09         0.00000E+00
    0.10586E-06        -0.22596E-09         0.00000E+00
    0.10584E-06        -0.20902E-09         0.00000E+00
    0.10583E-06        -0.19102E-09         0.00000E+00
    0.10581E-06        -0.17189E-09         0.00000E+00
    0.10580E-06        -0.15155E-09         0.00000E+00
    0.10579E-06        -0.12995E-09         0.00000E+00
    0.10578E-06        -0.10700E-09         0.00000E+00
    0.10577E-06        -0.82622E-10         0.00000E+00
    0.10576E-06        -0.56716E-10         0.00000E+00
    0.10576E-06        -0.29192E-10         0.00000E+00
    0.10576E-06        -0.15014E-10         0.00000E+00
    0.10934E-06        -0.15280E-10         0.00000E+00
    0.10934E-06        -0.29201E-10         0.00000E+00
    0.10934E-06        -0.55312E-10         0.00000E+00
    0.10933E-06        -0.78137E-10         0.00000E+00
    0.10931E-06        -0.98018E-10         0.00000E+00
    0.10929E-06        -0.11527E-09         0.00000E+00
    0.10927E-06        -0.13017E-09         0.00000E+00
    0.10925E-06        -0.14299E-09         0.00000E+00
    0.10923E-06        -0.15395E-09         0.00000E+00
    0.10920E-06        -0.16327E-09         0.00000E+00
    0.10917E-06        -0.17114E-09         0.00000E+00
    0.10914E-06        -0.17772E-09         0.00000E+00
    0.10910E-06        -0.18316E-09         0.00000E+00
    0.10907E-06        -0.18760E-09         0.00000E+00
    0.10903E-06        -0.19115E-09         0.00000E+00
    0.10900E-06        -0.19392E-09         0.00000E+00
    0.10896E-06        -0.19600E-09         0.00000E+00
    0.10892E-06        -0.19745E-09         0.00000E+00
    0.10888E-06        -0.19834E-09         0.00000E+00
    0.10885E-06        -0.19874E-09         0.00000E+00
    0.10881E-06        -0.19869E-09         0.00000E+00
    0.10877E-06        -0.19822E-09         0.00000E+00
    0.10873E-06        -0.19736E-09         0.00000E+00
    0.10869E-06        -0.19616E-09         0.00000E+00
    0.10865E-06        -0.19461E-09         0.00000E+00
    0.10861E-06        -0.19275E-09         0.00000E+00
    0.10858E-06        -0.19057E-09         0.00000E+00
    0.10854E-06        -0.18808E-09         0.00000E+00
    0.10850E-06        -0.18530E-09         0.00000E+00
    0.10847E-06        -0.18220E-09         0.00000E+00
    0.10843E-06        -0.17879E-09         0.00000E+00
    0.10840E-06        -0.17506E-09         0.00000E+00
    0.10837E-06        -0.17100E-09         0.00000E+00
    0.10834E-06        -0.16659E-09         0.00000E+00
    0.10830E-06        -0.16180E-09         0.00000E+00
    0.10828E-06        -0.15662E-09         0.00000E+00
    0.10825E-06        -0.15102E-09         0.00000E+00
    0.10822E-06        -0.14496E-09         0.00000E+00
    0.10820E-06        -0.13841E-09         0.00000E+00
    0.10817E-06        -0.13132E-09         0.00000E+00
    0.10815E-06        -0.12365E-09         0.00000E+00
    0.10813E-06        -0.11534E-09         0.00000E+00
    0.10811E-06        -0.10634E-09         0.00000E+00
    0.10810E-06        -0.96576E-10         0.00000E+00
    0.10808E-06        -0.85978E-10         0.00000E+00
    0.10807E-06        -0.74467E-10         0.00000E+00
    0.10806E-06        -0.61958E-10         0.00000E+00
    0.10805E-06        -0.48357E-10         0.00000E+00
    0.10804E-06        -0.33563E-10         0.00000E+00
    0.10804E-06        -0.17468E-10         0.00000E+00
    0.10804E-06        -0.90816E-11         0.00000E+00
    0.11136E-06        -0.34532E-11         0.00000E+00
    0.11136E-06        -0.61769E-11         0.00000E+00
    0.11135E-06        -0.10752E-10         0.00000E+00
    0.11134E-06        -0.13736E-10         0.00000E+00
    0.11133E-06        -0.15421E-10         0.00000E+00
    0.11131E-06        -0.16066E-10         0.00000E+00
    0.11129E-06        -0.15898E-10         0.00000E+00
    0.11126E-06        -0.15115E-10         0.00000E+00
    0.11123E-06        -0.13888E-10         0.00000E+00
    0.11120E-06        -0.12361E-10         0.00000E+00
    0.11117E-06        -0.10657E-10         0.00000E+00
    0.11114E-06        -0.88770E-11         0.00000E+00
    0.11110E-06        -0.71035E-11         0.00000E+00
    0.11107E-06        -0.54022E-11         0.00000E+00
    0.11103E-06        -0.38241E-11         0.00000E+00
    0.11099E-06        -0.24074E-11         0.00000E+00
    0.11095E-06        -0.11790E-11         0.00000E+00
    0.11091E-06        -0.15689E-12         0.00000E+00
    0.11088E-06         0.64926E-12         0.00000E+00
    0.11084E-06         0.12361E-11         0.00000E+00
    0.11080E-06         0.16054E-11         0.00000E+00
    0.11076E-06         0.17634E-11         0.00000E+00
    0.11072E-06         0.17193E-11         0.00000E+00
    0.11068E-06         0.14847E-11         0.00000E+00
    0.11064E-06         0.10732E-11         0.00000E+00
    0.11060E-06         0.49927E-12         0.00000E+00
    0.11056E-06        -0.22153E-12         0.00000E+00
    0.11053E-06        -0.10732E-11         0.00000E+00
    0.11049E-06        -0.20395E-11         0.00000E+00
    0.11046E-06        -0.31038E-11         0.00000E+00
    0.11042E-06        -0.42492E-11         0.00000E+00
    0.11039E-06        -0.54584E-11         0.00000E+00
    0.11035E-06        -0.67133E-11         0.00000E+00
    0.11032E-06        -0.79950E-11         0.00000E+00
    0.11029E-06        -0.92833E-11         0.00000E+00
    0.11026E-06        -0.10556E-10         0.00000E+00
    0.11023E-06        -0.11789E-10         0.00000E+00
    0.11021E-06        -0.12954E-10         0.00000E+00
    0.11018E-06        -0.14021E-10         0.00000E+00
    0.11016E-06        -0.14955E-10         0.00000E+00
    0.11014E-06        -0.15715E-10         0.00000E+00
    0.11012E-06        -0.16255E-10         0.00000E+00
    0.11010E-06        -0.16525E-10         0.00000E+00
    0.11008E-06        -0.16463E-10         0.00000E+00
    0.11007E-06        -0.16003E-10         0.00000E+00
    0.11005E-06        -0.15069E-10         0.00000E+00
    0.11004E-06        -0.13575E-10         0.00000E+00
    0.11003E-06        -0.11429E-10         0.00000E+00
    0.11003E-06        -0.85241E-11         0.00000E+00
    0.11002E-06        -0.47468E-11         0.00000E+00
    0.11002E-06        -0.26251E-11         0.00000E+00
    0.11295E-06         0.96232E-11         0.00000E+00
    0.11294E-06         0.19143E-10         0.00000E+00
    0.11294E-06         0.37952E-10         0.00000E+00
    0.11292E-06         0.56190E-10         0.00000E+00
    0.11291E-06         0.73651E-10         0.00000E+00
    0.11289E-06         0.90170E-10         0.00000E+00
    0.11287E-06         0.10562E-09         0.00000E+00
    0.11284E-06         0.11990E-09         0.00000E+00
    0.11281E-06         0.13296E-09         0.00000E+00
    0.11278E-06         0.14474E-09         0.00000E+00
    0.11275E-06         0.15525E-09         0.00000E+00
    0.11272E-06         0.16448E-09         0.00000E+00
    0.11269E-06         0.17245E-09         0.00000E+00
    0.11265E-06         0.17920E-09         0.00000E+00
    0.11262E-06         0.18478E-09         0.00000E+00
    0.11258E-06         0.18924E-09         0.00000E+00
    0.11254E-06         0.19263E-09         0.00000E+00
    0.11251E-06         0.19503E-09         0.00000E+00
    0.11247E-06         0.19650E-09         0.00000E+00
    0.11243E-06         0.19710E-09         0.00000E+00
    0.11240E-06         0.19690E-09         0.00000E+00
    0.11236E-06         0.19596E-09         0.00000E+00
    0.11233E-06         0.19434E-09         0.00000E+00
    0.11229E-06         0.19209E-09         0.00000E+00
    0.11226E-06         0.18926E-09         0.00000E+00
    0.11222E-06         0.18590E-09         0.00000E+00
    0.11219E-06         0.18205E-09         0.00000E+00
    0.11215E-06         0.17775E-09         0.00000E+00
    0.11212E-06         0.17302E-09         0.00000E+00
    0.11209E-06         0.16790E-09         0.00000E+00
    0.11206E-06         0.16241E-09         0.00000E+00
    0.11203E-06         0.15657E-09         0.00000E+00
    0.11200E-06         0.15039E-09         0.00000E+00
    0.11197E-06         0.14388E-09         0.00000E+00
    0.11194E-06         0.13706E-09         0.00000E+00
    0.11192E-06         0.12993E-09         0.00000E+00
    0.11189E-06         0.12251E-09         0.00000E+00
    0.11187E-06         0.11479E-09         0.00000E+00
    0.11185E-06         0.10679E-09         0.00000E+00
    0.11182E-06         0.98517E-10         0.00000E+00
    0.11180E-06         0.89995E-10         0.00000E+00
    0.11178E-06         0.81241E-10         0.00000E+00
    0.11177E-06         0.72285E-10         0.00000E+00
    0.11175E-06         0.63163E-10         0.00000E+00
    0.11174E-06         0.53921E-10         0.00000E+00
    0.11172E-06         0.44614E-10         0.00000E+00
    0.11171E-06         0.35312E-10         0.00000E+00
    0.11170E-06         0.26096E-10         0.00000E+00
    0.11170E-06         0.17065E-10         0.00000E+00
    0.11169E-06         0.83320E-11         0.00000E+00
    0.11169E-06         0.40554E-11         0.00000E+00
    0.11404E-06         0.23161E-10         0.00000E+00
    0.11404E-06         0.45223E-10         0.00000E+00
    0.11403E-06         0.87727E-10         0.00000E+00
    0.11402E-06         0.12694E-09         0.00000E+00
    0.11400E-06         0.16281E-09         0.00000E+00
    0.11398E-06         0.19534E-09         0.00000E+00
    0.11396E-06         0.22456E-09         0.00000E+00
    0.11394E-06         0.25057E-09         0.00000E+00
    0.11392E-06         0.27345E-09         0.00000E+00
    0.11389E-06         0.29335E-09         0.00000E+00
    0.11386E-06         0.31042E-09         0.00000E+00
    0.11383E-06         0.32481E-09         0.00000E+00
    0.11381E-06         0.33671E-09         0.00000E+00
    0.11378E-06         0.34630E-09         0.00000E+00
    0.11375E-06         0.35377E-09         0.00000E+00
    0.11372E-06         0.35928E-09         0.00000E+00
    0.11369E-06         0.36301E-09         0.00000E+00
    0.11366E-06         0.36513E-09         0.00000E+00
    0.11364E-06         0.36579E-09         0.00000E+00
    0.11361E-06         0.36513E-09         0.00000E+00
    0.11358E-06         0.36329E-09         0.00000E+00
    0.11355E-06         0.36039E-09         0.00000E+00
    0.11353E-06         0.35654E-09         0.00000E+00
    0.11350E-06         0.35182E-09         0.00000E+00
    0.11348E-06         0.34633E-09         0.00000E+00
    0.11345E-06         0.34015E-09         0.00000E+00
    0.11343E-06         0.33332E-09         0.00000E+00
    0.11340E-06         0.32591E-09         0.00000E+00
    0.11338E-06         0.31795E-09         0.00000E+00
    0.11336E-06         0.30948E-09         0.00000E+00
    0.11333E-06         0.30050E-09         0.00000E+00
    0.11331E-06         0.29105E-09         0.00000E+00
    0.11329E-06         0.28111E-09         0.00000E+00
    0.11327E-06         0.27069E-09         0.00000E+00
    0.11325E-06         0.25977E-09         0.00000E+00
    0.11323E-06         0.24833E-09         0.00000E+00
    0.11321E-06         0.23635E-09         0.00000E+00
    0.11319E-06         0.22380E-09         0.00000E+00
    0.11317E-06         0.21064E-09         0.00000E+00
    0.11316E-06         0.19686E-09         0.00000E+00
    0.11314E-06         0.18241E-09         0.00000E+00
    0.11313E-06         0.16726E-09         0.00000E+00
    0.11311E-06         0.15140E-09         0.00000E+00
    0.11310E-06         0.13481E-09         0.00000E+00
    0.11309E-06         0.11749E-09         0.00000E+00
    0.11308E-06         0.99443E-10         0.00000E+00
    0.11307E-06         0.80706E-10         0.00000E+00
    0.11306E-06         0.61316E-10         0.00000E+00
    0.11305E-06         0.41332E-10         0.00000E+00
    0.11305E-06         0.20840E-10         0.00000E+00
    0.11305E-06         0.10480E-10         0.00000E+00
    0.11458E-06         0.36164E-10         0.00000E+00
    0.11458E-06         0.69709E-10         0.00000E+00
    0.11457E-06         0.13342E-09         0.00000E+00
    0.11456E-06         0.19052E-09         0.00000E+00
    0.11455E-06         0.24125E-09         0.00000E+00
    0.11454E-06         0.28587E-09         0.00000E+00
    0.11452E-06         0.32466E-09         0.00000E+00
    0.11451E-06         0.35799E-09         0.00000E+00
    0.11449E-06         0.38623E-09         0.00000E+00
    0.11448E-06         0.40981E-09         0.00000E+00
    0.11446E-06         0.42914E-09         0.00000E+00
    0.11444E-06         0.44463E-09         0.00000E+00
    0.11443E-06         0.45669E-09         0.00000E+00
    0.11441E-06         0.46568E-09         0.00000E+00
    0.11440E-06         0.47194E-09         0.00000E+00
    0.11439E-06         0.47580E-09         0.00000E+00
    0.11437E-06         0.47755E-09         0.00000E+00
    0.11436E-06         0.47745E-09         0.00000E+00
    0.11435E-06         0.47573E-09         0.00000E+00
    0.11434E-06         0.47260E-09         0.00000E+00
    0.11432E-06         0.46824E-09         0.00000E+00
    0.11431E-06         0.46282E-09         0.00000E+00
    0.11430E-06         0.45648E-09         0.00000E+00
    0.11429E-06         0.44933E-09         0.00000E+00
    0.11429E-06         0.44149E-09         0.00000E+00
    0.11428E-06         0.43304E-09         0.00000E+00
    0.11427E-06         0.42403E-09         0.00000E+00
    0.11426E-06         0.41454E-09         0.00000E+00
    0.11425E-06         0.40460E-09         0.00000E+00
    0.11424E-06         0.39423E-09         0.00000E+00
    0.11423E-06         0.38344E-09         0.00000E+00
    0.11423E-06         0.37224E-09         0.00000E+00
    0.11422E-06         0.36060E-09         0.00000E+00
    0.11421E-06         0.34851E-09         0.00000E+00
    0.11420E-06         0.33592E-09         0.00000E+00
    0.11420E-06         0.32278E-09         0.00000E+00
    0.11419E-06         0.30903E-09         0.00000E+00
    0.11418E-06         0.29459E-09         0.00000E+00
    0.11417E-06         0.27937E-09         0.00000E+00
    0.11416E-06         0.26328E-09         0.00000E+00
    0.11416E-06         0.24621E-09         0.00000E+00
    0.11415E-06         0.22804E-09         0.00000E+00
    0.11414E-06         0.20866E-09         0.00000E+00
    0.11413E-06         0.18795E-09         0.00000E+00
    0.11413E-06         0.16581E-09         0.00000E+00
    0.11412E-06         0.14215E-09         0.00000E+00
    0.11411E-06         0.11692E-09         0.00000E+00
    0.11411E-06         0.90083E-10         0.00000E+00
    0.11411E-06         0.61657E-10         0.00000E+00
    0.11410E-06         0.31645E-10         0.00000E+00
    0.11410E-06         0.16242E-10         0.00000E+00
    0.11451E-06         0.45256E-10         0.00000E+00
    0.11451E-06         0.86979E-10         0.00000E+00
    0.11450E-06         0.16509E-09         0.00000E+00
    0.11450E-06         0.23257E-09         0.00000E+00
    0.11450E-06         0.28978E-09         0.00000E+00
    0.11450E-06         0.33756E-09         0.00000E+00
    0.11450E-06         0.37689E-09         0.00000E+00
    0.11450E-06         0.40880E-09         0.00000E+00
    0.11450E-06         0.43424E-09         0.00000E+00
    0.11451E-06         0.45410E-09         0.00000E+00
    0.11451E-06         0.46916E-09         0.00000E+00
    0.11452E-06         0.48011E-09         0.00000E+00
    0.11453E-06         0.48756E-09         0.00000E+00
    0.11454E-06         0.49202E-09         0.00000E+00
    0.11455E-06         0.49396E-09         0.00000E+00
    0.11456E-06         0.49376E-09         0.00000E+00
    0.11457E-06         0.49176E-09         0.00000E+00
    0.11459E-06         0.48825E-09         0.00000E+00
    0.11460E-06         0.48349E-09         0.00000E+00
    0.11461E-06         0.47767E-09         0.00000E+00
    0.11463E-06         0.47099E-09         0.00000E+00
    0.11464E-06         0.46360E-09         0.00000E+00
    0.11466E-06         0.45562E-09         0.00000E+00
    0.11467E-06         0.44717E-09         0.00000E+00
    0.11469E-06         0.43834E-09         0.00000E+00
    0.11470E-06         0.42919E-09         0.00000E+00
    0.11471E-06         0.41978E-09         0.00000E+00
    0.11473E-06         0.41016E-09         0.00000E+00
    0.11474E-06         0.40035E-09         0.00000E+00
    0.11475E-06         0.39037E-09         0.00000E+00
    0.11477E-06         0.38021E-09         0.00000E+00
    0.11478E-06         0.36987E-09         0.00000E+00
    0.11479E-06         0.35933E-09         0.00000E+00
    0.11480E-06         0.34853E-09         0.00000E+00
    0.11481E-06         0.33744E-09         0.00000E+00
    0.11482E-06         0.32599E-09         0.00000E+00
    0.11483E-06         0.31409E-09         0.00000E+00
    0.11484E-06         0.30163E-09         0.00000E+00
    0.11485E-06         0.28850E-09         0.00000E+00
    0.11485E-06         0.27455E-09         0.00000E+00
    0.11486E-06         0.25961E-09         0.00000E+00
    0.11486E-06         0.24347E-09         0.00000E+00
    0.11487E-06         0.22589E-09         0.00000E+00
    0.11487E-06         0.20662E-09         0.00000E+00
    0.11487E-06         0.18535E-09         0.00000E+00
    0.11488E-06         0.16175E-09         0.00000E+00
    0.11488E-06         0.13549E-09         0.00000E+00
    0.11487E-06         0.10624E-09         0.00000E+00
    0.11487E-06         0.73808E-10         0.00000E+00
    0.11487E-06         0.38204E-10         0.00000E+00
    0.11487E-06         0.19633E-10         0.00000E+00
    0.11372E-06         0.50977E-10         0.00000E+00
    0.11372E-06         0.92511E-10         0.00000E+00
    0.11374E-06         0.16545E-09         0.00000E+00
    0.11376E-06         0.22064E-09         0.00000E+00
    0.11378E-06         0.26239E-09         0.00000E+00
    0.11382E-06         0.29383E-09         0.00000E+00
    0.11385E-06         0.31726E-09         0.00000E+00
    0.11389E-06         0.33439E-09         0.00000E+00
    0.11393E-06         0.34653E-09         0.00000E+00
    0.11398E-06         0.35471E-09         0.00000E+00
    0.11402E-06         0.35970E-09         0.00000E+00
    0.11407E-06         0.36214E-09         0.00000E+00
    0.11412E-06         0.36251E-09         0.00000E+00
    0.11417E-06         0.36124E-09         0.00000E+00
    0.11422E-06         0.35863E-09         0.00000E+00
    0.11427E-06         0.35496E-09         0.00000E+00
    0.11432E-06         0.35045E-09         0.00000E+00
    0.11437E-06         0.34527E-09         0.00000E+00
    0.11442E-06         0.33958E-09         0.00000E+00
    0.11446E-06         0.33349E-09         0.00000E+00
    0.11451E-06         0.32712E-09         0.00000E+00
    0.11456E-06         0.32054E-09         0.00000E+00
    0.11460E-06         0.31383E-09         0.00000E+00
    0.11465E-06         0.30703E-09         0.00000E+00
    0.11469E-06         0.30021E-09         0.00000E+00
    0.11474E-06         0.29338E-09         0.00000E+00
    0.11478E-06         0.28657E-09         0.00000E+00
    0.11482E-06         0.27982E-09         0.00000E+00
    0.11486E-06         0.27312E-09         0.00000E+00
    0.11490E-06         0.26648E-09         0.00000E+00
    0.11494E-06         0.25989E-09         0.00000E+00
    0.11498E-06         0.25336E-09         0.00000E+00
    0.11501E-06         0.24686E-09         0.00000E+00
    0.11505E-06         0.24036E-09         0.00000E+00
    0.11508E-06         0.23383E-09         0.00000E+00
    0.11512E-06         0.22724E-09         0.00000E+00
    0.11515E-06         0.22051E-09         0.00000E+00
    0.11518E-06         0.21360E-09         0.00000E+00
    0.11521E-06         0.20640E-09         0.00000E+00
    0.11524E-06         0.19881E-09         0.00000E+00
    0.11526E-06         0.19070E-09         0.00000E+00
    0.11529E-06         0.18191E-09         0.00000E+00
    0.11531E-06         0.17221E-09         0.00000E+00
    0.11533E-06         0.16133E-09         0.00000E+00
    0.11535E-06         0.14893E-09         0.00000E+00
    0.11537E-06         0.13452E-09         0.00000E+00
    0.11539E-06         0.11748E-09         0.00000E+00
    0.11540E-06         0.96957E-10         0.00000E+00
    0.11541E-06         0.71740E-10         0.00000E+00
    0.11541E-06         0.40128E-10         0.00000E+00
    0.11541E-06         0.22472E-10         0.00000E+00
    0.11313E-06         0.00000E+00         0.00000E+00
    0.11314E-06         0.00000E+00         0.00000E+00
    0.11317E-06         0.00000E+00         0.00000E+00
    0.11321E-06         0.00000E+00         0.00000E+00
    0.11325E-06         0.00000E+00         0.00000E+00
    0.11331E-06         0.00000E+00         0.00000E+00
    0.11337E-06         0.00000E+00         0.00000E+00
    0.11344E-06         0.00000E+00         0.00000E+00
    0.11351E-06         0.00000E+00         0.00000E+00
    0.11358E-06        -0.37253E-20         0.00000E+00
    0.11365E-06         0.00000E+00         0.00000E+00
    0.11372E-06         0.37253E-20         0.00000E+00
    0.11379E-06         0.00000E+00         0.00000E+00
    0.11387E-06         0.00000E+00         0.00000E+00
    0.11394E-06         0.00000E+00         0.00000E+00
    0.11401E-06         0.00000E+00         0.00000E+00
    0.11408E-06         0.00000E+00         0.00000E+00
    0.11415E-06         0.37253E-20         0.00000E+00
    0.11422E-06         0.00000E+00         0.00000E+00
    0.11428E-06        -0.37253E-20         0.00000E+00
    0.11435E-06         0.00000E+00         0.00000E+00
    0.11442E-06         0.00000E+00         0.00000E+00
    0.11448E-06         0.00000E+00         0.00000E+00
    0.11454E-06         0.00000E+00         0.00000E+00
    0.11460E-06         0.00000E+00         0.00000E+00
    0.11466E-06         0.00000E+00         0.00000E+00
    0.11472E-06         0.00000E+00         0.00000E+00
    0.11478E-06         0.00000E+00         0.00000E+00
    0.11483E-06         0.00000E+00         0.00000E+00
    0.11489E-06         0.00000E+00         0.00000E+00
    0.11494E-06         0.00000E+00         0.00000E+00
    0.11499E-06         0.00000E+00         0.00000E+00
    0.11504E-06         0.00000E+00         0.00000E+00
    0.11509E-06         0.00000E+00         0.00000E+00
    0.11514E-06         0.00000E+00         0.00000E+00
    0.11518E-06         0.00000E+00         0.00000E+00
    0.11523E-06         0.00000E+00         0.00000E+00
    0.11527E-06         0.00000E+00         0.00000E+00
    0.11531E-06         0.00000E+00         0.00000E+00
    0.11535E-06        -0.46566E-20         0.00000E+00
    0.11539E-06        -0.37253E-20         0.00000E+00
    0.11543E-06         0.37253E-20         0.00000E+00
    0.11546E-06         0.37253E-20         0.00000E+00
    0.11550E-06         0.00000E+00         0.00000E+00
    0.11553E-06         0.00000E+00         0.00000E+00
    0.11556E-06         0.00000E+00         0.00000E+00
    0.11558E-06         0.00000E+00         0.00000E+00
    0.11560E-06         0.37253E-20         0.00000E+00
    0.11562E-06         0.93132E-21         0.00000E+00
    0.11563E-06         0.00000E+00         0.00000E+00
    0.11564E-06         0.74506E-20         0.00000E+00
CELL_DATA       5000
TENSORS stressef double 
    0.14272E+08        -0.88772E+05         0.00000E+00
   -0.88772E+05         0.19636E+08         0.00000E+00
    0.00000E+00         0.00000E+00         0.67816E+07
 
    0.13861E+08        -0.11532E+06         0.00000E+00
   -0.11532E+06         0.19605E+08         0.00000E+00
    0.00000E+00         0.00000E+00         0.66932E+07
 
    0.13505E+08        -0.12837E+06         0.00000E+00
   -0.12837E+06         0.19566E+08         0.00000E+00
    0.00000E+00         0.00000E+00         0.66141E+07
 
    0.13188E+08        -0.13413E+06         0.00000E+00
   -0.13413E+06         0.19523E+08         0.00000E+00
    0.00000E+00         0.00000E+00         0.65422E+07
 
    0.12903E+08        -0.13576E+06         0.00000E+00
   -0.13576E+06         0.19476E+08         0.00000E+00
    0.00000E+00         0.00000E+00         0.64759E+07
 
    0.12643E+08        -0.13494E+06         0.00000E+00
   -0.13494E+06         0.19428E+08         0.00000E+00
    0.00000E+00         0.00000E+00         0.64143E+07
 
    0.12403E+08        -0.13262E+06         0.00000E+00
   -0.13262E+06         0.19380E+08         0.00000E+00
    0.00000E+00         0.00000E+00         0.63567E+07
 
    0.12181E+08        -0.12931E+06         0.00000E+00
   -0.12931E+06         0.19332E+08         0.00000E+00
    0.00000E+00         0.00000E+00         0.63025E+07
 
    0.11972E+08        -0.12534E+06         0.00000E+00
   -0.12534E+06         0.19284E+08         0.00000E+00
    0.00000E+00         0.00000E+00         0.62513E+07
 
    0.11776E+08        -0.12089E+06         0.00000E+00
   -0.12089E+06         0.19238E+08         0.00000E+00
    0.00000E+00         0.00000E+00         0.62028E+07
 
    0.11590E+08        -0.11610E+06         0.00000E+00
   -0.11610E+06         0.19193E+08         0.00000E+00
    0.00000E+00         0.00000E+00         0.61566E+07
 
    0.11413E+08        -0.11105E+06         0.00000E+00
   -0.11105E+06         0.19150E+08         0.00000E+00
    0.00000E+00         0.00000E+00         0.61125E+07
 
    0.11244E+08        -0.10579E+06         0.00000E+00
   -0.10579E+06         0.19108E+08         0.00000E+00
    0.00000E+00         0.00000E+00         0.60704E+07
 
    0.11081E+08        -0.10035E+06         0.00000E+00
   -0.10035E+06         0.19068E+08         0.00000E+00
    0.00000E+00         0.00000E+00         0.60300E+07
 
    0.10925E+08        -0.94773E+05         0.00000E+00
   -0.94773E+05         0.19031E+08         0.00000E+00
    0.00000E+00         0.00000E+00         0.59911E+07
 
    0.10773E+08        -0.89065E+05         0.00000E+00
   -0.89065E+05         0.18995E+08         0.00000E+00
    0.00000E+00         0.00000E+00         0.59537E+07
 
    0.10626E+08        -0.83243E+05         0.00000E+00
   -0.83243E+05         0.18962E+08         0.00000E+00
    0.00000E+00         0.00000E+00         0.59176E+07
 
    0.10483E+08        -0.77314E+05         0.00000E+00
   -0.77314E+05         0.18930E+08         0.00000E+00
    0.00000E+00         0.00000E+00         0.58827E+07
 
    0.10343E+08        -0.71282E+05         0.00000E+00
   -0.71282E+05         0.18902E+08         0.00000E+00
    0.00000E+00         0.00000E+00         0.58490E+07
 
    0.10206E+08        -0.65150E+05         0.00000E+00
   -0.65150E+05         0.18875E+08         0.00000E+00
    0.00000E+00         0.00000E+00         0.58162E+07
 
    0.10071E+08        -0.58917E+05         0.00000E+00
   -0.58917E+05         0.18851E+08         0.00000E+00
    0.00000E+00         0.00000E+00         0.57844E+07
 
    0.99383E+07        -0.52579E+05         0.00000E+00
   -0.52579E+05         0.18829E+08         0.00000E+00
    0.00000E+00         0.00000E+00         0.57535E+07
 
    0.98068E+07        -0.46133E+05         0.00000E+00
   -0.46133E+05         0.18810E+08         0.00000E+00
    0.00000E+00         0.00000E+00         0.57233E+07
 
    0.96764E+07        -0.39571E+05         0.00000E+00
   -0.39571E+05         0.18793E+08         0.00000E+00
    0.00000E+00         0.00000E+00         0.56939E+07
 
    0.95467E+07        -0.32884E+05         0.00000E+00
   -0.32884E+05         0.18779E+08         0.00000E+00
    0.00000E+00         0.00000E+00         0.56651E+07
 
    0.94173E+07        -0.26062E+05         0.00000E+00
   -0.26062E+05         0.18768E+08         0.00000E+00
    0.00000E+00         0.00000E+00         0.56370E+07
 
    0.92880E+07        -0.19091E+05         0.00000E+00
   -0.19091E+05         0.18759E+08         0.00000E+00
    0.00000E+00         0.00000E+00         0.56094E+07
 
    0.91583E+07        -0.11957E+05         0.00000E+00
   -0.11957E+05         0.18753E+08         0.00000E+00
    0.00000E+00         0.00000E+00         0.55823E+07
 
    0.90280E+07        -0.46396E+04         0.00000E+00
   -0.46396E+04         0.18750E+08         0.00000E+00
    0.00000E+00         0.00000E+00         0.55556E+07
 
    0.88967E+07         0.28812E+04         0.00000E+00
    0.28812E+04         0.18750E+08         0.00000E+00
    0.00000E+00         0.00000E+00         0.55293E+07
 
    0.87641E+07         0.10631E+05         0.00000E+00
    0.10631E+05         0.18753E+08         0.00000E+00
    0.00000E+00         0.00000E+00         0.55034E+07
 
    0.86297E+07         0.18640E+05         0.00000E+00
    0.18640E+05         0.18759E+08         0.00000E+00
    0.00000E+00         0.00000E+00         0.54777E+07
 
    0.84933E+07         0.26943E+05         0.00000E+00
    0.26943E+05         0.18768E+08         0.00000E+00
    0.00000E+00         0.00000E+00         0.54523E+07
 
    0.83543E+07         0.35582E+05         0.00000E+00
    0.35582E+05         0.18781E+08         0.00000E+00
    0.00000E+00         0.00000E+00         0.54270E+07
 
    0.82125E+07         0.44607E+05         0.00000E+00
    0.44607E+05         0.18797E+08         0.00000E+00
    0.00000E+00         0.00000E+00         0.54019E+07
 
    0.80672E+07         0.54080E+05         0.00000E+00
    0.54080E+05         0.18817E+08         0.00000E+00
    0.00000E+00         0.00000E+00         0.53768E+07
 
    0.79181E+07         0.64073E+05         0.00000E+00
    0.64073E+05         0.18840E+08         0.00000E+00
    0.00000E+00         0.00000E+00         0.53517E+07
 
    0.77644E+07         0.74678E+05         0.00000E+00
    0.74678E+05         0.18868E+08         0.00000E+00
    0.00000E+00         0.00000E+00         0.53265E+07
 
    0.76056E+07         0.86009E+05         0.00000E+00
    0.86009E+05         0.18900E+08         0.00000E+00
    0.00000E+00         0.00000E+00         0.53012E+07
 
    0.74410E+07         0.98211E+05         0.00000E+00
    0.98211E+05         0.18937E+08         0.00000E+00
    0.00000E+00         0.00000E+00         0.52756E+07
 
    0.72696E+07         0.11147E+06         0.00000E+00
    0.11147E+06         0.18979E+08         0.00000E+00
    0.00000E+00         0.00000E+00         0.52497E+07
 
    0.70904E+07         0.12602E+06         0.00000E+00
    0.12602E+06         0.19026E+08         0.00000E+00
    0.00000E+00         0.00000E+00         0.52233E+07
 
    0.69022E+07         0.14220E+06         0.00000E+00
    0.14220E+06         0.19079E+08         0.00000E+00
    0.00000E+00         0.00000E+00         0.51963E+07
 
    0.67035E+07         0.16045E+06         0.00000E+00
    0.16045E+06         0.19139E+08         0.00000E+00
    0.00000E+00         0.00000E+00         0.51685E+07
 
    0.64923E+07         0.18140E+06         0.00000E+00
    0.18140E+06         0.19206E+08         0.00000E+00
    0.00000E+00         0.00000E+00         0.51398E+07
 
    0.62662E+07         0.20597E+06         0.00000E+00
    0.20597E+06         0.19282E+08         0.00000E+00
    0.00000E+00         0.00000E+00         0.51097E+07
 
    0.60220E+07         0.23552E+06         0.00000E+00
    0.23552E+06         0.19368E+08         0.00000E+00
    0.00000E+00         0.00000E+00         0.50781E+07
 
    0.57550E+07         0.27226E+06         0.00000E+00
    0.27226E+06         0.19466E+08         0.00000E+00
    0.00000E+00         0.00000E+00         0.50442E+07
 
    0.54588E+07         0.31981E+06         0.00000E+00
    0.31981E+06         0.19578E+08         0.00000E+00
    0.00000E+00         0.00000E+00         0.50074E+07
 
    0.51234E+07         0.38454E+06         0.00000E+00
    0.38454E+06         0.19707E+08         0.00000E+00
    0.00000E+00         0.00000E+00         0.49662E+07
 
    0.13085E+08        -0.61825E+05         0.00000E+00
   -0.61825E+05         0.18853E+08         0.00000E+00
    0.00000E+00         0.00000E+00         0.63876E+07
 
    0.12828E+08        -0.14622E+06         0.00000E+00
   -0.14622E+06         0.18864E+08         0.00000E+00
    0.00000E+00         0.00000E+00         0.63384E+07
 
    0.12568E+08        -0.20557E+06         0.00000E+00
   -0.20557E+06         0.18867E+08         0.00000E+00
    0.00000E+00         0.00000E+00         0.62870E+07
 
    0.12315E+08        -0.24639E+06         0.00000E+00
   -0.24639E+06         0.18863E+08         0.00000E+00
    0.00000E+00         0.00000E+00         0.62356E+07
 
    0.12073E+08        -0.27356E+06         0.00000E+00
   -0.27356E+06         0.18853E+08         0.00000E+00
    0.00000E+00         0.00000E+00         0.61851E+07
 
    0.11843E+08        -0.29062E+06         0.00000E+00
   -0.29062E+06         0.18838E+08         0.00000E+00
    0.00000E+00         0.00000E+00         0.61361E+07
 
    0.11624E+08        -0.30012E+06         0.00000E+00
   -0.30012E+06         0.18819E+08         0.00000E+00
    0.00000E+00         0.00000E+00         0.60886E+07
 
    0.11417E+08        -0.30393E+06         0.00000E+00
   -0.30393E+06         0.18797E+08         0.00000E+00
    0.00000E+00         0.00000E+00         0.60429E+07
 
    0.11220E+08        -0.30338E+06         0.00000E+00
   -0.30338E+06         0.18774E+08         0.00000E+00
    0.00000E+00         0.00000E+00         0.59987E+07
 
    0.11032E+08        -0.29947E+06         0.00000E+00
   -0.29947E+06         0.18748E+08         0.00000E+00
    0.00000E+00         0.00000E+00         0.59561E+07
 
    0.10853E+08        -0.29294E+06         0.00000E+00
   -0.29294E+06         0.18722E+08         0.00000E+00
    0.00000E+00         0.00000E+00         0.59151E+07
 
    0.10681E+08        -0.28432E+06         0.00000E+00
   -0.28432E+06         0.18696E+08         0.00000E+00
    0.00000E+00         0.00000E+00         0.58754E+07
 
    0.10516E+08        -0.27403E+06         0.00000E+00
   -0.27403E+06         0.18670E+08         0.00000E+00
    0.00000E+00         0.00000E+00         0.58372E+07
 
    0.10357E+08        -0.26238E+06         0.00000E+00
   -0.26238E+06         0.18644E+08         0.00000E+00
    0.00000E+00         0.00000E+00         0.58002E+07
 
    0.10203E+08        -0.24960E+06         0.00000E+00
   -0.24960E+06         0.18619E+08         0.00000E+00
    0.00000E+00         0.00000E+00         0.57644E+07
 
    0.10054E+08        -0.23587E+06         0.00000E+00
   -0.23587E+06         0.18595E+08         0.00000E+00
    0.00000E+00         0.00000E+00         0.57297E+07
 
    0.99088E+07        -0.22133E+06         0.00000E+00
   -0.22133E+06         0.18571E+08         0.00000E+00
    0.00000E+00         0.00000E+00         0.56960E+07
 
    0.97673E+07        -0.20609E+06         0.00000E+00
   -0.20609E+06         0.18550E+08         0.00000E+00
    0.00000E+00         0.00000E+00         0.56634E+07
 
    0.96288E+07        -0.19021E+06         0.00000E+00
   -0.19021E+06         0.18529E+08         0.00000E+00
    0.00000E+00         0.00000E+00         0.56316E+07
 
    0.94930E+07        -0.17376E+06         0.00000E+00
   -0.17376E+06         0.18511E+08         0.00000E+00
    0.00000E+00         0.00000E+00         0.56008E+07
 
    0.93595E+07        -0.15678E+06         0.00000E+00
   -0.15678E+06         0.18494E+08         0.00000E+00
    0.00000E+00         0.00000E+00         0.55707E+07
 
    0.92277E+07        -0.13929E+06         0.00000E+00
   -0.13929E+06         0.18479E+08         0.00000E+00
    0.00000E+00         0.00000E+00         0.55413E+07
 
    0.90974E+07        -0.12131E+06         0.00000E+00
   -0.12131E+06         0.18466E+08         0.00000E+00
    0.00000E+00         0.00000E+00         0.55127E+07
 
    0.89683E+07        -0.10283E+06         0.00000E+00
   -0.10283E+06         0.18455E+08         0.00000E+00
    0.00000E+00         0.00000E+00         0.54847E+07
 
    0.88399E+07        -0.83862E+05         0.00000E+00
   -0.83862E+05         0.18446E+08         0.00000E+00
    0.00000E+00         0.00000E+00         0.54572E+07
 
    0.87119E+07        -0.64375E+05         0.00000E+00
   -0.64375E+05         0.18440E+08         0.00000E+00
    0.00000E+00         0.00000E+00         0.54304E+07
 
    0.85841E+07        -0.44349E+05         0.00000E+00
   -0.44349E+05         0.18436E+08         0.00000E+00
    0.00000E+00         0.00000E+00         0.54040E+07
 
    0.84562E+07        -0.23751E+05         0.00000E+00
   -0.23751E+05         0.18434E+08         0.00000E+00
    0.00000E+00         0.00000E+00         0.53781E+07
 
    0.83277E+07        -0.25346E+04         0.00000E+00
   -0.25346E+04         0.18435E+08         0.00000E+00
    0.00000E+00         0.00000E+00         0.53526E+07
 
    0.81985E+07         0.19353E+05         0.00000E+00
    0.19353E+05         0.18439E+08         0.00000E+00
    0.00000E+00         0.00000E+00         0.53275E+07
 
    0.80682E+07         0.41978E+05         0.00000E+00
    0.41978E+05         0.18446E+08         0.00000E+00
    0.00000E+00         0.00000E+00         0.53028E+07
 
    0.79365E+07         0.65421E+05         0.00000E+00
    0.65421E+05         0.18455E+08         0.00000E+00
    0.00000E+00         0.00000E+00         0.52783E+07
 
    0.78031E+07         0.89775E+05         0.00000E+00
    0.89775E+05         0.18467E+08         0.00000E+00
    0.00000E+00         0.00000E+00         0.52541E+07
 
    0.76676E+07         0.11516E+06         0.00000E+00
    0.11516E+06         0.18483E+08         0.00000E+00
    0.00000E+00         0.00000E+00         0.52301E+07
 
    0.75298E+07         0.14170E+06         0.00000E+00
    0.14170E+06         0.18502E+08         0.00000E+00
    0.00000E+00         0.00000E+00         0.52063E+07
 
    0.73892E+07         0.16956E+06         0.00000E+00
    0.16956E+06         0.18524E+08         0.00000E+00
    0.00000E+00         0.00000E+00         0.51826E+07
 
    0.72454E+07         0.19895E+06         0.00000E+00
    0.19895E+06         0.18550E+08         0.00000E+00
    0.00000E+00         0.00000E+00         0.51591E+07
 
    0.70982E+07         0.23010E+06         0.00000E+00
    0.23010E+06         0.18580E+08         0.00000E+00
    0.00000E+00         0.00000E+00         0.51356E+07
 
    0.69470E+07         0.26329E+06         0.00000E+00
    0.26329E+06         0.18613E+08         0.00000E+00
    0.00000E+00         0.00000E+00         0.51121E+07
 
    0.67915E+07         0.29888E+06         0.00000E+00
    0.29888E+06         0.18651E+08         0.00000E+00
    0.00000E+00         0.00000E+00         0.50886E+07
 
    0.66310E+07         0.33732E+06         0.00000E+00
    0.33732E+06         0.18694E+08         0.00000E+00
    0.00000E+00         0.00000E+00         0.50650E+07
 
    0.64653E+07         0.37915E+06         0.00000E+00
    0.37915E+06         0.18741E+08         0.00000E+00
    0.00000E+00         0.00000E+00         0.50413E+07
 
    0.62937E+07         0.42508E+06         0.00000E+00
    0.42508E+06         0.18794E+08         0.00000E+00
    0.00000E+00         0.00000E+00         0.50175E+07
 
    0.61159E+07         0.47600E+06         0.00000E+00
    0.47600E+06         0.18852E+08         0.00000E+00
    0.00000E+00         0.00000E+00         0.49935E+07
 
    0.59315E+07         0.53306E+06         0.00000E+00
    0.53306E+06         0.18916E+08         0.00000E+00
    0.00000E+00         0.00000E+00         0.49694E+07
 
    0.57404E+07         0.59778E+06         0.00000E+00
    0.59778E+06         0.18986E+08         0.00000E+00
    0.00000E+00         0.00000E+00         0.49452E+07
 
    0.55430E+07         0.67212E+06         0.00000E+00
    0.67212E+06         0.19063E+08         0.00000E+00
    0.00000E+00         0.00000E+00         0.49211E+07
 
    0.53407E+07         0.75871E+06         0.00000E+00
    0.75871E+06         0.19146E+08         0.00000E+00
    0.00000E+00         0.00000E+00         0.48973E+07
 
    0.51373E+07         0.86097E+06         0.00000E+00
    0.86097E+06         0.19236E+08         0.00000E+00
    0.00000E+00         0.00000E+00         0.48747E+07
 
    0.49407E+07         0.98325E+06         0.00000E+00
    0.98325E+06         0.19333E+08         0.00000E+00
    0.00000E+00         0.00000E+00         0.48547E+07
 
    0.11884E+08        -0.51755E+05         0.00000E+00
   -0.51755E+05         0.18083E+08         0.00000E+00
    0.00000E+00         0.00000E+00         0.59935E+07
 
    0.11702E+08        -0.12666E+06         0.00000E+00
   -0.12666E+06         0.18084E+08         0.00000E+00
    0.00000E+00         0.00000E+00         0.59572E+07
 
    0.11517E+08        -0.19139E+06         0.00000E+00
   -0.19139E+06         0.18089E+08         0.00000E+00
    0.00000E+00         0.00000E+00         0.59212E+07
 
    0.11332E+08        -0.24475E+06         0.00000E+00
   -0.24475E+06         0.18093E+08         0.00000E+00
    0.00000E+00         0.00000E+00         0.58850E+07
 
    0.11147E+08        -0.28705E+06         0.00000E+00
   -0.28705E+06         0.18097E+08         0.00000E+00
    0.00000E+00         0.00000E+00         0.58487E+07
 
    0.10963E+08        -0.31927E+06         0.00000E+00
   -0.31927E+06         0.18099E+08         0.00000E+00
    0.00000E+00         0.00000E+00         0.58125E+07
 
    0.10783E+08        -0.34264E+06         0.00000E+00
   -0.34264E+06         0.18099E+08         0.00000E+00
    0.00000E+00         0.00000E+00         0.57765E+07
 
    0.10607E+08        -0.35834E+06         0.00000E+00
   -0.35834E+06         0.18097E+08         0.00000E+00
    0.00000E+00         0.00000E+00         0.57409E+07
 
    0.10436E+08        -0.36750E+06         0.00000E+00
   -0.36750E+06         0.18093E+08         0.00000E+00
    0.00000E+00         0.00000E+00         0.57059E+07
 
    0.10269E+08        -0.37108E+06         0.00000E+00
   -0.37108E+06         0.18088E+08         0.00000E+00
    0.00000E+00         0.00000E+00         0.56715E+07
 
    0.10107E+08        -0.36993E+06         0.00000E+00
   -0.36993E+06         0.18081E+08         0.00000E+00
    0.00000E+00         0.00000E+00         0.56377E+07
 
    0.99501E+07        -0.36474E+06         0.00000E+00
   -0.36474E+06         0.18073E+08         0.00000E+00
    0.00000E+00         0.00000E+00         0.56047E+07
 
    0.97970E+07        -0.35612E+06         0.00000E+00
   -0.35612E+06         0.18065E+08         0.00000E+00
    0.00000E+00         0.00000E+00         0.55724E+07
 
    0.96481E+07        -0.34454E+06         0.00000E+00
   -0.34454E+06         0.18056E+08         0.00000E+00
    0.00000E+00         0.00000E+00         0.55408E+07
 
    0.95029E+07        -0.33042E+06         0.00000E+00
   -0.33042E+06         0.18047E+08         0.00000E+00
    0.00000E+00         0.00000E+00         0.55099E+07
 
    0.93612E+07        -0.31409E+06         0.00000E+00
   -0.31409E+06         0.18037E+08         0.00000E+00
    0.00000E+00         0.00000E+00         0.54797E+07
 
    0.92227E+07        -0.29581E+06         0.00000E+00
   -0.29581E+06         0.18029E+08         0.00000E+00
    0.00000E+00         0.00000E+00         0.54502E+07
 
    0.90869E+07        -0.27582E+06         0.00000E+00
   -0.27582E+06         0.18020E+08         0.00000E+00
    0.00000E+00         0.00000E+00         0.54214E+07
 
    0.89536E+07        -0.25429E+06         0.00000E+00
   -0.25429E+06         0.18012E+08         0.00000E+00
    0.00000E+00         0.00000E+00         0.53932E+07
 
    0.88226E+07        -0.23136E+06         0.00000E+00
   -0.23136E+06         0.18006E+08         0.00000E+00
    0.00000E+00         0.00000E+00         0.53656E+07
 
    0.86934E+07        -0.20715E+06         0.00000E+00
   -0.20715E+06         0.18000E+08         0.00000E+00
    0.00000E+00         0.00000E+00         0.53386E+07
 
    0.85657E+07        -0.18174E+06         0.00000E+00
   -0.18174E+06         0.17995E+08         0.00000E+00
    0.00000E+00         0.00000E+00         0.53122E+07
 
    0.84395E+07        -0.15519E+06         0.00000E+00
   -0.15519E+06         0.17992E+08         0.00000E+00
    0.00000E+00         0.00000E+00         0.52863E+07
 
    0.83142E+07        -0.12754E+06         0.00000E+00
   -0.12754E+06         0.17990E+08         0.00000E+00
    0.00000E+00         0.00000E+00         0.52609E+07
 
    0.81897E+07        -0.98819E+05         0.00000E+00
   -0.98819E+05         0.17990E+08         0.00000E+00
    0.00000E+00         0.00000E+00         0.52359E+07
 
    0.80657E+07        -0.69019E+05         0.00000E+00
   -0.69019E+05         0.17992E+08         0.00000E+00
    0.00000E+00         0.00000E+00         0.52115E+07
 
    0.79420E+07        -0.38132E+05         0.00000E+00
   -0.38132E+05         0.17995E+08         0.00000E+00
    0.00000E+00         0.00000E+00         0.51874E+07
 
    0.78184E+07        -0.61287E+04         0.00000E+00
   -0.61287E+04         0.18001E+08         0.00000E+00
    0.00000E+00         0.00000E+00         0.51638E+07
 
    0.76945E+07         0.27038E+05         0.00000E+00
    0.27038E+05         0.18008E+08         0.00000E+00
    0.00000E+00         0.00000E+00         0.51405E+07
 
    0.75702E+07         0.61430E+05         0.00000E+00
    0.61430E+05         0.18018E+08         0.00000E+00
    0.00000E+00         0.00000E+00         0.51176E+07
 
    0.74452E+07         0.97130E+05         0.00000E+00
    0.97130E+05         0.18030E+08         0.00000E+00
    0.00000E+00         0.00000E+00         0.50950E+07
 
    0.73193E+07         0.13424E+06         0.00000E+00
    0.13424E+06         0.18044E+08         0.00000E+00
    0.00000E+00         0.00000E+00         0.50728E+07
 
    0.71924E+07         0.17288E+06         0.00000E+00
    0.17288E+06         0.18062E+08         0.00000E+00
    0.00000E+00         0.00000E+00         0.50508E+07
 
    0.70641E+07         0.21319E+06         0.00000E+00
    0.21319E+06         0.18081E+08         0.00000E+00
    0.00000E+00         0.00000E+00         0.50291E+07
 
    0.69343E+07         0.25535E+06         0.00000E+00
    0.25535E+06         0.18104E+08         0.00000E+00
    0.00000E+00         0.00000E+00         0.50076E+07
 
    0.68027E+07         0.29956E+06         0.00000E+00
    0.29956E+06         0.18129E+08         0.00000E+00
    0.00000E+00         0.00000E+00         0.49864E+07
 
    0.66693E+07         0.34606E+06         0.00000E+00
    0.34606E+06         0.18158E+08         0.00000E+00
    0.00000E+00         0.00000E+00         0.49654E+07
 
    0.65338E+07         0.39512E+06         0.00000E+00
    0.39512E+06         0.18189E+08         0.00000E+00
    0.00000E+00         0.00000E+00         0.49446E+07
 
    0.63961E+07         0.44708E+06         0.00000E+00
    0.44708E+06         0.18224E+08         0.00000E+00
    0.00000E+00         0.00000E+00         0.49240E+07
 
    0.62561E+07         0.50231E+06         0.00000E+00
    0.50231E+06         0.18262E+08         0.00000E+00
    0.00000E+00         0.00000E+00         0.49037E+07
 
    0.61138E+07         0.56126E+06         0.00000E+00
    0.56126E+06         0.18304E+08         0.00000E+00
    0.00000E+00         0.00000E+00         0.48835E+07
 
    0.59691E+07         0.62443E+06         0.00000E+00
    0.62443E+06         0.18349E+08         0.00000E+00
    0.00000E+00         0.00000E+00         0.48636E+07
 
    0.58223E+07         0.69239E+06         0.00000E+00
    0.69239E+06         0.18398E+08         0.00000E+00
    0.00000E+00         0.00000E+00         0.48440E+07
 
    0.56736E+07         0.76582E+06         0.00000E+00
    0.76582E+06         0.18450E+08         0.00000E+00
    0.00000E+00         0.00000E+00         0.48247E+07
 
    0.55234E+07         0.84540E+06         0.00000E+00
    0.84540E+06         0.18505E+08         0.00000E+00
    0.00000E+00         0.00000E+00         0.48057E+07
 
    0.53726E+07         0.93188E+06         0.00000E+00
    0.93188E+06         0.18564E+08         0.00000E+00
    0.00000E+00         0.00000E+00         0.47873E+07
 
    0.52221E+07         0.10259E+07         0.00000E+00
    0.10259E+07         0.18625E+08         0.00000E+00
    0.00000E+00         0.00000E+00         0.47694E+07
 
    0.50732E+07         0.11280E+07         0.00000E+00
    0.11280E+07         0.18688E+08         0.00000E+00
    0.00000E+00         0.00000E+00         0.47522E+07
 
    0.49269E+07         0.12379E+07         0.00000E+00
    0.12379E+07         0.18752E+08         0.00000E+00
    0.00000E+00         0.00000E+00         0.47357E+07
 
    0.47827E+07         0.13543E+07         0.00000E+00
    0.13543E+07         0.18813E+08         0.00000E+00
    0.00000E+00         0.00000E+00         0.47192E+07
 
    0.10731E+08        -0.43761E+05         0.00000E+00
   -0.43761E+05         0.17312E+08         0.00000E+00
    0.00000E+00         0.00000E+00         0.56085E+07
 
    0.10598E+08        -0.11097E+06         0.00000E+00
   -0.11097E+06         0.17315E+08         0.00000E+00
    0.00000E+00         0.00000E+00         0.55826E+07
 
    0.10463E+08        -0.16929E+06         0.00000E+00
   -0.16929E+06         0.17319E+08         0.00000E+00
    0.00000E+00         0.00000E+00         0.55563E+07
 
    0.10324E+08        -0.21943E+06         0.00000E+00
   -0.21943E+06         0.17324E+08         0.00000E+00
    0.00000E+00         0.00000E+00         0.55297E+07
 
    0.10184E+08        -0.26167E+06         0.00000E+00
   -0.26167E+06         0.17330E+08         0.00000E+00
    0.00000E+00         0.00000E+00         0.55029E+07
 
    0.10043E+08        -0.29628E+06         0.00000E+00
   -0.29628E+06         0.17337E+08         0.00000E+00
    0.00000E+00         0.00000E+00         0.54760E+07
 
    0.99014E+07        -0.32361E+06         0.00000E+00
   -0.32361E+06         0.17344E+08         0.00000E+00
    0.00000E+00         0.00000E+00         0.54490E+07
 
    0.97599E+07        -0.34413E+06         0.00000E+00
   -0.34413E+06         0.17350E+08         0.00000E+00
    0.00000E+00         0.00000E+00         0.54220E+07
 
    0.96191E+07        -0.35834E+06         0.00000E+00
   -0.35834E+06         0.17356E+08         0.00000E+00
    0.00000E+00         0.00000E+00         0.53951E+07
 
    0.94796E+07        -0.36677E+06         0.00000E+00
   -0.36677E+06         0.17362E+08         0.00000E+00
    0.00000E+00         0.00000E+00         0.53683E+07
 
    0.93415E+07        -0.36994E+06         0.00000E+00
   -0.36994E+06         0.17367E+08         0.00000E+00
    0.00000E+00         0.00000E+00         0.53417E+07
 
    0.92052E+07        -0.36836E+06         0.00000E+00
   -0.36836E+06         0.17372E+08         0.00000E+00
    0.00000E+00         0.00000E+00         0.53154E+07
 
    0.90707E+07        -0.36249E+06         0.00000E+00
   -0.36249E+06         0.17376E+08         0.00000E+00
    0.00000E+00         0.00000E+00         0.52893E+07
 
    0.89381E+07        -0.35276E+06         0.00000E+00
   -0.35276E+06         0.17380E+08         0.00000E+00
    0.00000E+00         0.00000E+00         0.52635E+07
 
    0.88075E+07        -0.33953E+06         0.00000E+00
   -0.33953E+06         0.17383E+08         0.00000E+00
    0.00000E+00         0.00000E+00         0.52381E+07
 
    0.86788E+07        -0.32316E+06         0.00000E+00
   -0.32316E+06         0.17387E+08         0.00000E+00
    0.00000E+00         0.00000E+00         0.52131E+07
 
    0.85519E+07        -0.30393E+06         0.00000E+00
   -0.30393E+06         0.17390E+08         0.00000E+00
    0.00000E+00         0.00000E+00         0.51884E+07
 
    0.84267E+07        -0.28209E+06         0.00000E+00
   -0.28209E+06         0.17394E+08         0.00000E+00
    0.00000E+00         0.00000E+00         0.51640E+07
 
    0.83030E+07        -0.25786E+06         0.00000E+00
   -0.25786E+06         0.17397E+08         0.00000E+00
    0.00000E+00         0.00000E+00         0.51401E+07
 
    0.81808E+07        -0.23142E+06         0.00000E+00
   -0.23142E+06         0.17402E+08         0.00000E+00
    0.00000E+00         0.00000E+00         0.51165E+07
 
    0.80599E+07        -0.20292E+06         0.00000E+00
   -0.20292E+06         0.17407E+08         0.00000E+00
    0.00000E+00         0.00000E+00         0.50933E+07
 
    0.79401E+07        -0.17249E+06         0.00000E+00
   -0.17249E+06         0.17413E+08         0.00000E+00
    0.00000E+00         0.00000E+00         0.50705E+07
 
    0.78212E+07        -0.14022E+06         0.00000E+00
   -0.14022E+06         0.17419E+08         0.00000E+00
    0.00000E+00         0.00000E+00         0.50481E+07
 
    0.77032E+07        -0.10619E+06         0.00000E+00
   -0.10619E+06         0.17427E+08         0.00000E+00
    0.00000E+00         0.00000E+00         0.50260E+07
 
    0.75858E+07        -0.70448E+05         0.00000E+00
   -0.70448E+05         0.17435E+08         0.00000E+00
    0.00000E+00         0.00000E+00         0.50042E+07
 
    0.74688E+07        -0.33020E+05         0.00000E+00
   -0.33020E+05         0.17445E+08         0.00000E+00
    0.00000E+00         0.00000E+00         0.49828E+07
 
    0.73522E+07         0.60832E+04         0.00000E+00
    0.60832E+04         0.17457E+08         0.00000E+00
    0.00000E+00         0.00000E+00         0.49618E+07
 
    0.72358E+07         0.46871E+05         0.00000E+00
    0.46871E+05         0.17469E+08         0.00000E+00
    0.00000E+00         0.00000E+00         0.49410E+07
 
    0.71194E+07         0.89374E+05         0.00000E+00
    0.89374E+05         0.17484E+08         0.00000E+00
    0.00000E+00         0.00000E+00         0.49206E+07
 
    0.70028E+07         0.13364E+06         0.00000E+00
    0.13364E+06         0.17500E+08         0.00000E+00
    0.00000E+00         0.00000E+00         0.49005E+07
 
    0.68861E+07         0.17973E+06         0.00000E+00
    0.17973E+06         0.17517E+08         0.00000E+00
    0.00000E+00         0.00000E+00         0.48807E+07
 
    0.67689E+07         0.22774E+06         0.00000E+00
    0.22774E+06         0.17537E+08         0.00000E+00
    0.00000E+00         0.00000E+00         0.48611E+07
 
    0.66513E+07         0.27778E+06         0.00000E+00
    0.27778E+06         0.17558E+08         0.00000E+00
    0.00000E+00         0.00000E+00         0.48419E+07
 
    0.65331E+07         0.32996E+06         0.00000E+00
    0.32996E+06         0.17582E+08         0.00000E+00
    0.00000E+00         0.00000E+00         0.48230E+07
 
    0.64143E+07         0.38444E+06         0.00000E+00
    0.38444E+06         0.17607E+08         0.00000E+00
    0.00000E+00         0.00000E+00         0.48043E+07
 
    0.62948E+07         0.44139E+06         0.00000E+00
    0.44139E+06         0.17635E+08         0.00000E+00
    0.00000E+00         0.00000E+00         0.47860E+07
 
    0.61746E+07         0.50100E+06         0.00000E+00
    0.50100E+06         0.17665E+08         0.00000E+00
    0.00000E+00         0.00000E+00         0.47679E+07
 
    0.60536E+07         0.56350E+06         0.00000E+00
    0.56350E+06         0.17697E+08         0.00000E+00
    0.00000E+00         0.00000E+00         0.47501E+07
 
    0.59320E+07         0.62911E+06         0.00000E+00
    0.62911E+06         0.17731E+08         0.00000E+00
    0.00000E+00         0.00000E+00         0.47326E+07
 
    0.58097E+07         0.69810E+06         0.00000E+00
    0.69810E+06         0.17768E+08         0.00000E+00
    0.00000E+00         0.00000E+00         0.47155E+07
 
    0.56870E+07         0.77075E+06         0.00000E+00
    0.77075E+06         0.17806E+08         0.00000E+00
    0.00000E+00         0.00000E+00         0.46987E+07
 
    0.55640E+07         0.84734E+06         0.00000E+00
    0.84734E+06         0.17847E+08         0.00000E+00
    0.00000E+00         0.00000E+00         0.46822E+07
 
    0.54411E+07         0.92817E+06         0.00000E+00
    0.92817E+06         0.17890E+08         0.00000E+00
    0.00000E+00         0.00000E+00         0.46662E+07
 
    0.53185E+07         0.10135E+07         0.00000E+00
    0.10135E+07         0.17934E+08         0.00000E+00
    0.00000E+00         0.00000E+00         0.46506E+07
 
    0.51967E+07         0.11036E+07         0.00000E+00
    0.11036E+07         0.17980E+08         0.00000E+00
    0.00000E+00         0.00000E+00         0.46354E+07
 
    0.50761E+07         0.11987E+07         0.00000E+00
    0.11987E+07         0.18028E+08         0.00000E+00
    0.00000E+00         0.00000E+00         0.46207E+07
 
    0.49572E+07         0.12988E+07         0.00000E+00
    0.12988E+07         0.18076E+08         0.00000E+00
    0.00000E+00         0.00000E+00         0.46066E+07
 
    0.48405E+07         0.14040E+07         0.00000E+00
    0.14040E+07         0.18124E+08         0.00000E+00
    0.00000E+00         0.00000E+00         0.45929E+07
 
    0.47263E+07         0.15145E+07         0.00000E+00
    0.15145E+07         0.18173E+08         0.00000E+00
    0.00000E+00         0.00000E+00         0.45799E+07
 
    0.46159E+07         0.16307E+07         0.00000E+00
    0.16307E+07         0.18222E+08         0.00000E+00
    0.00000E+00         0.00000E+00         0.45676E+07
 
    0.96342E+07        -0.36300E+05         0.00000E+00
   -0.36300E+05         0.16545E+08         0.00000E+00
    0.00000E+00         0.00000E+00         0.52358E+07
 
    0.95403E+07        -0.93079E+05         0.00000E+00
   -0.93079E+05         0.16547E+08         0.00000E+00
    0.00000E+00         0.00000E+00         0.52175E+07
 
    0.94422E+07        -0.14326E+06         0.00000E+00
   -0.14326E+06         0.16552E+08         0.00000E+00
    0.00000E+00         0.00000E+00         0.51988E+07
 
    0.93403E+07        -0.18685E+06         0.00000E+00
   -0.18685E+06         0.16558E+08         0.00000E+00
    0.00000E+00         0.00000E+00         0.51797E+07
 
    0.92354E+07        -0.22403E+06         0.00000E+00
   -0.22403E+06         0.16566E+08         0.00000E+00
    0.00000E+00         0.00000E+00         0.51603E+07
 
    0.91279E+07        -0.25503E+06         0.00000E+00
   -0.25503E+06         0.16575E+08         0.00000E+00
    0.00000E+00         0.00000E+00         0.51405E+07
 
    0.90184E+07        -0.28006E+06         0.00000E+00
   -0.28006E+06         0.16584E+08         0.00000E+00
    0.00000E+00         0.00000E+00         0.51205E+07
 
    0.89074E+07        -0.29937E+06         0.00000E+00
   -0.29937E+06         0.16595E+08         0.00000E+00
    0.00000E+00         0.00000E+00         0.51004E+07
 
    0.87952E+07        -0.31321E+06         0.00000E+00
   -0.31321E+06         0.16605E+08         0.00000E+00
    0.00000E+00         0.00000E+00         0.50801E+07
 
    0.86822E+07        -0.32185E+06         0.00000E+00
   -0.32185E+06         0.16616E+08         0.00000E+00
    0.00000E+00         0.00000E+00         0.50597E+07
 
    0.85688E+07        -0.32559E+06         0.00000E+00
   -0.32559E+06         0.16628E+08         0.00000E+00
    0.00000E+00         0.00000E+00         0.50393E+07
 
    0.84553E+07        -0.32470E+06         0.00000E+00
   -0.32470E+06         0.16639E+08         0.00000E+00
    0.00000E+00         0.00000E+00         0.50189E+07
 
    0.83418E+07        -0.31949E+06         0.00000E+00
   -0.31949E+06         0.16651E+08         0.00000E+00
    0.00000E+00         0.00000E+00         0.49985E+07
 
    0.82285E+07        -0.31022E+06         0.00000E+00
   -0.31022E+06         0.16663E+08         0.00000E+00
    0.00000E+00         0.00000E+00         0.49782E+07
 
    0.81157E+07        -0.29717E+06         0.00000E+00
   -0.29717E+06         0.16674E+08         0.00000E+00
    0.00000E+00         0.00000E+00         0.49580E+07
 
    0.80034E+07        -0.28058E+06         0.00000E+00
   -0.28058E+06         0.16686E+08         0.00000E+00
    0.00000E+00         0.00000E+00         0.49379E+07
 
    0.78916E+07        -0.26069E+06         0.00000E+00
   -0.26069E+06         0.16698E+08         0.00000E+00
    0.00000E+00         0.00000E+00         0.49180E+07
 
    0.77804E+07        -0.23770E+06         0.00000E+00
   -0.23770E+06         0.16711E+08         0.00000E+00
    0.00000E+00         0.00000E+00         0.48982E+07
 
    0.76699E+07        -0.21180E+06         0.00000E+00
   -0.21180E+06         0.16723E+08         0.00000E+00
    0.00000E+00         0.00000E+00         0.48786E+07
 
    0.75600E+07        -0.18316E+06         0.00000E+00
   -0.18316E+06         0.16736E+08         0.00000E+00
    0.00000E+00         0.00000E+00         0.48592E+07
 
    0.74506E+07        -0.15193E+06         0.00000E+00
   -0.15193E+06         0.16750E+08         0.00000E+00
    0.00000E+00         0.00000E+00         0.48400E+07
 
    0.73419E+07        -0.11822E+06         0.00000E+00
   -0.11822E+06         0.16763E+08         0.00000E+00
    0.00000E+00         0.00000E+00         0.48211E+07
 
    0.72336E+07        -0.82143E+05         0.00000E+00
   -0.82143E+05         0.16778E+08         0.00000E+00
    0.00000E+00         0.00000E+00         0.48023E+07
 
    0.71258E+07        -0.43781E+05         0.00000E+00
   -0.43781E+05         0.16793E+08         0.00000E+00
    0.00000E+00         0.00000E+00         0.47838E+07
 
    0.70183E+07        -0.31967E+04         0.00000E+00
   -0.31967E+04         0.16809E+08         0.00000E+00
    0.00000E+00         0.00000E+00         0.47655E+07
 
    0.69112E+07         0.39563E+05         0.00000E+00
    0.39563E+05         0.16826E+08         0.00000E+00
    0.00000E+00         0.00000E+00         0.47474E+07
 
    0.68044E+07         0.84471E+05         0.00000E+00
    0.84471E+05         0.16843E+08         0.00000E+00
    0.00000E+00         0.00000E+00         0.47296E+07
 
    0.66978E+07         0.13152E+06         0.00000E+00
    0.13152E+06         0.16862E+08         0.00000E+00
    0.00000E+00         0.00000E+00         0.47120E+07
 
    0.65913E+07         0.18070E+06         0.00000E+00
    0.18070E+06         0.16882E+08         0.00000E+00
    0.00000E+00         0.00000E+00         0.46946E+07
 
    0.64850E+07         0.23205E+06         0.00000E+00
    0.23205E+06         0.16903E+08         0.00000E+00
    0.00000E+00         0.00000E+00         0.46775E+07
 
    0.63787E+07         0.28561E+06         0.00000E+00
    0.28561E+06         0.16925E+08         0.00000E+00
    0.00000E+00         0.00000E+00         0.46607E+07
 
    0.62724E+07         0.34141E+06         0.00000E+00
    0.34141E+06         0.16948E+08         0.00000E+00
    0.00000E+00         0.00000E+00         0.46441E+07
 
    0.61661E+07         0.39954E+06         0.00000E+00
    0.39954E+06         0.16973E+08         0.00000E+00
    0.00000E+00         0.00000E+00         0.46278E+07
 
    0.60598E+07         0.46007E+06         0.00000E+00
    0.46007E+06         0.16999E+08         0.00000E+00
    0.00000E+00         0.00000E+00         0.46117E+07
 
    0.59535E+07         0.52309E+06         0.00000E+00
    0.52309E+06         0.17026E+08         0.00000E+00
    0.00000E+00         0.00000E+00         0.45959E+07
 
    0.58473E+07         0.58871E+06         0.00000E+00
    0.58871E+06         0.17055E+08         0.00000E+00
    0.00000E+00         0.00000E+00         0.45804E+07
 
    0.57411E+07         0.65705E+06         0.00000E+00
    0.65705E+06         0.17085E+08         0.00000E+00
    0.00000E+00         0.00000E+00         0.45652E+07
 
    0.56351E+07         0.72822E+06         0.00000E+00
    0.72822E+06         0.17116E+08         0.00000E+00
    0.00000E+00         0.00000E+00         0.45503E+07
 
    0.55293E+07         0.80237E+06         0.00000E+00
    0.80237E+06         0.17149E+08         0.00000E+00
    0.00000E+00         0.00000E+00         0.45357E+07
 
    0.54239E+07         0.87962E+06         0.00000E+00
    0.87962E+06         0.17183E+08         0.00000E+00
    0.00000E+00         0.00000E+00         0.45214E+07
 
    0.53190E+07         0.96010E+06         0.00000E+00
    0.96010E+06         0.17218E+08         0.00000E+00
    0.00000E+00         0.00000E+00         0.45075E+07
 
    0.52149E+07         0.10439E+07         0.00000E+00
    0.10439E+07         0.17255E+08         0.00000E+00
    0.00000E+00         0.00000E+00         0.44939E+07
 
    0.51117E+07         0.11313E+07         0.00000E+00
    0.11313E+07         0.17292E+08         0.00000E+00
    0.00000E+00         0.00000E+00         0.44807E+07
 
    0.50097E+07         0.12221E+07         0.00000E+00
    0.12221E+07         0.17330E+08         0.00000E+00
    0.00000E+00         0.00000E+00         0.44679E+07
 
    0.49091E+07         0.13167E+07         0.00000E+00
    0.13167E+07         0.17369E+08         0.00000E+00
    0.00000E+00         0.00000E+00         0.44556E+07
 
    0.48103E+07         0.14149E+07         0.00000E+00
    0.14149E+07         0.17408E+08         0.00000E+00
    0.00000E+00         0.00000E+00         0.44437E+07
 
    0.47136E+07         0.15169E+07         0.00000E+00
    0.15169E+07         0.17447E+08         0.00000E+00
    0.00000E+00         0.00000E+00         0.44322E+07
 
    0.46193E+07         0.16227E+07         0.00000E+00
    0.16227E+07         0.17487E+08         0.00000E+00
    0.00000E+00         0.00000E+00         0.44212E+07
 
    0.45278E+07         0.17324E+07         0.00000E+00
    0.17324E+07         0.17526E+08         0.00000E+00
    0.00000E+00         0.00000E+00         0.44108E+07
 
    0.44394E+07         0.18456E+07         0.00000E+00
    0.18456E+07         0.17565E+08         0.00000E+00
    0.00000E+00         0.00000E+00         0.44009E+07
 
    0.86031E+07        -0.29155E+05         0.00000E+00
   -0.29155E+05         0.15785E+08         0.00000E+00
    0.00000E+00         0.00000E+00         0.48776E+07
 
    0.85392E+07        -0.74909E+05         0.00000E+00
   -0.74909E+05         0.15788E+08         0.00000E+00
    0.00000E+00         0.00000E+00         0.48654E+07
 
    0.84707E+07        -0.11532E+06         0.00000E+00
   -0.11532E+06         0.15792E+08         0.00000E+00
    0.00000E+00         0.00000E+00         0.48526E+07
 
    0.83981E+07        -0.15048E+06         0.00000E+00
   -0.15048E+06         0.15799E+08         0.00000E+00
    0.00000E+00         0.00000E+00         0.48394E+07
 
    0.83218E+07        -0.18045E+06         0.00000E+00
   -0.18045E+06         0.15807E+08         0.00000E+00
    0.00000E+00         0.00000E+00         0.48258E+07
 
    0.82422E+07        -0.20533E+06         0.00000E+00
   -0.20533E+06         0.15817E+08         0.00000E+00
    0.00000E+00         0.00000E+00         0.48119E+07
 
    0.81597E+07        -0.22522E+06         0.00000E+00
   -0.22522E+06         0.15828E+08         0.00000E+00
    0.00000E+00         0.00000E+00         0.47976E+07
 
    0.80747E+07        -0.24027E+06         0.00000E+00
   -0.24027E+06         0.15840E+08         0.00000E+00
    0.00000E+00         0.00000E+00         0.47830E+07
 
    0.79875E+07        -0.25063E+06         0.00000E+00
   -0.25063E+06         0.15854E+08         0.00000E+00
    0.00000E+00         0.00000E+00         0.47682E+07
 
    0.78985E+07        -0.25643E+06         0.00000E+00
   -0.25643E+06         0.15868E+08         0.00000E+00
    0.00000E+00         0.00000E+00         0.47532E+07
 
    0.78080E+07        -0.25787E+06         0.00000E+00
   -0.25787E+06         0.15882E+08         0.00000E+00
    0.00000E+00         0.00000E+00         0.47380E+07
 
    0.77161E+07        -0.25509E+06         0.00000E+00
   -0.25509E+06         0.15897E+08         0.00000E+00
    0.00000E+00         0.00000E+00         0.47227E+07
 
    0.76232E+07        -0.24827E+06         0.00000E+00
   -0.24827E+06         0.15913E+08         0.00000E+00
    0.00000E+00         0.00000E+00         0.47073E+07
 
    0.75295E+07        -0.23758E+06         0.00000E+00
   -0.23758E+06         0.15929E+08         0.00000E+00
    0.00000E+00         0.00000E+00         0.46918E+07
 
    0.74352E+07        -0.22319E+06         0.00000E+00
   -0.22319E+06         0.15946E+08         0.00000E+00
    0.00000E+00         0.00000E+00         0.46762E+07
 
    0.73403E+07        -0.20527E+06         0.00000E+00
   -0.20527E+06         0.15963E+08         0.00000E+00
    0.00000E+00         0.00000E+00         0.46607E+07
 
    0.72451E+07        -0.18397E+06         0.00000E+00
   -0.18397E+06         0.15980E+08         0.00000E+00
    0.00000E+00         0.00000E+00         0.46451E+07
 
    0.71497E+07        -0.15944E+06         0.00000E+00
   -0.15944E+06         0.15998E+08         0.00000E+00
    0.00000E+00         0.00000E+00         0.46296E+07
 
    0.70541E+07        -0.13182E+06         0.00000E+00
   -0.13182E+06         0.16016E+08         0.00000E+00
    0.00000E+00         0.00000E+00         0.46141E+07
 
    0.69584E+07        -0.10124E+06         0.00000E+00
   -0.10124E+06         0.16035E+08         0.00000E+00
    0.00000E+00         0.00000E+00         0.45986E+07
 
    0.68627E+07        -0.67801E+05         0.00000E+00
   -0.67801E+05         0.16054E+08         0.00000E+00
    0.00000E+00         0.00000E+00         0.45832E+07
 
    0.67671E+07        -0.31620E+05         0.00000E+00
   -0.31620E+05         0.16073E+08         0.00000E+00
    0.00000E+00         0.00000E+00         0.45680E+07
 
    0.66715E+07         0.72184E+04         0.00000E+00
    0.72184E+04         0.16093E+08         0.00000E+00
    0.00000E+00         0.00000E+00         0.45528E+07
 
    0.65760E+07         0.48639E+05         0.00000E+00
    0.48639E+05         0.16113E+08         0.00000E+00
    0.00000E+00         0.00000E+00         0.45378E+07
 
    0.64806E+07         0.92577E+05         0.00000E+00
    0.92577E+05         0.16134E+08         0.00000E+00
    0.00000E+00         0.00000E+00         0.45229E+07
 
    0.63853E+07         0.13898E+06         0.00000E+00
    0.13898E+06         0.16155E+08         0.00000E+00
    0.00000E+00         0.00000E+00         0.45081E+07
 
    0.62901E+07         0.18782E+06         0.00000E+00
    0.18782E+06         0.16177E+08         0.00000E+00
    0.00000E+00         0.00000E+00         0.44935E+07
 
    0.61951E+07         0.23906E+06         0.00000E+00
    0.23906E+06         0.16200E+08         0.00000E+00
    0.00000E+00         0.00000E+00         0.44790E+07
 
    0.61003E+07         0.29269E+06         0.00000E+00
    0.29269E+06         0.16223E+08         0.00000E+00
    0.00000E+00         0.00000E+00         0.44647E+07
 
    0.60056E+07         0.34871E+06         0.00000E+00
    0.34871E+06         0.16247E+08         0.00000E+00
    0.00000E+00         0.00000E+00         0.44506E+07
 
    0.59111E+07         0.40713E+06         0.00000E+00
    0.40713E+06         0.16272E+08         0.00000E+00
    0.00000E+00         0.00000E+00         0.44367E+07
 
    0.58169E+07         0.46795E+06         0.00000E+00
    0.46795E+06         0.16298E+08         0.00000E+00
    0.00000E+00         0.00000E+00         0.44230E+07
 
    0.57229E+07         0.53122E+06         0.00000E+00
    0.53122E+06         0.16324E+08         0.00000E+00
    0.00000E+00         0.00000E+00         0.44094E+07
 
    0.56292E+07         0.59696E+06         0.00000E+00
    0.59696E+06         0.16352E+08         0.00000E+00
    0.00000E+00         0.00000E+00         0.43961E+07
 
    0.55358E+07         0.66521E+06         0.00000E+00
    0.66521E+06         0.16380E+08         0.00000E+00
    0.00000E+00         0.00000E+00         0.43831E+07
 
    0.54429E+07         0.73602E+06         0.00000E+00
    0.73602E+06         0.16408E+08         0.00000E+00
    0.00000E+00         0.00000E+00         0.43702E+07
 
    0.53504E+07         0.80945E+06         0.00000E+00
    0.80945E+06         0.16438E+08         0.00000E+00
    0.00000E+00         0.00000E+00         0.43576E+07
 
    0.52585E+07         0.88553E+06         0.00000E+00
    0.88553E+06         0.16468E+08         0.00000E+00
    0.00000E+00         0.00000E+00         0.43453E+07
 
    0.51673E+07         0.96434E+06         0.00000E+00
    0.96434E+06         0.16499E+08         0.00000E+00
    0.00000E+00         0.00000E+00         0.43333E+07
 
    0.50769E+07         0.10459E+07         0.00000E+00
    0.10459E+07         0.16531E+08         0.00000E+00
    0.00000E+00         0.00000E+00         0.43215E+07
 
    0.49875E+07         0.11303E+07         0.00000E+00
    0.11303E+07         0.16563E+08         0.00000E+00
    0.00000E+00         0.00000E+00         0.43100E+07
 
    0.48991E+07         0.12175E+07         0.00000E+00
    0.12175E+07         0.16595E+08         0.00000E+00
    0.00000E+00         0.00000E+00         0.42988E+07
 
    0.48120E+07         0.13076E+07         0.00000E+00
    0.13076E+07         0.16628E+08         0.00000E+00
    0.00000E+00         0.00000E+00         0.42880E+07
 
    0.47264E+07         0.14007E+07         0.00000E+00
    0.14007E+07         0.16661E+08         0.00000E+00
    0.00000E+00         0.00000E+00         0.42775E+07
 
    0.46424E+07         0.14966E+07         0.00000E+00
    0.14966E+07         0.16694E+08         0.00000E+00
    0.00000E+00         0.00000E+00         0.42674E+07
 
    0.45602E+07         0.15955E+07         0.00000E+00
    0.15955E+07         0.16728E+08         0.00000E+00
    0.00000E+00         0.00000E+00         0.42576E+07
 
    0.44800E+07         0.16972E+07         0.00000E+00
    0.16972E+07         0.16761E+08         0.00000E+00
    0.00000E+00         0.00000E+00         0.42482E+07
 
    0.44022E+07         0.18019E+07         0.00000E+00
    0.18019E+07         0.16794E+08         0.00000E+00
    0.00000E+00         0.00000E+00         0.42392E+07
 
    0.43268E+07         0.19093E+07         0.00000E+00
    0.19093E+07         0.16826E+08         0.00000E+00
    0.00000E+00         0.00000E+00         0.42306E+07
 
    0.42541E+07         0.20194E+07         0.00000E+00
    0.20194E+07         0.16858E+08         0.00000E+00
    0.00000E+00         0.00000E+00         0.42225E+07
 
    0.76414E+07        -0.22286E+05         0.00000E+00
   -0.22286E+05         0.15036E+08         0.00000E+00
    0.00000E+00         0.00000E+00         0.45355E+07
 
    0.76016E+07        -0.56810E+05         0.00000E+00
   -0.56810E+05         0.15039E+08         0.00000E+00
    0.00000E+00         0.00000E+00         0.45280E+07
 
    0.75570E+07        -0.87042E+05         0.00000E+00
   -0.87042E+05         0.15043E+08         0.00000E+00
    0.00000E+00         0.00000E+00         0.45201E+07
 
    0.75082E+07        -0.11299E+06         0.00000E+00
   -0.11299E+06         0.15050E+08         0.00000E+00
    0.00000E+00         0.00000E+00         0.45117E+07
 
    0.74553E+07        -0.13468E+06         0.00000E+00
   -0.13468E+06         0.15059E+08         0.00000E+00
    0.00000E+00         0.00000E+00         0.45028E+07
 
    0.73989E+07        -0.15217E+06         0.00000E+00
   -0.15217E+06         0.15069E+08         0.00000E+00
    0.00000E+00         0.00000E+00         0.44935E+07
 
    0.73391E+07        -0.16550E+06         0.00000E+00
   -0.16550E+06         0.15080E+08         0.00000E+00
    0.00000E+00         0.00000E+00         0.44839E+07
 
    0.72762E+07        -0.17475E+06         0.00000E+00
   -0.17475E+06         0.15093E+08         0.00000E+00
    0.00000E+00         0.00000E+00         0.44739E+07
 
    0.72107E+07        -0.17997E+06         0.00000E+00
   -0.17997E+06         0.15108E+08         0.00000E+00
    0.00000E+00         0.00000E+00         0.44637E+07
 
    0.71428E+07        -0.18127E+06         0.00000E+00
   -0.18127E+06         0.15123E+08         0.00000E+00
    0.00000E+00         0.00000E+00         0.44531E+07
 
    0.70726E+07        -0.17872E+06         0.00000E+00
   -0.17872E+06         0.15139E+08         0.00000E+00
    0.00000E+00         0.00000E+00         0.44423E+07
 
    0.70006E+07        -0.17243E+06         0.00000E+00
   -0.17243E+06         0.15156E+08         0.00000E+00
    0.00000E+00         0.00000E+00         0.44313E+07
 
    0.69268E+07        -0.16250E+06         0.00000E+00
   -0.16250E+06         0.15174E+08         0.00000E+00
    0.00000E+00         0.00000E+00         0.44201E+07
 
    0.68516E+07        -0.14902E+06         0.00000E+00
   -0.14902E+06         0.15192E+08         0.00000E+00
    0.00000E+00         0.00000E+00         0.44088E+07
 
    0.67750E+07        -0.13210E+06         0.00000E+00
   -0.13210E+06         0.15211E+08         0.00000E+00
    0.00000E+00         0.00000E+00         0.43973E+07
 
    0.66973E+07        -0.11184E+06         0.00000E+00
   -0.11184E+06         0.15231E+08         0.00000E+00
    0.00000E+00         0.00000E+00         0.43857E+07
 
    0.66186E+07        -0.88339E+05         0.00000E+00
   -0.88339E+05         0.15251E+08         0.00000E+00
    0.00000E+00         0.00000E+00         0.43740E+07
 
    0.65391E+07        -0.61700E+05         0.00000E+00
   -0.61700E+05         0.15272E+08         0.00000E+00
    0.00000E+00         0.00000E+00         0.43622E+07
 
    0.64589E+07        -0.32012E+05         0.00000E+00
   -0.32012E+05         0.15293E+08         0.00000E+00
    0.00000E+00         0.00000E+00         0.43504E+07
 
    0.63781E+07         0.63455E+03         0.00000E+00
    0.63455E+03         0.15315E+08         0.00000E+00
    0.00000E+00         0.00000E+00         0.43385E+07
 
    0.62968E+07         0.36158E+05         0.00000E+00
    0.36158E+05         0.15337E+08         0.00000E+00
    0.00000E+00         0.00000E+00         0.43267E+07
 
    0.62151E+07         0.74483E+05         0.00000E+00
    0.74483E+05         0.15359E+08         0.00000E+00
    0.00000E+00         0.00000E+00         0.43148E+07
 
    0.61331E+07         0.11554E+06         0.00000E+00
    0.11554E+06         0.15382E+08         0.00000E+00
    0.00000E+00         0.00000E+00         0.43030E+07
 
    0.60508E+07         0.15927E+06         0.00000E+00
    0.15927E+06         0.15405E+08         0.00000E+00
    0.00000E+00         0.00000E+00         0.42912E+07
 
    0.59685E+07         0.20561E+06         0.00000E+00
    0.20561E+06         0.15429E+08         0.00000E+00
    0.00000E+00         0.00000E+00         0.42794E+07
 
    0.58860E+07         0.25452E+06         0.00000E+00
    0.25452E+06         0.15453E+08         0.00000E+00
    0.00000E+00         0.00000E+00         0.42677E+07
 
    0.58034E+07         0.30595E+06         0.00000E+00
    0.30595E+06         0.15477E+08         0.00000E+00
    0.00000E+00         0.00000E+00         0.42561E+07
 
    0.57209E+07         0.35989E+06         0.00000E+00
    0.35989E+06         0.15502E+08         0.00000E+00
    0.00000E+00         0.00000E+00         0.42446E+07
 
    0.56385E+07         0.41629E+06         0.00000E+00
    0.41629E+06         0.15527E+08         0.00000E+00
    0.00000E+00         0.00000E+00         0.42331E+07
 
    0.55562E+07         0.47515E+06         0.00000E+00
    0.47515E+06         0.15553E+08         0.00000E+00
    0.00000E+00         0.00000E+00         0.42218E+07
 
    0.54740E+07         0.53644E+06         0.00000E+00
    0.53644E+06         0.15579E+08         0.00000E+00
    0.00000E+00         0.00000E+00         0.42106E+07
 
    0.53922E+07         0.60017E+06         0.00000E+00
    0.60017E+06         0.15606E+08         0.00000E+00
    0.00000E+00         0.00000E+00         0.41995E+07
 
    0.53106E+07         0.66632E+06         0.00000E+00
    0.66632E+06         0.15632E+08         0.00000E+00
    0.00000E+00         0.00000E+00         0.41886E+07
 
    0.52295E+07         0.73491E+06         0.00000E+00
    0.73491E+06         0.15660E+08         0.00000E+00
    0.00000E+00         0.00000E+00         0.41779E+07
 
    0.51487E+07         0.80593E+06         0.00000E+00
    0.80593E+06         0.15688E+08         0.00000E+00
    0.00000E+00         0.00000E+00         0.41673E+07
 
    0.50686E+07         0.87940E+06         0.00000E+00
    0.87940E+06         0.15716E+08         0.00000E+00
    0.00000E+00         0.00000E+00         0.41568E+07
 
    0.49890E+07         0.95532E+06         0.00000E+00
    0.95532E+06         0.15744E+08         0.00000E+00
    0.00000E+00         0.00000E+00         0.41466E+07
 
    0.49102E+07         0.10337E+07         0.00000E+00
    0.10337E+07         0.15773E+08         0.00000E+00
    0.00000E+00         0.00000E+00         0.41366E+07
 
    0.48322E+07         0.11145E+07         0.00000E+00
    0.11145E+07         0.15802E+08         0.00000E+00
    0.00000E+00         0.00000E+00         0.41267E+07
 
    0.47551E+07         0.11978E+07         0.00000E+00
    0.11978E+07         0.15831E+08         0.00000E+00
    0.00000E+00         0.00000E+00         0.41171E+07
 
    0.46790E+07         0.12836E+07         0.00000E+00
    0.12836E+07         0.15860E+08         0.00000E+00
    0.00000E+00         0.00000E+00         0.41078E+07
 
    0.46041E+07         0.13719E+07         0.00000E+00
    0.13719E+07         0.15889E+08         0.00000E+00
    0.00000E+00         0.00000E+00         0.40986E+07
 
    0.45304E+07         0.14626E+07         0.00000E+00
    0.14626E+07         0.15918E+08         0.00000E+00
    0.00000E+00         0.00000E+00         0.40898E+07
 
    0.44582E+07         0.15557E+07         0.00000E+00
    0.15557E+07         0.15948E+08         0.00000E+00
    0.00000E+00         0.00000E+00         0.40812E+07
 
    0.43875E+07         0.16513E+07         0.00000E+00
    0.16513E+07         0.15977E+08         0.00000E+00
    0.00000E+00         0.00000E+00         0.40728E+07
 
    0.43185E+07         0.17493E+07         0.00000E+00
    0.17493E+07         0.16005E+08         0.00000E+00
    0.00000E+00         0.00000E+00         0.40648E+07
 
    0.42513E+07         0.18495E+07         0.00000E+00
    0.18495E+07         0.16034E+08         0.00000E+00
    0.00000E+00         0.00000E+00         0.40570E+07
 
    0.41861E+07         0.19521E+07         0.00000E+00
    0.19521E+07         0.16062E+08         0.00000E+00
    0.00000E+00         0.00000E+00         0.40496E+07
 
    0.41230E+07         0.20569E+07         0.00000E+00
    0.20569E+07         0.16089E+08         0.00000E+00
    0.00000E+00         0.00000E+00         0.40425E+07
 
    0.40622E+07         0.21638E+07         0.00000E+00
    0.21638E+07         0.16116E+08         0.00000E+00
    0.00000E+00         0.00000E+00         0.40357E+07
 
    0.67512E+07        -0.15775E+05         0.00000E+00
   -0.15775E+05         0.14301E+08         0.00000E+00
    0.00000E+00         0.00000E+00         0.42104E+07
 
    0.67308E+07        -0.39306E+05         0.00000E+00
   -0.39306E+05         0.14303E+08         0.00000E+00
    0.00000E+00         0.00000E+00         0.42068E+07
 
    0.67056E+07        -0.59374E+05         0.00000E+00
   -0.59374E+05         0.14308E+08         0.00000E+00
    0.00000E+00         0.00000E+00         0.42027E+07
 
    0.66762E+07        -0.75966E+05         0.00000E+00
   -0.75966E+05         0.14314E+08         0.00000E+00
    0.00000E+00         0.00000E+00         0.41981E+07
 
    0.66427E+07        -0.89075E+05         0.00000E+00
   -0.89075E+05         0.14323E+08         0.00000E+00
    0.00000E+00         0.00000E+00         0.41931E+07
 
    0.66054E+07        -0.98707E+05         0.00000E+00
   -0.98707E+05         0.14333E+08         0.00000E+00
    0.00000E+00         0.00000E+00         0.41876E+07
 
    0.65646E+07        -0.10488E+06         0.00000E+00
   -0.10488E+06         0.14344E+08         0.00000E+00
    0.00000E+00         0.00000E+00         0.41818E+07
 
    0.65206E+07        -0.10761E+06         0.00000E+00
   -0.10761E+06         0.14357E+08         0.00000E+00
    0.00000E+00         0.00000E+00         0.41756E+07
 
    0.64737E+07        -0.10693E+06         0.00000E+00
   -0.10693E+06         0.14372E+08         0.00000E+00
    0.00000E+00         0.00000E+00         0.41691E+07
 
    0.64240E+07        -0.10288E+06         0.00000E+00
   -0.10288E+06         0.14387E+08         0.00000E+00
    0.00000E+00         0.00000E+00         0.41622E+07
 
    0.63718E+07        -0.95495E+05         0.00000E+00
   -0.95495E+05         0.14404E+08         0.00000E+00
    0.00000E+00         0.00000E+00         0.41551E+07
 
    0.63173E+07        -0.84836E+05         0.00000E+00
   -0.84836E+05         0.14421E+08         0.00000E+00
    0.00000E+00         0.00000E+00         0.41477E+07
 
    0.62607E+07        -0.70949E+05         0.00000E+00
   -0.70949E+05         0.14440E+08         0.00000E+00
    0.00000E+00         0.00000E+00         0.41401E+07
 
    0.62023E+07        -0.53890E+05         0.00000E+00
   -0.53890E+05         0.14459E+08         0.00000E+00
    0.00000E+00         0.00000E+00         0.41323E+07
 
    0.61421E+07        -0.33719E+05         0.00000E+00
   -0.33719E+05         0.14479E+08         0.00000E+00
    0.00000E+00         0.00000E+00         0.41243E+07
 
    0.60805E+07        -0.10495E+05         0.00000E+00
   -0.10495E+05         0.14500E+08         0.00000E+00
    0.00000E+00         0.00000E+00         0.41161E+07
 
    0.60174E+07         0.15722E+05         0.00000E+00
    0.15722E+05         0.14521E+08         0.00000E+00
    0.00000E+00         0.00000E+00         0.41077E+07
 
    0.59532E+07         0.44871E+05         0.00000E+00
    0.44871E+05         0.14543E+08         0.00000E+00
    0.00000E+00         0.00000E+00         0.40992E+07
 
    0.58878E+07         0.76893E+05         0.00000E+00
    0.76893E+05         0.14565E+08         0.00000E+00
    0.00000E+00         0.00000E+00         0.40906E+07
 
    0.58216E+07         0.11173E+06         0.00000E+00
    0.11173E+06         0.14588E+08         0.00000E+00
    0.00000E+00         0.00000E+00         0.40819E+07
 
    0.57545E+07         0.14933E+06         0.00000E+00
    0.14933E+06         0.14611E+08         0.00000E+00
    0.00000E+00         0.00000E+00         0.40732E+07
 
    0.56867E+07         0.18963E+06         0.00000E+00
    0.18963E+06         0.14635E+08         0.00000E+00
    0.00000E+00         0.00000E+00         0.40643E+07
 
    0.56183E+07         0.23259E+06         0.00000E+00
    0.23259E+06         0.14659E+08         0.00000E+00
    0.00000E+00         0.00000E+00         0.40555E+07
 
    0.55494E+07         0.27815E+06         0.00000E+00
    0.27815E+06         0.14683E+08         0.00000E+00
    0.00000E+00         0.00000E+00         0.40466E+07
 
    0.54802E+07         0.32628E+06         0.00000E+00
    0.32628E+06         0.14708E+08         0.00000E+00
    0.00000E+00         0.00000E+00         0.40376E+07
 
    0.54106E+07         0.37694E+06         0.00000E+00
    0.37694E+06         0.14733E+08         0.00000E+00
    0.00000E+00         0.00000E+00         0.40287E+07
 
    0.53408E+07         0.43008E+06         0.00000E+00
    0.43008E+06         0.14758E+08         0.00000E+00
    0.00000E+00         0.00000E+00         0.40198E+07
 
    0.52708E+07         0.48568E+06         0.00000E+00
    0.48568E+06         0.14784E+08         0.00000E+00
    0.00000E+00         0.00000E+00         0.40109E+07
 
    0.52008E+07         0.54370E+06         0.00000E+00
    0.54370E+06         0.14809E+08         0.00000E+00
    0.00000E+00         0.00000E+00         0.40020E+07
 
    0.51309E+07         0.60413E+06         0.00000E+00
    0.60413E+06         0.14835E+08         0.00000E+00
    0.00000E+00         0.00000E+00         0.39932E+07
 
    0.50610E+07         0.66693E+06         0.00000E+00
    0.66693E+06         0.14861E+08         0.00000E+00
    0.00000E+00         0.00000E+00         0.39845E+07
 
    0.49913E+07         0.73209E+06         0.00000E+00
    0.73209E+06         0.14888E+08         0.00000E+00
    0.00000E+00         0.00000E+00         0.39758E+07
 
    0.49219E+07         0.79959E+06         0.00000E+00
    0.79959E+06         0.14914E+08         0.00000E+00
    0.00000E+00         0.00000E+00         0.39672E+07
 
    0.48528E+07         0.86941E+06         0.00000E+00
    0.86941E+06         0.14941E+08         0.00000E+00
    0.00000E+00         0.00000E+00         0.39587E+07
 
    0.47841E+07         0.94153E+06         0.00000E+00
    0.94153E+06         0.14968E+08         0.00000E+00
    0.00000E+00         0.00000E+00         0.39504E+07
 
    0.47160E+07         0.10159E+07         0.00000E+00
    0.10159E+07         0.14994E+08         0.00000E+00
    0.00000E+00         0.00000E+00         0.39421E+07
 
    0.46484E+07         0.10926E+07         0.00000E+00
    0.10926E+07         0.15021E+08         0.00000E+00
    0.00000E+00         0.00000E+00         0.39339E+07
 
    0.45815E+07         0.11716E+07         0.00000E+00
    0.11716E+07         0.15048E+08         0.00000E+00
    0.00000E+00         0.00000E+00         0.39259E+07
 
    0.45154E+07         0.12528E+07         0.00000E+00
    0.12528E+07         0.15075E+08         0.00000E+00
    0.00000E+00         0.00000E+00         0.39181E+07
 
    0.44502E+07         0.13362E+07         0.00000E+00
    0.13362E+07         0.15102E+08         0.00000E+00
    0.00000E+00         0.00000E+00         0.39104E+07
 
    0.43859E+07         0.14218E+07         0.00000E+00
    0.14218E+07         0.15128E+08         0.00000E+00
    0.00000E+00         0.00000E+00         0.39028E+07
 
    0.43226E+07         0.15096E+07         0.00000E+00
    0.15096E+07         0.15155E+08         0.00000E+00
    0.00000E+00         0.00000E+00         0.38954E+07
 
    0.42605E+07         0.15996E+07         0.00000E+00
    0.15996E+07         0.15181E+08         0.00000E+00
    0.00000E+00         0.00000E+00         0.38882E+07
 
    0.41996E+07         0.16916E+07         0.00000E+00
    0.16916E+07         0.15207E+08         0.00000E+00
    0.00000E+00         0.00000E+00         0.38812E+07
 
    0.41401E+07         0.17858E+07         0.00000E+00
    0.17858E+07         0.15232E+08         0.00000E+00
    0.00000E+00         0.00000E+00         0.38744E+07
 
    0.40820E+07         0.18819E+07         0.00000E+00
    0.18819E+07         0.15257E+08         0.00000E+00
    0.00000E+00         0.00000E+00         0.38678E+07
 
    0.40255E+07         0.19800E+07         0.00000E+00
    0.19800E+07         0.15282E+08         0.00000E+00
    0.00000E+00         0.00000E+00         0.38614E+07
 
    0.39706E+07         0.20800E+07         0.00000E+00
    0.20800E+07         0.15306E+08         0.00000E+00
    0.00000E+00         0.00000E+00         0.38553E+07
 
    0.39174E+07         0.21819E+07         0.00000E+00
    0.21819E+07         0.15329E+08         0.00000E+00
    0.00000E+00         0.00000E+00         0.38493E+07
 
    0.38660E+07         0.22855E+07         0.00000E+00
    0.22855E+07         0.15352E+08         0.00000E+00
    0.00000E+00         0.00000E+00         0.38436E+07
 
    0.59327E+07        -0.97077E+04         0.00000E+00
   -0.97077E+04         0.13581E+08         0.00000E+00
    0.00000E+00         0.00000E+00         0.39028E+07
 
    0.59277E+07        -0.22777E+05         0.00000E+00
   -0.22777E+05         0.13583E+08         0.00000E+00
    0.00000E+00         0.00000E+00         0.39022E+07
 
    0.59183E+07        -0.33075E+05         0.00000E+00
   -0.33075E+05         0.13588E+08         0.00000E+00
    0.00000E+00         0.00000E+00         0.39012E+07
 
    0.59046E+07        -0.40564E+05         0.00000E+00
   -0.40564E+05         0.13594E+08         0.00000E+00
    0.00000E+00         0.00000E+00         0.38997E+07
 
    0.58869E+07        -0.45217E+05         0.00000E+00
   -0.45217E+05         0.13602E+08         0.00000E+00
    0.00000E+00         0.00000E+00         0.38978E+07
 
    0.58656E+07        -0.47013E+05         0.00000E+00
   -0.47013E+05         0.13612E+08         0.00000E+00
    0.00000E+00         0.00000E+00         0.38955E+07
 
    0.58407E+07        -0.45939E+05         0.00000E+00
   -0.45939E+05         0.13623E+08         0.00000E+00
    0.00000E+00         0.00000E+00         0.38927E+07
 
    0.58126E+07        -0.41991E+05         0.00000E+00
   -0.41991E+05         0.13636E+08         0.00000E+00
    0.00000E+00         0.00000E+00         0.38896E+07
 
    0.57814E+07        -0.35169E+05         0.00000E+00
   -0.35169E+05         0.13650E+08         0.00000E+00
    0.00000E+00         0.00000E+00         0.38862E+07
 
    0.57474E+07        -0.25481E+05         0.00000E+00
   -0.25481E+05         0.13665E+08         0.00000E+00
    0.00000E+00         0.00000E+00         0.38824E+07
 
    0.57107E+07        -0.12938E+05         0.00000E+00
   -0.12938E+05         0.13681E+08         0.00000E+00
    0.00000E+00         0.00000E+00         0.38783E+07
 
    0.56716E+07         0.24409E+04         0.00000E+00
    0.24409E+04         0.13698E+08         0.00000E+00
    0.00000E+00         0.00000E+00         0.38740E+07
 
    0.56302E+07         0.20635E+05         0.00000E+00
    0.20635E+05         0.13717E+08         0.00000E+00
    0.00000E+00         0.00000E+00         0.38694E+07
 
    0.55868E+07         0.41619E+05         0.00000E+00
    0.41619E+05         0.13736E+08         0.00000E+00
    0.00000E+00         0.00000E+00         0.38645E+07
 
    0.55414E+07         0.65364E+05         0.00000E+00
    0.65364E+05         0.13755E+08         0.00000E+00
    0.00000E+00         0.00000E+00         0.38594E+07
 
    0.54943E+07         0.91840E+05         0.00000E+00
    0.91840E+05         0.13776E+08         0.00000E+00
    0.00000E+00         0.00000E+00         0.38541E+07
 
    0.54456E+07         0.12101E+06         0.00000E+00
    0.12101E+06         0.13797E+08         0.00000E+00
    0.00000E+00         0.00000E+00         0.38486E+07
 
    0.53954E+07         0.15285E+06         0.00000E+00
    0.15285E+06         0.13819E+08         0.00000E+00
    0.00000E+00         0.00000E+00         0.38429E+07
 
    0.53440E+07         0.18732E+06         0.00000E+00
    0.18732E+06         0.13841E+08         0.00000E+00
    0.00000E+00         0.00000E+00         0.38371E+07
 
    0.52914E+07         0.22438E+06         0.00000E+00
    0.22438E+06         0.13864E+08         0.00000E+00
    0.00000E+00         0.00000E+00         0.38311E+07
 
    0.52377E+07         0.26400E+06         0.00000E+00
    0.26400E+06         0.13887E+08         0.00000E+00
    0.00000E+00         0.00000E+00         0.38250E+07
 
    0.51831E+07         0.30615E+06         0.00000E+00
    0.30615E+06         0.13911E+08         0.00000E+00
    0.00000E+00         0.00000E+00         0.38188E+07
 
    0.51278E+07         0.35078E+06         0.00000E+00
    0.35078E+06         0.13935E+08         0.00000E+00
    0.00000E+00         0.00000E+00         0.38125E+07
 
    0.50717E+07         0.39786E+06         0.00000E+00
    0.39786E+06         0.13959E+08         0.00000E+00
    0.00000E+00         0.00000E+00         0.38061E+07
 
    0.50150E+07         0.44737E+06         0.00000E+00
    0.44737E+06         0.13983E+08         0.00000E+00
    0.00000E+00         0.00000E+00         0.37997E+07
 
    0.49579E+07         0.49927E+06         0.00000E+00
    0.49927E+06         0.14008E+08         0.00000E+00
    0.00000E+00         0.00000E+00         0.37932E+07
 
    0.49004E+07         0.55352E+06         0.00000E+00
    0.55352E+06         0.14033E+08         0.00000E+00
    0.00000E+00         0.00000E+00         0.37867E+07
 
    0.48426E+07         0.61011E+06         0.00000E+00
    0.61011E+06         0.14058E+08         0.00000E+00
    0.00000E+00         0.00000E+00         0.37801E+07
 
    0.47845E+07         0.66899E+06         0.00000E+00
    0.66899E+06         0.14083E+08         0.00000E+00
    0.00000E+00         0.00000E+00         0.37735E+07
 
    0.47264E+07         0.73016E+06         0.00000E+00
    0.73016E+06         0.14108E+08         0.00000E+00
    0.00000E+00         0.00000E+00         0.37669E+07
 
    0.46683E+07         0.79357E+06         0.00000E+00
    0.79357E+06         0.14134E+08         0.00000E+00
    0.00000E+00         0.00000E+00         0.37604E+07
 
    0.46102E+07         0.85920E+06         0.00000E+00
    0.85920E+06         0.14159E+08         0.00000E+00
    0.00000E+00         0.00000E+00         0.37538E+07
 
    0.45523E+07         0.92703E+06         0.00000E+00
    0.92703E+06         0.14184E+08         0.00000E+00
    0.00000E+00         0.00000E+00         0.37473E+07
 
    0.44946E+07         0.99704E+06         0.00000E+00
    0.99704E+06         0.14209E+08         0.00000E+00
    0.00000E+00         0.00000E+00         0.37408E+07
 
    0.44372E+07         0.10692E+07         0.00000E+00
    0.10692E+07         0.14235E+08         0.00000E+00
    0.00000E+00         0.00000E+00         0.37344E+07
 
    0.43802E+07         0.11435E+07         0.00000E+00
    0.11435E+07         0.14260E+08         0.00000E+00
    0.00000E+00         0.00000E+00         0.37280E+07
 
    0.43237E+07         0.12199E+07         0.00000E+00
    0.12199E+07         0.14285E+08         0.00000E+00
    0.00000E+00         0.00000E+00         0.37217E+07
 
    0.42677E+07         0.12983E+07         0.00000E+00
    0.12983E+07         0.14309E+08         0.00000E+00
    0.00000E+00         0.00000E+00         0.37154E+07
 
    0.42124E+07         0.13788E+07         0.00000E+00
    0.13788E+07         0.14334E+08         0.00000E+00
    0.00000E+00         0.00000E+00         0.37093E+07
 
    0.41578E+07         0.14613E+07         0.00000E+00
    0.14613E+07         0.14358E+08         0.00000E+00
    0.00000E+00         0.00000E+00         0.37032E+07
 
    0.41040E+07         0.15458E+07         0.00000E+00
    0.15458E+07         0.14382E+08         0.00000E+00
    0.00000E+00         0.00000E+00         0.36972E+07
 
    0.40511E+07         0.16323E+07         0.00000E+00
    0.16323E+07         0.14406E+08         0.00000E+00
    0.00000E+00         0.00000E+00         0.36914E+07
 
    0.39991E+07         0.17206E+07         0.00000E+00
    0.17206E+07         0.14429E+08         0.00000E+00
    0.00000E+00         0.00000E+00         0.36856E+07
 
    0.39482E+07         0.18109E+07         0.00000E+00
    0.18109E+07         0.14452E+08         0.00000E+00
    0.00000E+00         0.00000E+00         0.36800E+07
 
    0.38983E+07         0.19029E+07         0.00000E+00
    0.19029E+07         0.14474E+08         0.00000E+00
    0.00000E+00         0.00000E+00         0.36745E+07
 
    0.38497E+07         0.19968E+07         0.00000E+00
    0.19968E+07         0.14496E+08         0.00000E+00
    0.00000E+00         0.00000E+00         0.36691E+07
 
    0.38022E+07         0.20923E+07         0.00000E+00
    0.20923E+07         0.14517E+08         0.00000E+00
    0.00000E+00         0.00000E+00         0.36639E+07
 
    0.37561E+07         0.21896E+07         0.00000E+00
    0.21896E+07         0.14538E+08         0.00000E+00
    0.00000E+00         0.00000E+00         0.36588E+07
 
    0.37114E+07         0.22884E+07         0.00000E+00
    0.22884E+07         0.14558E+08         0.00000E+00
    0.00000E+00         0.00000E+00         0.36539E+07
 
    0.36680E+07         0.23887E+07         0.00000E+00
    0.23887E+07         0.14577E+08         0.00000E+00
    0.00000E+00         0.00000E+00         0.36491E+07
 
    0.51845E+07        -0.41549E+04         0.00000E+00
   -0.41549E+04         0.12880E+08         0.00000E+00
    0.00000E+00         0.00000E+00         0.36128E+07
 
    0.51917E+07        -0.75056E+04         0.00000E+00
   -0.75056E+04         0.12882E+08         0.00000E+00
    0.00000E+00         0.00000E+00         0.36147E+07
 
    0.51948E+07        -0.86603E+04         0.00000E+00
   -0.86603E+04         0.12886E+08         0.00000E+00
    0.00000E+00         0.00000E+00         0.36161E+07
 
    0.51939E+07        -0.75681E+04         0.00000E+00
   -0.75681E+04         0.12892E+08         0.00000E+00
    0.00000E+00         0.00000E+00         0.36171E+07
 
    0.51892E+07        -0.41849E+04         0.00000E+00
   -0.41849E+04         0.12899E+08         0.00000E+00
    0.00000E+00         0.00000E+00         0.36177E+07
 
    0.51809E+07         0.15260E+04         0.00000E+00
    0.15260E+04         0.12908E+08         0.00000E+00
    0.00000E+00         0.00000E+00         0.36178E+07
 
    0.51692E+07         0.95949E+04         0.00000E+00
    0.95949E+04         0.12919E+08         0.00000E+00
    0.00000E+00         0.00000E+00         0.36176E+07
 
    0.51543E+07         0.20046E+05         0.00000E+00
    0.20046E+05         0.12931E+08         0.00000E+00
    0.00000E+00         0.00000E+00         0.36170E+07
 
    0.51364E+07         0.32898E+05         0.00000E+00
    0.32898E+05         0.12944E+08         0.00000E+00
    0.00000E+00         0.00000E+00         0.36161E+07
 
    0.51157E+07         0.48164E+05         0.00000E+00
    0.48164E+05         0.12958E+08         0.00000E+00
    0.00000E+00         0.00000E+00         0.36148E+07
 
    0.50924E+07         0.65851E+05         0.00000E+00
    0.65851E+05         0.12974E+08         0.00000E+00
    0.00000E+00         0.00000E+00         0.36132E+07
 
    0.50665E+07         0.85963E+05         0.00000E+00
    0.85963E+05         0.12990E+08         0.00000E+00
    0.00000E+00         0.00000E+00         0.36114E+07
 
    0.50384E+07         0.10850E+06         0.00000E+00
    0.10850E+06         0.13008E+08         0.00000E+00
    0.00000E+00         0.00000E+00         0.36092E+07
 
    0.50081E+07         0.13346E+06         0.00000E+00
    0.13346E+06         0.13026E+08         0.00000E+00
    0.00000E+00         0.00000E+00         0.36068E+07
 
    0.49757E+07         0.16083E+06         0.00000E+00
    0.16083E+06         0.13045E+08         0.00000E+00
    0.00000E+00         0.00000E+00         0.36041E+07
 
    0.49416E+07         0.19060E+06         0.00000E+00
    0.19060E+06         0.13065E+08         0.00000E+00
    0.00000E+00         0.00000E+00         0.36012E+07
 
    0.49057E+07         0.22276E+06         0.00000E+00
    0.22276E+06         0.13085E+08         0.00000E+00
    0.00000E+00         0.00000E+00         0.35981E+07
 
    0.48683E+07         0.25729E+06         0.00000E+00
    0.25729E+06         0.13106E+08         0.00000E+00
    0.00000E+00         0.00000E+00         0.35948E+07
 
    0.48294E+07         0.29418E+06         0.00000E+00
    0.29418E+06         0.13127E+08         0.00000E+00
    0.00000E+00         0.00000E+00         0.35913E+07
 
    0.47893E+07         0.33340E+06         0.00000E+00
    0.33340E+06         0.13149E+08         0.00000E+00
    0.00000E+00         0.00000E+00         0.35877E+07
 
    0.47479E+07         0.37494E+06         0.00000E+00
    0.37494E+06         0.13171E+08         0.00000E+00
    0.00000E+00         0.00000E+00         0.35839E+07
 
    0.47055E+07         0.41878E+06         0.00000E+00
    0.41878E+06         0.13194E+08         0.00000E+00
    0.00000E+00         0.00000E+00         0.35799E+07
 
    0.46622E+07         0.46489E+06         0.00000E+00
    0.46489E+06         0.13217E+08         0.00000E+00
    0.00000E+00         0.00000E+00         0.35758E+07
 
    0.46180E+07         0.51325E+06         0.00000E+00
    0.51325E+06         0.13240E+08         0.00000E+00
    0.00000E+00         0.00000E+00         0.35716E+07
 
    0.45731E+07         0.56384E+06         0.00000E+00
    0.56384E+06         0.13263E+08         0.00000E+00
    0.00000E+00         0.00000E+00         0.35673E+07
 
    0.45276E+07         0.61663E+06         0.00000E+00
    0.61663E+06         0.13287E+08         0.00000E+00
    0.00000E+00         0.00000E+00         0.35629E+07
 
    0.44816E+07         0.67160E+06         0.00000E+00
    0.67160E+06         0.13311E+08         0.00000E+00
    0.00000E+00         0.00000E+00         0.35584E+07
 
    0.44351E+07         0.72872E+06         0.00000E+00
    0.72872E+06         0.13334E+08         0.00000E+00
    0.00000E+00         0.00000E+00         0.35539E+07
 
    0.43883E+07         0.78798E+06         0.00000E+00
    0.78798E+06         0.13358E+08         0.00000E+00
    0.00000E+00         0.00000E+00         0.35493E+07
 
    0.43413E+07         0.84935E+06         0.00000E+00
    0.84935E+06         0.13382E+08         0.00000E+00
    0.00000E+00         0.00000E+00         0.35447E+07
 
    0.42941E+07         0.91280E+06         0.00000E+00
    0.91280E+06         0.13406E+08         0.00000E+00
    0.00000E+00         0.00000E+00         0.35400E+07
 
    0.42468E+07         0.97831E+06         0.00000E+00
    0.97831E+06         0.13429E+08         0.00000E+00
    0.00000E+00         0.00000E+00         0.35353E+07
 
    0.41996E+07         0.10458E+07         0.00000E+00
    0.10458E+07         0.13453E+08         0.00000E+00
    0.00000E+00         0.00000E+00         0.35305E+07
 
    0.41524E+07         0.11154E+07         0.00000E+00
    0.11154E+07         0.13476E+08         0.00000E+00
    0.00000E+00         0.00000E+00         0.35258E+07
 
    0.41055E+07         0.11869E+07         0.00000E+00
    0.11869E+07         0.13500E+08         0.00000E+00
    0.00000E+00         0.00000E+00         0.35210E+07
 
    0.40588E+07         0.12604E+07         0.00000E+00
    0.12604E+07         0.13523E+08         0.00000E+00
    0.00000E+00         0.00000E+00         0.35163E+07
 
    0.40124E+07         0.13358E+07         0.00000E+00
    0.13358E+07         0.13546E+08         0.00000E+00
    0.00000E+00         0.00000E+00         0.35116E+07
 
    0.39664E+07         0.14131E+07         0.00000E+00
    0.14131E+07         0.13568E+08         0.00000E+00
    0.00000E+00         0.00000E+00         0.35069E+07
 
    0.39209E+07         0.14923E+07         0.00000E+00
    0.14923E+07         0.13590E+08         0.00000E+00
    0.00000E+00         0.00000E+00         0.35022E+07
 
    0.38760E+07         0.15733E+07         0.00000E+00
    0.15733E+07         0.13612E+08         0.00000E+00
    0.00000E+00         0.00000E+00         0.34976E+07
 
    0.38317E+07         0.16561E+07         0.00000E+00
    0.16561E+07         0.13633E+08         0.00000E+00
    0.00000E+00         0.00000E+00         0.34930E+07
 
    0.37880E+07         0.17407E+07         0.00000E+00
    0.17407E+07         0.13654E+08         0.00000E+00
    0.00000E+00         0.00000E+00         0.34885E+07
 
    0.37451E+07         0.18270E+07         0.00000E+00
    0.18270E+07         0.13675E+08         0.00000E+00
    0.00000E+00         0.00000E+00         0.34840E+07
 
    0.37030E+07         0.19150E+07         0.00000E+00
    0.19150E+07         0.13695E+08         0.00000E+00
    0.00000E+00         0.00000E+00         0.34796E+07
 
    0.36618E+07         0.20046E+07         0.00000E+00
    0.20046E+07         0.13714E+08         0.00000E+00
    0.00000E+00         0.00000E+00         0.34753E+07
 
    0.36215E+07         0.20959E+07         0.00000E+00
    0.20959E+07         0.13733E+08         0.00000E+00
    0.00000E+00         0.00000E+00         0.34710E+07
 
    0.35822E+07         0.21887E+07         0.00000E+00
    0.21887E+07         0.13752E+08         0.00000E+00
    0.00000E+00         0.00000E+00         0.34668E+07
 
    0.35439E+07         0.22830E+07         0.00000E+00
    0.22830E+07         0.13769E+08         0.00000E+00
    0.00000E+00         0.00000E+00         0.34626E+07
 
    0.35066E+07         0.23787E+07         0.00000E+00
    0.23787E+07         0.13786E+08         0.00000E+00
    0.00000E+00         0.00000E+00         0.34586E+07
 
    0.34705E+07         0.24759E+07         0.00000E+00
    0.24759E+07         0.13803E+08         0.00000E+00
    0.00000E+00         0.00000E+00         0.34546E+07
 
    0.45039E+07         0.84168E+03         0.00000E+00
    0.84168E+03         0.12198E+08         0.00000E+00
    0.00000E+00         0.00000E+00         0.33404E+07
 
    0.45207E+07         0.63382E+04         0.00000E+00
    0.63382E+04         0.12200E+08         0.00000E+00
    0.00000E+00         0.00000E+00         0.33442E+07
 
    0.45337E+07         0.13551E+05         0.00000E+00
    0.13551E+05         0.12204E+08         0.00000E+00
    0.00000E+00         0.00000E+00         0.33475E+07
 
    0.45430E+07         0.22539E+05         0.00000E+00
    0.22539E+05         0.12209E+08         0.00000E+00
    0.00000E+00         0.00000E+00         0.33504E+07
 
    0.45487E+07         0.33356E+05         0.00000E+00
    0.33356E+05         0.12216E+08         0.00000E+00
    0.00000E+00         0.00000E+00         0.33530E+07
 
    0.45511E+07         0.46050E+05         0.00000E+00
    0.46050E+05         0.12224E+08         0.00000E+00
    0.00000E+00         0.00000E+00         0.33551E+07
 
    0.45502E+07         0.60661E+05         0.00000E+00
    0.60661E+05         0.12234E+08         0.00000E+00
    0.00000E+00         0.00000E+00         0.33569E+07
 
    0.45463E+07         0.77227E+05         0.00000E+00
    0.77227E+05         0.12245E+08         0.00000E+00
    0.00000E+00         0.00000E+00         0.33583E+07
 
    0.45395E+07         0.95779E+05         0.00000E+00
    0.95779E+05         0.12257E+08         0.00000E+00
    0.00000E+00         0.00000E+00         0.33594E+07
 
    0.45300E+07         0.11634E+06         0.00000E+00
    0.11634E+06         0.12271E+08         0.00000E+00
    0.00000E+00         0.00000E+00         0.33601E+07
 
    0.45179E+07         0.13894E+06         0.00000E+00
    0.13894E+06         0.12285E+08         0.00000E+00
    0.00000E+00         0.00000E+00         0.33606E+07
 
    0.45034E+07         0.16358E+06         0.00000E+00
    0.16358E+06         0.12300E+08         0.00000E+00
    0.00000E+00         0.00000E+00         0.33607E+07
 
    0.44865E+07         0.19029E+06         0.00000E+00
    0.19029E+06         0.12316E+08         0.00000E+00
    0.00000E+00         0.00000E+00         0.33606E+07
 
    0.44676E+07         0.21908E+06         0.00000E+00
    0.21908E+06         0.12333E+08         0.00000E+00
    0.00000E+00         0.00000E+00         0.33602E+07
 
    0.44466E+07         0.24994E+06         0.00000E+00
    0.24994E+06         0.12351E+08         0.00000E+00
    0.00000E+00         0.00000E+00         0.33595E+07
 
    0.44238E+07         0.28289E+06         0.00000E+00
    0.28289E+06         0.12369E+08         0.00000E+00
    0.00000E+00         0.00000E+00         0.33586E+07
 
    0.43992E+07         0.31791E+06         0.00000E+00
    0.31791E+06         0.12388E+08         0.00000E+00
    0.00000E+00         0.00000E+00         0.33575E+07
 
    0.43731E+07         0.35502E+06         0.00000E+00
    0.35502E+06         0.12408E+08         0.00000E+00
    0.00000E+00         0.00000E+00         0.33562E+07
 
    0.43454E+07         0.39421E+06         0.00000E+00
    0.39421E+06         0.12428E+08         0.00000E+00
    0.00000E+00         0.00000E+00         0.33547E+07
 
    0.43164E+07         0.43547E+06         0.00000E+00
    0.43547E+06         0.12448E+08         0.00000E+00
    0.00000E+00         0.00000E+00         0.33529E+07
 
    0.42861E+07         0.47878E+06         0.00000E+00
    0.47878E+06         0.12469E+08         0.00000E+00
    0.00000E+00         0.00000E+00         0.33510E+07
 
    0.42547E+07         0.52415E+06         0.00000E+00
    0.52415E+06         0.12490E+08         0.00000E+00
    0.00000E+00         0.00000E+00         0.33490E+07
 
    0.42222E+07         0.57155E+06         0.00000E+00
    0.57155E+06         0.12512E+08         0.00000E+00
    0.00000E+00         0.00000E+00         0.33468E+07
 
    0.41889E+07         0.62098E+06         0.00000E+00
    0.62098E+06         0.12533E+08         0.00000E+00
    0.00000E+00         0.00000E+00         0.33444E+07
 
    0.41547E+07         0.67242E+06         0.00000E+00
    0.67242E+06         0.12555E+08         0.00000E+00
    0.00000E+00         0.00000E+00         0.33419E+07
 
    0.41198E+07         0.72585E+06         0.00000E+00
    0.72585E+06         0.12577E+08         0.00000E+00
    0.00000E+00         0.00000E+00         0.33393E+07
 
    0.40842E+07         0.78126E+06         0.00000E+00
    0.78126E+06         0.12599E+08         0.00000E+00
    0.00000E+00         0.00000E+00         0.33366E+07
 
    0.40482E+07         0.83863E+06         0.00000E+00
    0.83863E+06         0.12621E+08         0.00000E+00
    0.00000E+00         0.00000E+00         0.33338E+07
 
    0.40117E+07         0.89794E+06         0.00000E+00
    0.89794E+06         0.12643E+08         0.00000E+00
    0.00000E+00         0.00000E+00         0.33309E+07
 
    0.39748E+07         0.95918E+06         0.00000E+00
    0.95918E+06         0.12665E+08         0.00000E+00
    0.00000E+00         0.00000E+00         0.33279E+07
 
    0.39377E+07         0.10223E+07         0.00000E+00
    0.10223E+07         0.12687E+08         0.00000E+00
    0.00000E+00         0.00000E+00         0.33248E+07
 
    0.39003E+07         0.10873E+07         0.00000E+00
    0.10873E+07         0.12708E+08         0.00000E+00
    0.00000E+00         0.00000E+00         0.33217E+07
 
    0.38629E+07         0.11542E+07         0.00000E+00
    0.11542E+07         0.12730E+08         0.00000E+00
    0.00000E+00         0.00000E+00         0.33185E+07
 
    0.38254E+07         0.12229E+07         0.00000E+00
    0.12229E+07         0.12751E+08         0.00000E+00
    0.00000E+00         0.00000E+00         0.33153E+07
 
    0.37880E+07         0.12934E+07         0.00000E+00
    0.12934E+07         0.12772E+08         0.00000E+00
    0.00000E+00         0.00000E+00         0.33120E+07
 
    0.37507E+07         0.13657E+07         0.00000E+00
    0.13657E+07         0.12793E+08         0.00000E+00
    0.00000E+00         0.00000E+00         0.33087E+07
 
    0.37136E+07         0.14398E+07         0.00000E+00
    0.14398E+07         0.12813E+08         0.00000E+00
    0.00000E+00         0.00000E+00         0.33054E+07
 
    0.36767E+07         0.15155E+07         0.00000E+00
    0.15155E+07         0.12834E+08         0.00000E+00
    0.00000E+00         0.00000E+00         0.33021E+07
 
    0.36402E+07         0.15930E+07         0.00000E+00
    0.15930E+07         0.12853E+08         0.00000E+00
    0.00000E+00         0.00000E+00         0.32987E+07
 
    0.36040E+07         0.16722E+07         0.00000E+00
    0.16722E+07         0.12873E+08         0.00000E+00
    0.00000E+00         0.00000E+00         0.32953E+07
 
    0.35683E+07         0.17530E+07         0.00000E+00
    0.17530E+07         0.12891E+08         0.00000E+00
    0.00000E+00         0.00000E+00         0.32920E+07
 
    0.35331E+07         0.18354E+07         0.00000E+00
    0.18354E+07         0.12910E+08         0.00000E+00
    0.00000E+00         0.00000E+00         0.32886E+07
 
    0.34984E+07         0.19194E+07         0.00000E+00
    0.19194E+07         0.12928E+08         0.00000E+00
    0.00000E+00         0.00000E+00         0.32852E+07
 
    0.34644E+07         0.20049E+07         0.00000E+00
    0.20049E+07         0.12945E+08         0.00000E+00
    0.00000E+00         0.00000E+00         0.32819E+07
 
    0.34310E+07         0.20919E+07         0.00000E+00
    0.20919E+07         0.12962E+08         0.00000E+00
    0.00000E+00         0.00000E+00         0.32786E+07
 
    0.33983E+07         0.21804E+07         0.00000E+00
    0.21804E+07         0.12978E+08         0.00000E+00
    0.00000E+00         0.00000E+00         0.32752E+07
 
    0.33663E+07         0.22704E+07         0.00000E+00
    0.22704E+07         0.12993E+08         0.00000E+00
    0.00000E+00         0.00000E+00         0.32720E+07
 
    0.33351E+07         0.23617E+07         0.00000E+00
    0.23617E+07         0.13008E+08         0.00000E+00
    0.00000E+00         0.00000E+00         0.32687E+07
 
    0.33047E+07         0.24543E+07         0.00000E+00
    0.24543E+07         0.13023E+08         0.00000E+00
    0.00000E+00         0.00000E+00         0.32654E+07
 
    0.32752E+07         0.25483E+07         0.00000E+00
    0.25483E+07         0.13036E+08         0.00000E+00
    0.00000E+00         0.00000E+00         0.32622E+07
 
    0.38876E+07         0.52687E+04         0.00000E+00
    0.52687E+04         0.11538E+08         0.00000E+00
    0.00000E+00         0.00000E+00         0.30851E+07
 
    0.39118E+07         0.18678E+05         0.00000E+00
    0.18678E+05         0.11540E+08         0.00000E+00
    0.00000E+00         0.00000E+00         0.30903E+07
 
    0.39326E+07         0.33404E+05         0.00000E+00
    0.33404E+05         0.11543E+08         0.00000E+00
    0.00000E+00         0.00000E+00         0.30951E+07
 
    0.39499E+07         0.49512E+05         0.00000E+00
    0.49512E+05         0.11548E+08         0.00000E+00
    0.00000E+00         0.00000E+00         0.30995E+07
 
    0.39639E+07         0.67060E+05         0.00000E+00
    0.67060E+05         0.11554E+08         0.00000E+00
    0.00000E+00         0.00000E+00         0.31036E+07
 
    0.39748E+07         0.86102E+05         0.00000E+00
    0.86102E+05         0.11562E+08         0.00000E+00
    0.00000E+00         0.00000E+00         0.31073E+07
 
    0.39828E+07         0.10668E+06         0.00000E+00
    0.10668E+06         0.11570E+08         0.00000E+00
    0.00000E+00         0.00000E+00         0.31106E+07
 
    0.39878E+07         0.12885E+06         0.00000E+00
    0.12885E+06         0.11580E+08         0.00000E+00
    0.00000E+00         0.00000E+00         0.31136E+07
 
    0.39902E+07         0.15264E+06         0.00000E+00
    0.15264E+06         0.11591E+08         0.00000E+00
    0.00000E+00         0.00000E+00         0.31163E+07
 
    0.39900E+07         0.17809E+06         0.00000E+00
    0.17809E+06         0.11603E+08         0.00000E+00
    0.00000E+00         0.00000E+00         0.31187E+07
 
    0.39873E+07         0.20522E+06         0.00000E+00
    0.20522E+06         0.11616E+08         0.00000E+00
    0.00000E+00         0.00000E+00         0.31207E+07
 
    0.39823E+07         0.23407E+06         0.00000E+00
    0.23407E+06         0.11630E+08         0.00000E+00
    0.00000E+00         0.00000E+00         0.31225E+07
 
    0.39751E+07         0.26466E+06         0.00000E+00
    0.26466E+06         0.11645E+08         0.00000E+00
    0.00000E+00         0.00000E+00         0.31240E+07
 
    0.39658E+07         0.29700E+06         0.00000E+00
    0.29700E+06         0.11661E+08         0.00000E+00
    0.00000E+00         0.00000E+00         0.31253E+07
 
    0.39546E+07         0.33112E+06         0.00000E+00
    0.33112E+06         0.11677E+08         0.00000E+00
    0.00000E+00         0.00000E+00         0.31263E+07
 
    0.39416E+07         0.36702E+06         0.00000E+00
    0.36702E+06         0.11693E+08         0.00000E+00
    0.00000E+00         0.00000E+00         0.31270E+07
 
    0.39268E+07         0.40471E+06         0.00000E+00
    0.40471E+06         0.11711E+08         0.00000E+00
    0.00000E+00         0.00000E+00         0.31275E+07
 
    0.39104E+07         0.44420E+06         0.00000E+00
    0.44420E+06         0.11729E+08         0.00000E+00
    0.00000E+00         0.00000E+00         0.31278E+07
 
    0.38926E+07         0.48550E+06         0.00000E+00
    0.48550E+06         0.11747E+08         0.00000E+00
    0.00000E+00         0.00000E+00         0.31279E+07
 
    0.38734E+07         0.52860E+06         0.00000E+00
    0.52860E+06         0.11766E+08         0.00000E+00
    0.00000E+00         0.00000E+00         0.31278E+07
 
    0.38529E+07         0.57352E+06         0.00000E+00
    0.57352E+06         0.11785E+08         0.00000E+00
    0.00000E+00         0.00000E+00         0.31275E+07
 
    0.38312E+07         0.62024E+06         0.00000E+00
    0.62024E+06         0.11804E+08         0.00000E+00
    0.00000E+00         0.00000E+00         0.31270E+07
 
    0.38084E+07         0.66876E+06         0.00000E+00
    0.66876E+06         0.11823E+08         0.00000E+00
    0.00000E+00         0.00000E+00         0.31264E+07
 
    0.37847E+07         0.71907E+06         0.00000E+00
    0.71907E+06         0.11843E+08         0.00000E+00
    0.00000E+00         0.00000E+00         0.31255E+07
 
    0.37601E+07         0.77117E+06         0.00000E+00
    0.77117E+06         0.11863E+08         0.00000E+00
    0.00000E+00         0.00000E+00         0.31246E+07
 
    0.37347E+07         0.82506E+06         0.00000E+00
    0.82506E+06         0.11883E+08         0.00000E+00
    0.00000E+00         0.00000E+00         0.31235E+07
 
    0.37086E+07         0.88071E+06         0.00000E+00
    0.88071E+06         0.11903E+08         0.00000E+00
    0.00000E+00         0.00000E+00         0.31223E+07
 
    0.36819E+07         0.93811E+06         0.00000E+00
    0.93811E+06         0.11923E+08         0.00000E+00
    0.00000E+00         0.00000E+00         0.31209E+07
 
    0.36547E+07         0.99726E+06         0.00000E+00
    0.99726E+06         0.11942E+08         0.00000E+00
    0.00000E+00         0.00000E+00         0.31194E+07
 
    0.36270E+07         0.10581E+07         0.00000E+00
    0.10581E+07         0.11962E+08         0.00000E+00
    0.00000E+00         0.00000E+00         0.31179E+07
 
    0.35990E+07         0.11207E+07         0.00000E+00
    0.11207E+07         0.11982E+08         0.00000E+00
    0.00000E+00         0.00000E+00         0.31162E+07
 
    0.35707E+07         0.11850E+07         0.00000E+00
    0.11850E+07         0.12001E+08         0.00000E+00
    0.00000E+00         0.00000E+00         0.31144E+07
 
    0.35421E+07         0.12510E+07         0.00000E+00
    0.12510E+07         0.12021E+08         0.00000E+00
    0.00000E+00         0.00000E+00         0.31126E+07
 
    0.35135E+07         0.13186E+07         0.00000E+00
    0.13186E+07         0.12040E+08         0.00000E+00
    0.00000E+00         0.00000E+00         0.31106E+07
 
    0.34847E+07         0.13879E+07         0.00000E+00
    0.13879E+07         0.12059E+08         0.00000E+00
    0.00000E+00         0.00000E+00         0.31086E+07
 
    0.34559E+07         0.14588E+07         0.00000E+00
    0.14588E+07         0.12077E+08         0.00000E+00
    0.00000E+00         0.00000E+00         0.31066E+07
 
    0.34272E+07         0.15313E+07         0.00000E+00
    0.15313E+07         0.12095E+08         0.00000E+00
    0.00000E+00         0.00000E+00         0.31045E+07
 
    0.33987E+07         0.16053E+07         0.00000E+00
    0.16053E+07         0.12113E+08         0.00000E+00
    0.00000E+00         0.00000E+00         0.31023E+07
 
    0.33703E+07         0.16809E+07         0.00000E+00
    0.16809E+07         0.12130E+08         0.00000E+00
    0.00000E+00         0.00000E+00         0.31001E+07
 
    0.33421E+07         0.17581E+07         0.00000E+00
    0.17581E+07         0.12147E+08         0.00000E+00
    0.00000E+00         0.00000E+00         0.30978E+07
 
    0.33142E+07         0.18367E+07         0.00000E+00
    0.18367E+07         0.12163E+08         0.00000E+00
    0.00000E+00         0.00000E+00         0.30955E+07
 
    0.32867E+07         0.19168E+07         0.00000E+00
    0.19168E+07         0.12179E+08         0.00000E+00
    0.00000E+00         0.00000E+00         0.30931E+07
 
    0.32595E+07         0.19983E+07         0.00000E+00
    0.19983E+07         0.12194E+08         0.00000E+00
    0.00000E+00         0.00000E+00         0.30908E+07
 
    0.32328E+07         0.20813E+07         0.00000E+00
    0.20813E+07         0.12209E+08         0.00000E+00
    0.00000E+00         0.00000E+00         0.30884E+07
 
    0.32066E+07         0.21656E+07         0.00000E+00
    0.21656E+07         0.12223E+08         0.00000E+00
    0.00000E+00         0.00000E+00         0.30860E+07
 
    0.31809E+07         0.22513E+07         0.00000E+00
    0.22513E+07         0.12237E+08         0.00000E+00
    0.00000E+00         0.00000E+00         0.30835E+07
 
    0.31557E+07         0.23383E+07         0.00000E+00
    0.23383E+07         0.12250E+08         0.00000E+00
    0.00000E+00         0.00000E+00         0.30811E+07
 
    0.31311E+07         0.24266E+07         0.00000E+00
    0.24266E+07         0.12262E+08         0.00000E+00
    0.00000E+00         0.00000E+00         0.30786E+07
 
    0.31072E+07         0.25162E+07         0.00000E+00
    0.25162E+07         0.12273E+08         0.00000E+00
    0.00000E+00         0.00000E+00         0.30761E+07
 
    0.30838E+07         0.26070E+07         0.00000E+00
    0.26070E+07         0.12284E+08         0.00000E+00
    0.00000E+00         0.00000E+00         0.30736E+07
 
    0.33318E+07         0.91362E+04         0.00000E+00
    0.91362E+04         0.10900E+08         0.00000E+00
    0.00000E+00         0.00000E+00         0.28464E+07
 
    0.33617E+07         0.29511E+05         0.00000E+00
    0.29511E+05         0.10902E+08         0.00000E+00
    0.00000E+00         0.00000E+00         0.28527E+07
 
    0.33883E+07         0.50875E+05         0.00000E+00
    0.50875E+05         0.10905E+08         0.00000E+00
    0.00000E+00         0.00000E+00         0.28586E+07
 
    0.34118E+07         0.73293E+05         0.00000E+00
    0.73293E+05         0.10909E+08         0.00000E+00
    0.00000E+00         0.00000E+00         0.28642E+07
 
    0.34324E+07         0.96825E+05         0.00000E+00
    0.96825E+05         0.10915E+08         0.00000E+00
    0.00000E+00         0.00000E+00         0.28694E+07
 
    0.34501E+07         0.12153E+06         0.00000E+00
    0.12153E+06         0.10921E+08         0.00000E+00
    0.00000E+00         0.00000E+00         0.28743E+07
 
    0.34651E+07         0.14745E+06         0.00000E+00
    0.14745E+06         0.10929E+08         0.00000E+00
    0.00000E+00         0.00000E+00         0.28788E+07
 
    0.34774E+07         0.17464E+06         0.00000E+00
    0.17464E+06         0.10938E+08         0.00000E+00
    0.00000E+00         0.00000E+00         0.28831E+07
 
    0.34872E+07         0.20314E+06         0.00000E+00
    0.20314E+06         0.10948E+08         0.00000E+00
    0.00000E+00         0.00000E+00         0.28870E+07
 
    0.34946E+07         0.23299E+06         0.00000E+00
    0.23299E+06         0.10958E+08         0.00000E+00
    0.00000E+00         0.00000E+00         0.28906E+07
 
    0.34998E+07         0.26422E+06         0.00000E+00
    0.26422E+06         0.10970E+08         0.00000E+00
    0.00000E+00         0.00000E+00         0.28940E+07
 
    0.35027E+07         0.29687E+06         0.00000E+00
    0.29687E+06         0.10983E+08         0.00000E+00
    0.00000E+00         0.00000E+00         0.28971E+07
 
    0.35036E+07         0.33097E+06         0.00000E+00
    0.33097E+06         0.10996E+08         0.00000E+00
    0.00000E+00         0.00000E+00         0.28999E+07
 
    0.35025E+07         0.36653E+06         0.00000E+00
    0.36653E+06         0.11010E+08         0.00000E+00
    0.00000E+00         0.00000E+00         0.29024E+07
 
    0.34995E+07         0.40359E+06         0.00000E+00
    0.40359E+06         0.11024E+08         0.00000E+00
    0.00000E+00         0.00000E+00         0.29047E+07
 
    0.34948E+07         0.44216E+06         0.00000E+00
    0.44216E+06         0.11039E+08         0.00000E+00
    0.00000E+00         0.00000E+00         0.29068E+07
 
    0.34884E+07         0.48225E+06         0.00000E+00
    0.48225E+06         0.11055E+08         0.00000E+00
    0.00000E+00         0.00000E+00         0.29086E+07
 
    0.34805E+07         0.52389E+06         0.00000E+00
    0.52389E+06         0.11071E+08         0.00000E+00
    0.00000E+00         0.00000E+00         0.29102E+07
 
    0.34711E+07         0.56707E+06         0.00000E+00
    0.56707E+06         0.11087E+08         0.00000E+00
    0.00000E+00         0.00000E+00         0.29116E+07
 
    0.34604E+07         0.61182E+06         0.00000E+00
    0.61182E+06         0.11104E+08         0.00000E+00
    0.00000E+00         0.00000E+00         0.29128E+07
 
    0.34484E+07         0.65813E+06         0.00000E+00
    0.65813E+06         0.11121E+08         0.00000E+00
    0.00000E+00         0.00000E+00         0.29138E+07
 
    0.34352E+07         0.70602E+06         0.00000E+00
    0.70602E+06         0.11138E+08         0.00000E+00
    0.00000E+00         0.00000E+00         0.29147E+07
 
    0.34210E+07         0.75547E+06         0.00000E+00
    0.75547E+06         0.11156E+08         0.00000E+00
    0.00000E+00         0.00000E+00         0.29153E+07
 
    0.34058E+07         0.80650E+06         0.00000E+00
    0.80650E+06         0.11173E+08         0.00000E+00
    0.00000E+00         0.00000E+00         0.29158E+07
 
    0.33896E+07         0.85910E+06         0.00000E+00
    0.85910E+06         0.11191E+08         0.00000E+00
    0.00000E+00         0.00000E+00         0.29161E+07
 
    0.33727E+07         0.91327E+06         0.00000E+00
    0.91327E+06         0.11209E+08         0.00000E+00
    0.00000E+00         0.00000E+00         0.29162E+07
 
    0.33550E+07         0.96901E+06         0.00000E+00
    0.96901E+06         0.11226E+08         0.00000E+00
    0.00000E+00         0.00000E+00         0.29163E+07
 
    0.33366E+07         0.10263E+07         0.00000E+00
    0.10263E+07         0.11244E+08         0.00000E+00
    0.00000E+00         0.00000E+00         0.29161E+07
 
    0.33177E+07         0.10851E+07         0.00000E+00
    0.10851E+07         0.11262E+08         0.00000E+00
    0.00000E+00         0.00000E+00         0.29159E+07
 
    0.32982E+07         0.11455E+07         0.00000E+00
    0.11455E+07         0.11279E+08         0.00000E+00
    0.00000E+00         0.00000E+00         0.29155E+07
 
    0.32783E+07         0.12074E+07         0.00000E+00
    0.12074E+07         0.11297E+08         0.00000E+00
    0.00000E+00         0.00000E+00         0.29150E+07
 
    0.32581E+07         0.12709E+07         0.00000E+00
    0.12709E+07         0.11314E+08         0.00000E+00
    0.00000E+00         0.00000E+00         0.29144E+07
 
    0.32375E+07         0.13358E+07         0.00000E+00
    0.13358E+07         0.11331E+08         0.00000E+00
    0.00000E+00         0.00000E+00         0.29137E+07
 
    0.32168E+07         0.14022E+07         0.00000E+00
    0.14022E+07         0.11348E+08         0.00000E+00
    0.00000E+00         0.00000E+00         0.29129E+07
 
    0.31958E+07         0.14701E+07         0.00000E+00
    0.14701E+07         0.11364E+08         0.00000E+00
    0.00000E+00         0.00000E+00         0.29119E+07
 
    0.31748E+07         0.15395E+07         0.00000E+00
    0.15395E+07         0.11380E+08         0.00000E+00
    0.00000E+00         0.00000E+00         0.29109E+07
 
    0.31537E+07         0.16103E+07         0.00000E+00
    0.16103E+07         0.11396E+08         0.00000E+00
    0.00000E+00         0.00000E+00         0.29099E+07
 
    0.31326E+07         0.16825E+07         0.00000E+00
    0.16825E+07         0.11411E+08         0.00000E+00
    0.00000E+00         0.00000E+00         0.29087E+07
 
    0.31116E+07         0.17561E+07         0.00000E+00
    0.17561E+07         0.11426E+08         0.00000E+00
    0.00000E+00         0.00000E+00         0.29075E+07
 
    0.30907E+07         0.18312E+07         0.00000E+00
    0.18312E+07         0.11440E+08         0.00000E+00
    0.00000E+00         0.00000E+00         0.29062E+07
 
    0.30699E+07         0.19075E+07         0.00000E+00
    0.19075E+07         0.11454E+08         0.00000E+00
    0.00000E+00         0.00000E+00         0.29048E+07
 
    0.30494E+07         0.19853E+07         0.00000E+00
    0.19853E+07         0.11467E+08         0.00000E+00
    0.00000E+00         0.00000E+00         0.29034E+07
 
    0.30292E+07         0.20643E+07         0.00000E+00
    0.20643E+07         0.11480E+08         0.00000E+00
    0.00000E+00         0.00000E+00         0.29019E+07
 
    0.30092E+07         0.21446E+07         0.00000E+00
    0.21446E+07         0.11492E+08         0.00000E+00
    0.00000E+00         0.00000E+00         0.29003E+07
 
    0.29896E+07         0.22263E+07         0.00000E+00
    0.22263E+07         0.11504E+08         0.00000E+00
    0.00000E+00         0.00000E+00         0.28987E+07
 
    0.29703E+07         0.23091E+07         0.00000E+00
    0.23091E+07         0.11515E+08         0.00000E+00
    0.00000E+00         0.00000E+00         0.28971E+07
 
    0.29515E+07         0.23932E+07         0.00000E+00
    0.23932E+07         0.11525E+08         0.00000E+00
    0.00000E+00         0.00000E+00         0.28954E+07
 
    0.29331E+07         0.24785E+07         0.00000E+00
    0.24785E+07         0.11535E+08         0.00000E+00
    0.00000E+00         0.00000E+00         0.28936E+07
 
    0.29151E+07         0.25650E+07         0.00000E+00
    0.25650E+07         0.11544E+08         0.00000E+00
    0.00000E+00         0.00000E+00         0.28918E+07
 
    0.28977E+07         0.26526E+07         0.00000E+00
    0.26526E+07         0.11552E+08         0.00000E+00
    0.00000E+00         0.00000E+00         0.28900E+07
 
    0.28326E+07         0.12471E+05         0.00000E+00
    0.12471E+05         0.10286E+08         0.00000E+00
    0.00000E+00         0.00000E+00         0.26237E+07
 
    0.28665E+07         0.38892E+05         0.00000E+00
    0.38892E+05         0.10287E+08         0.00000E+00
    0.00000E+00         0.00000E+00         0.26307E+07
 
    0.28976E+07         0.66032E+05         0.00000E+00
    0.66032E+05         0.10290E+08         0.00000E+00
    0.00000E+00         0.00000E+00         0.26374E+07
 
    0.29258E+07         0.93956E+05         0.00000E+00
    0.93956E+05         0.10293E+08         0.00000E+00
    0.00000E+00         0.00000E+00         0.26438E+07
 
    0.29514E+07         0.12272E+06         0.00000E+00
    0.12272E+06         0.10298E+08         0.00000E+00
    0.00000E+00         0.00000E+00         0.26499E+07
 
    0.29744E+07         0.15239E+06         0.00000E+00
    0.15239E+06         0.10304E+08         0.00000E+00
    0.00000E+00         0.00000E+00         0.26557E+07
 
    0.29949E+07         0.18300E+06         0.00000E+00
    0.18300E+06         0.10311E+08         0.00000E+00
    0.00000E+00         0.00000E+00         0.26612E+07
 
    0.30130E+07         0.21461E+06         0.00000E+00
    0.21461E+06         0.10319E+08         0.00000E+00
    0.00000E+00         0.00000E+00         0.26664E+07
 
    0.30288E+07         0.24726E+06         0.00000E+00
    0.24726E+06         0.10327E+08         0.00000E+00
    0.00000E+00         0.00000E+00         0.26712E+07
 
    0.30424E+07         0.28100E+06         0.00000E+00
    0.28100E+06         0.10337E+08         0.00000E+00
    0.00000E+00         0.00000E+00         0.26759E+07
 
    0.30539E+07         0.31586E+06         0.00000E+00
    0.31586E+06         0.10347E+08         0.00000E+00
    0.00000E+00         0.00000E+00         0.26802E+07
 
    0.30634E+07         0.35187E+06         0.00000E+00
    0.35187E+06         0.10358E+08         0.00000E+00
    0.00000E+00         0.00000E+00         0.26843E+07
 
    0.30709E+07         0.38907E+06         0.00000E+00
    0.38907E+06         0.10370E+08         0.00000E+00
    0.00000E+00         0.00000E+00         0.26881E+07
 
    0.30766E+07         0.42749E+06         0.00000E+00
    0.42749E+06         0.10382E+08         0.00000E+00
    0.00000E+00         0.00000E+00         0.26917E+07
 
    0.30806E+07         0.46715E+06         0.00000E+00
    0.46715E+06         0.10395E+08         0.00000E+00
    0.00000E+00         0.00000E+00         0.26951E+07
 
    0.30829E+07         0.50807E+06         0.00000E+00
    0.50807E+06         0.10408E+08         0.00000E+00
    0.00000E+00         0.00000E+00         0.26982E+07
 
    0.30836E+07         0.55028E+06         0.00000E+00
    0.55028E+06         0.10422E+08         0.00000E+00
    0.00000E+00         0.00000E+00         0.27011E+07
 
    0.30828E+07         0.59379E+06         0.00000E+00
    0.59379E+06         0.10436E+08         0.00000E+00
    0.00000E+00         0.00000E+00         0.27037E+07
 
    0.30807E+07         0.63862E+06         0.00000E+00
    0.63862E+06         0.10450E+08         0.00000E+00
    0.00000E+00         0.00000E+00         0.27062E+07
 
    0.30773E+07         0.68478E+06         0.00000E+00
    0.68478E+06         0.10465E+08         0.00000E+00
    0.00000E+00         0.00000E+00         0.27085E+07
 
    0.30726E+07         0.73229E+06         0.00000E+00
    0.73229E+06         0.10480E+08         0.00000E+00
    0.00000E+00         0.00000E+00         0.27105E+07
 
    0.30668E+07         0.78115E+06         0.00000E+00
    0.78115E+06         0.10495E+08         0.00000E+00
    0.00000E+00         0.00000E+00         0.27124E+07
 
    0.30600E+07         0.83136E+06         0.00000E+00
    0.83136E+06         0.10511E+08         0.00000E+00
    0.00000E+00         0.00000E+00         0.27141E+07
 
    0.30521E+07         0.88295E+06         0.00000E+00
    0.88295E+06         0.10526E+08         0.00000E+00
    0.00000E+00         0.00000E+00         0.27156E+07
 
    0.30434E+07         0.93589E+06         0.00000E+00
    0.93589E+06         0.10542E+08         0.00000E+00
    0.00000E+00         0.00000E+00         0.27170E+07
 
    0.30338E+07         0.99021E+06         0.00000E+00
    0.99021E+06         0.10557E+08         0.00000E+00
    0.00000E+00         0.00000E+00         0.27182E+07
 
    0.30235E+07         0.10459E+07         0.00000E+00
    0.10459E+07         0.10573E+08         0.00000E+00
    0.00000E+00         0.00000E+00         0.27192E+07
 
    0.30124E+07         0.11030E+07         0.00000E+00
    0.11030E+07         0.10588E+08         0.00000E+00
    0.00000E+00         0.00000E+00         0.27201E+07
 
    0.30008E+07         0.11614E+07         0.00000E+00
    0.11614E+07         0.10604E+08         0.00000E+00
    0.00000E+00         0.00000E+00         0.27209E+07
 
    0.29886E+07         0.12211E+07         0.00000E+00
    0.12211E+07         0.10619E+08         0.00000E+00
    0.00000E+00         0.00000E+00         0.27215E+07
 
    0.29760E+07         0.12823E+07         0.00000E+00
    0.12823E+07         0.10634E+08         0.00000E+00
    0.00000E+00         0.00000E+00         0.27220E+07
 
    0.29629E+07         0.13448E+07         0.00000E+00
    0.13448E+07         0.10649E+08         0.00000E+00
    0.00000E+00         0.00000E+00         0.27223E+07
 
    0.29495E+07         0.14086E+07         0.00000E+00
    0.14086E+07         0.10663E+08         0.00000E+00
    0.00000E+00         0.00000E+00         0.27226E+07
 
    0.29358E+07         0.14737E+07         0.00000E+00
    0.14737E+07         0.10678E+08         0.00000E+00
    0.00000E+00         0.00000E+00         0.27227E+07
 
    0.29218E+07         0.15402E+07         0.00000E+00
    0.15402E+07         0.10692E+08         0.00000E+00
    0.00000E+00         0.00000E+00         0.27227E+07
 
    0.29077E+07         0.16080E+07         0.00000E+00
    0.16080E+07         0.10706E+08         0.00000E+00
    0.00000E+00         0.00000E+00         0.27226E+07
 
    0.28934E+07         0.16770E+07         0.00000E+00
    0.16770E+07         0.10719E+08         0.00000E+00
    0.00000E+00         0.00000E+00         0.27225E+07
 
    0.28791E+07         0.17474E+07         0.00000E+00
    0.17474E+07         0.10732E+08         0.00000E+00
    0.00000E+00         0.00000E+00         0.27222E+07
 
    0.28648E+07         0.18190E+07         0.00000E+00
    0.18190E+07         0.10744E+08         0.00000E+00
    0.00000E+00         0.00000E+00         0.27218E+07
 
    0.28505E+07         0.18919E+07         0.00000E+00
    0.18919E+07         0.10756E+08         0.00000E+00
    0.00000E+00         0.00000E+00         0.27213E+07
 
    0.28362E+07         0.19660E+07         0.00000E+00
    0.19660E+07         0.10768E+08         0.00000E+00
    0.00000E+00         0.00000E+00         0.27208E+07
 
    0.28221E+07         0.20413E+07         0.00000E+00
    0.20413E+07         0.10779E+08         0.00000E+00
    0.00000E+00         0.00000E+00         0.27201E+07
 
    0.28081E+07         0.21179E+07         0.00000E+00
    0.21179E+07         0.10789E+08         0.00000E+00
    0.00000E+00         0.00000E+00         0.27194E+07
 
    0.27943E+07         0.21956E+07         0.00000E+00
    0.21956E+07         0.10799E+08         0.00000E+00
    0.00000E+00         0.00000E+00         0.27186E+07
 
    0.27808E+07         0.22745E+07         0.00000E+00
    0.22745E+07         0.10808E+08         0.00000E+00
    0.00000E+00         0.00000E+00         0.27177E+07
 
    0.27675E+07         0.23545E+07         0.00000E+00
    0.23545E+07         0.10817E+08         0.00000E+00
    0.00000E+00         0.00000E+00         0.27168E+07
 
    0.27545E+07         0.24357E+07         0.00000E+00
    0.24357E+07         0.10824E+08         0.00000E+00
    0.00000E+00         0.00000E+00         0.27158E+07
 
    0.27418E+07         0.25180E+07         0.00000E+00
    0.25180E+07         0.10832E+08         0.00000E+00
    0.00000E+00         0.00000E+00         0.27147E+07
 
    0.27295E+07         0.26014E+07         0.00000E+00
    0.26014E+07         0.10838E+08         0.00000E+00
    0.00000E+00         0.00000E+00         0.27136E+07
 
    0.27176E+07         0.26859E+07         0.00000E+00
    0.26859E+07         0.10844E+08         0.00000E+00
    0.00000E+00         0.00000E+00         0.27124E+07
 
    0.23857E+07         0.15311E+05         0.00000E+00
    0.15311E+05         0.96951E+07         0.00000E+00
    0.00000E+00         0.00000E+00         0.24162E+07
 
    0.24225E+07         0.46908E+05         0.00000E+00
    0.46908E+05         0.96962E+07         0.00000E+00
    0.00000E+00         0.00000E+00         0.24237E+07
 
    0.24568E+07         0.79006E+05         0.00000E+00
    0.79006E+05         0.96984E+07         0.00000E+00
    0.00000E+00         0.00000E+00         0.24310E+07
 
    0.24885E+07         0.11166E+06         0.00000E+00
    0.11166E+06         0.97016E+07         0.00000E+00
    0.00000E+00         0.00000E+00         0.24380E+07
 
    0.25179E+07         0.14494E+06         0.00000E+00
    0.14494E+06         0.97058E+07         0.00000E+00
    0.00000E+00         0.00000E+00         0.24447E+07
 
    0.25449E+07         0.17889E+06         0.00000E+00
    0.17889E+06         0.97109E+07         0.00000E+00
    0.00000E+00         0.00000E+00         0.24512E+07
 
    0.25697E+07         0.21355E+06         0.00000E+00
    0.21355E+06         0.97168E+07         0.00000E+00
    0.00000E+00         0.00000E+00         0.24573E+07
 
    0.25924E+07         0.24899E+06         0.00000E+00
    0.24899E+06         0.97236E+07         0.00000E+00
    0.00000E+00         0.00000E+00         0.24632E+07
 
    0.26129E+07         0.28524E+06         0.00000E+00
    0.28524E+06         0.97311E+07         0.00000E+00
    0.00000E+00         0.00000E+00         0.24688E+07
 
    0.26314E+07         0.32235E+06         0.00000E+00
    0.32235E+06         0.97393E+07         0.00000E+00
    0.00000E+00         0.00000E+00         0.24742E+07
 
    0.26480E+07         0.36035E+06         0.00000E+00
    0.36035E+06         0.97482E+07         0.00000E+00
    0.00000E+00         0.00000E+00         0.24793E+07
 
    0.26628E+07         0.39928E+06         0.00000E+00
    0.39928E+06         0.97578E+07         0.00000E+00
    0.00000E+00         0.00000E+00         0.24841E+07
 
    0.26757E+07         0.43918E+06         0.00000E+00
    0.43918E+06         0.97679E+07         0.00000E+00
    0.00000E+00         0.00000E+00         0.24887E+07
 
    0.26870E+07         0.48006E+06         0.00000E+00
    0.48006E+06         0.97785E+07         0.00000E+00
    0.00000E+00         0.00000E+00         0.24931E+07
 
    0.26967E+07         0.52197E+06         0.00000E+00
    0.52197E+06         0.97896E+07         0.00000E+00
    0.00000E+00         0.00000E+00         0.24973E+07
 
    0.27048E+07         0.56492E+06         0.00000E+00
    0.56492E+06         0.98011E+07         0.00000E+00
    0.00000E+00         0.00000E+00         0.25012E+07
 
    0.27115E+07         0.60895E+06         0.00000E+00
    0.60895E+06         0.98130E+07         0.00000E+00
    0.00000E+00         0.00000E+00         0.25049E+07
 
    0.27168E+07         0.65406E+06         0.00000E+00
    0.65406E+06         0.98253E+07         0.00000E+00
    0.00000E+00         0.00000E+00         0.25084E+07
 
    0.27208E+07         0.70028E+06         0.00000E+00
    0.70028E+06         0.98378E+07         0.00000E+00
    0.00000E+00         0.00000E+00         0.25117E+07
 
    0.27235E+07         0.74763E+06         0.00000E+00
    0.74763E+06         0.98506E+07         0.00000E+00
    0.00000E+00         0.00000E+00         0.25148E+07
 
    0.27251E+07         0.79612E+06         0.00000E+00
    0.79612E+06         0.98636E+07         0.00000E+00
    0.00000E+00         0.00000E+00         0.25177E+07
 
    0.27256E+07         0.84576E+06         0.00000E+00
    0.84576E+06         0.98768E+07         0.00000E+00
    0.00000E+00         0.00000E+00         0.25205E+07
 
    0.27250E+07         0.89656E+06         0.00000E+00
    0.89656E+06         0.98901E+07         0.00000E+00
    0.00000E+00         0.00000E+00         0.25230E+07
 
    0.27236E+07         0.94853E+06         0.00000E+00
    0.94853E+06         0.99034E+07         0.00000E+00
    0.00000E+00         0.00000E+00         0.25254E+07
 
    0.27212E+07         0.10017E+07         0.00000E+00
    0.10017E+07         0.99169E+07         0.00000E+00
    0.00000E+00         0.00000E+00         0.25276E+07
 
    0.27180E+07         0.10560E+07         0.00000E+00
    0.10560E+07         0.99303E+07         0.00000E+00
    0.00000E+00         0.00000E+00         0.25297E+07
 
    0.27141E+07         0.11115E+07         0.00000E+00
    0.11115E+07         0.99436E+07         0.00000E+00
    0.00000E+00         0.00000E+00         0.25315E+07
 
    0.27095E+07         0.11683E+07         0.00000E+00
    0.11683E+07         0.99569E+07         0.00000E+00
    0.00000E+00         0.00000E+00         0.25333E+07
 
    0.27043E+07         0.12262E+07         0.00000E+00
    0.12262E+07         0.99701E+07         0.00000E+00
    0.00000E+00         0.00000E+00         0.25349E+07
 
    0.26985E+07         0.12852E+07         0.00000E+00
    0.12852E+07         0.99831E+07         0.00000E+00
    0.00000E+00         0.00000E+00         0.25363E+07
 
    0.26922E+07         0.13455E+07         0.00000E+00
    0.13455E+07         0.99960E+07         0.00000E+00
    0.00000E+00         0.00000E+00         0.25376E+07
 
    0.26854E+07         0.14070E+07         0.00000E+00
    0.14070E+07         0.10009E+08         0.00000E+00
    0.00000E+00         0.00000E+00         0.25388E+07
 
    0.26783E+07         0.14696E+07         0.00000E+00
    0.14696E+07         0.10021E+08         0.00000E+00
    0.00000E+00         0.00000E+00         0.25399E+07
 
    0.26708E+07         0.15335E+07         0.00000E+00
    0.15335E+07         0.10033E+08         0.00000E+00
    0.00000E+00         0.00000E+00         0.25408E+07
 
    0.26631E+07         0.15985E+07         0.00000E+00
    0.15985E+07         0.10045E+08         0.00000E+00
    0.00000E+00         0.00000E+00         0.25416E+07
 
    0.26552E+07         0.16646E+07         0.00000E+00
    0.16646E+07         0.10056E+08         0.00000E+00
    0.00000E+00         0.00000E+00         0.25423E+07
 
    0.26470E+07         0.17319E+07         0.00000E+00
    0.17319E+07         0.10067E+08         0.00000E+00
    0.00000E+00         0.00000E+00         0.25428E+07
 
    0.26387E+07         0.18004E+07         0.00000E+00
    0.18004E+07         0.10078E+08         0.00000E+00
    0.00000E+00         0.00000E+00         0.25433E+07
 
    0.26304E+07         0.18700E+07         0.00000E+00
    0.18700E+07         0.10088E+08         0.00000E+00
    0.00000E+00         0.00000E+00         0.25437E+07
 
    0.26220E+07         0.19407E+07         0.00000E+00
    0.19407E+07         0.10098E+08         0.00000E+00
    0.00000E+00         0.00000E+00         0.25439E+07
 
    0.26136E+07         0.20126E+07         0.00000E+00
    0.20126E+07         0.10107E+08         0.00000E+00
    0.00000E+00         0.00000E+00         0.25441E+07
 
    0.26053E+07         0.20855E+07         0.00000E+00
    0.20855E+07         0.10115E+08         0.00000E+00
    0.00000E+00         0.00000E+00         0.25441E+07
 
    0.25970E+07         0.21596E+07         0.00000E+00
    0.21596E+07         0.10124E+08         0.00000E+00
    0.00000E+00         0.00000E+00         0.25441E+07
 
    0.25889E+07         0.22347E+07         0.00000E+00
    0.22347E+07         0.10131E+08         0.00000E+00
    0.00000E+00         0.00000E+00         0.25440E+07
 
    0.25809E+07         0.23109E+07         0.00000E+00
    0.23109E+07         0.10138E+08         0.00000E+00
    0.00000E+00         0.00000E+00         0.25438E+07
 
    0.25731E+07         0.23881E+07         0.00000E+00
    0.23881E+07         0.10144E+08         0.00000E+00
    0.00000E+00         0.00000E+00         0.25435E+07
 
    0.25655E+07         0.24664E+07         0.00000E+00
    0.24664E+07         0.10150E+08         0.00000E+00
    0.00000E+00         0.00000E+00         0.25431E+07
 
    0.25582E+07         0.25457E+07         0.00000E+00
    0.25457E+07         0.10155E+08         0.00000E+00
    0.00000E+00         0.00000E+00         0.25426E+07
 
    0.25512E+07         0.26261E+07         0.00000E+00
    0.26261E+07         0.10159E+08         0.00000E+00
    0.00000E+00         0.00000E+00         0.25421E+07
 
    0.25444E+07         0.27074E+07         0.00000E+00
    0.27074E+07         0.10163E+08         0.00000E+00
    0.00000E+00         0.00000E+00         0.25415E+07
 
    0.19873E+07         0.17700E+05         0.00000E+00
    0.17700E+05         0.91284E+07         0.00000E+00
    0.00000E+00         0.00000E+00         0.22231E+07
 
    0.20260E+07         0.53671E+05         0.00000E+00
    0.53671E+05         0.91294E+07         0.00000E+00
    0.00000E+00         0.00000E+00         0.22311E+07
 
    0.20624E+07         0.89963E+05         0.00000E+00
    0.89963E+05         0.91312E+07         0.00000E+00
    0.00000E+00         0.00000E+00         0.22387E+07
 
    0.20966E+07         0.12663E+06         0.00000E+00
    0.12663E+06         0.91340E+07         0.00000E+00
    0.00000E+00         0.00000E+00         0.22461E+07
 
    0.21287E+07         0.16374E+06         0.00000E+00
    0.16374E+06         0.91375E+07         0.00000E+00
    0.00000E+00         0.00000E+00         0.22533E+07
 
    0.21588E+07         0.20132E+06         0.00000E+00
    0.20132E+06         0.91419E+07         0.00000E+00
    0.00000E+00         0.00000E+00         0.22601E+07
 
    0.21868E+07         0.23944E+06         0.00000E+00
    0.23944E+06         0.91470E+07         0.00000E+00
    0.00000E+00         0.00000E+00         0.22668E+07
 
    0.22128E+07         0.27814E+06         0.00000E+00
    0.27814E+06         0.91528E+07         0.00000E+00
    0.00000E+00         0.00000E+00         0.22731E+07
 
    0.22370E+07         0.31745E+06         0.00000E+00
    0.31745E+06         0.91592E+07         0.00000E+00
    0.00000E+00         0.00000E+00         0.22793E+07
 
    0.22594E+07         0.35743E+06         0.00000E+00
    0.35743E+06         0.91663E+07         0.00000E+00
    0.00000E+00         0.00000E+00         0.22851E+07
 
    0.22801E+07         0.39811E+06         0.00000E+00
    0.39811E+06         0.91739E+07         0.00000E+00
    0.00000E+00         0.00000E+00         0.22908E+07
 
    0.22990E+07         0.43952E+06         0.00000E+00
    0.43952E+06         0.91821E+07         0.00000E+00
    0.00000E+00         0.00000E+00         0.22962E+07
 
    0.23164E+07         0.48170E+06         0.00000E+00
    0.48170E+06         0.91907E+07         0.00000E+00
    0.00000E+00         0.00000E+00         0.23014E+07
 
    0.23322E+07         0.52468E+06         0.00000E+00
    0.52468E+06         0.91998E+07         0.00000E+00
    0.00000E+00         0.00000E+00         0.23064E+07
 
    0.23465E+07         0.56848E+06         0.00000E+00
    0.56848E+06         0.92093E+07         0.00000E+00
    0.00000E+00         0.00000E+00         0.23112E+07
 
    0.23594E+07         0.61314E+06         0.00000E+00
    0.61314E+06         0.92192E+07         0.00000E+00
    0.00000E+00         0.00000E+00         0.23157E+07
 
    0.23710E+07         0.65868E+06         0.00000E+00
    0.65868E+06         0.92294E+07         0.00000E+00
    0.00000E+00         0.00000E+00         0.23201E+07
 
    0.23813E+07         0.70512E+06         0.00000E+00
    0.70512E+06         0.92399E+07         0.00000E+00
    0.00000E+00         0.00000E+00         0.23242E+07
 
    0.23904E+07         0.75249E+06         0.00000E+00
    0.75249E+06         0.92506E+07         0.00000E+00
    0.00000E+00         0.00000E+00         0.23282E+07
 
    0.23983E+07         0.80079E+06         0.00000E+00
    0.80079E+06         0.92615E+07         0.00000E+00
    0.00000E+00         0.00000E+00         0.23320E+07
 
    0.24051E+07         0.85005E+06         0.00000E+00
    0.85005E+06         0.92726E+07         0.00000E+00
    0.00000E+00         0.00000E+00         0.23355E+07
 
    0.24109E+07         0.90028E+06         0.00000E+00
    0.90028E+06         0.92838E+07         0.00000E+00
    0.00000E+00         0.00000E+00         0.23389E+07
 
    0.24158E+07         0.95149E+06         0.00000E+00
    0.95149E+06         0.92951E+07         0.00000E+00
    0.00000E+00         0.00000E+00         0.23422E+07
 
    0.24197E+07         0.10037E+07         0.00000E+00
    0.10037E+07         0.93064E+07         0.00000E+00
    0.00000E+00         0.00000E+00         0.23452E+07
 
    0.24228E+07         0.10569E+07         0.00000E+00
    0.10569E+07         0.93178E+07         0.00000E+00
    0.00000E+00         0.00000E+00         0.23481E+07
 
    0.24252E+07         0.11111E+07         0.00000E+00
    0.11111E+07         0.93291E+07         0.00000E+00
    0.00000E+00         0.00000E+00         0.23509E+07
 
    0.24267E+07         0.11664E+07         0.00000E+00
    0.11664E+07         0.93404E+07         0.00000E+00
    0.00000E+00         0.00000E+00         0.23534E+07
 
    0.24277E+07         0.12227E+07         0.00000E+00
    0.12227E+07         0.93516E+07         0.00000E+00
    0.00000E+00         0.00000E+00         0.23559E+07
 
    0.24280E+07         0.12800E+07         0.00000E+00
    0.12800E+07         0.93626E+07         0.00000E+00
    0.00000E+00         0.00000E+00         0.23581E+07
 
    0.24277E+07         0.13383E+07         0.00000E+00
    0.13383E+07         0.93735E+07         0.00000E+00
    0.00000E+00         0.00000E+00         0.23603E+07
 
    0.24270E+07         0.13977E+07         0.00000E+00
    0.13977E+07         0.93842E+07         0.00000E+00
    0.00000E+00         0.00000E+00         0.23622E+07
 
    0.24258E+07         0.14581E+07         0.00000E+00
    0.14581E+07         0.93947E+07         0.00000E+00
    0.00000E+00         0.00000E+00         0.23641E+07
 
    0.24242E+07         0.15195E+07         0.00000E+00
    0.15195E+07         0.94048E+07         0.00000E+00
    0.00000E+00         0.00000E+00         0.23658E+07
 
    0.24222E+07         0.15820E+07         0.00000E+00
    0.15820E+07         0.94147E+07         0.00000E+00
    0.00000E+00         0.00000E+00         0.23674E+07
 
    0.24200E+07         0.16455E+07         0.00000E+00
    0.16455E+07         0.94243E+07         0.00000E+00
    0.00000E+00         0.00000E+00         0.23689E+07
 
    0.24175E+07         0.17101E+07         0.00000E+00
    0.17101E+07         0.94335E+07         0.00000E+00
    0.00000E+00         0.00000E+00         0.23702E+07
 
    0.24148E+07         0.17756E+07         0.00000E+00
    0.17756E+07         0.94423E+07         0.00000E+00
    0.00000E+00         0.00000E+00         0.23714E+07
 
    0.24119E+07         0.18422E+07         0.00000E+00
    0.18422E+07         0.94508E+07         0.00000E+00
    0.00000E+00         0.00000E+00         0.23725E+07
 
    0.24089E+07         0.19098E+07         0.00000E+00
    0.19098E+07         0.94587E+07         0.00000E+00
    0.00000E+00         0.00000E+00         0.23735E+07
 
    0.24058E+07         0.19784E+07         0.00000E+00
    0.19784E+07         0.94662E+07         0.00000E+00
    0.00000E+00         0.00000E+00         0.23744E+07
 
    0.24027E+07         0.20480E+07         0.00000E+00
    0.20480E+07         0.94733E+07         0.00000E+00
    0.00000E+00         0.00000E+00         0.23752E+07
 
    0.23995E+07         0.21186E+07         0.00000E+00
    0.21186E+07         0.94797E+07         0.00000E+00
    0.00000E+00         0.00000E+00         0.23759E+07
 
    0.23965E+07         0.21901E+07         0.00000E+00
    0.21901E+07         0.94857E+07         0.00000E+00
    0.00000E+00         0.00000E+00         0.23764E+07
 
    0.23934E+07         0.22627E+07         0.00000E+00
    0.22627E+07         0.94911E+07         0.00000E+00
    0.00000E+00         0.00000E+00         0.23769E+07
 
    0.23905E+07         0.23362E+07         0.00000E+00
    0.23362E+07         0.94958E+07         0.00000E+00
    0.00000E+00         0.00000E+00         0.23773E+07
 
    0.23877E+07         0.24107E+07         0.00000E+00
    0.24107E+07         0.95000E+07         0.00000E+00
    0.00000E+00         0.00000E+00         0.23775E+07
 
    0.23851E+07         0.24861E+07         0.00000E+00
    0.24861E+07         0.95035E+07         0.00000E+00
    0.00000E+00         0.00000E+00         0.23777E+07
 
    0.23827E+07         0.25625E+07         0.00000E+00
    0.25625E+07         0.95064E+07         0.00000E+00
    0.00000E+00         0.00000E+00         0.23778E+07
 
    0.23805E+07         0.26398E+07         0.00000E+00
    0.26398E+07         0.95086E+07         0.00000E+00
    0.00000E+00         0.00000E+00         0.23778E+07
 
    0.23786E+07         0.27180E+07         0.00000E+00
    0.27180E+07         0.95101E+07         0.00000E+00
    0.00000E+00         0.00000E+00         0.23777E+07
 
    0.16334E+07         0.19683E+05         0.00000E+00
    0.19683E+05         0.85858E+07         0.00000E+00
    0.00000E+00         0.00000E+00         0.20438E+07
 
    0.16732E+07         0.59298E+05         0.00000E+00
    0.59298E+05         0.85866E+07         0.00000E+00
    0.00000E+00         0.00000E+00         0.20520E+07
 
    0.17110E+07         0.99090E+05         0.00000E+00
    0.99090E+05         0.85882E+07         0.00000E+00
    0.00000E+00         0.00000E+00         0.20598E+07
 
    0.17468E+07         0.13911E+06         0.00000E+00
    0.13911E+06         0.85905E+07         0.00000E+00
    0.00000E+00         0.00000E+00         0.20675E+07
 
    0.17808E+07         0.17942E+06         0.00000E+00
    0.17942E+06         0.85935E+07         0.00000E+00
    0.00000E+00         0.00000E+00         0.20749E+07
 
    0.18129E+07         0.22005E+06         0.00000E+00
    0.22005E+06         0.85972E+07         0.00000E+00
    0.00000E+00         0.00000E+00         0.20820E+07
 
    0.18433E+07         0.26105E+06         0.00000E+00
    0.26105E+06         0.86015E+07         0.00000E+00
    0.00000E+00         0.00000E+00         0.20890E+07
 
    0.18719E+07         0.30247E+06         0.00000E+00
    0.30247E+06         0.86064E+07         0.00000E+00
    0.00000E+00         0.00000E+00         0.20957E+07
 
    0.18989E+07         0.34435E+06         0.00000E+00
    0.34435E+06         0.86119E+07         0.00000E+00
    0.00000E+00         0.00000E+00         0.21021E+07
 
    0.19242E+07         0.38672E+06         0.00000E+00
    0.38672E+06         0.86178E+07         0.00000E+00
    0.00000E+00         0.00000E+00         0.21084E+07
 
    0.19480E+07         0.42963E+06         0.00000E+00
    0.42963E+06         0.86243E+07         0.00000E+00
    0.00000E+00         0.00000E+00         0.21144E+07
 
    0.19702E+07         0.47311E+06         0.00000E+00
    0.47311E+06         0.86312E+07         0.00000E+00
    0.00000E+00         0.00000E+00         0.21203E+07
 
    0.19910E+07         0.51719E+06         0.00000E+00
    0.51719E+06         0.86385E+07         0.00000E+00
    0.00000E+00         0.00000E+00         0.21259E+07
 
    0.20104E+07         0.56189E+06         0.00000E+00
    0.56189E+06         0.86461E+07         0.00000E+00
    0.00000E+00         0.00000E+00         0.21313E+07
 
    0.20285E+07         0.60726E+06         0.00000E+00
    0.60726E+06         0.86541E+07         0.00000E+00
    0.00000E+00         0.00000E+00         0.21365E+07
 
    0.20453E+07         0.65332E+06         0.00000E+00
    0.65332E+06         0.86625E+07         0.00000E+00
    0.00000E+00         0.00000E+00         0.21416E+07
 
    0.20609E+07         0.70009E+06         0.00000E+00
    0.70009E+06         0.86710E+07         0.00000E+00
    0.00000E+00         0.00000E+00         0.21464E+07
 
    0.20752E+07         0.74759E+06         0.00000E+00
    0.74759E+06         0.86799E+07         0.00000E+00
    0.00000E+00         0.00000E+00         0.21510E+07
 
    0.20885E+07         0.79584E+06         0.00000E+00
    0.79584E+06         0.86889E+07         0.00000E+00
    0.00000E+00         0.00000E+00         0.21555E+07
 
    0.21007E+07         0.84488E+06         0.00000E+00
    0.84488E+06         0.86980E+07         0.00000E+00
    0.00000E+00         0.00000E+00         0.21597E+07
 
    0.21119E+07         0.89470E+06         0.00000E+00
    0.89470E+06         0.87073E+07         0.00000E+00
    0.00000E+00         0.00000E+00         0.21638E+07
 
    0.21222E+07         0.94534E+06         0.00000E+00
    0.94534E+06         0.87167E+07         0.00000E+00
    0.00000E+00         0.00000E+00         0.21678E+07
 
    0.21315E+07         0.99680E+06         0.00000E+00
    0.99680E+06         0.87261E+07         0.00000E+00
    0.00000E+00         0.00000E+00         0.21715E+07
 
    0.21401E+07         0.10491E+07         0.00000E+00
    0.10491E+07         0.87355E+07         0.00000E+00
    0.00000E+00         0.00000E+00         0.21751E+07
 
    0.21478E+07         0.11022E+07         0.00000E+00
    0.11022E+07         0.87450E+07         0.00000E+00
    0.00000E+00         0.00000E+00         0.21785E+07
 
    0.21548E+07         0.11562E+07         0.00000E+00
    0.11562E+07         0.87543E+07         0.00000E+00
    0.00000E+00         0.00000E+00         0.21818E+07
 
    0.21611E+07         0.12111E+07         0.00000E+00
    0.12111E+07         0.87636E+07         0.00000E+00
    0.00000E+00         0.00000E+00         0.21849E+07
 
    0.21667E+07         0.12669E+07         0.00000E+00
    0.12669E+07         0.87728E+07         0.00000E+00
    0.00000E+00         0.00000E+00         0.21879E+07
 
    0.21718E+07         0.13235E+07         0.00000E+00
    0.13235E+07         0.87819E+07         0.00000E+00
    0.00000E+00         0.00000E+00         0.21907E+07
 
    0.21763E+07         0.13810E+07         0.00000E+00
    0.13810E+07         0.87907E+07         0.00000E+00
    0.00000E+00         0.00000E+00         0.21934E+07
 
    0.21804E+07         0.14394E+07         0.00000E+00
    0.14394E+07         0.87994E+07         0.00000E+00
    0.00000E+00         0.00000E+00         0.21960E+07
 
    0.21840E+07         0.14988E+07         0.00000E+00
    0.14988E+07         0.88078E+07         0.00000E+00
    0.00000E+00         0.00000E+00         0.21984E+07
 
    0.21872E+07         0.15590E+07         0.00000E+00
    0.15590E+07         0.88159E+07         0.00000E+00
    0.00000E+00         0.00000E+00         0.22006E+07
 
    0.21900E+07         0.16201E+07         0.00000E+00
    0.16201E+07         0.88238E+07         0.00000E+00
    0.00000E+00         0.00000E+00         0.22028E+07
 
    0.21926E+07         0.16821E+07         0.00000E+00
    0.16821E+07         0.88313E+07         0.00000E+00
    0.00000E+00         0.00000E+00         0.22048E+07
 
    0.21948E+07         0.17450E+07         0.00000E+00
    0.17450E+07         0.88385E+07         0.00000E+00
    0.00000E+00         0.00000E+00         0.22067E+07
 
    0.21969E+07         0.18088E+07         0.00000E+00
    0.18088E+07         0.88453E+07         0.00000E+00
    0.00000E+00         0.00000E+00         0.22084E+07
 
    0.21988E+07         0.18735E+07         0.00000E+00
    0.18735E+07         0.88516E+07         0.00000E+00
    0.00000E+00         0.00000E+00         0.22101E+07
 
    0.22005E+07         0.19391E+07         0.00000E+00
    0.19391E+07         0.88576E+07         0.00000E+00
    0.00000E+00         0.00000E+00         0.22116E+07
 
    0.22021E+07         0.20056E+07         0.00000E+00
    0.20056E+07         0.88630E+07         0.00000E+00
    0.00000E+00         0.00000E+00         0.22130E+07
 
    0.22037E+07         0.20730E+07         0.00000E+00
    0.20730E+07         0.88680E+07         0.00000E+00
    0.00000E+00         0.00000E+00         0.22143E+07
 
    0.22052E+07         0.21412E+07         0.00000E+00
    0.21412E+07         0.88725E+07         0.00000E+00
    0.00000E+00         0.00000E+00         0.22155E+07
 
    0.22068E+07         0.22104E+07         0.00000E+00
    0.22104E+07         0.88764E+07         0.00000E+00
    0.00000E+00         0.00000E+00         0.22166E+07
 
    0.22083E+07         0.22804E+07         0.00000E+00
    0.22804E+07         0.88798E+07         0.00000E+00
    0.00000E+00         0.00000E+00         0.22176E+07
 
    0.22100E+07         0.23512E+07         0.00000E+00
    0.23512E+07         0.88826E+07         0.00000E+00
    0.00000E+00         0.00000E+00         0.22185E+07
 
    0.22117E+07         0.24230E+07         0.00000E+00
    0.24230E+07         0.88848E+07         0.00000E+00
    0.00000E+00         0.00000E+00         0.22193E+07
 
    0.22136E+07         0.24956E+07         0.00000E+00
    0.24956E+07         0.88863E+07         0.00000E+00
    0.00000E+00         0.00000E+00         0.22200E+07
 
    0.22157E+07         0.25690E+07         0.00000E+00
    0.25690E+07         0.88872E+07         0.00000E+00
    0.00000E+00         0.00000E+00         0.22206E+07
 
    0.22179E+07         0.26433E+07         0.00000E+00
    0.26433E+07         0.88874E+07         0.00000E+00
    0.00000E+00         0.00000E+00         0.22211E+07
 
    0.22204E+07         0.27185E+07         0.00000E+00
    0.27185E+07         0.88870E+07         0.00000E+00
    0.00000E+00         0.00000E+00         0.22215E+07
 
    0.13204E+07         0.21307E+05         0.00000E+00
    0.21307E+05         0.80672E+07         0.00000E+00
    0.00000E+00         0.00000E+00         0.18775E+07
 
    0.13606E+07         0.63911E+05         0.00000E+00
    0.63911E+05         0.80679E+07         0.00000E+00
    0.00000E+00         0.00000E+00         0.18857E+07
 
    0.13991E+07         0.10658E+06         0.00000E+00
    0.10658E+06         0.80692E+07         0.00000E+00
    0.00000E+00         0.00000E+00         0.18937E+07
 
    0.14359E+07         0.14935E+06         0.00000E+00
    0.14935E+06         0.80712E+07         0.00000E+00
    0.00000E+00         0.00000E+00         0.19014E+07
 
    0.14710E+07         0.19228E+06         0.00000E+00
    0.19228E+06         0.80737E+07         0.00000E+00
    0.00000E+00         0.00000E+00         0.19089E+07
 
    0.15045E+07         0.23541E+06         0.00000E+00
    0.23541E+06         0.80767E+07         0.00000E+00
    0.00000E+00         0.00000E+00         0.19163E+07
 
    0.15365E+07         0.27879E+06         0.00000E+00
    0.27879E+06         0.80803E+07         0.00000E+00
    0.00000E+00         0.00000E+00         0.19234E+07
 
    0.15669E+07         0.32244E+06         0.00000E+00
    0.32244E+06         0.80844E+07         0.00000E+00
    0.00000E+00         0.00000E+00         0.19303E+07
 
    0.15959E+07         0.36642E+06         0.00000E+00
    0.36642E+06         0.80889E+07         0.00000E+00
    0.00000E+00         0.00000E+00         0.19370E+07
 
    0.16234E+07         0.41076E+06         0.00000E+00
    0.41076E+06         0.80939E+07         0.00000E+00
    0.00000E+00         0.00000E+00         0.19434E+07
 
    0.16495E+07         0.45548E+06         0.00000E+00
    0.45548E+06         0.80992E+07         0.00000E+00
    0.00000E+00         0.00000E+00         0.19497E+07
 
    0.16743E+07         0.50064E+06         0.00000E+00
    0.50064E+06         0.81049E+07         0.00000E+00
    0.00000E+00         0.00000E+00         0.19558E+07
 
    0.16977E+07         0.54625E+06         0.00000E+00
    0.54625E+06         0.81110E+07         0.00000E+00
    0.00000E+00         0.00000E+00         0.19617E+07
 
    0.17200E+07         0.59235E+06         0.00000E+00
    0.59235E+06         0.81174E+07         0.00000E+00
    0.00000E+00         0.00000E+00         0.19675E+07
 
    0.17410E+07         0.63896E+06         0.00000E+00
    0.63896E+06         0.81240E+07         0.00000E+00
    0.00000E+00         0.00000E+00         0.19730E+07
 
    0.17608E+07         0.68612E+06         0.00000E+00
    0.68612E+06         0.81309E+07         0.00000E+00
    0.00000E+00         0.00000E+00         0.19783E+07
 
    0.17796E+07         0.73384E+06         0.00000E+00
    0.73384E+06         0.81380E+07         0.00000E+00
    0.00000E+00         0.00000E+00         0.19835E+07
 
    0.17973E+07         0.78215E+06         0.00000E+00
    0.78215E+06         0.81453E+07         0.00000E+00
    0.00000E+00         0.00000E+00         0.19885E+07
 
    0.18139E+07         0.83107E+06         0.00000E+00
    0.83107E+06         0.81527E+07         0.00000E+00
    0.00000E+00         0.00000E+00         0.19933E+07
 
    0.18296E+07         0.88062E+06         0.00000E+00
    0.88062E+06         0.81602E+07         0.00000E+00
    0.00000E+00         0.00000E+00         0.19980E+07
 
    0.18444E+07         0.93082E+06         0.00000E+00
    0.93082E+06         0.81678E+07         0.00000E+00
    0.00000E+00         0.00000E+00         0.20025E+07
 
    0.18584E+07         0.98168E+06         0.00000E+00
    0.98168E+06         0.81755E+07         0.00000E+00
    0.00000E+00         0.00000E+00         0.20068E+07
 
    0.18715E+07         0.10332E+07         0.00000E+00
    0.10332E+07         0.81832E+07         0.00000E+00
    0.00000E+00         0.00000E+00         0.20109E+07
 
    0.18838E+07         0.10855E+07         0.00000E+00
    0.10855E+07         0.81908E+07         0.00000E+00
    0.00000E+00         0.00000E+00         0.20149E+07
 
    0.18954E+07         0.11384E+07         0.00000E+00
    0.11384E+07         0.81985E+07         0.00000E+00
    0.00000E+00         0.00000E+00         0.20188E+07
 
    0.19063E+07         0.11921E+07         0.00000E+00
    0.11921E+07         0.82061E+07         0.00000E+00
    0.00000E+00         0.00000E+00         0.20225E+07
 
    0.19165E+07         0.12465E+07         0.00000E+00
    0.12465E+07         0.82135E+07         0.00000E+00
    0.00000E+00         0.00000E+00         0.20260E+07
 
    0.19262E+07         0.13016E+07         0.00000E+00
    0.13016E+07         0.82209E+07         0.00000E+00
    0.00000E+00         0.00000E+00         0.20294E+07
 
    0.19353E+07         0.13575E+07         0.00000E+00
    0.13575E+07         0.82280E+07         0.00000E+00
    0.00000E+00         0.00000E+00         0.20327E+07
 
    0.19439E+07         0.14142E+07         0.00000E+00
    0.14142E+07         0.82350E+07         0.00000E+00
    0.00000E+00         0.00000E+00         0.20358E+07
 
    0.19520E+07         0.14716E+07         0.00000E+00
    0.14716E+07         0.82418E+07         0.00000E+00
    0.00000E+00         0.00000E+00         0.20388E+07
 
    0.19598E+07         0.15298E+07         0.00000E+00
    0.15298E+07         0.82483E+07         0.00000E+00
    0.00000E+00         0.00000E+00         0.20416E+07
 
    0.19671E+07         0.15887E+07         0.00000E+00
    0.15887E+07         0.82546E+07         0.00000E+00
    0.00000E+00         0.00000E+00         0.20443E+07
 
    0.19741E+07         0.16484E+07         0.00000E+00
    0.16484E+07         0.82605E+07         0.00000E+00
    0.00000E+00         0.00000E+00         0.20469E+07
 
    0.19808E+07         0.17089E+07         0.00000E+00
    0.17089E+07         0.82661E+07         0.00000E+00
    0.00000E+00         0.00000E+00         0.20494E+07
 
    0.19872E+07         0.17702E+07         0.00000E+00
    0.17702E+07         0.82714E+07         0.00000E+00
    0.00000E+00         0.00000E+00         0.20517E+07
 
    0.19934E+07         0.18323E+07         0.00000E+00
    0.18323E+07         0.82763E+07         0.00000E+00
    0.00000E+00         0.00000E+00         0.20539E+07
 
    0.19995E+07         0.18951E+07         0.00000E+00
    0.18951E+07         0.82808E+07         0.00000E+00
    0.00000E+00         0.00000E+00         0.20560E+07
 
    0.20054E+07         0.19587E+07         0.00000E+00
    0.19587E+07         0.82848E+07         0.00000E+00
    0.00000E+00         0.00000E+00         0.20580E+07
 
    0.20111E+07         0.20231E+07         0.00000E+00
    0.20231E+07         0.82884E+07         0.00000E+00
    0.00000E+00         0.00000E+00         0.20599E+07
 
    0.20168E+07         0.20883E+07         0.00000E+00
    0.20883E+07         0.82915E+07         0.00000E+00
    0.00000E+00         0.00000E+00         0.20617E+07
 
    0.20225E+07         0.21543E+07         0.00000E+00
    0.21543E+07         0.82941E+07         0.00000E+00
    0.00000E+00         0.00000E+00         0.20633E+07
 
    0.20281E+07         0.22210E+07         0.00000E+00
    0.22210E+07         0.82962E+07         0.00000E+00
    0.00000E+00         0.00000E+00         0.20649E+07
 
    0.20338E+07         0.22885E+07         0.00000E+00
    0.22885E+07         0.82978E+07         0.00000E+00
    0.00000E+00         0.00000E+00         0.20663E+07
 
    0.20395E+07         0.23568E+07         0.00000E+00
    0.23568E+07         0.82987E+07         0.00000E+00
    0.00000E+00         0.00000E+00         0.20676E+07
 
    0.20453E+07         0.24258E+07         0.00000E+00
    0.24258E+07         0.82991E+07         0.00000E+00
    0.00000E+00         0.00000E+00         0.20689E+07
 
    0.20512E+07         0.24957E+07         0.00000E+00
    0.24957E+07         0.82988E+07         0.00000E+00
    0.00000E+00         0.00000E+00         0.20700E+07
 
    0.20573E+07         0.25662E+07         0.00000E+00
    0.25662E+07         0.82979E+07         0.00000E+00
    0.00000E+00         0.00000E+00         0.20710E+07
 
    0.20635E+07         0.26376E+07         0.00000E+00
    0.26376E+07         0.82964E+07         0.00000E+00
    0.00000E+00         0.00000E+00         0.20720E+07
 
    0.20699E+07         0.27096E+07         0.00000E+00
    0.27096E+07         0.82941E+07         0.00000E+00
    0.00000E+00         0.00000E+00         0.20728E+07
 
    0.10447E+07         0.22613E+05         0.00000E+00
    0.22613E+05         0.75723E+07         0.00000E+00
    0.00000E+00         0.00000E+00         0.17234E+07
 
    0.10849E+07         0.67625E+05         0.00000E+00
    0.67625E+05         0.75729E+07         0.00000E+00
    0.00000E+00         0.00000E+00         0.17315E+07
 
    0.11235E+07         0.11261E+06         0.00000E+00
    0.11261E+06         0.75739E+07         0.00000E+00
    0.00000E+00         0.00000E+00         0.17395E+07
 
    0.11607E+07         0.15760E+06         0.00000E+00
    0.15760E+06         0.75755E+07         0.00000E+00
    0.00000E+00         0.00000E+00         0.17472E+07
 
    0.11964E+07         0.20265E+06         0.00000E+00
    0.20265E+06         0.75776E+07         0.00000E+00
    0.00000E+00         0.00000E+00         0.17548E+07
 
    0.12308E+07         0.24779E+06         0.00000E+00
    0.24779E+06         0.75801E+07         0.00000E+00
    0.00000E+00         0.00000E+00         0.17622E+07
 
    0.12637E+07         0.29307E+06         0.00000E+00
    0.29307E+06         0.75830E+07         0.00000E+00
    0.00000E+00         0.00000E+00         0.17693E+07
 
    0.12953E+07         0.33852E+06         0.00000E+00
    0.33852E+06         0.75863E+07         0.00000E+00
    0.00000E+00         0.00000E+00         0.17763E+07
 
    0.13256E+07         0.38417E+06         0.00000E+00
    0.38417E+06         0.75900E+07         0.00000E+00
    0.00000E+00         0.00000E+00         0.17831E+07
 
    0.13546E+07         0.43007E+06         0.00000E+00
    0.43007E+06         0.75941E+07         0.00000E+00
    0.00000E+00         0.00000E+00         0.17897E+07
 
    0.13825E+07         0.47624E+06         0.00000E+00
    0.47624E+06         0.75985E+07         0.00000E+00
    0.00000E+00         0.00000E+00         0.17962E+07
 
    0.14091E+07         0.52272E+06         0.00000E+00
    0.52272E+06         0.76031E+07         0.00000E+00
    0.00000E+00         0.00000E+00         0.18024E+07
 
    0.14345E+07         0.56953E+06         0.00000E+00
    0.56953E+06         0.76081E+07         0.00000E+00
    0.00000E+00         0.00000E+00         0.18085E+07
 
    0.14589E+07         0.61670E+06         0.00000E+00
    0.61670E+06         0.76132E+07         0.00000E+00
    0.00000E+00         0.00000E+00         0.18144E+07
 
    0.14821E+07         0.66427E+06         0.00000E+00
    0.66427E+06         0.76186E+07         0.00000E+00
    0.00000E+00         0.00000E+00         0.18202E+07
 
    0.15044E+07         0.71225E+06         0.00000E+00
    0.71225E+06         0.76242E+07         0.00000E+00
    0.00000E+00         0.00000E+00         0.18257E+07
 
    0.15256E+07         0.76067E+06         0.00000E+00
    0.76067E+06         0.76299E+07         0.00000E+00
    0.00000E+00         0.00000E+00         0.18311E+07
 
    0.15459E+07         0.80955E+06         0.00000E+00
    0.80955E+06         0.76358E+07         0.00000E+00
    0.00000E+00         0.00000E+00         0.18363E+07
 
    0.15653E+07         0.85891E+06         0.00000E+00
    0.85891E+06         0.76418E+07         0.00000E+00
    0.00000E+00         0.00000E+00         0.18414E+07
 
    0.15838E+07         0.90878E+06         0.00000E+00
    0.90878E+06         0.76478E+07         0.00000E+00
    0.00000E+00         0.00000E+00         0.18463E+07
 
    0.16015E+07         0.95917E+06         0.00000E+00
    0.95917E+06         0.76539E+07         0.00000E+00
    0.00000E+00         0.00000E+00         0.18511E+07
 
    0.16184E+07         0.10101E+07         0.00000E+00
    0.10101E+07         0.76600E+07         0.00000E+00
    0.00000E+00         0.00000E+00         0.18557E+07
 
    0.16345E+07         0.10616E+07         0.00000E+00
    0.10616E+07         0.76661E+07         0.00000E+00
    0.00000E+00         0.00000E+00         0.18601E+07
 
    0.16500E+07         0.11136E+07         0.00000E+00
    0.11136E+07         0.76722E+07         0.00000E+00
    0.00000E+00         0.00000E+00         0.18644E+07
 
    0.16647E+07         0.11663E+07         0.00000E+00
    0.11663E+07         0.76782E+07         0.00000E+00
    0.00000E+00         0.00000E+00         0.18686E+07
 
    0.16789E+07         0.12195E+07         0.00000E+00
    0.12195E+07         0.76841E+07         0.00000E+00
    0.00000E+00         0.00000E+00         0.18726E+07
 
    0.16925E+07         0.12733E+07         0.00000E+00
    0.12733E+07         0.76898E+07         0.00000E+00
    0.00000E+00         0.00000E+00         0.18765E+07
 
    0.17055E+07         0.13278E+07         0.00000E+00
    0.13278E+07         0.76955E+07         0.00000E+00
    0.00000E+00         0.00000E+00         0.18802E+07
 
    0.17180E+07         0.13828E+07         0.00000E+00
    0.13828E+07         0.77010E+07         0.00000E+00
    0.00000E+00         0.00000E+00         0.18838E+07
 
    0.17300E+07         0.14386E+07         0.00000E+00
    0.14386E+07         0.77062E+07         0.00000E+00
    0.00000E+00         0.00000E+00         0.18872E+07
 
    0.17416E+07         0.14949E+07         0.00000E+00
    0.14949E+07         0.77113E+07         0.00000E+00
    0.00000E+00         0.00000E+00         0.18906E+07
 
    0.17528E+07         0.15519E+07         0.00000E+00
    0.15519E+07         0.77161E+07         0.00000E+00
    0.00000E+00         0.00000E+00         0.18938E+07
 
    0.17637E+07         0.16096E+07         0.00000E+00
    0.16096E+07         0.77206E+07         0.00000E+00
    0.00000E+00         0.00000E+00         0.18968E+07
 
    0.17742E+07         0.16679E+07         0.00000E+00
    0.16679E+07         0.77248E+07         0.00000E+00
    0.00000E+00         0.00000E+00         0.18998E+07
 
    0.17845E+07         0.17269E+07         0.00000E+00
    0.17269E+07         0.77287E+07         0.00000E+00
    0.00000E+00         0.00000E+00         0.19026E+07
 
    0.17945E+07         0.17865E+07         0.00000E+00
    0.17865E+07         0.77322E+07         0.00000E+00
    0.00000E+00         0.00000E+00         0.19053E+07
 
    0.18043E+07         0.18469E+07         0.00000E+00
    0.18469E+07         0.77354E+07         0.00000E+00
    0.00000E+00         0.00000E+00         0.19079E+07
 
    0.18139E+07         0.19079E+07         0.00000E+00
    0.19079E+07         0.77381E+07         0.00000E+00
    0.00000E+00         0.00000E+00         0.19104E+07
 
    0.18234E+07         0.19695E+07         0.00000E+00
    0.19695E+07         0.77404E+07         0.00000E+00
    0.00000E+00         0.00000E+00         0.19128E+07
 
    0.18327E+07         0.20319E+07         0.00000E+00
    0.20319E+07         0.77423E+07         0.00000E+00
    0.00000E+00         0.00000E+00         0.19150E+07
 
    0.18420E+07         0.20949E+07         0.00000E+00
    0.20949E+07         0.77437E+07         0.00000E+00
    0.00000E+00         0.00000E+00         0.19172E+07
 
    0.18513E+07         0.21586E+07         0.00000E+00
    0.21586E+07         0.77447E+07         0.00000E+00
    0.00000E+00         0.00000E+00         0.19192E+07
 
    0.18605E+07         0.22230E+07         0.00000E+00
    0.22230E+07         0.77451E+07         0.00000E+00
    0.00000E+00         0.00000E+00         0.19211E+07
 
    0.18698E+07         0.22880E+07         0.00000E+00
    0.22880E+07         0.77449E+07         0.00000E+00
    0.00000E+00         0.00000E+00         0.19229E+07
 
    0.18791E+07         0.23538E+07         0.00000E+00
    0.23538E+07         0.77442E+07         0.00000E+00
    0.00000E+00         0.00000E+00         0.19247E+07
 
    0.18885E+07         0.24202E+07         0.00000E+00
    0.24202E+07         0.77429E+07         0.00000E+00
    0.00000E+00         0.00000E+00         0.19263E+07
 
    0.18979E+07         0.24872E+07         0.00000E+00
    0.24872E+07         0.77411E+07         0.00000E+00
    0.00000E+00         0.00000E+00         0.19278E+07
 
    0.19076E+07         0.25550E+07         0.00000E+00
    0.25550E+07         0.77386E+07         0.00000E+00
    0.00000E+00         0.00000E+00         0.19292E+07
 
    0.19174E+07         0.26234E+07         0.00000E+00
    0.26234E+07         0.77354E+07         0.00000E+00
    0.00000E+00         0.00000E+00         0.19306E+07
 
    0.19273E+07         0.26925E+07         0.00000E+00
    0.26925E+07         0.77316E+07         0.00000E+00
    0.00000E+00         0.00000E+00         0.19318E+07
 
    0.80317E+06         0.23642E+05         0.00000E+00
    0.23642E+05         0.71006E+07         0.00000E+00
    0.00000E+00         0.00000E+00         0.15807E+07
 
    0.84287E+06         0.70552E+05         0.00000E+00
    0.70552E+05         0.71010E+07         0.00000E+00
    0.00000E+00         0.00000E+00         0.15888E+07
 
    0.88127E+06         0.11736E+06         0.00000E+00
    0.11736E+06         0.71019E+07         0.00000E+00
    0.00000E+00         0.00000E+00         0.15966E+07
 
    0.91839E+06         0.16409E+06         0.00000E+00
    0.16409E+06         0.71031E+07         0.00000E+00
    0.00000E+00         0.00000E+00         0.16043E+07
 
    0.95425E+06         0.21080E+06         0.00000E+00
    0.21080E+06         0.71048E+07         0.00000E+00
    0.00000E+00         0.00000E+00         0.16118E+07
 
    0.98889E+06         0.25752E+06         0.00000E+00
    0.25752E+06         0.71068E+07         0.00000E+00
    0.00000E+00         0.00000E+00         0.16191E+07
 
    0.10223E+07         0.30429E+06         0.00000E+00
    0.30429E+06         0.71091E+07         0.00000E+00
    0.00000E+00         0.00000E+00         0.16263E+07
 
    0.10546E+07         0.35113E+06         0.00000E+00
    0.35113E+06         0.71118E+07         0.00000E+00
    0.00000E+00         0.00000E+00         0.16333E+07
 
    0.10857E+07         0.39809E+06         0.00000E+00
    0.39809E+06         0.71148E+07         0.00000E+00
    0.00000E+00         0.00000E+00         0.16401E+07
 
    0.11157E+07         0.44519E+06         0.00000E+00
    0.44519E+06         0.71180E+07         0.00000E+00
    0.00000E+00         0.00000E+00         0.16467E+07
 
    0.11446E+07         0.49246E+06         0.00000E+00
    0.49246E+06         0.71215E+07         0.00000E+00
    0.00000E+00         0.00000E+00         0.16532E+07
 
    0.11725E+07         0.53994E+06         0.00000E+00
    0.53994E+06         0.71252E+07         0.00000E+00
    0.00000E+00         0.00000E+00         0.16595E+07
 
    0.11994E+07         0.58764E+06         0.00000E+00
    0.58764E+06         0.71291E+07         0.00000E+00
    0.00000E+00         0.00000E+00         0.16657E+07
 
    0.12253E+07         0.63561E+06         0.00000E+00
    0.63561E+06         0.71332E+07         0.00000E+00
    0.00000E+00         0.00000E+00         0.16717E+07
 
    0.12502E+07         0.68386E+06         0.00000E+00
    0.68386E+06         0.71375E+07         0.00000E+00
    0.00000E+00         0.00000E+00         0.16775E+07
 
    0.12742E+07         0.73241E+06         0.00000E+00
    0.73241E+06         0.71419E+07         0.00000E+00
    0.00000E+00         0.00000E+00         0.16832E+07
 
    0.12974E+07         0.78130E+06         0.00000E+00
    0.78130E+06         0.71464E+07         0.00000E+00
    0.00000E+00         0.00000E+00         0.16888E+07
 
    0.13197E+07         0.83053E+06         0.00000E+00
    0.83053E+06         0.71510E+07         0.00000E+00
    0.00000E+00         0.00000E+00         0.16941E+07
 
    0.13411E+07         0.88014E+06         0.00000E+00
    0.88014E+06         0.71557E+07         0.00000E+00
    0.00000E+00         0.00000E+00         0.16994E+07
 
    0.13619E+07         0.93014E+06         0.00000E+00
    0.93014E+06         0.71604E+07         0.00000E+00
    0.00000E+00         0.00000E+00         0.17044E+07
 
    0.13818E+07         0.98055E+06         0.00000E+00
    0.98055E+06         0.71651E+07         0.00000E+00
    0.00000E+00         0.00000E+00         0.17094E+07
 
    0.14011E+07         0.10314E+07         0.00000E+00
    0.10314E+07         0.71698E+07         0.00000E+00
    0.00000E+00         0.00000E+00         0.17142E+07
 
    0.14197E+07         0.10827E+07         0.00000E+00
    0.10827E+07         0.71744E+07         0.00000E+00
    0.00000E+00         0.00000E+00         0.17188E+07
 
    0.14376E+07         0.11344E+07         0.00000E+00
    0.11344E+07         0.71790E+07         0.00000E+00
    0.00000E+00         0.00000E+00         0.17233E+07
 
    0.14550E+07         0.11866E+07         0.00000E+00
    0.11866E+07         0.71835E+07         0.00000E+00
    0.00000E+00         0.00000E+00         0.17277E+07
 
    0.14718E+07         0.12393E+07         0.00000E+00
    0.12393E+07         0.71879E+07         0.00000E+00
    0.00000E+00         0.00000E+00         0.17319E+07
 
    0.14881E+07         0.12925E+07         0.00000E+00
    0.12925E+07         0.71922E+07         0.00000E+00
    0.00000E+00         0.00000E+00         0.17360E+07
 
    0.15038E+07         0.13461E+07         0.00000E+00
    0.13461E+07         0.71963E+07         0.00000E+00
    0.00000E+00         0.00000E+00         0.17400E+07
 
    0.15191E+07         0.14004E+07         0.00000E+00
    0.14004E+07         0.72002E+07         0.00000E+00
    0.00000E+00         0.00000E+00         0.17439E+07
 
    0.15340E+07         0.14551E+07         0.00000E+00
    0.14551E+07         0.72039E+07         0.00000E+00
    0.00000E+00         0.00000E+00         0.17476E+07
 
    0.15485E+07         0.15103E+07         0.00000E+00
    0.15103E+07         0.72074E+07         0.00000E+00
    0.00000E+00         0.00000E+00         0.17512E+07
 
    0.15626E+07         0.15661E+07         0.00000E+00
    0.15661E+07         0.72106E+07         0.00000E+00
    0.00000E+00         0.00000E+00         0.17547E+07
 
    0.15764E+07         0.16225E+07         0.00000E+00
    0.16225E+07         0.72136E+07         0.00000E+00
    0.00000E+00         0.00000E+00         0.17580E+07
 
    0.15900E+07         0.16794E+07         0.00000E+00
    0.16794E+07         0.72162E+07         0.00000E+00
    0.00000E+00         0.00000E+00         0.17612E+07
 
    0.16032E+07         0.17369E+07         0.00000E+00
    0.17369E+07         0.72185E+07         0.00000E+00
    0.00000E+00         0.00000E+00         0.17643E+07
 
    0.16163E+07         0.17949E+07         0.00000E+00
    0.17949E+07         0.72205E+07         0.00000E+00
    0.00000E+00         0.00000E+00         0.17674E+07
 
    0.16291E+07         0.18535E+07         0.00000E+00
    0.18535E+07         0.72221E+07         0.00000E+00
    0.00000E+00         0.00000E+00         0.17702E+07
 
    0.16418E+07         0.19127E+07         0.00000E+00
    0.19127E+07         0.72233E+07         0.00000E+00
    0.00000E+00         0.00000E+00         0.17730E+07
 
    0.16543E+07         0.19724E+07         0.00000E+00
    0.19724E+07         0.72241E+07         0.00000E+00
    0.00000E+00         0.00000E+00         0.17757E+07
 
    0.16668E+07         0.20327E+07         0.00000E+00
    0.20327E+07         0.72244E+07         0.00000E+00
    0.00000E+00         0.00000E+00         0.17782E+07
 
    0.16792E+07         0.20936E+07         0.00000E+00
    0.20936E+07         0.72243E+07         0.00000E+00
    0.00000E+00         0.00000E+00         0.17807E+07
 
    0.16915E+07         0.21551E+07         0.00000E+00
    0.21551E+07         0.72237E+07         0.00000E+00
    0.00000E+00         0.00000E+00         0.17830E+07
 
    0.17039E+07         0.22172E+07         0.00000E+00
    0.22172E+07         0.72226E+07         0.00000E+00
    0.00000E+00         0.00000E+00         0.17853E+07
 
    0.17162E+07         0.22798E+07         0.00000E+00
    0.22798E+07         0.72210E+07         0.00000E+00
    0.00000E+00         0.00000E+00         0.17874E+07
 
    0.17287E+07         0.23431E+07         0.00000E+00
    0.23431E+07         0.72188E+07         0.00000E+00
    0.00000E+00         0.00000E+00         0.17895E+07
 
    0.17412E+07         0.24069E+07         0.00000E+00
    0.24069E+07         0.72160E+07         0.00000E+00
    0.00000E+00         0.00000E+00         0.17914E+07
 
    0.17538E+07         0.24712E+07         0.00000E+00
    0.24712E+07         0.72127E+07         0.00000E+00
    0.00000E+00         0.00000E+00         0.17933E+07
 
    0.17665E+07         0.25362E+07         0.00000E+00
    0.25362E+07         0.72088E+07         0.00000E+00
    0.00000E+00         0.00000E+00         0.17951E+07
 
    0.17794E+07         0.26018E+07         0.00000E+00
    0.26018E+07         0.72042E+07         0.00000E+00
    0.00000E+00         0.00000E+00         0.17967E+07
 
    0.17925E+07         0.26679E+07         0.00000E+00
    0.26679E+07         0.71990E+07         0.00000E+00
    0.00000E+00         0.00000E+00         0.17983E+07
 
    0.59275E+06         0.24430E+05         0.00000E+00
    0.24430E+05         0.66514E+07         0.00000E+00
    0.00000E+00         0.00000E+00         0.14488E+07
 
    0.63167E+06         0.72791E+05         0.00000E+00
    0.72791E+05         0.66518E+07         0.00000E+00
    0.00000E+00         0.00000E+00         0.14567E+07
 
    0.66947E+06         0.12099E+06         0.00000E+00
    0.12099E+06         0.66525E+07         0.00000E+00
    0.00000E+00         0.00000E+00         0.14644E+07
 
    0.70616E+06         0.16905E+06         0.00000E+00
    0.16905E+06         0.66534E+07         0.00000E+00
    0.00000E+00         0.00000E+00         0.14719E+07
 
    0.74177E+06         0.21703E+06         0.00000E+00
    0.21703E+06         0.66547E+07         0.00000E+00
    0.00000E+00         0.00000E+00         0.14793E+07
 
    0.77631E+06         0.26494E+06         0.00000E+00
    0.26494E+06         0.66563E+07         0.00000E+00
    0.00000E+00         0.00000E+00         0.14865E+07
 
    0.80982E+06         0.31282E+06         0.00000E+00
    0.31282E+06         0.66581E+07         0.00000E+00
    0.00000E+00         0.00000E+00         0.14936E+07
 
    0.84230E+06         0.36071E+06         0.00000E+00
    0.36071E+06         0.66602E+07         0.00000E+00
    0.00000E+00         0.00000E+00         0.15005E+07
 
    0.87380E+06         0.40863E+06         0.00000E+00
    0.40863E+06         0.66625E+07         0.00000E+00
    0.00000E+00         0.00000E+00         0.15073E+07
 
    0.90433E+06         0.45661E+06         0.00000E+00
    0.45661E+06         0.66650E+07         0.00000E+00
    0.00000E+00         0.00000E+00         0.15139E+07
 
    0.93392E+06         0.50468E+06         0.00000E+00
    0.50468E+06         0.66677E+07         0.00000E+00
    0.00000E+00         0.00000E+00         0.15203E+07
 
    0.96259E+06         0.55287E+06         0.00000E+00
    0.55287E+06         0.66706E+07         0.00000E+00
    0.00000E+00         0.00000E+00         0.15266E+07
 
    0.99038E+06         0.60120E+06         0.00000E+00
    0.60120E+06         0.66736E+07         0.00000E+00
    0.00000E+00         0.00000E+00         0.15328E+07
 
    0.10173E+07         0.64970E+06         0.00000E+00
    0.64970E+06         0.66768E+07         0.00000E+00
    0.00000E+00         0.00000E+00         0.15388E+07
 
    0.10434E+07         0.69839E+06         0.00000E+00
    0.69839E+06         0.66800E+07         0.00000E+00
    0.00000E+00         0.00000E+00         0.15447E+07
 
    0.10687E+07         0.74729E+06         0.00000E+00
    0.74729E+06         0.66834E+07         0.00000E+00
    0.00000E+00         0.00000E+00         0.15504E+07
 
    0.10932E+07         0.79643E+06         0.00000E+00
    0.79643E+06         0.66868E+07         0.00000E+00
    0.00000E+00         0.00000E+00         0.15560E+07
 
    0.11170E+07         0.84583E+06         0.00000E+00
    0.84583E+06         0.66903E+07         0.00000E+00
    0.00000E+00         0.00000E+00         0.15614E+07
 
    0.11400E+07         0.89549E+06         0.00000E+00
    0.89549E+06         0.66937E+07         0.00000E+00
    0.00000E+00         0.00000E+00         0.15668E+07
 
    0.11624E+07         0.94546E+06         0.00000E+00
    0.94546E+06         0.66972E+07         0.00000E+00
    0.00000E+00         0.00000E+00         0.15719E+07
 
    0.11841E+07         0.99573E+06         0.00000E+00
    0.99573E+06         0.67007E+07         0.00000E+00
    0.00000E+00         0.00000E+00         0.15770E+07
 
    0.12052E+07         0.10463E+07         0.00000E+00
    0.10463E+07         0.67041E+07         0.00000E+00
    0.00000E+00         0.00000E+00         0.15819E+07
 
    0.12257E+07         0.10973E+07         0.00000E+00
    0.10973E+07         0.67075E+07         0.00000E+00
    0.00000E+00         0.00000E+00         0.15866E+07
 
    0.12457E+07         0.11486E+07         0.00000E+00
    0.11486E+07         0.67108E+07         0.00000E+00
    0.00000E+00         0.00000E+00         0.15913E+07
 
    0.12651E+07         0.12002E+07         0.00000E+00
    0.12002E+07         0.67139E+07         0.00000E+00
    0.00000E+00         0.00000E+00         0.15958E+07
 
    0.12840E+07         0.12523E+07         0.00000E+00
    0.12523E+07         0.67170E+07         0.00000E+00
    0.00000E+00         0.00000E+00         0.16002E+07
 
    0.13024E+07         0.13047E+07         0.00000E+00
    0.13047E+07         0.67199E+07         0.00000E+00
    0.00000E+00         0.00000E+00         0.16045E+07
 
    0.13204E+07         0.13576E+07         0.00000E+00
    0.13576E+07         0.67226E+07         0.00000E+00
    0.00000E+00         0.00000E+00         0.16086E+07
 
    0.13380E+07         0.14109E+07         0.00000E+00
    0.14109E+07         0.67252E+07         0.00000E+00
    0.00000E+00         0.00000E+00         0.16126E+07
 
    0.13552E+07         0.14646E+07         0.00000E+00
    0.14646E+07         0.67275E+07         0.00000E+00
    0.00000E+00         0.00000E+00         0.16165E+07
 
    0.13720E+07         0.15187E+07         0.00000E+00
    0.15187E+07         0.67295E+07         0.00000E+00
    0.00000E+00         0.00000E+00         0.16203E+07
 
    0.13886E+07         0.15733E+07         0.00000E+00
    0.15733E+07         0.67314E+07         0.00000E+00
    0.00000E+00         0.00000E+00         0.16240E+07
 
    0.14048E+07         0.16283E+07         0.00000E+00
    0.16283E+07         0.67329E+07         0.00000E+00
    0.00000E+00         0.00000E+00         0.16275E+07
 
    0.14208E+07         0.16838E+07         0.00000E+00
    0.16838E+07         0.67341E+07         0.00000E+00
    0.00000E+00         0.00000E+00         0.16310E+07
 
    0.14366E+07         0.17397E+07         0.00000E+00
    0.17397E+07         0.67350E+07         0.00000E+00
    0.00000E+00         0.00000E+00         0.16343E+07
 
    0.14521E+07         0.17962E+07         0.00000E+00
    0.17962E+07         0.67356E+07         0.00000E+00
    0.00000E+00         0.00000E+00         0.16375E+07
 
    0.14675E+07         0.18531E+07         0.00000E+00
    0.18531E+07         0.67358E+07         0.00000E+00
    0.00000E+00         0.00000E+00         0.16407E+07
 
    0.14828E+07         0.19104E+07         0.00000E+00
    0.19104E+07         0.67356E+07         0.00000E+00
    0.00000E+00         0.00000E+00         0.16437E+07
 
    0.14979E+07         0.19683E+07         0.00000E+00
    0.19683E+07         0.67350E+07         0.00000E+00
    0.00000E+00         0.00000E+00         0.16466E+07
 
    0.15130E+07         0.20266E+07         0.00000E+00
    0.20266E+07         0.67340E+07         0.00000E+00
    0.00000E+00         0.00000E+00         0.16494E+07
 
    0.15280E+07         0.20854E+07         0.00000E+00
    0.20854E+07         0.67325E+07         0.00000E+00
    0.00000E+00         0.00000E+00         0.16521E+07
 
    0.15430E+07         0.21447E+07         0.00000E+00
    0.21447E+07         0.67306E+07         0.00000E+00
    0.00000E+00         0.00000E+00         0.16547E+07
 
    0.15579E+07         0.22045E+07         0.00000E+00
    0.22045E+07         0.67282E+07         0.00000E+00
    0.00000E+00         0.00000E+00         0.16572E+07
 
    0.15730E+07         0.22648E+07         0.00000E+00
    0.22648E+07         0.67252E+07         0.00000E+00
    0.00000E+00         0.00000E+00         0.16596E+07
 
    0.15880E+07         0.23256E+07         0.00000E+00
    0.23256E+07         0.67217E+07         0.00000E+00
    0.00000E+00         0.00000E+00         0.16620E+07
 
    0.16032E+07         0.23868E+07         0.00000E+00
    0.23868E+07         0.67177E+07         0.00000E+00
    0.00000E+00         0.00000E+00         0.16642E+07
 
    0.16184E+07         0.24486E+07         0.00000E+00
    0.24486E+07         0.67131E+07         0.00000E+00
    0.00000E+00         0.00000E+00         0.16663E+07
 
    0.16338E+07         0.25109E+07         0.00000E+00
    0.25109E+07         0.67079E+07         0.00000E+00
    0.00000E+00         0.00000E+00         0.16684E+07
 
    0.16494E+07         0.25736E+07         0.00000E+00
    0.25736E+07         0.67021E+07         0.00000E+00
    0.00000E+00         0.00000E+00         0.16703E+07
 
    0.16652E+07         0.26369E+07         0.00000E+00
    0.26369E+07         0.66957E+07         0.00000E+00
    0.00000E+00         0.00000E+00         0.16722E+07
 
    0.41063E+06         0.25010E+05         0.00000E+00
    0.25010E+05         0.62242E+07         0.00000E+00
    0.00000E+00         0.00000E+00         0.13270E+07
 
    0.44851E+06         0.74435E+05         0.00000E+00
    0.74435E+05         0.62244E+07         0.00000E+00
    0.00000E+00         0.00000E+00         0.13346E+07
 
    0.48543E+06         0.12365E+06         0.00000E+00
    0.12365E+06         0.62250E+07         0.00000E+00
    0.00000E+00         0.00000E+00         0.13421E+07
 
    0.52140E+06         0.17268E+06         0.00000E+00
    0.17268E+06         0.62257E+07         0.00000E+00
    0.00000E+00         0.00000E+00         0.13494E+07
 
    0.55645E+06         0.22157E+06         0.00000E+00
    0.22157E+06         0.62267E+07         0.00000E+00
    0.00000E+00         0.00000E+00         0.13566E+07
 
    0.59058E+06         0.27034E+06         0.00000E+00
    0.27034E+06         0.62279E+07         0.00000E+00
    0.00000E+00         0.00000E+00         0.13637E+07
 
    0.62381E+06         0.31902E+06         0.00000E+00
    0.31902E+06         0.62292E+07         0.00000E+00
    0.00000E+00         0.00000E+00         0.13706E+07
 
    0.65617E+06         0.36764E+06         0.00000E+00
    0.36764E+06         0.62308E+07         0.00000E+00
    0.00000E+00         0.00000E+00         0.13774E+07
 
    0.68768E+06         0.41623E+06         0.00000E+00
    0.41623E+06         0.62325E+07         0.00000E+00
    0.00000E+00         0.00000E+00         0.13840E+07
 
    0.71835E+06         0.46481E+06         0.00000E+00
    0.46481E+06         0.62344E+07         0.00000E+00
    0.00000E+00         0.00000E+00         0.13905E+07
 
    0.74820E+06         0.51341E+06         0.00000E+00
    0.51341E+06         0.62364E+07         0.00000E+00
    0.00000E+00         0.00000E+00         0.13969E+07
 
    0.77727E+06         0.56206E+06         0.00000E+00
    0.56206E+06         0.62385E+07         0.00000E+00
    0.00000E+00         0.00000E+00         0.14032E+07
 
    0.80556E+06         0.61077E+06         0.00000E+00
    0.61077E+06         0.62408E+07         0.00000E+00
    0.00000E+00         0.00000E+00         0.14093E+07
 
    0.83310E+06         0.65957E+06         0.00000E+00
    0.65957E+06         0.62431E+07         0.00000E+00
    0.00000E+00         0.00000E+00         0.14152E+07
 
    0.85993E+06         0.70849E+06         0.00000E+00
    0.70849E+06         0.62454E+07         0.00000E+00
    0.00000E+00         0.00000E+00         0.14211E+07
 
    0.88605E+06         0.75754E+06         0.00000E+00
    0.75754E+06         0.62478E+07         0.00000E+00
    0.00000E+00         0.00000E+00         0.14268E+07
 
    0.91150E+06         0.80674E+06         0.00000E+00
    0.80674E+06         0.62503E+07         0.00000E+00
    0.00000E+00         0.00000E+00         0.14324E+07
 
    0.93630E+06         0.85612E+06         0.00000E+00
    0.85612E+06         0.62527E+07         0.00000E+00
    0.00000E+00         0.00000E+00         0.14378E+07
 
    0.96048E+06         0.90569E+06         0.00000E+00
    0.90569E+06         0.62552E+07         0.00000E+00
    0.00000E+00         0.00000E+00         0.14431E+07
 
    0.98405E+06         0.95546E+06         0.00000E+00
    0.95546E+06         0.62576E+07         0.00000E+00
    0.00000E+00         0.00000E+00         0.14483E+07
 
    0.10071E+07         0.10055E+07         0.00000E+00
    0.10055E+07         0.62600E+07         0.00000E+00
    0.00000E+00         0.00000E+00         0.14534E+07
 
    0.10295E+07         0.10557E+07         0.00000E+00
    0.10557E+07         0.62623E+07         0.00000E+00
    0.00000E+00         0.00000E+00         0.14584E+07
 
    0.10515E+07         0.11062E+07         0.00000E+00
    0.11062E+07         0.62645E+07         0.00000E+00
    0.00000E+00         0.00000E+00         0.14632E+07
 
    0.10729E+07         0.11570E+07         0.00000E+00
    0.11570E+07         0.62666E+07         0.00000E+00
    0.00000E+00         0.00000E+00         0.14679E+07
 
    0.10939E+07         0.12080E+07         0.00000E+00
    0.12080E+07         0.62686E+07         0.00000E+00
    0.00000E+00         0.00000E+00         0.14725E+07
 
    0.11144E+07         0.12594E+07         0.00000E+00
    0.12594E+07         0.62705E+07         0.00000E+00
    0.00000E+00         0.00000E+00         0.14770E+07
 
    0.11345E+07         0.13110E+07         0.00000E+00
    0.13110E+07         0.62722E+07         0.00000E+00
    0.00000E+00         0.00000E+00         0.14813E+07
 
    0.11543E+07         0.13630E+07         0.00000E+00
    0.13630E+07         0.62737E+07         0.00000E+00
    0.00000E+00         0.00000E+00         0.14856E+07
 
    0.11736E+07         0.14153E+07         0.00000E+00
    0.14153E+07         0.62750E+07         0.00000E+00
    0.00000E+00         0.00000E+00         0.14897E+07
 
    0.11927E+07         0.14679E+07         0.00000E+00
    0.14679E+07         0.62760E+07         0.00000E+00
    0.00000E+00         0.00000E+00         0.14937E+07
 
    0.12114E+07         0.15209E+07         0.00000E+00
    0.15209E+07         0.62769E+07         0.00000E+00
    0.00000E+00         0.00000E+00         0.14977E+07
 
    0.12299E+07         0.15742E+07         0.00000E+00
    0.15742E+07         0.62775E+07         0.00000E+00
    0.00000E+00         0.00000E+00         0.15015E+07
 
    0.12481E+07         0.16279E+07         0.00000E+00
    0.16279E+07         0.62777E+07         0.00000E+00
    0.00000E+00         0.00000E+00         0.15052E+07
 
    0.12661E+07         0.16819E+07         0.00000E+00
    0.16819E+07         0.62777E+07         0.00000E+00
    0.00000E+00         0.00000E+00         0.15088E+07
 
    0.12839E+07         0.17364E+07         0.00000E+00
    0.17364E+07         0.62774E+07         0.00000E+00
    0.00000E+00         0.00000E+00         0.15123E+07
 
    0.13015E+07         0.17912E+07         0.00000E+00
    0.17912E+07         0.62767E+07         0.00000E+00
    0.00000E+00         0.00000E+00         0.15157E+07
 
    0.13190E+07         0.18464E+07         0.00000E+00
    0.18464E+07         0.62757E+07         0.00000E+00
    0.00000E+00         0.00000E+00         0.15189E+07
 
    0.13364E+07         0.19020E+07         0.00000E+00
    0.19020E+07         0.62743E+07         0.00000E+00
    0.00000E+00         0.00000E+00         0.15221E+07
 
    0.13537E+07         0.19579E+07         0.00000E+00
    0.19579E+07         0.62725E+07         0.00000E+00
    0.00000E+00         0.00000E+00         0.15252E+07
 
    0.13709E+07         0.20143E+07         0.00000E+00
    0.20143E+07         0.62703E+07         0.00000E+00
    0.00000E+00         0.00000E+00         0.15282E+07
 
    0.13880E+07         0.20711E+07         0.00000E+00
    0.20711E+07         0.62676E+07         0.00000E+00
    0.00000E+00         0.00000E+00         0.15311E+07
 
    0.14052E+07         0.21283E+07         0.00000E+00
    0.21283E+07         0.62645E+07         0.00000E+00
    0.00000E+00         0.00000E+00         0.15339E+07
 
    0.14224E+07         0.21858E+07         0.00000E+00
    0.21858E+07         0.62609E+07         0.00000E+00
    0.00000E+00         0.00000E+00         0.15367E+07
 
    0.14396E+07         0.22438E+07         0.00000E+00
    0.22438E+07         0.62568E+07         0.00000E+00
    0.00000E+00         0.00000E+00         0.15393E+07
 
    0.14569E+07         0.23022E+07         0.00000E+00
    0.23022E+07         0.62522E+07         0.00000E+00
    0.00000E+00         0.00000E+00         0.15418E+07
 
    0.14743E+07         0.23610E+07         0.00000E+00
    0.23610E+07         0.62471E+07         0.00000E+00
    0.00000E+00         0.00000E+00         0.15443E+07
 
    0.14918E+07         0.24202E+07         0.00000E+00
    0.24202E+07         0.62414E+07         0.00000E+00
    0.00000E+00         0.00000E+00         0.15466E+07
 
    0.15094E+07         0.24799E+07         0.00000E+00
    0.24799E+07         0.62352E+07         0.00000E+00
    0.00000E+00         0.00000E+00         0.15489E+07
 
    0.15272E+07         0.25399E+07         0.00000E+00
    0.25399E+07         0.62283E+07         0.00000E+00
    0.00000E+00         0.00000E+00         0.15511E+07
 
    0.15452E+07         0.26003E+07         0.00000E+00
    0.26003E+07         0.62209E+07         0.00000E+00
    0.00000E+00         0.00000E+00         0.15532E+07
 
    0.25419E+06         0.25412E+05         0.00000E+00
    0.25412E+05         0.58181E+07         0.00000E+00
    0.00000E+00         0.00000E+00         0.12144E+07
 
    0.29083E+06         0.75566E+05         0.00000E+00
    0.75566E+05         0.58183E+07         0.00000E+00
    0.00000E+00         0.00000E+00         0.12218E+07
 
    0.32666E+06         0.12547E+06         0.00000E+00
    0.12547E+06         0.58186E+07         0.00000E+00
    0.00000E+00         0.00000E+00         0.12291E+07
 
    0.36169E+06         0.17516E+06         0.00000E+00
    0.17516E+06         0.58192E+07         0.00000E+00
    0.00000E+00         0.00000E+00         0.12362E+07
 
    0.39592E+06         0.22466E+06         0.00000E+00
    0.22466E+06         0.58199E+07         0.00000E+00
    0.00000E+00         0.00000E+00         0.12432E+07
 
    0.42937E+06         0.27399E+06         0.00000E+00
    0.27399E+06         0.58207E+07         0.00000E+00
    0.00000E+00         0.00000E+00         0.12500E+07
 
    0.46206E+06         0.32319E+06         0.00000E+00
    0.32319E+06         0.58217E+07         0.00000E+00
    0.00000E+00         0.00000E+00         0.12567E+07
 
    0.49400E+06         0.37228E+06         0.00000E+00
    0.37228E+06         0.58228E+07         0.00000E+00
    0.00000E+00         0.00000E+00         0.12634E+07
 
    0.52521E+06         0.42128E+06         0.00000E+00
    0.42128E+06         0.58240E+07         0.00000E+00
    0.00000E+00         0.00000E+00         0.12698E+07
 
    0.55570E+06         0.47021E+06         0.00000E+00
    0.47021E+06         0.58253E+07         0.00000E+00
    0.00000E+00         0.00000E+00         0.12762E+07
 
    0.58549E+06         0.51911E+06         0.00000E+00
    0.51911E+06         0.58267E+07         0.00000E+00
    0.00000E+00         0.00000E+00         0.12824E+07
 
    0.61461E+06         0.56799E+06         0.00000E+00
    0.56799E+06         0.58282E+07         0.00000E+00
    0.00000E+00         0.00000E+00         0.12886E+07
 
    0.64305E+06         0.61687E+06         0.00000E+00
    0.61687E+06         0.58297E+07         0.00000E+00
    0.00000E+00         0.00000E+00         0.12946E+07
 
    0.67086E+06         0.66578E+06         0.00000E+00
    0.66578E+06         0.58313E+07         0.00000E+00
    0.00000E+00         0.00000E+00         0.13004E+07
 
    0.69804E+06         0.71474E+06         0.00000E+00
    0.71474E+06         0.58328E+07         0.00000E+00
    0.00000E+00         0.00000E+00         0.13062E+07
 
    0.72462E+06         0.76376E+06         0.00000E+00
    0.76376E+06         0.58344E+07         0.00000E+00
    0.00000E+00         0.00000E+00         0.13118E+07
 
    0.75062E+06         0.81286E+06         0.00000E+00
    0.81286E+06         0.58360E+07         0.00000E+00
    0.00000E+00         0.00000E+00         0.13173E+07
 
    0.77606E+06         0.86206E+06         0.00000E+00
    0.86206E+06         0.58376E+07         0.00000E+00
    0.00000E+00         0.00000E+00         0.13227E+07
 
    0.80096E+06         0.91139E+06         0.00000E+00
    0.91139E+06         0.58391E+07         0.00000E+00
    0.00000E+00         0.00000E+00         0.13280E+07
 
    0.82533E+06         0.96084E+06         0.00000E+00
    0.96084E+06         0.58406E+07         0.00000E+00
    0.00000E+00         0.00000E+00         0.13332E+07
 
    0.84922E+06         0.10104E+07         0.00000E+00
    0.10104E+07         0.58420E+07         0.00000E+00
    0.00000E+00         0.00000E+00         0.13383E+07
 
    0.87263E+06         0.10602E+07         0.00000E+00
    0.10602E+07         0.58434E+07         0.00000E+00
    0.00000E+00         0.00000E+00         0.13432E+07
 
    0.89559E+06         0.11102E+07         0.00000E+00
    0.11102E+07         0.58446E+07         0.00000E+00
    0.00000E+00         0.00000E+00         0.13480E+07
 
    0.91812E+06         0.11603E+07         0.00000E+00
    0.11603E+07         0.58457E+07         0.00000E+00
    0.00000E+00         0.00000E+00         0.13528E+07
 
    0.94025E+06         0.12106E+07         0.00000E+00
    0.12106E+07         0.58466E+07         0.00000E+00
    0.00000E+00         0.00000E+00         0.13574E+07
 
    0.96200E+06         0.12612E+07         0.00000E+00
    0.12612E+07         0.58474E+07         0.00000E+00
    0.00000E+00         0.00000E+00         0.13619E+07
 
    0.98339E+06         0.13120E+07         0.00000E+00
    0.13120E+07         0.58481E+07         0.00000E+00
    0.00000E+00         0.00000E+00         0.13663E+07
 
    0.10044E+07         0.13630E+07         0.00000E+00
    0.13630E+07         0.58485E+07         0.00000E+00
    0.00000E+00         0.00000E+00         0.13706E+07
 
    0.10252E+07         0.14143E+07         0.00000E+00
    0.14143E+07         0.58487E+07         0.00000E+00
    0.00000E+00         0.00000E+00         0.13748E+07
 
    0.10457E+07         0.14658E+07         0.00000E+00
    0.14658E+07         0.58487E+07         0.00000E+00
    0.00000E+00         0.00000E+00         0.13789E+07
 
    0.10659E+07         0.15176E+07         0.00000E+00
    0.15176E+07         0.58485E+07         0.00000E+00
    0.00000E+00         0.00000E+00         0.13829E+07
 
    0.10858E+07         0.15697E+07         0.00000E+00
    0.15697E+07         0.58480E+07         0.00000E+00
    0.00000E+00         0.00000E+00         0.13868E+07
 
    0.11056E+07         0.16220E+07         0.00000E+00
    0.16220E+07         0.58472E+07         0.00000E+00
    0.00000E+00         0.00000E+00         0.13905E+07
 
    0.11252E+07         0.16746E+07         0.00000E+00
    0.16746E+07         0.58461E+07         0.00000E+00
    0.00000E+00         0.00000E+00         0.13942E+07
 
    0.11446E+07         0.17276E+07         0.00000E+00
    0.17276E+07         0.58447E+07         0.00000E+00
    0.00000E+00         0.00000E+00         0.13978E+07
 
    0.11638E+07         0.17808E+07         0.00000E+00
    0.17808E+07         0.58429E+07         0.00000E+00
    0.00000E+00         0.00000E+00         0.14013E+07
 
    0.11830E+07         0.18343E+07         0.00000E+00
    0.18343E+07         0.58408E+07         0.00000E+00
    0.00000E+00         0.00000E+00         0.14048E+07
 
    0.12020E+07         0.18881E+07         0.00000E+00
    0.18881E+07         0.58384E+07         0.00000E+00
    0.00000E+00         0.00000E+00         0.14081E+07
 
    0.12210E+07         0.19423E+07         0.00000E+00
    0.19423E+07         0.58355E+07         0.00000E+00
    0.00000E+00         0.00000E+00         0.14113E+07
 
    0.12400E+07         0.19967E+07         0.00000E+00
    0.19967E+07         0.58323E+07         0.00000E+00
    0.00000E+00         0.00000E+00         0.14144E+07
 
    0.12589E+07         0.20515E+07         0.00000E+00
    0.20515E+07         0.58286E+07         0.00000E+00
    0.00000E+00         0.00000E+00         0.14175E+07
 
    0.12778E+07         0.21066E+07         0.00000E+00
    0.21066E+07         0.58245E+07         0.00000E+00
    0.00000E+00         0.00000E+00         0.14205E+07
 
    0.12968E+07         0.21620E+07         0.00000E+00
    0.21620E+07         0.58199E+07         0.00000E+00
    0.00000E+00         0.00000E+00         0.14233E+07
 
    0.13158E+07         0.22178E+07         0.00000E+00
    0.22178E+07         0.58148E+07         0.00000E+00
    0.00000E+00         0.00000E+00         0.14261E+07
 
    0.13349E+07         0.22739E+07         0.00000E+00
    0.22739E+07         0.58093E+07         0.00000E+00
    0.00000E+00         0.00000E+00         0.14288E+07
 
    0.13541E+07         0.23303E+07         0.00000E+00
    0.23303E+07         0.58032E+07         0.00000E+00
    0.00000E+00         0.00000E+00         0.14315E+07
 
    0.13734E+07         0.23870E+07         0.00000E+00
    0.23870E+07         0.57966E+07         0.00000E+00
    0.00000E+00         0.00000E+00         0.14340E+07
 
    0.13929E+07         0.24441E+07         0.00000E+00
    0.24441E+07         0.57895E+07         0.00000E+00
    0.00000E+00         0.00000E+00         0.14365E+07
 
    0.14125E+07         0.25015E+07         0.00000E+00
    0.25015E+07         0.57818E+07         0.00000E+00
    0.00000E+00         0.00000E+00         0.14389E+07
 
    0.14323E+07         0.25592E+07         0.00000E+00
    0.25592E+07         0.57735E+07         0.00000E+00
    0.00000E+00         0.00000E+00         0.14412E+07
 
    0.12101E+06         0.25661E+05         0.00000E+00
    0.25661E+05         0.54322E+07         0.00000E+00
    0.00000E+00         0.00000E+00         0.11106E+07
 
    0.15626E+06         0.76260E+05         0.00000E+00
    0.76260E+05         0.54323E+07         0.00000E+00
    0.00000E+00         0.00000E+00         0.11177E+07
 
    0.19084E+06         0.12658E+06         0.00000E+00
    0.12658E+06         0.54326E+07         0.00000E+00
    0.00000E+00         0.00000E+00         0.11247E+07
 
    0.22473E+06         0.17666E+06         0.00000E+00
    0.17666E+06         0.54329E+07         0.00000E+00
    0.00000E+00         0.00000E+00         0.11315E+07
 
    0.25795E+06         0.22651E+06         0.00000E+00
    0.22651E+06         0.54334E+07         0.00000E+00
    0.00000E+00         0.00000E+00         0.11383E+07
 
    0.29051E+06         0.27616E+06         0.00000E+00
    0.27616E+06         0.54339E+07         0.00000E+00
    0.00000E+00         0.00000E+00         0.11449E+07
 
    0.32243E+06         0.32563E+06         0.00000E+00
    0.32563E+06         0.54346E+07         0.00000E+00
    0.00000E+00         0.00000E+00         0.11514E+07
 
    0.35371E+06         0.37495E+06         0.00000E+00
    0.37495E+06         0.54353E+07         0.00000E+00
    0.00000E+00         0.00000E+00         0.11578E+07
 
    0.38437E+06         0.42413E+06         0.00000E+00
    0.42413E+06         0.54361E+07         0.00000E+00
    0.00000E+00         0.00000E+00         0.11641E+07
 
    0.41443E+06         0.47321E+06         0.00000E+00
    0.47321E+06         0.54369E+07         0.00000E+00
    0.00000E+00         0.00000E+00         0.11703E+07
 
    0.44388E+06         0.52220E+06         0.00000E+00
    0.52220E+06         0.54378E+07         0.00000E+00
    0.00000E+00         0.00000E+00         0.11763E+07
 
    0.47276E+06         0.57112E+06         0.00000E+00
    0.57112E+06         0.54386E+07         0.00000E+00
    0.00000E+00         0.00000E+00         0.11823E+07
 
    0.50107E+06         0.61999E+06         0.00000E+00
    0.61999E+06         0.54396E+07         0.00000E+00
    0.00000E+00         0.00000E+00         0.11881E+07
 
    0.52883E+06         0.66884E+06         0.00000E+00
    0.66884E+06         0.54405E+07         0.00000E+00
    0.00000E+00         0.00000E+00         0.11939E+07
 
    0.55607E+06         0.71767E+06         0.00000E+00
    0.71767E+06         0.54414E+07         0.00000E+00
    0.00000E+00         0.00000E+00         0.11995E+07
 
    0.58278E+06         0.76650E+06         0.00000E+00
    0.76650E+06         0.54423E+07         0.00000E+00
    0.00000E+00         0.00000E+00         0.12050E+07
 
    0.60900E+06         0.81536E+06         0.00000E+00
    0.81536E+06         0.54431E+07         0.00000E+00
    0.00000E+00         0.00000E+00         0.12104E+07
 
    0.63474E+06         0.86426E+06         0.00000E+00
    0.86426E+06         0.54439E+07         0.00000E+00
    0.00000E+00         0.00000E+00         0.12157E+07
 
    0.66001E+06         0.91321E+06         0.00000E+00
    0.91321E+06         0.54447E+07         0.00000E+00
    0.00000E+00         0.00000E+00         0.12209E+07
 
    0.68485E+06         0.96224E+06         0.00000E+00
    0.96224E+06         0.54453E+07         0.00000E+00
    0.00000E+00         0.00000E+00         0.12260E+07
 
    0.70926E+06         0.10113E+07         0.00000E+00
    0.10113E+07         0.54459E+07         0.00000E+00
    0.00000E+00         0.00000E+00         0.12310E+07
 
    0.73326E+06         0.10605E+07         0.00000E+00
    0.10605E+07         0.54464E+07         0.00000E+00
    0.00000E+00         0.00000E+00         0.12359E+07
 
    0.75688E+06         0.11099E+07         0.00000E+00
    0.11099E+07         0.54467E+07         0.00000E+00
    0.00000E+00         0.00000E+00         0.12407E+07
 
    0.78014E+06         0.11593E+07         0.00000E+00
    0.11593E+07         0.54469E+07         0.00000E+00
    0.00000E+00         0.00000E+00         0.12454E+07
 
    0.80305E+06         0.12089E+07         0.00000E+00
    0.12089E+07         0.54470E+07         0.00000E+00
    0.00000E+00         0.00000E+00         0.12500E+07
 
    0.82564E+06         0.12586E+07         0.00000E+00
    0.12586E+07         0.54469E+07         0.00000E+00
    0.00000E+00         0.00000E+00         0.12545E+07
 
    0.84792E+06         0.13085E+07         0.00000E+00
    0.13085E+07         0.54466E+07         0.00000E+00
    0.00000E+00         0.00000E+00         0.12589E+07
 
    0.86992E+06         0.13585E+07         0.00000E+00
    0.13585E+07         0.54461E+07         0.00000E+00
    0.00000E+00         0.00000E+00         0.12632E+07
 
    0.89166E+06         0.14087E+07         0.00000E+00
    0.14087E+07         0.54454E+07         0.00000E+00
    0.00000E+00         0.00000E+00         0.12674E+07
 
    0.91316E+06         0.14591E+07         0.00000E+00
    0.14591E+07         0.54444E+07         0.00000E+00
    0.00000E+00         0.00000E+00         0.12715E+07
 
    0.93444E+06         0.15097E+07         0.00000E+00
    0.15097E+07         0.54433E+07         0.00000E+00
    0.00000E+00         0.00000E+00         0.12755E+07
 
    0.95552E+06         0.15605E+07         0.00000E+00
    0.15605E+07         0.54418E+07         0.00000E+00
    0.00000E+00         0.00000E+00         0.12795E+07
 
    0.97643E+06         0.16115E+07         0.00000E+00
    0.16115E+07         0.54401E+07         0.00000E+00
    0.00000E+00         0.00000E+00         0.12833E+07
 
    0.99718E+06         0.16627E+07         0.00000E+00
    0.16627E+07         0.54381E+07         0.00000E+00
    0.00000E+00         0.00000E+00         0.12870E+07
 
    0.10178E+07         0.17141E+07         0.00000E+00
    0.17141E+07         0.54357E+07         0.00000E+00
    0.00000E+00         0.00000E+00         0.12907E+07
 
    0.10383E+07         0.17658E+07         0.00000E+00
    0.17658E+07         0.54331E+07         0.00000E+00
    0.00000E+00         0.00000E+00         0.12943E+07
 
    0.10587E+07         0.18177E+07         0.00000E+00
    0.18177E+07         0.54301E+07         0.00000E+00
    0.00000E+00         0.00000E+00         0.12978E+07
 
    0.10791E+07         0.18698E+07         0.00000E+00
    0.18698E+07         0.54267E+07         0.00000E+00
    0.00000E+00         0.00000E+00         0.13012E+07
 
    0.10994E+07         0.19221E+07         0.00000E+00
    0.19221E+07         0.54230E+07         0.00000E+00
    0.00000E+00         0.00000E+00         0.13045E+07
 
    0.11197E+07         0.19747E+07         0.00000E+00
    0.19747E+07         0.54189E+07         0.00000E+00
    0.00000E+00         0.00000E+00         0.13077E+07
 
    0.11400E+07         0.20275E+07         0.00000E+00
    0.20275E+07         0.54143E+07         0.00000E+00
    0.00000E+00         0.00000E+00         0.13109E+07
 
    0.11603E+07         0.20806E+07         0.00000E+00
    0.20806E+07         0.54093E+07         0.00000E+00
    0.00000E+00         0.00000E+00         0.13139E+07
 
    0.11807E+07         0.21340E+07         0.00000E+00
    0.21340E+07         0.54039E+07         0.00000E+00
    0.00000E+00         0.00000E+00         0.13169E+07
 
    0.12011E+07         0.21875E+07         0.00000E+00
    0.21875E+07         0.53981E+07         0.00000E+00
    0.00000E+00         0.00000E+00         0.13198E+07
 
    0.12216E+07         0.22414E+07         0.00000E+00
    0.22414E+07         0.53917E+07         0.00000E+00
    0.00000E+00         0.00000E+00         0.13227E+07
 
    0.12422E+07         0.22955E+07         0.00000E+00
    0.22955E+07         0.53849E+07         0.00000E+00
    0.00000E+00         0.00000E+00         0.13254E+07
 
    0.12630E+07         0.23498E+07         0.00000E+00
    0.23498E+07         0.53776E+07         0.00000E+00
    0.00000E+00         0.00000E+00         0.13281E+07
 
    0.12839E+07         0.24044E+07         0.00000E+00
    0.24044E+07         0.53697E+07         0.00000E+00
    0.00000E+00         0.00000E+00         0.13307E+07
 
    0.13050E+07         0.24593E+07         0.00000E+00
    0.24593E+07         0.53613E+07         0.00000E+00
    0.00000E+00         0.00000E+00         0.13333E+07
 
    0.13262E+07         0.25144E+07         0.00000E+00
    0.25144E+07         0.53523E+07         0.00000E+00
    0.00000E+00         0.00000E+00         0.13357E+07
 
    0.88416E+04         0.25782E+05         0.00000E+00
    0.25782E+05         0.50657E+07         0.00000E+00
    0.00000E+00         0.00000E+00         0.10149E+07
 
    0.42600E+05         0.76582E+05         0.00000E+00
    0.76582E+05         0.50658E+07         0.00000E+00
    0.00000E+00         0.00000E+00         0.10217E+07
 
    0.75786E+05         0.12709E+06         0.00000E+00
    0.12709E+06         0.50659E+07         0.00000E+00
    0.00000E+00         0.00000E+00         0.10283E+07
 
    0.10840E+06         0.17732E+06         0.00000E+00
    0.17732E+06         0.50661E+07         0.00000E+00
    0.00000E+00         0.00000E+00         0.10349E+07
 
    0.14046E+06         0.22730E+06         0.00000E+00
    0.22730E+06         0.50664E+07         0.00000E+00
    0.00000E+00         0.00000E+00         0.10414E+07
 
    0.17197E+06         0.27705E+06         0.00000E+00
    0.27705E+06         0.50667E+07         0.00000E+00
    0.00000E+00         0.00000E+00         0.10477E+07
 
    0.20293E+06         0.32659E+06         0.00000E+00
    0.32659E+06         0.50670E+07         0.00000E+00
    0.00000E+00         0.00000E+00         0.10540E+07
 
    0.23336E+06         0.37594E+06         0.00000E+00
    0.37594E+06         0.50674E+07         0.00000E+00
    0.00000E+00         0.00000E+00         0.10601E+07
 
    0.26327E+06         0.42513E+06         0.00000E+00
    0.42513E+06         0.50678E+07         0.00000E+00
    0.00000E+00         0.00000E+00         0.10662E+07
 
    0.29266E+06         0.47417E+06         0.00000E+00
    0.47417E+06         0.50682E+07         0.00000E+00
    0.00000E+00         0.00000E+00         0.10722E+07
 
    0.32156E+06         0.52307E+06         0.00000E+00
    0.52307E+06         0.50686E+07         0.00000E+00
    0.00000E+00         0.00000E+00         0.10780E+07
 
    0.34996E+06         0.57187E+06         0.00000E+00
    0.57187E+06         0.50690E+07         0.00000E+00
    0.00000E+00         0.00000E+00         0.10838E+07
 
    0.37789E+06         0.62057E+06         0.00000E+00
    0.62057E+06         0.50694E+07         0.00000E+00
    0.00000E+00         0.00000E+00         0.10895E+07
 
    0.40535E+06         0.66920E+06         0.00000E+00
    0.66920E+06         0.50697E+07         0.00000E+00
    0.00000E+00         0.00000E+00         0.10950E+07
 
    0.43237E+06         0.71777E+06         0.00000E+00
    0.71777E+06         0.50701E+07         0.00000E+00
    0.00000E+00         0.00000E+00         0.11005E+07
 
    0.45895E+06         0.76629E+06         0.00000E+00
    0.76629E+06         0.50703E+07         0.00000E+00
    0.00000E+00         0.00000E+00         0.11059E+07
 
    0.48510E+06         0.81478E+06         0.00000E+00
    0.81478E+06         0.50706E+07         0.00000E+00
    0.00000E+00         0.00000E+00         0.11111E+07
 
    0.51086E+06         0.86326E+06         0.00000E+00
    0.86326E+06         0.50707E+07         0.00000E+00
    0.00000E+00         0.00000E+00         0.11163E+07
 
    0.53622E+06         0.91174E+06         0.00000E+00
    0.91174E+06         0.50708E+07         0.00000E+00
    0.00000E+00         0.00000E+00         0.11214E+07
 
    0.56121E+06         0.96023E+06         0.00000E+00
    0.96023E+06         0.50707E+07         0.00000E+00
    0.00000E+00         0.00000E+00         0.11264E+07
 
    0.58583E+06         0.10088E+07         0.00000E+00
    0.10088E+07         0.50706E+07         0.00000E+00
    0.00000E+00         0.00000E+00         0.11313E+07
 
    0.61012E+06         0.10573E+07         0.00000E+00
    0.10573E+07         0.50703E+07         0.00000E+00
    0.00000E+00         0.00000E+00         0.11361E+07
 
    0.63409E+06         0.11059E+07         0.00000E+00
    0.11059E+07         0.50699E+07         0.00000E+00
    0.00000E+00         0.00000E+00         0.11408E+07
 
    0.65774E+06         0.11546E+07         0.00000E+00
    0.11546E+07         0.50693E+07         0.00000E+00
    0.00000E+00         0.00000E+00         0.11454E+07
 
    0.68111E+06         0.12033E+07         0.00000E+00
    0.12033E+07         0.50686E+07         0.00000E+00
    0.00000E+00         0.00000E+00         0.11499E+07
 
    0.70421E+06         0.12522E+07         0.00000E+00
    0.12522E+07         0.50677E+07         0.00000E+00
    0.00000E+00         0.00000E+00         0.11544E+07
 
    0.72705E+06         0.13011E+07         0.00000E+00
    0.13011E+07         0.50667E+07         0.00000E+00
    0.00000E+00         0.00000E+00         0.11587E+07
 
    0.74965E+06         0.13501E+07         0.00000E+00
    0.13501E+07         0.50654E+07         0.00000E+00
    0.00000E+00         0.00000E+00         0.11630E+07
 
    0.77204E+06         0.13992E+07         0.00000E+00
    0.13992E+07         0.50639E+07         0.00000E+00
    0.00000E+00         0.00000E+00         0.11672E+07
 
    0.79424E+06         0.14485E+07         0.00000E+00
    0.14485E+07         0.50621E+07         0.00000E+00
    0.00000E+00         0.00000E+00         0.11713E+07
 
    0.81625E+06         0.14979E+07         0.00000E+00
    0.14979E+07         0.50602E+07         0.00000E+00
    0.00000E+00         0.00000E+00         0.11753E+07
 
    0.83810E+06         0.15474E+07         0.00000E+00
    0.15474E+07         0.50579E+07         0.00000E+00
    0.00000E+00         0.00000E+00         0.11792E+07
 
    0.85981E+06         0.15970E+07         0.00000E+00
    0.15970E+07         0.50554E+07         0.00000E+00
    0.00000E+00         0.00000E+00         0.11830E+07
 
    0.88140E+06         0.16468E+07         0.00000E+00
    0.16468E+07         0.50526E+07         0.00000E+00
    0.00000E+00         0.00000E+00         0.11868E+07
 
    0.90289E+06         0.16968E+07         0.00000E+00
    0.16968E+07         0.50495E+07         0.00000E+00
    0.00000E+00         0.00000E+00         0.11905E+07
 
    0.92430E+06         0.17469E+07         0.00000E+00
    0.17469E+07         0.50461E+07         0.00000E+00
    0.00000E+00         0.00000E+00         0.11941E+07
 
    0.94564E+06         0.17972E+07         0.00000E+00
    0.17972E+07         0.50423E+07         0.00000E+00
    0.00000E+00         0.00000E+00         0.11976E+07
 
    0.96695E+06         0.18476E+07         0.00000E+00
    0.18476E+07         0.50382E+07         0.00000E+00
    0.00000E+00         0.00000E+00         0.12010E+07
 
    0.98823E+06         0.18982E+07         0.00000E+00
    0.18982E+07         0.50337E+07         0.00000E+00
    0.00000E+00         0.00000E+00         0.12044E+07
 
    0.10095E+07         0.19490E+07         0.00000E+00
    0.19490E+07         0.50289E+07         0.00000E+00
    0.00000E+00         0.00000E+00         0.12077E+07
 
    0.10308E+07         0.19999E+07         0.00000E+00
    0.19999E+07         0.50236E+07         0.00000E+00
    0.00000E+00         0.00000E+00         0.12109E+07
 
    0.10521E+07         0.20511E+07         0.00000E+00
    0.20511E+07         0.50180E+07         0.00000E+00
    0.00000E+00         0.00000E+00         0.12140E+07
 
    0.10735E+07         0.21024E+07         0.00000E+00
    0.21024E+07         0.50119E+07         0.00000E+00
    0.00000E+00         0.00000E+00         0.12171E+07
 
    0.10950E+07         0.21539E+07         0.00000E+00
    0.21539E+07         0.50054E+07         0.00000E+00
    0.00000E+00         0.00000E+00         0.12201E+07
 
    0.11166E+07         0.22055E+07         0.00000E+00
    0.22055E+07         0.49984E+07         0.00000E+00
    0.00000E+00         0.00000E+00         0.12230E+07
 
    0.11382E+07         0.22574E+07         0.00000E+00
    0.22574E+07         0.49910E+07         0.00000E+00
    0.00000E+00         0.00000E+00         0.12258E+07
 
    0.11601E+07         0.23094E+07         0.00000E+00
    0.23094E+07         0.49830E+07         0.00000E+00
    0.00000E+00         0.00000E+00         0.12286E+07
 
    0.11821E+07         0.23617E+07         0.00000E+00
    0.23617E+07         0.49746E+07         0.00000E+00
    0.00000E+00         0.00000E+00         0.12313E+07
 
    0.12042E+07         0.24141E+07         0.00000E+00
    0.24141E+07         0.49657E+07         0.00000E+00
    0.00000E+00         0.00000E+00         0.12340E+07
 
    0.12266E+07         0.24667E+07         0.00000E+00
    0.24667E+07         0.49562E+07         0.00000E+00
    0.00000E+00         0.00000E+00         0.12366E+07
 
   -0.84375E+05         0.25794E+05         0.00000E+00
    0.25794E+05         0.47176E+07         0.00000E+00
    0.00000E+00         0.00000E+00         0.92665E+06
 
   -0.52197E+05         0.76591E+05         0.00000E+00
    0.76591E+05         0.47177E+07         0.00000E+00
    0.00000E+00         0.00000E+00         0.93309E+06
 
   -0.20492E+05         0.12708E+06         0.00000E+00
    0.12708E+06         0.47177E+07         0.00000E+00
    0.00000E+00         0.00000E+00         0.93944E+06
 
    0.10744E+05         0.17727E+06         0.00000E+00
    0.17727E+06         0.47178E+07         0.00000E+00
    0.00000E+00         0.00000E+00         0.94570E+06
 
    0.41517E+05         0.22720E+06         0.00000E+00
    0.22720E+06         0.47179E+07         0.00000E+00
    0.00000E+00         0.00000E+00         0.95187E+06
 
    0.71833E+05         0.27687E+06         0.00000E+00
    0.27687E+06         0.47179E+07         0.00000E+00
    0.00000E+00         0.00000E+00         0.95795E+06
 
    0.10170E+06         0.32631E+06         0.00000E+00
    0.32631E+06         0.47180E+07         0.00000E+00
    0.00000E+00         0.00000E+00         0.96394E+06
 
    0.13112E+06         0.37553E+06         0.00000E+00
    0.37553E+06         0.47181E+07         0.00000E+00
    0.00000E+00         0.00000E+00         0.96984E+06
 
    0.16011E+06         0.42455E+06         0.00000E+00
    0.42455E+06         0.47182E+07         0.00000E+00
    0.00000E+00         0.00000E+00         0.97566E+06
 
    0.18866E+06         0.47340E+06         0.00000E+00
    0.47340E+06         0.47182E+07         0.00000E+00
    0.00000E+00         0.00000E+00         0.98138E+06
 
    0.21681E+06         0.52208E+06         0.00000E+00
    0.52208E+06         0.47182E+07         0.00000E+00
    0.00000E+00         0.00000E+00         0.98701E+06
 
    0.24454E+06         0.57061E+06         0.00000E+00
    0.57061E+06         0.47182E+07         0.00000E+00
    0.00000E+00         0.00000E+00         0.99255E+06
 
    0.27188E+06         0.61902E+06         0.00000E+00
    0.61902E+06         0.47182E+07         0.00000E+00
    0.00000E+00         0.00000E+00         0.99801E+06
 
    0.29883E+06         0.66730E+06         0.00000E+00
    0.66730E+06         0.47181E+07         0.00000E+00
    0.00000E+00         0.00000E+00         0.10034E+07
 
    0.32540E+06         0.71549E+06         0.00000E+00
    0.71549E+06         0.47179E+07         0.00000E+00
    0.00000E+00         0.00000E+00         0.10087E+07
 
    0.35161E+06         0.76359E+06         0.00000E+00
    0.76359E+06         0.47176E+07         0.00000E+00
    0.00000E+00         0.00000E+00         0.10139E+07
 
    0.37747E+06         0.81161E+06         0.00000E+00
    0.81161E+06         0.47173E+07         0.00000E+00
    0.00000E+00         0.00000E+00         0.10190E+07
 
    0.40299E+06         0.85958E+06         0.00000E+00
    0.85958E+06         0.47169E+07         0.00000E+00
    0.00000E+00         0.00000E+00         0.10240E+07
 
    0.42818E+06         0.90750E+06         0.00000E+00
    0.90750E+06         0.47164E+07         0.00000E+00
    0.00000E+00         0.00000E+00         0.10289E+07
 
    0.45306E+06         0.95538E+06         0.00000E+00
    0.95538E+06         0.47157E+07         0.00000E+00
    0.00000E+00         0.00000E+00         0.10338E+07
 
    0.47765E+06         0.10032E+07         0.00000E+00
    0.10032E+07         0.47150E+07         0.00000E+00
    0.00000E+00         0.00000E+00         0.10385E+07
 
    0.50195E+06         0.10511E+07         0.00000E+00
    0.10511E+07         0.47141E+07         0.00000E+00
    0.00000E+00         0.00000E+00         0.10432E+07
 
    0.52598E+06         0.10989E+07         0.00000E+00
    0.10989E+07         0.47131E+07         0.00000E+00
    0.00000E+00         0.00000E+00         0.10478E+07
 
    0.54975E+06         0.11468E+07         0.00000E+00
    0.11468E+07         0.47119E+07         0.00000E+00
    0.00000E+00         0.00000E+00         0.10523E+07
 
    0.57329E+06         0.11947E+07         0.00000E+00
    0.11947E+07         0.47105E+07         0.00000E+00
    0.00000E+00         0.00000E+00         0.10568E+07
 
    0.59661E+06         0.12426E+07         0.00000E+00
    0.12426E+07         0.47090E+07         0.00000E+00
    0.00000E+00         0.00000E+00         0.10611E+07
 
    0.61971E+06         0.12905E+07         0.00000E+00
    0.12905E+07         0.47072E+07         0.00000E+00
    0.00000E+00         0.00000E+00         0.10654E+07
 
    0.64262E+06         0.13385E+07         0.00000E+00
    0.13385E+07         0.47053E+07         0.00000E+00
    0.00000E+00         0.00000E+00         0.10696E+07
 
    0.66536E+06         0.13865E+07         0.00000E+00
    0.13865E+07         0.47031E+07         0.00000E+00
    0.00000E+00         0.00000E+00         0.10737E+07
 
    0.68794E+06         0.14346E+07         0.00000E+00
    0.14346E+07         0.47007E+07         0.00000E+00
    0.00000E+00         0.00000E+00         0.10777E+07
 
    0.71038E+06         0.14828E+07         0.00000E+00
    0.14828E+07         0.46981E+07         0.00000E+00
    0.00000E+00         0.00000E+00         0.10817E+07
 
    0.73269E+06         0.15311E+07         0.00000E+00
    0.15311E+07         0.46952E+07         0.00000E+00
    0.00000E+00         0.00000E+00         0.10856E+07
 
    0.75489E+06         0.15794E+07         0.00000E+00
    0.15794E+07         0.46920E+07         0.00000E+00
    0.00000E+00         0.00000E+00         0.10894E+07
 
    0.77701E+06         0.16278E+07         0.00000E+00
    0.16278E+07         0.46886E+07         0.00000E+00
    0.00000E+00         0.00000E+00         0.10931E+07
 
    0.79905E+06         0.16763E+07         0.00000E+00
    0.16763E+07         0.46848E+07         0.00000E+00
    0.00000E+00         0.00000E+00         0.10968E+07
 
    0.82103E+06         0.17249E+07         0.00000E+00
    0.17249E+07         0.46807E+07         0.00000E+00
    0.00000E+00         0.00000E+00         0.11004E+07
 
    0.84297E+06         0.17736E+07         0.00000E+00
    0.17736E+07         0.46764E+07         0.00000E+00
    0.00000E+00         0.00000E+00         0.11039E+07
 
    0.86490E+06         0.18224E+07         0.00000E+00
    0.18224E+07         0.46716E+07         0.00000E+00
    0.00000E+00         0.00000E+00         0.11073E+07
 
    0.88682E+06         0.18713E+07         0.00000E+00
    0.18713E+07         0.46666E+07         0.00000E+00
    0.00000E+00         0.00000E+00         0.11107E+07
 
    0.90876E+06         0.19203E+07         0.00000E+00
    0.19203E+07         0.46611E+07         0.00000E+00
    0.00000E+00         0.00000E+00         0.11140E+07
 
    0.93073E+06         0.19694E+07         0.00000E+00
    0.19694E+07         0.46553E+07         0.00000E+00
    0.00000E+00         0.00000E+00         0.11172E+07
 
    0.95276E+06         0.20187E+07         0.00000E+00
    0.20187E+07         0.46491E+07         0.00000E+00
    0.00000E+00         0.00000E+00         0.11204E+07
 
    0.97485E+06         0.20680E+07         0.00000E+00
    0.20680E+07         0.46425E+07         0.00000E+00
    0.00000E+00         0.00000E+00         0.11235E+07
 
    0.99704E+06         0.21175E+07         0.00000E+00
    0.21175E+07         0.46355E+07         0.00000E+00
    0.00000E+00         0.00000E+00         0.11265E+07
 
    0.10193E+07         0.21671E+07         0.00000E+00
    0.21671E+07         0.46280E+07         0.00000E+00
    0.00000E+00         0.00000E+00         0.11295E+07
 
    0.10417E+07         0.22168E+07         0.00000E+00
    0.22168E+07         0.46201E+07         0.00000E+00
    0.00000E+00         0.00000E+00         0.11324E+07
 
    0.10643E+07         0.22667E+07         0.00000E+00
    0.22667E+07         0.46118E+07         0.00000E+00
    0.00000E+00         0.00000E+00         0.11352E+07
 
    0.10870E+07         0.23166E+07         0.00000E+00
    0.23166E+07         0.46029E+07         0.00000E+00
    0.00000E+00         0.00000E+00         0.11380E+07
 
    0.11100E+07         0.23667E+07         0.00000E+00
    0.23667E+07         0.45936E+07         0.00000E+00
    0.00000E+00         0.00000E+00         0.11407E+07
 
    0.11331E+07         0.24169E+07         0.00000E+00
    0.24169E+07         0.45838E+07         0.00000E+00
    0.00000E+00         0.00000E+00         0.11434E+07
 
   -0.16055E+06         0.25716E+05         0.00000E+00
    0.25716E+05         0.43870E+07         0.00000E+00
    0.00000E+00         0.00000E+00         0.84529E+06
 
   -0.13001E+06         0.76341E+05         0.00000E+00
    0.76341E+05         0.43870E+07         0.00000E+00
    0.00000E+00         0.00000E+00         0.85140E+06
 
   -0.99853E+05         0.12664E+06         0.00000E+00
    0.12664E+06         0.43870E+07         0.00000E+00
    0.00000E+00         0.00000E+00         0.85743E+06
 
   -0.70080E+05         0.17664E+06         0.00000E+00
    0.17664E+06         0.43869E+07         0.00000E+00
    0.00000E+00         0.00000E+00         0.86337E+06
 
   -0.40684E+05         0.22636E+06         0.00000E+00
    0.22636E+06         0.43869E+07         0.00000E+00
    0.00000E+00         0.00000E+00         0.86924E+06
 
   -0.11663E+05         0.27580E+06         0.00000E+00
    0.27580E+06         0.43868E+07         0.00000E+00
    0.00000E+00         0.00000E+00         0.87502E+06
 
    0.16989E+05         0.32499E+06         0.00000E+00
    0.32499E+06         0.43866E+07         0.00000E+00
    0.00000E+00         0.00000E+00         0.88073E+06
 
    0.45277E+05         0.37394E+06         0.00000E+00
    0.37394E+06         0.43865E+07         0.00000E+00
    0.00000E+00         0.00000E+00         0.88635E+06
 
    0.73208E+05         0.42267E+06         0.00000E+00
    0.42267E+06         0.43863E+07         0.00000E+00
    0.00000E+00         0.00000E+00         0.89190E+06
 
    0.10079E+06         0.47120E+06         0.00000E+00
    0.47120E+06         0.43860E+07         0.00000E+00
    0.00000E+00         0.00000E+00         0.89736E+06
 
    0.12802E+06         0.51953E+06         0.00000E+00
    0.51953E+06         0.43857E+07         0.00000E+00
    0.00000E+00         0.00000E+00         0.90275E+06
 
    0.15492E+06         0.56769E+06         0.00000E+00
    0.56769E+06         0.43854E+07         0.00000E+00
    0.00000E+00         0.00000E+00         0.90806E+06
 
    0.18150E+06         0.61568E+06         0.00000E+00
    0.61568E+06         0.43849E+07         0.00000E+00
    0.00000E+00         0.00000E+00         0.91328E+06
 
    0.20775E+06         0.66353E+06         0.00000E+00
    0.66353E+06         0.43844E+07         0.00000E+00
    0.00000E+00         0.00000E+00         0.91843E+06
 
    0.23369E+06         0.71124E+06         0.00000E+00
    0.71124E+06         0.43838E+07         0.00000E+00
    0.00000E+00         0.00000E+00         0.92350E+06
 
    0.25934E+06         0.75882E+06         0.00000E+00
    0.75882E+06         0.43832E+07         0.00000E+00
    0.00000E+00         0.00000E+00         0.92850E+06
 
    0.28469E+06         0.80630E+06         0.00000E+00
    0.80630E+06         0.43824E+07         0.00000E+00
    0.00000E+00         0.00000E+00         0.93341E+06
 
    0.30977E+06         0.85367E+06         0.00000E+00
    0.85367E+06         0.43815E+07         0.00000E+00
    0.00000E+00         0.00000E+00         0.93825E+06
 
    0.33458E+06         0.90096E+06         0.00000E+00
    0.90096E+06         0.43805E+07         0.00000E+00
    0.00000E+00         0.00000E+00         0.94301E+06
 
    0.35913E+06         0.94817E+06         0.00000E+00
    0.94817E+06         0.43794E+07         0.00000E+00
    0.00000E+00         0.00000E+00         0.94770E+06
 
    0.38344E+06         0.99532E+06         0.00000E+00
    0.99532E+06         0.43781E+07         0.00000E+00
    0.00000E+00         0.00000E+00         0.95231E+06
 
    0.40752E+06         0.10424E+07         0.00000E+00
    0.10424E+07         0.43767E+07         0.00000E+00
    0.00000E+00         0.00000E+00         0.95684E+06
 
    0.43138E+06         0.10894E+07         0.00000E+00
    0.10894E+07         0.43751E+07         0.00000E+00
    0.00000E+00         0.00000E+00         0.96130E+06
 
    0.45503E+06         0.11364E+07         0.00000E+00
    0.11364E+07         0.43734E+07         0.00000E+00
    0.00000E+00         0.00000E+00         0.96569E+06
 
    0.47848E+06         0.11834E+07         0.00000E+00
    0.11834E+07         0.43715E+07         0.00000E+00
    0.00000E+00         0.00000E+00         0.97000E+06
 
    0.50176E+06         0.12304E+07         0.00000E+00
    0.12304E+07         0.43694E+07         0.00000E+00
    0.00000E+00         0.00000E+00         0.97423E+06
 
    0.52487E+06         0.12773E+07         0.00000E+00
    0.12773E+07         0.43671E+07         0.00000E+00
    0.00000E+00         0.00000E+00         0.97840E+06
 
    0.54783E+06         0.13243E+07         0.00000E+00
    0.13243E+07         0.43646E+07         0.00000E+00
    0.00000E+00         0.00000E+00         0.98249E+06
 
    0.57064E+06         0.13712E+07         0.00000E+00
    0.13712E+07         0.43619E+07         0.00000E+00
    0.00000E+00         0.00000E+00         0.98651E+06
 
    0.59334E+06         0.14182E+07         0.00000E+00
    0.14182E+07         0.43590E+07         0.00000E+00
    0.00000E+00         0.00000E+00         0.99047E+06
 
    0.61593E+06         0.14651E+07         0.00000E+00
    0.14651E+07         0.43558E+07         0.00000E+00
    0.00000E+00         0.00000E+00         0.99435E+06
 
    0.63842E+06         0.15121E+07         0.00000E+00
    0.15121E+07         0.43524E+07         0.00000E+00
    0.00000E+00         0.00000E+00         0.99816E+06
 
    0.66083E+06         0.15591E+07         0.00000E+00
    0.15591E+07         0.43487E+07         0.00000E+00
    0.00000E+00         0.00000E+00         0.10019E+07
 
    0.68318E+06         0.16062E+07         0.00000E+00
    0.16062E+07         0.43447E+07         0.00000E+00
    0.00000E+00         0.00000E+00         0.10056E+07
 
    0.70549E+06         0.16533E+07         0.00000E+00
    0.16533E+07         0.43405E+07         0.00000E+00
    0.00000E+00         0.00000E+00         0.10092E+07
 
    0.72776E+06         0.17004E+07         0.00000E+00
    0.17004E+07         0.43359E+07         0.00000E+00
    0.00000E+00         0.00000E+00         0.10127E+07
 
    0.75001E+06         0.17475E+07         0.00000E+00
    0.17475E+07         0.43310E+07         0.00000E+00
    0.00000E+00         0.00000E+00         0.10162E+07
 
    0.77227E+06         0.17948E+07         0.00000E+00
    0.17948E+07         0.43258E+07         0.00000E+00
    0.00000E+00         0.00000E+00         0.10196E+07
 
    0.79454E+06         0.18420E+07         0.00000E+00
    0.18420E+07         0.43203E+07         0.00000E+00
    0.00000E+00         0.00000E+00         0.10230E+07
 
    0.81684E+06         0.18893E+07         0.00000E+00
    0.18893E+07         0.43144E+07         0.00000E+00
    0.00000E+00         0.00000E+00         0.10263E+07
 
    0.83919E+06         0.19367E+07         0.00000E+00
    0.19367E+07         0.43082E+07         0.00000E+00
    0.00000E+00         0.00000E+00         0.10295E+07
 
    0.86161E+06         0.19841E+07         0.00000E+00
    0.19841E+07         0.43016E+07         0.00000E+00
    0.00000E+00         0.00000E+00         0.10326E+07
 
    0.88411E+06         0.20316E+07         0.00000E+00
    0.20316E+07         0.42946E+07         0.00000E+00
    0.00000E+00         0.00000E+00         0.10357E+07
 
    0.90670E+06         0.20792E+07         0.00000E+00
    0.20792E+07         0.42872E+07         0.00000E+00
    0.00000E+00         0.00000E+00         0.10388E+07
 
    0.92942E+06         0.21268E+07         0.00000E+00
    0.21268E+07         0.42794E+07         0.00000E+00
    0.00000E+00         0.00000E+00         0.10418E+07
 
    0.95226E+06         0.21745E+07         0.00000E+00
    0.21745E+07         0.42711E+07         0.00000E+00
    0.00000E+00         0.00000E+00         0.10447E+07
 
    0.97526E+06         0.22222E+07         0.00000E+00
    0.22222E+07         0.42625E+07         0.00000E+00
    0.00000E+00         0.00000E+00         0.10475E+07
 
    0.99842E+06         0.22700E+07         0.00000E+00
    0.22700E+07         0.42533E+07         0.00000E+00
    0.00000E+00         0.00000E+00         0.10503E+07
 
    0.10218E+07         0.23178E+07         0.00000E+00
    0.23178E+07         0.42438E+07         0.00000E+00
    0.00000E+00         0.00000E+00         0.10531E+07
 
    0.10453E+07         0.23657E+07         0.00000E+00
    0.23657E+07         0.42337E+07         0.00000E+00
    0.00000E+00         0.00000E+00         0.10558E+07
 
   -0.22144E+06         0.25565E+05         0.00000E+00
    0.25565E+05         0.40729E+07         0.00000E+00
    0.00000E+00         0.00000E+00         0.77029E+06
 
   -0.19257E+06         0.75878E+05         0.00000E+00
    0.75878E+05         0.40729E+07         0.00000E+00
    0.00000E+00         0.00000E+00         0.77606E+06
 
   -0.16401E+06         0.12586E+06         0.00000E+00
    0.12586E+06         0.40728E+07         0.00000E+00
    0.00000E+00         0.00000E+00         0.78175E+06
 
   -0.13576E+06         0.17554E+06         0.00000E+00
    0.17554E+06         0.40726E+07         0.00000E+00
    0.00000E+00         0.00000E+00         0.78737E+06
 
   -0.10781E+06         0.22491E+06         0.00000E+00
    0.22491E+06         0.40724E+07         0.00000E+00
    0.00000E+00         0.00000E+00         0.79293E+06
 
   -0.80159E+05         0.27401E+06         0.00000E+00
    0.27401E+06         0.40722E+07         0.00000E+00
    0.00000E+00         0.00000E+00         0.79841E+06
 
   -0.52808E+05         0.32283E+06         0.00000E+00
    0.32283E+06         0.40719E+07         0.00000E+00
    0.00000E+00         0.00000E+00         0.80382E+06
 
   -0.25752E+05         0.37140E+06         0.00000E+00
    0.37140E+06         0.40715E+07         0.00000E+00
    0.00000E+00         0.00000E+00         0.80915E+06
 
    0.10149E+04         0.41973E+06         0.00000E+00
    0.41973E+06         0.40711E+07         0.00000E+00
    0.00000E+00         0.00000E+00         0.81442E+06
 
    0.27498E+05         0.46783E+06         0.00000E+00
    0.46783E+06         0.40706E+07         0.00000E+00
    0.00000E+00         0.00000E+00         0.81962E+06
 
    0.53702E+05         0.51572E+06         0.00000E+00
    0.51572E+06         0.40700E+07         0.00000E+00
    0.00000E+00         0.00000E+00         0.82475E+06
 
    0.79634E+05         0.56341E+06         0.00000E+00
    0.56341E+06         0.40694E+07         0.00000E+00
    0.00000E+00         0.00000E+00         0.82980E+06
 
    0.10530E+06         0.61091E+06         0.00000E+00
    0.61091E+06         0.40686E+07         0.00000E+00
    0.00000E+00         0.00000E+00         0.83479E+06
 
    0.13071E+06         0.65823E+06         0.00000E+00
    0.65823E+06         0.40678E+07         0.00000E+00
    0.00000E+00         0.00000E+00         0.83970E+06
 
    0.15587E+06         0.70538E+06         0.00000E+00
    0.70538E+06         0.40669E+07         0.00000E+00
    0.00000E+00         0.00000E+00         0.84455E+06
 
    0.18078E+06         0.75239E+06         0.00000E+00
    0.75239E+06         0.40658E+07         0.00000E+00
    0.00000E+00         0.00000E+00         0.84932E+06
 
    0.20546E+06         0.79924E+06         0.00000E+00
    0.79924E+06         0.40647E+07         0.00000E+00
    0.00000E+00         0.00000E+00         0.85403E+06
 
    0.22991E+06         0.84597E+06         0.00000E+00
    0.84597E+06         0.40634E+07         0.00000E+00
    0.00000E+00         0.00000E+00         0.85866E+06
 
    0.25415E+06         0.89257E+06         0.00000E+00
    0.89257E+06         0.40620E+07         0.00000E+00
    0.00000E+00         0.00000E+00         0.86323E+06
 
    0.27818E+06         0.93906E+06         0.00000E+00
    0.93906E+06         0.40605E+07         0.00000E+00
    0.00000E+00         0.00000E+00         0.86773E+06
 
    0.30202E+06         0.98545E+06         0.00000E+00
    0.98545E+06         0.40588E+07         0.00000E+00
    0.00000E+00         0.00000E+00         0.87216E+06
 
    0.32567E+06         0.10317E+07         0.00000E+00
    0.10317E+07         0.40570E+07         0.00000E+00
    0.00000E+00         0.00000E+00         0.87653E+06
 
    0.34914E+06         0.10779E+07         0.00000E+00
    0.10779E+07         0.40550E+07         0.00000E+00
    0.00000E+00         0.00000E+00         0.88083E+06
 
    0.37245E+06         0.11241E+07         0.00000E+00
    0.11241E+07         0.40528E+07         0.00000E+00
    0.00000E+00         0.00000E+00         0.88506E+06
 
    0.39561E+06         0.11701E+07         0.00000E+00
    0.11701E+07         0.40505E+07         0.00000E+00
    0.00000E+00         0.00000E+00         0.88922E+06
 
    0.41862E+06         0.12161E+07         0.00000E+00
    0.12161E+07         0.40480E+07         0.00000E+00
    0.00000E+00         0.00000E+00         0.89332E+06
 
    0.44151E+06         0.12621E+07         0.00000E+00
    0.12621E+07         0.40453E+07         0.00000E+00
    0.00000E+00         0.00000E+00         0.89735E+06
 
    0.46428E+06         0.13080E+07         0.00000E+00
    0.13080E+07         0.40423E+07         0.00000E+00
    0.00000E+00         0.00000E+00         0.90132E+06
 
    0.48694E+06         0.13538E+07         0.00000E+00
    0.13538E+07         0.40392E+07         0.00000E+00
    0.00000E+00         0.00000E+00         0.90523E+06
 
    0.50951E+06         0.13996E+07         0.00000E+00
    0.13996E+07         0.40358E+07         0.00000E+00
    0.00000E+00         0.00000E+00         0.90907E+06
 
    0.53201E+06         0.14454E+07         0.00000E+00
    0.14454E+07         0.40322E+07         0.00000E+00
    0.00000E+00         0.00000E+00         0.91285E+06
 
    0.55443E+06         0.14911E+07         0.00000E+00
    0.14911E+07         0.40284E+07         0.00000E+00
    0.00000E+00         0.00000E+00         0.91656E+06
 
    0.57681E+06         0.15369E+07         0.00000E+00
    0.15369E+07         0.40243E+07         0.00000E+00
    0.00000E+00         0.00000E+00         0.92021E+06
 
    0.59914E+06         0.15826E+07         0.00000E+00
    0.15826E+07         0.40199E+07         0.00000E+00
    0.00000E+00         0.00000E+00         0.92381E+06
 
    0.62145E+06         0.16283E+07         0.00000E+00
    0.16283E+07         0.40152E+07         0.00000E+00
    0.00000E+00         0.00000E+00         0.92734E+06
 
    0.64375E+06         0.16740E+07         0.00000E+00
    0.16740E+07         0.40103E+07         0.00000E+00
    0.00000E+00         0.00000E+00         0.93081E+06
 
    0.66606E+06         0.17197E+07         0.00000E+00
    0.17197E+07         0.40051E+07         0.00000E+00
    0.00000E+00         0.00000E+00         0.93422E+06
 
    0.68838E+06         0.17654E+07         0.00000E+00
    0.17654E+07         0.39995E+07         0.00000E+00
    0.00000E+00         0.00000E+00         0.93758E+06
 
    0.71073E+06         0.18110E+07         0.00000E+00
    0.18110E+07         0.39936E+07         0.00000E+00
    0.00000E+00         0.00000E+00         0.94087E+06
 
    0.73312E+06         0.18567E+07         0.00000E+00
    0.18567E+07         0.39874E+07         0.00000E+00
    0.00000E+00         0.00000E+00         0.94411E+06
 
    0.75558E+06         0.19024E+07         0.00000E+00
    0.19024E+07         0.39809E+07         0.00000E+00
    0.00000E+00         0.00000E+00         0.94730E+06
 
    0.77812E+06         0.19481E+07         0.00000E+00
    0.19481E+07         0.39740E+07         0.00000E+00
    0.00000E+00         0.00000E+00         0.95042E+06
 
    0.80075E+06         0.19938E+07         0.00000E+00
    0.19938E+07         0.39667E+07         0.00000E+00
    0.00000E+00         0.00000E+00         0.95349E+06
 
    0.82348E+06         0.20395E+07         0.00000E+00
    0.20395E+07         0.39591E+07         0.00000E+00
    0.00000E+00         0.00000E+00         0.95651E+06
 
    0.84633E+06         0.20852E+07         0.00000E+00
    0.20852E+07         0.39510E+07         0.00000E+00
    0.00000E+00         0.00000E+00         0.95948E+06
 
    0.86932E+06         0.21309E+07         0.00000E+00
    0.21309E+07         0.39426E+07         0.00000E+00
    0.00000E+00         0.00000E+00         0.96239E+06
 
    0.89247E+06         0.21767E+07         0.00000E+00
    0.21767E+07         0.39338E+07         0.00000E+00
    0.00000E+00         0.00000E+00         0.96525E+06
 
    0.91578E+06         0.22224E+07         0.00000E+00
    0.22224E+07         0.39245E+07         0.00000E+00
    0.00000E+00         0.00000E+00         0.96806E+06
 
    0.93927E+06         0.22681E+07         0.00000E+00
    0.22681E+07         0.39148E+07         0.00000E+00
    0.00000E+00         0.00000E+00         0.97081E+06
 
    0.96297E+06         0.23139E+07         0.00000E+00
    0.23139E+07         0.39046E+07         0.00000E+00
    0.00000E+00         0.00000E+00         0.97352E+06
 
   -0.26865E+06         0.25354E+05         0.00000E+00
    0.25354E+05         0.37743E+07         0.00000E+00
    0.00000E+00         0.00000E+00         0.70113E+06
 
   -0.24147E+06         0.75246E+05         0.00000E+00
    0.75246E+05         0.37742E+07         0.00000E+00
    0.00000E+00         0.00000E+00         0.70655E+06
 
   -0.21454E+06         0.12481E+06         0.00000E+00
    0.12481E+06         0.37741E+07         0.00000E+00
    0.00000E+00         0.00000E+00         0.71191E+06
 
   -0.18784E+06         0.17405E+06         0.00000E+00
    0.17405E+06         0.37739E+07         0.00000E+00
    0.00000E+00         0.00000E+00         0.71720E+06
 
   -0.16139E+06         0.22299E+06         0.00000E+00
    0.22299E+06         0.37736E+07         0.00000E+00
    0.00000E+00         0.00000E+00         0.72244E+06
 
   -0.13517E+06         0.27163E+06         0.00000E+00
    0.27163E+06         0.37732E+07         0.00000E+00
    0.00000E+00         0.00000E+00         0.72761E+06
 
   -0.10919E+06         0.32000E+06         0.00000E+00
    0.32000E+06         0.37728E+07         0.00000E+00
    0.00000E+00         0.00000E+00         0.73271E+06
 
   -0.83440E+05         0.36809E+06         0.00000E+00
    0.36809E+06         0.37722E+07         0.00000E+00
    0.00000E+00         0.00000E+00         0.73776E+06
 
   -0.57921E+05         0.41594E+06         0.00000E+00
    0.41594E+06         0.37716E+07         0.00000E+00
    0.00000E+00         0.00000E+00         0.74274E+06
 
   -0.32629E+05         0.46354E+06         0.00000E+00
    0.46354E+06         0.37709E+07         0.00000E+00
    0.00000E+00         0.00000E+00         0.74766E+06
 
   -0.75579E+04         0.51090E+06         0.00000E+00
    0.51090E+06         0.37701E+07         0.00000E+00
    0.00000E+00         0.00000E+00         0.75252E+06
 
    0.17296E+05         0.55805E+06         0.00000E+00
    0.55805E+06         0.37692E+07         0.00000E+00
    0.00000E+00         0.00000E+00         0.75731E+06
 
    0.41939E+05         0.60498E+06         0.00000E+00
    0.60498E+06         0.37683E+07         0.00000E+00
    0.00000E+00         0.00000E+00         0.76204E+06
 
    0.66376E+05         0.65172E+06         0.00000E+00
    0.65172E+06         0.37672E+07         0.00000E+00
    0.00000E+00         0.00000E+00         0.76671E+06
 
    0.90613E+05         0.69826E+06         0.00000E+00
    0.69826E+06         0.37660E+07         0.00000E+00
    0.00000E+00         0.00000E+00         0.77131E+06
 
    0.11466E+06         0.74462E+06         0.00000E+00
    0.74462E+06         0.37646E+07         0.00000E+00
    0.00000E+00         0.00000E+00         0.77586E+06
 
    0.13852E+06         0.79082E+06         0.00000E+00
    0.79082E+06         0.37632E+07         0.00000E+00
    0.00000E+00         0.00000E+00         0.78034E+06
 
    0.16220E+06         0.83685E+06         0.00000E+00
    0.83685E+06         0.37616E+07         0.00000E+00
    0.00000E+00         0.00000E+00         0.78476E+06
 
    0.18570E+06         0.88273E+06         0.00000E+00
    0.88273E+06         0.37599E+07         0.00000E+00
    0.00000E+00         0.00000E+00         0.78912E+06
 
    0.20905E+06         0.92846E+06         0.00000E+00
    0.92846E+06         0.37581E+07         0.00000E+00
    0.00000E+00         0.00000E+00         0.79342E+06
 
    0.23224E+06         0.97406E+06         0.00000E+00
    0.97406E+06         0.37561E+07         0.00000E+00
    0.00000E+00         0.00000E+00         0.79766E+06
 
    0.25529E+06         0.10195E+07         0.00000E+00
    0.10195E+07         0.37539E+07         0.00000E+00
    0.00000E+00         0.00000E+00         0.80184E+06
 
    0.27820E+06         0.10649E+07         0.00000E+00
    0.10649E+07         0.37516E+07         0.00000E+00
    0.00000E+00         0.00000E+00         0.80595E+06
 
    0.30098E+06         0.11101E+07         0.00000E+00
    0.11101E+07         0.37491E+07         0.00000E+00
    0.00000E+00         0.00000E+00         0.81001E+06
 
    0.32364E+06         0.11553E+07         0.00000E+00
    0.11553E+07         0.37464E+07         0.00000E+00
    0.00000E+00         0.00000E+00         0.81401E+06
 
    0.34620E+06         0.12003E+07         0.00000E+00
    0.12003E+07         0.37436E+07         0.00000E+00
    0.00000E+00         0.00000E+00         0.81795E+06
 
    0.36866E+06         0.12452E+07         0.00000E+00
    0.12452E+07         0.37405E+07         0.00000E+00
    0.00000E+00         0.00000E+00         0.82183E+06
 
    0.39104E+06         0.12901E+07         0.00000E+00
    0.12901E+07         0.37372E+07         0.00000E+00
    0.00000E+00         0.00000E+00         0.82566E+06
 
    0.41334E+06         0.13348E+07         0.00000E+00
    0.13348E+07         0.37338E+07         0.00000E+00
    0.00000E+00         0.00000E+00         0.82942E+06
 
    0.43558E+06         0.13795E+07         0.00000E+00
    0.13795E+07         0.37301E+07         0.00000E+00
    0.00000E+00         0.00000E+00         0.83313E+06
 
    0.45776E+06         0.14241E+07         0.00000E+00
    0.14241E+07         0.37262E+07         0.00000E+00
    0.00000E+00         0.00000E+00         0.83678E+06
 
    0.47990E+06         0.14687E+07         0.00000E+00
    0.14687E+07         0.37220E+07         0.00000E+00
    0.00000E+00         0.00000E+00         0.84038E+06
 
    0.50201E+06         0.15132E+07         0.00000E+00
    0.15132E+07         0.37176E+07         0.00000E+00
    0.00000E+00         0.00000E+00         0.84392E+06
 
    0.52411E+06         0.15576E+07         0.00000E+00
    0.15576E+07         0.37129E+07         0.00000E+00
    0.00000E+00         0.00000E+00         0.84741E+06
 
    0.54620E+06         0.16020E+07         0.00000E+00
    0.16020E+07         0.37080E+07         0.00000E+00
    0.00000E+00         0.00000E+00         0.85084E+06
 
    0.56829E+06         0.16463E+07         0.00000E+00
    0.16463E+07         0.37028E+07         0.00000E+00
    0.00000E+00         0.00000E+00         0.85421E+06
 
    0.59041E+06         0.16905E+07         0.00000E+00
    0.16905E+07         0.36973E+07         0.00000E+00
    0.00000E+00         0.00000E+00         0.85754E+06
 
    0.61256E+06         0.17347E+07         0.00000E+00
    0.17347E+07         0.36915E+07         0.00000E+00
    0.00000E+00         0.00000E+00         0.86081E+06
 
    0.63475E+06         0.17789E+07         0.00000E+00
    0.17789E+07         0.36854E+07         0.00000E+00
    0.00000E+00         0.00000E+00         0.86403E+06
 
    0.65700E+06         0.18230E+07         0.00000E+00
    0.18230E+07         0.36790E+07         0.00000E+00
    0.00000E+00         0.00000E+00         0.86720E+06
 
    0.67932E+06         0.18671E+07         0.00000E+00
    0.18671E+07         0.36723E+07         0.00000E+00
    0.00000E+00         0.00000E+00         0.87031E+06
 
    0.70173E+06         0.19111E+07         0.00000E+00
    0.19111E+07         0.36652E+07         0.00000E+00
    0.00000E+00         0.00000E+00         0.87338E+06
 
    0.72424E+06         0.19551E+07         0.00000E+00
    0.19551E+07         0.36578E+07         0.00000E+00
    0.00000E+00         0.00000E+00         0.87640E+06
 
    0.74686E+06         0.19991E+07         0.00000E+00
    0.19991E+07         0.36500E+07         0.00000E+00
    0.00000E+00         0.00000E+00         0.87937E+06
 
    0.76960E+06         0.20430E+07         0.00000E+00
    0.20430E+07         0.36418E+07         0.00000E+00
    0.00000E+00         0.00000E+00         0.88229E+06
 
    0.79248E+06         0.20869E+07         0.00000E+00
    0.20869E+07         0.36333E+07         0.00000E+00
    0.00000E+00         0.00000E+00         0.88516E+06
 
    0.81552E+06         0.21307E+07         0.00000E+00
    0.21307E+07         0.36244E+07         0.00000E+00
    0.00000E+00         0.00000E+00         0.88799E+06
 
    0.83872E+06         0.21745E+07         0.00000E+00
    0.21745E+07         0.36151E+07         0.00000E+00
    0.00000E+00         0.00000E+00         0.89077E+06
 
    0.86211E+06         0.22182E+07         0.00000E+00
    0.22182E+07         0.36054E+07         0.00000E+00
    0.00000E+00         0.00000E+00         0.89350E+06
 
    0.88569E+06         0.22619E+07         0.00000E+00
    0.22619E+07         0.35953E+07         0.00000E+00
    0.00000E+00         0.00000E+00         0.89619E+06
 
   -0.30366E+06         0.25098E+05         0.00000E+00
    0.25098E+05         0.34902E+07         0.00000E+00
    0.00000E+00         0.00000E+00         0.63731E+06
 
   -0.27818E+06         0.74481E+05         0.00000E+00
    0.74481E+05         0.34901E+07         0.00000E+00
    0.00000E+00         0.00000E+00         0.64239E+06
 
   -0.25288E+06         0.12353E+06         0.00000E+00
    0.12353E+06         0.34899E+07         0.00000E+00
    0.00000E+00         0.00000E+00         0.64741E+06
 
   -0.22777E+06         0.17226E+06         0.00000E+00
    0.17226E+06         0.34897E+07         0.00000E+00
    0.00000E+00         0.00000E+00         0.65238E+06
 
   -0.20284E+06         0.22068E+06         0.00000E+00
    0.22068E+06         0.34893E+07         0.00000E+00
    0.00000E+00         0.00000E+00         0.65729E+06
 
   -0.17809E+06         0.26881E+06         0.00000E+00
    0.26881E+06         0.34888E+07         0.00000E+00
    0.00000E+00         0.00000E+00         0.66215E+06
 
   -0.15353E+06         0.31664E+06         0.00000E+00
    0.31664E+06         0.34883E+07         0.00000E+00
    0.00000E+00         0.00000E+00         0.66695E+06
 
   -0.12915E+06         0.36420E+06         0.00000E+00
    0.36420E+06         0.34876E+07         0.00000E+00
    0.00000E+00         0.00000E+00         0.67169E+06
 
   -0.10494E+06         0.41149E+06         0.00000E+00
    0.41149E+06         0.34869E+07         0.00000E+00
    0.00000E+00         0.00000E+00         0.67639E+06
 
   -0.80913E+05         0.45852E+06         0.00000E+00
    0.45852E+06         0.34860E+07         0.00000E+00
    0.00000E+00         0.00000E+00         0.68102E+06
 
   -0.57057E+05         0.50531E+06         0.00000E+00
    0.50531E+06         0.34851E+07         0.00000E+00
    0.00000E+00         0.00000E+00         0.68560E+06
 
   -0.33369E+05         0.55186E+06         0.00000E+00
    0.55186E+06         0.34840E+07         0.00000E+00
    0.00000E+00         0.00000E+00         0.69012E+06
 
   -0.98463E+04         0.59818E+06         0.00000E+00
    0.59818E+06         0.34828E+07         0.00000E+00
    0.00000E+00         0.00000E+00         0.69459E+06
 
    0.13517E+05         0.64428E+06         0.00000E+00
    0.64428E+06         0.34815E+07         0.00000E+00
    0.00000E+00         0.00000E+00         0.69900E+06
 
    0.36724E+05         0.69017E+06         0.00000E+00
    0.69017E+06         0.34801E+07         0.00000E+00
    0.00000E+00         0.00000E+00         0.70336E+06
 
    0.59782E+05         0.73586E+06         0.00000E+00
    0.73586E+06         0.34785E+07         0.00000E+00
    0.00000E+00         0.00000E+00         0.70767E+06
 
    0.82696E+05         0.78135E+06         0.00000E+00
    0.78135E+06         0.34769E+07         0.00000E+00
    0.00000E+00         0.00000E+00         0.71191E+06
 
    0.10547E+06         0.82666E+06         0.00000E+00
    0.82666E+06         0.34751E+07         0.00000E+00
    0.00000E+00         0.00000E+00         0.71611E+06
 
    0.12812E+06         0.87179E+06         0.00000E+00
    0.87179E+06         0.34731E+07         0.00000E+00
    0.00000E+00         0.00000E+00         0.72025E+06
 
    0.15064E+06         0.91675E+06         0.00000E+00
    0.91675E+06         0.34710E+07         0.00000E+00
    0.00000E+00         0.00000E+00         0.72433E+06
 
    0.17304E+06         0.96155E+06         0.00000E+00
    0.96155E+06         0.34688E+07         0.00000E+00
    0.00000E+00         0.00000E+00         0.72836E+06
 
    0.19533E+06         0.10062E+07         0.00000E+00
    0.10062E+07         0.34664E+07         0.00000E+00
    0.00000E+00         0.00000E+00         0.73234E+06
 
    0.21752E+06         0.10507E+07         0.00000E+00
    0.10507E+07         0.34638E+07         0.00000E+00
    0.00000E+00         0.00000E+00         0.73626E+06
 
    0.23961E+06         0.10950E+07         0.00000E+00
    0.10950E+07         0.34611E+07         0.00000E+00
    0.00000E+00         0.00000E+00         0.74013E+06
 
    0.26162E+06         0.11392E+07         0.00000E+00
    0.11392E+07         0.34581E+07         0.00000E+00
    0.00000E+00         0.00000E+00         0.74395E+06
 
    0.28355E+06         0.11833E+07         0.00000E+00
    0.11833E+07         0.34550E+07         0.00000E+00
    0.00000E+00         0.00000E+00         0.74771E+06
 
    0.30541E+06         0.12272E+07         0.00000E+00
    0.12272E+07         0.34517E+07         0.00000E+00
    0.00000E+00         0.00000E+00         0.75143E+06
 
    0.32721E+06         0.12711E+07         0.00000E+00
    0.12711E+07         0.34482E+07         0.00000E+00
    0.00000E+00         0.00000E+00         0.75509E+06
 
    0.34897E+06         0.13148E+07         0.00000E+00
    0.13148E+07         0.34445E+07         0.00000E+00
    0.00000E+00         0.00000E+00         0.75870E+06
 
    0.37068E+06         0.13584E+07         0.00000E+00
    0.13584E+07         0.34406E+07         0.00000E+00
    0.00000E+00         0.00000E+00         0.76226E+06
 
    0.39236E+06         0.14019E+07         0.00000E+00
    0.14019E+07         0.34365E+07         0.00000E+00
    0.00000E+00         0.00000E+00         0.76577E+06
 
    0.41402E+06         0.14452E+07         0.00000E+00
    0.14452E+07         0.34321E+07         0.00000E+00
    0.00000E+00         0.00000E+00         0.76922E+06
 
    0.43568E+06         0.14885E+07         0.00000E+00
    0.14885E+07         0.34275E+07         0.00000E+00
    0.00000E+00         0.00000E+00         0.77263E+06
 
    0.45733E+06         0.15317E+07         0.00000E+00
    0.15317E+07         0.34226E+07         0.00000E+00
    0.00000E+00         0.00000E+00         0.77599E+06
 
    0.47899E+06         0.15748E+07         0.00000E+00
    0.15748E+07         0.34175E+07         0.00000E+00
    0.00000E+00         0.00000E+00         0.77930E+06
 
    0.50068E+06         0.16177E+07         0.00000E+00
    0.16177E+07         0.34121E+07         0.00000E+00
    0.00000E+00         0.00000E+00         0.78256E+06
 
    0.52240E+06         0.16606E+07         0.00000E+00
    0.16606E+07         0.34065E+07         0.00000E+00
    0.00000E+00         0.00000E+00         0.78578E+06
 
    0.54416E+06         0.17034E+07         0.00000E+00
    0.17034E+07         0.34006E+07         0.00000E+00
    0.00000E+00         0.00000E+00         0.78895E+06
 
    0.56598E+06         0.17462E+07         0.00000E+00
    0.17462E+07         0.33943E+07         0.00000E+00
    0.00000E+00         0.00000E+00         0.79207E+06
 
    0.58787E+06         0.17888E+07         0.00000E+00
    0.17888E+07         0.33878E+07         0.00000E+00
    0.00000E+00         0.00000E+00         0.79514E+06
 
    0.60984E+06         0.18313E+07         0.00000E+00
    0.18313E+07         0.33810E+07         0.00000E+00
    0.00000E+00         0.00000E+00         0.79817E+06
 
    0.63190E+06         0.18738E+07         0.00000E+00
    0.18738E+07         0.33739E+07         0.00000E+00
    0.00000E+00         0.00000E+00         0.80115E+06
 
    0.65406E+06         0.19162E+07         0.00000E+00
    0.19162E+07         0.33664E+07         0.00000E+00
    0.00000E+00         0.00000E+00         0.80409E+06
 
    0.67634E+06         0.19585E+07         0.00000E+00
    0.19585E+07         0.33586E+07         0.00000E+00
    0.00000E+00         0.00000E+00         0.80699E+06
 
    0.69875E+06         0.20007E+07         0.00000E+00
    0.20007E+07         0.33505E+07         0.00000E+00
    0.00000E+00         0.00000E+00         0.80984E+06
 
    0.72129E+06         0.20428E+07         0.00000E+00
    0.20428E+07         0.33420E+07         0.00000E+00
    0.00000E+00         0.00000E+00         0.81265E+06
 
    0.74399E+06         0.20849E+07         0.00000E+00
    0.20849E+07         0.33331E+07         0.00000E+00
    0.00000E+00         0.00000E+00         0.81542E+06
 
    0.76685E+06         0.21268E+07         0.00000E+00
    0.21268E+07         0.33239E+07         0.00000E+00
    0.00000E+00         0.00000E+00         0.81815E+06
 
    0.78989E+06         0.21687E+07         0.00000E+00
    0.21687E+07         0.33143E+07         0.00000E+00
    0.00000E+00         0.00000E+00         0.82083E+06
 
    0.81313E+06         0.22104E+07         0.00000E+00
    0.22104E+07         0.33043E+07         0.00000E+00
    0.00000E+00         0.00000E+00         0.82348E+06
 
   -0.32782E+06         0.24808E+05         0.00000E+00
    0.24808E+05         0.32197E+07         0.00000E+00
    0.00000E+00         0.00000E+00         0.57838E+06
 
   -0.30402E+06         0.73618E+05         0.00000E+00
    0.73618E+05         0.32196E+07         0.00000E+00
    0.00000E+00         0.00000E+00         0.58311E+06
 
   -0.28036E+06         0.12210E+06         0.00000E+00
    0.12210E+06         0.32194E+07         0.00000E+00
    0.00000E+00         0.00000E+00         0.58780E+06
 
   -0.25684E+06         0.17026E+06         0.00000E+00
    0.17026E+06         0.32191E+07         0.00000E+00
    0.00000E+00         0.00000E+00         0.59244E+06
 
   -0.23345E+06         0.21810E+06         0.00000E+00
    0.21810E+06         0.32186E+07         0.00000E+00
    0.00000E+00         0.00000E+00         0.59704E+06
 
   -0.21021E+06         0.26565E+06         0.00000E+00
    0.26565E+06         0.32181E+07         0.00000E+00
    0.00000E+00         0.00000E+00         0.60158E+06
 
   -0.18710E+06         0.31290E+06         0.00000E+00
    0.31290E+06         0.32175E+07         0.00000E+00
    0.00000E+00         0.00000E+00         0.60607E+06
 
   -0.16412E+06         0.35987E+06         0.00000E+00
    0.35987E+06         0.32167E+07         0.00000E+00
    0.00000E+00         0.00000E+00         0.61052E+06
 
   -0.14128E+06         0.40656E+06         0.00000E+00
    0.40656E+06         0.32159E+07         0.00000E+00
    0.00000E+00         0.00000E+00         0.61491E+06
 
   -0.11857E+06         0.45298E+06         0.00000E+00
    0.45298E+06         0.32149E+07         0.00000E+00
    0.00000E+00         0.00000E+00         0.61926E+06
 
   -0.95997E+05         0.49915E+06         0.00000E+00
    0.49915E+06         0.32138E+07         0.00000E+00
    0.00000E+00         0.00000E+00         0.62356E+06
 
   -0.73547E+05         0.54507E+06         0.00000E+00
    0.54507E+06         0.32126E+07         0.00000E+00
    0.00000E+00         0.00000E+00         0.62781E+06
 
   -0.51221E+05         0.59074E+06         0.00000E+00
    0.59074E+06         0.32113E+07         0.00000E+00
    0.00000E+00         0.00000E+00         0.63201E+06
 
   -0.29016E+05         0.63618E+06         0.00000E+00
    0.63618E+06         0.32098E+07         0.00000E+00
    0.00000E+00         0.00000E+00         0.63616E+06
 
   -0.69288E+04         0.68139E+06         0.00000E+00
    0.68139E+06         0.32082E+07         0.00000E+00
    0.00000E+00         0.00000E+00         0.64026E+06
 
    0.15046E+05         0.72638E+06         0.00000E+00
    0.72638E+06         0.32065E+07         0.00000E+00
    0.00000E+00         0.00000E+00         0.64432E+06
 
    0.36912E+05         0.77115E+06         0.00000E+00
    0.77115E+06         0.32047E+07         0.00000E+00
    0.00000E+00         0.00000E+00         0.64832E+06
 
    0.58676E+05         0.81572E+06         0.00000E+00
    0.81572E+06         0.32027E+07         0.00000E+00
    0.00000E+00         0.00000E+00         0.65228E+06
 
    0.80341E+05         0.86009E+06         0.00000E+00
    0.86009E+06         0.32006E+07         0.00000E+00
    0.00000E+00         0.00000E+00         0.65619E+06
 
    0.10191E+06         0.90427E+06         0.00000E+00
    0.90427E+06         0.31983E+07         0.00000E+00
    0.00000E+00         0.00000E+00         0.66005E+06
 
    0.12340E+06         0.94826E+06         0.00000E+00
    0.94826E+06         0.31959E+07         0.00000E+00
    0.00000E+00         0.00000E+00         0.66386E+06
 
    0.14481E+06         0.99207E+06         0.00000E+00
    0.99207E+06         0.31933E+07         0.00000E+00
    0.00000E+00         0.00000E+00         0.66763E+06
 
    0.16614E+06         0.10357E+07         0.00000E+00
    0.10357E+07         0.31906E+07         0.00000E+00
    0.00000E+00         0.00000E+00         0.67135E+06
 
    0.18741E+06         0.10792E+07         0.00000E+00
    0.10792E+07         0.31877E+07         0.00000E+00
    0.00000E+00         0.00000E+00         0.67502E+06
 
    0.20861E+06         0.11225E+07         0.00000E+00
    0.11225E+07         0.31846E+07         0.00000E+00
    0.00000E+00         0.00000E+00         0.67864E+06
 
    0.22977E+06         0.11656E+07         0.00000E+00
    0.11656E+07         0.31813E+07         0.00000E+00
    0.00000E+00         0.00000E+00         0.68222E+06
 
    0.25088E+06         0.12086E+07         0.00000E+00
    0.12086E+07         0.31779E+07         0.00000E+00
    0.00000E+00         0.00000E+00         0.68575E+06
 
    0.27195E+06         0.12514E+07         0.00000E+00
    0.12514E+07         0.31742E+07         0.00000E+00
    0.00000E+00         0.00000E+00         0.68923E+06
 
    0.29300E+06         0.12941E+07         0.00000E+00
    0.12941E+07         0.31704E+07         0.00000E+00
    0.00000E+00         0.00000E+00         0.69267E+06
 
    0.31402E+06         0.13366E+07         0.00000E+00
    0.13366E+07         0.31663E+07         0.00000E+00
    0.00000E+00         0.00000E+00         0.69606E+06
 
    0.33504E+06         0.13790E+07         0.00000E+00
    0.13790E+07         0.31620E+07         0.00000E+00
    0.00000E+00         0.00000E+00         0.69941E+06
 
    0.35605E+06         0.14212E+07         0.00000E+00
    0.14212E+07         0.31575E+07         0.00000E+00
    0.00000E+00         0.00000E+00         0.70272E+06
 
    0.37706E+06         0.14633E+07         0.00000E+00
    0.14633E+07         0.31528E+07         0.00000E+00
    0.00000E+00         0.00000E+00         0.70598E+06
 
    0.39810E+06         0.15053E+07         0.00000E+00
    0.15053E+07         0.31479E+07         0.00000E+00
    0.00000E+00         0.00000E+00         0.70919E+06
 
    0.41916E+06         0.15472E+07         0.00000E+00
    0.15472E+07         0.31427E+07         0.00000E+00
    0.00000E+00         0.00000E+00         0.71236E+06
 
    0.44025E+06         0.15889E+07         0.00000E+00
    0.15889E+07         0.31372E+07         0.00000E+00
    0.00000E+00         0.00000E+00         0.71549E+06
 
    0.46139E+06         0.16305E+07         0.00000E+00
    0.16305E+07         0.31315E+07         0.00000E+00
    0.00000E+00         0.00000E+00         0.71858E+06
 
    0.48258E+06         0.16719E+07         0.00000E+00
    0.16719E+07         0.31255E+07         0.00000E+00
    0.00000E+00         0.00000E+00         0.72162E+06
 
    0.50384E+06         0.17133E+07         0.00000E+00
    0.17133E+07         0.31193E+07         0.00000E+00
    0.00000E+00         0.00000E+00         0.72463E+06
 
    0.52517E+06         0.17545E+07         0.00000E+00
    0.17545E+07         0.31128E+07         0.00000E+00
    0.00000E+00         0.00000E+00         0.72759E+06
 
    0.54658E+06         0.17956E+07         0.00000E+00
    0.17956E+07         0.31060E+07         0.00000E+00
    0.00000E+00         0.00000E+00         0.73051E+06
 
    0.56810E+06         0.18366E+07         0.00000E+00
    0.18366E+07         0.30988E+07         0.00000E+00
    0.00000E+00         0.00000E+00         0.73339E+06
 
    0.58971E+06         0.18774E+07         0.00000E+00
    0.18774E+07         0.30914E+07         0.00000E+00
    0.00000E+00         0.00000E+00         0.73623E+06
 
    0.61145E+06         0.19182E+07         0.00000E+00
    0.19182E+07         0.30837E+07         0.00000E+00
    0.00000E+00         0.00000E+00         0.73903E+06
 
    0.63331E+06         0.19588E+07         0.00000E+00
    0.19588E+07         0.30757E+07         0.00000E+00
    0.00000E+00         0.00000E+00         0.74179E+06
 
    0.65532E+06         0.19993E+07         0.00000E+00
    0.19993E+07         0.30673E+07         0.00000E+00
    0.00000E+00         0.00000E+00         0.74452E+06
 
    0.67747E+06         0.20396E+07         0.00000E+00
    0.20396E+07         0.30586E+07         0.00000E+00
    0.00000E+00         0.00000E+00         0.74721E+06
 
    0.69979E+06         0.20798E+07         0.00000E+00
    0.20798E+07         0.30495E+07         0.00000E+00
    0.00000E+00         0.00000E+00         0.74986E+06
 
    0.72227E+06         0.21199E+07         0.00000E+00
    0.21199E+07         0.30401E+07         0.00000E+00
    0.00000E+00         0.00000E+00         0.75247E+06
 
    0.74495E+06         0.21599E+07         0.00000E+00
    0.21599E+07         0.30303E+07         0.00000E+00
    0.00000E+00         0.00000E+00         0.75505E+06
 
   -0.34234E+06         0.24493E+05         0.00000E+00
    0.24493E+05         0.29618E+07         0.00000E+00
    0.00000E+00         0.00000E+00         0.52389E+06
 
   -0.32021E+06         0.72687E+05         0.00000E+00
    0.72687E+05         0.29617E+07         0.00000E+00
    0.00000E+00         0.00000E+00         0.52829E+06
 
   -0.29819E+06         0.12055E+06         0.00000E+00
    0.12055E+06         0.29615E+07         0.00000E+00
    0.00000E+00         0.00000E+00         0.53265E+06
 
   -0.27626E+06         0.16810E+06         0.00000E+00
    0.16810E+06         0.29611E+07         0.00000E+00
    0.00000E+00         0.00000E+00         0.53697E+06
 
   -0.25442E+06         0.21533E+06         0.00000E+00
    0.21533E+06         0.29606E+07         0.00000E+00
    0.00000E+00         0.00000E+00         0.54124E+06
 
   -0.23269E+06         0.26226E+06         0.00000E+00
    0.26226E+06         0.29601E+07         0.00000E+00
    0.00000E+00         0.00000E+00         0.54547E+06
 
   -0.21105E+06         0.30890E+06         0.00000E+00
    0.30890E+06         0.29594E+07         0.00000E+00
    0.00000E+00         0.00000E+00         0.54966E+06
 
   -0.18952E+06         0.35524E+06         0.00000E+00
    0.35524E+06         0.29585E+07         0.00000E+00
    0.00000E+00         0.00000E+00         0.55380E+06
 
   -0.16808E+06         0.40131E+06         0.00000E+00
    0.40131E+06         0.29576E+07         0.00000E+00
    0.00000E+00         0.00000E+00         0.55791E+06
 
   -0.14673E+06         0.44709E+06         0.00000E+00
    0.44709E+06         0.29566E+07         0.00000E+00
    0.00000E+00         0.00000E+00         0.56196E+06
 
   -0.12548E+06         0.49261E+06         0.00000E+00
    0.49261E+06         0.29554E+07         0.00000E+00
    0.00000E+00         0.00000E+00         0.56598E+06
 
   -0.10433E+06         0.53787E+06         0.00000E+00
    0.53787E+06         0.29541E+07         0.00000E+00
    0.00000E+00         0.00000E+00         0.56995E+06
 
   -0.83261E+05         0.58288E+06         0.00000E+00
    0.58288E+06         0.29527E+07         0.00000E+00
    0.00000E+00         0.00000E+00         0.57388E+06
 
   -0.62283E+05         0.62764E+06         0.00000E+00
    0.62764E+06         0.29511E+07         0.00000E+00
    0.00000E+00         0.00000E+00         0.57777E+06
 
   -0.41390E+05         0.67215E+06         0.00000E+00
    0.67215E+06         0.29494E+07         0.00000E+00
    0.00000E+00         0.00000E+00         0.58161E+06
 
   -0.20578E+05         0.71644E+06         0.00000E+00
    0.71644E+06         0.29476E+07         0.00000E+00
    0.00000E+00         0.00000E+00         0.58541E+06
 
    0.15568E+03         0.76049E+06         0.00000E+00
    0.76049E+06         0.29457E+07         0.00000E+00
    0.00000E+00         0.00000E+00         0.58917E+06
 
    0.20816E+05         0.80431E+06         0.00000E+00
    0.80431E+06         0.29436E+07         0.00000E+00
    0.00000E+00         0.00000E+00         0.59288E+06
 
    0.41406E+05         0.84792E+06         0.00000E+00
    0.84792E+06         0.29414E+07         0.00000E+00
    0.00000E+00         0.00000E+00         0.59655E+06
 
    0.61931E+05         0.89132E+06         0.00000E+00
    0.89132E+06         0.29390E+07         0.00000E+00
    0.00000E+00         0.00000E+00         0.60018E+06
 
    0.82397E+05         0.93451E+06         0.00000E+00
    0.93451E+06         0.29365E+07         0.00000E+00
    0.00000E+00         0.00000E+00         0.60377E+06
 
    0.10281E+06         0.97749E+06         0.00000E+00
    0.97749E+06         0.29338E+07         0.00000E+00
    0.00000E+00         0.00000E+00         0.60732E+06
 
    0.12317E+06         0.10203E+07         0.00000E+00
    0.10203E+07         0.29309E+07         0.00000E+00
    0.00000E+00         0.00000E+00         0.61082E+06
 
    0.14349E+06         0.10629E+07         0.00000E+00
    0.10629E+07         0.29279E+07         0.00000E+00
    0.00000E+00         0.00000E+00         0.61428E+06
 
    0.16377E+06         0.11053E+07         0.00000E+00
    0.11053E+07         0.29247E+07         0.00000E+00
    0.00000E+00         0.00000E+00         0.61770E+06
 
    0.18402E+06         0.11475E+07         0.00000E+00
    0.11475E+07         0.29214E+07         0.00000E+00
    0.00000E+00         0.00000E+00         0.62108E+06
 
    0.20424E+06         0.11895E+07         0.00000E+00
    0.11895E+07         0.29178E+07         0.00000E+00
    0.00000E+00         0.00000E+00         0.62441E+06
 
    0.22445E+06         0.12314E+07         0.00000E+00
    0.12314E+07         0.29141E+07         0.00000E+00
    0.00000E+00         0.00000E+00         0.62771E+06
 
    0.24465E+06         0.12731E+07         0.00000E+00
    0.12731E+07         0.29102E+07         0.00000E+00
    0.00000E+00         0.00000E+00         0.63097E+06
 
    0.26484E+06         0.13146E+07         0.00000E+00
    0.13146E+07         0.29061E+07         0.00000E+00
    0.00000E+00         0.00000E+00         0.63418E+06
 
    0.28504E+06         0.13559E+07         0.00000E+00
    0.13559E+07         0.29017E+07         0.00000E+00
    0.00000E+00         0.00000E+00         0.63736E+06
 
    0.30525E+06         0.13971E+07         0.00000E+00
    0.13971E+07         0.28972E+07         0.00000E+00
    0.00000E+00         0.00000E+00         0.64049E+06
 
    0.32548E+06         0.14381E+07         0.00000E+00
    0.14381E+07         0.28925E+07         0.00000E+00
    0.00000E+00         0.00000E+00         0.64359E+06
 
    0.34574E+06         0.14789E+07         0.00000E+00
    0.14789E+07         0.28875E+07         0.00000E+00
    0.00000E+00         0.00000E+00         0.64664E+06
 
    0.36603E+06         0.15196E+07         0.00000E+00
    0.15196E+07         0.28823E+07         0.00000E+00
    0.00000E+00         0.00000E+00         0.64966E+06
 
    0.38637E+06         0.15601E+07         0.00000E+00
    0.15601E+07         0.28769E+07         0.00000E+00
    0.00000E+00         0.00000E+00         0.65264E+06
 
    0.40676E+06         0.16005E+07         0.00000E+00
    0.16005E+07         0.28712E+07         0.00000E+00
    0.00000E+00         0.00000E+00         0.65559E+06
 
    0.42721E+06         0.16407E+07         0.00000E+00
    0.16407E+07         0.28652E+07         0.00000E+00
    0.00000E+00         0.00000E+00         0.65849E+06
 
    0.44773E+06         0.16807E+07         0.00000E+00
    0.16807E+07         0.28591E+07         0.00000E+00
    0.00000E+00         0.00000E+00         0.66136E+06
 
    0.46833E+06         0.17206E+07         0.00000E+00
    0.17206E+07         0.28526E+07         0.00000E+00
    0.00000E+00         0.00000E+00         0.66419E+06
 
    0.48903E+06         0.17603E+07         0.00000E+00
    0.17603E+07         0.28459E+07         0.00000E+00
    0.00000E+00         0.00000E+00         0.66699E+06
 
    0.50981E+06         0.17999E+07         0.00000E+00
    0.17999E+07         0.28389E+07         0.00000E+00
    0.00000E+00         0.00000E+00         0.66975E+06
 
    0.53071E+06         0.18393E+07         0.00000E+00
    0.18393E+07         0.28316E+07         0.00000E+00
    0.00000E+00         0.00000E+00         0.67247E+06
 
    0.55173E+06         0.18786E+07         0.00000E+00
    0.18786E+07         0.28241E+07         0.00000E+00
    0.00000E+00         0.00000E+00         0.67516E+06
 
    0.57287E+06         0.19177E+07         0.00000E+00
    0.19177E+07         0.28162E+07         0.00000E+00
    0.00000E+00         0.00000E+00         0.67781E+06
 
    0.59414E+06         0.19566E+07         0.00000E+00
    0.19566E+07         0.28080E+07         0.00000E+00
    0.00000E+00         0.00000E+00         0.68043E+06
 
    0.61557E+06         0.19954E+07         0.00000E+00
    0.19954E+07         0.27995E+07         0.00000E+00
    0.00000E+00         0.00000E+00         0.68302E+06
 
    0.63715E+06         0.20340E+07         0.00000E+00
    0.20340E+07         0.27907E+07         0.00000E+00
    0.00000E+00         0.00000E+00         0.68558E+06
 
    0.65890E+06         0.20725E+07         0.00000E+00
    0.20725E+07         0.27816E+07         0.00000E+00
    0.00000E+00         0.00000E+00         0.68810E+06
 
    0.68082E+06         0.21108E+07         0.00000E+00
    0.21108E+07         0.27721E+07         0.00000E+00
    0.00000E+00         0.00000E+00         0.69059E+06
 
   -0.34833E+06         0.24165E+05         0.00000E+00
    0.24165E+05         0.27156E+07         0.00000E+00
    0.00000E+00         0.00000E+00         0.47345E+06
 
   -0.32786E+06         0.71716E+05         0.00000E+00
    0.71716E+05         0.27155E+07         0.00000E+00
    0.00000E+00         0.00000E+00         0.47752E+06
 
   -0.30745E+06         0.11894E+06         0.00000E+00
    0.11894E+06         0.27152E+07         0.00000E+00
    0.00000E+00         0.00000E+00         0.48156E+06
 
   -0.28710E+06         0.16585E+06         0.00000E+00
    0.16585E+06         0.27149E+07         0.00000E+00
    0.00000E+00         0.00000E+00         0.48555E+06
 
   -0.26682E+06         0.21245E+06         0.00000E+00
    0.21245E+06         0.27144E+07         0.00000E+00
    0.00000E+00         0.00000E+00         0.48951E+06
 
   -0.24661E+06         0.25875E+06         0.00000E+00
    0.25875E+06         0.27138E+07         0.00000E+00
    0.00000E+00         0.00000E+00         0.49343E+06
 
   -0.22646E+06         0.30474E+06         0.00000E+00
    0.30474E+06         0.27130E+07         0.00000E+00
    0.00000E+00         0.00000E+00         0.49731E+06
 
   -0.20638E+06         0.35045E+06         0.00000E+00
    0.35045E+06         0.27122E+07         0.00000E+00
    0.00000E+00         0.00000E+00         0.50116E+06
 
   -0.18636E+06         0.39587E+06         0.00000E+00
    0.39587E+06         0.27112E+07         0.00000E+00
    0.00000E+00         0.00000E+00         0.50496E+06
 
   -0.16641E+06         0.44101E+06         0.00000E+00
    0.44101E+06         0.27101E+07         0.00000E+00
    0.00000E+00         0.00000E+00         0.50873E+06
 
   -0.14653E+06         0.48587E+06         0.00000E+00
    0.48587E+06         0.27089E+07         0.00000E+00
    0.00000E+00         0.00000E+00         0.51247E+06
 
   -0.12671E+06         0.53047E+06         0.00000E+00
    0.53047E+06         0.27075E+07         0.00000E+00
    0.00000E+00         0.00000E+00         0.51616E+06
 
   -0.10695E+06         0.57480E+06         0.00000E+00
    0.57480E+06         0.27060E+07         0.00000E+00
    0.00000E+00         0.00000E+00         0.51982E+06
 
   -0.87258E+05         0.61887E+06         0.00000E+00
    0.61887E+06         0.27044E+07         0.00000E+00
    0.00000E+00         0.00000E+00         0.52344E+06
 
   -0.67619E+05         0.66270E+06         0.00000E+00
    0.66270E+06         0.27027E+07         0.00000E+00
    0.00000E+00         0.00000E+00         0.52702E+06
 
   -0.48037E+05         0.70627E+06         0.00000E+00
    0.70627E+06         0.27008E+07         0.00000E+00
    0.00000E+00         0.00000E+00         0.53056E+06
 
   -0.28507E+05         0.74960E+06         0.00000E+00
    0.74960E+06         0.26988E+07         0.00000E+00
    0.00000E+00         0.00000E+00         0.53406E+06
 
   -0.90260E+04         0.79269E+06         0.00000E+00
    0.79269E+06         0.26967E+07         0.00000E+00
    0.00000E+00         0.00000E+00         0.53753E+06
 
    0.10408E+05         0.83555E+06         0.00000E+00
    0.83555E+06         0.26944E+07         0.00000E+00
    0.00000E+00         0.00000E+00         0.54096E+06
 
    0.29801E+05         0.87818E+06         0.00000E+00
    0.87818E+06         0.26920E+07         0.00000E+00
    0.00000E+00         0.00000E+00         0.54435E+06
 
    0.49155E+05         0.92058E+06         0.00000E+00
    0.92058E+06         0.26894E+07         0.00000E+00
    0.00000E+00         0.00000E+00         0.54771E+06
 
    0.68475E+05         0.96277E+06         0.00000E+00
    0.96277E+06         0.26867E+07         0.00000E+00
    0.00000E+00         0.00000E+00         0.55103E+06
 
    0.87767E+05         0.10047E+07         0.00000E+00
    0.10047E+07         0.26838E+07         0.00000E+00
    0.00000E+00         0.00000E+00         0.55431E+06
 
    0.10703E+06         0.10465E+07         0.00000E+00
    0.10465E+07         0.26807E+07         0.00000E+00
    0.00000E+00         0.00000E+00         0.55755E+06
 
    0.12628E+06         0.10880E+07         0.00000E+00
    0.10880E+07         0.26775E+07         0.00000E+00
    0.00000E+00         0.00000E+00         0.56076E+06
 
    0.14552E+06         0.11294E+07         0.00000E+00
    0.11294E+07         0.26741E+07         0.00000E+00
    0.00000E+00         0.00000E+00         0.56393E+06
 
    0.16474E+06         0.11705E+07         0.00000E+00
    0.11705E+07         0.26706E+07         0.00000E+00
    0.00000E+00         0.00000E+00         0.56706E+06
 
    0.18396E+06         0.12114E+07         0.00000E+00
    0.12114E+07         0.26668E+07         0.00000E+00
    0.00000E+00         0.00000E+00         0.57016E+06
 
    0.20319E+06         0.12521E+07         0.00000E+00
    0.12521E+07         0.26629E+07         0.00000E+00
    0.00000E+00         0.00000E+00         0.57322E+06
 
    0.22243E+06         0.12927E+07         0.00000E+00
    0.12927E+07         0.26588E+07         0.00000E+00
    0.00000E+00         0.00000E+00         0.57625E+06
 
    0.24168E+06         0.13330E+07         0.00000E+00
    0.13330E+07         0.26545E+07         0.00000E+00
    0.00000E+00         0.00000E+00         0.57924E+06
 
    0.26096E+06         0.13731E+07         0.00000E+00
    0.13731E+07         0.26500E+07         0.00000E+00
    0.00000E+00         0.00000E+00         0.58220E+06
 
    0.28026E+06         0.14131E+07         0.00000E+00
    0.14131E+07         0.26453E+07         0.00000E+00
    0.00000E+00         0.00000E+00         0.58512E+06
 
    0.29961E+06         0.14528E+07         0.00000E+00
    0.14528E+07         0.26404E+07         0.00000E+00
    0.00000E+00         0.00000E+00         0.58801E+06
 
    0.31899E+06         0.14924E+07         0.00000E+00
    0.14924E+07         0.26353E+07         0.00000E+00
    0.00000E+00         0.00000E+00         0.59086E+06
 
    0.33843E+06         0.15318E+07         0.00000E+00
    0.15318E+07         0.26300E+07         0.00000E+00
    0.00000E+00         0.00000E+00         0.59368E+06
 
    0.35793E+06         0.15710E+07         0.00000E+00
    0.15710E+07         0.26244E+07         0.00000E+00
    0.00000E+00         0.00000E+00         0.59646E+06
 
    0.37749E+06         0.16100E+07         0.00000E+00
    0.16100E+07         0.26186E+07         0.00000E+00
    0.00000E+00         0.00000E+00         0.59922E+06
 
    0.39713E+06         0.16488E+07         0.00000E+00
    0.16488E+07         0.26125E+07         0.00000E+00
    0.00000E+00         0.00000E+00         0.60193E+06
 
    0.41685E+06         0.16875E+07         0.00000E+00
    0.16875E+07         0.26063E+07         0.00000E+00
    0.00000E+00         0.00000E+00         0.60462E+06
 
    0.43666E+06         0.17259E+07         0.00000E+00
    0.17259E+07         0.25997E+07         0.00000E+00
    0.00000E+00         0.00000E+00         0.60727E+06
 
    0.45657E+06         0.17642E+07         0.00000E+00
    0.17642E+07         0.25929E+07         0.00000E+00
    0.00000E+00         0.00000E+00         0.60990E+06
 
    0.47659E+06         0.18023E+07         0.00000E+00
    0.18023E+07         0.25859E+07         0.00000E+00
    0.00000E+00         0.00000E+00         0.61249E+06
 
    0.49672E+06         0.18402E+07         0.00000E+00
    0.18402E+07         0.25785E+07         0.00000E+00
    0.00000E+00         0.00000E+00         0.61505E+06
 
    0.51698E+06         0.18779E+07         0.00000E+00
    0.18779E+07         0.25709E+07         0.00000E+00
    0.00000E+00         0.00000E+00         0.61758E+06
 
    0.53737E+06         0.19154E+07         0.00000E+00
    0.19154E+07         0.25630E+07         0.00000E+00
    0.00000E+00         0.00000E+00         0.62008E+06
 
    0.55790E+06         0.19527E+07         0.00000E+00
    0.19527E+07         0.25548E+07         0.00000E+00
    0.00000E+00         0.00000E+00         0.62255E+06
 
    0.57858E+06         0.19898E+07         0.00000E+00
    0.19898E+07         0.25464E+07         0.00000E+00
    0.00000E+00         0.00000E+00         0.62499E+06
 
    0.59942E+06         0.20268E+07         0.00000E+00
    0.20268E+07         0.25376E+07         0.00000E+00
    0.00000E+00         0.00000E+00         0.62740E+06
 
    0.62042E+06         0.20635E+07         0.00000E+00
    0.20635E+07         0.25285E+07         0.00000E+00
    0.00000E+00         0.00000E+00         0.62978E+06
 
   -0.34681E+06         0.23830E+05         0.00000E+00
    0.23830E+05         0.24802E+07         0.00000E+00
    0.00000E+00         0.00000E+00         0.42668E+06
 
   -0.32796E+06         0.70728E+05         0.00000E+00
    0.70728E+05         0.24801E+07         0.00000E+00
    0.00000E+00         0.00000E+00         0.43042E+06
 
   -0.30915E+06         0.11731E+06         0.00000E+00
    0.11731E+06         0.24798E+07         0.00000E+00
    0.00000E+00         0.00000E+00         0.43413E+06
 
   -0.29037E+06         0.16357E+06         0.00000E+00
    0.16357E+06         0.24794E+07         0.00000E+00
    0.00000E+00         0.00000E+00         0.43781E+06
 
   -0.27163E+06         0.20953E+06         0.00000E+00
    0.20953E+06         0.24789E+07         0.00000E+00
    0.00000E+00         0.00000E+00         0.44146E+06
 
   -0.25293E+06         0.25518E+06         0.00000E+00
    0.25518E+06         0.24783E+07         0.00000E+00
    0.00000E+00         0.00000E+00         0.44507E+06
 
   -0.23428E+06         0.30054E+06         0.00000E+00
    0.30054E+06         0.24775E+07         0.00000E+00
    0.00000E+00         0.00000E+00         0.44865E+06
 
   -0.21566E+06         0.34560E+06         0.00000E+00
    0.34560E+06         0.24767E+07         0.00000E+00
    0.00000E+00         0.00000E+00         0.45220E+06
 
   -0.19709E+06         0.39037E+06         0.00000E+00
    0.39037E+06         0.24757E+07         0.00000E+00
    0.00000E+00         0.00000E+00         0.45572E+06
 
   -0.17856E+06         0.43486E+06         0.00000E+00
    0.43486E+06         0.24746E+07         0.00000E+00
    0.00000E+00         0.00000E+00         0.45920E+06
 
   -0.16007E+06         0.47908E+06         0.00000E+00
    0.47908E+06         0.24733E+07         0.00000E+00
    0.00000E+00         0.00000E+00         0.46265E+06
 
   -0.14162E+06         0.52301E+06         0.00000E+00
    0.52301E+06         0.24719E+07         0.00000E+00
    0.00000E+00         0.00000E+00         0.46606E+06
 
   -0.12321E+06         0.56668E+06         0.00000E+00
    0.56668E+06         0.24704E+07         0.00000E+00
    0.00000E+00         0.00000E+00         0.46945E+06
 
   -0.10484E+06         0.61008E+06         0.00000E+00
    0.61008E+06         0.24688E+07         0.00000E+00
    0.00000E+00         0.00000E+00         0.47280E+06
 
   -0.86501E+05         0.65321E+06         0.00000E+00
    0.65321E+06         0.24671E+07         0.00000E+00
    0.00000E+00         0.00000E+00         0.47612E+06
 
   -0.68200E+05         0.69609E+06         0.00000E+00
    0.69609E+06         0.24652E+07         0.00000E+00
    0.00000E+00         0.00000E+00         0.47940E+06
 
   -0.49932E+05         0.73872E+06         0.00000E+00
    0.73872E+06         0.24632E+07         0.00000E+00
    0.00000E+00         0.00000E+00         0.48265E+06
 
   -0.31694E+05         0.78109E+06         0.00000E+00
    0.78109E+06         0.24610E+07         0.00000E+00
    0.00000E+00         0.00000E+00         0.48587E+06
 
   -0.13483E+05         0.82322E+06         0.00000E+00
    0.82322E+06         0.24587E+07         0.00000E+00
    0.00000E+00         0.00000E+00         0.48905E+06
 
    0.47046E+04         0.86510E+06         0.00000E+00
    0.86510E+06         0.24563E+07         0.00000E+00
    0.00000E+00         0.00000E+00         0.49220E+06
 
    0.22871E+05         0.90675E+06         0.00000E+00
    0.90675E+06         0.24537E+07         0.00000E+00
    0.00000E+00         0.00000E+00         0.49532E+06
 
    0.41021E+05         0.94815E+06         0.00000E+00
    0.94815E+06         0.24510E+07         0.00000E+00
    0.00000E+00         0.00000E+00         0.49841E+06
 
    0.59157E+05         0.98933E+06         0.00000E+00
    0.98933E+06         0.24482E+07         0.00000E+00
    0.00000E+00         0.00000E+00         0.50146E+06
 
    0.77284E+05         0.10303E+07         0.00000E+00
    0.10303E+07         0.24451E+07         0.00000E+00
    0.00000E+00         0.00000E+00         0.50448E+06
 
    0.95407E+05         0.10710E+07         0.00000E+00
    0.10710E+07         0.24420E+07         0.00000E+00
    0.00000E+00         0.00000E+00         0.50747E+06
 
    0.11353E+06         0.11115E+07         0.00000E+00
    0.11115E+07         0.24386E+07         0.00000E+00
    0.00000E+00         0.00000E+00         0.51043E+06
 
    0.13166E+06         0.11517E+07         0.00000E+00
    0.11517E+07         0.24351E+07         0.00000E+00
    0.00000E+00         0.00000E+00         0.51335E+06
 
    0.14979E+06         0.11918E+07         0.00000E+00
    0.11918E+07         0.24314E+07         0.00000E+00
    0.00000E+00         0.00000E+00         0.51625E+06
 
    0.16794E+06         0.12316E+07         0.00000E+00
    0.12316E+07         0.24276E+07         0.00000E+00
    0.00000E+00         0.00000E+00         0.51911E+06
 
    0.18611E+06         0.12712E+07         0.00000E+00
    0.12712E+07         0.24236E+07         0.00000E+00
    0.00000E+00         0.00000E+00         0.52194E+06
 
    0.20431E+06         0.13106E+07         0.00000E+00
    0.13106E+07         0.24194E+07         0.00000E+00
    0.00000E+00         0.00000E+00         0.52473E+06
 
    0.22254E+06         0.13497E+07         0.00000E+00
    0.13497E+07         0.24150E+07         0.00000E+00
    0.00000E+00         0.00000E+00         0.52750E+06
 
    0.24080E+06         0.13887E+07         0.00000E+00
    0.13887E+07         0.24104E+07         0.00000E+00
    0.00000E+00         0.00000E+00         0.53024E+06
 
    0.25911E+06         0.14274E+07         0.00000E+00
    0.14274E+07         0.24056E+07         0.00000E+00
    0.00000E+00         0.00000E+00         0.53294E+06
 
    0.27747E+06         0.14660E+07         0.00000E+00
    0.14660E+07         0.24006E+07         0.00000E+00
    0.00000E+00         0.00000E+00         0.53562E+06
 
    0.29588E+06         0.15043E+07         0.00000E+00
    0.15043E+07         0.23954E+07         0.00000E+00
    0.00000E+00         0.00000E+00         0.53827E+06
 
    0.31436E+06         0.15424E+07         0.00000E+00
    0.15424E+07         0.23901E+07         0.00000E+00
    0.00000E+00         0.00000E+00         0.54088E+06
 
    0.33290E+06         0.15803E+07         0.00000E+00
    0.15803E+07         0.23844E+07         0.00000E+00
    0.00000E+00         0.00000E+00         0.54347E+06
 
    0.35152E+06         0.16180E+07         0.00000E+00
    0.16180E+07         0.23786E+07         0.00000E+00
    0.00000E+00         0.00000E+00         0.54603E+06
 
    0.37023E+06         0.16555E+07         0.00000E+00
    0.16555E+07         0.23725E+07         0.00000E+00
    0.00000E+00         0.00000E+00         0.54856E+06
 
    0.38902E+06         0.16927E+07         0.00000E+00
    0.16927E+07         0.23663E+07         0.00000E+00
    0.00000E+00         0.00000E+00         0.55106E+06
 
    0.40792E+06         0.17298E+07         0.00000E+00
    0.17298E+07         0.23597E+07         0.00000E+00
    0.00000E+00         0.00000E+00         0.55353E+06
 
    0.42691E+06         0.17666E+07         0.00000E+00
    0.17666E+07         0.23530E+07         0.00000E+00
    0.00000E+00         0.00000E+00         0.55597E+06
 
    0.44602E+06         0.18032E+07         0.00000E+00
    0.18032E+07         0.23459E+07         0.00000E+00
    0.00000E+00         0.00000E+00         0.55839E+06
 
    0.46525E+06         0.18396E+07         0.00000E+00
    0.18396E+07         0.23387E+07         0.00000E+00
    0.00000E+00         0.00000E+00         0.56078E+06
 
    0.48460E+06         0.18758E+07         0.00000E+00
    0.18758E+07         0.23311E+07         0.00000E+00
    0.00000E+00         0.00000E+00         0.56314E+06
 
    0.50409E+06         0.19118E+07         0.00000E+00
    0.19118E+07         0.23233E+07         0.00000E+00
    0.00000E+00         0.00000E+00         0.56548E+06
 
    0.52373E+06         0.19475E+07         0.00000E+00
    0.19475E+07         0.23152E+07         0.00000E+00
    0.00000E+00         0.00000E+00         0.56779E+06
 
    0.54351E+06         0.19831E+07         0.00000E+00
    0.19831E+07         0.23069E+07         0.00000E+00
    0.00000E+00         0.00000E+00         0.57008E+06
 
    0.56345E+06         0.20184E+07         0.00000E+00
    0.20184E+07         0.22982E+07         0.00000E+00
    0.00000E+00         0.00000E+00         0.57234E+06
 
   -0.33867E+06         0.23497E+05         0.00000E+00
    0.23497E+05         0.22547E+07         0.00000E+00
    0.00000E+00         0.00000E+00         0.38320E+06
 
   -0.32142E+06         0.69745E+05         0.00000E+00
    0.69745E+05         0.22545E+07         0.00000E+00
    0.00000E+00         0.00000E+00         0.38662E+06
 
   -0.30417E+06         0.11568E+06         0.00000E+00
    0.11568E+06         0.22543E+07         0.00000E+00
    0.00000E+00         0.00000E+00         0.39002E+06
 
   -0.28695E+06         0.16131E+06         0.00000E+00
    0.16131E+06         0.22539E+07         0.00000E+00
    0.00000E+00         0.00000E+00         0.39339E+06
 
   -0.26974E+06         0.20663E+06         0.00000E+00
    0.20663E+06         0.22534E+07         0.00000E+00
    0.00000E+00         0.00000E+00         0.39673E+06
 
   -0.25255E+06         0.25165E+06         0.00000E+00
    0.25165E+06         0.22528E+07         0.00000E+00
    0.00000E+00         0.00000E+00         0.40004E+06
 
   -0.23538E+06         0.29637E+06         0.00000E+00
    0.29637E+06         0.22520E+07         0.00000E+00
    0.00000E+00         0.00000E+00         0.40333E+06
 
   -0.21824E+06         0.34080E+06         0.00000E+00
    0.34080E+06         0.22511E+07         0.00000E+00
    0.00000E+00         0.00000E+00         0.40658E+06
 
   -0.20112E+06         0.38494E+06         0.00000E+00
    0.38494E+06         0.22502E+07         0.00000E+00
    0.00000E+00         0.00000E+00         0.40981E+06
 
   -0.18401E+06         0.42879E+06         0.00000E+00
    0.42879E+06         0.22490E+07         0.00000E+00
    0.00000E+00         0.00000E+00         0.41301E+06
 
   -0.16694E+06         0.47236E+06         0.00000E+00
    0.47236E+06         0.22478E+07         0.00000E+00
    0.00000E+00         0.00000E+00         0.41618E+06
 
   -0.14988E+06         0.51565E+06         0.00000E+00
    0.51565E+06         0.22465E+07         0.00000E+00
    0.00000E+00         0.00000E+00         0.41932E+06
 
   -0.13285E+06         0.55867E+06         0.00000E+00
    0.55867E+06         0.22450E+07         0.00000E+00
    0.00000E+00         0.00000E+00         0.42243E+06
 
   -0.11583E+06         0.60141E+06         0.00000E+00
    0.60141E+06         0.22434E+07         0.00000E+00
    0.00000E+00         0.00000E+00         0.42551E+06
 
   -0.98841E+05         0.64388E+06         0.00000E+00
    0.64388E+06         0.22417E+07         0.00000E+00
    0.00000E+00         0.00000E+00         0.42856E+06
 
   -0.81866E+05         0.68609E+06         0.00000E+00
    0.68609E+06         0.22398E+07         0.00000E+00
    0.00000E+00         0.00000E+00         0.43159E+06
 
   -0.64907E+05         0.72803E+06         0.00000E+00
    0.72803E+06         0.22378E+07         0.00000E+00
    0.00000E+00         0.00000E+00         0.43458E+06
 
   -0.47963E+05         0.76972E+06         0.00000E+00
    0.76972E+06         0.22357E+07         0.00000E+00
    0.00000E+00         0.00000E+00         0.43755E+06
 
   -0.31032E+05         0.81114E+06         0.00000E+00
    0.81114E+06         0.22335E+07         0.00000E+00
    0.00000E+00         0.00000E+00         0.44049E+06
 
   -0.14110E+05         0.85231E+06         0.00000E+00
    0.85231E+06         0.22311E+07         0.00000E+00
    0.00000E+00         0.00000E+00         0.44339E+06
 
    0.28053E+04         0.89323E+06         0.00000E+00
    0.89323E+06         0.22286E+07         0.00000E+00
    0.00000E+00         0.00000E+00         0.44627E+06
 
    0.19716E+05         0.93389E+06         0.00000E+00
    0.93389E+06         0.22259E+07         0.00000E+00
    0.00000E+00         0.00000E+00         0.44912E+06
 
    0.36626E+05         0.97431E+06         0.00000E+00
    0.97431E+06         0.22231E+07         0.00000E+00
    0.00000E+00         0.00000E+00         0.45195E+06
 
    0.53538E+05         0.10145E+07         0.00000E+00
    0.10145E+07         0.22202E+07         0.00000E+00
    0.00000E+00         0.00000E+00         0.45474E+06
 
    0.70456E+05         0.10544E+07         0.00000E+00
    0.10544E+07         0.22171E+07         0.00000E+00
    0.00000E+00         0.00000E+00         0.45751E+06
 
    0.87384E+05         0.10941E+07         0.00000E+00
    0.10941E+07         0.22138E+07         0.00000E+00
    0.00000E+00         0.00000E+00         0.46024E+06
 
    0.10433E+06         0.11335E+07         0.00000E+00
    0.11335E+07         0.22104E+07         0.00000E+00
    0.00000E+00         0.00000E+00         0.46295E+06
 
    0.12129E+06         0.11728E+07         0.00000E+00
    0.11728E+07         0.22069E+07         0.00000E+00
    0.00000E+00         0.00000E+00         0.46563E+06
 
    0.13827E+06         0.12117E+07         0.00000E+00
    0.12117E+07         0.22032E+07         0.00000E+00
    0.00000E+00         0.00000E+00         0.46829E+06
 
    0.15528E+06         0.12505E+07         0.00000E+00
    0.12505E+07         0.21993E+07         0.00000E+00
    0.00000E+00         0.00000E+00         0.47091E+06
 
    0.17232E+06         0.12890E+07         0.00000E+00
    0.12890E+07         0.21952E+07         0.00000E+00
    0.00000E+00         0.00000E+00         0.47351E+06
 
    0.18940E+06         0.13272E+07         0.00000E+00
    0.13272E+07         0.21910E+07         0.00000E+00
    0.00000E+00         0.00000E+00         0.47608E+06
 
    0.20652E+06         0.13652E+07         0.00000E+00
    0.13652E+07         0.21866E+07         0.00000E+00
    0.00000E+00         0.00000E+00         0.47862E+06
 
    0.22369E+06         0.14030E+07         0.00000E+00
    0.14030E+07         0.21820E+07         0.00000E+00
    0.00000E+00         0.00000E+00         0.48114E+06
 
    0.24091E+06         0.14406E+07         0.00000E+00
    0.14406E+07         0.21772E+07         0.00000E+00
    0.00000E+00         0.00000E+00         0.48363E+06
 
    0.25819E+06         0.14779E+07         0.00000E+00
    0.14779E+07         0.21723E+07         0.00000E+00
    0.00000E+00         0.00000E+00         0.48609E+06
 
    0.27553E+06         0.15150E+07         0.00000E+00
    0.15150E+07         0.21671E+07         0.00000E+00
    0.00000E+00         0.00000E+00         0.48853E+06
 
    0.29294E+06         0.15519E+07         0.00000E+00
    0.15519E+07         0.21618E+07         0.00000E+00
    0.00000E+00         0.00000E+00         0.49094E+06
 
    0.31043E+06         0.15885E+07         0.00000E+00
    0.15885E+07         0.21562E+07         0.00000E+00
    0.00000E+00         0.00000E+00         0.49333E+06
 
    0.32800E+06         0.16249E+07         0.00000E+00
    0.16249E+07         0.21504E+07         0.00000E+00
    0.00000E+00         0.00000E+00         0.49569E+06
 
    0.34566E+06         0.16611E+07         0.00000E+00
    0.16611E+07         0.21445E+07         0.00000E+00
    0.00000E+00         0.00000E+00         0.49802E+06
 
    0.36341E+06         0.16970E+07         0.00000E+00
    0.16970E+07         0.21383E+07         0.00000E+00
    0.00000E+00         0.00000E+00         0.50033E+06
 
    0.38126E+06         0.17327E+07         0.00000E+00
    0.17327E+07         0.21318E+07         0.00000E+00
    0.00000E+00         0.00000E+00         0.50262E+06
 
    0.39922E+06         0.17681E+07         0.00000E+00
    0.17681E+07         0.21252E+07         0.00000E+00
    0.00000E+00         0.00000E+00         0.50488E+06
 
    0.41729E+06         0.18033E+07         0.00000E+00
    0.18033E+07         0.21183E+07         0.00000E+00
    0.00000E+00         0.00000E+00         0.50712E+06
 
    0.43549E+06         0.18383E+07         0.00000E+00
    0.18383E+07         0.21112E+07         0.00000E+00
    0.00000E+00         0.00000E+00         0.50933E+06
 
    0.45381E+06         0.18730E+07         0.00000E+00
    0.18730E+07         0.21038E+07         0.00000E+00
    0.00000E+00         0.00000E+00         0.51152E+06
 
    0.47227E+06         0.19075E+07         0.00000E+00
    0.19075E+07         0.20962E+07         0.00000E+00
    0.00000E+00         0.00000E+00         0.51369E+06
 
    0.49086E+06         0.19417E+07         0.00000E+00
    0.19417E+07         0.20883E+07         0.00000E+00
    0.00000E+00         0.00000E+00         0.51584E+06
 
    0.50961E+06         0.19757E+07         0.00000E+00
    0.19757E+07         0.20802E+07         0.00000E+00
    0.00000E+00         0.00000E+00         0.51796E+06
 
   -0.32473E+06         0.23172E+05         0.00000E+00
    0.23172E+05         0.20382E+07         0.00000E+00
    0.00000E+00         0.00000E+00         0.34269E+06
 
   -0.30903E+06         0.68787E+05         0.00000E+00
    0.68787E+05         0.20380E+07         0.00000E+00
    0.00000E+00         0.00000E+00         0.34580E+06
 
   -0.29333E+06         0.11410E+06         0.00000E+00
    0.11410E+06         0.20378E+07         0.00000E+00
    0.00000E+00         0.00000E+00         0.34889E+06
 
   -0.27764E+06         0.15910E+06         0.00000E+00
    0.15910E+06         0.20374E+07         0.00000E+00
    0.00000E+00         0.00000E+00         0.35196E+06
 
   -0.26194E+06         0.20380E+06         0.00000E+00
    0.20380E+06         0.20369E+07         0.00000E+00
    0.00000E+00         0.00000E+00         0.35500E+06
 
   -0.24625E+06         0.24821E+06         0.00000E+00
    0.24821E+06         0.20363E+07         0.00000E+00
    0.00000E+00         0.00000E+00         0.35801E+06
 
   -0.23057E+06         0.29232E+06         0.00000E+00
    0.29232E+06         0.20356E+07         0.00000E+00
    0.00000E+00         0.00000E+00         0.36100E+06
 
   -0.21489E+06         0.33613E+06         0.00000E+00
    0.33613E+06         0.20347E+07         0.00000E+00
    0.00000E+00         0.00000E+00         0.36397E+06
 
   -0.19922E+06         0.37966E+06         0.00000E+00
    0.37966E+06         0.20338E+07         0.00000E+00
    0.00000E+00         0.00000E+00         0.36691E+06
 
   -0.18356E+06         0.42290E+06         0.00000E+00
    0.42290E+06         0.20327E+07         0.00000E+00
    0.00000E+00         0.00000E+00         0.36983E+06
 
   -0.16791E+06         0.46585E+06         0.00000E+00
    0.46585E+06         0.20315E+07         0.00000E+00
    0.00000E+00         0.00000E+00         0.37272E+06
 
   -0.15226E+06         0.50852E+06         0.00000E+00
    0.50852E+06         0.20302E+07         0.00000E+00
    0.00000E+00         0.00000E+00         0.37559E+06
 
   -0.13663E+06         0.55091E+06         0.00000E+00
    0.55091E+06         0.20288E+07         0.00000E+00
    0.00000E+00         0.00000E+00         0.37843E+06
 
   -0.12100E+06         0.59303E+06         0.00000E+00
    0.59303E+06         0.20272E+07         0.00000E+00
    0.00000E+00         0.00000E+00         0.38124E+06
 
   -0.10538E+06         0.63487E+06         0.00000E+00
    0.63487E+06         0.20255E+07         0.00000E+00
    0.00000E+00         0.00000E+00         0.38403E+06
 
   -0.89762E+05         0.67643E+06         0.00000E+00
    0.67643E+06         0.20237E+07         0.00000E+00
    0.00000E+00         0.00000E+00         0.38680E+06
 
   -0.74152E+05         0.71773E+06         0.00000E+00
    0.71773E+06         0.20218E+07         0.00000E+00
    0.00000E+00         0.00000E+00         0.38954E+06
 
   -0.58544E+05         0.75875E+06         0.00000E+00
    0.75875E+06         0.20198E+07         0.00000E+00
    0.00000E+00         0.00000E+00         0.39225E+06
 
   -0.42938E+05         0.79951E+06         0.00000E+00
    0.79951E+06         0.20176E+07         0.00000E+00
    0.00000E+00         0.00000E+00         0.39494E+06
 
   -0.27332E+05         0.84000E+06         0.00000E+00
    0.84000E+06         0.20153E+07         0.00000E+00
    0.00000E+00         0.00000E+00         0.39760E+06
 
   -0.11722E+05         0.88024E+06         0.00000E+00
    0.88024E+06         0.20129E+07         0.00000E+00
    0.00000E+00         0.00000E+00         0.40024E+06
 
    0.38922E+04         0.92020E+06         0.00000E+00
    0.92020E+06         0.20104E+07         0.00000E+00
    0.00000E+00         0.00000E+00         0.40286E+06
 
    0.19514E+05         0.95991E+06         0.00000E+00
    0.95991E+06         0.20077E+07         0.00000E+00
    0.00000E+00         0.00000E+00         0.40544E+06
 
    0.35147E+05         0.99936E+06         0.00000E+00
    0.99936E+06         0.20049E+07         0.00000E+00
    0.00000E+00         0.00000E+00         0.40801E+06
 
    0.50794E+05         0.10386E+07         0.00000E+00
    0.10386E+07         0.20019E+07         0.00000E+00
    0.00000E+00         0.00000E+00         0.41055E+06
 
    0.66457E+05         0.10775E+07         0.00000E+00
    0.10775E+07         0.19988E+07         0.00000E+00
    0.00000E+00         0.00000E+00         0.41306E+06
 
    0.82141E+05         0.11162E+07         0.00000E+00
    0.11162E+07         0.19956E+07         0.00000E+00
    0.00000E+00         0.00000E+00         0.41555E+06
 
    0.97849E+05         0.11546E+07         0.00000E+00
    0.11546E+07         0.19922E+07         0.00000E+00
    0.00000E+00         0.00000E+00         0.41801E+06
 
    0.11358E+06         0.11928E+07         0.00000E+00
    0.11928E+07         0.19887E+07         0.00000E+00
    0.00000E+00         0.00000E+00         0.42045E+06
 
    0.12935E+06         0.12307E+07         0.00000E+00
    0.12307E+07         0.19850E+07         0.00000E+00
    0.00000E+00         0.00000E+00         0.42287E+06
 
    0.14515E+06         0.12684E+07         0.00000E+00
    0.12684E+07         0.19811E+07         0.00000E+00
    0.00000E+00         0.00000E+00         0.42526E+06
 
    0.16099E+06         0.13058E+07         0.00000E+00
    0.13058E+07         0.19771E+07         0.00000E+00
    0.00000E+00         0.00000E+00         0.42763E+06
 
    0.17688E+06         0.13430E+07         0.00000E+00
    0.13430E+07         0.19730E+07         0.00000E+00
    0.00000E+00         0.00000E+00         0.42997E+06
 
    0.19282E+06         0.13799E+07         0.00000E+00
    0.13799E+07         0.19686E+07         0.00000E+00
    0.00000E+00         0.00000E+00         0.43229E+06
 
    0.20881E+06         0.14165E+07         0.00000E+00
    0.14165E+07         0.19641E+07         0.00000E+00
    0.00000E+00         0.00000E+00         0.43459E+06
 
    0.22485E+06         0.14529E+07         0.00000E+00
    0.14529E+07         0.19594E+07         0.00000E+00
    0.00000E+00         0.00000E+00         0.43686E+06
 
    0.24096E+06         0.14891E+07         0.00000E+00
    0.14891E+07         0.19546E+07         0.00000E+00
    0.00000E+00         0.00000E+00         0.43911E+06
 
    0.25714E+06         0.15250E+07         0.00000E+00
    0.15250E+07         0.19495E+07         0.00000E+00
    0.00000E+00         0.00000E+00         0.44134E+06
 
    0.27339E+06         0.15607E+07         0.00000E+00
    0.15607E+07         0.19443E+07         0.00000E+00
    0.00000E+00         0.00000E+00         0.44354E+06
 
    0.28972E+06         0.15961E+07         0.00000E+00
    0.15961E+07         0.19389E+07         0.00000E+00
    0.00000E+00         0.00000E+00         0.44572E+06
 
    0.30614E+06         0.16312E+07         0.00000E+00
    0.16312E+07         0.19333E+07         0.00000E+00
    0.00000E+00         0.00000E+00         0.44788E+06
 
    0.32264E+06         0.16661E+07         0.00000E+00
    0.16661E+07         0.19275E+07         0.00000E+00
    0.00000E+00         0.00000E+00         0.45002E+06
 
    0.33924E+06         0.17007E+07         0.00000E+00
    0.17007E+07         0.19214E+07         0.00000E+00
    0.00000E+00         0.00000E+00         0.45214E+06
 
    0.35595E+06         0.17351E+07         0.00000E+00
    0.17351E+07         0.19152E+07         0.00000E+00
    0.00000E+00         0.00000E+00         0.45423E+06
 
    0.37275E+06         0.17692E+07         0.00000E+00
    0.17692E+07         0.19088E+07         0.00000E+00
    0.00000E+00         0.00000E+00         0.45631E+06
 
    0.38967E+06         0.18031E+07         0.00000E+00
    0.18031E+07         0.19021E+07         0.00000E+00
    0.00000E+00         0.00000E+00         0.45836E+06
 
    0.40671E+06         0.18366E+07         0.00000E+00
    0.18366E+07         0.18953E+07         0.00000E+00
    0.00000E+00         0.00000E+00         0.46039E+06
 
    0.42388E+06         0.18700E+07         0.00000E+00
    0.18700E+07         0.18882E+07         0.00000E+00
    0.00000E+00         0.00000E+00         0.46241E+06
 
    0.44117E+06         0.19030E+07         0.00000E+00
    0.19030E+07         0.18808E+07         0.00000E+00
    0.00000E+00         0.00000E+00         0.46440E+06
 
    0.45860E+06         0.19358E+07         0.00000E+00
    0.19358E+07         0.18733E+07         0.00000E+00
    0.00000E+00         0.00000E+00         0.46637E+06
 
   -0.30571E+06         0.22861E+05         0.00000E+00
    0.22861E+05         0.18299E+07         0.00000E+00
    0.00000E+00         0.00000E+00         0.30483E+06
 
   -0.29154E+06         0.67872E+05         0.00000E+00
    0.67872E+05         0.18297E+07         0.00000E+00
    0.00000E+00         0.00000E+00         0.30764E+06
 
   -0.27736E+06         0.11258E+06         0.00000E+00
    0.11258E+06         0.18295E+07         0.00000E+00
    0.00000E+00         0.00000E+00         0.31043E+06
 
   -0.26316E+06         0.15699E+06         0.00000E+00
    0.15699E+06         0.18291E+07         0.00000E+00
    0.00000E+00         0.00000E+00         0.31320E+06
 
   -0.24896E+06         0.20111E+06         0.00000E+00
    0.20111E+06         0.18287E+07         0.00000E+00
    0.00000E+00         0.00000E+00         0.31594E+06
 
   -0.23476E+06         0.24493E+06         0.00000E+00
    0.24493E+06         0.18281E+07         0.00000E+00
    0.00000E+00         0.00000E+00         0.31867E+06
 
   -0.22054E+06         0.28845E+06         0.00000E+00
    0.28845E+06         0.18274E+07         0.00000E+00
    0.00000E+00         0.00000E+00         0.32137E+06
 
   -0.20633E+06         0.33169E+06         0.00000E+00
    0.33169E+06         0.18266E+07         0.00000E+00
    0.00000E+00         0.00000E+00         0.32405E+06
 
   -0.19211E+06         0.37463E+06         0.00000E+00
    0.37463E+06         0.18257E+07         0.00000E+00
    0.00000E+00         0.00000E+00         0.32671E+06
 
   -0.17789E+06         0.41729E+06         0.00000E+00
    0.41729E+06         0.18247E+07         0.00000E+00
    0.00000E+00         0.00000E+00         0.32935E+06
 
   -0.16367E+06         0.45966E+06         0.00000E+00
    0.45966E+06         0.18235E+07         0.00000E+00
    0.00000E+00         0.00000E+00         0.33197E+06
 
   -0.14945E+06         0.50174E+06         0.00000E+00
    0.50174E+06         0.18223E+07         0.00000E+00
    0.00000E+00         0.00000E+00         0.33456E+06
 
   -0.13523E+06         0.54354E+06         0.00000E+00
    0.54354E+06         0.18209E+07         0.00000E+00
    0.00000E+00         0.00000E+00         0.33714E+06
 
   -0.12101E+06         0.58507E+06         0.00000E+00
    0.58507E+06         0.18194E+07         0.00000E+00
    0.00000E+00         0.00000E+00         0.33969E+06
 
   -0.10678E+06         0.62631E+06         0.00000E+00
    0.62631E+06         0.18179E+07         0.00000E+00
    0.00000E+00         0.00000E+00         0.34222E+06
 
   -0.92552E+05         0.66727E+06         0.00000E+00
    0.66727E+06         0.18162E+07         0.00000E+00
    0.00000E+00         0.00000E+00         0.34472E+06
 
   -0.78320E+05         0.70796E+06         0.00000E+00
    0.70796E+06         0.18144E+07         0.00000E+00
    0.00000E+00         0.00000E+00         0.34721E+06
 
   -0.64084E+05         0.74837E+06         0.00000E+00
    0.74837E+06         0.18124E+07         0.00000E+00
    0.00000E+00         0.00000E+00         0.34967E+06
 
   -0.49842E+05         0.78850E+06         0.00000E+00
    0.78850E+06         0.18104E+07         0.00000E+00
    0.00000E+00         0.00000E+00         0.35211E+06
 
   -0.35593E+05         0.82837E+06         0.00000E+00
    0.82837E+06         0.18082E+07         0.00000E+00
    0.00000E+00         0.00000E+00         0.35453E+06
 
   -0.21334E+05         0.86796E+06         0.00000E+00
    0.86796E+06         0.18060E+07         0.00000E+00
    0.00000E+00         0.00000E+00         0.35692E+06
 
   -0.70640E+04         0.90728E+06         0.00000E+00
    0.90728E+06         0.18036E+07         0.00000E+00
    0.00000E+00         0.00000E+00         0.35930E+06
 
    0.72194E+04         0.94633E+06         0.00000E+00
    0.94633E+06         0.18010E+07         0.00000E+00
    0.00000E+00         0.00000E+00         0.36165E+06
 
    0.21519E+05         0.98511E+06         0.00000E+00
    0.98511E+06         0.17984E+07         0.00000E+00
    0.00000E+00         0.00000E+00         0.36398E+06
 
    0.35836E+05         0.10236E+07         0.00000E+00
    0.10236E+07         0.17956E+07         0.00000E+00
    0.00000E+00         0.00000E+00         0.36629E+06
 
    0.50174E+05         0.10619E+07         0.00000E+00
    0.10619E+07         0.17927E+07         0.00000E+00
    0.00000E+00         0.00000E+00         0.36858E+06
 
    0.64537E+05         0.10998E+07         0.00000E+00
    0.10998E+07         0.17897E+07         0.00000E+00
    0.00000E+00         0.00000E+00         0.37084E+06
 
    0.78926E+05         0.11376E+07         0.00000E+00
    0.11376E+07         0.17865E+07         0.00000E+00
    0.00000E+00         0.00000E+00         0.37309E+06
 
    0.93345E+05         0.11750E+07         0.00000E+00
    0.11750E+07         0.17832E+07         0.00000E+00
    0.00000E+00         0.00000E+00         0.37531E+06
 
    0.10780E+06         0.12122E+07         0.00000E+00
    0.12122E+07         0.17798E+07         0.00000E+00
    0.00000E+00         0.00000E+00         0.37751E+06
 
    0.12229E+06         0.12491E+07         0.00000E+00
    0.12491E+07         0.17762E+07         0.00000E+00
    0.00000E+00         0.00000E+00         0.37969E+06
 
    0.13682E+06         0.12857E+07         0.00000E+00
    0.12857E+07         0.17724E+07         0.00000E+00
    0.00000E+00         0.00000E+00         0.38185E+06
 
    0.15139E+06         0.13221E+07         0.00000E+00
    0.13221E+07         0.17685E+07         0.00000E+00
    0.00000E+00         0.00000E+00         0.38399E+06
 
    0.16601E+06         0.13582E+07         0.00000E+00
    0.13582E+07         0.17645E+07         0.00000E+00
    0.00000E+00         0.00000E+00         0.38610E+06
 
    0.18069E+06         0.13940E+07         0.00000E+00
    0.13940E+07         0.17603E+07         0.00000E+00
    0.00000E+00         0.00000E+00         0.38820E+06
 
    0.19542E+06         0.14296E+07         0.00000E+00
    0.14296E+07         0.17560E+07         0.00000E+00
    0.00000E+00         0.00000E+00         0.39028E+06
 
    0.21021E+06         0.14649E+07         0.00000E+00
    0.14649E+07         0.17515E+07         0.00000E+00
    0.00000E+00         0.00000E+00         0.39233E+06
 
    0.22507E+06         0.15000E+07         0.00000E+00
    0.15000E+07         0.17468E+07         0.00000E+00
    0.00000E+00         0.00000E+00         0.39437E+06
 
    0.24000E+06         0.15347E+07         0.00000E+00
    0.15347E+07         0.17419E+07         0.00000E+00
    0.00000E+00         0.00000E+00         0.39638E+06
 
    0.25500E+06         0.15692E+07         0.00000E+00
    0.15692E+07         0.17369E+07         0.00000E+00
    0.00000E+00         0.00000E+00         0.39838E+06
 
    0.27008E+06         0.16034E+07         0.00000E+00
    0.16034E+07         0.17317E+07         0.00000E+00
    0.00000E+00         0.00000E+00         0.40036E+06
 
    0.28524E+06         0.16374E+07         0.00000E+00
    0.16374E+07         0.17263E+07         0.00000E+00
    0.00000E+00         0.00000E+00         0.40232E+06
 
    0.30049E+06         0.16711E+07         0.00000E+00
    0.16711E+07         0.17208E+07         0.00000E+00
    0.00000E+00         0.00000E+00         0.40425E+06
 
    0.31584E+06         0.17044E+07         0.00000E+00
    0.17044E+07         0.17150E+07         0.00000E+00
    0.00000E+00         0.00000E+00         0.40617E+06
 
    0.33129E+06         0.17376E+07         0.00000E+00
    0.17376E+07         0.17091E+07         0.00000E+00
    0.00000E+00         0.00000E+00         0.40808E+06
 
    0.34683E+06         0.17704E+07         0.00000E+00
    0.17704E+07         0.17030E+07         0.00000E+00
    0.00000E+00         0.00000E+00         0.40996E+06
 
    0.36249E+06         0.18029E+07         0.00000E+00
    0.18029E+07         0.16966E+07         0.00000E+00
    0.00000E+00         0.00000E+00         0.41182E+06
 
    0.37827E+06         0.18352E+07         0.00000E+00
    0.18352E+07         0.16901E+07         0.00000E+00
    0.00000E+00         0.00000E+00         0.41367E+06
 
    0.39416E+06         0.18672E+07         0.00000E+00
    0.18672E+07         0.16833E+07         0.00000E+00
    0.00000E+00         0.00000E+00         0.41550E+06
 
    0.41017E+06         0.18989E+07         0.00000E+00
    0.18989E+07         0.16764E+07         0.00000E+00
    0.00000E+00         0.00000E+00         0.41731E+06
 
   -0.28225E+06         0.22569E+05         0.00000E+00
    0.22569E+05         0.16289E+07         0.00000E+00
    0.00000E+00         0.00000E+00         0.26933E+06
 
   -0.26958E+06         0.67014E+05         0.00000E+00
    0.67014E+05         0.16288E+07         0.00000E+00
    0.00000E+00         0.00000E+00         0.27185E+06
 
   -0.25688E+06         0.11116E+06         0.00000E+00
    0.11116E+06         0.16286E+07         0.00000E+00
    0.00000E+00         0.00000E+00         0.27434E+06
 
   -0.24417E+06         0.15502E+06         0.00000E+00
    0.15502E+06         0.16283E+07         0.00000E+00
    0.00000E+00         0.00000E+00         0.27682E+06
 
   -0.23144E+06         0.19858E+06         0.00000E+00
    0.19858E+06         0.16278E+07         0.00000E+00
    0.00000E+00         0.00000E+00         0.27928E+06
 
   -0.21870E+06         0.24186E+06         0.00000E+00
    0.24186E+06         0.16273E+07         0.00000E+00
    0.00000E+00         0.00000E+00         0.28172E+06
 
   -0.20595E+06         0.28484E+06         0.00000E+00
    0.28484E+06         0.16266E+07         0.00000E+00
    0.00000E+00         0.00000E+00         0.28414E+06
 
   -0.19319E+06         0.32753E+06         0.00000E+00
    0.32753E+06         0.16259E+07         0.00000E+00
    0.00000E+00         0.00000E+00         0.28654E+06
 
   -0.18042E+06         0.36993E+06         0.00000E+00
    0.36993E+06         0.16250E+07         0.00000E+00
    0.00000E+00         0.00000E+00         0.28892E+06
 
   -0.16765E+06         0.41205E+06         0.00000E+00
    0.41205E+06         0.16241E+07         0.00000E+00
    0.00000E+00         0.00000E+00         0.29129E+06
 
   -0.15486E+06         0.45387E+06         0.00000E+00
    0.45387E+06         0.16230E+07         0.00000E+00
    0.00000E+00         0.00000E+00         0.29363E+06
 
   -0.14207E+06         0.49542E+06         0.00000E+00
    0.49542E+06         0.16219E+07         0.00000E+00
    0.00000E+00         0.00000E+00         0.29596E+06
 
   -0.12927E+06         0.53667E+06         0.00000E+00
    0.53667E+06         0.16206E+07         0.00000E+00
    0.00000E+00         0.00000E+00         0.29827E+06
 
   -0.11647E+06         0.57765E+06         0.00000E+00
    0.57765E+06         0.16192E+07         0.00000E+00
    0.00000E+00         0.00000E+00         0.30056E+06
 
   -0.10366E+06         0.61833E+06         0.00000E+00
    0.61833E+06         0.16178E+07         0.00000E+00
    0.00000E+00         0.00000E+00         0.30283E+06
 
   -0.90837E+05         0.65874E+06         0.00000E+00
    0.65874E+06         0.16162E+07         0.00000E+00
    0.00000E+00         0.00000E+00         0.30507E+06
 
   -0.78010E+05         0.69887E+06         0.00000E+00
    0.69887E+06         0.16145E+07         0.00000E+00
    0.00000E+00         0.00000E+00         0.30731E+06
 
   -0.65173E+05         0.73871E+06         0.00000E+00
    0.73871E+06         0.16128E+07         0.00000E+00
    0.00000E+00         0.00000E+00         0.30952E+06
 
   -0.52327E+05         0.77827E+06         0.00000E+00
    0.77827E+06         0.16109E+07         0.00000E+00
    0.00000E+00         0.00000E+00         0.31171E+06
 
   -0.39469E+05         0.81756E+06         0.00000E+00
    0.81756E+06         0.16089E+07         0.00000E+00
    0.00000E+00         0.00000E+00         0.31388E+06
 
   -0.26598E+05         0.85656E+06         0.00000E+00
    0.85656E+06         0.16068E+07         0.00000E+00
    0.00000E+00         0.00000E+00         0.31604E+06
 
   -0.13713E+05         0.89528E+06         0.00000E+00
    0.89528E+06         0.16046E+07         0.00000E+00
    0.00000E+00         0.00000E+00         0.31817E+06
 
   -0.81219E+03         0.93373E+06         0.00000E+00
    0.93373E+06         0.16022E+07         0.00000E+00
    0.00000E+00         0.00000E+00         0.32029E+06
 
    0.12107E+05         0.97190E+06         0.00000E+00
    0.97190E+06         0.15998E+07         0.00000E+00
    0.00000E+00         0.00000E+00         0.32238E+06
 
    0.25046E+05         0.10098E+07         0.00000E+00
    0.10098E+07         0.15972E+07         0.00000E+00
    0.00000E+00         0.00000E+00         0.32446E+06
 
    0.38008E+05         0.10474E+07         0.00000E+00
    0.10474E+07         0.15946E+07         0.00000E+00
    0.00000E+00         0.00000E+00         0.32652E+06
 
    0.50994E+05         0.10847E+07         0.00000E+00
    0.10847E+07         0.15918E+07         0.00000E+00
    0.00000E+00         0.00000E+00         0.32856E+06
 
    0.64008E+05         0.11218E+07         0.00000E+00
    0.11218E+07         0.15889E+07         0.00000E+00
    0.00000E+00         0.00000E+00         0.33058E+06
 
    0.77053E+05         0.11586E+07         0.00000E+00
    0.11586E+07         0.15858E+07         0.00000E+00
    0.00000E+00         0.00000E+00         0.33258E+06
 
    0.90130E+05         0.11951E+07         0.00000E+00
    0.11951E+07         0.15827E+07         0.00000E+00
    0.00000E+00         0.00000E+00         0.33456E+06
 
    0.10324E+06         0.12313E+07         0.00000E+00
    0.12313E+07         0.15794E+07         0.00000E+00
    0.00000E+00         0.00000E+00         0.33653E+06
 
    0.11640E+06         0.12672E+07         0.00000E+00
    0.12672E+07         0.15760E+07         0.00000E+00
    0.00000E+00         0.00000E+00         0.33847E+06
 
    0.12959E+06         0.13029E+07         0.00000E+00
    0.13029E+07         0.15724E+07         0.00000E+00
    0.00000E+00         0.00000E+00         0.34040E+06
 
    0.14283E+06         0.13383E+07         0.00000E+00
    0.13383E+07         0.15687E+07         0.00000E+00
    0.00000E+00         0.00000E+00         0.34231E+06
 
    0.15612E+06         0.13734E+07         0.00000E+00
    0.13734E+07         0.15649E+07         0.00000E+00
    0.00000E+00         0.00000E+00         0.34420E+06
 
    0.16946E+06         0.14082E+07         0.00000E+00
    0.14082E+07         0.15609E+07         0.00000E+00
    0.00000E+00         0.00000E+00         0.34607E+06
 
    0.18286E+06         0.14427E+07         0.00000E+00
    0.14427E+07         0.15568E+07         0.00000E+00
    0.00000E+00         0.00000E+00         0.34793E+06
 
    0.19632E+06         0.14770E+07         0.00000E+00
    0.14770E+07         0.15525E+07         0.00000E+00
    0.00000E+00         0.00000E+00         0.34977E+06
 
    0.20984E+06         0.15109E+07         0.00000E+00
    0.15109E+07         0.15481E+07         0.00000E+00
    0.00000E+00         0.00000E+00         0.35159E+06
 
    0.22344E+06         0.15446E+07         0.00000E+00
    0.15446E+07         0.15435E+07         0.00000E+00
    0.00000E+00         0.00000E+00         0.35339E+06
 
    0.23710E+06         0.15780E+07         0.00000E+00
    0.15780E+07         0.15388E+07         0.00000E+00
    0.00000E+00         0.00000E+00         0.35518E+06
 
    0.25084E+06         0.16111E+07         0.00000E+00
    0.16111E+07         0.15339E+07         0.00000E+00
    0.00000E+00         0.00000E+00         0.35695E+06
 
    0.26466E+06         0.16439E+07         0.00000E+00
    0.16439E+07         0.15288E+07         0.00000E+00
    0.00000E+00         0.00000E+00         0.35870E+06
 
    0.27857E+06         0.16764E+07         0.00000E+00
    0.16764E+07         0.15236E+07         0.00000E+00
    0.00000E+00         0.00000E+00         0.36044E+06
 
    0.29257E+06         0.17086E+07         0.00000E+00
    0.17086E+07         0.15182E+07         0.00000E+00
    0.00000E+00         0.00000E+00         0.36216E+06
 
    0.30666E+06         0.17405E+07         0.00000E+00
    0.17405E+07         0.15126E+07         0.00000E+00
    0.00000E+00         0.00000E+00         0.36386E+06
 
    0.32085E+06         0.17721E+07         0.00000E+00
    0.17721E+07         0.15069E+07         0.00000E+00
    0.00000E+00         0.00000E+00         0.36555E+06
 
    0.33514E+06         0.18035E+07         0.00000E+00
    0.18035E+07         0.15010E+07         0.00000E+00
    0.00000E+00         0.00000E+00         0.36722E+06
 
    0.34954E+06         0.18345E+07         0.00000E+00
    0.18345E+07         0.14948E+07         0.00000E+00
    0.00000E+00         0.00000E+00         0.36888E+06
 
    0.36405E+06         0.18652E+07         0.00000E+00
    0.18652E+07         0.14885E+07         0.00000E+00
    0.00000E+00         0.00000E+00         0.37052E+06
 
   -0.25495E+06         0.22302E+05         0.00000E+00
    0.22302E+05         0.14346E+07         0.00000E+00
    0.00000E+00         0.00000E+00         0.23593E+06
 
   -0.24373E+06         0.66228E+05         0.00000E+00
    0.66228E+05         0.14345E+07         0.00000E+00
    0.00000E+00         0.00000E+00         0.23815E+06
 
   -0.23249E+06         0.10986E+06         0.00000E+00
    0.10986E+06         0.14343E+07         0.00000E+00
    0.00000E+00         0.00000E+00         0.24036E+06
 
   -0.22123E+06         0.15321E+06         0.00000E+00
    0.15321E+06         0.14340E+07         0.00000E+00
    0.00000E+00         0.00000E+00         0.24255E+06
 
   -0.20996E+06         0.19627E+06         0.00000E+00
    0.19627E+06         0.14336E+07         0.00000E+00
    0.00000E+00         0.00000E+00         0.24473E+06
 
   -0.19867E+06         0.23905E+06         0.00000E+00
    0.23905E+06         0.14331E+07         0.00000E+00
    0.00000E+00         0.00000E+00         0.24689E+06
 
   -0.18737E+06         0.28153E+06         0.00000E+00
    0.28153E+06         0.14325E+07         0.00000E+00
    0.00000E+00         0.00000E+00         0.24903E+06
 
   -0.17605E+06         0.32373E+06         0.00000E+00
    0.32373E+06         0.14318E+07         0.00000E+00
    0.00000E+00         0.00000E+00         0.25116E+06
 
   -0.16473E+06         0.36563E+06         0.00000E+00
    0.36563E+06         0.14311E+07         0.00000E+00
    0.00000E+00         0.00000E+00         0.25327E+06
 
   -0.15339E+06         0.40726E+06         0.00000E+00
    0.40726E+06         0.14302E+07         0.00000E+00
    0.00000E+00         0.00000E+00         0.25536E+06
 
   -0.14204E+06         0.44859E+06         0.00000E+00
    0.44859E+06         0.14292E+07         0.00000E+00
    0.00000E+00         0.00000E+00         0.25744E+06
 
   -0.13068E+06         0.48964E+06         0.00000E+00
    0.48964E+06         0.14282E+07         0.00000E+00
    0.00000E+00         0.00000E+00         0.25950E+06
 
   -0.11932E+06         0.53040E+06         0.00000E+00
    0.53040E+06         0.14270E+07         0.00000E+00
    0.00000E+00         0.00000E+00         0.26155E+06
 
   -0.10794E+06         0.57087E+06         0.00000E+00
    0.57087E+06         0.14258E+07         0.00000E+00
    0.00000E+00         0.00000E+00         0.26357E+06
 
   -0.96558E+05         0.61106E+06         0.00000E+00
    0.61106E+06         0.14245E+07         0.00000E+00
    0.00000E+00         0.00000E+00         0.26559E+06
 
   -0.85164E+05         0.65097E+06         0.00000E+00
    0.65097E+06         0.14231E+07         0.00000E+00
    0.00000E+00         0.00000E+00         0.26758E+06
 
   -0.73761E+05         0.69058E+06         0.00000E+00
    0.69058E+06         0.14216E+07         0.00000E+00
    0.00000E+00         0.00000E+00         0.26956E+06
 
   -0.62347E+05         0.72991E+06         0.00000E+00
    0.72991E+06         0.14199E+07         0.00000E+00
    0.00000E+00         0.00000E+00         0.27152E+06
 
   -0.50922E+05         0.76896E+06         0.00000E+00
    0.76896E+06         0.14182E+07         0.00000E+00
    0.00000E+00         0.00000E+00         0.27346E+06
 
   -0.39484E+05         0.80772E+06         0.00000E+00
    0.80772E+06         0.14164E+07         0.00000E+00
    0.00000E+00         0.00000E+00         0.27539E+06
 
   -0.28033E+05         0.84619E+06         0.00000E+00
    0.84619E+06         0.14146E+07         0.00000E+00
    0.00000E+00         0.00000E+00         0.27730E+06
 
   -0.16568E+05         0.88438E+06         0.00000E+00
    0.88438E+06         0.14126E+07         0.00000E+00
    0.00000E+00         0.00000E+00         0.27920E+06
 
   -0.50857E+04         0.92228E+06         0.00000E+00
    0.92228E+06         0.14105E+07         0.00000E+00
    0.00000E+00         0.00000E+00         0.28108E+06
 
    0.64141E+04         0.95990E+06         0.00000E+00
    0.95990E+06         0.14083E+07         0.00000E+00
    0.00000E+00         0.00000E+00         0.28294E+06
 
    0.17933E+05         0.99723E+06         0.00000E+00
    0.99723E+06         0.14060E+07         0.00000E+00
    0.00000E+00         0.00000E+00         0.28478E+06
 
    0.29474E+05         0.10343E+07         0.00000E+00
    0.10343E+07         0.14036E+07         0.00000E+00
    0.00000E+00         0.00000E+00         0.28661E+06
 
    0.41039E+05         0.10710E+07         0.00000E+00
    0.10710E+07         0.14011E+07         0.00000E+00
    0.00000E+00         0.00000E+00         0.28842E+06
 
    0.52629E+05         0.11075E+07         0.00000E+00
    0.11075E+07         0.13984E+07         0.00000E+00
    0.00000E+00         0.00000E+00         0.29022E+06
 
    0.64247E+05         0.11437E+07         0.00000E+00
    0.11437E+07         0.13957E+07         0.00000E+00
    0.00000E+00         0.00000E+00         0.29199E+06
 
    0.75896E+05         0.11796E+07         0.00000E+00
    0.11796E+07         0.13929E+07         0.00000E+00
    0.00000E+00         0.00000E+00         0.29376E+06
 
    0.87578E+05         0.12152E+07         0.00000E+00
    0.12152E+07         0.13899E+07         0.00000E+00
    0.00000E+00         0.00000E+00         0.29550E+06
 
    0.99296E+05         0.12505E+07         0.00000E+00
    0.12505E+07         0.13869E+07         0.00000E+00
    0.00000E+00         0.00000E+00         0.29723E+06
 
    0.11105E+06         0.12855E+07         0.00000E+00
    0.12855E+07         0.13837E+07         0.00000E+00
    0.00000E+00         0.00000E+00         0.29894E+06
 
    0.12285E+06         0.13202E+07         0.00000E+00
    0.13202E+07         0.13804E+07         0.00000E+00
    0.00000E+00         0.00000E+00         0.30064E+06
 
    0.13469E+06         0.13546E+07         0.00000E+00
    0.13546E+07         0.13769E+07         0.00000E+00
    0.00000E+00         0.00000E+00         0.30232E+06
 
    0.14658E+06         0.13888E+07         0.00000E+00
    0.13888E+07         0.13734E+07         0.00000E+00
    0.00000E+00         0.00000E+00         0.30399E+06
 
    0.15852E+06         0.14226E+07         0.00000E+00
    0.14226E+07         0.13697E+07         0.00000E+00
    0.00000E+00         0.00000E+00         0.30564E+06
 
    0.17052E+06         0.14562E+07         0.00000E+00
    0.14562E+07         0.13659E+07         0.00000E+00
    0.00000E+00         0.00000E+00         0.30728E+06
 
    0.18257E+06         0.14894E+07         0.00000E+00
    0.14894E+07         0.13619E+07         0.00000E+00
    0.00000E+00         0.00000E+00         0.30890E+06
 
    0.19468E+06         0.15224E+07         0.00000E+00
    0.15224E+07         0.13578E+07         0.00000E+00
    0.00000E+00         0.00000E+00         0.31050E+06
 
    0.20686E+06         0.15550E+07         0.00000E+00
    0.15550E+07         0.13536E+07         0.00000E+00
    0.00000E+00         0.00000E+00         0.31209E+06
 
    0.21911E+06         0.15873E+07         0.00000E+00
    0.15873E+07         0.13492E+07         0.00000E+00
    0.00000E+00         0.00000E+00         0.31367E+06
 
    0.23142E+06         0.16194E+07         0.00000E+00
    0.16194E+07         0.13447E+07         0.00000E+00
    0.00000E+00         0.00000E+00         0.31523E+06
 
    0.24382E+06         0.16511E+07         0.00000E+00
    0.16511E+07         0.13400E+07         0.00000E+00
    0.00000E+00         0.00000E+00         0.31677E+06
 
    0.25629E+06         0.16825E+07         0.00000E+00
    0.16825E+07         0.13352E+07         0.00000E+00
    0.00000E+00         0.00000E+00         0.31830E+06
 
    0.26885E+06         0.17136E+07         0.00000E+00
    0.17136E+07         0.13303E+07         0.00000E+00
    0.00000E+00         0.00000E+00         0.31982E+06
 
    0.28149E+06         0.17444E+07         0.00000E+00
    0.17444E+07         0.13251E+07         0.00000E+00
    0.00000E+00         0.00000E+00         0.32132E+06
 
    0.29423E+06         0.17749E+07         0.00000E+00
    0.17749E+07         0.13198E+07         0.00000E+00
    0.00000E+00         0.00000E+00         0.32281E+06
 
    0.30706E+06         0.18050E+07         0.00000E+00
    0.18050E+07         0.13144E+07         0.00000E+00
    0.00000E+00         0.00000E+00         0.32429E+06
 
    0.31999E+06         0.18349E+07         0.00000E+00
    0.18349E+07         0.13088E+07         0.00000E+00
    0.00000E+00         0.00000E+00         0.32575E+06
 
   -0.22429E+06         0.22062E+05         0.00000E+00
    0.22062E+05         0.12461E+07         0.00000E+00
    0.00000E+00         0.00000E+00         0.20435E+06
 
   -0.21451E+06         0.65525E+05         0.00000E+00
    0.65525E+05         0.12460E+07         0.00000E+00
    0.00000E+00         0.00000E+00         0.20629E+06
 
   -0.20470E+06         0.10870E+06         0.00000E+00
    0.10870E+06         0.12458E+07         0.00000E+00
    0.00000E+00         0.00000E+00         0.20822E+06
 
   -0.19487E+06         0.15160E+06         0.00000E+00
    0.15160E+06         0.12455E+07         0.00000E+00
    0.00000E+00         0.00000E+00         0.21013E+06
 
   -0.18503E+06         0.19421E+06         0.00000E+00
    0.19421E+06         0.12452E+07         0.00000E+00
    0.00000E+00         0.00000E+00         0.21203E+06
 
   -0.17517E+06         0.23654E+06         0.00000E+00
    0.23654E+06         0.12448E+07         0.00000E+00
    0.00000E+00         0.00000E+00         0.21392E+06
 
   -0.16530E+06         0.27858E+06         0.00000E+00
    0.27858E+06         0.12442E+07         0.00000E+00
    0.00000E+00         0.00000E+00         0.21579E+06
 
   -0.15542E+06         0.32033E+06         0.00000E+00
    0.32033E+06         0.12436E+07         0.00000E+00
    0.00000E+00         0.00000E+00         0.21764E+06
 
   -0.14553E+06         0.36180E+06         0.00000E+00
    0.36180E+06         0.12430E+07         0.00000E+00
    0.00000E+00         0.00000E+00         0.21949E+06
 
   -0.13563E+06         0.40299E+06         0.00000E+00
    0.40299E+06         0.12422E+07         0.00000E+00
    0.00000E+00         0.00000E+00         0.22131E+06
 
   -0.12572E+06         0.44388E+06         0.00000E+00
    0.44388E+06         0.12414E+07         0.00000E+00
    0.00000E+00         0.00000E+00         0.22313E+06
 
   -0.11580E+06         0.48449E+06         0.00000E+00
    0.48449E+06         0.12404E+07         0.00000E+00
    0.00000E+00         0.00000E+00         0.22493E+06
 
   -0.10587E+06         0.52481E+06         0.00000E+00
    0.52481E+06         0.12394E+07         0.00000E+00
    0.00000E+00         0.00000E+00         0.22671E+06
 
   -0.95928E+05         0.56485E+06         0.00000E+00
    0.56485E+06         0.12383E+07         0.00000E+00
    0.00000E+00         0.00000E+00         0.22848E+06
 
   -0.85983E+05         0.60459E+06         0.00000E+00
    0.60459E+06         0.12372E+07         0.00000E+00
    0.00000E+00         0.00000E+00         0.23024E+06
 
   -0.76028E+05         0.64405E+06         0.00000E+00
    0.64405E+06         0.12359E+07         0.00000E+00
    0.00000E+00         0.00000E+00         0.23198E+06
 
   -0.66065E+05         0.68322E+06         0.00000E+00
    0.68322E+06         0.12346E+07         0.00000E+00
    0.00000E+00         0.00000E+00         0.23371E+06
 
   -0.56093E+05         0.72209E+06         0.00000E+00
    0.72209E+06         0.12332E+07         0.00000E+00
    0.00000E+00         0.00000E+00         0.23542E+06
 
   -0.46110E+05         0.76068E+06         0.00000E+00
    0.76068E+06         0.12317E+07         0.00000E+00
    0.00000E+00         0.00000E+00         0.23712E+06
 
   -0.36117E+05         0.79898E+06         0.00000E+00
    0.79898E+06         0.12301E+07         0.00000E+00
    0.00000E+00         0.00000E+00         0.23880E+06
 
   -0.26112E+05         0.83698E+06         0.00000E+00
    0.83698E+06         0.12285E+07         0.00000E+00
    0.00000E+00         0.00000E+00         0.24047E+06
 
   -0.16095E+05         0.87470E+06         0.00000E+00
    0.87470E+06         0.12267E+07         0.00000E+00
    0.00000E+00         0.00000E+00         0.24213E+06
 
   -0.60630E+04         0.91212E+06         0.00000E+00
    0.91212E+06         0.12249E+07         0.00000E+00
    0.00000E+00         0.00000E+00         0.24377E+06
 
    0.39840E+04         0.94925E+06         0.00000E+00
    0.94925E+06         0.12230E+07         0.00000E+00
    0.00000E+00         0.00000E+00         0.24539E+06
 
    0.14048E+05         0.98609E+06         0.00000E+00
    0.98609E+06         0.12210E+07         0.00000E+00
    0.00000E+00         0.00000E+00         0.24700E+06
 
    0.24130E+05         0.10226E+07         0.00000E+00
    0.10226E+07         0.12189E+07         0.00000E+00
    0.00000E+00         0.00000E+00         0.24860E+06
 
    0.34233E+05         0.10589E+07         0.00000E+00
    0.10589E+07         0.12167E+07         0.00000E+00
    0.00000E+00         0.00000E+00         0.25018E+06
 
    0.44357E+05         0.10948E+07         0.00000E+00
    0.10948E+07         0.12144E+07         0.00000E+00
    0.00000E+00         0.00000E+00         0.25175E+06
 
    0.54506E+05         0.11305E+07         0.00000E+00
    0.11305E+07         0.12120E+07         0.00000E+00
    0.00000E+00         0.00000E+00         0.25330E+06
 
    0.64680E+05         0.11658E+07         0.00000E+00
    0.11658E+07         0.12095E+07         0.00000E+00
    0.00000E+00         0.00000E+00         0.25484E+06
 
    0.74883E+05         0.12009E+07         0.00000E+00
    0.12009E+07         0.12069E+07         0.00000E+00
    0.00000E+00         0.00000E+00         0.25636E+06
 
    0.85117E+05         0.12356E+07         0.00000E+00
    0.12356E+07         0.12043E+07         0.00000E+00
    0.00000E+00         0.00000E+00         0.25787E+06
 
    0.95384E+05         0.12701E+07         0.00000E+00
    0.12701E+07         0.12015E+07         0.00000E+00
    0.00000E+00         0.00000E+00         0.25937E+06
 
    0.10569E+06         0.13042E+07         0.00000E+00
    0.13042E+07         0.11986E+07         0.00000E+00
    0.00000E+00         0.00000E+00         0.26085E+06
 
    0.11603E+06         0.13381E+07         0.00000E+00
    0.13381E+07         0.11956E+07         0.00000E+00
    0.00000E+00         0.00000E+00         0.26232E+06
 
    0.12641E+06         0.13716E+07         0.00000E+00
    0.13716E+07         0.11925E+07         0.00000E+00
    0.00000E+00         0.00000E+00         0.26378E+06
 
    0.13683E+06         0.14049E+07         0.00000E+00
    0.14049E+07         0.11893E+07         0.00000E+00
    0.00000E+00         0.00000E+00         0.26522E+06
 
    0.14731E+06         0.14378E+07         0.00000E+00
    0.14378E+07         0.11859E+07         0.00000E+00
    0.00000E+00         0.00000E+00         0.26665E+06
 
    0.15783E+06         0.14704E+07         0.00000E+00
    0.14704E+07         0.11825E+07         0.00000E+00
    0.00000E+00         0.00000E+00         0.26806E+06
 
    0.16840E+06         0.15027E+07         0.00000E+00
    0.15027E+07         0.11789E+07         0.00000E+00
    0.00000E+00         0.00000E+00         0.26946E+06
 
    0.17903E+06         0.15347E+07         0.00000E+00
    0.15347E+07         0.11752E+07         0.00000E+00
    0.00000E+00         0.00000E+00         0.27085E+06
 
    0.18972E+06         0.15664E+07         0.00000E+00
    0.15664E+07         0.11714E+07         0.00000E+00
    0.00000E+00         0.00000E+00         0.27222E+06
 
    0.20047E+06         0.15977E+07         0.00000E+00
    0.15977E+07         0.11675E+07         0.00000E+00
    0.00000E+00         0.00000E+00         0.27358E+06
 
    0.21128E+06         0.16288E+07         0.00000E+00
    0.16288E+07         0.11634E+07         0.00000E+00
    0.00000E+00         0.00000E+00         0.27493E+06
 
    0.22217E+06         0.16595E+07         0.00000E+00
    0.16595E+07         0.11592E+07         0.00000E+00
    0.00000E+00         0.00000E+00         0.27627E+06
 
    0.23313E+06         0.16899E+07         0.00000E+00
    0.16899E+07         0.11548E+07         0.00000E+00
    0.00000E+00         0.00000E+00         0.27759E+06
 
    0.24416E+06         0.17199E+07         0.00000E+00
    0.17199E+07         0.11504E+07         0.00000E+00
    0.00000E+00         0.00000E+00         0.27891E+06
 
    0.25527E+06         0.17497E+07         0.00000E+00
    0.17497E+07         0.11458E+07         0.00000E+00
    0.00000E+00         0.00000E+00         0.28020E+06
 
    0.26646E+06         0.17791E+07         0.00000E+00
    0.17791E+07         0.11410E+07         0.00000E+00
    0.00000E+00         0.00000E+00         0.28149E+06
 
    0.27774E+06         0.18081E+07         0.00000E+00
    0.18081E+07         0.11361E+07         0.00000E+00
    0.00000E+00         0.00000E+00         0.28277E+06
 
   -0.19075E+06         0.21855E+05         0.00000E+00
    0.21855E+05         0.10626E+07         0.00000E+00
    0.00000E+00         0.00000E+00         0.17437E+06
 
   -0.18236E+06         0.64917E+05         0.00000E+00
    0.64917E+05         0.10625E+07         0.00000E+00
    0.00000E+00         0.00000E+00         0.17604E+06
 
   -0.17396E+06         0.10770E+06         0.00000E+00
    0.10770E+06         0.10624E+07         0.00000E+00
    0.00000E+00         0.00000E+00         0.17769E+06
 
   -0.16554E+06         0.15020E+06         0.00000E+00
    0.15020E+06         0.10622E+07         0.00000E+00
    0.00000E+00         0.00000E+00         0.17932E+06
 
   -0.15711E+06         0.19243E+06         0.00000E+00
    0.19243E+06         0.10619E+07         0.00000E+00
    0.00000E+00         0.00000E+00         0.18095E+06
 
   -0.14867E+06         0.23437E+06         0.00000E+00
    0.23437E+06         0.10615E+07         0.00000E+00
    0.00000E+00         0.00000E+00         0.18257E+06
 
   -0.14022E+06         0.27603E+06         0.00000E+00
    0.27603E+06         0.10611E+07         0.00000E+00
    0.00000E+00         0.00000E+00         0.18417E+06
 
   -0.13177E+06         0.31740E+06         0.00000E+00
    0.31740E+06         0.10606E+07         0.00000E+00
    0.00000E+00         0.00000E+00         0.18576E+06
 
   -0.12330E+06         0.35850E+06         0.00000E+00
    0.35850E+06         0.10600E+07         0.00000E+00
    0.00000E+00         0.00000E+00         0.18734E+06
 
   -0.11483E+06         0.39930E+06         0.00000E+00
    0.39930E+06         0.10593E+07         0.00000E+00
    0.00000E+00         0.00000E+00         0.18890E+06
 
   -0.10635E+06         0.43982E+06         0.00000E+00
    0.43982E+06         0.10586E+07         0.00000E+00
    0.00000E+00         0.00000E+00         0.19046E+06
 
   -0.97865E+05         0.48005E+06         0.00000E+00
    0.48005E+06         0.10578E+07         0.00000E+00
    0.00000E+00         0.00000E+00         0.19200E+06
 
   -0.89376E+05         0.52000E+06         0.00000E+00
    0.52000E+06         0.10570E+07         0.00000E+00
    0.00000E+00         0.00000E+00         0.19353E+06
 
   -0.80881E+05         0.55965E+06         0.00000E+00
    0.55965E+06         0.10561E+07         0.00000E+00
    0.00000E+00         0.00000E+00         0.19504E+06
 
   -0.72382E+05         0.59901E+06         0.00000E+00
    0.59901E+06         0.10551E+07         0.00000E+00
    0.00000E+00         0.00000E+00         0.19654E+06
 
   -0.63878E+05         0.63809E+06         0.00000E+00
    0.63809E+06         0.10541E+07         0.00000E+00
    0.00000E+00         0.00000E+00         0.19803E+06
 
   -0.55368E+05         0.67687E+06         0.00000E+00
    0.67687E+06         0.10529E+07         0.00000E+00
    0.00000E+00         0.00000E+00         0.19951E+06
 
   -0.46853E+05         0.71536E+06         0.00000E+00
    0.71536E+06         0.10517E+07         0.00000E+00
    0.00000E+00         0.00000E+00         0.20098E+06
 
   -0.38331E+05         0.75355E+06         0.00000E+00
    0.75355E+06         0.10505E+07         0.00000E+00
    0.00000E+00         0.00000E+00         0.20243E+06
 
   -0.29802E+05         0.79145E+06         0.00000E+00
    0.79145E+06         0.10492E+07         0.00000E+00
    0.00000E+00         0.00000E+00         0.20387E+06
 
   -0.21266E+05         0.82905E+06         0.00000E+00
    0.82905E+06         0.10478E+07         0.00000E+00
    0.00000E+00         0.00000E+00         0.20530E+06
 
   -0.12721E+05         0.86636E+06         0.00000E+00
    0.86636E+06         0.10463E+07         0.00000E+00
    0.00000E+00         0.00000E+00         0.20671E+06
 
   -0.41662E+04         0.90337E+06         0.00000E+00
    0.90337E+06         0.10447E+07         0.00000E+00
    0.00000E+00         0.00000E+00         0.20811E+06
 
    0.43994E+04         0.94008E+06         0.00000E+00
    0.94008E+06         0.10431E+07         0.00000E+00
    0.00000E+00         0.00000E+00         0.20950E+06
 
    0.12977E+05         0.97650E+06         0.00000E+00
    0.97650E+06         0.10414E+07         0.00000E+00
    0.00000E+00         0.00000E+00         0.21088E+06
 
    0.21568E+05         0.10126E+07         0.00000E+00
    0.10126E+07         0.10396E+07         0.00000E+00
    0.00000E+00         0.00000E+00         0.21224E+06
 
    0.30174E+05         0.10484E+07         0.00000E+00
    0.10484E+07         0.10378E+07         0.00000E+00
    0.00000E+00         0.00000E+00         0.21359E+06
 
    0.38797E+05         0.10839E+07         0.00000E+00
    0.10839E+07         0.10359E+07         0.00000E+00
    0.00000E+00         0.00000E+00         0.21493E+06
 
    0.47438E+05         0.11191E+07         0.00000E+00
    0.11191E+07         0.10339E+07         0.00000E+00
    0.00000E+00         0.00000E+00         0.21626E+06
 
    0.56099E+05         0.11540E+07         0.00000E+00
    0.11540E+07         0.10318E+07         0.00000E+00
    0.00000E+00         0.00000E+00         0.21757E+06
 
    0.64782E+05         0.11886E+07         0.00000E+00
    0.11886E+07         0.10296E+07         0.00000E+00
    0.00000E+00         0.00000E+00         0.21887E+06
 
    0.73489E+05         0.12229E+07         0.00000E+00
    0.12229E+07         0.10273E+07         0.00000E+00
    0.00000E+00         0.00000E+00         0.22016E+06
 
    0.82222E+05         0.12569E+07         0.00000E+00
    0.12569E+07         0.10250E+07         0.00000E+00
    0.00000E+00         0.00000E+00         0.22144E+06
 
    0.90984E+05         0.12905E+07         0.00000E+00
    0.12905E+07         0.10225E+07         0.00000E+00
    0.00000E+00         0.00000E+00         0.22270E+06
 
    0.99776E+05         0.13239E+07         0.00000E+00
    0.13239E+07         0.10200E+07         0.00000E+00
    0.00000E+00         0.00000E+00         0.22395E+06
 
    0.10860E+06         0.13569E+07         0.00000E+00
    0.13569E+07         0.10174E+07         0.00000E+00
    0.00000E+00         0.00000E+00         0.22519E+06
 
    0.11746E+06         0.13896E+07         0.00000E+00
    0.13896E+07         0.10147E+07         0.00000E+00
    0.00000E+00         0.00000E+00         0.22642E+06
 
    0.12636E+06         0.14220E+07         0.00000E+00
    0.14220E+07         0.10118E+07         0.00000E+00
    0.00000E+00         0.00000E+00         0.22764E+06
 
    0.13530E+06         0.14541E+07         0.00000E+00
    0.14541E+07         0.10089E+07         0.00000E+00
    0.00000E+00         0.00000E+00         0.22884E+06
 
    0.14428E+06         0.14858E+07         0.00000E+00
    0.14858E+07         0.10059E+07         0.00000E+00
    0.00000E+00         0.00000E+00         0.23004E+06
 
    0.15331E+06         0.15172E+07         0.00000E+00
    0.15172E+07         0.10028E+07         0.00000E+00
    0.00000E+00         0.00000E+00         0.23122E+06
 
    0.16238E+06         0.15484E+07         0.00000E+00
    0.15484E+07         0.99955E+06         0.00000E+00
    0.00000E+00         0.00000E+00         0.23239E+06
 
    0.17151E+06         0.15791E+07         0.00000E+00
    0.15791E+07         0.99622E+06         0.00000E+00
    0.00000E+00         0.00000E+00         0.23355E+06
 
    0.18069E+06         0.16096E+07         0.00000E+00
    0.16096E+07         0.99277E+06         0.00000E+00
    0.00000E+00         0.00000E+00         0.23469E+06
 
    0.18993E+06         0.16397E+07         0.00000E+00
    0.16397E+07         0.98922E+06         0.00000E+00
    0.00000E+00         0.00000E+00         0.23583E+06
 
    0.19923E+06         0.16694E+07         0.00000E+00
    0.16694E+07         0.98554E+06         0.00000E+00
    0.00000E+00         0.00000E+00         0.23695E+06
 
    0.20859E+06         0.16989E+07         0.00000E+00
    0.16989E+07         0.98175E+06         0.00000E+00
    0.00000E+00         0.00000E+00         0.23807E+06
 
    0.21802E+06         0.17280E+07         0.00000E+00
    0.17280E+07         0.97784E+06         0.00000E+00
    0.00000E+00         0.00000E+00         0.23917E+06
 
    0.22751E+06         0.17567E+07         0.00000E+00
    0.17567E+07         0.97381E+06         0.00000E+00
    0.00000E+00         0.00000E+00         0.24026E+06
 
    0.23708E+06         0.17851E+07         0.00000E+00
    0.17851E+07         0.96965E+06         0.00000E+00
    0.00000E+00         0.00000E+00         0.24135E+06
 
   -0.15471E+06         0.21683E+05         0.00000E+00
    0.21683E+05         0.88351E+06         0.00000E+00
    0.00000E+00         0.00000E+00         0.14576E+06
 
   -0.14770E+06         0.64412E+05         0.00000E+00
    0.64412E+05         0.88344E+06         0.00000E+00
    0.00000E+00         0.00000E+00         0.14715E+06
 
   -0.14068E+06         0.10687E+06         0.00000E+00
    0.10687E+06         0.88332E+06         0.00000E+00
    0.00000E+00         0.00000E+00         0.14853E+06
 
   -0.13365E+06         0.14905E+06         0.00000E+00
    0.14905E+06         0.88314E+06         0.00000E+00
    0.00000E+00         0.00000E+00         0.14990E+06
 
   -0.12662E+06         0.19095E+06         0.00000E+00
    0.19095E+06         0.88291E+06         0.00000E+00
    0.00000E+00         0.00000E+00         0.15126E+06
 
   -0.11958E+06         0.23257E+06         0.00000E+00
    0.23257E+06         0.88261E+06         0.00000E+00
    0.00000E+00         0.00000E+00         0.15261E+06
 
   -0.11254E+06         0.27392E+06         0.00000E+00
    0.27392E+06         0.88226E+06         0.00000E+00
    0.00000E+00         0.00000E+00         0.15395E+06
 
   -0.10549E+06         0.31498E+06         0.00000E+00
    0.31498E+06         0.88186E+06         0.00000E+00
    0.00000E+00         0.00000E+00         0.15527E+06
 
   -0.98446E+05         0.35576E+06         0.00000E+00
    0.35576E+06         0.88140E+06         0.00000E+00
    0.00000E+00         0.00000E+00         0.15659E+06
 
   -0.91399E+05         0.39625E+06         0.00000E+00
    0.39625E+06         0.88088E+06         0.00000E+00
    0.00000E+00         0.00000E+00         0.15790E+06
 
   -0.84351E+05         0.43646E+06         0.00000E+00
    0.43646E+06         0.88031E+06         0.00000E+00
    0.00000E+00         0.00000E+00         0.15919E+06
 
   -0.77304E+05         0.47638E+06         0.00000E+00
    0.47638E+06         0.87969E+06         0.00000E+00
    0.00000E+00         0.00000E+00         0.16048E+06
 
   -0.70257E+05         0.51601E+06         0.00000E+00
    0.51601E+06         0.87901E+06         0.00000E+00
    0.00000E+00         0.00000E+00         0.16175E+06
 
   -0.63211E+05         0.55535E+06         0.00000E+00
    0.55535E+06         0.87828E+06         0.00000E+00
    0.00000E+00         0.00000E+00         0.16301E+06
 
   -0.56165E+05         0.59440E+06         0.00000E+00
    0.59440E+06         0.87750E+06         0.00000E+00
    0.00000E+00         0.00000E+00         0.16427E+06
 
   -0.49120E+05         0.63316E+06         0.00000E+00
    0.63316E+06         0.87666E+06         0.00000E+00
    0.00000E+00         0.00000E+00         0.16551E+06
 
   -0.42074E+05         0.67162E+06         0.00000E+00
    0.67162E+06         0.87576E+06         0.00000E+00
    0.00000E+00         0.00000E+00         0.16674E+06
 
   -0.35029E+05         0.70979E+06         0.00000E+00
    0.70979E+06         0.87481E+06         0.00000E+00
    0.00000E+00         0.00000E+00         0.16796E+06
 
   -0.27983E+05         0.74766E+06         0.00000E+00
    0.74766E+06         0.87381E+06         0.00000E+00
    0.00000E+00         0.00000E+00         0.16917E+06
 
   -0.20937E+05         0.78523E+06         0.00000E+00
    0.78523E+06         0.87275E+06         0.00000E+00
    0.00000E+00         0.00000E+00         0.17036E+06
 
   -0.13888E+05         0.82250E+06         0.00000E+00
    0.82250E+06         0.87163E+06         0.00000E+00
    0.00000E+00         0.00000E+00         0.17155E+06
 
   -0.68366E+04         0.85948E+06         0.00000E+00
    0.85948E+06         0.87045E+06         0.00000E+00
    0.00000E+00         0.00000E+00         0.17272E+06
 
    0.21824E+03         0.89614E+06         0.00000E+00
    0.89614E+06         0.86921E+06         0.00000E+00
    0.00000E+00         0.00000E+00         0.17389E+06
 
    0.72776E+04         0.93251E+06         0.00000E+00
    0.93251E+06         0.86792E+06         0.00000E+00
    0.00000E+00         0.00000E+00         0.17504E+06
 
    0.14342E+05         0.96857E+06         0.00000E+00
    0.96857E+06         0.86656E+06         0.00000E+00
    0.00000E+00         0.00000E+00         0.17618E+06
 
    0.21414E+05         0.10043E+07         0.00000E+00
    0.10043E+07         0.86514E+06         0.00000E+00
    0.00000E+00         0.00000E+00         0.17731E+06
 
    0.28494E+05         0.10398E+07         0.00000E+00
    0.10398E+07         0.86366E+06         0.00000E+00
    0.00000E+00         0.00000E+00         0.17843E+06
 
    0.35584E+05         0.10749E+07         0.00000E+00
    0.10749E+07         0.86211E+06         0.00000E+00
    0.00000E+00         0.00000E+00         0.17954E+06
 
    0.42684E+05         0.11097E+07         0.00000E+00
    0.11097E+07         0.86050E+06         0.00000E+00
    0.00000E+00         0.00000E+00         0.18064E+06
 
    0.49797E+05         0.11442E+07         0.00000E+00
    0.11442E+07         0.85882E+06         0.00000E+00
    0.00000E+00         0.00000E+00         0.18172E+06
 
    0.56924E+05         0.11784E+07         0.00000E+00
    0.11784E+07         0.85707E+06         0.00000E+00
    0.00000E+00         0.00000E+00         0.18280E+06
 
    0.64068E+05         0.12123E+07         0.00000E+00
    0.12123E+07         0.85526E+06         0.00000E+00
    0.00000E+00         0.00000E+00         0.18386E+06
 
    0.71229E+05         0.12459E+07         0.00000E+00
    0.12459E+07         0.85337E+06         0.00000E+00
    0.00000E+00         0.00000E+00         0.18492E+06
 
    0.78410E+05         0.12791E+07         0.00000E+00
    0.12791E+07         0.85140E+06         0.00000E+00
    0.00000E+00         0.00000E+00         0.18596E+06
 
    0.85612E+05         0.13121E+07         0.00000E+00
    0.13121E+07         0.84937E+06         0.00000E+00
    0.00000E+00         0.00000E+00         0.18700E+06
 
    0.92839E+05         0.13447E+07         0.00000E+00
    0.13447E+07         0.84725E+06         0.00000E+00
    0.00000E+00         0.00000E+00         0.18802E+06
 
    0.10009E+06         0.13769E+07         0.00000E+00
    0.13769E+07         0.84506E+06         0.00000E+00
    0.00000E+00         0.00000E+00         0.18903E+06
 
    0.10737E+06         0.14089E+07         0.00000E+00
    0.14089E+07         0.84279E+06         0.00000E+00
    0.00000E+00         0.00000E+00         0.19003E+06
 
    0.11468E+06         0.14405E+07         0.00000E+00
    0.14405E+07         0.84043E+06         0.00000E+00
    0.00000E+00         0.00000E+00         0.19102E+06
 
    0.12203E+06         0.14718E+07         0.00000E+00
    0.14718E+07         0.83799E+06         0.00000E+00
    0.00000E+00         0.00000E+00         0.19200E+06
 
    0.12940E+06         0.15028E+07         0.00000E+00
    0.15028E+07         0.83547E+06         0.00000E+00
    0.00000E+00         0.00000E+00         0.19297E+06
 
    0.13682E+06         0.15334E+07         0.00000E+00
    0.15334E+07         0.83285E+06         0.00000E+00
    0.00000E+00         0.00000E+00         0.19393E+06
 
    0.14427E+06         0.15637E+07         0.00000E+00
    0.15637E+07         0.83015E+06         0.00000E+00
    0.00000E+00         0.00000E+00         0.19489E+06
 
    0.15177E+06         0.15936E+07         0.00000E+00
    0.15936E+07         0.82736E+06         0.00000E+00
    0.00000E+00         0.00000E+00         0.19583E+06
 
    0.15931E+06         0.16232E+07         0.00000E+00
    0.16232E+07         0.82447E+06         0.00000E+00
    0.00000E+00         0.00000E+00         0.19676E+06
 
    0.16690E+06         0.16525E+07         0.00000E+00
    0.16525E+07         0.82149E+06         0.00000E+00
    0.00000E+00         0.00000E+00         0.19768E+06
 
    0.17454E+06         0.16814E+07         0.00000E+00
    0.16814E+07         0.81841E+06         0.00000E+00
    0.00000E+00         0.00000E+00         0.19859E+06
 
    0.18224E+06         0.17099E+07         0.00000E+00
    0.17099E+07         0.81523E+06         0.00000E+00
    0.00000E+00         0.00000E+00         0.19949E+06
 
    0.18998E+06         0.17381E+07         0.00000E+00
    0.17381E+07         0.81194E+06         0.00000E+00
    0.00000E+00         0.00000E+00         0.20039E+06
 
    0.19779E+06         0.17660E+07         0.00000E+00
    0.17660E+07         0.80856E+06         0.00000E+00
    0.00000E+00         0.00000E+00         0.20127E+06
 
   -0.11654E+06         0.21548E+05         0.00000E+00
    0.21548E+05         0.70802E+06         0.00000E+00
    0.00000E+00         0.00000E+00         0.11830E+06
 
   -0.11088E+06         0.64019E+05         0.00000E+00
    0.64019E+05         0.70798E+06         0.00000E+00
    0.00000E+00         0.00000E+00         0.11942E+06
 
   -0.10522E+06         0.10622E+06         0.00000E+00
    0.10622E+06         0.70789E+06         0.00000E+00
    0.00000E+00         0.00000E+00         0.12053E+06
 
   -0.99562E+05         0.14815E+06         0.00000E+00
    0.14815E+06         0.70776E+06         0.00000E+00
    0.00000E+00         0.00000E+00         0.12164E+06
 
   -0.93908E+05         0.18980E+06         0.00000E+00
    0.18980E+06         0.70758E+06         0.00000E+00
    0.00000E+00         0.00000E+00         0.12274E+06
 
   -0.88258E+05         0.23118E+06         0.00000E+00
    0.23118E+06         0.70737E+06         0.00000E+00
    0.00000E+00         0.00000E+00         0.12382E+06
 
   -0.82613E+05         0.27228E+06         0.00000E+00
    0.27228E+06         0.70711E+06         0.00000E+00
    0.00000E+00         0.00000E+00         0.12490E+06
 
   -0.76974E+05         0.31310E+06         0.00000E+00
    0.31310E+06         0.70682E+06         0.00000E+00
    0.00000E+00         0.00000E+00         0.12597E+06
 
   -0.71341E+05         0.35364E+06         0.00000E+00
    0.35364E+06         0.70648E+06         0.00000E+00
    0.00000E+00         0.00000E+00         0.12703E+06
 
   -0.65715E+05         0.39389E+06         0.00000E+00
    0.39389E+06         0.70611E+06         0.00000E+00
    0.00000E+00         0.00000E+00         0.12808E+06
 
   -0.60097E+05         0.43386E+06         0.00000E+00
    0.43386E+06         0.70569E+06         0.00000E+00
    0.00000E+00         0.00000E+00         0.12912E+06
 
   -0.54486E+05         0.47354E+06         0.00000E+00
    0.47354E+06         0.70524E+06         0.00000E+00
    0.00000E+00         0.00000E+00         0.13015E+06
 
   -0.48883E+05         0.51293E+06         0.00000E+00
    0.51293E+06         0.70474E+06         0.00000E+00
    0.00000E+00         0.00000E+00         0.13117E+06
 
   -0.43289E+05         0.55203E+06         0.00000E+00
    0.55203E+06         0.70421E+06         0.00000E+00
    0.00000E+00         0.00000E+00         0.13218E+06
 
   -0.37702E+05         0.59083E+06         0.00000E+00
    0.59083E+06         0.70364E+06         0.00000E+00
    0.00000E+00         0.00000E+00         0.13319E+06
 
   -0.32124E+05         0.62935E+06         0.00000E+00
    0.62935E+06         0.70303E+06         0.00000E+00
    0.00000E+00         0.00000E+00         0.13418E+06
 
   -0.26553E+05         0.66756E+06         0.00000E+00
    0.66756E+06         0.70237E+06         0.00000E+00
    0.00000E+00         0.00000E+00         0.13516E+06
 
   -0.20990E+05         0.70548E+06         0.00000E+00
    0.70548E+06         0.70168E+06         0.00000E+00
    0.00000E+00         0.00000E+00         0.13614E+06
 
   -0.15433E+05         0.74309E+06         0.00000E+00
    0.74309E+06         0.70094E+06         0.00000E+00
    0.00000E+00         0.00000E+00         0.13710E+06
 
   -0.98830E+04         0.78041E+06         0.00000E+00
    0.78041E+06         0.70017E+06         0.00000E+00
    0.00000E+00         0.00000E+00         0.13806E+06
 
   -0.43387E+04         0.81742E+06         0.00000E+00
    0.81742E+06         0.69935E+06         0.00000E+00
    0.00000E+00         0.00000E+00         0.13900E+06
 
    0.12004E+04         0.85413E+06         0.00000E+00
    0.85413E+06         0.69849E+06         0.00000E+00
    0.00000E+00         0.00000E+00         0.13994E+06
 
    0.67353E+04         0.89053E+06         0.00000E+00
    0.89053E+06         0.69758E+06         0.00000E+00
    0.00000E+00         0.00000E+00         0.14086E+06
 
    0.12267E+05         0.92663E+06         0.00000E+00
    0.92663E+06         0.69663E+06         0.00000E+00
    0.00000E+00         0.00000E+00         0.14178E+06
 
    0.17796E+05         0.96241E+06         0.00000E+00
    0.96241E+06         0.69563E+06         0.00000E+00
    0.00000E+00         0.00000E+00         0.14269E+06
 
    0.23324E+05         0.99788E+06         0.00000E+00
    0.99788E+06         0.69459E+06         0.00000E+00
    0.00000E+00         0.00000E+00         0.14358E+06
 
    0.28851E+05         0.10330E+07         0.00000E+00
    0.10330E+07         0.69350E+06         0.00000E+00
    0.00000E+00         0.00000E+00         0.14447E+06
 
    0.34380E+05         0.10679E+07         0.00000E+00
    0.10679E+07         0.69236E+06         0.00000E+00
    0.00000E+00         0.00000E+00         0.14535E+06
 
    0.39911E+05         0.11024E+07         0.00000E+00
    0.11024E+07         0.69116E+06         0.00000E+00
    0.00000E+00         0.00000E+00         0.14622E+06
 
    0.45446E+05         0.11366E+07         0.00000E+00
    0.11366E+07         0.68992E+06         0.00000E+00
    0.00000E+00         0.00000E+00         0.14707E+06
 
    0.50987E+05         0.11705E+07         0.00000E+00
    0.11705E+07         0.68863E+06         0.00000E+00
    0.00000E+00         0.00000E+00         0.14792E+06
 
    0.56534E+05         0.12041E+07         0.00000E+00
    0.12041E+07         0.68728E+06         0.00000E+00
    0.00000E+00         0.00000E+00         0.14876E+06
 
    0.62089E+05         0.12373E+07         0.00000E+00
    0.12373E+07         0.68587E+06         0.00000E+00
    0.00000E+00         0.00000E+00         0.14959E+06
 
    0.67654E+05         0.12702E+07         0.00000E+00
    0.12702E+07         0.68441E+06         0.00000E+00
    0.00000E+00         0.00000E+00         0.15041E+06
 
    0.73232E+05         0.13028E+07         0.00000E+00
    0.13028E+07         0.68289E+06         0.00000E+00
    0.00000E+00         0.00000E+00         0.15122E+06
 
    0.78823E+05         0.13351E+07         0.00000E+00
    0.13351E+07         0.68131E+06         0.00000E+00
    0.00000E+00         0.00000E+00         0.15203E+06
 
    0.84429E+05         0.13670E+07         0.00000E+00
    0.13670E+07         0.67967E+06         0.00000E+00
    0.00000E+00         0.00000E+00         0.15282E+06
 
    0.90053E+05         0.13986E+07         0.00000E+00
    0.13986E+07         0.67796E+06         0.00000E+00
    0.00000E+00         0.00000E+00         0.15360E+06
 
    0.95696E+05         0.14299E+07         0.00000E+00
    0.14299E+07         0.67620E+06         0.00000E+00
    0.00000E+00         0.00000E+00         0.15438E+06
 
    0.10136E+06         0.14608E+07         0.00000E+00
    0.14608E+07         0.67436E+06         0.00000E+00
    0.00000E+00         0.00000E+00         0.15514E+06
 
    0.10705E+06         0.14913E+07         0.00000E+00
    0.14913E+07         0.67246E+06         0.00000E+00
    0.00000E+00         0.00000E+00         0.15590E+06
 
    0.11276E+06         0.15216E+07         0.00000E+00
    0.15216E+07         0.67048E+06         0.00000E+00
    0.00000E+00         0.00000E+00         0.15665E+06
 
    0.11850E+06         0.15515E+07         0.00000E+00
    0.15515E+07         0.66844E+06         0.00000E+00
    0.00000E+00         0.00000E+00         0.15739E+06
 
    0.12427E+06         0.15810E+07         0.00000E+00
    0.15810E+07         0.66632E+06         0.00000E+00
    0.00000E+00         0.00000E+00         0.15812E+06
 
    0.13008E+06         0.16102E+07         0.00000E+00
    0.16102E+07         0.66412E+06         0.00000E+00
    0.00000E+00         0.00000E+00         0.15884E+06
 
    0.13591E+06         0.16390E+07         0.00000E+00
    0.16390E+07         0.66185E+06         0.00000E+00
    0.00000E+00         0.00000E+00         0.15955E+06
 
    0.14179E+06         0.16675E+07         0.00000E+00
    0.16675E+07         0.65950E+06         0.00000E+00
    0.00000E+00         0.00000E+00         0.16026E+06
 
    0.14770E+06         0.16956E+07         0.00000E+00
    0.16956E+07         0.65707E+06         0.00000E+00
    0.00000E+00         0.00000E+00         0.16095E+06
 
    0.15365E+06         0.17234E+07         0.00000E+00
    0.17234E+07         0.65456E+06         0.00000E+00
    0.00000E+00         0.00000E+00         0.16164E+06
 
    0.15965E+06         0.17507E+07         0.00000E+00
    0.17507E+07         0.65196E+06         0.00000E+00
    0.00000E+00         0.00000E+00         0.16232E+06
 
   -0.76538E+05         0.21454E+05         0.00000E+00
    0.21454E+05         0.53547E+06         0.00000E+00
    0.00000E+00         0.00000E+00         0.91786E+05
 
   -0.72213E+05         0.63745E+05         0.00000E+00
    0.63745E+05         0.53544E+06         0.00000E+00
    0.00000E+00         0.00000E+00         0.92646E+05
 
   -0.67900E+05         0.10577E+06         0.00000E+00
    0.10577E+06         0.53539E+06         0.00000E+00
    0.00000E+00         0.00000E+00         0.93497E+05
 
   -0.63600E+05         0.14752E+06         0.00000E+00
    0.14752E+06         0.53531E+06         0.00000E+00
    0.00000E+00         0.00000E+00         0.94341E+05
 
   -0.59314E+05         0.18901E+06         0.00000E+00
    0.18901E+06         0.53520E+06         0.00000E+00
    0.00000E+00         0.00000E+00         0.95177E+05
 
   -0.55042E+05         0.23022E+06         0.00000E+00
    0.23022E+06         0.53507E+06         0.00000E+00
    0.00000E+00         0.00000E+00         0.96005E+05
 
   -0.50786E+05         0.27115E+06         0.00000E+00
    0.27115E+06         0.53491E+06         0.00000E+00
    0.00000E+00         0.00000E+00         0.96826E+05
 
   -0.46545E+05         0.31180E+06         0.00000E+00
    0.31180E+06         0.53473E+06         0.00000E+00
    0.00000E+00         0.00000E+00         0.97638E+05
 
   -0.42321E+05         0.35217E+06         0.00000E+00
    0.35217E+06         0.53453E+06         0.00000E+00
    0.00000E+00         0.00000E+00         0.98442E+05
 
   -0.38113E+05         0.39226E+06         0.00000E+00
    0.39226E+06         0.53430E+06         0.00000E+00
    0.00000E+00         0.00000E+00         0.99238E+05
 
   -0.33922E+05         0.43206E+06         0.00000E+00
    0.43206E+06         0.53405E+06         0.00000E+00
    0.00000E+00         0.00000E+00         0.10003E+06
 
   -0.29749E+05         0.47157E+06         0.00000E+00
    0.47157E+06         0.53378E+06         0.00000E+00
    0.00000E+00         0.00000E+00         0.10081E+06
 
   -0.25593E+05         0.51079E+06         0.00000E+00
    0.51079E+06         0.53348E+06         0.00000E+00
    0.00000E+00         0.00000E+00         0.10158E+06
 
   -0.21454E+05         0.54973E+06         0.00000E+00
    0.54973E+06         0.53315E+06         0.00000E+00
    0.00000E+00         0.00000E+00         0.10234E+06
 
   -0.17333E+05         0.58836E+06         0.00000E+00
    0.58836E+06         0.53281E+06         0.00000E+00
    0.00000E+00         0.00000E+00         0.10309E+06
 
   -0.13228E+05         0.62670E+06         0.00000E+00
    0.62670E+06         0.53243E+06         0.00000E+00
    0.00000E+00         0.00000E+00         0.10384E+06
 
   -0.91408E+04         0.66474E+06         0.00000E+00
    0.66474E+06         0.53204E+06         0.00000E+00
    0.00000E+00         0.00000E+00         0.10458E+06
 
   -0.50697E+04         0.70249E+06         0.00000E+00
    0.70249E+06         0.53162E+06         0.00000E+00
    0.00000E+00         0.00000E+00         0.10531E+06
 
   -0.10145E+04         0.73993E+06         0.00000E+00
    0.73993E+06         0.53117E+06         0.00000E+00
    0.00000E+00         0.00000E+00         0.10603E+06
 
    0.30251E+04         0.77706E+06         0.00000E+00
    0.77706E+06         0.53069E+06         0.00000E+00
    0.00000E+00         0.00000E+00         0.10674E+06
 
    0.70499E+04         0.81389E+06         0.00000E+00
    0.81389E+06         0.53019E+06         0.00000E+00
    0.00000E+00         0.00000E+00         0.10745E+06
 
    0.11060E+05         0.85041E+06         0.00000E+00
    0.85041E+06         0.52966E+06         0.00000E+00
    0.00000E+00         0.00000E+00         0.10814E+06
 
    0.15058E+05         0.88662E+06         0.00000E+00
    0.88662E+06         0.52910E+06         0.00000E+00
    0.00000E+00         0.00000E+00         0.10883E+06
 
    0.19042E+05         0.92252E+06         0.00000E+00
    0.92252E+06         0.52851E+06         0.00000E+00
    0.00000E+00         0.00000E+00         0.10951E+06
 
    0.23015E+05         0.95811E+06         0.00000E+00
    0.95811E+06         0.52789E+06         0.00000E+00
    0.00000E+00         0.00000E+00         0.11018E+06
 
    0.26977E+05         0.99337E+06         0.00000E+00
    0.99337E+06         0.52724E+06         0.00000E+00
    0.00000E+00         0.00000E+00         0.11084E+06
 
    0.30930E+05         0.10283E+07         0.00000E+00
    0.10283E+07         0.52656E+06         0.00000E+00
    0.00000E+00         0.00000E+00         0.11150E+06
 
    0.34873E+05         0.10630E+07         0.00000E+00
    0.10630E+07         0.52584E+06         0.00000E+00
    0.00000E+00         0.00000E+00         0.11214E+06
 
    0.38810E+05         0.10973E+07         0.00000E+00
    0.10973E+07         0.52509E+06         0.00000E+00
    0.00000E+00         0.00000E+00         0.11278E+06
 
    0.42740E+05         0.11313E+07         0.00000E+00
    0.11313E+07         0.52431E+06         0.00000E+00
    0.00000E+00         0.00000E+00         0.11341E+06
 
    0.46666E+05         0.11649E+07         0.00000E+00
    0.11649E+07         0.52349E+06         0.00000E+00
    0.00000E+00         0.00000E+00         0.11403E+06
 
    0.50588E+05         0.11982E+07         0.00000E+00
    0.11982E+07         0.52263E+06         0.00000E+00
    0.00000E+00         0.00000E+00         0.11464E+06
 
    0.54508E+05         0.12312E+07         0.00000E+00
    0.12312E+07         0.52173E+06         0.00000E+00
    0.00000E+00         0.00000E+00         0.11525E+06
 
    0.58428E+05         0.12639E+07         0.00000E+00
    0.12639E+07         0.52079E+06         0.00000E+00
    0.00000E+00         0.00000E+00         0.11584E+06
 
    0.62348E+05         0.12963E+07         0.00000E+00
    0.12963E+07         0.51981E+06         0.00000E+00
    0.00000E+00         0.00000E+00         0.11643E+06
 
    0.66272E+05         0.13283E+07         0.00000E+00
    0.13283E+07         0.51878E+06         0.00000E+00
    0.00000E+00         0.00000E+00         0.11701E+06
 
    0.70199E+05         0.13599E+07         0.00000E+00
    0.13599E+07         0.51771E+06         0.00000E+00
    0.00000E+00         0.00000E+00         0.11758E+06
 
    0.74132E+05         0.13912E+07         0.00000E+00
    0.13912E+07         0.51660E+06         0.00000E+00
    0.00000E+00         0.00000E+00         0.11815E+06
 
    0.78073E+05         0.14222E+07         0.00000E+00
    0.14222E+07         0.51543E+06         0.00000E+00
    0.00000E+00         0.00000E+00         0.11870E+06
 
    0.82023E+05         0.14528E+07         0.00000E+00
    0.14528E+07         0.51422E+06         0.00000E+00
    0.00000E+00         0.00000E+00         0.11925E+06
 
    0.85985E+05         0.14831E+07         0.00000E+00
    0.14831E+07         0.51296E+06         0.00000E+00
    0.00000E+00         0.00000E+00         0.11979E+06
 
    0.89959E+05         0.15130E+07         0.00000E+00
    0.15130E+07         0.51164E+06         0.00000E+00
    0.00000E+00         0.00000E+00         0.12032E+06
 
    0.93948E+05         0.15426E+07         0.00000E+00
    0.15426E+07         0.51027E+06         0.00000E+00
    0.00000E+00         0.00000E+00         0.12084E+06
 
    0.97954E+05         0.15718E+07         0.00000E+00
    0.15718E+07         0.50885E+06         0.00000E+00
    0.00000E+00         0.00000E+00         0.12136E+06
 
    0.10198E+06         0.16007E+07         0.00000E+00
    0.16007E+07         0.50737E+06         0.00000E+00
    0.00000E+00         0.00000E+00         0.12187E+06
 
    0.10602E+06         0.16292E+07         0.00000E+00
    0.16292E+07         0.50583E+06         0.00000E+00
    0.00000E+00         0.00000E+00         0.12237E+06
 
    0.11009E+06         0.16574E+07         0.00000E+00
    0.16574E+07         0.50423E+06         0.00000E+00
    0.00000E+00         0.00000E+00         0.12287E+06
 
    0.11419E+06         0.16851E+07         0.00000E+00
    0.16851E+07         0.50257E+06         0.00000E+00
    0.00000E+00         0.00000E+00         0.12335E+06
 
    0.11831E+06         0.17125E+07         0.00000E+00
    0.17125E+07         0.50085E+06         0.00000E+00
    0.00000E+00         0.00000E+00         0.12383E+06
 
    0.12246E+06         0.17396E+07         0.00000E+00
    0.17396E+07         0.49906E+06         0.00000E+00
    0.00000E+00         0.00000E+00         0.12430E+06
 
   -0.34998E+05         0.21402E+05         0.00000E+00
    0.21402E+05         0.36516E+06         0.00000E+00
    0.00000E+00         0.00000E+00         0.66032E+05
 
   -0.31993E+05         0.63596E+05         0.00000E+00
    0.63596E+05         0.36515E+06         0.00000E+00
    0.00000E+00         0.00000E+00         0.66631E+05
 
   -0.29013E+05         0.10553E+06         0.00000E+00
    0.10553E+06         0.36513E+06         0.00000E+00
    0.00000E+00         0.00000E+00         0.67223E+05
 
   -0.26059E+05         0.14719E+06         0.00000E+00
    0.14719E+06         0.36510E+06         0.00000E+00
    0.00000E+00         0.00000E+00         0.67809E+05
 
   -0.23131E+05         0.18858E+06         0.00000E+00
    0.18858E+06         0.36507E+06         0.00000E+00
    0.00000E+00         0.00000E+00         0.68387E+05
 
   -0.20230E+05         0.22970E+06         0.00000E+00
    0.22970E+06         0.36503E+06         0.00000E+00
    0.00000E+00         0.00000E+00         0.68959E+05
 
   -0.17355E+05         0.27054E+06         0.00000E+00
    0.27054E+06         0.36498E+06         0.00000E+00
    0.00000E+00         0.00000E+00         0.69524E+05
 
   -0.14509E+05         0.31110E+06         0.00000E+00
    0.31110E+06         0.36492E+06         0.00000E+00
    0.00000E+00         0.00000E+00         0.70082E+05
 
   -0.11690E+05         0.35139E+06         0.00000E+00
    0.35139E+06         0.36485E+06         0.00000E+00
    0.00000E+00         0.00000E+00         0.70633E+05
 
   -0.88991E+04         0.39139E+06         0.00000E+00
    0.39139E+06         0.36478E+06         0.00000E+00
    0.00000E+00         0.00000E+00         0.71176E+05
 
   -0.61365E+04         0.43110E+06         0.00000E+00
    0.43110E+06         0.36470E+06         0.00000E+00
    0.00000E+00         0.00000E+00         0.71713E+05
 
   -0.34021E+04         0.47052E+06         0.00000E+00
    0.47052E+06         0.36461E+06         0.00000E+00
    0.00000E+00         0.00000E+00         0.72242E+05
 
   -0.69577E+03         0.50966E+06         0.00000E+00
    0.50966E+06         0.36452E+06         0.00000E+00
    0.00000E+00         0.00000E+00         0.72765E+05
 
    0.19825E+04         0.54850E+06         0.00000E+00
    0.54850E+06         0.36442E+06         0.00000E+00
    0.00000E+00         0.00000E+00         0.73280E+05
 
    0.46329E+04         0.58704E+06         0.00000E+00
    0.58704E+06         0.36430E+06         0.00000E+00
    0.00000E+00         0.00000E+00         0.73787E+05
 
    0.72558E+04         0.62529E+06         0.00000E+00
    0.62529E+06         0.36418E+06         0.00000E+00
    0.00000E+00         0.00000E+00         0.74288E+05
 
    0.98515E+04         0.66323E+06         0.00000E+00
    0.66323E+06         0.36405E+06         0.00000E+00
    0.00000E+00         0.00000E+00         0.74781E+05
 
    0.12420E+05         0.70088E+06         0.00000E+00
    0.70088E+06         0.36391E+06         0.00000E+00
    0.00000E+00         0.00000E+00         0.75267E+05
 
    0.14963E+05         0.73821E+06         0.00000E+00
    0.73821E+06         0.36377E+06         0.00000E+00
    0.00000E+00         0.00000E+00         0.75746E+05
 
    0.17479E+05         0.77525E+06         0.00000E+00
    0.77525E+06         0.36361E+06         0.00000E+00
    0.00000E+00         0.00000E+00         0.76217E+05
 
    0.19971E+05         0.81197E+06         0.00000E+00
    0.81197E+06         0.36343E+06         0.00000E+00
    0.00000E+00         0.00000E+00         0.76681E+05
 
    0.22438E+05         0.84838E+06         0.00000E+00
    0.84838E+06         0.36325E+06         0.00000E+00
    0.00000E+00         0.00000E+00         0.77138E+05
 
    0.24881E+05         0.88448E+06         0.00000E+00
    0.88448E+06         0.36305E+06         0.00000E+00
    0.00000E+00         0.00000E+00         0.77587E+05
 
    0.27301E+05         0.92026E+06         0.00000E+00
    0.92026E+06         0.36284E+06         0.00000E+00
    0.00000E+00         0.00000E+00         0.78029E+05
 
    0.29700E+05         0.95573E+06         0.00000E+00
    0.95573E+06         0.36262E+06         0.00000E+00
    0.00000E+00         0.00000E+00         0.78463E+05
 
    0.32077E+05         0.99087E+06         0.00000E+00
    0.99087E+06         0.36238E+06         0.00000E+00
    0.00000E+00         0.00000E+00         0.78891E+05
 
    0.34433E+05         0.10257E+07         0.00000E+00
    0.10257E+07         0.36212E+06         0.00000E+00
    0.00000E+00         0.00000E+00         0.79311E+05
 
    0.36771E+05         0.10602E+07         0.00000E+00
    0.10602E+07         0.36185E+06         0.00000E+00
    0.00000E+00         0.00000E+00         0.79723E+05
 
    0.39090E+05         0.10944E+07         0.00000E+00
    0.10944E+07         0.36155E+06         0.00000E+00
    0.00000E+00         0.00000E+00         0.80129E+05
 
    0.41393E+05         0.11282E+07         0.00000E+00
    0.11282E+07         0.36124E+06         0.00000E+00
    0.00000E+00         0.00000E+00         0.80527E+05
 
    0.43679E+05         0.11617E+07         0.00000E+00
    0.11617E+07         0.36091E+06         0.00000E+00
    0.00000E+00         0.00000E+00         0.80918E+05
 
    0.45951E+05         0.11949E+07         0.00000E+00
    0.11949E+07         0.36056E+06         0.00000E+00
    0.00000E+00         0.00000E+00         0.81301E+05
 
    0.48210E+05         0.12278E+07         0.00000E+00
    0.12278E+07         0.36018E+06         0.00000E+00
    0.00000E+00         0.00000E+00         0.81678E+05
 
    0.50457E+05         0.12603E+07         0.00000E+00
    0.12603E+07         0.35978E+06         0.00000E+00
    0.00000E+00         0.00000E+00         0.82047E+05
 
    0.52693E+05         0.12924E+07         0.00000E+00
    0.12924E+07         0.35935E+06         0.00000E+00
    0.00000E+00         0.00000E+00         0.82409E+05
 
    0.54920E+05         0.13243E+07         0.00000E+00
    0.13243E+07         0.35890E+06         0.00000E+00
    0.00000E+00         0.00000E+00         0.82764E+05
 
    0.57139E+05         0.13557E+07         0.00000E+00
    0.13557E+07         0.35842E+06         0.00000E+00
    0.00000E+00         0.00000E+00         0.83112E+05
 
    0.59352E+05         0.13869E+07         0.00000E+00
    0.13869E+07         0.35791E+06         0.00000E+00
    0.00000E+00         0.00000E+00         0.83453E+05
 
    0.61560E+05         0.14177E+07         0.00000E+00
    0.14177E+07         0.35738E+06         0.00000E+00
    0.00000E+00         0.00000E+00         0.83787E+05
 
    0.63765E+05         0.14481E+07         0.00000E+00
    0.14481E+07         0.35680E+06         0.00000E+00
    0.00000E+00         0.00000E+00         0.84114E+05
 
    0.65969E+05         0.14782E+07         0.00000E+00
    0.14782E+07         0.35620E+06         0.00000E+00
    0.00000E+00         0.00000E+00         0.84434E+05
 
    0.68172E+05         0.15079E+07         0.00000E+00
    0.15079E+07         0.35556E+06         0.00000E+00
    0.00000E+00         0.00000E+00         0.84747E+05
 
    0.70377E+05         0.15373E+07         0.00000E+00
    0.15373E+07         0.35489E+06         0.00000E+00
    0.00000E+00         0.00000E+00         0.85054E+05
 
    0.72586E+05         0.15663E+07         0.00000E+00
    0.15663E+07         0.35418E+06         0.00000E+00
    0.00000E+00         0.00000E+00         0.85353E+05
 
    0.74799E+05         0.15949E+07         0.00000E+00
    0.15949E+07         0.35343E+06         0.00000E+00
    0.00000E+00         0.00000E+00         0.85646E+05
 
    0.77019E+05         0.16232E+07         0.00000E+00
    0.16232E+07         0.35264E+06         0.00000E+00
    0.00000E+00         0.00000E+00         0.85932E+05
 
    0.79248E+05         0.16511E+07         0.00000E+00
    0.16511E+07         0.35181E+06         0.00000E+00
    0.00000E+00         0.00000E+00         0.86212E+05
 
    0.81487E+05         0.16786E+07         0.00000E+00
    0.16786E+07         0.35094E+06         0.00000E+00
    0.00000E+00         0.00000E+00         0.86485E+05
 
    0.83739E+05         0.17057E+07         0.00000E+00
    0.17057E+07         0.35002E+06         0.00000E+00
    0.00000E+00         0.00000E+00         0.86752E+05
 
    0.86004E+05         0.17325E+07         0.00000E+00
    0.17325E+07         0.34905E+06         0.00000E+00
    0.00000E+00         0.00000E+00         0.87012E+05
 
    0.78308E+04         0.21395E+05         0.00000E+00
    0.21395E+05         0.19641E+06         0.00000E+00
    0.00000E+00         0.00000E+00         0.40849E+05
 
    0.95256E+04         0.63578E+05         0.00000E+00
    0.63578E+05         0.19642E+06         0.00000E+00
    0.00000E+00         0.00000E+00         0.41190E+05
 
    0.11181E+05         0.10550E+06         0.00000E+00
    0.10550E+06         0.19644E+06         0.00000E+00
    0.00000E+00         0.00000E+00         0.41524E+05
 
    0.12797E+05         0.14715E+06         0.00000E+00
    0.14715E+06         0.19647E+06         0.00000E+00
    0.00000E+00         0.00000E+00         0.41853E+05
 
    0.14373E+05         0.18853E+06         0.00000E+00
    0.18853E+06         0.19651E+06         0.00000E+00
    0.00000E+00         0.00000E+00         0.42176E+05
 
    0.15908E+05         0.22965E+06         0.00000E+00
    0.22965E+06         0.19656E+06         0.00000E+00
    0.00000E+00         0.00000E+00         0.42493E+05
 
    0.17403E+05         0.27048E+06         0.00000E+00
    0.27048E+06         0.19662E+06         0.00000E+00
    0.00000E+00         0.00000E+00         0.42804E+05
 
    0.18858E+05         0.31104E+06         0.00000E+00
    0.31104E+06         0.19669E+06         0.00000E+00
    0.00000E+00         0.00000E+00         0.43109E+05
 
    0.20271E+05         0.35131E+06         0.00000E+00
    0.35131E+06         0.19677E+06         0.00000E+00
    0.00000E+00         0.00000E+00         0.43408E+05
 
    0.21645E+05         0.39131E+06         0.00000E+00
    0.39131E+06         0.19686E+06         0.00000E+00
    0.00000E+00         0.00000E+00         0.43700E+05
 
    0.22977E+05         0.43101E+06         0.00000E+00
    0.43101E+06         0.19695E+06         0.00000E+00
    0.00000E+00         0.00000E+00         0.43986E+05
 
    0.24270E+05         0.47043E+06         0.00000E+00
    0.47043E+06         0.19706E+06         0.00000E+00
    0.00000E+00         0.00000E+00         0.44266E+05
 
    0.25522E+05         0.50955E+06         0.00000E+00
    0.50955E+06         0.19718E+06         0.00000E+00
    0.00000E+00         0.00000E+00         0.44540E+05
 
    0.26734E+05         0.54838E+06         0.00000E+00
    0.54838E+06         0.19730E+06         0.00000E+00
    0.00000E+00         0.00000E+00         0.44808E+05
 
    0.27907E+05         0.58691E+06         0.00000E+00
    0.58691E+06         0.19744E+06         0.00000E+00
    0.00000E+00         0.00000E+00         0.45069E+05
 
    0.29041E+05         0.62514E+06         0.00000E+00
    0.62514E+06         0.19758E+06         0.00000E+00
    0.00000E+00         0.00000E+00         0.45324E+05
 
    0.30136E+05         0.66307E+06         0.00000E+00
    0.66307E+06         0.19773E+06         0.00000E+00
    0.00000E+00         0.00000E+00         0.45572E+05
 
    0.31192E+05         0.70070E+06         0.00000E+00
    0.70070E+06         0.19788E+06         0.00000E+00
    0.00000E+00         0.00000E+00         0.45815E+05
 
    0.32211E+05         0.73801E+06         0.00000E+00
    0.73801E+06         0.19804E+06         0.00000E+00
    0.00000E+00         0.00000E+00         0.46050E+05
 
    0.33193E+05         0.77502E+06         0.00000E+00
    0.77502E+06         0.19821E+06         0.00000E+00
    0.00000E+00         0.00000E+00         0.46280E+05
 
    0.34138E+05         0.81172E+06         0.00000E+00
    0.81172E+06         0.19838E+06         0.00000E+00
    0.00000E+00         0.00000E+00         0.46503E+05
 
    0.35047E+05         0.84810E+06         0.00000E+00
    0.84810E+06         0.19855E+06         0.00000E+00
    0.00000E+00         0.00000E+00         0.46720E+05
 
    0.35921E+05         0.88417E+06         0.00000E+00
    0.88417E+06         0.19873E+06         0.00000E+00
    0.00000E+00         0.00000E+00         0.46930E+05
 
    0.36762E+05         0.91992E+06         0.00000E+00
    0.91992E+06         0.19891E+06         0.00000E+00
    0.00000E+00         0.00000E+00         0.47135E+05
 
    0.37568E+05         0.95534E+06         0.00000E+00
    0.95534E+06         0.19909E+06         0.00000E+00
    0.00000E+00         0.00000E+00         0.47332E+05
 
    0.38342E+05         0.99045E+06         0.00000E+00
    0.99045E+06         0.19928E+06         0.00000E+00
    0.00000E+00         0.00000E+00         0.47524E+05
 
    0.39084E+05         0.10252E+07         0.00000E+00
    0.10252E+07         0.19946E+06         0.00000E+00
    0.00000E+00         0.00000E+00         0.47709E+05
 
    0.39796E+05         0.10597E+07         0.00000E+00
    0.10597E+07         0.19964E+06         0.00000E+00
    0.00000E+00         0.00000E+00         0.47887E+05
 
    0.40478E+05         0.10938E+07         0.00000E+00
    0.10938E+07         0.19982E+06         0.00000E+00
    0.00000E+00         0.00000E+00         0.48059E+05
 
    0.41132E+05         0.11276E+07         0.00000E+00
    0.11276E+07         0.20000E+06         0.00000E+00
    0.00000E+00         0.00000E+00         0.48225E+05
 
    0.41758E+05         0.11610E+07         0.00000E+00
    0.11610E+07         0.20017E+06         0.00000E+00
    0.00000E+00         0.00000E+00         0.48385E+05
 
    0.42357E+05         0.11941E+07         0.00000E+00
    0.11941E+07         0.20034E+06         0.00000E+00
    0.00000E+00         0.00000E+00         0.48539E+05
 
    0.42931E+05         0.12269E+07         0.00000E+00
    0.12269E+07         0.20050E+06         0.00000E+00
    0.00000E+00         0.00000E+00         0.48686E+05
 
    0.43481E+05         0.12593E+07         0.00000E+00
    0.12593E+07         0.20065E+06         0.00000E+00
    0.00000E+00         0.00000E+00         0.48826E+05
 
    0.44009E+05         0.12914E+07         0.00000E+00
    0.12914E+07         0.20080E+06         0.00000E+00
    0.00000E+00         0.00000E+00         0.48961E+05
 
    0.44514E+05         0.13232E+07         0.00000E+00
    0.13232E+07         0.20093E+06         0.00000E+00
    0.00000E+00         0.00000E+00         0.49089E+05
 
    0.45000E+05         0.13546E+07         0.00000E+00
    0.13546E+07         0.20106E+06         0.00000E+00
    0.00000E+00         0.00000E+00         0.49212E+05
 
    0.45466E+05         0.13856E+07         0.00000E+00
    0.13856E+07         0.20117E+06         0.00000E+00
    0.00000E+00         0.00000E+00         0.49328E+05
 
    0.45915E+05         0.14163E+07         0.00000E+00
    0.14163E+07         0.20127E+06         0.00000E+00
    0.00000E+00         0.00000E+00         0.49438E+05
 
    0.46348E+05         0.14466E+07         0.00000E+00
    0.14466E+07         0.20136E+06         0.00000E+00
    0.00000E+00         0.00000E+00         0.49542E+05
 
    0.46765E+05         0.14766E+07         0.00000E+00
    0.14766E+07         0.20143E+06         0.00000E+00
    0.00000E+00         0.00000E+00         0.49639E+05
 
    0.47170E+05         0.15062E+07         0.00000E+00
    0.15062E+07         0.20149E+06         0.00000E+00
    0.00000E+00         0.00000E+00         0.49731E+05
 
    0.47562E+05         0.15354E+07         0.00000E+00
    0.15354E+07         0.20152E+06         0.00000E+00
    0.00000E+00         0.00000E+00         0.49817E+05
 
    0.47944E+05         0.15643E+07         0.00000E+00
    0.15643E+07         0.20154E+06         0.00000E+00
    0.00000E+00         0.00000E+00         0.49897E+05
 
    0.48317E+05         0.15928E+07         0.00000E+00
    0.15928E+07         0.20154E+06         0.00000E+00
    0.00000E+00         0.00000E+00         0.49971E+05
 
    0.48682E+05         0.16209E+07         0.00000E+00
    0.16209E+07         0.20151E+06         0.00000E+00
    0.00000E+00         0.00000E+00         0.50039E+05
 
    0.49041E+05         0.16487E+07         0.00000E+00
    0.16487E+07         0.20146E+06         0.00000E+00
    0.00000E+00         0.00000E+00         0.50101E+05
 
    0.49396E+05         0.16761E+07         0.00000E+00
    0.16761E+07         0.20139E+06         0.00000E+00
    0.00000E+00         0.00000E+00         0.50157E+05
 
    0.49748E+05         0.17031E+07         0.00000E+00
    0.17031E+07         0.20129E+06         0.00000E+00
    0.00000E+00         0.00000E+00         0.50208E+05
 
    0.50099E+05         0.17297E+07         0.00000E+00
    0.17297E+07         0.20117E+06         0.00000E+00
    0.00000E+00         0.00000E+00         0.50253E+05
 
    0.51718E+05         0.21433E+05         0.00000E+00
    0.21433E+05         0.28562E+05         0.00000E+00
    0.00000E+00         0.00000E+00         0.16056E+05
 
    0.52108E+05         0.63694E+05         0.00000E+00
    0.63694E+05         0.28591E+05         0.00000E+00
    0.00000E+00         0.00000E+00         0.16140E+05
 
    0.52443E+05         0.10569E+06         0.00000E+00
    0.10569E+06         0.28649E+05         0.00000E+00
    0.00000E+00         0.00000E+00         0.16218E+05
 
    0.52724E+05         0.14742E+06         0.00000E+00
    0.14742E+06         0.28736E+05         0.00000E+00
    0.00000E+00         0.00000E+00         0.16292E+05
 
    0.52949E+05         0.18889E+06         0.00000E+00
    0.18889E+06         0.28851E+05         0.00000E+00
    0.00000E+00         0.00000E+00         0.16360E+05
 
    0.53120E+05         0.23008E+06         0.00000E+00
    0.23008E+06         0.28995E+05         0.00000E+00
    0.00000E+00         0.00000E+00         0.16423E+05
 
    0.53236E+05         0.27099E+06         0.00000E+00
    0.27099E+06         0.29168E+05         0.00000E+00
    0.00000E+00         0.00000E+00         0.16481E+05
 
    0.53297E+05         0.31162E+06         0.00000E+00
    0.31162E+06         0.29368E+05         0.00000E+00
    0.00000E+00         0.00000E+00         0.16533E+05
 
    0.53304E+05         0.35198E+06         0.00000E+00
    0.35198E+06         0.29596E+05         0.00000E+00
    0.00000E+00         0.00000E+00         0.16580E+05
 
    0.53257E+05         0.39204E+06         0.00000E+00
    0.39204E+06         0.29851E+05         0.00000E+00
    0.00000E+00         0.00000E+00         0.16622E+05
 
    0.53156E+05         0.43182E+06         0.00000E+00
    0.43182E+06         0.30134E+05         0.00000E+00
    0.00000E+00         0.00000E+00         0.16658E+05
 
    0.53001E+05         0.47131E+06         0.00000E+00
    0.47131E+06         0.30442E+05         0.00000E+00
    0.00000E+00         0.00000E+00         0.16689E+05
 
    0.52793E+05         0.51051E+06         0.00000E+00
    0.51051E+06         0.30777E+05         0.00000E+00
    0.00000E+00         0.00000E+00         0.16714E+05
 
    0.52533E+05         0.54941E+06         0.00000E+00
    0.54941E+06         0.31138E+05         0.00000E+00
    0.00000E+00         0.00000E+00         0.16734E+05
 
    0.52221E+05         0.58801E+06         0.00000E+00
    0.58801E+06         0.31523E+05         0.00000E+00
    0.00000E+00         0.00000E+00         0.16749E+05
 
    0.51856E+05         0.62631E+06         0.00000E+00
    0.62631E+06         0.31933E+05         0.00000E+00
    0.00000E+00         0.00000E+00         0.16758E+05
 
    0.51441E+05         0.66430E+06         0.00000E+00
    0.66430E+06         0.32367E+05         0.00000E+00
    0.00000E+00         0.00000E+00         0.16762E+05
 
    0.50975E+05         0.70199E+06         0.00000E+00
    0.70199E+06         0.32824E+05         0.00000E+00
    0.00000E+00         0.00000E+00         0.16760E+05
 
    0.50459E+05         0.73937E+06         0.00000E+00
    0.73937E+06         0.33303E+05         0.00000E+00
    0.00000E+00         0.00000E+00         0.16752E+05
 
    0.49894E+05         0.77644E+06         0.00000E+00
    0.77644E+06         0.33805E+05         0.00000E+00
    0.00000E+00         0.00000E+00         0.16740E+05
 
    0.49280E+05         0.81319E+06         0.00000E+00
    0.81319E+06         0.34327E+05         0.00000E+00
    0.00000E+00         0.00000E+00         0.16721E+05
 
    0.48618E+05         0.84962E+06         0.00000E+00
    0.84962E+06         0.34870E+05         0.00000E+00
    0.00000E+00         0.00000E+00         0.16698E+05
 
    0.47909E+05         0.88574E+06         0.00000E+00
    0.88574E+06         0.35433E+05         0.00000E+00
    0.00000E+00         0.00000E+00         0.16668E+05
 
    0.47154E+05         0.92153E+06         0.00000E+00
    0.92153E+06         0.36015E+05         0.00000E+00
    0.00000E+00         0.00000E+00         0.16634E+05
 
    0.46353E+05         0.95700E+06         0.00000E+00
    0.95700E+06         0.36614E+05         0.00000E+00
    0.00000E+00         0.00000E+00         0.16594E+05
 
    0.45508E+05         0.99215E+06         0.00000E+00
    0.99215E+06         0.37231E+05         0.00000E+00
    0.00000E+00         0.00000E+00         0.16548E+05
 
    0.44619E+05         0.10270E+07         0.00000E+00
    0.10270E+07         0.37864E+05         0.00000E+00
    0.00000E+00         0.00000E+00         0.16497E+05
 
    0.43687E+05         0.10614E+07         0.00000E+00
    0.10614E+07         0.38513E+05         0.00000E+00
    0.00000E+00         0.00000E+00         0.16440E+05
 
    0.42714E+05         0.10956E+07         0.00000E+00
    0.10956E+07         0.39176E+05         0.00000E+00
    0.00000E+00         0.00000E+00         0.16378E+05
 
    0.41699E+05         0.11294E+07         0.00000E+00
    0.11294E+07         0.39852E+05         0.00000E+00
    0.00000E+00         0.00000E+00         0.16310E+05
 
    0.40645E+05         0.11629E+07         0.00000E+00
    0.11629E+07         0.40542E+05         0.00000E+00
    0.00000E+00         0.00000E+00         0.16237E+05
 
    0.39552E+05         0.11960E+07         0.00000E+00
    0.11960E+07         0.41242E+05         0.00000E+00
    0.00000E+00         0.00000E+00         0.16159E+05
 
    0.38421E+05         0.12288E+07         0.00000E+00
    0.12288E+07         0.41954E+05         0.00000E+00
    0.00000E+00         0.00000E+00         0.16075E+05
 
    0.37253E+05         0.12612E+07         0.00000E+00
    0.12612E+07         0.42675E+05         0.00000E+00
    0.00000E+00         0.00000E+00         0.15986E+05
 
    0.36050E+05         0.12933E+07         0.00000E+00
    0.12933E+07         0.43405E+05         0.00000E+00
    0.00000E+00         0.00000E+00         0.15891E+05
 
    0.34812E+05         0.13251E+07         0.00000E+00
    0.13251E+07         0.44142E+05         0.00000E+00
    0.00000E+00         0.00000E+00         0.15791E+05
 
    0.33541E+05         0.13565E+07         0.00000E+00
    0.13565E+07         0.44885E+05         0.00000E+00
    0.00000E+00         0.00000E+00         0.15685E+05
 
    0.32238E+05         0.13875E+07         0.00000E+00
    0.13875E+07         0.45634E+05         0.00000E+00
    0.00000E+00         0.00000E+00         0.15574E+05
 
    0.30904E+05         0.14182E+07         0.00000E+00
    0.14182E+07         0.46388E+05         0.00000E+00
    0.00000E+00         0.00000E+00         0.15458E+05
 
    0.29540E+05         0.14485E+07         0.00000E+00
    0.14485E+07         0.47144E+05         0.00000E+00
    0.00000E+00         0.00000E+00         0.15337E+05
 
    0.28148E+05         0.14784E+07         0.00000E+00
    0.14784E+07         0.47903E+05         0.00000E+00
    0.00000E+00         0.00000E+00         0.15210E+05
 
    0.26729E+05         0.15080E+07         0.00000E+00
    0.15080E+07         0.48662E+05         0.00000E+00
    0.00000E+00         0.00000E+00         0.15078E+05
 
    0.25283E+05         0.15372E+07         0.00000E+00
    0.15372E+07         0.49422E+05         0.00000E+00
    0.00000E+00         0.00000E+00         0.14941E+05
 
    0.23813E+05         0.15661E+07         0.00000E+00
    0.15661E+07         0.50180E+05         0.00000E+00
    0.00000E+00         0.00000E+00         0.14799E+05
 
    0.22320E+05         0.15945E+07         0.00000E+00
    0.15945E+07         0.50935E+05         0.00000E+00
    0.00000E+00         0.00000E+00         0.14651E+05
 
    0.20804E+05         0.16226E+07         0.00000E+00
    0.16226E+07         0.51687E+05         0.00000E+00
    0.00000E+00         0.00000E+00         0.14498E+05
 
    0.19268E+05         0.16503E+07         0.00000E+00
    0.16503E+07         0.52433E+05         0.00000E+00
    0.00000E+00         0.00000E+00         0.14340E+05
 
    0.17712E+05         0.16776E+07         0.00000E+00
    0.16776E+07         0.53174E+05         0.00000E+00
    0.00000E+00         0.00000E+00         0.14177E+05
 
    0.16138E+05         0.17046E+07         0.00000E+00
    0.17046E+07         0.53908E+05         0.00000E+00
    0.00000E+00         0.00000E+00         0.14009E+05
 
    0.14547E+05         0.17311E+07         0.00000E+00
    0.17311E+07         0.54632E+05         0.00000E+00
    0.00000E+00         0.00000E+00         0.13836E+05
 
    0.96449E+05         0.21518E+05         0.00000E+00
    0.21518E+05        -0.13906E+06         0.00000E+00
    0.00000E+00         0.00000E+00        -0.85223E+04
 
    0.95535E+05         0.63947E+05         0.00000E+00
    0.63947E+05        -0.13901E+06         0.00000E+00
    0.00000E+00         0.00000E+00        -0.86952E+04
 
    0.94550E+05         0.10611E+06         0.00000E+00
    0.10611E+06        -0.13891E+06         0.00000E+00
    0.00000E+00         0.00000E+00        -0.88727E+04
 
    0.93494E+05         0.14801E+06         0.00000E+00
    0.14801E+06        -0.13877E+06         0.00000E+00
    0.00000E+00         0.00000E+00        -0.90547E+04
 
    0.92368E+05         0.18964E+06         0.00000E+00
    0.18964E+06        -0.13857E+06         0.00000E+00
    0.00000E+00         0.00000E+00        -0.92413E+04
 
    0.91171E+05         0.23100E+06         0.00000E+00
    0.23100E+06        -0.13833E+06         0.00000E+00
    0.00000E+00         0.00000E+00        -0.94324E+04
 
    0.89904E+05         0.27208E+06         0.00000E+00
    0.27208E+06        -0.13804E+06         0.00000E+00
    0.00000E+00         0.00000E+00        -0.96281E+04
 
    0.88568E+05         0.31288E+06         0.00000E+00
    0.31288E+06        -0.13771E+06         0.00000E+00
    0.00000E+00         0.00000E+00        -0.98284E+04
 
    0.87163E+05         0.35339E+06         0.00000E+00
    0.35339E+06        -0.13733E+06         0.00000E+00
    0.00000E+00         0.00000E+00        -0.10033E+05
 
    0.85690E+05         0.39362E+06         0.00000E+00
    0.39362E+06        -0.13690E+06         0.00000E+00
    0.00000E+00         0.00000E+00        -0.10243E+05
 
    0.84149E+05         0.43356E+06         0.00000E+00
    0.43356E+06        -0.13643E+06         0.00000E+00
    0.00000E+00         0.00000E+00        -0.10457E+05
 
    0.82540E+05         0.47321E+06         0.00000E+00
    0.47321E+06        -0.13592E+06         0.00000E+00
    0.00000E+00         0.00000E+00        -0.10676E+05
 
    0.80865E+05         0.51256E+06         0.00000E+00
    0.51256E+06        -0.13536E+06         0.00000E+00
    0.00000E+00         0.00000E+00        -0.10899E+05
 
    0.79124E+05         0.55161E+06         0.00000E+00
    0.55161E+06        -0.13476E+06         0.00000E+00
    0.00000E+00         0.00000E+00        -0.11127E+05
 
    0.77317E+05         0.59037E+06         0.00000E+00
    0.59037E+06        -0.13412E+06         0.00000E+00
    0.00000E+00         0.00000E+00        -0.11360E+05
 
    0.75445E+05         0.62882E+06         0.00000E+00
    0.62882E+06        -0.13343E+06         0.00000E+00
    0.00000E+00         0.00000E+00        -0.11597E+05
 
    0.73509E+05         0.66696E+06         0.00000E+00
    0.66696E+06        -0.13271E+06         0.00000E+00
    0.00000E+00         0.00000E+00        -0.11839E+05
 
    0.71510E+05         0.70479E+06         0.00000E+00
    0.70479E+06        -0.13194E+06         0.00000E+00
    0.00000E+00         0.00000E+00        -0.12086E+05
 
    0.69448E+05         0.74231E+06         0.00000E+00
    0.74231E+06        -0.13114E+06         0.00000E+00
    0.00000E+00         0.00000E+00        -0.12337E+05
 
    0.67323E+05         0.77952E+06         0.00000E+00
    0.77952E+06        -0.13029E+06         0.00000E+00
    0.00000E+00         0.00000E+00        -0.12593E+05
 
    0.65138E+05         0.81641E+06         0.00000E+00
    0.81641E+06        -0.12941E+06         0.00000E+00
    0.00000E+00         0.00000E+00        -0.12854E+05
 
    0.62892E+05         0.85298E+06         0.00000E+00
    0.85298E+06        -0.12849E+06         0.00000E+00
    0.00000E+00         0.00000E+00        -0.13120E+05
 
    0.60586E+05         0.88923E+06         0.00000E+00
    0.88923E+06        -0.12753E+06         0.00000E+00
    0.00000E+00         0.00000E+00        -0.13390E+05
 
    0.58222E+05         0.92516E+06         0.00000E+00
    0.92516E+06        -0.12654E+06         0.00000E+00
    0.00000E+00         0.00000E+00        -0.13664E+05
 
    0.55799E+05         0.96075E+06         0.00000E+00
    0.96075E+06        -0.12552E+06         0.00000E+00
    0.00000E+00         0.00000E+00        -0.13944E+05
 
    0.53319E+05         0.99602E+06         0.00000E+00
    0.99602E+06        -0.12446E+06         0.00000E+00
    0.00000E+00         0.00000E+00        -0.14228E+05
 
    0.50783E+05         0.10310E+07         0.00000E+00
    0.10310E+07        -0.12337E+06         0.00000E+00
    0.00000E+00         0.00000E+00        -0.14517E+05
 
    0.48191E+05         0.10656E+07         0.00000E+00
    0.10656E+07        -0.12224E+06         0.00000E+00
    0.00000E+00         0.00000E+00        -0.14810E+05
 
    0.45545E+05         0.10998E+07         0.00000E+00
    0.10998E+07        -0.12109E+06         0.00000E+00
    0.00000E+00         0.00000E+00        -0.15108E+05
 
    0.42846E+05         0.11337E+07         0.00000E+00
    0.11337E+07        -0.11990E+06         0.00000E+00
    0.00000E+00         0.00000E+00        -0.15411E+05
 
    0.40094E+05         0.11673E+07         0.00000E+00
    0.11673E+07        -0.11868E+06         0.00000E+00
    0.00000E+00         0.00000E+00        -0.15718E+05
 
    0.37290E+05         0.12006E+07         0.00000E+00
    0.12006E+07        -0.11744E+06         0.00000E+00
    0.00000E+00         0.00000E+00        -0.16030E+05
 
    0.34435E+05         0.12334E+07         0.00000E+00
    0.12334E+07        -0.11617E+06         0.00000E+00
    0.00000E+00         0.00000E+00        -0.16347E+05
 
    0.31531E+05         0.12660E+07         0.00000E+00
    0.12660E+07        -0.11487E+06         0.00000E+00
    0.00000E+00         0.00000E+00        -0.16668E+05
 
    0.28578E+05         0.12982E+07         0.00000E+00
    0.12982E+07        -0.11355E+06         0.00000E+00
    0.00000E+00         0.00000E+00        -0.16994E+05
 
    0.25577E+05         0.13300E+07         0.00000E+00
    0.13300E+07        -0.11220E+06         0.00000E+00
    0.00000E+00         0.00000E+00        -0.17324E+05
 
    0.22530E+05         0.13615E+07         0.00000E+00
    0.13615E+07        -0.11083E+06         0.00000E+00
    0.00000E+00         0.00000E+00        -0.17659E+05
 
    0.19437E+05         0.13926E+07         0.00000E+00
    0.13926E+07        -0.10943E+06         0.00000E+00
    0.00000E+00         0.00000E+00        -0.17999E+05
 
    0.16300E+05         0.14233E+07         0.00000E+00
    0.14233E+07        -0.10802E+06         0.00000E+00
    0.00000E+00         0.00000E+00        -0.18343E+05
 
    0.13119E+05         0.14537E+07         0.00000E+00
    0.14537E+07        -0.10658E+06         0.00000E+00
    0.00000E+00         0.00000E+00        -0.18692E+05
 
    0.98951E+04         0.14837E+07         0.00000E+00
    0.14837E+07        -0.10512E+06         0.00000E+00
    0.00000E+00         0.00000E+00        -0.19045E+05
 
    0.66304E+04         0.15134E+07         0.00000E+00
    0.15134E+07        -0.10365E+06         0.00000E+00
    0.00000E+00         0.00000E+00        -0.19403E+05
 
    0.33255E+04         0.15427E+07         0.00000E+00
    0.15427E+07        -0.10215E+06         0.00000E+00
    0.00000E+00         0.00000E+00        -0.19766E+05
 
   -0.18594E+02         0.15716E+07         0.00000E+00
    0.15716E+07        -0.10065E+06         0.00000E+00
    0.00000E+00         0.00000E+00        -0.20133E+05
 
   -0.34007E+04         0.16001E+07         0.00000E+00
    0.16001E+07        -0.99121E+05         0.00000E+00
    0.00000E+00         0.00000E+00        -0.20504E+05
 
   -0.68196E+04         0.16282E+07         0.00000E+00
    0.16282E+07        -0.97582E+05         0.00000E+00
    0.00000E+00         0.00000E+00        -0.20880E+05
 
   -0.10274E+05         0.16560E+07         0.00000E+00
    0.16560E+07        -0.96029E+05         0.00000E+00
    0.00000E+00         0.00000E+00        -0.21261E+05
 
   -0.13764E+05         0.16833E+07         0.00000E+00
    0.16833E+07        -0.94464E+05         0.00000E+00
    0.00000E+00         0.00000E+00        -0.21646E+05
 
   -0.17286E+05         0.17103E+07         0.00000E+00
    0.17103E+07        -0.92888E+05         0.00000E+00
    0.00000E+00         0.00000E+00        -0.22035E+05
 
   -0.20841E+05         0.17369E+07         0.00000E+00
    0.17369E+07        -0.91302E+05         0.00000E+00
    0.00000E+00         0.00000E+00        -0.22429E+05
 
    0.14182E+06         0.21650E+05         0.00000E+00
    0.21650E+05        -0.30712E+06         0.00000E+00
    0.00000E+00         0.00000E+00        -0.33060E+05
 
    0.13960E+06         0.64341E+05         0.00000E+00
    0.64341E+05        -0.30705E+06         0.00000E+00
    0.00000E+00         0.00000E+00        -0.33490E+05
 
    0.13729E+06         0.10677E+06         0.00000E+00
    0.10677E+06        -0.30691E+06         0.00000E+00
    0.00000E+00         0.00000E+00        -0.33925E+05
 
    0.13489E+06         0.14893E+06         0.00000E+00
    0.14893E+06        -0.30671E+06         0.00000E+00
    0.00000E+00         0.00000E+00        -0.34363E+05
 
    0.13241E+06         0.19081E+06         0.00000E+00
    0.19081E+06        -0.30643E+06         0.00000E+00
    0.00000E+00         0.00000E+00        -0.34805E+05
 
    0.12984E+06         0.23242E+06         0.00000E+00
    0.23242E+06        -0.30609E+06         0.00000E+00
    0.00000E+00         0.00000E+00        -0.35251E+05
 
    0.12718E+06         0.27376E+06         0.00000E+00
    0.27376E+06        -0.30569E+06         0.00000E+00
    0.00000E+00         0.00000E+00        -0.35701E+05
 
    0.12444E+06         0.31481E+06         0.00000E+00
    0.31481E+06        -0.30522E+06         0.00000E+00
    0.00000E+00         0.00000E+00        -0.36155E+05
 
    0.12161E+06         0.35557E+06         0.00000E+00
    0.35557E+06        -0.30468E+06         0.00000E+00
    0.00000E+00         0.00000E+00        -0.36613E+05
 
    0.11871E+06         0.39605E+06         0.00000E+00
    0.39605E+06        -0.30408E+06         0.00000E+00
    0.00000E+00         0.00000E+00        -0.37075E+05
 
    0.11572E+06         0.43624E+06         0.00000E+00
    0.43624E+06        -0.30342E+06         0.00000E+00
    0.00000E+00         0.00000E+00        -0.37541E+05
 
    0.11265E+06         0.47613E+06         0.00000E+00
    0.47613E+06        -0.30270E+06         0.00000E+00
    0.00000E+00         0.00000E+00        -0.38010E+05
 
    0.10949E+06         0.51572E+06         0.00000E+00
    0.51572E+06        -0.30191E+06         0.00000E+00
    0.00000E+00         0.00000E+00        -0.38484E+05
 
    0.10626E+06         0.55501E+06         0.00000E+00
    0.55501E+06        -0.30107E+06         0.00000E+00
    0.00000E+00         0.00000E+00        -0.38961E+05
 
    0.10295E+06         0.59401E+06         0.00000E+00
    0.59401E+06        -0.30016E+06         0.00000E+00
    0.00000E+00         0.00000E+00        -0.39442E+05
 
    0.99559E+05         0.63269E+06         0.00000E+00
    0.63269E+06        -0.29920E+06         0.00000E+00
    0.00000E+00         0.00000E+00        -0.39928E+05
 
    0.96092E+05         0.67106E+06         0.00000E+00
    0.67106E+06        -0.29817E+06         0.00000E+00
    0.00000E+00         0.00000E+00        -0.40417E+05
 
    0.92547E+05         0.70913E+06         0.00000E+00
    0.70913E+06        -0.29709E+06         0.00000E+00
    0.00000E+00         0.00000E+00        -0.40910E+05
 
    0.88927E+05         0.74688E+06         0.00000E+00
    0.74688E+06        -0.29596E+06         0.00000E+00
    0.00000E+00         0.00000E+00        -0.41406E+05
 
    0.85231E+05         0.78431E+06         0.00000E+00
    0.78431E+06        -0.29477E+06         0.00000E+00
    0.00000E+00         0.00000E+00        -0.41907E+05
 
    0.81461E+05         0.82142E+06         0.00000E+00
    0.82142E+06        -0.29352E+06         0.00000E+00
    0.00000E+00         0.00000E+00        -0.42412E+05
 
    0.77618E+05         0.85821E+06         0.00000E+00
    0.85821E+06        -0.29222E+06         0.00000E+00
    0.00000E+00         0.00000E+00        -0.42920E+05
 
    0.73702E+05         0.89468E+06         0.00000E+00
    0.89468E+06        -0.29086E+06         0.00000E+00
    0.00000E+00         0.00000E+00        -0.43433E+05
 
    0.69714E+05         0.93082E+06         0.00000E+00
    0.93082E+06        -0.28946E+06         0.00000E+00
    0.00000E+00         0.00000E+00        -0.43949E+05
 
    0.65655E+05         0.96663E+06         0.00000E+00
    0.96663E+06        -0.28800E+06         0.00000E+00
    0.00000E+00         0.00000E+00        -0.44469E+05
 
    0.61526E+05         0.10021E+07         0.00000E+00
    0.10021E+07        -0.28649E+06         0.00000E+00
    0.00000E+00         0.00000E+00        -0.44993E+05
 
    0.57328E+05         0.10372E+07         0.00000E+00
    0.10372E+07        -0.28493E+06         0.00000E+00
    0.00000E+00         0.00000E+00        -0.45521E+05
 
    0.53062E+05         0.10720E+07         0.00000E+00
    0.10720E+07        -0.28333E+06         0.00000E+00
    0.00000E+00         0.00000E+00        -0.46053E+05
 
    0.48728E+05         0.11065E+07         0.00000E+00
    0.11065E+07        -0.28167E+06         0.00000E+00
    0.00000E+00         0.00000E+00        -0.46588E+05
 
    0.44328E+05         0.11406E+07         0.00000E+00
    0.11406E+07        -0.27997E+06         0.00000E+00
    0.00000E+00         0.00000E+00        -0.47128E+05
 
    0.39862E+05         0.11744E+07         0.00000E+00
    0.11744E+07        -0.27822E+06         0.00000E+00
    0.00000E+00         0.00000E+00        -0.47671E+05
 
    0.35331E+05         0.12078E+07         0.00000E+00
    0.12078E+07        -0.27642E+06         0.00000E+00
    0.00000E+00         0.00000E+00        -0.48218E+05
 
    0.30736E+05         0.12409E+07         0.00000E+00
    0.12409E+07        -0.27458E+06         0.00000E+00
    0.00000E+00         0.00000E+00        -0.48770E+05
 
    0.26079E+05         0.12736E+07         0.00000E+00
    0.12736E+07        -0.27270E+06         0.00000E+00
    0.00000E+00         0.00000E+00        -0.49325E+05
 
    0.21359E+05         0.13060E+07         0.00000E+00
    0.13060E+07        -0.27078E+06         0.00000E+00
    0.00000E+00         0.00000E+00        -0.49883E+05
 
    0.16578E+05         0.13380E+07         0.00000E+00
    0.13380E+07        -0.26881E+06         0.00000E+00
    0.00000E+00         0.00000E+00        -0.50446E+05
 
    0.11737E+05         0.13696E+07         0.00000E+00
    0.13696E+07        -0.26680E+06         0.00000E+00
    0.00000E+00         0.00000E+00        -0.51013E+05
 
    0.68364E+04         0.14009E+07         0.00000E+00
    0.14009E+07        -0.26475E+06         0.00000E+00
    0.00000E+00         0.00000E+00        -0.51583E+05
 
    0.18776E+04         0.14318E+07         0.00000E+00
    0.14318E+07        -0.26267E+06         0.00000E+00
    0.00000E+00         0.00000E+00        -0.52158E+05
 
   -0.31388E+04         0.14624E+07         0.00000E+00
    0.14624E+07        -0.26054E+06         0.00000E+00
    0.00000E+00         0.00000E+00        -0.52736E+05
 
   -0.82117E+04         0.14926E+07         0.00000E+00
    0.14926E+07        -0.25838E+06         0.00000E+00
    0.00000E+00         0.00000E+00        -0.53318E+05
 
   -0.13340E+05         0.15224E+07         0.00000E+00
    0.15224E+07        -0.25618E+06         0.00000E+00
    0.00000E+00         0.00000E+00        -0.53904E+05
 
   -0.18523E+05         0.15518E+07         0.00000E+00
    0.15518E+07        -0.25394E+06         0.00000E+00
    0.00000E+00         0.00000E+00        -0.54493E+05
 
   -0.23760E+05         0.15809E+07         0.00000E+00
    0.15809E+07        -0.25167E+06         0.00000E+00
    0.00000E+00         0.00000E+00        -0.55087E+05
 
   -0.29050E+05         0.16095E+07         0.00000E+00
    0.16095E+07        -0.24937E+06         0.00000E+00
    0.00000E+00         0.00000E+00        -0.55684E+05
 
   -0.34392E+05         0.16378E+07         0.00000E+00
    0.16378E+07        -0.24704E+06         0.00000E+00
    0.00000E+00         0.00000E+00        -0.56286E+05
 
   -0.39784E+05         0.16657E+07         0.00000E+00
    0.16657E+07        -0.24467E+06         0.00000E+00
    0.00000E+00         0.00000E+00        -0.56891E+05
 
   -0.45226E+05         0.16932E+07         0.00000E+00
    0.16932E+07        -0.24227E+06         0.00000E+00
    0.00000E+00         0.00000E+00        -0.57500E+05
 
   -0.50718E+05         0.17203E+07         0.00000E+00
    0.17203E+07        -0.23985E+06         0.00000E+00
    0.00000E+00         0.00000E+00        -0.58113E+05
 
   -0.56257E+05         0.17470E+07         0.00000E+00
    0.17470E+07        -0.23739E+06         0.00000E+00
    0.00000E+00         0.00000E+00        -0.58729E+05
 
    0.18764E+06         0.21831E+05         0.00000E+00
    0.21831E+05        -0.47628E+06         0.00000E+00
    0.00000E+00         0.00000E+00        -0.57729E+05
 
    0.18410E+06         0.64878E+05         0.00000E+00
    0.64878E+05        -0.47619E+06         0.00000E+00
    0.00000E+00         0.00000E+00        -0.58419E+05
 
    0.18045E+06         0.10766E+06         0.00000E+00
    0.10766E+06        -0.47601E+06         0.00000E+00
    0.00000E+00         0.00000E+00        -0.59112E+05
 
    0.17670E+06         0.15017E+06         0.00000E+00
    0.15017E+06        -0.47575E+06         0.00000E+00
    0.00000E+00         0.00000E+00        -0.59809E+05
 
    0.17285E+06         0.19240E+06         0.00000E+00
    0.19240E+06        -0.47539E+06         0.00000E+00
    0.00000E+00         0.00000E+00        -0.60508E+05
 
    0.16890E+06         0.23436E+06         0.00000E+00
    0.23436E+06        -0.47495E+06         0.00000E+00
    0.00000E+00         0.00000E+00        -0.61211E+05
 
    0.16484E+06         0.27603E+06         0.00000E+00
    0.27603E+06        -0.47443E+06         0.00000E+00
    0.00000E+00         0.00000E+00        -0.61918E+05
 
    0.16068E+06         0.31743E+06         0.00000E+00
    0.31743E+06        -0.47382E+06         0.00000E+00
    0.00000E+00         0.00000E+00        -0.62627E+05
 
    0.15643E+06         0.35853E+06         0.00000E+00
    0.35853E+06        -0.47313E+06         0.00000E+00
    0.00000E+00         0.00000E+00        -0.63340E+05
 
    0.15208E+06         0.39934E+06         0.00000E+00
    0.39934E+06        -0.47235E+06         0.00000E+00
    0.00000E+00         0.00000E+00        -0.64056E+05
 
    0.14763E+06         0.43986E+06         0.00000E+00
    0.43986E+06        -0.47150E+06         0.00000E+00
    0.00000E+00         0.00000E+00        -0.64775E+05
 
    0.14308E+06         0.48008E+06         0.00000E+00
    0.48008E+06        -0.47057E+06         0.00000E+00
    0.00000E+00         0.00000E+00        -0.65497E+05
 
    0.13844E+06         0.52001E+06         0.00000E+00
    0.52001E+06        -0.46955E+06         0.00000E+00
    0.00000E+00         0.00000E+00        -0.66223E+05
 
    0.13370E+06         0.55963E+06         0.00000E+00
    0.55963E+06        -0.46846E+06         0.00000E+00
    0.00000E+00         0.00000E+00        -0.66951E+05
 
    0.12887E+06         0.59894E+06         0.00000E+00
    0.59894E+06        -0.46729E+06         0.00000E+00
    0.00000E+00         0.00000E+00        -0.67683E+05
 
    0.12395E+06         0.63794E+06         0.00000E+00
    0.63794E+06        -0.46604E+06         0.00000E+00
    0.00000E+00         0.00000E+00        -0.68418E+05
 
    0.11894E+06         0.67664E+06         0.00000E+00
    0.67664E+06        -0.46472E+06         0.00000E+00
    0.00000E+00         0.00000E+00        -0.69156E+05
 
    0.11384E+06         0.71502E+06         0.00000E+00
    0.71502E+06        -0.46332E+06         0.00000E+00
    0.00000E+00         0.00000E+00        -0.69897E+05
 
    0.10865E+06         0.75308E+06         0.00000E+00
    0.75308E+06        -0.46185E+06         0.00000E+00
    0.00000E+00         0.00000E+00        -0.70641E+05
 
    0.10337E+06         0.79082E+06         0.00000E+00
    0.79082E+06        -0.46031E+06         0.00000E+00
    0.00000E+00         0.00000E+00        -0.71388E+05
 
    0.98001E+05         0.82824E+06         0.00000E+00
    0.82824E+06        -0.45869E+06         0.00000E+00
    0.00000E+00         0.00000E+00        -0.72139E+05
 
    0.92547E+05         0.86534E+06         0.00000E+00
    0.86534E+06        -0.45701E+06         0.00000E+00
    0.00000E+00         0.00000E+00        -0.72892E+05
 
    0.87008E+05         0.90210E+06         0.00000E+00
    0.90210E+06        -0.45525E+06         0.00000E+00
    0.00000E+00         0.00000E+00        -0.73649E+05
 
    0.81383E+05         0.93854E+06         0.00000E+00
    0.93854E+06        -0.45343E+06         0.00000E+00
    0.00000E+00         0.00000E+00        -0.74408E+05
 
    0.75675E+05         0.97465E+06         0.00000E+00
    0.97465E+06        -0.45153E+06         0.00000E+00
    0.00000E+00         0.00000E+00        -0.75171E+05
 
    0.69883E+05         0.10104E+07         0.00000E+00
    0.10104E+07        -0.44957E+06         0.00000E+00
    0.00000E+00         0.00000E+00        -0.75937E+05
 
    0.64009E+05         0.10458E+07         0.00000E+00
    0.10458E+07        -0.44754E+06         0.00000E+00
    0.00000E+00         0.00000E+00        -0.76706E+05
 
    0.58054E+05         0.10809E+07         0.00000E+00
    0.10809E+07        -0.44544E+06         0.00000E+00
    0.00000E+00         0.00000E+00        -0.77478E+05
 
    0.52019E+05         0.11157E+07         0.00000E+00
    0.11157E+07        -0.44328E+06         0.00000E+00
    0.00000E+00         0.00000E+00        -0.78253E+05
 
    0.45903E+05         0.11501E+07         0.00000E+00
    0.11501E+07        -0.44106E+06         0.00000E+00
    0.00000E+00         0.00000E+00        -0.79031E+05
 
    0.39709E+05         0.11841E+07         0.00000E+00
    0.11841E+07        -0.43877E+06         0.00000E+00
    0.00000E+00         0.00000E+00        -0.79813E+05
 
    0.33437E+05         0.12178E+07         0.00000E+00
    0.12178E+07        -0.43642E+06         0.00000E+00
    0.00000E+00         0.00000E+00        -0.80597E+05
 
    0.27088E+05         0.12512E+07         0.00000E+00
    0.12512E+07        -0.43401E+06         0.00000E+00
    0.00000E+00         0.00000E+00        -0.81385E+05
 
    0.20662E+05         0.12842E+07         0.00000E+00
    0.12842E+07        -0.43154E+06         0.00000E+00
    0.00000E+00         0.00000E+00        -0.82175E+05
 
    0.14161E+05         0.13168E+07         0.00000E+00
    0.13168E+07        -0.42901E+06         0.00000E+00
    0.00000E+00         0.00000E+00        -0.82969E+05
 
    0.75844E+04         0.13491E+07         0.00000E+00
    0.13491E+07        -0.42641E+06         0.00000E+00
    0.00000E+00         0.00000E+00        -0.83766E+05
 
    0.93438E+03         0.13810E+07         0.00000E+00
    0.13810E+07        -0.42376E+06         0.00000E+00
    0.00000E+00         0.00000E+00        -0.84566E+05
 
   -0.57888E+04         0.14126E+07         0.00000E+00
    0.14126E+07        -0.42106E+06         0.00000E+00
    0.00000E+00         0.00000E+00        -0.85369E+05
 
   -0.12584E+05         0.14437E+07         0.00000E+00
    0.14437E+07        -0.41829E+06         0.00000E+00
    0.00000E+00         0.00000E+00        -0.86175E+05
 
   -0.19452E+05         0.14745E+07         0.00000E+00
    0.14745E+07        -0.41547E+06         0.00000E+00
    0.00000E+00         0.00000E+00        -0.86985E+05
 
   -0.26390E+05         0.15050E+07         0.00000E+00
    0.15050E+07        -0.41260E+06         0.00000E+00
    0.00000E+00         0.00000E+00        -0.87797E+05
 
   -0.33398E+05         0.15350E+07         0.00000E+00
    0.15350E+07        -0.40967E+06         0.00000E+00
    0.00000E+00         0.00000E+00        -0.88613E+05
 
   -0.40475E+05         0.15647E+07         0.00000E+00
    0.15647E+07        -0.40669E+06         0.00000E+00
    0.00000E+00         0.00000E+00        -0.89432E+05
 
   -0.47621E+05         0.15940E+07         0.00000E+00
    0.15940E+07        -0.40365E+06         0.00000E+00
    0.00000E+00         0.00000E+00        -0.90254E+05
 
   -0.54834E+05         0.16229E+07         0.00000E+00
    0.16229E+07        -0.40056E+06         0.00000E+00
    0.00000E+00         0.00000E+00        -0.91079E+05
 
   -0.62114E+05         0.16514E+07         0.00000E+00
    0.16514E+07        -0.39743E+06         0.00000E+00
    0.00000E+00         0.00000E+00        -0.91908E+05
 
   -0.69461E+05         0.16795E+07         0.00000E+00
    0.16795E+07        -0.39424E+06         0.00000E+00
    0.00000E+00         0.00000E+00        -0.92740E+05
 
   -0.76873E+05         0.17073E+07         0.00000E+00
    0.17073E+07        -0.39100E+06         0.00000E+00
    0.00000E+00         0.00000E+00        -0.93574E+05
 
   -0.84349E+05         0.17346E+07         0.00000E+00
    0.17346E+07        -0.38771E+06         0.00000E+00
    0.00000E+00         0.00000E+00        -0.94413E+05
 
   -0.91889E+05         0.17615E+07         0.00000E+00
    0.17615E+07        -0.38438E+06         0.00000E+00
    0.00000E+00         0.00000E+00        -0.95254E+05
 
    0.23370E+06         0.22060E+05         0.00000E+00
    0.22060E+05        -0.64722E+06         0.00000E+00
    0.00000E+00         0.00000E+00        -0.82704E+05
 
    0.22883E+06         0.65557E+05         0.00000E+00
    0.65557E+05        -0.64711E+06         0.00000E+00
    0.00000E+00         0.00000E+00        -0.83656E+05
 
    0.22383E+06         0.10878E+06         0.00000E+00
    0.10878E+06        -0.64689E+06         0.00000E+00
    0.00000E+00         0.00000E+00        -0.84611E+05
 
    0.21872E+06         0.15174E+06         0.00000E+00
    0.15174E+06        -0.64656E+06         0.00000E+00
    0.00000E+00         0.00000E+00        -0.85569E+05
 
    0.21348E+06         0.19441E+06         0.00000E+00
    0.19441E+06        -0.64613E+06         0.00000E+00
    0.00000E+00         0.00000E+00        -0.86529E+05
 
    0.20813E+06         0.23681E+06         0.00000E+00
    0.23681E+06        -0.64559E+06         0.00000E+00
    0.00000E+00         0.00000E+00        -0.87491E+05
 
    0.20266E+06         0.27892E+06         0.00000E+00
    0.27892E+06        -0.64494E+06         0.00000E+00
    0.00000E+00         0.00000E+00        -0.88457E+05
 
    0.19707E+06         0.32074E+06         0.00000E+00
    0.32074E+06        -0.64420E+06         0.00000E+00
    0.00000E+00         0.00000E+00        -0.89425E+05
 
    0.19137E+06         0.36227E+06         0.00000E+00
    0.36227E+06        -0.64335E+06         0.00000E+00
    0.00000E+00         0.00000E+00        -0.90395E+05
 
    0.18556E+06         0.40351E+06         0.00000E+00
    0.40351E+06        -0.64240E+06         0.00000E+00
    0.00000E+00         0.00000E+00        -0.91368E+05
 
    0.17964E+06         0.44445E+06         0.00000E+00
    0.44445E+06        -0.64135E+06         0.00000E+00
    0.00000E+00         0.00000E+00        -0.92343E+05
 
    0.17360E+06         0.48509E+06         0.00000E+00
    0.48509E+06        -0.64020E+06         0.00000E+00
    0.00000E+00         0.00000E+00        -0.93320E+05
 
    0.16746E+06         0.52542E+06         0.00000E+00
    0.52542E+06        -0.63896E+06         0.00000E+00
    0.00000E+00         0.00000E+00        -0.94300E+05
 
    0.16121E+06         0.56546E+06         0.00000E+00
    0.56546E+06        -0.63762E+06         0.00000E+00
    0.00000E+00         0.00000E+00        -0.95282E+05
 
    0.15485E+06         0.60518E+06         0.00000E+00
    0.60518E+06        -0.63618E+06         0.00000E+00
    0.00000E+00         0.00000E+00        -0.96267E+05
 
    0.14838E+06         0.64459E+06         0.00000E+00
    0.64459E+06        -0.63465E+06         0.00000E+00
    0.00000E+00         0.00000E+00        -0.97254E+05
 
    0.14181E+06         0.68369E+06         0.00000E+00
    0.68369E+06        -0.63303E+06         0.00000E+00
    0.00000E+00         0.00000E+00        -0.98243E+05
 
    0.13514E+06         0.72247E+06         0.00000E+00
    0.72247E+06        -0.63132E+06         0.00000E+00
    0.00000E+00         0.00000E+00        -0.99235E+05
 
    0.12837E+06         0.76093E+06         0.00000E+00
    0.76093E+06        -0.62951E+06         0.00000E+00
    0.00000E+00         0.00000E+00        -0.10023E+06
 
    0.12149E+06         0.79907E+06         0.00000E+00
    0.79907E+06        -0.62761E+06         0.00000E+00
    0.00000E+00         0.00000E+00        -0.10123E+06
 
    0.11451E+06         0.83688E+06         0.00000E+00
    0.83688E+06        -0.62563E+06         0.00000E+00
    0.00000E+00         0.00000E+00        -0.10222E+06
 
    0.10743E+06         0.87437E+06         0.00000E+00
    0.87437E+06        -0.62356E+06         0.00000E+00
    0.00000E+00         0.00000E+00        -0.10322E+06
 
    0.10026E+06         0.91152E+06         0.00000E+00
    0.91152E+06        -0.62139E+06         0.00000E+00
    0.00000E+00         0.00000E+00        -0.10423E+06
 
    0.92981E+05         0.94834E+06         0.00000E+00
    0.94834E+06        -0.61915E+06         0.00000E+00
    0.00000E+00         0.00000E+00        -0.10523E+06
 
    0.85610E+05         0.98483E+06         0.00000E+00
    0.98483E+06        -0.61681E+06         0.00000E+00
    0.00000E+00         0.00000E+00        -0.10624E+06
 
    0.78143E+05         0.10210E+07         0.00000E+00
    0.10210E+07        -0.61440E+06         0.00000E+00
    0.00000E+00         0.00000E+00        -0.10725E+06
 
    0.70580E+05         0.10568E+07         0.00000E+00
    0.10568E+07        -0.61190E+06         0.00000E+00
    0.00000E+00         0.00000E+00        -0.10826E+06
 
    0.62924E+05         0.10923E+07         0.00000E+00
    0.10923E+07        -0.60931E+06         0.00000E+00
    0.00000E+00         0.00000E+00        -0.10928E+06
 
    0.55173E+05         0.11274E+07         0.00000E+00
    0.11274E+07        -0.60664E+06         0.00000E+00
    0.00000E+00         0.00000E+00        -0.11029E+06
 
    0.47330E+05         0.11622E+07         0.00000E+00
    0.11622E+07        -0.60390E+06         0.00000E+00
    0.00000E+00         0.00000E+00        -0.11131E+06
 
    0.39395E+05         0.11966E+07         0.00000E+00
    0.11966E+07        -0.60107E+06         0.00000E+00
    0.00000E+00         0.00000E+00        -0.11233E+06
 
    0.31368E+05         0.12306E+07         0.00000E+00
    0.12306E+07        -0.59816E+06         0.00000E+00
    0.00000E+00         0.00000E+00        -0.11336E+06
 
    0.23252E+05         0.12644E+07         0.00000E+00
    0.12644E+07        -0.59517E+06         0.00000E+00
    0.00000E+00         0.00000E+00        -0.11438E+06
 
    0.15045E+05         0.12977E+07         0.00000E+00
    0.12977E+07        -0.59211E+06         0.00000E+00
    0.00000E+00         0.00000E+00        -0.11541E+06
 
    0.67493E+04         0.13307E+07         0.00000E+00
    0.13307E+07        -0.58896E+06         0.00000E+00
    0.00000E+00         0.00000E+00        -0.11644E+06
 
   -0.16348E+04         0.13633E+07         0.00000E+00
    0.13633E+07        -0.58574E+06         0.00000E+00
    0.00000E+00         0.00000E+00        -0.11748E+06
 
   -0.10106E+05         0.13956E+07         0.00000E+00
    0.13956E+07        -0.58245E+06         0.00000E+00
    0.00000E+00         0.00000E+00        -0.11851E+06
 
   -0.18665E+05         0.14275E+07         0.00000E+00
    0.14275E+07        -0.57908E+06         0.00000E+00
    0.00000E+00         0.00000E+00        -0.11955E+06
 
   -0.27310E+05         0.14590E+07         0.00000E+00
    0.14590E+07        -0.57563E+06         0.00000E+00
    0.00000E+00         0.00000E+00        -0.12059E+06
 
   -0.36041E+05         0.14902E+07         0.00000E+00
    0.14902E+07        -0.57211E+06         0.00000E+00
    0.00000E+00         0.00000E+00        -0.12163E+06
 
   -0.44857E+05         0.15210E+07         0.00000E+00
    0.15210E+07        -0.56852E+06         0.00000E+00
    0.00000E+00         0.00000E+00        -0.12268E+06
 
   -0.53757E+05         0.15514E+07         0.00000E+00
    0.15514E+07        -0.56486E+06         0.00000E+00
    0.00000E+00         0.00000E+00        -0.12372E+06
 
   -0.62742E+05         0.15814E+07         0.00000E+00
    0.15814E+07        -0.56112E+06         0.00000E+00
    0.00000E+00         0.00000E+00        -0.12477E+06
 
   -0.71809E+05         0.16110E+07         0.00000E+00
    0.16110E+07        -0.55732E+06         0.00000E+00
    0.00000E+00         0.00000E+00        -0.12583E+06
 
   -0.80959E+05         0.16402E+07         0.00000E+00
    0.16402E+07        -0.55344E+06         0.00000E+00
    0.00000E+00         0.00000E+00        -0.12688E+06
 
   -0.90192E+05         0.16691E+07         0.00000E+00
    0.16691E+07        -0.54950E+06         0.00000E+00
    0.00000E+00         0.00000E+00        -0.12794E+06
 
   -0.99505E+05         0.16975E+07         0.00000E+00
    0.16975E+07        -0.54548E+06         0.00000E+00
    0.00000E+00         0.00000E+00        -0.12900E+06
 
   -0.10890E+06         0.17256E+07         0.00000E+00
    0.17256E+07        -0.54140E+06         0.00000E+00
    0.00000E+00         0.00000E+00        -0.13006E+06
 
   -0.11837E+06         0.17533E+07         0.00000E+00
    0.17533E+07        -0.53725E+06         0.00000E+00
    0.00000E+00         0.00000E+00        -0.13112E+06
 
   -0.12793E+06         0.17805E+07         0.00000E+00
    0.17805E+07        -0.53303E+06         0.00000E+00
    0.00000E+00         0.00000E+00        -0.13219E+06
 
    0.27981E+06         0.22338E+05         0.00000E+00
    0.22338E+05        -0.82061E+06         0.00000E+00
    0.00000E+00         0.00000E+00        -0.10816E+06
 
    0.27359E+06         0.66380E+05         0.00000E+00
    0.66380E+05        -0.82048E+06         0.00000E+00
    0.00000E+00         0.00000E+00        -0.10938E+06
 
    0.26722E+06         0.11015E+06         0.00000E+00
    0.11015E+06        -0.82022E+06         0.00000E+00
    0.00000E+00         0.00000E+00        -0.11060E+06
 
    0.26072E+06         0.15364E+06         0.00000E+00
    0.15364E+06        -0.81983E+06         0.00000E+00
    0.00000E+00         0.00000E+00        -0.11182E+06
 
    0.25408E+06         0.19684E+06         0.00000E+00
    0.19684E+06        -0.81932E+06         0.00000E+00
    0.00000E+00         0.00000E+00        -0.11305E+06
 
    0.24731E+06         0.23977E+06         0.00000E+00
    0.23977E+06        -0.81868E+06         0.00000E+00
    0.00000E+00         0.00000E+00        -0.11427E+06
 
    0.24041E+06         0.28240E+06         0.00000E+00
    0.28240E+06        -0.81791E+06         0.00000E+00
    0.00000E+00         0.00000E+00        -0.11550E+06
 
    0.23338E+06         0.32474E+06         0.00000E+00
    0.32474E+06        -0.81703E+06         0.00000E+00
    0.00000E+00         0.00000E+00        -0.11673E+06
 
    0.22622E+06         0.36679E+06         0.00000E+00
    0.36679E+06        -0.81602E+06         0.00000E+00
    0.00000E+00         0.00000E+00        -0.11796E+06
 
    0.21893E+06         0.40854E+06         0.00000E+00
    0.40854E+06        -0.81490E+06         0.00000E+00
    0.00000E+00         0.00000E+00        -0.11919E+06
 
    0.21151E+06         0.44999E+06         0.00000E+00
    0.44999E+06        -0.81366E+06         0.00000E+00
    0.00000E+00         0.00000E+00        -0.12043E+06
 
    0.20397E+06         0.49114E+06         0.00000E+00
    0.49114E+06        -0.81230E+06         0.00000E+00
    0.00000E+00         0.00000E+00        -0.12167E+06
 
    0.19631E+06         0.53198E+06         0.00000E+00
    0.53198E+06        -0.81083E+06         0.00000E+00
    0.00000E+00         0.00000E+00        -0.12290E+06
 
    0.18853E+06         0.57251E+06         0.00000E+00
    0.57251E+06        -0.80924E+06         0.00000E+00
    0.00000E+00         0.00000E+00        -0.12414E+06
 
    0.18062E+06         0.61273E+06         0.00000E+00
    0.61273E+06        -0.80754E+06         0.00000E+00
    0.00000E+00         0.00000E+00        -0.12538E+06
 
    0.17260E+06         0.65263E+06         0.00000E+00
    0.65263E+06        -0.80573E+06         0.00000E+00
    0.00000E+00         0.00000E+00        -0.12663E+06
 
    0.16446E+06         0.69222E+06         0.00000E+00
    0.69222E+06        -0.80380E+06         0.00000E+00
    0.00000E+00         0.00000E+00        -0.12787E+06
 
    0.15620E+06         0.73148E+06         0.00000E+00
    0.73148E+06        -0.80177E+06         0.00000E+00
    0.00000E+00         0.00000E+00        -0.12911E+06
 
    0.14782E+06         0.77043E+06         0.00000E+00
    0.77043E+06        -0.79963E+06         0.00000E+00
    0.00000E+00         0.00000E+00        -0.13036E+06
 
    0.13933E+06         0.80905E+06         0.00000E+00
    0.80905E+06        -0.79738E+06         0.00000E+00
    0.00000E+00         0.00000E+00        -0.13161E+06
 
    0.13073E+06         0.84734E+06         0.00000E+00
    0.84734E+06        -0.79503E+06         0.00000E+00
    0.00000E+00         0.00000E+00        -0.13286E+06
 
    0.12202E+06         0.88530E+06         0.00000E+00
    0.88530E+06        -0.79257E+06         0.00000E+00
    0.00000E+00         0.00000E+00        -0.13411E+06
 
    0.11319E+06         0.92293E+06         0.00000E+00
    0.92293E+06        -0.79000E+06         0.00000E+00
    0.00000E+00         0.00000E+00        -0.13536E+06
 
    0.10425E+06         0.96023E+06         0.00000E+00
    0.96023E+06        -0.78733E+06         0.00000E+00
    0.00000E+00         0.00000E+00        -0.13662E+06
 
    0.95208E+05         0.99718E+06         0.00000E+00
    0.99718E+06        -0.78456E+06         0.00000E+00
    0.00000E+00         0.00000E+00        -0.13787E+06
 
    0.86053E+05         0.10338E+07         0.00000E+00
    0.10338E+07        -0.78169E+06         0.00000E+00
    0.00000E+00         0.00000E+00        -0.13913E+06
 
    0.76790E+05         0.10701E+07         0.00000E+00
    0.10701E+07        -0.77871E+06         0.00000E+00
    0.00000E+00         0.00000E+00        -0.14039E+06
 
    0.67419E+05         0.11060E+07         0.00000E+00
    0.11060E+07        -0.77564E+06         0.00000E+00
    0.00000E+00         0.00000E+00        -0.14164E+06
 
    0.57943E+05         0.11416E+07         0.00000E+00
    0.11416E+07        -0.77247E+06         0.00000E+00
    0.00000E+00         0.00000E+00        -0.14291E+06
 
    0.48360E+05         0.11768E+07         0.00000E+00
    0.11768E+07        -0.76920E+06         0.00000E+00
    0.00000E+00         0.00000E+00        -0.14417E+06
 
    0.38673E+05         0.12117E+07         0.00000E+00
    0.12117E+07        -0.76583E+06         0.00000E+00
    0.00000E+00         0.00000E+00        -0.14543E+06
 
    0.28881E+05         0.12462E+07         0.00000E+00
    0.12462E+07        -0.76236E+06         0.00000E+00
    0.00000E+00         0.00000E+00        -0.14670E+06
 
    0.18986E+05         0.12804E+07         0.00000E+00
    0.12804E+07        -0.75880E+06         0.00000E+00
    0.00000E+00         0.00000E+00        -0.14796E+06
 
    0.89880E+04         0.13142E+07         0.00000E+00
    0.13142E+07        -0.75514E+06         0.00000E+00
    0.00000E+00         0.00000E+00        -0.14923E+06
 
   -0.11126E+04         0.13476E+07         0.00000E+00
    0.13476E+07        -0.75138E+06         0.00000E+00
    0.00000E+00         0.00000E+00        -0.15050E+06
 
   -0.11315E+05         0.13807E+07         0.00000E+00
    0.13807E+07        -0.74754E+06         0.00000E+00
    0.00000E+00         0.00000E+00        -0.15177E+06
 
   -0.21619E+05         0.14134E+07         0.00000E+00
    0.14134E+07        -0.74359E+06         0.00000E+00
    0.00000E+00         0.00000E+00        -0.15304E+06
 
   -0.32023E+05         0.14458E+07         0.00000E+00
    0.14458E+07        -0.73956E+06         0.00000E+00
    0.00000E+00         0.00000E+00        -0.15432E+06
 
   -0.42528E+05         0.14777E+07         0.00000E+00
    0.14777E+07        -0.73543E+06         0.00000E+00
    0.00000E+00         0.00000E+00        -0.15559E+06
 
   -0.53132E+05         0.15093E+07         0.00000E+00
    0.15093E+07        -0.73121E+06         0.00000E+00
    0.00000E+00         0.00000E+00        -0.15687E+06
 
   -0.63836E+05         0.15405E+07         0.00000E+00
    0.15405E+07        -0.72690E+06         0.00000E+00
    0.00000E+00         0.00000E+00        -0.15815E+06
 
   -0.74639E+05         0.15714E+07         0.00000E+00
    0.15714E+07        -0.72250E+06         0.00000E+00
    0.00000E+00         0.00000E+00        -0.15943E+06
 
   -0.85540E+05         0.16018E+07         0.00000E+00
    0.16018E+07        -0.71801E+06         0.00000E+00
    0.00000E+00         0.00000E+00        -0.16071E+06
 
   -0.96539E+05         0.16319E+07         0.00000E+00
    0.16319E+07        -0.71343E+06         0.00000E+00
    0.00000E+00         0.00000E+00        -0.16199E+06
 
   -0.10764E+06         0.16616E+07         0.00000E+00
    0.16616E+07        -0.70877E+06         0.00000E+00
    0.00000E+00         0.00000E+00        -0.16328E+06
 
   -0.11883E+06         0.16909E+07         0.00000E+00
    0.16909E+07        -0.70401E+06         0.00000E+00
    0.00000E+00         0.00000E+00        -0.16457E+06
 
   -0.13012E+06         0.17197E+07         0.00000E+00
    0.17197E+07        -0.69916E+06         0.00000E+00
    0.00000E+00         0.00000E+00        -0.16586E+06
 
   -0.14151E+06         0.17482E+07         0.00000E+00
    0.17482E+07        -0.69423E+06         0.00000E+00
    0.00000E+00         0.00000E+00        -0.16715E+06
 
   -0.15299E+06         0.17763E+07         0.00000E+00
    0.17763E+07        -0.68921E+06         0.00000E+00
    0.00000E+00         0.00000E+00        -0.16844E+06
 
   -0.16457E+06         0.18040E+07         0.00000E+00
    0.18040E+07        -0.68411E+06         0.00000E+00
    0.00000E+00         0.00000E+00        -0.16974E+06
 
    0.32575E+06         0.22664E+05         0.00000E+00
    0.22664E+05        -0.99715E+06         0.00000E+00
    0.00000E+00         0.00000E+00        -0.13428E+06
 
    0.31815E+06         0.67346E+05         0.00000E+00
    0.67346E+05        -0.99700E+06         0.00000E+00
    0.00000E+00         0.00000E+00        -0.13577E+06
 
    0.31039E+06         0.11175E+06         0.00000E+00
    0.11175E+06        -0.99670E+06         0.00000E+00
    0.00000E+00         0.00000E+00        -0.13726E+06
 
    0.30248E+06         0.15587E+06         0.00000E+00
    0.15587E+06        -0.99625E+06         0.00000E+00
    0.00000E+00         0.00000E+00        -0.13875E+06
 
    0.29442E+06         0.19970E+06         0.00000E+00
    0.19970E+06        -0.99565E+06         0.00000E+00
    0.00000E+00         0.00000E+00        -0.14025E+06
 
    0.28621E+06         0.24324E+06         0.00000E+00
    0.24324E+06        -0.99491E+06         0.00000E+00
    0.00000E+00         0.00000E+00        -0.14174E+06
 
    0.27785E+06         0.28649E+06         0.00000E+00
    0.28649E+06        -0.99403E+06         0.00000E+00
    0.00000E+00         0.00000E+00        -0.14324E+06
 
    0.26935E+06         0.32944E+06         0.00000E+00
    0.32944E+06        -0.99301E+06         0.00000E+00
    0.00000E+00         0.00000E+00        -0.14473E+06
 
    0.26071E+06         0.37209E+06         0.00000E+00
    0.37209E+06        -0.99185E+06         0.00000E+00
    0.00000E+00         0.00000E+00        -0.14623E+06
 
    0.25192E+06         0.41444E+06         0.00000E+00
    0.41444E+06        -0.99055E+06         0.00000E+00
    0.00000E+00         0.00000E+00        -0.14773E+06
 
    0.24300E+06         0.45649E+06         0.00000E+00
    0.45649E+06        -0.98912E+06         0.00000E+00
    0.00000E+00         0.00000E+00        -0.14922E+06
 
    0.23393E+06         0.49823E+06         0.00000E+00
    0.49823E+06        -0.98755E+06         0.00000E+00
    0.00000E+00         0.00000E+00        -0.15072E+06
 
    0.22473E+06         0.53966E+06         0.00000E+00
    0.53966E+06        -0.98585E+06         0.00000E+00
    0.00000E+00         0.00000E+00        -0.15222E+06
 
    0.21540E+06         0.58078E+06         0.00000E+00
    0.58078E+06        -0.98402E+06         0.00000E+00
    0.00000E+00         0.00000E+00        -0.15372E+06
 
    0.20593E+06         0.62158E+06         0.00000E+00
    0.62158E+06        -0.98205E+06         0.00000E+00
    0.00000E+00         0.00000E+00        -0.15522E+06
 
    0.19633E+06         0.66206E+06         0.00000E+00
    0.66206E+06        -0.97996E+06         0.00000E+00
    0.00000E+00         0.00000E+00        -0.15673E+06
 
    0.18660E+06         0.70222E+06         0.00000E+00
    0.70222E+06        -0.97774E+06         0.00000E+00
    0.00000E+00         0.00000E+00        -0.15823E+06
 
    0.17674E+06         0.74206E+06         0.00000E+00
    0.74206E+06        -0.97539E+06         0.00000E+00
    0.00000E+00         0.00000E+00        -0.15973E+06
 
    0.16676E+06         0.78158E+06         0.00000E+00
    0.78158E+06        -0.97292E+06         0.00000E+00
    0.00000E+00         0.00000E+00        -0.16123E+06
 
    0.15664E+06         0.82077E+06         0.00000E+00
    0.82077E+06        -0.97032E+06         0.00000E+00
    0.00000E+00         0.00000E+00        -0.16274E+06
 
    0.14640E+06         0.85962E+06         0.00000E+00
    0.85962E+06        -0.96760E+06         0.00000E+00
    0.00000E+00         0.00000E+00        -0.16424E+06
 
    0.13604E+06         0.89815E+06         0.00000E+00
    0.89815E+06        -0.96475E+06         0.00000E+00
    0.00000E+00         0.00000E+00        -0.16574E+06
 
    0.12555E+06         0.93634E+06         0.00000E+00
    0.93634E+06        -0.96179E+06         0.00000E+00
    0.00000E+00         0.00000E+00        -0.16725E+06
 
    0.11494E+06         0.97419E+06         0.00000E+00
    0.97419E+06        -0.95870E+06         0.00000E+00
    0.00000E+00         0.00000E+00        -0.16875E+06
 
    0.10421E+06         0.10117E+07         0.00000E+00
    0.10117E+07        -0.95550E+06         0.00000E+00
    0.00000E+00         0.00000E+00        -0.17026E+06
 
    0.93352E+05         0.10489E+07         0.00000E+00
    0.10489E+07        -0.95217E+06         0.00000E+00
    0.00000E+00         0.00000E+00        -0.17176E+06
 
    0.82377E+05         0.10857E+07         0.00000E+00
    0.10857E+07        -0.94873E+06         0.00000E+00
    0.00000E+00         0.00000E+00        -0.17327E+06
 
    0.71283E+05         0.11222E+07         0.00000E+00
    0.11222E+07        -0.94517E+06         0.00000E+00
    0.00000E+00         0.00000E+00        -0.17478E+06
 
    0.60070E+05         0.11583E+07         0.00000E+00
    0.11583E+07        -0.94149E+06         0.00000E+00
    0.00000E+00         0.00000E+00        -0.17628E+06
 
    0.48739E+05         0.11941E+07         0.00000E+00
    0.11941E+07        -0.93770E+06         0.00000E+00
    0.00000E+00         0.00000E+00        -0.17779E+06
 
    0.37290E+05         0.12295E+07         0.00000E+00
    0.12295E+07        -0.93379E+06         0.00000E+00
    0.00000E+00         0.00000E+00        -0.17930E+06
 
    0.25724E+05         0.12646E+07         0.00000E+00
    0.12646E+07        -0.92976E+06         0.00000E+00
    0.00000E+00         0.00000E+00        -0.18081E+06
 
    0.14042E+05         0.12993E+07         0.00000E+00
    0.12993E+07        -0.92563E+06         0.00000E+00
    0.00000E+00         0.00000E+00        -0.18232E+06
 
    0.22436E+04         0.13336E+07         0.00000E+00
    0.13336E+07        -0.92138E+06         0.00000E+00
    0.00000E+00         0.00000E+00        -0.18383E+06
 
   -0.96700E+04         0.13676E+07         0.00000E+00
    0.13676E+07        -0.91701E+06         0.00000E+00
    0.00000E+00         0.00000E+00        -0.18534E+06
 
   -0.21699E+05         0.14012E+07         0.00000E+00
    0.14012E+07        -0.91254E+06         0.00000E+00
    0.00000E+00         0.00000E+00        -0.18685E+06
 
   -0.33842E+05         0.14345E+07         0.00000E+00
    0.14345E+07        -0.90795E+06         0.00000E+00
    0.00000E+00         0.00000E+00        -0.18836E+06
 
   -0.46100E+05         0.14674E+07         0.00000E+00
    0.14674E+07        -0.90326E+06         0.00000E+00
    0.00000E+00         0.00000E+00        -0.18987E+06
 
   -0.58471E+05         0.14999E+07         0.00000E+00
    0.14999E+07        -0.89845E+06         0.00000E+00
    0.00000E+00         0.00000E+00        -0.19138E+06
 
   -0.70957E+05         0.15320E+07         0.00000E+00
    0.15320E+07        -0.89353E+06         0.00000E+00
    0.00000E+00         0.00000E+00        -0.19290E+06
 
   -0.83555E+05         0.15637E+07         0.00000E+00
    0.15637E+07        -0.88850E+06         0.00000E+00
    0.00000E+00         0.00000E+00        -0.19441E+06
 
   -0.96267E+05         0.15951E+07         0.00000E+00
    0.15951E+07        -0.88337E+06         0.00000E+00
    0.00000E+00         0.00000E+00        -0.19593E+06
 
   -0.10909E+06         0.16261E+07         0.00000E+00
    0.16261E+07        -0.87812E+06         0.00000E+00
    0.00000E+00         0.00000E+00        -0.19744E+06
 
   -0.12203E+06         0.16567E+07         0.00000E+00
    0.16567E+07        -0.87277E+06         0.00000E+00
    0.00000E+00         0.00000E+00        -0.19896E+06
 
   -0.13508E+06         0.16869E+07         0.00000E+00
    0.16869E+07        -0.86731E+06         0.00000E+00
    0.00000E+00         0.00000E+00        -0.20048E+06
 
   -0.14824E+06         0.17167E+07         0.00000E+00
    0.17167E+07        -0.86174E+06         0.00000E+00
    0.00000E+00         0.00000E+00        -0.20200E+06
 
   -0.16152E+06         0.17461E+07         0.00000E+00
    0.17461E+07        -0.85606E+06         0.00000E+00
    0.00000E+00         0.00000E+00        -0.20352E+06
 
   -0.17490E+06         0.17751E+07         0.00000E+00
    0.17751E+07        -0.85028E+06         0.00000E+00
    0.00000E+00         0.00000E+00        -0.20504E+06
 
   -0.18840E+06         0.18037E+07         0.00000E+00
    0.18037E+07        -0.84439E+06         0.00000E+00
    0.00000E+00         0.00000E+00        -0.20656E+06
 
   -0.20201E+06         0.18320E+07         0.00000E+00
    0.18320E+07        -0.83840E+06         0.00000E+00
    0.00000E+00         0.00000E+00        -0.20808E+06
 
    0.37129E+06         0.23039E+05         0.00000E+00
    0.23039E+05        -0.11775E+07         0.00000E+00
    0.00000E+00         0.00000E+00        -0.16125E+06
 
    0.36228E+06         0.68454E+05         0.00000E+00
    0.68454E+05        -0.11774E+07         0.00000E+00
    0.00000E+00         0.00000E+00        -0.16302E+06
 
    0.35310E+06         0.11358E+06         0.00000E+00
    0.11358E+06        -0.11770E+07         0.00000E+00
    0.00000E+00         0.00000E+00        -0.16478E+06
 
    0.34375E+06         0.15842E+06         0.00000E+00
    0.15842E+06        -0.11765E+07         0.00000E+00
    0.00000E+00         0.00000E+00        -0.16655E+06
 
    0.33424E+06         0.20297E+06         0.00000E+00
    0.20297E+06        -0.11758E+07         0.00000E+00
    0.00000E+00         0.00000E+00        -0.16832E+06
 
    0.32456E+06         0.24722E+06         0.00000E+00
    0.24722E+06        -0.11750E+07         0.00000E+00
    0.00000E+00         0.00000E+00        -0.17009E+06
 
    0.31473E+06         0.29117E+06         0.00000E+00
    0.29117E+06        -0.11740E+07         0.00000E+00
    0.00000E+00         0.00000E+00        -0.17186E+06
 
    0.30473E+06         0.33482E+06         0.00000E+00
    0.33482E+06        -0.11728E+07         0.00000E+00
    0.00000E+00         0.00000E+00        -0.17362E+06
 
    0.29458E+06         0.37817E+06         0.00000E+00
    0.37817E+06        -0.11715E+07         0.00000E+00
    0.00000E+00         0.00000E+00        -0.17539E+06
 
    0.28428E+06         0.42121E+06         0.00000E+00
    0.42121E+06        -0.11701E+07         0.00000E+00
    0.00000E+00         0.00000E+00        -0.17716E+06
 
    0.27382E+06         0.46394E+06         0.00000E+00
    0.46394E+06        -0.11684E+07         0.00000E+00
    0.00000E+00         0.00000E+00        -0.17892E+06
 
    0.26322E+06         0.50636E+06         0.00000E+00
    0.50636E+06        -0.11667E+07         0.00000E+00
    0.00000E+00         0.00000E+00        -0.18069E+06
 
    0.25246E+06         0.54846E+06         0.00000E+00
    0.54846E+06        -0.11647E+07         0.00000E+00
    0.00000E+00         0.00000E+00        -0.18246E+06
 
    0.24156E+06         0.59025E+06         0.00000E+00
    0.59025E+06        -0.11627E+07         0.00000E+00
    0.00000E+00         0.00000E+00        -0.18422E+06
 
    0.23051E+06         0.63172E+06         0.00000E+00
    0.63172E+06        -0.11604E+07         0.00000E+00
    0.00000E+00         0.00000E+00        -0.18599E+06
 
    0.21932E+06         0.67287E+06         0.00000E+00
    0.67287E+06        -0.11581E+07         0.00000E+00
    0.00000E+00         0.00000E+00        -0.18775E+06
 
    0.20798E+06         0.71369E+06         0.00000E+00
    0.71369E+06        -0.11556E+07         0.00000E+00
    0.00000E+00         0.00000E+00        -0.18952E+06
 
    0.19651E+06         0.75419E+06         0.00000E+00
    0.75419E+06        -0.11529E+07         0.00000E+00
    0.00000E+00         0.00000E+00        -0.19128E+06
 
    0.18489E+06         0.79436E+06         0.00000E+00
    0.79436E+06        -0.11501E+07         0.00000E+00
    0.00000E+00         0.00000E+00        -0.19304E+06
 
    0.17314E+06         0.83420E+06         0.00000E+00
    0.83420E+06        -0.11472E+07         0.00000E+00
    0.00000E+00         0.00000E+00        -0.19480E+06
 
    0.16125E+06         0.87371E+06         0.00000E+00
    0.87371E+06        -0.11441E+07         0.00000E+00
    0.00000E+00         0.00000E+00        -0.19657E+06
 
    0.14922E+06         0.91288E+06         0.00000E+00
    0.91288E+06        -0.11409E+07         0.00000E+00
    0.00000E+00         0.00000E+00        -0.19833E+06
 
    0.13706E+06         0.95172E+06         0.00000E+00
    0.95172E+06        -0.11375E+07         0.00000E+00
    0.00000E+00         0.00000E+00        -0.20009E+06
 
    0.12476E+06         0.99021E+06         0.00000E+00
    0.99021E+06        -0.11340E+07         0.00000E+00
    0.00000E+00         0.00000E+00        -0.20185E+06
 
    0.11233E+06         0.10284E+07         0.00000E+00
    0.10284E+07        -0.11304E+07         0.00000E+00
    0.00000E+00         0.00000E+00        -0.20361E+06
 
    0.99765E+05         0.10662E+07         0.00000E+00
    0.10662E+07        -0.11266E+07         0.00000E+00
    0.00000E+00         0.00000E+00        -0.20536E+06
 
    0.87070E+05         0.11036E+07         0.00000E+00
    0.11036E+07        -0.11227E+07         0.00000E+00
    0.00000E+00         0.00000E+00        -0.20712E+06
 
    0.74243E+05         0.11408E+07         0.00000E+00
    0.11408E+07        -0.11186E+07         0.00000E+00
    0.00000E+00         0.00000E+00        -0.20888E+06
 
    0.61285E+05         0.11775E+07         0.00000E+00
    0.11775E+07        -0.11145E+07         0.00000E+00
    0.00000E+00         0.00000E+00        -0.21063E+06
 
    0.48197E+05         0.12139E+07         0.00000E+00
    0.12139E+07        -0.11101E+07         0.00000E+00
    0.00000E+00         0.00000E+00        -0.21239E+06
 
    0.34980E+05         0.12500E+07         0.00000E+00
    0.12500E+07        -0.11057E+07         0.00000E+00
    0.00000E+00         0.00000E+00        -0.21415E+06
 
    0.21633E+05         0.12857E+07         0.00000E+00
    0.12857E+07        -0.11011E+07         0.00000E+00
    0.00000E+00         0.00000E+00        -0.21590E+06
 
    0.81576E+04         0.13210E+07         0.00000E+00
    0.13210E+07        -0.10964E+07         0.00000E+00
    0.00000E+00         0.00000E+00        -0.21765E+06
 
   -0.54463E+04         0.13560E+07         0.00000E+00
    0.13560E+07        -0.10916E+07         0.00000E+00
    0.00000E+00         0.00000E+00        -0.21941E+06
 
   -0.19178E+05         0.13906E+07         0.00000E+00
    0.13906E+07        -0.10866E+07         0.00000E+00
    0.00000E+00         0.00000E+00        -0.22116E+06
 
   -0.33038E+05         0.14249E+07         0.00000E+00
    0.14249E+07        -0.10815E+07         0.00000E+00
    0.00000E+00         0.00000E+00        -0.22291E+06
 
   -0.47026E+05         0.14588E+07         0.00000E+00
    0.14588E+07        -0.10763E+07         0.00000E+00
    0.00000E+00         0.00000E+00        -0.22466E+06
 
   -0.61141E+05         0.14923E+07         0.00000E+00
    0.14923E+07        -0.10709E+07         0.00000E+00
    0.00000E+00         0.00000E+00        -0.22642E+06
 
   -0.75384E+05         0.15254E+07         0.00000E+00
    0.15254E+07        -0.10655E+07         0.00000E+00
    0.00000E+00         0.00000E+00        -0.22817E+06
 
   -0.89754E+05         0.15582E+07         0.00000E+00
    0.15582E+07        -0.10598E+07         0.00000E+00
    0.00000E+00         0.00000E+00        -0.22992E+06
 
   -0.10425E+06         0.15905E+07         0.00000E+00
    0.15905E+07        -0.10541E+07         0.00000E+00
    0.00000E+00         0.00000E+00        -0.23167E+06
 
   -0.11887E+06         0.16225E+07         0.00000E+00
    0.16225E+07        -0.10482E+07         0.00000E+00
    0.00000E+00         0.00000E+00        -0.23342E+06
 
   -0.13363E+06         0.16541E+07         0.00000E+00
    0.16541E+07        -0.10422E+07         0.00000E+00
    0.00000E+00         0.00000E+00        -0.23517E+06
 
   -0.14850E+06         0.16854E+07         0.00000E+00
    0.16854E+07        -0.10361E+07         0.00000E+00
    0.00000E+00         0.00000E+00        -0.23692E+06
 
   -0.16351E+06         0.17162E+07         0.00000E+00
    0.17162E+07        -0.10299E+07         0.00000E+00
    0.00000E+00         0.00000E+00        -0.23867E+06
 
   -0.17864E+06         0.17466E+07         0.00000E+00
    0.17466E+07        -0.10235E+07         0.00000E+00
    0.00000E+00         0.00000E+00        -0.24042E+06
 
   -0.19390E+06         0.17767E+07         0.00000E+00
    0.17767E+07        -0.10170E+07         0.00000E+00
    0.00000E+00         0.00000E+00        -0.24217E+06
 
   -0.20929E+06         0.18063E+07         0.00000E+00
    0.18063E+07        -0.10103E+07         0.00000E+00
    0.00000E+00         0.00000E+00        -0.24393E+06
 
   -0.22481E+06         0.18356E+07         0.00000E+00
    0.18356E+07        -0.10036E+07         0.00000E+00
    0.00000E+00         0.00000E+00        -0.24568E+06
 
   -0.24045E+06         0.18644E+07         0.00000E+00
    0.18644E+07        -0.99670E+06         0.00000E+00
    0.00000E+00         0.00000E+00        -0.24743E+06
 
    0.41618E+06         0.23460E+05         0.00000E+00
    0.23460E+05        -0.13625E+07         0.00000E+00
    0.00000E+00         0.00000E+00        -0.18926E+06
 
    0.40572E+06         0.69701E+05         0.00000E+00
    0.69701E+05        -0.13623E+07         0.00000E+00
    0.00000E+00         0.00000E+00        -0.19131E+06
 
    0.39509E+06         0.11565E+06         0.00000E+00
    0.11565E+06        -0.13619E+07         0.00000E+00
    0.00000E+00         0.00000E+00        -0.19337E+06
 
    0.38427E+06         0.16130E+06         0.00000E+00
    0.16130E+06        -0.13613E+07         0.00000E+00
    0.00000E+00         0.00000E+00        -0.19542E+06
 
    0.37327E+06         0.20665E+06         0.00000E+00
    0.20665E+06        -0.13606E+07         0.00000E+00
    0.00000E+00         0.00000E+00        -0.19746E+06
 
    0.36210E+06         0.25169E+06         0.00000E+00
    0.25169E+06        -0.13597E+07         0.00000E+00
    0.00000E+00         0.00000E+00        -0.19951E+06
 
    0.35076E+06         0.29644E+06         0.00000E+00
    0.29644E+06        -0.13586E+07         0.00000E+00
    0.00000E+00         0.00000E+00        -0.20156E+06
 
    0.33924E+06         0.34087E+06         0.00000E+00
    0.34087E+06        -0.13573E+07         0.00000E+00
    0.00000E+00         0.00000E+00        -0.20360E+06
 
    0.32756E+06         0.38500E+06         0.00000E+00
    0.38500E+06        -0.13558E+07         0.00000E+00
    0.00000E+00         0.00000E+00        -0.20565E+06
 
    0.31571E+06         0.42881E+06         0.00000E+00
    0.42881E+06        -0.13542E+07         0.00000E+00
    0.00000E+00         0.00000E+00        -0.20769E+06
 
    0.30370E+06         0.47231E+06         0.00000E+00
    0.47231E+06        -0.13524E+07         0.00000E+00
    0.00000E+00         0.00000E+00        -0.20973E+06
 
    0.29153E+06         0.51550E+06         0.00000E+00
    0.51550E+06        -0.13504E+07         0.00000E+00
    0.00000E+00         0.00000E+00        -0.21177E+06
 
    0.27919E+06         0.55836E+06         0.00000E+00
    0.55836E+06        -0.13482E+07         0.00000E+00
    0.00000E+00         0.00000E+00        -0.21381E+06
 
    0.26670E+06         0.60091E+06         0.00000E+00
    0.60091E+06        -0.13459E+07         0.00000E+00
    0.00000E+00         0.00000E+00        -0.21585E+06
 
    0.25405E+06         0.64313E+06         0.00000E+00
    0.64313E+06        -0.13435E+07         0.00000E+00
    0.00000E+00         0.00000E+00        -0.21788E+06
 
    0.24125E+06         0.68503E+06         0.00000E+00
    0.68503E+06        -0.13408E+07         0.00000E+00
    0.00000E+00         0.00000E+00        -0.21991E+06
 
    0.22829E+06         0.72660E+06         0.00000E+00
    0.72660E+06        -0.13380E+07         0.00000E+00
    0.00000E+00         0.00000E+00        -0.22194E+06
 
    0.21519E+06         0.76784E+06         0.00000E+00
    0.76784E+06        -0.13351E+07         0.00000E+00
    0.00000E+00         0.00000E+00        -0.22397E+06
 
    0.20193E+06         0.80875E+06         0.00000E+00
    0.80875E+06        -0.13319E+07         0.00000E+00
    0.00000E+00         0.00000E+00        -0.22600E+06
 
    0.18852E+06         0.84933E+06         0.00000E+00
    0.84933E+06        -0.13287E+07         0.00000E+00
    0.00000E+00         0.00000E+00        -0.22803E+06
 
    0.17496E+06         0.88957E+06         0.00000E+00
    0.88957E+06        -0.13252E+07         0.00000E+00
    0.00000E+00         0.00000E+00        -0.23005E+06
 
    0.16126E+06         0.92948E+06         0.00000E+00
    0.92948E+06        -0.13216E+07         0.00000E+00
    0.00000E+00         0.00000E+00        -0.23207E+06
 
    0.14741E+06         0.96905E+06         0.00000E+00
    0.96905E+06        -0.13179E+07         0.00000E+00
    0.00000E+00         0.00000E+00        -0.23409E+06
 
    0.13342E+06         0.10083E+07         0.00000E+00
    0.10083E+07        -0.13140E+07         0.00000E+00
    0.00000E+00         0.00000E+00        -0.23611E+06
 
    0.11928E+06         0.10472E+07         0.00000E+00
    0.10472E+07        -0.13099E+07         0.00000E+00
    0.00000E+00         0.00000E+00        -0.23812E+06
 
    0.10500E+06         0.10857E+07         0.00000E+00
    0.10857E+07        -0.13057E+07         0.00000E+00
    0.00000E+00         0.00000E+00        -0.24014E+06
 
    0.90578E+05         0.11239E+07         0.00000E+00
    0.11239E+07        -0.13013E+07         0.00000E+00
    0.00000E+00         0.00000E+00        -0.24215E+06
 
    0.76011E+05         0.11617E+07         0.00000E+00
    0.11617E+07        -0.12968E+07         0.00000E+00
    0.00000E+00         0.00000E+00        -0.24416E+06
 
    0.61303E+05         0.11992E+07         0.00000E+00
    0.11992E+07        -0.12921E+07         0.00000E+00
    0.00000E+00         0.00000E+00        -0.24617E+06
 
    0.46453E+05         0.12364E+07         0.00000E+00
    0.12364E+07        -0.12873E+07         0.00000E+00
    0.00000E+00         0.00000E+00        -0.24817E+06
 
    0.31462E+05         0.12731E+07         0.00000E+00
    0.12731E+07        -0.12824E+07         0.00000E+00
    0.00000E+00         0.00000E+00        -0.25018E+06
 
    0.16331E+05         0.13096E+07         0.00000E+00
    0.13096E+07        -0.12772E+07         0.00000E+00
    0.00000E+00         0.00000E+00        -0.25218E+06
 
    0.10587E+04         0.13456E+07         0.00000E+00
    0.13456E+07        -0.12720E+07         0.00000E+00
    0.00000E+00         0.00000E+00        -0.25418E+06
 
   -0.14354E+05         0.13813E+07         0.00000E+00
    0.13813E+07        -0.12666E+07         0.00000E+00
    0.00000E+00         0.00000E+00        -0.25618E+06
 
   -0.29907E+05         0.14167E+07         0.00000E+00
    0.14167E+07        -0.12610E+07         0.00000E+00
    0.00000E+00         0.00000E+00        -0.25818E+06
 
   -0.45600E+05         0.14516E+07         0.00000E+00
    0.14516E+07        -0.12553E+07         0.00000E+00
    0.00000E+00         0.00000E+00        -0.26018E+06
 
   -0.61433E+05         0.14862E+07         0.00000E+00
    0.14862E+07        -0.12494E+07         0.00000E+00
    0.00000E+00         0.00000E+00        -0.26217E+06
 
   -0.77406E+05         0.15205E+07         0.00000E+00
    0.15205E+07        -0.12434E+07         0.00000E+00
    0.00000E+00         0.00000E+00        -0.26416E+06
 
   -0.93520E+05         0.15543E+07         0.00000E+00
    0.15543E+07        -0.12373E+07         0.00000E+00
    0.00000E+00         0.00000E+00        -0.26615E+06
 
   -0.10977E+06         0.15878E+07         0.00000E+00
    0.15878E+07        -0.12309E+07         0.00000E+00
    0.00000E+00         0.00000E+00        -0.26814E+06
 
   -0.12617E+06         0.16209E+07         0.00000E+00
    0.16209E+07        -0.12245E+07         0.00000E+00
    0.00000E+00         0.00000E+00        -0.27013E+06
 
   -0.14270E+06         0.16536E+07         0.00000E+00
    0.16536E+07        -0.12179E+07         0.00000E+00
    0.00000E+00         0.00000E+00        -0.27212E+06
 
   -0.15938E+06         0.16860E+07         0.00000E+00
    0.16860E+07        -0.12112E+07         0.00000E+00
    0.00000E+00         0.00000E+00        -0.27411E+06
 
   -0.17620E+06         0.17179E+07         0.00000E+00
    0.17179E+07        -0.12043E+07         0.00000E+00
    0.00000E+00         0.00000E+00        -0.27609E+06
 
   -0.19316E+06         0.17495E+07         0.00000E+00
    0.17495E+07        -0.11972E+07         0.00000E+00
    0.00000E+00         0.00000E+00        -0.27808E+06
 
   -0.21026E+06         0.17807E+07         0.00000E+00
    0.17807E+07        -0.11900E+07         0.00000E+00
    0.00000E+00         0.00000E+00        -0.28006E+06
 
   -0.22751E+06         0.18114E+07         0.00000E+00
    0.18114E+07        -0.11827E+07         0.00000E+00
    0.00000E+00         0.00000E+00        -0.28204E+06
 
   -0.24490E+06         0.18418E+07         0.00000E+00
    0.18418E+07        -0.11752E+07         0.00000E+00
    0.00000E+00         0.00000E+00        -0.28402E+06
 
   -0.26243E+06         0.18718E+07         0.00000E+00
    0.18718E+07        -0.11676E+07         0.00000E+00
    0.00000E+00         0.00000E+00        -0.28601E+06
 
   -0.28010E+06         0.19014E+07         0.00000E+00
    0.19014E+07        -0.11598E+07         0.00000E+00
    0.00000E+00         0.00000E+00        -0.28799E+06
 
    0.46013E+06         0.23928E+05         0.00000E+00
    0.23928E+05        -0.15527E+07         0.00000E+00
    0.00000E+00         0.00000E+00        -0.21852E+06
 
    0.44819E+06         0.71083E+05         0.00000E+00
    0.71083E+05        -0.15525E+07         0.00000E+00
    0.00000E+00         0.00000E+00        -0.22087E+06
 
    0.43606E+06         0.11794E+06         0.00000E+00
    0.11794E+06        -0.15521E+07         0.00000E+00
    0.00000E+00         0.00000E+00        -0.22321E+06
 
    0.42373E+06         0.16448E+06         0.00000E+00
    0.16448E+06        -0.15515E+07         0.00000E+00
    0.00000E+00         0.00000E+00        -0.22555E+06
 
    0.41122E+06         0.21072E+06         0.00000E+00
    0.21072E+06        -0.15507E+07         0.00000E+00
    0.00000E+00         0.00000E+00        -0.22789E+06
 
    0.39852E+06         0.25666E+06         0.00000E+00
    0.25666E+06        -0.15496E+07         0.00000E+00
    0.00000E+00         0.00000E+00        -0.23022E+06
 
    0.38563E+06         0.30228E+06         0.00000E+00
    0.30228E+06        -0.15484E+07         0.00000E+00
    0.00000E+00         0.00000E+00        -0.23256E+06
 
    0.37257E+06         0.34758E+06         0.00000E+00
    0.34758E+06        -0.15470E+07         0.00000E+00
    0.00000E+00         0.00000E+00        -0.23489E+06
 
    0.35933E+06         0.39257E+06         0.00000E+00
    0.39257E+06        -0.15454E+07         0.00000E+00
    0.00000E+00         0.00000E+00        -0.23722E+06
 
    0.34591E+06         0.43725E+06         0.00000E+00
    0.43725E+06        -0.15436E+07         0.00000E+00
    0.00000E+00         0.00000E+00        -0.23954E+06
 
    0.33231E+06         0.48160E+06         0.00000E+00
    0.48160E+06        -0.15416E+07         0.00000E+00
    0.00000E+00         0.00000E+00        -0.24186E+06
 
    0.31855E+06         0.52564E+06         0.00000E+00
    0.52564E+06        -0.15395E+07         0.00000E+00
    0.00000E+00         0.00000E+00        -0.24418E+06
 
    0.30461E+06         0.56935E+06         0.00000E+00
    0.56935E+06        -0.15371E+07         0.00000E+00
    0.00000E+00         0.00000E+00        -0.24650E+06
 
    0.29051E+06         0.61273E+06         0.00000E+00
    0.61273E+06        -0.15346E+07         0.00000E+00
    0.00000E+00         0.00000E+00        -0.24881E+06
 
    0.27624E+06         0.65579E+06         0.00000E+00
    0.65579E+06        -0.15318E+07         0.00000E+00
    0.00000E+00         0.00000E+00        -0.25112E+06
 
    0.26181E+06         0.69852E+06         0.00000E+00
    0.69852E+06        -0.15289E+07         0.00000E+00
    0.00000E+00         0.00000E+00        -0.25343E+06
 
    0.24721E+06         0.74092E+06         0.00000E+00
    0.74092E+06        -0.15259E+07         0.00000E+00
    0.00000E+00         0.00000E+00        -0.25573E+06
 
    0.23246E+06         0.78299E+06         0.00000E+00
    0.78299E+06        -0.15226E+07         0.00000E+00
    0.00000E+00         0.00000E+00        -0.25803E+06
 
    0.21754E+06         0.82472E+06         0.00000E+00
    0.82472E+06        -0.15192E+07         0.00000E+00
    0.00000E+00         0.00000E+00        -0.26032E+06
 
    0.20247E+06         0.86612E+06         0.00000E+00
    0.86612E+06        -0.15156E+07         0.00000E+00
    0.00000E+00         0.00000E+00        -0.26262E+06
 
    0.18724E+06         0.90718E+06         0.00000E+00
    0.90718E+06        -0.15118E+07         0.00000E+00
    0.00000E+00         0.00000E+00        -0.26491E+06
 
    0.17185E+06         0.94791E+06         0.00000E+00
    0.94791E+06        -0.15078E+07         0.00000E+00
    0.00000E+00         0.00000E+00        -0.26719E+06
 
    0.15630E+06         0.98829E+06         0.00000E+00
    0.98829E+06        -0.15037E+07         0.00000E+00
    0.00000E+00         0.00000E+00        -0.26948E+06
 
    0.14061E+06         0.10283E+07         0.00000E+00
    0.10283E+07        -0.14994E+07         0.00000E+00
    0.00000E+00         0.00000E+00        -0.27176E+06
 
    0.12475E+06         0.10680E+07         0.00000E+00
    0.10680E+07        -0.14949E+07         0.00000E+00
    0.00000E+00         0.00000E+00        -0.27403E+06
 
    0.10875E+06         0.11074E+07         0.00000E+00
    0.11074E+07        -0.14903E+07         0.00000E+00
    0.00000E+00         0.00000E+00        -0.27631E+06
 
    0.92591E+05         0.11464E+07         0.00000E+00
    0.11464E+07        -0.14855E+07         0.00000E+00
    0.00000E+00         0.00000E+00        -0.27857E+06
 
    0.76281E+05         0.11850E+07         0.00000E+00
    0.11850E+07        -0.14805E+07         0.00000E+00
    0.00000E+00         0.00000E+00        -0.28084E+06
 
    0.59818E+05         0.12233E+07         0.00000E+00
    0.12233E+07        -0.14753E+07         0.00000E+00
    0.00000E+00         0.00000E+00        -0.28310E+06
 
    0.43204E+05         0.12613E+07         0.00000E+00
    0.12613E+07        -0.14700E+07         0.00000E+00
    0.00000E+00         0.00000E+00        -0.28536E+06
 
    0.26438E+05         0.12989E+07         0.00000E+00
    0.12989E+07        -0.14645E+07         0.00000E+00
    0.00000E+00         0.00000E+00        -0.28762E+06
 
    0.95210E+04         0.13361E+07         0.00000E+00
    0.13361E+07        -0.14589E+07         0.00000E+00
    0.00000E+00         0.00000E+00        -0.28987E+06
 
   -0.75478E+04         0.13730E+07         0.00000E+00
    0.13730E+07        -0.14531E+07         0.00000E+00
    0.00000E+00         0.00000E+00        -0.29212E+06
 
   -0.24768E+05         0.14095E+07         0.00000E+00
    0.14095E+07        -0.14471E+07         0.00000E+00
    0.00000E+00         0.00000E+00        -0.29437E+06
 
   -0.42140E+05         0.14457E+07         0.00000E+00
    0.14457E+07        -0.14409E+07         0.00000E+00
    0.00000E+00         0.00000E+00        -0.29662E+06
 
   -0.59664E+05         0.14815E+07         0.00000E+00
    0.14815E+07        -0.14346E+07         0.00000E+00
    0.00000E+00         0.00000E+00        -0.29886E+06
 
   -0.77340E+05         0.15169E+07         0.00000E+00
    0.15169E+07        -0.14281E+07         0.00000E+00
    0.00000E+00         0.00000E+00        -0.30109E+06
 
   -0.95168E+05         0.15519E+07         0.00000E+00
    0.15519E+07        -0.14215E+07         0.00000E+00
    0.00000E+00         0.00000E+00        -0.30333E+06
 
   -0.11315E+06         0.15866E+07         0.00000E+00
    0.15866E+07        -0.14147E+07         0.00000E+00
    0.00000E+00         0.00000E+00        -0.30556E+06
 
   -0.13128E+06         0.16209E+07         0.00000E+00
    0.16209E+07        -0.14077E+07         0.00000E+00
    0.00000E+00         0.00000E+00        -0.30779E+06
 
   -0.14957E+06         0.16549E+07         0.00000E+00
    0.16549E+07        -0.14005E+07         0.00000E+00
    0.00000E+00         0.00000E+00        -0.31002E+06
 
   -0.16801E+06         0.16884E+07         0.00000E+00
    0.16884E+07        -0.13932E+07         0.00000E+00
    0.00000E+00         0.00000E+00        -0.31225E+06
 
   -0.18661E+06         0.17216E+07         0.00000E+00
    0.17216E+07        -0.13857E+07         0.00000E+00
    0.00000E+00         0.00000E+00        -0.31447E+06
 
   -0.20536E+06         0.17544E+07         0.00000E+00
    0.17544E+07        -0.13781E+07         0.00000E+00
    0.00000E+00         0.00000E+00        -0.31669E+06
 
   -0.22427E+06         0.17867E+07         0.00000E+00
    0.17867E+07        -0.13703E+07         0.00000E+00
    0.00000E+00         0.00000E+00        -0.31891E+06
 
   -0.24334E+06         0.18188E+07         0.00000E+00
    0.18188E+07        -0.13623E+07         0.00000E+00
    0.00000E+00         0.00000E+00        -0.32112E+06
 
   -0.26256E+06         0.18504E+07         0.00000E+00
    0.18504E+07        -0.13541E+07         0.00000E+00
    0.00000E+00         0.00000E+00        -0.32334E+06
 
   -0.28194E+06         0.18816E+07         0.00000E+00
    0.18816E+07        -0.13458E+07         0.00000E+00
    0.00000E+00         0.00000E+00        -0.32555E+06
 
   -0.30148E+06         0.19124E+07         0.00000E+00
    0.19124E+07        -0.13373E+07         0.00000E+00
    0.00000E+00         0.00000E+00        -0.32776E+06
 
   -0.32118E+06         0.19428E+07         0.00000E+00
    0.19428E+07        -0.13287E+07         0.00000E+00
    0.00000E+00         0.00000E+00        -0.32997E+06
 
    0.50282E+06         0.24440E+05         0.00000E+00
    0.24440E+05        -0.17491E+07         0.00000E+00
    0.00000E+00         0.00000E+00        -0.24925E+06
 
    0.48936E+06         0.72597E+05         0.00000E+00
    0.72597E+05        -0.17488E+07         0.00000E+00
    0.00000E+00         0.00000E+00        -0.25190E+06
 
    0.47569E+06         0.12044E+06         0.00000E+00
    0.12044E+06        -0.17484E+07         0.00000E+00
    0.00000E+00         0.00000E+00        -0.25454E+06
 
    0.46182E+06         0.16797E+06         0.00000E+00
    0.16797E+06        -0.17477E+07         0.00000E+00
    0.00000E+00         0.00000E+00        -0.25718E+06
 
    0.44774E+06         0.21519E+06         0.00000E+00
    0.21519E+06        -0.17468E+07         0.00000E+00
    0.00000E+00         0.00000E+00        -0.25981E+06
 
    0.43348E+06         0.26209E+06         0.00000E+00
    0.26209E+06        -0.17457E+07         0.00000E+00
    0.00000E+00         0.00000E+00        -0.26245E+06
 
    0.41902E+06         0.30867E+06         0.00000E+00
    0.30867E+06        -0.17444E+07         0.00000E+00
    0.00000E+00         0.00000E+00        -0.26507E+06
 
    0.40437E+06         0.35493E+06         0.00000E+00
    0.35493E+06        -0.17428E+07         0.00000E+00
    0.00000E+00         0.00000E+00        -0.26770E+06
 
    0.38953E+06         0.40087E+06         0.00000E+00
    0.40087E+06        -0.17411E+07         0.00000E+00
    0.00000E+00         0.00000E+00        -0.27031E+06
 
    0.37451E+06         0.44648E+06         0.00000E+00
    0.44648E+06        -0.17391E+07         0.00000E+00
    0.00000E+00         0.00000E+00        -0.27293E+06
 
    0.35931E+06         0.49177E+06         0.00000E+00
    0.49177E+06        -0.17370E+07         0.00000E+00
    0.00000E+00         0.00000E+00        -0.27554E+06
 
    0.34392E+06         0.53673E+06         0.00000E+00
    0.53673E+06        -0.17346E+07         0.00000E+00
    0.00000E+00         0.00000E+00        -0.27814E+06
 
    0.32837E+06         0.58137E+06         0.00000E+00
    0.58137E+06        -0.17321E+07         0.00000E+00
    0.00000E+00         0.00000E+00        -0.28074E+06
 
    0.31263E+06         0.62568E+06         0.00000E+00
    0.62568E+06        -0.17293E+07         0.00000E+00
    0.00000E+00         0.00000E+00        -0.28334E+06
 
    0.29672E+06         0.66965E+06         0.00000E+00
    0.66965E+06        -0.17264E+07         0.00000E+00
    0.00000E+00         0.00000E+00        -0.28593E+06
 
    0.28064E+06         0.71330E+06         0.00000E+00
    0.71330E+06        -0.17232E+07         0.00000E+00
    0.00000E+00         0.00000E+00        -0.28851E+06
 
    0.26439E+06         0.75661E+06         0.00000E+00
    0.75661E+06        -0.17199E+07         0.00000E+00
    0.00000E+00         0.00000E+00        -0.29109E+06
 
    0.24797E+06         0.79959E+06         0.00000E+00
    0.79959E+06        -0.17163E+07         0.00000E+00
    0.00000E+00         0.00000E+00        -0.29367E+06
 
    0.23138E+06         0.84223E+06         0.00000E+00
    0.84223E+06        -0.17126E+07         0.00000E+00
    0.00000E+00         0.00000E+00        -0.29624E+06
 
    0.21463E+06         0.88453E+06         0.00000E+00
    0.88453E+06        -0.17087E+07         0.00000E+00
    0.00000E+00         0.00000E+00        -0.29881E+06
 
    0.19771E+06         0.92649E+06         0.00000E+00
    0.92649E+06        -0.17045E+07         0.00000E+00
    0.00000E+00         0.00000E+00        -0.30137E+06
 
    0.18063E+06         0.96812E+06         0.00000E+00
    0.96812E+06        -0.17002E+07         0.00000E+00
    0.00000E+00         0.00000E+00        -0.30392E+06
 
    0.16338E+06         0.10094E+07         0.00000E+00
    0.10094E+07        -0.16958E+07         0.00000E+00
    0.00000E+00         0.00000E+00        -0.30647E+06
 
    0.14597E+06         0.10503E+07         0.00000E+00
    0.10503E+07        -0.16911E+07         0.00000E+00
    0.00000E+00         0.00000E+00        -0.30902E+06
 
    0.12840E+06         0.10909E+07         0.00000E+00
    0.10909E+07        -0.16862E+07         0.00000E+00
    0.00000E+00         0.00000E+00        -0.31156E+06
 
    0.11067E+06         0.11312E+07         0.00000E+00
    0.11312E+07        -0.16811E+07         0.00000E+00
    0.00000E+00         0.00000E+00        -0.31410E+06
 
    0.92774E+05         0.11711E+07         0.00000E+00
    0.11711E+07        -0.16759E+07         0.00000E+00
    0.00000E+00         0.00000E+00        -0.31663E+06
 
    0.74719E+05         0.12106E+07         0.00000E+00
    0.12106E+07        -0.16705E+07         0.00000E+00
    0.00000E+00         0.00000E+00        -0.31915E+06
 
    0.56502E+05         0.12499E+07         0.00000E+00
    0.12499E+07        -0.16649E+07         0.00000E+00
    0.00000E+00         0.00000E+00        -0.32167E+06
 
    0.38124E+05         0.12887E+07         0.00000E+00
    0.12887E+07        -0.16591E+07         0.00000E+00
    0.00000E+00         0.00000E+00        -0.32419E+06
 
    0.19585E+05         0.13272E+07         0.00000E+00
    0.13272E+07        -0.16531E+07         0.00000E+00
    0.00000E+00         0.00000E+00        -0.32670E+06
 
    0.88557E+03         0.13653E+07         0.00000E+00
    0.13653E+07        -0.16469E+07         0.00000E+00
    0.00000E+00         0.00000E+00        -0.32921E+06
 
   -0.17976E+05         0.14031E+07         0.00000E+00
    0.14031E+07        -0.16406E+07         0.00000E+00
    0.00000E+00         0.00000E+00        -0.33171E+06
 
   -0.36999E+05         0.14406E+07         0.00000E+00
    0.14406E+07        -0.16340E+07         0.00000E+00
    0.00000E+00         0.00000E+00        -0.33420E+06
 
   -0.56184E+05         0.14776E+07         0.00000E+00
    0.14776E+07        -0.16273E+07         0.00000E+00
    0.00000E+00         0.00000E+00        -0.33670E+06
 
   -0.75532E+05         0.15143E+07         0.00000E+00
    0.15143E+07        -0.16204E+07         0.00000E+00
    0.00000E+00         0.00000E+00        -0.33918E+06
 
   -0.95043E+05         0.15507E+07         0.00000E+00
    0.15507E+07        -0.16133E+07         0.00000E+00
    0.00000E+00         0.00000E+00        -0.34167E+06
 
   -0.11472E+06         0.15866E+07         0.00000E+00
    0.15866E+07        -0.16060E+07         0.00000E+00
    0.00000E+00         0.00000E+00        -0.34415E+06
 
   -0.13456E+06         0.16222E+07         0.00000E+00
    0.16222E+07        -0.15985E+07         0.00000E+00
    0.00000E+00         0.00000E+00        -0.34662E+06
 
   -0.15456E+06         0.16575E+07         0.00000E+00
    0.16575E+07        -0.15909E+07         0.00000E+00
    0.00000E+00         0.00000E+00        -0.34909E+06
 
   -0.17473E+06         0.16923E+07         0.00000E+00
    0.16923E+07        -0.15831E+07         0.00000E+00
    0.00000E+00         0.00000E+00        -0.35156E+06
 
   -0.19507E+06         0.17268E+07         0.00000E+00
    0.17268E+07        -0.15750E+07         0.00000E+00
    0.00000E+00         0.00000E+00        -0.35402E+06
 
   -0.21558E+06         0.17609E+07         0.00000E+00
    0.17609E+07        -0.15668E+07         0.00000E+00
    0.00000E+00         0.00000E+00        -0.35648E+06
 
   -0.23625E+06         0.17946E+07         0.00000E+00
    0.17946E+07        -0.15584E+07         0.00000E+00
    0.00000E+00         0.00000E+00        -0.35893E+06
 
   -0.25710E+06         0.18279E+07         0.00000E+00
    0.18279E+07        -0.15498E+07         0.00000E+00
    0.00000E+00         0.00000E+00        -0.36139E+06
 
   -0.27811E+06         0.18609E+07         0.00000E+00
    0.18609E+07        -0.15411E+07         0.00000E+00
    0.00000E+00         0.00000E+00        -0.36383E+06
 
   -0.29930E+06         0.18934E+07         0.00000E+00
    0.18934E+07        -0.15321E+07         0.00000E+00
    0.00000E+00         0.00000E+00        -0.36628E+06
 
   -0.32066E+06         0.19256E+07         0.00000E+00
    0.19256E+07        -0.15229E+07         0.00000E+00
    0.00000E+00         0.00000E+00        -0.36872E+06
 
   -0.34220E+06         0.19574E+07         0.00000E+00
    0.19574E+07        -0.15136E+07         0.00000E+00
    0.00000E+00         0.00000E+00        -0.37116E+06
 
   -0.36391E+06         0.19887E+07         0.00000E+00
    0.19887E+07        -0.15041E+07         0.00000E+00
    0.00000E+00         0.00000E+00        -0.37359E+06
 
    0.54390E+06         0.24995E+05         0.00000E+00
    0.24995E+05        -0.19523E+07         0.00000E+00
    0.00000E+00         0.00000E+00        -0.28167E+06
 
    0.52886E+06         0.74236E+05         0.00000E+00
    0.74236E+05        -0.19520E+07         0.00000E+00
    0.00000E+00         0.00000E+00        -0.28463E+06
 
    0.51360E+06         0.12316E+06         0.00000E+00
    0.12316E+06        -0.19515E+07         0.00000E+00
    0.00000E+00         0.00000E+00        -0.28758E+06
 
    0.49814E+06         0.17175E+06         0.00000E+00
    0.17175E+06        -0.19508E+07         0.00000E+00
    0.00000E+00         0.00000E+00        -0.29053E+06
 
    0.48247E+06         0.22002E+06         0.00000E+00
    0.22002E+06        -0.19498E+07         0.00000E+00
    0.00000E+00         0.00000E+00        -0.29347E+06
 
    0.46659E+06         0.26797E+06         0.00000E+00
    0.26797E+06        -0.19486E+07         0.00000E+00
    0.00000E+00         0.00000E+00        -0.29641E+06
 
    0.45052E+06         0.31559E+06         0.00000E+00
    0.31559E+06        -0.19472E+07         0.00000E+00
    0.00000E+00         0.00000E+00        -0.29934E+06
 
    0.43425E+06         0.36288E+06         0.00000E+00
    0.36288E+06        -0.19456E+07         0.00000E+00
    0.00000E+00         0.00000E+00        -0.30226E+06
 
    0.41779E+06         0.40985E+06         0.00000E+00
    0.40985E+06        -0.19437E+07         0.00000E+00
    0.00000E+00         0.00000E+00        -0.30518E+06
 
    0.40114E+06         0.45648E+06         0.00000E+00
    0.45648E+06        -0.19416E+07         0.00000E+00
    0.00000E+00         0.00000E+00        -0.30809E+06
 
    0.38430E+06         0.50279E+06         0.00000E+00
    0.50279E+06        -0.19393E+07         0.00000E+00
    0.00000E+00         0.00000E+00        -0.31100E+06
 
    0.36727E+06         0.54876E+06         0.00000E+00
    0.54876E+06        -0.19367E+07         0.00000E+00
    0.00000E+00         0.00000E+00        -0.31389E+06
 
    0.35006E+06         0.59440E+06         0.00000E+00
    0.59440E+06        -0.19340E+07         0.00000E+00
    0.00000E+00         0.00000E+00        -0.31679E+06
 
    0.33267E+06         0.63970E+06         0.00000E+00
    0.63970E+06        -0.19310E+07         0.00000E+00
    0.00000E+00         0.00000E+00        -0.31967E+06
 
    0.31510E+06         0.68468E+06         0.00000E+00
    0.68468E+06        -0.19278E+07         0.00000E+00
    0.00000E+00         0.00000E+00        -0.32255E+06
 
    0.29736E+06         0.72931E+06         0.00000E+00
    0.72931E+06        -0.19245E+07         0.00000E+00
    0.00000E+00         0.00000E+00        -0.32542E+06
 
    0.27943E+06         0.77362E+06         0.00000E+00
    0.77362E+06        -0.19209E+07         0.00000E+00
    0.00000E+00         0.00000E+00        -0.32828E+06
 
    0.26134E+06         0.81758E+06         0.00000E+00
    0.81758E+06        -0.19170E+07         0.00000E+00
    0.00000E+00         0.00000E+00        -0.33114E+06
 
    0.24307E+06         0.86121E+06         0.00000E+00
    0.86121E+06        -0.19130E+07         0.00000E+00
    0.00000E+00         0.00000E+00        -0.33399E+06
 
    0.22462E+06         0.90449E+06         0.00000E+00
    0.90449E+06        -0.19088E+07         0.00000E+00
    0.00000E+00         0.00000E+00        -0.33684E+06
 
    0.20601E+06         0.94744E+06         0.00000E+00
    0.94744E+06        -0.19044E+07         0.00000E+00
    0.00000E+00         0.00000E+00        -0.33967E+06
 
    0.18722E+06         0.99005E+06         0.00000E+00
    0.99005E+06        -0.18997E+07         0.00000E+00
    0.00000E+00         0.00000E+00        -0.34250E+06
 
    0.16827E+06         0.10323E+07         0.00000E+00
    0.10323E+07        -0.18949E+07         0.00000E+00
    0.00000E+00         0.00000E+00        -0.34532E+06
 
    0.14915E+06         0.10742E+07         0.00000E+00
    0.10742E+07        -0.18898E+07         0.00000E+00
    0.00000E+00         0.00000E+00        -0.34814E+06
 
    0.12985E+06         0.11158E+07         0.00000E+00
    0.11158E+07        -0.18846E+07         0.00000E+00
    0.00000E+00         0.00000E+00        -0.35095E+06
 
    0.11039E+06         0.11571E+07         0.00000E+00
    0.11571E+07        -0.18791E+07         0.00000E+00
    0.00000E+00         0.00000E+00        -0.35375E+06
 
    0.90762E+05         0.11979E+07         0.00000E+00
    0.11979E+07        -0.18735E+07         0.00000E+00
    0.00000E+00         0.00000E+00        -0.35655E+06
 
    0.70964E+05         0.12385E+07         0.00000E+00
    0.12385E+07        -0.18676E+07         0.00000E+00
    0.00000E+00         0.00000E+00        -0.35933E+06
 
    0.50997E+05         0.12787E+07         0.00000E+00
    0.12787E+07        -0.18616E+07         0.00000E+00
    0.00000E+00         0.00000E+00        -0.36212E+06
 
    0.30861E+05         0.13185E+07         0.00000E+00
    0.13185E+07        -0.18553E+07         0.00000E+00
    0.00000E+00         0.00000E+00        -0.36489E+06
 
    0.10556E+05         0.13580E+07         0.00000E+00
    0.13580E+07        -0.18488E+07         0.00000E+00
    0.00000E+00         0.00000E+00        -0.36766E+06
 
   -0.99192E+04         0.13971E+07         0.00000E+00
    0.13971E+07        -0.18422E+07         0.00000E+00
    0.00000E+00         0.00000E+00        -0.37042E+06
 
   -0.30564E+05         0.14359E+07         0.00000E+00
    0.14359E+07        -0.18353E+07         0.00000E+00
    0.00000E+00         0.00000E+00        -0.37317E+06
 
   -0.51380E+05         0.14743E+07         0.00000E+00
    0.14743E+07        -0.18282E+07         0.00000E+00
    0.00000E+00         0.00000E+00        -0.37592E+06
 
   -0.72367E+05         0.15124E+07         0.00000E+00
    0.15124E+07        -0.18210E+07         0.00000E+00
    0.00000E+00         0.00000E+00        -0.37866E+06
 
   -0.93527E+05         0.15501E+07         0.00000E+00
    0.15501E+07        -0.18135E+07         0.00000E+00
    0.00000E+00         0.00000E+00        -0.38140E+06
 
   -0.11486E+06         0.15875E+07         0.00000E+00
    0.15875E+07        -0.18058E+07         0.00000E+00
    0.00000E+00         0.00000E+00        -0.38413E+06
 
   -0.13637E+06         0.16245E+07         0.00000E+00
    0.16245E+07        -0.17979E+07         0.00000E+00
    0.00000E+00         0.00000E+00        -0.38685E+06
 
   -0.15805E+06         0.16611E+07         0.00000E+00
    0.16611E+07        -0.17898E+07         0.00000E+00
    0.00000E+00         0.00000E+00        -0.38957E+06
 
   -0.17991E+06         0.16973E+07         0.00000E+00
    0.16973E+07        -0.17815E+07         0.00000E+00
    0.00000E+00         0.00000E+00        -0.39228E+06
 
   -0.20195E+06         0.17332E+07         0.00000E+00
    0.17332E+07        -0.17730E+07         0.00000E+00
    0.00000E+00         0.00000E+00        -0.39498E+06
 
   -0.22417E+06         0.17687E+07         0.00000E+00
    0.17687E+07        -0.17643E+07         0.00000E+00
    0.00000E+00         0.00000E+00        -0.39768E+06
 
   -0.24656E+06         0.18038E+07         0.00000E+00
    0.18038E+07        -0.17553E+07         0.00000E+00
    0.00000E+00         0.00000E+00        -0.40038E+06
 
   -0.26914E+06         0.18386E+07         0.00000E+00
    0.18386E+07        -0.17462E+07         0.00000E+00
    0.00000E+00         0.00000E+00        -0.40307E+06
 
   -0.29190E+06         0.18730E+07         0.00000E+00
    0.18730E+07        -0.17369E+07         0.00000E+00
    0.00000E+00         0.00000E+00        -0.40575E+06
 
   -0.31485E+06         0.19070E+07         0.00000E+00
    0.19070E+07        -0.17273E+07         0.00000E+00
    0.00000E+00         0.00000E+00        -0.40843E+06
 
   -0.33799E+06         0.19406E+07         0.00000E+00
    0.19406E+07        -0.17175E+07         0.00000E+00
    0.00000E+00         0.00000E+00        -0.41110E+06
 
   -0.36131E+06         0.19738E+07         0.00000E+00
    0.19738E+07        -0.17076E+07         0.00000E+00
    0.00000E+00         0.00000E+00        -0.41377E+06
 
   -0.38482E+06         0.20066E+07         0.00000E+00
    0.20066E+07        -0.16974E+07         0.00000E+00
    0.00000E+00         0.00000E+00        -0.41644E+06
 
   -0.40853E+06         0.20391E+07         0.00000E+00
    0.20391E+07        -0.16870E+07         0.00000E+00
    0.00000E+00         0.00000E+00        -0.41910E+06
 
    0.58296E+06         0.25590E+05         0.00000E+00
    0.25590E+05        -0.21631E+07         0.00000E+00
    0.00000E+00         0.00000E+00        -0.31603E+06
 
    0.56628E+06         0.75994E+05         0.00000E+00
    0.75994E+05        -0.21628E+07         0.00000E+00
    0.00000E+00         0.00000E+00        -0.31931E+06
 
    0.54939E+06         0.12607E+06         0.00000E+00
    0.12607E+06        -0.21623E+07         0.00000E+00
    0.00000E+00         0.00000E+00        -0.32259E+06
 
    0.53228E+06         0.17580E+06         0.00000E+00
    0.17580E+06        -0.21616E+07         0.00000E+00
    0.00000E+00         0.00000E+00        -0.32585E+06
 
    0.51497E+06         0.22521E+06         0.00000E+00
    0.22521E+06        -0.21605E+07         0.00000E+00
    0.00000E+00         0.00000E+00        -0.32911E+06
 
    0.49744E+06         0.27428E+06         0.00000E+00
    0.27428E+06        -0.21593E+07         0.00000E+00
    0.00000E+00         0.00000E+00        -0.33236E+06
 
    0.47972E+06         0.32301E+06         0.00000E+00
    0.32301E+06        -0.21577E+07         0.00000E+00
    0.00000E+00         0.00000E+00        -0.33561E+06
 
    0.46179E+06         0.37141E+06         0.00000E+00
    0.37141E+06        -0.21560E+07         0.00000E+00
    0.00000E+00         0.00000E+00        -0.33884E+06
 
    0.44367E+06         0.41948E+06         0.00000E+00
    0.41948E+06        -0.21540E+07         0.00000E+00
    0.00000E+00         0.00000E+00        -0.34207E+06
 
    0.42535E+06         0.46721E+06         0.00000E+00
    0.46721E+06        -0.21518E+07         0.00000E+00
    0.00000E+00         0.00000E+00        -0.34528E+06
 
    0.40685E+06         0.51460E+06         0.00000E+00
    0.51460E+06        -0.21493E+07         0.00000E+00
    0.00000E+00         0.00000E+00        -0.34849E+06
 
    0.38815E+06         0.56166E+06         0.00000E+00
    0.56166E+06        -0.21466E+07         0.00000E+00
    0.00000E+00         0.00000E+00        -0.35169E+06
 
    0.36927E+06         0.60838E+06         0.00000E+00
    0.60838E+06        -0.21437E+07         0.00000E+00
    0.00000E+00         0.00000E+00        -0.35488E+06
 
    0.35020E+06         0.65476E+06         0.00000E+00
    0.65476E+06        -0.21405E+07         0.00000E+00
    0.00000E+00         0.00000E+00        -0.35806E+06
 
    0.33095E+06         0.70080E+06         0.00000E+00
    0.70080E+06        -0.21371E+07         0.00000E+00
    0.00000E+00         0.00000E+00        -0.36123E+06
 
    0.31152E+06         0.74651E+06         0.00000E+00
    0.74651E+06        -0.21335E+07         0.00000E+00
    0.00000E+00         0.00000E+00        -0.36440E+06
 
    0.29191E+06         0.79188E+06         0.00000E+00
    0.79188E+06        -0.21297E+07         0.00000E+00
    0.00000E+00         0.00000E+00        -0.36755E+06
 
    0.27213E+06         0.83691E+06         0.00000E+00
    0.83691E+06        -0.21256E+07         0.00000E+00
    0.00000E+00         0.00000E+00        -0.37070E+06
 
    0.25216E+06         0.88160E+06         0.00000E+00
    0.88160E+06        -0.21213E+07         0.00000E+00
    0.00000E+00         0.00000E+00        -0.37383E+06
 
    0.23202E+06         0.92595E+06         0.00000E+00
    0.92595E+06        -0.21168E+07         0.00000E+00
    0.00000E+00         0.00000E+00        -0.37696E+06
 
    0.21171E+06         0.96996E+06         0.00000E+00
    0.96996E+06        -0.21121E+07         0.00000E+00
    0.00000E+00         0.00000E+00        -0.38008E+06
 
    0.19122E+06         0.10136E+07         0.00000E+00
    0.10136E+07        -0.21071E+07         0.00000E+00
    0.00000E+00         0.00000E+00        -0.38319E+06
 
    0.17055E+06         0.10570E+07         0.00000E+00
    0.10570E+07        -0.21020E+07         0.00000E+00
    0.00000E+00         0.00000E+00        -0.38629E+06
 
    0.14971E+06         0.10999E+07         0.00000E+00
    0.10999E+07        -0.20966E+07         0.00000E+00
    0.00000E+00         0.00000E+00        -0.38938E+06
 
    0.12870E+06         0.11426E+07         0.00000E+00
    0.11426E+07        -0.20910E+07         0.00000E+00
    0.00000E+00         0.00000E+00        -0.39246E+06
 
    0.10752E+06         0.11849E+07         0.00000E+00
    0.11849E+07        -0.20852E+07         0.00000E+00
    0.00000E+00         0.00000E+00        -0.39553E+06
 
    0.86155E+05         0.12268E+07         0.00000E+00
    0.12268E+07        -0.20791E+07         0.00000E+00
    0.00000E+00         0.00000E+00        -0.39859E+06
 
    0.64622E+05         0.12685E+07         0.00000E+00
    0.12685E+07        -0.20728E+07         0.00000E+00
    0.00000E+00         0.00000E+00        -0.40164E+06
 
    0.42913E+05         0.13097E+07         0.00000E+00
    0.13097E+07        -0.20664E+07         0.00000E+00
    0.00000E+00         0.00000E+00        -0.40469E+06
 
    0.21029E+05         0.13506E+07         0.00000E+00
    0.13506E+07        -0.20596E+07         0.00000E+00
    0.00000E+00         0.00000E+00        -0.40772E+06
 
   -0.10302E+04         0.13912E+07         0.00000E+00
    0.13912E+07        -0.20527E+07         0.00000E+00
    0.00000E+00         0.00000E+00        -0.41075E+06
 
   -0.23266E+05         0.14314E+07         0.00000E+00
    0.14314E+07        -0.20456E+07         0.00000E+00
    0.00000E+00         0.00000E+00        -0.41377E+06
 
   -0.45680E+05         0.14713E+07         0.00000E+00
    0.14713E+07        -0.20382E+07         0.00000E+00
    0.00000E+00         0.00000E+00        -0.41678E+06
 
   -0.68273E+05         0.15108E+07         0.00000E+00
    0.15108E+07        -0.20306E+07         0.00000E+00
    0.00000E+00         0.00000E+00        -0.41978E+06
 
   -0.91045E+05         0.15500E+07         0.00000E+00
    0.15500E+07        -0.20228E+07         0.00000E+00
    0.00000E+00         0.00000E+00        -0.42277E+06
 
   -0.11400E+06         0.15888E+07         0.00000E+00
    0.15888E+07        -0.20148E+07         0.00000E+00
    0.00000E+00         0.00000E+00        -0.42575E+06
 
   -0.13713E+06         0.16273E+07         0.00000E+00
    0.16273E+07        -0.20065E+07         0.00000E+00
    0.00000E+00         0.00000E+00        -0.42873E+06
 
   -0.16045E+06         0.16653E+07         0.00000E+00
    0.16653E+07        -0.19980E+07         0.00000E+00
    0.00000E+00         0.00000E+00        -0.43170E+06
 
   -0.18396E+06         0.17031E+07         0.00000E+00
    0.17031E+07        -0.19893E+07         0.00000E+00
    0.00000E+00         0.00000E+00        -0.43466E+06
 
   -0.20765E+06         0.17405E+07         0.00000E+00
    0.17405E+07        -0.19804E+07         0.00000E+00
    0.00000E+00         0.00000E+00        -0.43761E+06
 
   -0.23153E+06         0.17775E+07         0.00000E+00
    0.17775E+07        -0.19712E+07         0.00000E+00
    0.00000E+00         0.00000E+00        -0.44055E+06
 
   -0.25561E+06         0.18141E+07         0.00000E+00
    0.18141E+07        -0.19618E+07         0.00000E+00
    0.00000E+00         0.00000E+00        -0.44349E+06
 
   -0.27987E+06         0.18504E+07         0.00000E+00
    0.18504E+07        -0.19522E+07         0.00000E+00
    0.00000E+00         0.00000E+00        -0.44642E+06
 
   -0.30433E+06         0.18863E+07         0.00000E+00
    0.18863E+07        -0.19424E+07         0.00000E+00
    0.00000E+00         0.00000E+00        -0.44934E+06
 
   -0.32898E+06         0.19218E+07         0.00000E+00
    0.19218E+07        -0.19323E+07         0.00000E+00
    0.00000E+00         0.00000E+00        -0.45225E+06
 
   -0.35384E+06         0.19570E+07         0.00000E+00
    0.19570E+07        -0.19220E+07         0.00000E+00
    0.00000E+00         0.00000E+00        -0.45516E+06
 
   -0.37889E+06         0.19917E+07         0.00000E+00
    0.19917E+07        -0.19114E+07         0.00000E+00
    0.00000E+00         0.00000E+00        -0.45806E+06
 
   -0.40415E+06         0.20261E+07         0.00000E+00
    0.20261E+07        -0.19006E+07         0.00000E+00
    0.00000E+00         0.00000E+00        -0.46095E+06
 
   -0.42961E+06         0.20601E+07         0.00000E+00
    0.20601E+07        -0.18896E+07         0.00000E+00
    0.00000E+00         0.00000E+00        -0.46384E+06
 
   -0.45528E+06         0.20938E+07         0.00000E+00
    0.20938E+07        -0.18783E+07         0.00000E+00
    0.00000E+00         0.00000E+00        -0.46672E+06
 
    0.61952E+06         0.26223E+05         0.00000E+00
    0.26223E+05        -0.23825E+07         0.00000E+00
    0.00000E+00         0.00000E+00        -0.35259E+06
 
    0.60115E+06         0.77862E+05         0.00000E+00
    0.77862E+05        -0.23822E+07         0.00000E+00
    0.00000E+00         0.00000E+00        -0.35621E+06
 
    0.58257E+06         0.12916E+06         0.00000E+00
    0.12916E+06        -0.23817E+07         0.00000E+00
    0.00000E+00         0.00000E+00        -0.35982E+06
 
    0.56377E+06         0.18011E+06         0.00000E+00
    0.18011E+06        -0.23808E+07         0.00000E+00
    0.00000E+00         0.00000E+00        -0.36341E+06
 
    0.54476E+06         0.23072E+06         0.00000E+00
    0.23072E+06        -0.23798E+07         0.00000E+00
    0.00000E+00         0.00000E+00        -0.36700E+06
 
    0.52554E+06         0.28098E+06         0.00000E+00
    0.28098E+06        -0.23784E+07         0.00000E+00
    0.00000E+00         0.00000E+00        -0.37058E+06
 
    0.50612E+06         0.33090E+06         0.00000E+00
    0.33090E+06        -0.23768E+07         0.00000E+00
    0.00000E+00         0.00000E+00        -0.37414E+06
 
    0.48650E+06         0.38048E+06         0.00000E+00
    0.38048E+06        -0.23750E+07         0.00000E+00
    0.00000E+00         0.00000E+00        -0.37770E+06
 
    0.46669E+06         0.42972E+06         0.00000E+00
    0.42972E+06        -0.23729E+07         0.00000E+00
    0.00000E+00         0.00000E+00        -0.38124E+06
 
    0.44667E+06         0.47861E+06         0.00000E+00
    0.47861E+06        -0.23705E+07         0.00000E+00
    0.00000E+00         0.00000E+00        -0.38477E+06
 
    0.42647E+06         0.52716E+06         0.00000E+00
    0.52716E+06        -0.23679E+07         0.00000E+00
    0.00000E+00         0.00000E+00        -0.38829E+06
 
    0.40608E+06         0.57537E+06         0.00000E+00
    0.57537E+06        -0.23651E+07         0.00000E+00
    0.00000E+00         0.00000E+00        -0.39180E+06
 
    0.38550E+06         0.62324E+06         0.00000E+00
    0.62324E+06        -0.23620E+07         0.00000E+00
    0.00000E+00         0.00000E+00        -0.39530E+06
 
    0.36474E+06         0.67077E+06         0.00000E+00
    0.67077E+06        -0.23586E+07         0.00000E+00
    0.00000E+00         0.00000E+00        -0.39878E+06
 
    0.34379E+06         0.71796E+06         0.00000E+00
    0.71796E+06        -0.23551E+07         0.00000E+00
    0.00000E+00         0.00000E+00        -0.40226E+06
 
    0.32266E+06         0.76481E+06         0.00000E+00
    0.76481E+06        -0.23513E+07         0.00000E+00
    0.00000E+00         0.00000E+00        -0.40572E+06
 
    0.30135E+06         0.81131E+06         0.00000E+00
    0.81131E+06        -0.23472E+07         0.00000E+00
    0.00000E+00         0.00000E+00        -0.40917E+06
 
    0.27987E+06         0.85748E+06         0.00000E+00
    0.85748E+06        -0.23429E+07         0.00000E+00
    0.00000E+00         0.00000E+00        -0.41261E+06
 
    0.25820E+06         0.90331E+06         0.00000E+00
    0.90331E+06        -0.23384E+07         0.00000E+00
    0.00000E+00         0.00000E+00        -0.41604E+06
 
    0.23636E+06         0.94880E+06         0.00000E+00
    0.94880E+06        -0.23336E+07         0.00000E+00
    0.00000E+00         0.00000E+00        -0.41945E+06
 
    0.21434E+06         0.99395E+06         0.00000E+00
    0.99395E+06        -0.23286E+07         0.00000E+00
    0.00000E+00         0.00000E+00        -0.42285E+06
 
    0.19214E+06         0.10388E+07         0.00000E+00
    0.10388E+07        -0.23234E+07         0.00000E+00
    0.00000E+00         0.00000E+00        -0.42625E+06
 
    0.16977E+06         0.10832E+07         0.00000E+00
    0.10832E+07        -0.23179E+07         0.00000E+00
    0.00000E+00         0.00000E+00        -0.42963E+06
 
    0.14722E+06         0.11274E+07         0.00000E+00
    0.11274E+07        -0.23122E+07         0.00000E+00
    0.00000E+00         0.00000E+00        -0.43299E+06
 
    0.12450E+06         0.11711E+07         0.00000E+00
    0.11711E+07        -0.23062E+07         0.00000E+00
    0.00000E+00         0.00000E+00        -0.43635E+06
 
    0.10160E+06         0.12146E+07         0.00000E+00
    0.12146E+07        -0.23001E+07         0.00000E+00
    0.00000E+00         0.00000E+00        -0.43969E+06
 
    0.78518E+05         0.12577E+07         0.00000E+00
    0.12577E+07        -0.22937E+07         0.00000E+00
    0.00000E+00         0.00000E+00        -0.44303E+06
 
    0.55261E+05         0.13005E+07         0.00000E+00
    0.13005E+07        -0.22870E+07         0.00000E+00
    0.00000E+00         0.00000E+00        -0.44635E+06
 
    0.31826E+05         0.13429E+07         0.00000E+00
    0.13429E+07        -0.22801E+07         0.00000E+00
    0.00000E+00         0.00000E+00        -0.44966E+06
 
    0.82108E+04         0.13850E+07         0.00000E+00
    0.13850E+07        -0.22730E+07         0.00000E+00
    0.00000E+00         0.00000E+00        -0.45296E+06
 
   -0.15585E+05         0.14267E+07         0.00000E+00
    0.14267E+07        -0.22656E+07         0.00000E+00
    0.00000E+00         0.00000E+00        -0.45625E+06
 
   -0.39563E+05         0.14681E+07         0.00000E+00
    0.14681E+07        -0.22580E+07         0.00000E+00
    0.00000E+00         0.00000E+00        -0.45952E+06
 
   -0.63724E+05         0.15092E+07         0.00000E+00
    0.15092E+07        -0.22502E+07         0.00000E+00
    0.00000E+00         0.00000E+00        -0.46279E+06
 
   -0.88070E+05         0.15499E+07         0.00000E+00
    0.15499E+07        -0.22421E+07         0.00000E+00
    0.00000E+00         0.00000E+00        -0.46604E+06
 
   -0.11260E+06         0.15902E+07         0.00000E+00
    0.15902E+07        -0.22338E+07         0.00000E+00
    0.00000E+00         0.00000E+00        -0.46928E+06
 
   -0.13732E+06         0.16302E+07         0.00000E+00
    0.16302E+07        -0.22253E+07         0.00000E+00
    0.00000E+00         0.00000E+00        -0.47252E+06
 
   -0.16224E+06         0.16699E+07         0.00000E+00
    0.16699E+07        -0.22164E+07         0.00000E+00
    0.00000E+00         0.00000E+00        -0.47574E+06
 
   -0.18734E+06         0.17092E+07         0.00000E+00
    0.17092E+07        -0.22074E+07         0.00000E+00
    0.00000E+00         0.00000E+00        -0.47895E+06
 
   -0.21264E+06         0.17482E+07         0.00000E+00
    0.17482E+07        -0.21981E+07         0.00000E+00
    0.00000E+00         0.00000E+00        -0.48215E+06
 
   -0.23813E+06         0.17868E+07         0.00000E+00
    0.17868E+07        -0.21886E+07         0.00000E+00
    0.00000E+00         0.00000E+00        -0.48534E+06
 
   -0.26383E+06         0.18250E+07         0.00000E+00
    0.18250E+07        -0.21788E+07         0.00000E+00
    0.00000E+00         0.00000E+00        -0.48852E+06
 
   -0.28972E+06         0.18629E+07         0.00000E+00
    0.18629E+07        -0.21687E+07         0.00000E+00
    0.00000E+00         0.00000E+00        -0.49169E+06
 
   -0.31582E+06         0.19004E+07         0.00000E+00
    0.19004E+07        -0.21584E+07         0.00000E+00
    0.00000E+00         0.00000E+00        -0.49485E+06
 
   -0.34212E+06         0.19376E+07         0.00000E+00
    0.19376E+07        -0.21479E+07         0.00000E+00
    0.00000E+00         0.00000E+00        -0.49801E+06
 
   -0.36864E+06         0.19744E+07         0.00000E+00
    0.19744E+07        -0.21371E+07         0.00000E+00
    0.00000E+00         0.00000E+00        -0.50115E+06
 
   -0.39536E+06         0.20108E+07         0.00000E+00
    0.20108E+07        -0.21260E+07         0.00000E+00
    0.00000E+00         0.00000E+00        -0.50428E+06
 
   -0.42230E+06         0.20469E+07         0.00000E+00
    0.20469E+07        -0.21147E+07         0.00000E+00
    0.00000E+00         0.00000E+00        -0.50741E+06
 
   -0.44945E+06         0.20825E+07         0.00000E+00
    0.20825E+07        -0.21032E+07         0.00000E+00
    0.00000E+00         0.00000E+00        -0.51052E+06
 
   -0.47683E+06         0.21178E+07         0.00000E+00
    0.21178E+07        -0.20913E+07         0.00000E+00
    0.00000E+00         0.00000E+00        -0.51363E+06
 
   -0.50442E+06         0.21528E+07         0.00000E+00
    0.21528E+07        -0.20792E+07         0.00000E+00
    0.00000E+00         0.00000E+00        -0.51673E+06
 
    0.65305E+06         0.26889E+05         0.00000E+00
    0.26889E+05        -0.26113E+07         0.00000E+00
    0.00000E+00         0.00000E+00        -0.39164E+06
 
    0.63294E+06         0.79830E+05         0.00000E+00
    0.79830E+05        -0.26110E+07         0.00000E+00
    0.00000E+00         0.00000E+00        -0.39561E+06
 
    0.61261E+06         0.13242E+06         0.00000E+00
    0.13242E+06        -0.26104E+07         0.00000E+00
    0.00000E+00         0.00000E+00        -0.39956E+06
 
    0.59206E+06         0.18465E+06         0.00000E+00
    0.18465E+06        -0.26096E+07         0.00000E+00
    0.00000E+00         0.00000E+00        -0.40350E+06
 
    0.57131E+06         0.23652E+06         0.00000E+00
    0.23652E+06        -0.26084E+07         0.00000E+00
    0.00000E+00         0.00000E+00        -0.40742E+06
 
    0.55035E+06         0.28804E+06         0.00000E+00
    0.28804E+06        -0.26070E+07         0.00000E+00
    0.00000E+00         0.00000E+00        -0.41133E+06
 
    0.52919E+06         0.33922E+06         0.00000E+00
    0.33922E+06        -0.26054E+07         0.00000E+00
    0.00000E+00         0.00000E+00        -0.41523E+06
 
    0.50784E+06         0.39004E+06         0.00000E+00
    0.39004E+06        -0.26034E+07         0.00000E+00
    0.00000E+00         0.00000E+00        -0.41912E+06
 
    0.48629E+06         0.44051E+06         0.00000E+00
    0.44051E+06        -0.26012E+07         0.00000E+00
    0.00000E+00         0.00000E+00        -0.42299E+06
 
    0.46455E+06         0.49063E+06         0.00000E+00
    0.49063E+06        -0.25988E+07         0.00000E+00
    0.00000E+00         0.00000E+00        -0.42684E+06
 
    0.44262E+06         0.54041E+06         0.00000E+00
    0.54041E+06        -0.25960E+07         0.00000E+00
    0.00000E+00         0.00000E+00        -0.43068E+06
 
    0.42051E+06         0.58984E+06         0.00000E+00
    0.58984E+06        -0.25931E+07         0.00000E+00
    0.00000E+00         0.00000E+00        -0.43451E+06
 
    0.39821E+06         0.63892E+06         0.00000E+00
    0.63892E+06        -0.25898E+07         0.00000E+00
    0.00000E+00         0.00000E+00        -0.43832E+06
 
    0.37573E+06         0.68767E+06         0.00000E+00
    0.68767E+06        -0.25863E+07         0.00000E+00
    0.00000E+00         0.00000E+00        -0.44212E+06
 
    0.35307E+06         0.73606E+06         0.00000E+00
    0.73606E+06        -0.25826E+07         0.00000E+00
    0.00000E+00         0.00000E+00        -0.44590E+06
 
    0.33023E+06         0.78412E+06         0.00000E+00
    0.78412E+06        -0.25786E+07         0.00000E+00
    0.00000E+00         0.00000E+00        -0.44967E+06
 
    0.30722E+06         0.83184E+06         0.00000E+00
    0.83184E+06        -0.25743E+07         0.00000E+00
    0.00000E+00         0.00000E+00        -0.45342E+06
 
    0.28403E+06         0.87921E+06         0.00000E+00
    0.87921E+06        -0.25698E+07         0.00000E+00
    0.00000E+00         0.00000E+00        -0.45716E+06
 
    0.26066E+06         0.92625E+06         0.00000E+00
    0.92625E+06        -0.25651E+07         0.00000E+00
    0.00000E+00         0.00000E+00        -0.46089E+06
 
    0.23711E+06         0.97294E+06         0.00000E+00
    0.97294E+06        -0.25601E+07         0.00000E+00
    0.00000E+00         0.00000E+00        -0.46460E+06
 
    0.21339E+06         0.10193E+07         0.00000E+00
    0.10193E+07        -0.25548E+07         0.00000E+00
    0.00000E+00         0.00000E+00        -0.46829E+06
 
    0.18949E+06         0.10653E+07         0.00000E+00
    0.10653E+07        -0.25493E+07         0.00000E+00
    0.00000E+00         0.00000E+00        -0.47197E+06
 
    0.16542E+06         0.11110E+07         0.00000E+00
    0.11110E+07        -0.25436E+07         0.00000E+00
    0.00000E+00         0.00000E+00        -0.47564E+06
 
    0.14117E+06         0.11564E+07         0.00000E+00
    0.11564E+07        -0.25376E+07         0.00000E+00
    0.00000E+00         0.00000E+00        -0.47929E+06
 
    0.11675E+06         0.12014E+07         0.00000E+00
    0.12014E+07        -0.25314E+07         0.00000E+00
    0.00000E+00         0.00000E+00        -0.48292E+06
 
    0.92148E+05         0.12460E+07         0.00000E+00
    0.12460E+07        -0.25249E+07         0.00000E+00
    0.00000E+00         0.00000E+00        -0.48654E+06
 
    0.67368E+05         0.12904E+07         0.00000E+00
    0.12904E+07        -0.25181E+07         0.00000E+00
    0.00000E+00         0.00000E+00        -0.49015E+06
 
    0.42409E+05         0.13344E+07         0.00000E+00
    0.13344E+07        -0.25111E+07         0.00000E+00
    0.00000E+00         0.00000E+00        -0.49374E+06
 
    0.17268E+05         0.13781E+07         0.00000E+00
    0.13781E+07        -0.25039E+07         0.00000E+00
    0.00000E+00         0.00000E+00        -0.49732E+06
 
   -0.80539E+04         0.14214E+07         0.00000E+00
    0.14214E+07        -0.24963E+07         0.00000E+00
    0.00000E+00         0.00000E+00        -0.50088E+06
 
   -0.33560E+05         0.14644E+07         0.00000E+00
    0.14644E+07        -0.24886E+07         0.00000E+00
    0.00000E+00         0.00000E+00        -0.50443E+06
 
   -0.59252E+05         0.15070E+07         0.00000E+00
    0.15070E+07        -0.24806E+07         0.00000E+00
    0.00000E+00         0.00000E+00        -0.50796E+06
 
   -0.85131E+05         0.15494E+07         0.00000E+00
    0.15494E+07        -0.24723E+07         0.00000E+00
    0.00000E+00         0.00000E+00        -0.51149E+06
 
   -0.11120E+06         0.15914E+07         0.00000E+00
    0.15914E+07        -0.24638E+07         0.00000E+00
    0.00000E+00         0.00000E+00        -0.51499E+06
 
   -0.13746E+06         0.16330E+07         0.00000E+00
    0.16330E+07        -0.24550E+07         0.00000E+00
    0.00000E+00         0.00000E+00        -0.51849E+06
 
   -0.16391E+06         0.16743E+07         0.00000E+00
    0.16743E+07        -0.24459E+07         0.00000E+00
    0.00000E+00         0.00000E+00        -0.52197E+06
 
   -0.19057E+06         0.17153E+07         0.00000E+00
    0.17153E+07        -0.24366E+07         0.00000E+00
    0.00000E+00         0.00000E+00        -0.52543E+06
 
   -0.21742E+06         0.17559E+07         0.00000E+00
    0.17559E+07        -0.24270E+07         0.00000E+00
    0.00000E+00         0.00000E+00        -0.52889E+06
 
   -0.24447E+06         0.17962E+07         0.00000E+00
    0.17962E+07        -0.24172E+07         0.00000E+00
    0.00000E+00         0.00000E+00        -0.53233E+06
 
   -0.27173E+06         0.18361E+07         0.00000E+00
    0.18361E+07        -0.24071E+07         0.00000E+00
    0.00000E+00         0.00000E+00        -0.53576E+06
 
   -0.29919E+06         0.18757E+07         0.00000E+00
    0.18757E+07        -0.23967E+07         0.00000E+00
    0.00000E+00         0.00000E+00        -0.53917E+06
 
   -0.32687E+06         0.19149E+07         0.00000E+00
    0.19149E+07        -0.23860E+07         0.00000E+00
    0.00000E+00         0.00000E+00        -0.54258E+06
 
   -0.35475E+06         0.19538E+07         0.00000E+00
    0.19538E+07        -0.23751E+07         0.00000E+00
    0.00000E+00         0.00000E+00        -0.54597E+06
 
   -0.38286E+06         0.19923E+07         0.00000E+00
    0.19923E+07        -0.23639E+07         0.00000E+00
    0.00000E+00         0.00000E+00        -0.54935E+06
 
   -0.41119E+06         0.20305E+07         0.00000E+00
    0.20305E+07        -0.23524E+07         0.00000E+00
    0.00000E+00         0.00000E+00        -0.55271E+06
 
   -0.43974E+06         0.20683E+07         0.00000E+00
    0.20683E+07        -0.23406E+07         0.00000E+00
    0.00000E+00         0.00000E+00        -0.55607E+06
 
   -0.46851E+06         0.21058E+07         0.00000E+00
    0.21058E+07        -0.23286E+07         0.00000E+00
    0.00000E+00         0.00000E+00        -0.55941E+06
 
   -0.49752E+06         0.21429E+07         0.00000E+00
    0.21429E+07        -0.23162E+07         0.00000E+00
    0.00000E+00         0.00000E+00        -0.56275E+06
 
   -0.52676E+06         0.21796E+07         0.00000E+00
    0.21796E+07        -0.23036E+07         0.00000E+00
    0.00000E+00         0.00000E+00        -0.56607E+06
 
   -0.55624E+06         0.22160E+07         0.00000E+00
    0.22160E+07        -0.22907E+07         0.00000E+00
    0.00000E+00         0.00000E+00        -0.56939E+06
 
    0.68296E+06         0.27586E+05         0.00000E+00
    0.27586E+05        -0.28504E+07         0.00000E+00
    0.00000E+00         0.00000E+00        -0.43348E+06
 
    0.66103E+06         0.81887E+05         0.00000E+00
    0.81887E+05        -0.28501E+07         0.00000E+00
    0.00000E+00         0.00000E+00        -0.43781E+06
 
    0.63889E+06         0.13582E+06         0.00000E+00
    0.13582E+06        -0.28495E+07         0.00000E+00
    0.00000E+00         0.00000E+00        -0.44212E+06
 
    0.61654E+06         0.18939E+06         0.00000E+00
    0.18939E+06        -0.28486E+07         0.00000E+00
    0.00000E+00         0.00000E+00        -0.44641E+06
 
    0.59399E+06         0.24259E+06         0.00000E+00
    0.24259E+06        -0.28474E+07         0.00000E+00
    0.00000E+00         0.00000E+00        -0.45069E+06
 
    0.57125E+06         0.29543E+06         0.00000E+00
    0.29543E+06        -0.28460E+07         0.00000E+00
    0.00000E+00         0.00000E+00        -0.45495E+06
 
    0.54831E+06         0.34791E+06         0.00000E+00
    0.34791E+06        -0.28442E+07         0.00000E+00
    0.00000E+00         0.00000E+00        -0.45919E+06
 
    0.52518E+06         0.40003E+06         0.00000E+00
    0.40003E+06        -0.28422E+07         0.00000E+00
    0.00000E+00         0.00000E+00        -0.46341E+06
 
    0.50187E+06         0.45179E+06         0.00000E+00
    0.45179E+06        -0.28400E+07         0.00000E+00
    0.00000E+00         0.00000E+00        -0.46762E+06
 
    0.47837E+06         0.50320E+06         0.00000E+00
    0.50320E+06        -0.28374E+07         0.00000E+00
    0.00000E+00         0.00000E+00        -0.47181E+06
 
    0.45469E+06         0.55426E+06         0.00000E+00
    0.55426E+06        -0.28346E+07         0.00000E+00
    0.00000E+00         0.00000E+00        -0.47598E+06
 
    0.43084E+06         0.60497E+06         0.00000E+00
    0.60497E+06        -0.28315E+07         0.00000E+00
    0.00000E+00         0.00000E+00        -0.48013E+06
 
    0.40680E+06         0.65533E+06         0.00000E+00
    0.65533E+06        -0.28281E+07         0.00000E+00
    0.00000E+00         0.00000E+00        -0.48427E+06
 
    0.38259E+06         0.70535E+06         0.00000E+00
    0.70535E+06        -0.28245E+07         0.00000E+00
    0.00000E+00         0.00000E+00        -0.48838E+06
 
    0.35821E+06         0.75502E+06         0.00000E+00
    0.75502E+06        -0.28206E+07         0.00000E+00
    0.00000E+00         0.00000E+00        -0.49248E+06
 
    0.33365E+06         0.80435E+06         0.00000E+00
    0.80435E+06        -0.28165E+07         0.00000E+00
    0.00000E+00         0.00000E+00        -0.49656E+06
 
    0.30892E+06         0.85333E+06         0.00000E+00
    0.85333E+06        -0.28121E+07         0.00000E+00
    0.00000E+00         0.00000E+00        -0.50063E+06
 
    0.28402E+06         0.90198E+06         0.00000E+00
    0.90198E+06        -0.28074E+07         0.00000E+00
    0.00000E+00         0.00000E+00        -0.50467E+06
 
    0.25895E+06         0.95029E+06         0.00000E+00
    0.95029E+06        -0.28024E+07         0.00000E+00
    0.00000E+00         0.00000E+00        -0.50870E+06
 
    0.23371E+06         0.99826E+06         0.00000E+00
    0.99826E+06        -0.27972E+07         0.00000E+00
    0.00000E+00         0.00000E+00        -0.51271E+06
 
    0.20829E+06         0.10459E+07         0.00000E+00
    0.10459E+07        -0.27918E+07         0.00000E+00
    0.00000E+00         0.00000E+00        -0.51670E+06
 
    0.18271E+06         0.10932E+07         0.00000E+00
    0.10932E+07        -0.27860E+07         0.00000E+00
    0.00000E+00         0.00000E+00        -0.52067E+06
 
    0.15695E+06         0.11402E+07         0.00000E+00
    0.11402E+07        -0.27801E+07         0.00000E+00
    0.00000E+00         0.00000E+00        -0.52462E+06
 
    0.13102E+06         0.11868E+07         0.00000E+00
    0.11868E+07        -0.27738E+07         0.00000E+00
    0.00000E+00         0.00000E+00        -0.52856E+06
 
    0.10492E+06         0.12331E+07         0.00000E+00
    0.12331E+07        -0.27673E+07         0.00000E+00
    0.00000E+00         0.00000E+00        -0.53247E+06
 
    0.78636E+05         0.12791E+07         0.00000E+00
    0.12791E+07        -0.27605E+07         0.00000E+00
    0.00000E+00         0.00000E+00        -0.53637E+06
 
    0.52179E+05         0.13248E+07         0.00000E+00
    0.13248E+07        -0.27535E+07         0.00000E+00
    0.00000E+00         0.00000E+00        -0.54026E+06
 
    0.25544E+05         0.13701E+07         0.00000E+00
    0.13701E+07        -0.27461E+07         0.00000E+00
    0.00000E+00         0.00000E+00        -0.54412E+06
 
   -0.12705E+04         0.14151E+07         0.00000E+00
    0.14151E+07        -0.27386E+07         0.00000E+00
    0.00000E+00         0.00000E+00        -0.54797E+06
 
   -0.28268E+05         0.14597E+07         0.00000E+00
    0.14597E+07        -0.27307E+07         0.00000E+00
    0.00000E+00         0.00000E+00        -0.55179E+06
 
   -0.55450E+05         0.15041E+07         0.00000E+00
    0.15041E+07        -0.27226E+07         0.00000E+00
    0.00000E+00         0.00000E+00        -0.55561E+06
 
   -0.82818E+05         0.15481E+07         0.00000E+00
    0.15481E+07        -0.27142E+07         0.00000E+00
    0.00000E+00         0.00000E+00        -0.55940E+06
 
   -0.11038E+06         0.15918E+07         0.00000E+00
    0.15918E+07        -0.27055E+07         0.00000E+00
    0.00000E+00         0.00000E+00        -0.56318E+06
 
   -0.13813E+06         0.16351E+07         0.00000E+00
    0.16351E+07        -0.26966E+07         0.00000E+00
    0.00000E+00         0.00000E+00        -0.56694E+06
 
   -0.16607E+06         0.16782E+07         0.00000E+00
    0.16782E+07        -0.26873E+07         0.00000E+00
    0.00000E+00         0.00000E+00        -0.57068E+06
 
   -0.19422E+06         0.17209E+07         0.00000E+00
    0.17209E+07        -0.26778E+07         0.00000E+00
    0.00000E+00         0.00000E+00        -0.57441E+06
 
   -0.22256E+06         0.17632E+07         0.00000E+00
    0.17632E+07        -0.26680E+07         0.00000E+00
    0.00000E+00         0.00000E+00        -0.57812E+06
 
   -0.25111E+06         0.18053E+07         0.00000E+00
    0.18053E+07        -0.26580E+07         0.00000E+00
    0.00000E+00         0.00000E+00        -0.58181E+06
 
   -0.27987E+06         0.18470E+07         0.00000E+00
    0.18470E+07        -0.26476E+07         0.00000E+00
    0.00000E+00         0.00000E+00        -0.58549E+06
 
   -0.30884E+06         0.18883E+07         0.00000E+00
    0.18883E+07        -0.26369E+07         0.00000E+00
    0.00000E+00         0.00000E+00        -0.58915E+06
 
   -0.33802E+06         0.19294E+07         0.00000E+00
    0.19294E+07        -0.26260E+07         0.00000E+00
    0.00000E+00         0.00000E+00        -0.59280E+06
 
   -0.36742E+06         0.19701E+07         0.00000E+00
    0.19701E+07        -0.26147E+07         0.00000E+00
    0.00000E+00         0.00000E+00        -0.59643E+06
 
   -0.39705E+06         0.20104E+07         0.00000E+00
    0.20104E+07        -0.26032E+07         0.00000E+00
    0.00000E+00         0.00000E+00        -0.60005E+06
 
   -0.42690E+06         0.20504E+07         0.00000E+00
    0.20504E+07        -0.25914E+07         0.00000E+00
    0.00000E+00         0.00000E+00        -0.60365E+06
 
   -0.45699E+06         0.20901E+07         0.00000E+00
    0.20901E+07        -0.25792E+07         0.00000E+00
    0.00000E+00         0.00000E+00        -0.60724E+06
 
   -0.48730E+06         0.21295E+07         0.00000E+00
    0.21295E+07        -0.25668E+07         0.00000E+00
    0.00000E+00         0.00000E+00        -0.61081E+06
 
   -0.51786E+06         0.21684E+07         0.00000E+00
    0.21684E+07        -0.25540E+07         0.00000E+00
    0.00000E+00         0.00000E+00        -0.61437E+06
 
   -0.54866E+06         0.22071E+07         0.00000E+00
    0.22071E+07        -0.25409E+07         0.00000E+00
    0.00000E+00         0.00000E+00        -0.61792E+06
 
   -0.57971E+06         0.22454E+07         0.00000E+00
    0.22454E+07        -0.25275E+07         0.00000E+00
    0.00000E+00         0.00000E+00        -0.62145E+06
 
   -0.61101E+06         0.22833E+07         0.00000E+00
    0.22833E+07        -0.25138E+07         0.00000E+00
    0.00000E+00         0.00000E+00        -0.62497E+06
 
    0.70855E+06         0.28307E+05         0.00000E+00
    0.28307E+05        -0.31007E+07         0.00000E+00
    0.00000E+00         0.00000E+00        -0.47844E+06
 
    0.68473E+06         0.84017E+05         0.00000E+00
    0.84017E+05        -0.31004E+07         0.00000E+00
    0.00000E+00         0.00000E+00        -0.48314E+06
 
    0.66072E+06         0.13935E+06         0.00000E+00
    0.13935E+06        -0.30998E+07         0.00000E+00
    0.00000E+00         0.00000E+00        -0.48782E+06
 
    0.63652E+06         0.19430E+06         0.00000E+00
    0.19430E+06        -0.30989E+07         0.00000E+00
    0.00000E+00         0.00000E+00        -0.49248E+06
 
    0.61212E+06         0.24887E+06         0.00000E+00
    0.24887E+06        -0.30977E+07         0.00000E+00
    0.00000E+00         0.00000E+00        -0.49712E+06
 
    0.58755E+06         0.30308E+06         0.00000E+00
    0.30308E+06        -0.30962E+07         0.00000E+00
    0.00000E+00         0.00000E+00        -0.50174E+06
 
    0.56279E+06         0.35692E+06         0.00000E+00
    0.35692E+06        -0.30945E+07         0.00000E+00
    0.00000E+00         0.00000E+00        -0.50634E+06
 
    0.53785E+06         0.41039E+06         0.00000E+00
    0.41039E+06        -0.30924E+07         0.00000E+00
    0.00000E+00         0.00000E+00        -0.51091E+06
 
    0.51274E+06         0.46350E+06         0.00000E+00
    0.46350E+06        -0.30901E+07         0.00000E+00
    0.00000E+00         0.00000E+00        -0.51546E+06
 
    0.48745E+06         0.51624E+06         0.00000E+00
    0.51624E+06        -0.30874E+07         0.00000E+00
    0.00000E+00         0.00000E+00        -0.52000E+06
 
    0.46200E+06         0.56864E+06         0.00000E+00
    0.56864E+06        -0.30845E+07         0.00000E+00
    0.00000E+00         0.00000E+00        -0.52451E+06
 
    0.43638E+06         0.62068E+06         0.00000E+00
    0.62068E+06        -0.30814E+07         0.00000E+00
    0.00000E+00         0.00000E+00        -0.52900E+06
 
    0.41059E+06         0.67237E+06         0.00000E+00
    0.67237E+06        -0.30779E+07         0.00000E+00
    0.00000E+00         0.00000E+00        -0.53346E+06
 
    0.38464E+06         0.72371E+06         0.00000E+00
    0.72371E+06        -0.30742E+07         0.00000E+00
    0.00000E+00         0.00000E+00        -0.53791E+06
 
    0.35852E+06         0.77471E+06         0.00000E+00
    0.77471E+06        -0.30702E+07         0.00000E+00
    0.00000E+00         0.00000E+00        -0.54233E+06
 
    0.33224E+06         0.82537E+06         0.00000E+00
    0.82537E+06        -0.30659E+07         0.00000E+00
    0.00000E+00         0.00000E+00        -0.54673E+06
 
    0.30580E+06         0.87568E+06         0.00000E+00
    0.87568E+06        -0.30613E+07         0.00000E+00
    0.00000E+00         0.00000E+00        -0.55111E+06
 
    0.27920E+06         0.92566E+06         0.00000E+00
    0.92566E+06        -0.30565E+07         0.00000E+00
    0.00000E+00         0.00000E+00        -0.55546E+06
 
    0.25243E+06         0.97531E+06         0.00000E+00
    0.97531E+06        -0.30514E+07         0.00000E+00
    0.00000E+00         0.00000E+00        -0.55980E+06
 
    0.22551E+06         0.10246E+07         0.00000E+00
    0.10246E+07        -0.30461E+07         0.00000E+00
    0.00000E+00         0.00000E+00        -0.56411E+06
 
    0.19841E+06         0.10736E+07         0.00000E+00
    0.10736E+07        -0.30404E+07         0.00000E+00
    0.00000E+00         0.00000E+00        -0.56840E+06
 
    0.17116E+06         0.11223E+07         0.00000E+00
    0.11223E+07        -0.30345E+07         0.00000E+00
    0.00000E+00         0.00000E+00        -0.57267E+06
 
    0.14374E+06         0.11706E+07         0.00000E+00
    0.11706E+07        -0.30283E+07         0.00000E+00
    0.00000E+00         0.00000E+00        -0.57691E+06
 
    0.11615E+06         0.12186E+07         0.00000E+00
    0.12186E+07        -0.30218E+07         0.00000E+00
    0.00000E+00         0.00000E+00        -0.58114E+06
 
    0.88395E+05         0.12663E+07         0.00000E+00
    0.12663E+07        -0.30151E+07         0.00000E+00
    0.00000E+00         0.00000E+00        -0.58534E+06
 
    0.60469E+05         0.13136E+07         0.00000E+00
    0.13136E+07        -0.30081E+07         0.00000E+00
    0.00000E+00         0.00000E+00        -0.58952E+06
 
    0.32371E+05         0.13607E+07         0.00000E+00
    0.13607E+07        -0.30008E+07         0.00000E+00
    0.00000E+00         0.00000E+00        -0.59368E+06
 
    0.40981E+04         0.14074E+07         0.00000E+00
    0.14074E+07        -0.29932E+07         0.00000E+00
    0.00000E+00         0.00000E+00        -0.59781E+06
 
   -0.24352E+05         0.14538E+07         0.00000E+00
    0.14538E+07        -0.29853E+07         0.00000E+00
    0.00000E+00         0.00000E+00        -0.60193E+06
 
   -0.52982E+05         0.14999E+07         0.00000E+00
    0.14999E+07        -0.29771E+07         0.00000E+00
    0.00000E+00         0.00000E+00        -0.60602E+06
 
   -0.81794E+05         0.15456E+07         0.00000E+00
    0.15456E+07        -0.29687E+07         0.00000E+00
    0.00000E+00         0.00000E+00        -0.61010E+06
 
   -0.11079E+06         0.15911E+07         0.00000E+00
    0.15911E+07        -0.29600E+07         0.00000E+00
    0.00000E+00         0.00000E+00        -0.61415E+06
 
   -0.13998E+06         0.16362E+07         0.00000E+00
    0.16362E+07        -0.29509E+07         0.00000E+00
    0.00000E+00         0.00000E+00        -0.61818E+06
 
   -0.16936E+06         0.16810E+07         0.00000E+00
    0.16810E+07        -0.29416E+07         0.00000E+00
    0.00000E+00         0.00000E+00        -0.62219E+06
 
   -0.19894E+06         0.17255E+07         0.00000E+00
    0.17255E+07        -0.29320E+07         0.00000E+00
    0.00000E+00         0.00000E+00        -0.62618E+06
 
   -0.22871E+06         0.17697E+07         0.00000E+00
    0.17697E+07        -0.29221E+07         0.00000E+00
    0.00000E+00         0.00000E+00        -0.63015E+06
 
   -0.25869E+06         0.18136E+07         0.00000E+00
    0.18136E+07        -0.29118E+07         0.00000E+00
    0.00000E+00         0.00000E+00        -0.63411E+06
 
   -0.28888E+06         0.18571E+07         0.00000E+00
    0.18571E+07        -0.29013E+07         0.00000E+00
    0.00000E+00         0.00000E+00        -0.63804E+06
 
   -0.31928E+06         0.19004E+07         0.00000E+00
    0.19004E+07        -0.28905E+07         0.00000E+00
    0.00000E+00         0.00000E+00        -0.64195E+06
 
   -0.34990E+06         0.19433E+07         0.00000E+00
    0.19433E+07        -0.28793E+07         0.00000E+00
    0.00000E+00         0.00000E+00        -0.64584E+06
 
   -0.38074E+06         0.19859E+07         0.00000E+00
    0.19859E+07        -0.28678E+07         0.00000E+00
    0.00000E+00         0.00000E+00        -0.64972E+06
 
   -0.41181E+06         0.20281E+07         0.00000E+00
    0.20281E+07        -0.28561E+07         0.00000E+00
    0.00000E+00         0.00000E+00        -0.65357E+06
 
   -0.44310E+06         0.20701E+07         0.00000E+00
    0.20701E+07        -0.28439E+07         0.00000E+00
    0.00000E+00         0.00000E+00        -0.65741E+06
 
   -0.47463E+06         0.21117E+07         0.00000E+00
    0.21117E+07        -0.28315E+07         0.00000E+00
    0.00000E+00         0.00000E+00        -0.66123E+06
 
   -0.50641E+06         0.21530E+07         0.00000E+00
    0.21530E+07        -0.28188E+07         0.00000E+00
    0.00000E+00         0.00000E+00        -0.66503E+06
 
   -0.53842E+06         0.21940E+07         0.00000E+00
    0.21940E+07        -0.28057E+07         0.00000E+00
    0.00000E+00         0.00000E+00        -0.66882E+06
 
   -0.57069E+06         0.22346E+07         0.00000E+00
    0.22346E+07        -0.27922E+07         0.00000E+00
    0.00000E+00         0.00000E+00        -0.67259E+06
 
   -0.60322E+06         0.22749E+07         0.00000E+00
    0.22749E+07        -0.27785E+07         0.00000E+00
    0.00000E+00         0.00000E+00        -0.67634E+06
 
   -0.63600E+06         0.23149E+07         0.00000E+00
    0.23149E+07        -0.27644E+07         0.00000E+00
    0.00000E+00         0.00000E+00        -0.68007E+06
 
   -0.66905E+06         0.23545E+07         0.00000E+00
    0.23545E+07        -0.27499E+07         0.00000E+00
    0.00000E+00         0.00000E+00        -0.68379E+06
 
    0.72904E+06         0.29048E+05         0.00000E+00
    0.29048E+05        -0.33634E+07         0.00000E+00
    0.00000E+00         0.00000E+00        -0.52687E+06
 
    0.70327E+06         0.86207E+05         0.00000E+00
    0.86207E+05        -0.33631E+07         0.00000E+00
    0.00000E+00         0.00000E+00        -0.53196E+06
 
    0.67733E+06         0.14297E+06         0.00000E+00
    0.14297E+06        -0.33625E+07         0.00000E+00
    0.00000E+00         0.00000E+00        -0.53703E+06
 
    0.65121E+06         0.19935E+06         0.00000E+00
    0.19935E+06        -0.33615E+07         0.00000E+00
    0.00000E+00         0.00000E+00        -0.54207E+06
 
    0.62492E+06         0.25534E+06         0.00000E+00
    0.25534E+06        -0.33603E+07         0.00000E+00
    0.00000E+00         0.00000E+00        -0.54708E+06
 
    0.59846E+06         0.31095E+06         0.00000E+00
    0.31095E+06        -0.33588E+07         0.00000E+00
    0.00000E+00         0.00000E+00        -0.55207E+06
 
    0.57184E+06         0.36618E+06         0.00000E+00
    0.36618E+06        -0.33570E+07         0.00000E+00
    0.00000E+00         0.00000E+00        -0.55703E+06
 
    0.54506E+06         0.42104E+06         0.00000E+00
    0.42104E+06        -0.33549E+07         0.00000E+00
    0.00000E+00         0.00000E+00        -0.56197E+06
 
    0.51812E+06         0.47553E+06         0.00000E+00
    0.47553E+06        -0.33525E+07         0.00000E+00
    0.00000E+00         0.00000E+00        -0.56688E+06
 
    0.49103E+06         0.52966E+06         0.00000E+00
    0.52966E+06        -0.33499E+07         0.00000E+00
    0.00000E+00         0.00000E+00        -0.57177E+06
 
    0.46378E+06         0.58343E+06         0.00000E+00
    0.58343E+06        -0.33469E+07         0.00000E+00
    0.00000E+00         0.00000E+00        -0.57663E+06
 
    0.43638E+06         0.63685E+06         0.00000E+00
    0.63685E+06        -0.33437E+07         0.00000E+00
    0.00000E+00         0.00000E+00        -0.58146E+06
 
    0.40883E+06         0.68991E+06         0.00000E+00
    0.68991E+06        -0.33401E+07         0.00000E+00
    0.00000E+00         0.00000E+00        -0.58626E+06
 
    0.38113E+06         0.74263E+06         0.00000E+00
    0.74263E+06        -0.33363E+07         0.00000E+00
    0.00000E+00         0.00000E+00        -0.59104E+06
 
    0.35328E+06         0.79500E+06         0.00000E+00
    0.79500E+06        -0.33323E+07         0.00000E+00
    0.00000E+00         0.00000E+00        -0.59580E+06
 
    0.32528E+06         0.84704E+06         0.00000E+00
    0.84704E+06        -0.33279E+07         0.00000E+00
    0.00000E+00         0.00000E+00        -0.60052E+06
 
    0.29714E+06         0.89873E+06         0.00000E+00
    0.89873E+06        -0.33232E+07         0.00000E+00
    0.00000E+00         0.00000E+00        -0.60522E+06
 
    0.26884E+06         0.95010E+06         0.00000E+00
    0.95010E+06        -0.33183E+07         0.00000E+00
    0.00000E+00         0.00000E+00        -0.60989E+06
 
    0.24040E+06         0.10011E+07         0.00000E+00
    0.10011E+07        -0.33131E+07         0.00000E+00
    0.00000E+00         0.00000E+00        -0.61454E+06
 
    0.21180E+06         0.10518E+07         0.00000E+00
    0.10518E+07        -0.33076E+07         0.00000E+00
    0.00000E+00         0.00000E+00        -0.61916E+06
 
    0.18306E+06         0.11022E+07         0.00000E+00
    0.11022E+07        -0.33018E+07         0.00000E+00
    0.00000E+00         0.00000E+00        -0.62375E+06
 
    0.15416E+06         0.11523E+07         0.00000E+00
    0.11523E+07        -0.32958E+07         0.00000E+00
    0.00000E+00         0.00000E+00        -0.62832E+06
 
    0.12511E+06         0.12020E+07         0.00000E+00
    0.12020E+07        -0.32894E+07         0.00000E+00
    0.00000E+00         0.00000E+00        -0.63286E+06
 
    0.95900E+05         0.12515E+07         0.00000E+00
    0.12515E+07        -0.32828E+07         0.00000E+00
    0.00000E+00         0.00000E+00        -0.63737E+06
 
    0.66531E+05         0.13006E+07         0.00000E+00
    0.13006E+07        -0.32758E+07         0.00000E+00
    0.00000E+00         0.00000E+00        -0.64186E+06
 
    0.37001E+05         0.13494E+07         0.00000E+00
    0.13494E+07        -0.32686E+07         0.00000E+00
    0.00000E+00         0.00000E+00        -0.64632E+06
 
    0.73057E+04         0.13979E+07         0.00000E+00
    0.13979E+07        -0.32611E+07         0.00000E+00
    0.00000E+00         0.00000E+00        -0.65076E+06
 
   -0.22557E+05         0.14461E+07         0.00000E+00
    0.14461E+07        -0.32533E+07         0.00000E+00
    0.00000E+00         0.00000E+00        -0.65517E+06
 
   -0.52590E+05         0.14939E+07         0.00000E+00
    0.14939E+07        -0.32452E+07         0.00000E+00
    0.00000E+00         0.00000E+00        -0.65955E+06
 
   -0.82798E+05         0.15415E+07         0.00000E+00
    0.15415E+07        -0.32368E+07         0.00000E+00
    0.00000E+00         0.00000E+00        -0.66391E+06
 
   -0.11318E+06         0.15888E+07         0.00000E+00
    0.15888E+07        -0.32280E+07         0.00000E+00
    0.00000E+00         0.00000E+00        -0.66825E+06
 
   -0.14375E+06         0.16358E+07         0.00000E+00
    0.16358E+07        -0.32190E+07         0.00000E+00
    0.00000E+00         0.00000E+00        -0.67256E+06
 
   -0.17451E+06         0.16824E+07         0.00000E+00
    0.16824E+07        -0.32097E+07         0.00000E+00
    0.00000E+00         0.00000E+00        -0.67684E+06
 
   -0.20545E+06         0.17288E+07         0.00000E+00
    0.17288E+07        -0.32000E+07         0.00000E+00
    0.00000E+00         0.00000E+00        -0.68110E+06
 
   -0.23659E+06         0.17749E+07         0.00000E+00
    0.17749E+07        -0.31901E+07         0.00000E+00
    0.00000E+00         0.00000E+00        -0.68533E+06
 
   -0.26793E+06         0.18206E+07         0.00000E+00
    0.18206E+07        -0.31798E+07         0.00000E+00
    0.00000E+00         0.00000E+00        -0.68955E+06
 
   -0.29948E+06         0.18661E+07         0.00000E+00
    0.18661E+07        -0.31692E+07         0.00000E+00
    0.00000E+00         0.00000E+00        -0.69373E+06
 
   -0.33123E+06         0.19113E+07         0.00000E+00
    0.19113E+07        -0.31583E+07         0.00000E+00
    0.00000E+00         0.00000E+00        -0.69790E+06
 
   -0.36320E+06         0.19561E+07         0.00000E+00
    0.19561E+07        -0.31470E+07         0.00000E+00
    0.00000E+00         0.00000E+00        -0.70204E+06
 
   -0.39539E+06         0.20007E+07         0.00000E+00
    0.20007E+07        -0.31354E+07         0.00000E+00
    0.00000E+00         0.00000E+00        -0.70616E+06
 
   -0.42781E+06         0.20450E+07         0.00000E+00
    0.20450E+07        -0.31235E+07         0.00000E+00
    0.00000E+00         0.00000E+00        -0.71025E+06
 
   -0.46046E+06         0.20889E+07         0.00000E+00
    0.20889E+07        -0.31112E+07         0.00000E+00
    0.00000E+00         0.00000E+00        -0.71433E+06
 
   -0.49334E+06         0.21326E+07         0.00000E+00
    0.21326E+07        -0.30985E+07         0.00000E+00
    0.00000E+00         0.00000E+00        -0.71838E+06
 
   -0.52647E+06         0.21759E+07         0.00000E+00
    0.21759E+07        -0.30856E+07         0.00000E+00
    0.00000E+00         0.00000E+00        -0.72241E+06
 
   -0.55984E+06         0.22190E+07         0.00000E+00
    0.22190E+07        -0.30722E+07         0.00000E+00
    0.00000E+00         0.00000E+00        -0.72642E+06
 
   -0.59348E+06         0.22617E+07         0.00000E+00
    0.22617E+07        -0.30585E+07         0.00000E+00
    0.00000E+00         0.00000E+00        -0.73040E+06
 
   -0.62737E+06         0.23041E+07         0.00000E+00
    0.23041E+07        -0.30445E+07         0.00000E+00
    0.00000E+00         0.00000E+00        -0.73437E+06
 
   -0.66153E+06         0.23462E+07         0.00000E+00
    0.23462E+07        -0.30301E+07         0.00000E+00
    0.00000E+00         0.00000E+00        -0.73832E+06
 
   -0.69596E+06         0.23880E+07         0.00000E+00
    0.23880E+07        -0.30153E+07         0.00000E+00
    0.00000E+00         0.00000E+00        -0.74225E+06
 
   -0.73068E+06         0.24295E+07         0.00000E+00
    0.24295E+07        -0.30001E+07         0.00000E+00
    0.00000E+00         0.00000E+00        -0.74616E+06
 
    0.74356E+06         0.29802E+05         0.00000E+00
    0.29802E+05        -0.36394E+07         0.00000E+00
    0.00000E+00         0.00000E+00        -0.57916E+06
 
    0.71578E+06         0.88436E+05         0.00000E+00
    0.88436E+05        -0.36391E+07         0.00000E+00
    0.00000E+00         0.00000E+00        -0.58466E+06
 
    0.68784E+06         0.14666E+06         0.00000E+00
    0.14666E+06        -0.36384E+07         0.00000E+00
    0.00000E+00         0.00000E+00        -0.59012E+06
 
    0.65975E+06         0.20449E+06         0.00000E+00
    0.20449E+06        -0.36375E+07         0.00000E+00
    0.00000E+00         0.00000E+00        -0.59555E+06
 
    0.63152E+06         0.26192E+06         0.00000E+00
    0.26192E+06        -0.36363E+07         0.00000E+00
    0.00000E+00         0.00000E+00        -0.60095E+06
 
    0.60314E+06         0.31896E+06         0.00000E+00
    0.31896E+06        -0.36348E+07         0.00000E+00
    0.00000E+00         0.00000E+00        -0.60633E+06
 
    0.57462E+06         0.37562E+06         0.00000E+00
    0.37562E+06        -0.36329E+07         0.00000E+00
    0.00000E+00         0.00000E+00        -0.61167E+06
 
    0.54596E+06         0.43190E+06         0.00000E+00
    0.43190E+06        -0.36308E+07         0.00000E+00
    0.00000E+00         0.00000E+00        -0.61698E+06
 
    0.51716E+06         0.48781E+06         0.00000E+00
    0.48781E+06        -0.36284E+07         0.00000E+00
    0.00000E+00         0.00000E+00        -0.62225E+06
 
    0.48824E+06         0.54335E+06         0.00000E+00
    0.54335E+06        -0.36257E+07         0.00000E+00
    0.00000E+00         0.00000E+00        -0.62750E+06
 
    0.45918E+06         0.59853E+06         0.00000E+00
    0.59853E+06        -0.36228E+07         0.00000E+00
    0.00000E+00         0.00000E+00        -0.63272E+06
 
    0.42999E+06         0.65336E+06         0.00000E+00
    0.65336E+06        -0.36195E+07         0.00000E+00
    0.00000E+00         0.00000E+00        -0.63790E+06
 
    0.40067E+06         0.70783E+06         0.00000E+00
    0.70783E+06        -0.36159E+07         0.00000E+00
    0.00000E+00         0.00000E+00        -0.64305E+06
 
    0.37123E+06         0.76196E+06         0.00000E+00
    0.76196E+06        -0.36121E+07         0.00000E+00
    0.00000E+00         0.00000E+00        -0.64817E+06
 
    0.34165E+06         0.81575E+06         0.00000E+00
    0.81575E+06        -0.36080E+07         0.00000E+00
    0.00000E+00         0.00000E+00        -0.65326E+06
 
    0.31195E+06         0.86920E+06         0.00000E+00
    0.86920E+06        -0.36035E+07         0.00000E+00
    0.00000E+00         0.00000E+00        -0.65832E+06
 
    0.28211E+06         0.92232E+06         0.00000E+00
    0.92232E+06        -0.35988E+07         0.00000E+00
    0.00000E+00         0.00000E+00        -0.66334E+06
 
    0.25215E+06         0.97512E+06         0.00000E+00
    0.97512E+06        -0.35938E+07         0.00000E+00
    0.00000E+00         0.00000E+00        -0.66834E+06
 
    0.22205E+06         0.10276E+07         0.00000E+00
    0.10276E+07        -0.35886E+07         0.00000E+00
    0.00000E+00         0.00000E+00        -0.67330E+06
 
    0.19183E+06         0.10797E+07         0.00000E+00
    0.10797E+07        -0.35830E+07         0.00000E+00
    0.00000E+00         0.00000E+00        -0.67823E+06
 
    0.16146E+06         0.11316E+07         0.00000E+00
    0.11316E+07        -0.35771E+07         0.00000E+00
    0.00000E+00         0.00000E+00        -0.68313E+06
 
    0.13096E+06         0.11831E+07         0.00000E+00
    0.11831E+07        -0.35709E+07         0.00000E+00
    0.00000E+00         0.00000E+00        -0.68800E+06
 
    0.10032E+06         0.12343E+07         0.00000E+00
    0.12343E+07        -0.35645E+07         0.00000E+00
    0.00000E+00         0.00000E+00        -0.69283E+06
 
    0.69531E+05         0.12852E+07         0.00000E+00
    0.12852E+07        -0.35577E+07         0.00000E+00
    0.00000E+00         0.00000E+00        -0.69764E+06
 
    0.38600E+05         0.13358E+07         0.00000E+00
    0.13358E+07        -0.35507E+07         0.00000E+00
    0.00000E+00         0.00000E+00        -0.70241E+06
 
    0.75190E+04         0.13862E+07         0.00000E+00
    0.13862E+07        -0.35433E+07         0.00000E+00
    0.00000E+00         0.00000E+00        -0.70716E+06
 
   -0.23715E+05         0.14362E+07         0.00000E+00
    0.14362E+07        -0.35356E+07         0.00000E+00
    0.00000E+00         0.00000E+00        -0.71187E+06
 
   -0.55106E+05         0.14859E+07         0.00000E+00
    0.14859E+07        -0.35277E+07         0.00000E+00
    0.00000E+00         0.00000E+00        -0.71655E+06
 
   -0.86659E+05         0.15353E+07         0.00000E+00
    0.15353E+07        -0.35194E+07         0.00000E+00
    0.00000E+00         0.00000E+00        -0.72120E+06
 
   -0.11838E+06         0.15845E+07         0.00000E+00
    0.15845E+07        -0.35107E+07         0.00000E+00
    0.00000E+00         0.00000E+00        -0.72583E+06
 
   -0.15027E+06         0.16334E+07         0.00000E+00
    0.16334E+07        -0.35018E+07         0.00000E+00
    0.00000E+00         0.00000E+00        -0.73042E+06
 
   -0.18233E+06         0.16819E+07         0.00000E+00
    0.16819E+07        -0.34926E+07         0.00000E+00
    0.00000E+00         0.00000E+00        -0.73498E+06
 
   -0.21458E+06         0.17302E+07         0.00000E+00
    0.17302E+07        -0.34830E+07         0.00000E+00
    0.00000E+00         0.00000E+00        -0.73951E+06
 
   -0.24701E+06         0.17782E+07         0.00000E+00
    0.17782E+07        -0.34731E+07         0.00000E+00
    0.00000E+00         0.00000E+00        -0.74402E+06
 
   -0.27963E+06         0.18260E+07         0.00000E+00
    0.18260E+07        -0.34628E+07         0.00000E+00
    0.00000E+00         0.00000E+00        -0.74849E+06
 
   -0.31245E+06         0.18734E+07         0.00000E+00
    0.18734E+07        -0.34522E+07         0.00000E+00
    0.00000E+00         0.00000E+00        -0.75294E+06
 
   -0.34547E+06         0.19206E+07         0.00000E+00
    0.19206E+07        -0.34413E+07         0.00000E+00
    0.00000E+00         0.00000E+00        -0.75736E+06
 
   -0.37870E+06         0.19675E+07         0.00000E+00
    0.19675E+07        -0.34300E+07         0.00000E+00
    0.00000E+00         0.00000E+00        -0.76175E+06
 
   -0.41215E+06         0.20141E+07         0.00000E+00
    0.20141E+07        -0.34184E+07         0.00000E+00
    0.00000E+00         0.00000E+00        -0.76611E+06
 
   -0.44582E+06         0.20604E+07         0.00000E+00
    0.20604E+07        -0.34064E+07         0.00000E+00
    0.00000E+00         0.00000E+00        -0.77045E+06
 
   -0.47972E+06         0.21065E+07         0.00000E+00
    0.21065E+07        -0.33941E+07         0.00000E+00
    0.00000E+00         0.00000E+00        -0.77476E+06
 
   -0.51385E+06         0.21522E+07         0.00000E+00
    0.21522E+07        -0.33813E+07         0.00000E+00
    0.00000E+00         0.00000E+00        -0.77904E+06
 
   -0.54823E+06         0.21977E+07         0.00000E+00
    0.21977E+07        -0.33683E+07         0.00000E+00
    0.00000E+00         0.00000E+00        -0.78330E+06
 
   -0.58285E+06         0.22429E+07         0.00000E+00
    0.22429E+07        -0.33548E+07         0.00000E+00
    0.00000E+00         0.00000E+00        -0.78753E+06
 
   -0.61773E+06         0.22878E+07         0.00000E+00
    0.22878E+07        -0.33409E+07         0.00000E+00
    0.00000E+00         0.00000E+00        -0.79173E+06
 
   -0.65287E+06         0.23324E+07         0.00000E+00
    0.23324E+07        -0.33267E+07         0.00000E+00
    0.00000E+00         0.00000E+00        -0.79592E+06
 
   -0.68829E+06         0.23768E+07         0.00000E+00
    0.23768E+07        -0.33121E+07         0.00000E+00
    0.00000E+00         0.00000E+00        -0.80007E+06
 
   -0.72398E+06         0.24208E+07         0.00000E+00
    0.24208E+07        -0.32971E+07         0.00000E+00
    0.00000E+00         0.00000E+00        -0.80421E+06
 
   -0.75996E+06         0.24646E+07         0.00000E+00
    0.24646E+07        -0.32816E+07         0.00000E+00
    0.00000E+00         0.00000E+00        -0.80832E+06
 
   -0.79623E+06         0.25080E+07         0.00000E+00
    0.25080E+07        -0.32658E+07         0.00000E+00
    0.00000E+00         0.00000E+00        -0.81241E+06
 
    0.75112E+06         0.30563E+05         0.00000E+00
    0.30563E+05        -0.39298E+07         0.00000E+00
    0.00000E+00         0.00000E+00        -0.63573E+06
 
    0.72125E+06         0.90683E+05         0.00000E+00
    0.90683E+05        -0.39294E+07         0.00000E+00
    0.00000E+00         0.00000E+00        -0.64164E+06
 
    0.69126E+06         0.15039E+06         0.00000E+00
    0.15039E+06        -0.39288E+07         0.00000E+00
    0.00000E+00         0.00000E+00        -0.64751E+06
 
    0.66115E+06         0.20968E+06         0.00000E+00
    0.20968E+06        -0.39279E+07         0.00000E+00
    0.00000E+00         0.00000E+00        -0.65335E+06
 
    0.63093E+06         0.26856E+06         0.00000E+00
    0.26856E+06        -0.39267E+07         0.00000E+00
    0.00000E+00         0.00000E+00        -0.65915E+06
 
    0.60058E+06         0.32705E+06         0.00000E+00
    0.32705E+06        -0.39252E+07         0.00000E+00
    0.00000E+00         0.00000E+00        -0.66492E+06
 
    0.57013E+06         0.38515E+06         0.00000E+00
    0.38515E+06        -0.39234E+07         0.00000E+00
    0.00000E+00         0.00000E+00        -0.67064E+06
 
    0.53957E+06         0.44287E+06         0.00000E+00
    0.44287E+06        -0.39213E+07         0.00000E+00
    0.00000E+00         0.00000E+00        -0.67634E+06
 
    0.50890E+06         0.50022E+06         0.00000E+00
    0.50022E+06        -0.39189E+07         0.00000E+00
    0.00000E+00         0.00000E+00        -0.68199E+06
 
    0.47813E+06         0.55719E+06         0.00000E+00
    0.55719E+06        -0.39162E+07         0.00000E+00
    0.00000E+00         0.00000E+00        -0.68761E+06
 
    0.44726E+06         0.61381E+06         0.00000E+00
    0.61381E+06        -0.39132E+07         0.00000E+00
    0.00000E+00         0.00000E+00        -0.69319E+06
 
    0.41628E+06         0.67007E+06         0.00000E+00
    0.67007E+06        -0.39099E+07         0.00000E+00
    0.00000E+00         0.00000E+00        -0.69873E+06
 
    0.38520E+06         0.72598E+06         0.00000E+00
    0.72598E+06        -0.39064E+07         0.00000E+00
    0.00000E+00         0.00000E+00        -0.70424E+06
 
    0.35402E+06         0.78154E+06         0.00000E+00
    0.78154E+06        -0.39025E+07         0.00000E+00
    0.00000E+00         0.00000E+00        -0.70970E+06
 
    0.32273E+06         0.83678E+06         0.00000E+00
    0.83678E+06        -0.38984E+07         0.00000E+00
    0.00000E+00         0.00000E+00        -0.71513E+06
 
    0.29134E+06         0.89168E+06         0.00000E+00
    0.89168E+06        -0.38940E+07         0.00000E+00
    0.00000E+00         0.00000E+00        -0.72053E+06
 
    0.25985E+06         0.94626E+06         0.00000E+00
    0.94626E+06        -0.38893E+07         0.00000E+00
    0.00000E+00         0.00000E+00        -0.72588E+06
 
    0.22824E+06         0.10005E+07         0.00000E+00
    0.10005E+07        -0.38843E+07         0.00000E+00
    0.00000E+00         0.00000E+00        -0.73120E+06
 
    0.19653E+06         0.10545E+07         0.00000E+00
    0.10545E+07        -0.38789E+07         0.00000E+00
    0.00000E+00         0.00000E+00        -0.73648E+06
 
    0.16471E+06         0.11081E+07         0.00000E+00
    0.11081E+07        -0.38733E+07         0.00000E+00
    0.00000E+00         0.00000E+00        -0.74173E+06
 
    0.13277E+06         0.11614E+07         0.00000E+00
    0.11614E+07        -0.38674E+07         0.00000E+00
    0.00000E+00         0.00000E+00        -0.74693E+06
 
    0.10072E+06         0.12145E+07         0.00000E+00
    0.12145E+07        -0.38612E+07         0.00000E+00
    0.00000E+00         0.00000E+00        -0.75210E+06
 
    0.68539E+05         0.12672E+07         0.00000E+00
    0.12672E+07        -0.38547E+07         0.00000E+00
    0.00000E+00         0.00000E+00        -0.75724E+06
 
    0.36238E+05         0.13197E+07         0.00000E+00
    0.13197E+07        -0.38479E+07         0.00000E+00
    0.00000E+00         0.00000E+00        -0.76233E+06
 
    0.38080E+04         0.13718E+07         0.00000E+00
    0.13718E+07        -0.38408E+07         0.00000E+00
    0.00000E+00         0.00000E+00        -0.76739E+06
 
   -0.28755E+05         0.14237E+07         0.00000E+00
    0.14237E+07        -0.38333E+07         0.00000E+00
    0.00000E+00         0.00000E+00        -0.77242E+06
 
   -0.61456E+05         0.14753E+07         0.00000E+00
    0.14753E+07        -0.38256E+07         0.00000E+00
    0.00000E+00         0.00000E+00        -0.77740E+06
 
   -0.94300E+05         0.15267E+07         0.00000E+00
    0.15267E+07        -0.38175E+07         0.00000E+00
    0.00000E+00         0.00000E+00        -0.78236E+06
 
   -0.12729E+06         0.15777E+07         0.00000E+00
    0.15777E+07        -0.38091E+07         0.00000E+00
    0.00000E+00         0.00000E+00        -0.78727E+06
 
   -0.16044E+06         0.16285E+07         0.00000E+00
    0.16285E+07        -0.38003E+07         0.00000E+00
    0.00000E+00         0.00000E+00        -0.79215E+06
 
   -0.19374E+06         0.16790E+07         0.00000E+00
    0.16790E+07        -0.37912E+07         0.00000E+00
    0.00000E+00         0.00000E+00        -0.79700E+06
 
   -0.22721E+06         0.17293E+07         0.00000E+00
    0.17293E+07        -0.37818E+07         0.00000E+00
    0.00000E+00         0.00000E+00        -0.80181E+06
 
   -0.26086E+06         0.17793E+07         0.00000E+00
    0.17793E+07        -0.37721E+07         0.00000E+00
    0.00000E+00         0.00000E+00        -0.80658E+06
 
   -0.29468E+06         0.18290E+07         0.00000E+00
    0.18290E+07        -0.37620E+07         0.00000E+00
    0.00000E+00         0.00000E+00        -0.81133E+06
 
   -0.32868E+06         0.18785E+07         0.00000E+00
    0.18785E+07        -0.37515E+07         0.00000E+00
    0.00000E+00         0.00000E+00        -0.81603E+06
 
   -0.36288E+06         0.19277E+07         0.00000E+00
    0.19277E+07        -0.37407E+07         0.00000E+00
    0.00000E+00         0.00000E+00        -0.82071E+06
 
   -0.39728E+06         0.19767E+07         0.00000E+00
    0.19767E+07        -0.37295E+07         0.00000E+00
    0.00000E+00         0.00000E+00        -0.82535E+06
 
   -0.43188E+06         0.20254E+07         0.00000E+00
    0.20254E+07        -0.37179E+07         0.00000E+00
    0.00000E+00         0.00000E+00        -0.82996E+06
 
   -0.46670E+06         0.20739E+07         0.00000E+00
    0.20739E+07        -0.37060E+07         0.00000E+00
    0.00000E+00         0.00000E+00        -0.83454E+06
 
   -0.50173E+06         0.21221E+07         0.00000E+00
    0.21221E+07        -0.36937E+07         0.00000E+00
    0.00000E+00         0.00000E+00        -0.83908E+06
 
   -0.53700E+06         0.21700E+07         0.00000E+00
    0.21700E+07        -0.36810E+07         0.00000E+00
    0.00000E+00         0.00000E+00        -0.84360E+06
 
   -0.57250E+06         0.22177E+07         0.00000E+00
    0.22177E+07        -0.36679E+07         0.00000E+00
    0.00000E+00         0.00000E+00        -0.84808E+06
 
   -0.60825E+06         0.22651E+07         0.00000E+00
    0.22651E+07        -0.36544E+07         0.00000E+00
    0.00000E+00         0.00000E+00        -0.85253E+06
 
   -0.64426E+06         0.23123E+07         0.00000E+00
    0.23123E+07        -0.36405E+07         0.00000E+00
    0.00000E+00         0.00000E+00        -0.85695E+06
 
   -0.68052E+06         0.23592E+07         0.00000E+00
    0.23592E+07        -0.36262E+07         0.00000E+00
    0.00000E+00         0.00000E+00        -0.86135E+06
 
   -0.71706E+06         0.24059E+07         0.00000E+00
    0.24059E+07        -0.36115E+07         0.00000E+00
    0.00000E+00         0.00000E+00        -0.86571E+06
 
   -0.75387E+06         0.24522E+07         0.00000E+00
    0.24522E+07        -0.35964E+07         0.00000E+00
    0.00000E+00         0.00000E+00        -0.87005E+06
 
   -0.79097E+06         0.24984E+07         0.00000E+00
    0.24984E+07        -0.35808E+07         0.00000E+00
    0.00000E+00         0.00000E+00        -0.87435E+06
 
   -0.82837E+06         0.25442E+07         0.00000E+00
    0.25442E+07        -0.35648E+07         0.00000E+00
    0.00000E+00         0.00000E+00        -0.87863E+06
 
   -0.86608E+06         0.25898E+07         0.00000E+00
    0.25898E+07        -0.35484E+07         0.00000E+00
    0.00000E+00         0.00000E+00        -0.88289E+06
 
    0.75061E+06         0.31321E+05         0.00000E+00
    0.31321E+05        -0.42357E+07         0.00000E+00
    0.00000E+00         0.00000E+00        -0.69701E+06
 
    0.71860E+06         0.92926E+05         0.00000E+00
    0.92926E+05        -0.42354E+07         0.00000E+00
    0.00000E+00         0.00000E+00        -0.70335E+06
 
    0.68650E+06         0.15410E+06         0.00000E+00
    0.15410E+06        -0.42347E+07         0.00000E+00
    0.00000E+00         0.00000E+00        -0.70965E+06
 
    0.65432E+06         0.21486E+06         0.00000E+00
    0.21486E+06        -0.42338E+07         0.00000E+00
    0.00000E+00         0.00000E+00        -0.71590E+06
 
    0.62206E+06         0.27520E+06         0.00000E+00
    0.27520E+06        -0.42326E+07         0.00000E+00
    0.00000E+00         0.00000E+00        -0.72212E+06
 
    0.58973E+06         0.33514E+06         0.00000E+00
    0.33514E+06        -0.42312E+07         0.00000E+00
    0.00000E+00         0.00000E+00        -0.72829E+06
 
    0.55732E+06         0.39468E+06         0.00000E+00
    0.39468E+06        -0.42294E+07         0.00000E+00
    0.00000E+00         0.00000E+00        -0.73441E+06
 
    0.52483E+06         0.45384E+06         0.00000E+00
    0.45384E+06        -0.42273E+07         0.00000E+00
    0.00000E+00         0.00000E+00        -0.74050E+06
 
    0.49228E+06         0.51263E+06         0.00000E+00
    0.51263E+06        -0.42250E+07         0.00000E+00
    0.00000E+00         0.00000E+00        -0.74654E+06
 
    0.45966E+06         0.57104E+06         0.00000E+00
    0.57104E+06        -0.42223E+07         0.00000E+00
    0.00000E+00         0.00000E+00        -0.75253E+06
 
    0.42697E+06         0.62910E+06         0.00000E+00
    0.62910E+06        -0.42194E+07         0.00000E+00
    0.00000E+00         0.00000E+00        -0.75848E+06
 
    0.39421E+06         0.68680E+06         0.00000E+00
    0.68680E+06        -0.42162E+07         0.00000E+00
    0.00000E+00         0.00000E+00        -0.76439E+06
 
    0.36138E+06         0.74417E+06         0.00000E+00
    0.74417E+06        -0.42127E+07         0.00000E+00
    0.00000E+00         0.00000E+00        -0.77025E+06
 
    0.32848E+06         0.80119E+06         0.00000E+00
    0.80119E+06        -0.42089E+07         0.00000E+00
    0.00000E+00         0.00000E+00        -0.77607E+06
 
    0.29551E+06         0.85789E+06         0.00000E+00
    0.85789E+06        -0.42048E+07         0.00000E+00
    0.00000E+00         0.00000E+00        -0.78185E+06
 
    0.26247E+06         0.91426E+06         0.00000E+00
    0.91426E+06        -0.42004E+07         0.00000E+00
    0.00000E+00         0.00000E+00        -0.78758E+06
 
    0.22935E+06         0.97032E+06         0.00000E+00
    0.97032E+06        -0.41957E+07         0.00000E+00
    0.00000E+00         0.00000E+00        -0.79327E+06
 
    0.19615E+06         0.10261E+07         0.00000E+00
    0.10261E+07        -0.41907E+07         0.00000E+00
    0.00000E+00         0.00000E+00        -0.79892E+06
 
    0.16287E+06         0.10815E+07         0.00000E+00
    0.10815E+07        -0.41855E+07         0.00000E+00
    0.00000E+00         0.00000E+00        -0.80452E+06
 
    0.12951E+06         0.11367E+07         0.00000E+00
    0.11367E+07        -0.41799E+07         0.00000E+00
    0.00000E+00         0.00000E+00        -0.81008E+06
 
    0.96061E+05         0.11916E+07         0.00000E+00
    0.11916E+07        -0.41740E+07         0.00000E+00
    0.00000E+00         0.00000E+00        -0.81559E+06
 
    0.62518E+05         0.12461E+07         0.00000E+00
    0.12461E+07        -0.41678E+07         0.00000E+00
    0.00000E+00         0.00000E+00        -0.82106E+06
 
    0.28878E+05         0.13004E+07         0.00000E+00
    0.13004E+07        -0.41613E+07         0.00000E+00
    0.00000E+00         0.00000E+00        -0.82649E+06
 
   -0.48636E+04         0.13545E+07         0.00000E+00
    0.13545E+07        -0.41545E+07         0.00000E+00
    0.00000E+00         0.00000E+00        -0.83188E+06
 
   -0.38712E+05         0.14083E+07         0.00000E+00
    0.14083E+07        -0.41474E+07         0.00000E+00
    0.00000E+00         0.00000E+00        -0.83722E+06
 
   -0.72673E+05         0.14618E+07         0.00000E+00
    0.14618E+07        -0.41399E+07         0.00000E+00
    0.00000E+00         0.00000E+00        -0.84252E+06
 
   -0.10675E+06         0.15150E+07         0.00000E+00
    0.15150E+07        -0.41321E+07         0.00000E+00
    0.00000E+00         0.00000E+00        -0.84778E+06
 
   -0.14096E+06         0.15680E+07         0.00000E+00
    0.15680E+07        -0.41240E+07         0.00000E+00
    0.00000E+00         0.00000E+00        -0.85300E+06
 
   -0.17529E+06         0.16208E+07         0.00000E+00
    0.16208E+07        -0.41156E+07         0.00000E+00
    0.00000E+00         0.00000E+00        -0.85817E+06
 
   -0.20976E+06         0.16733E+07         0.00000E+00
    0.16733E+07        -0.41068E+07         0.00000E+00
    0.00000E+00         0.00000E+00        -0.86330E+06
 
   -0.24438E+06         0.17255E+07         0.00000E+00
    0.17255E+07        -0.40976E+07         0.00000E+00
    0.00000E+00         0.00000E+00        -0.86840E+06
 
   -0.27915E+06         0.17775E+07         0.00000E+00
    0.17775E+07        -0.40881E+07         0.00000E+00
    0.00000E+00         0.00000E+00        -0.87345E+06
 
   -0.31408E+06         0.18293E+07         0.00000E+00
    0.18293E+07        -0.40782E+07         0.00000E+00
    0.00000E+00         0.00000E+00        -0.87846E+06
 
   -0.34918E+06         0.18809E+07         0.00000E+00
    0.18809E+07        -0.40680E+07         0.00000E+00
    0.00000E+00         0.00000E+00        -0.88344E+06
 
   -0.38445E+06         0.19322E+07         0.00000E+00
    0.19322E+07        -0.40574E+07         0.00000E+00
    0.00000E+00         0.00000E+00        -0.88837E+06
 
   -0.41990E+06         0.19833E+07         0.00000E+00
    0.19833E+07        -0.40464E+07         0.00000E+00
    0.00000E+00         0.00000E+00        -0.89326E+06
 
   -0.45555E+06         0.20341E+07         0.00000E+00
    0.20341E+07        -0.40350E+07         0.00000E+00
    0.00000E+00         0.00000E+00        -0.89812E+06
 
   -0.49139E+06         0.20848E+07         0.00000E+00
    0.20848E+07        -0.40233E+07         0.00000E+00
    0.00000E+00         0.00000E+00        -0.90294E+06
 
   -0.52745E+06         0.21352E+07         0.00000E+00
    0.21352E+07        -0.40111E+07         0.00000E+00
    0.00000E+00         0.00000E+00        -0.90772E+06
 
   -0.56372E+06         0.21854E+07         0.00000E+00
    0.21854E+07        -0.39986E+07         0.00000E+00
    0.00000E+00         0.00000E+00        -0.91246E+06
 
   -0.60023E+06         0.22353E+07         0.00000E+00
    0.22353E+07        -0.39856E+07         0.00000E+00
    0.00000E+00         0.00000E+00        -0.91717E+06
 
   -0.63697E+06         0.22850E+07         0.00000E+00
    0.22850E+07        -0.39722E+07         0.00000E+00
    0.00000E+00         0.00000E+00        -0.92184E+06
 
   -0.67395E+06         0.23345E+07         0.00000E+00
    0.23345E+07        -0.39584E+07         0.00000E+00
    0.00000E+00         0.00000E+00        -0.92647E+06
 
   -0.71119E+06         0.23838E+07         0.00000E+00
    0.23838E+07        -0.39442E+07         0.00000E+00
    0.00000E+00         0.00000E+00        -0.93107E+06
 
   -0.74870E+06         0.24328E+07         0.00000E+00
    0.24328E+07        -0.39295E+07         0.00000E+00
    0.00000E+00         0.00000E+00        -0.93564E+06
 
   -0.78649E+06         0.24817E+07         0.00000E+00
    0.24817E+07        -0.39144E+07         0.00000E+00
    0.00000E+00         0.00000E+00        -0.94017E+06
 
   -0.82456E+06         0.25302E+07         0.00000E+00
    0.25302E+07        -0.38988E+07         0.00000E+00
    0.00000E+00         0.00000E+00        -0.94467E+06
 
   -0.86292E+06         0.25786E+07         0.00000E+00
    0.25786E+07        -0.38827E+07         0.00000E+00
    0.00000E+00         0.00000E+00        -0.94913E+06
 
   -0.90160E+06         0.26267E+07         0.00000E+00
    0.26267E+07        -0.38662E+07         0.00000E+00
    0.00000E+00         0.00000E+00        -0.95357E+06
 
   -0.94059E+06         0.26746E+07         0.00000E+00
    0.26746E+07        -0.38493E+07         0.00000E+00
    0.00000E+00         0.00000E+00        -0.95797E+06
 
    0.74081E+06         0.32068E+05         0.00000E+00
    0.32068E+05        -0.45583E+07         0.00000E+00
    0.00000E+00         0.00000E+00        -0.76349E+06
 
    0.70659E+06         0.95137E+05         0.00000E+00
    0.95137E+05        -0.45580E+07         0.00000E+00
    0.00000E+00         0.00000E+00        -0.77028E+06
 
    0.67233E+06         0.15776E+06         0.00000E+00
    0.15776E+06        -0.45574E+07         0.00000E+00
    0.00000E+00         0.00000E+00        -0.77701E+06
 
    0.63804E+06         0.21996E+06         0.00000E+00
    0.21996E+06        -0.45565E+07         0.00000E+00
    0.00000E+00         0.00000E+00        -0.78370E+06
 
    0.60371E+06         0.28174E+06         0.00000E+00
    0.28174E+06        -0.45554E+07         0.00000E+00
    0.00000E+00         0.00000E+00        -0.79033E+06
 
    0.56935E+06         0.34312E+06         0.00000E+00
    0.34312E+06        -0.45539E+07         0.00000E+00
    0.00000E+00         0.00000E+00        -0.79691E+06
 
    0.53497E+06         0.40410E+06         0.00000E+00
    0.40410E+06        -0.45522E+07         0.00000E+00
    0.00000E+00         0.00000E+00        -0.80345E+06
 
    0.50055E+06         0.46469E+06         0.00000E+00
    0.46469E+06        -0.45502E+07         0.00000E+00
    0.00000E+00         0.00000E+00        -0.80993E+06
 
    0.46611E+06         0.52490E+06         0.00000E+00
    0.52490E+06        -0.45479E+07         0.00000E+00
    0.00000E+00         0.00000E+00        -0.81636E+06
 
    0.43165E+06         0.58475E+06         0.00000E+00
    0.58475E+06        -0.45454E+07         0.00000E+00
    0.00000E+00         0.00000E+00        -0.82274E+06
 
    0.39715E+06         0.64425E+06         0.00000E+00
    0.64425E+06        -0.45425E+07         0.00000E+00
    0.00000E+00         0.00000E+00        -0.82907E+06
 
    0.36263E+06         0.70339E+06         0.00000E+00
    0.70339E+06        -0.45394E+07         0.00000E+00
    0.00000E+00         0.00000E+00        -0.83535E+06
 
    0.32808E+06         0.76221E+06         0.00000E+00
    0.76221E+06        -0.45360E+07         0.00000E+00
    0.00000E+00         0.00000E+00        -0.84158E+06
 
    0.29350E+06         0.82069E+06         0.00000E+00
    0.82069E+06        -0.45323E+07         0.00000E+00
    0.00000E+00         0.00000E+00        -0.84775E+06
 
    0.25888E+06         0.87886E+06         0.00000E+00
    0.87886E+06        -0.45283E+07         0.00000E+00
    0.00000E+00         0.00000E+00        -0.85388E+06
 
    0.22423E+06         0.93671E+06         0.00000E+00
    0.93671E+06        -0.45240E+07         0.00000E+00
    0.00000E+00         0.00000E+00        -0.85995E+06
 
    0.18954E+06         0.99427E+06         0.00000E+00
    0.99427E+06        -0.45194E+07         0.00000E+00
    0.00000E+00         0.00000E+00        -0.86597E+06
 
    0.15481E+06         0.10515E+07         0.00000E+00
    0.10515E+07        -0.45145E+07         0.00000E+00
    0.00000E+00         0.00000E+00        -0.87194E+06
 
    0.12003E+06         0.11085E+07         0.00000E+00
    0.11085E+07        -0.45094E+07         0.00000E+00
    0.00000E+00         0.00000E+00        -0.87787E+06
 
    0.85203E+05         0.11652E+07         0.00000E+00
    0.11652E+07        -0.45039E+07         0.00000E+00
    0.00000E+00         0.00000E+00        -0.88374E+06
 
    0.50316E+05         0.12216E+07         0.00000E+00
    0.12216E+07        -0.44981E+07         0.00000E+00
    0.00000E+00         0.00000E+00        -0.88956E+06
 
    0.15368E+05         0.12778E+07         0.00000E+00
    0.12778E+07        -0.44920E+07         0.00000E+00
    0.00000E+00         0.00000E+00        -0.89533E+06
 
   -0.19648E+05         0.13337E+07         0.00000E+00
    0.13337E+07        -0.44856E+07         0.00000E+00
    0.00000E+00         0.00000E+00        -0.90105E+06
 
   -0.54738E+05         0.13894E+07         0.00000E+00
    0.13894E+07        -0.44789E+07         0.00000E+00
    0.00000E+00         0.00000E+00        -0.90672E+06
 
   -0.89907E+05         0.14448E+07         0.00000E+00
    0.14448E+07        -0.44718E+07         0.00000E+00
    0.00000E+00         0.00000E+00        -0.91234E+06
 
   -0.12516E+06         0.15000E+07         0.00000E+00
    0.15000E+07        -0.44644E+07         0.00000E+00
    0.00000E+00         0.00000E+00        -0.91791E+06
 
   -0.16051E+06         0.15549E+07         0.00000E+00
    0.15549E+07        -0.44567E+07         0.00000E+00
    0.00000E+00         0.00000E+00        -0.92344E+06
 
   -0.19597E+06         0.16096E+07         0.00000E+00
    0.16096E+07        -0.44486E+07         0.00000E+00
    0.00000E+00         0.00000E+00        -0.92891E+06
 
   -0.23153E+06         0.16641E+07         0.00000E+00
    0.16641E+07        -0.44402E+07         0.00000E+00
    0.00000E+00         0.00000E+00        -0.93434E+06
 
   -0.26721E+06         0.17184E+07         0.00000E+00
    0.17184E+07        -0.44314E+07         0.00000E+00
    0.00000E+00         0.00000E+00        -0.93972E+06
 
   -0.30301E+06         0.17725E+07         0.00000E+00
    0.17725E+07        -0.44223E+07         0.00000E+00
    0.00000E+00         0.00000E+00        -0.94505E+06
 
   -0.33895E+06         0.18263E+07         0.00000E+00
    0.18263E+07        -0.44127E+07         0.00000E+00
    0.00000E+00         0.00000E+00        -0.95034E+06
 
   -0.37503E+06         0.18800E+07         0.00000E+00
    0.18800E+07        -0.44029E+07         0.00000E+00
    0.00000E+00         0.00000E+00        -0.95558E+06
 
   -0.41127E+06         0.19334E+07         0.00000E+00
    0.19334E+07        -0.43926E+07         0.00000E+00
    0.00000E+00         0.00000E+00        -0.96077E+06
 
   -0.44766E+06         0.19866E+07         0.00000E+00
    0.19866E+07        -0.43819E+07         0.00000E+00
    0.00000E+00         0.00000E+00        -0.96592E+06
 
   -0.48423E+06         0.20397E+07         0.00000E+00
    0.20397E+07        -0.43709E+07         0.00000E+00
    0.00000E+00         0.00000E+00        -0.97102E+06
 
   -0.52098E+06         0.20925E+07         0.00000E+00
    0.20925E+07        -0.43594E+07         0.00000E+00
    0.00000E+00         0.00000E+00        -0.97608E+06
 
   -0.55793E+06         0.21452E+07         0.00000E+00
    0.21452E+07        -0.43475E+07         0.00000E+00
    0.00000E+00         0.00000E+00        -0.98109E+06
 
   -0.59507E+06         0.21976E+07         0.00000E+00
    0.21976E+07        -0.43352E+07         0.00000E+00
    0.00000E+00         0.00000E+00        -0.98606E+06
 
   -0.63243E+06         0.22499E+07         0.00000E+00
    0.22499E+07        -0.43225E+07         0.00000E+00
    0.00000E+00         0.00000E+00        -0.99099E+06
 
   -0.67001E+06         0.23020E+07         0.00000E+00
    0.23020E+07        -0.43094E+07         0.00000E+00
    0.00000E+00         0.00000E+00        -0.99588E+06
 
   -0.70783E+06         0.23539E+07         0.00000E+00
    0.23539E+07        -0.42958E+07         0.00000E+00
    0.00000E+00         0.00000E+00        -0.10007E+07
 
   -0.74589E+06         0.24056E+07         0.00000E+00
    0.24056E+07        -0.42817E+07         0.00000E+00
    0.00000E+00         0.00000E+00        -0.10055E+07
 
   -0.78421E+06         0.24571E+07         0.00000E+00
    0.24571E+07        -0.42672E+07         0.00000E+00
    0.00000E+00         0.00000E+00        -0.10103E+07
 
   -0.82279E+06         0.25084E+07         0.00000E+00
    0.25084E+07        -0.42522E+07         0.00000E+00
    0.00000E+00         0.00000E+00        -0.10150E+07
 
   -0.86166E+06         0.25595E+07         0.00000E+00
    0.25595E+07        -0.42368E+07         0.00000E+00
    0.00000E+00         0.00000E+00        -0.10197E+07
 
   -0.90082E+06         0.26104E+07         0.00000E+00
    0.26104E+07        -0.42208E+07         0.00000E+00
    0.00000E+00         0.00000E+00        -0.10243E+07
 
   -0.94028E+06         0.26611E+07         0.00000E+00
    0.26611E+07        -0.42044E+07         0.00000E+00
    0.00000E+00         0.00000E+00        -0.10289E+07
 
   -0.98006E+06         0.27116E+07         0.00000E+00
    0.27116E+07        -0.41875E+07         0.00000E+00
    0.00000E+00         0.00000E+00        -0.10335E+07
 
   -0.10202E+07         0.27620E+07         0.00000E+00
    0.27620E+07        -0.41700E+07         0.00000E+00
    0.00000E+00         0.00000E+00        -0.10380E+07
 
    0.72034E+06         0.32793E+05         0.00000E+00
    0.32793E+05        -0.48988E+07         0.00000E+00
    0.00000E+00         0.00000E+00        -0.83569E+06
 
    0.68386E+06         0.97284E+05         0.00000E+00
    0.97284E+05        -0.48985E+07         0.00000E+00
    0.00000E+00         0.00000E+00        -0.84293E+06
 
    0.64740E+06         0.16133E+06         0.00000E+00
    0.16133E+06        -0.48980E+07         0.00000E+00
    0.00000E+00         0.00000E+00        -0.85011E+06
 
    0.61096E+06         0.22493E+06         0.00000E+00
    0.22493E+06        -0.48971E+07         0.00000E+00
    0.00000E+00         0.00000E+00        -0.85724E+06
 
    0.57454E+06         0.28812E+06         0.00000E+00
    0.28812E+06        -0.48961E+07         0.00000E+00
    0.00000E+00         0.00000E+00        -0.86430E+06
 
    0.53814E+06         0.35089E+06         0.00000E+00
    0.35089E+06        -0.48947E+07         0.00000E+00
    0.00000E+00         0.00000E+00        -0.87131E+06
 
    0.50177E+06         0.41327E+06         0.00000E+00
    0.41327E+06        -0.48931E+07         0.00000E+00
    0.00000E+00         0.00000E+00        -0.87826E+06
 
    0.46542E+06         0.47526E+06         0.00000E+00
    0.47526E+06        -0.48911E+07         0.00000E+00
    0.00000E+00         0.00000E+00        -0.88514E+06
 
    0.42910E+06         0.53688E+06         0.00000E+00
    0.53688E+06        -0.48890E+07         0.00000E+00
    0.00000E+00         0.00000E+00        -0.89197E+06
 
    0.39281E+06         0.59814E+06         0.00000E+00
    0.59814E+06        -0.48865E+07         0.00000E+00
    0.00000E+00         0.00000E+00        -0.89874E+06
 
    0.35653E+06         0.65905E+06         0.00000E+00
    0.65905E+06        -0.48838E+07         0.00000E+00
    0.00000E+00         0.00000E+00        -0.90545E+06
 
    0.32028E+06         0.71963E+06         0.00000E+00
    0.71963E+06        -0.48808E+07         0.00000E+00
    0.00000E+00         0.00000E+00        -0.91211E+06
 
    0.28405E+06         0.77987E+06         0.00000E+00
    0.77987E+06        -0.48775E+07         0.00000E+00
    0.00000E+00         0.00000E+00        -0.91870E+06
 
    0.24784E+06         0.83981E+06         0.00000E+00
    0.83981E+06        -0.48740E+07         0.00000E+00
    0.00000E+00         0.00000E+00        -0.92523E+06
 
    0.21163E+06         0.89944E+06         0.00000E+00
    0.89944E+06        -0.48702E+07         0.00000E+00
    0.00000E+00         0.00000E+00        -0.93171E+06
 
    0.17544E+06         0.95877E+06         0.00000E+00
    0.95877E+06        -0.48660E+07         0.00000E+00
    0.00000E+00         0.00000E+00        -0.93812E+06
 
    0.13925E+06         0.10178E+07         0.00000E+00
    0.10178E+07        -0.48616E+07         0.00000E+00
    0.00000E+00         0.00000E+00        -0.94448E+06
 
    0.10306E+06         0.10766E+07         0.00000E+00
    0.10766E+07        -0.48569E+07         0.00000E+00
    0.00000E+00         0.00000E+00        -0.95077E+06
 
    0.66863E+05         0.11351E+07         0.00000E+00
    0.11351E+07        -0.48519E+07         0.00000E+00
    0.00000E+00         0.00000E+00        -0.95701E+06
 
    0.30654E+05         0.11934E+07         0.00000E+00
    0.11934E+07        -0.48466E+07         0.00000E+00
    0.00000E+00         0.00000E+00        -0.96319E+06
 
   -0.55726E+04         0.12514E+07         0.00000E+00
    0.12514E+07        -0.48410E+07         0.00000E+00
    0.00000E+00         0.00000E+00        -0.96932E+06
 
   -0.41825E+05         0.13091E+07         0.00000E+00
    0.13091E+07        -0.48351E+07         0.00000E+00
    0.00000E+00         0.00000E+00        -0.97538E+06
 
   -0.78109E+05         0.13667E+07         0.00000E+00
    0.13667E+07        -0.48288E+07         0.00000E+00
    0.00000E+00         0.00000E+00        -0.98139E+06
 
   -0.11443E+06         0.14240E+07         0.00000E+00
    0.14240E+07        -0.48223E+07         0.00000E+00
    0.00000E+00         0.00000E+00        -0.98734E+06
 
   -0.15080E+06         0.14811E+07         0.00000E+00
    0.14811E+07        -0.48154E+07         0.00000E+00
    0.00000E+00         0.00000E+00        -0.99323E+06
 
   -0.18723E+06         0.15380E+07         0.00000E+00
    0.15380E+07        -0.48081E+07         0.00000E+00
    0.00000E+00         0.00000E+00        -0.99907E+06
 
   -0.22372E+06         0.15946E+07         0.00000E+00
    0.15946E+07        -0.48005E+07         0.00000E+00
    0.00000E+00         0.00000E+00        -0.10049E+07
 
   -0.26029E+06         0.16511E+07         0.00000E+00
    0.16511E+07        -0.47926E+07         0.00000E+00
    0.00000E+00         0.00000E+00        -0.10106E+07
 
   -0.29694E+06         0.17074E+07         0.00000E+00
    0.17074E+07        -0.47843E+07         0.00000E+00
    0.00000E+00         0.00000E+00        -0.10162E+07
 
   -0.33368E+06         0.17635E+07         0.00000E+00
    0.17635E+07        -0.47756E+07         0.00000E+00
    0.00000E+00         0.00000E+00        -0.10219E+07
 
   -0.37053E+06         0.18194E+07         0.00000E+00
    0.18194E+07        -0.47666E+07         0.00000E+00
    0.00000E+00         0.00000E+00        -0.10274E+07
 
   -0.40748E+06         0.18752E+07         0.00000E+00
    0.18752E+07        -0.47572E+07         0.00000E+00
    0.00000E+00         0.00000E+00        -0.10329E+07
 
   -0.44456E+06         0.19308E+07         0.00000E+00
    0.19308E+07        -0.47474E+07         0.00000E+00
    0.00000E+00         0.00000E+00        -0.10384E+07
 
   -0.48178E+06         0.19862E+07         0.00000E+00
    0.19862E+07        -0.47372E+07         0.00000E+00
    0.00000E+00         0.00000E+00        -0.10438E+07
 
   -0.51914E+06         0.20414E+07         0.00000E+00
    0.20414E+07        -0.47265E+07         0.00000E+00
    0.00000E+00         0.00000E+00        -0.10491E+07
 
   -0.55665E+06         0.20965E+07         0.00000E+00
    0.20965E+07        -0.47155E+07         0.00000E+00
    0.00000E+00         0.00000E+00        -0.10544E+07
 
   -0.59434E+06         0.21514E+07         0.00000E+00
    0.21514E+07        -0.47040E+07         0.00000E+00
    0.00000E+00         0.00000E+00        -0.10597E+07
 
   -0.63221E+06         0.22062E+07         0.00000E+00
    0.22062E+07        -0.46922E+07         0.00000E+00
    0.00000E+00         0.00000E+00        -0.10649E+07
 
   -0.67026E+06         0.22608E+07         0.00000E+00
    0.22608E+07        -0.46798E+07         0.00000E+00
    0.00000E+00         0.00000E+00        -0.10700E+07
 
   -0.70853E+06         0.23153E+07         0.00000E+00
    0.23153E+07        -0.46670E+07         0.00000E+00
    0.00000E+00         0.00000E+00        -0.10751E+07
 
   -0.74701E+06         0.23696E+07         0.00000E+00
    0.23696E+07        -0.46538E+07         0.00000E+00
    0.00000E+00         0.00000E+00        -0.10802E+07
 
   -0.78571E+06         0.24237E+07         0.00000E+00
    0.24237E+07        -0.46401E+07         0.00000E+00
    0.00000E+00         0.00000E+00        -0.10852E+07
 
   -0.82467E+06         0.24777E+07         0.00000E+00
    0.24777E+07        -0.46259E+07         0.00000E+00
    0.00000E+00         0.00000E+00        -0.10901E+07
 
   -0.86387E+06         0.25316E+07         0.00000E+00
    0.25316E+07        -0.46112E+07         0.00000E+00
    0.00000E+00         0.00000E+00        -0.10950E+07
 
   -0.90335E+06         0.25853E+07         0.00000E+00
    0.25853E+07        -0.45960E+07         0.00000E+00
    0.00000E+00         0.00000E+00        -0.10999E+07
 
   -0.94310E+06         0.26389E+07         0.00000E+00
    0.26389E+07        -0.45803E+07         0.00000E+00
    0.00000E+00         0.00000E+00        -0.11047E+07
 
   -0.98316E+06         0.26923E+07         0.00000E+00
    0.26923E+07        -0.45641E+07         0.00000E+00
    0.00000E+00         0.00000E+00        -0.11095E+07
 
   -0.10235E+07         0.27455E+07         0.00000E+00
    0.27455E+07        -0.45474E+07         0.00000E+00
    0.00000E+00         0.00000E+00        -0.11142E+07
 
   -0.10642E+07         0.27986E+07         0.00000E+00
    0.27986E+07        -0.45301E+07         0.00000E+00
    0.00000E+00         0.00000E+00        -0.11189E+07
 
   -0.11052E+07         0.28515E+07         0.00000E+00
    0.28515E+07        -0.45123E+07         0.00000E+00
    0.00000E+00         0.00000E+00        -0.11235E+07
 
    0.68768E+06         0.33484E+05         0.00000E+00
    0.33484E+05        -0.52585E+07         0.00000E+00
    0.00000E+00         0.00000E+00        -0.91417E+06
 
    0.64889E+06         0.99335E+05         0.00000E+00
    0.99335E+05        -0.52583E+07         0.00000E+00
    0.00000E+00         0.00000E+00        -0.92187E+06
 
    0.61019E+06         0.16473E+06         0.00000E+00
    0.16473E+06        -0.52577E+07         0.00000E+00
    0.00000E+00         0.00000E+00        -0.92951E+06
 
    0.57157E+06         0.22968E+06         0.00000E+00
    0.22968E+06        -0.52570E+07         0.00000E+00
    0.00000E+00         0.00000E+00        -0.93708E+06
 
    0.53305E+06         0.29421E+06         0.00000E+00
    0.29421E+06        -0.52560E+07         0.00000E+00
    0.00000E+00         0.00000E+00        -0.94459E+06
 
    0.49461E+06         0.35833E+06         0.00000E+00
    0.35833E+06        -0.52547E+07         0.00000E+00
    0.00000E+00         0.00000E+00        -0.95202E+06
 
    0.45626E+06         0.42206E+06         0.00000E+00
    0.42206E+06        -0.52532E+07         0.00000E+00
    0.00000E+00         0.00000E+00        -0.95939E+06
 
    0.41799E+06         0.48540E+06         0.00000E+00
    0.48540E+06        -0.52514E+07         0.00000E+00
    0.00000E+00         0.00000E+00        -0.96669E+06
 
    0.37982E+06         0.54838E+06         0.00000E+00
    0.54838E+06        -0.52494E+07         0.00000E+00
    0.00000E+00         0.00000E+00        -0.97392E+06
 
    0.34173E+06         0.61101E+06         0.00000E+00
    0.61101E+06        -0.52471E+07         0.00000E+00
    0.00000E+00         0.00000E+00        -0.98108E+06
 
    0.30372E+06         0.67330E+06         0.00000E+00
    0.67330E+06        -0.52446E+07         0.00000E+00
    0.00000E+00         0.00000E+00        -0.98817E+06
 
    0.26579E+06         0.73527E+06         0.00000E+00
    0.73527E+06        -0.52418E+07         0.00000E+00
    0.00000E+00         0.00000E+00        -0.99520E+06
 
    0.22793E+06         0.79692E+06         0.00000E+00
    0.79692E+06        -0.52387E+07         0.00000E+00
    0.00000E+00         0.00000E+00        -0.10022E+07
 
    0.19015E+06         0.85828E+06         0.00000E+00
    0.85828E+06        -0.52354E+07         0.00000E+00
    0.00000E+00         0.00000E+00        -0.10090E+07
 
    0.15243E+06         0.91934E+06         0.00000E+00
    0.91934E+06        -0.52318E+07         0.00000E+00
    0.00000E+00         0.00000E+00        -0.10159E+07
 
    0.11478E+06         0.98014E+06         0.00000E+00
    0.98014E+06        -0.52279E+07         0.00000E+00
    0.00000E+00         0.00000E+00        -0.10226E+07
 
    0.77178E+05         0.10407E+07         0.00000E+00
    0.10407E+07        -0.52237E+07         0.00000E+00
    0.00000E+00         0.00000E+00        -0.10293E+07
 
    0.39626E+05         0.11009E+07         0.00000E+00
    0.11009E+07        -0.52193E+07         0.00000E+00
    0.00000E+00         0.00000E+00        -0.10359E+07
 
    0.21154E+04         0.11610E+07         0.00000E+00
    0.11610E+07        -0.52145E+07         0.00000E+00
    0.00000E+00         0.00000E+00        -0.10425E+07
 
   -0.35361E+05         0.12208E+07         0.00000E+00
    0.12208E+07        -0.52095E+07         0.00000E+00
    0.00000E+00         0.00000E+00        -0.10490E+07
 
   -0.72810E+05         0.12804E+07         0.00000E+00
    0.12804E+07        -0.52041E+07         0.00000E+00
    0.00000E+00         0.00000E+00        -0.10554E+07
 
   -0.11024E+06         0.13397E+07         0.00000E+00
    0.13397E+07        -0.51984E+07         0.00000E+00
    0.00000E+00         0.00000E+00        -0.10617E+07
 
   -0.14766E+06         0.13989E+07         0.00000E+00
    0.13989E+07        -0.51924E+07         0.00000E+00
    0.00000E+00         0.00000E+00        -0.10680E+07
 
   -0.18509E+06         0.14579E+07         0.00000E+00
    0.14579E+07        -0.51861E+07         0.00000E+00
    0.00000E+00         0.00000E+00        -0.10742E+07
 
   -0.22252E+06         0.15167E+07         0.00000E+00
    0.15167E+07        -0.51795E+07         0.00000E+00
    0.00000E+00         0.00000E+00        -0.10804E+07
 
   -0.25997E+06         0.15753E+07         0.00000E+00
    0.15753E+07        -0.51725E+07         0.00000E+00
    0.00000E+00         0.00000E+00        -0.10865E+07
 
   -0.29745E+06         0.16338E+07         0.00000E+00
    0.16338E+07        -0.51651E+07         0.00000E+00
    0.00000E+00         0.00000E+00        -0.10925E+07
 
   -0.33497E+06         0.16921E+07         0.00000E+00
    0.16921E+07        -0.51574E+07         0.00000E+00
    0.00000E+00         0.00000E+00        -0.10985E+07
 
   -0.37254E+06         0.17502E+07         0.00000E+00
    0.17502E+07        -0.51494E+07         0.00000E+00
    0.00000E+00         0.00000E+00        -0.11044E+07
 
   -0.41018E+06         0.18082E+07         0.00000E+00
    0.18082E+07        -0.51409E+07         0.00000E+00
    0.00000E+00         0.00000E+00        -0.11102E+07
 
   -0.44789E+06         0.18660E+07         0.00000E+00
    0.18660E+07        -0.51321E+07         0.00000E+00
    0.00000E+00         0.00000E+00        -0.11160E+07
 
   -0.48569E+06         0.19237E+07         0.00000E+00
    0.19237E+07        -0.51229E+07         0.00000E+00
    0.00000E+00         0.00000E+00        -0.11217E+07
 
   -0.52359E+06         0.19813E+07         0.00000E+00
    0.19813E+07        -0.51132E+07         0.00000E+00
    0.00000E+00         0.00000E+00        -0.11274E+07
 
   -0.56160E+06         0.20387E+07         0.00000E+00
    0.20387E+07        -0.51032E+07         0.00000E+00
    0.00000E+00         0.00000E+00        -0.11330E+07
 
   -0.59973E+06         0.20961E+07         0.00000E+00
    0.20961E+07        -0.50927E+07         0.00000E+00
    0.00000E+00         0.00000E+00        -0.11385E+07
 
   -0.63800E+06         0.21533E+07         0.00000E+00
    0.21533E+07        -0.50818E+07         0.00000E+00
    0.00000E+00         0.00000E+00        -0.11440E+07
 
   -0.67642E+06         0.22104E+07         0.00000E+00
    0.22104E+07        -0.50705E+07         0.00000E+00
    0.00000E+00         0.00000E+00        -0.11494E+07
 
   -0.71501E+06         0.22674E+07         0.00000E+00
    0.22674E+07        -0.50587E+07         0.00000E+00
    0.00000E+00         0.00000E+00        -0.11547E+07
 
   -0.75378E+06         0.23242E+07         0.00000E+00
    0.23242E+07        -0.50464E+07         0.00000E+00
    0.00000E+00         0.00000E+00        -0.11600E+07
 
   -0.79274E+06         0.23810E+07         0.00000E+00
    0.23810E+07        -0.50337E+07         0.00000E+00
    0.00000E+00         0.00000E+00        -0.11653E+07
 
   -0.83191E+06         0.24376E+07         0.00000E+00
    0.24376E+07        -0.50204E+07         0.00000E+00
    0.00000E+00         0.00000E+00        -0.11705E+07
 
   -0.87130E+06         0.24942E+07         0.00000E+00
    0.24942E+07        -0.50067E+07         0.00000E+00
    0.00000E+00         0.00000E+00        -0.11756E+07
 
   -0.91092E+06         0.25506E+07         0.00000E+00
    0.25506E+07        -0.49925E+07         0.00000E+00
    0.00000E+00         0.00000E+00        -0.11807E+07
 
   -0.95080E+06         0.26070E+07         0.00000E+00
    0.26070E+07        -0.49777E+07         0.00000E+00
    0.00000E+00         0.00000E+00        -0.11857E+07
 
   -0.99095E+06         0.26632E+07         0.00000E+00
    0.26632E+07        -0.49625E+07         0.00000E+00
    0.00000E+00         0.00000E+00        -0.11907E+07
 
   -0.10314E+07         0.27194E+07         0.00000E+00
    0.27194E+07        -0.49467E+07         0.00000E+00
    0.00000E+00         0.00000E+00        -0.11956E+07
 
   -0.10721E+07         0.27754E+07         0.00000E+00
    0.27754E+07        -0.49303E+07         0.00000E+00
    0.00000E+00         0.00000E+00        -0.12005E+07
 
   -0.11131E+07         0.28313E+07         0.00000E+00
    0.28313E+07        -0.49134E+07         0.00000E+00
    0.00000E+00         0.00000E+00        -0.12053E+07
 
   -0.11545E+07         0.28871E+07         0.00000E+00
    0.28871E+07        -0.48959E+07         0.00000E+00
    0.00000E+00         0.00000E+00        -0.12101E+07
 
   -0.11962E+07         0.29428E+07         0.00000E+00
    0.29428E+07        -0.48778E+07         0.00000E+00
    0.00000E+00         0.00000E+00        -0.12148E+07
 
    0.64114E+06         0.34128E+05         0.00000E+00
    0.34128E+05        -0.56387E+07         0.00000E+00
    0.00000E+00         0.00000E+00        -0.99951E+06
 
    0.60002E+06         0.10125E+06         0.00000E+00
    0.10125E+06        -0.56385E+07         0.00000E+00
    0.00000E+00         0.00000E+00        -0.10077E+07
 
    0.55905E+06         0.16791E+06         0.00000E+00
    0.16791E+06        -0.56380E+07         0.00000E+00
    0.00000E+00         0.00000E+00        -0.10158E+07
 
    0.51825E+06         0.23413E+06         0.00000E+00
    0.23413E+06        -0.56373E+07         0.00000E+00
    0.00000E+00         0.00000E+00        -0.10238E+07
 
    0.47762E+06         0.29992E+06         0.00000E+00
    0.29992E+06        -0.56364E+07         0.00000E+00
    0.00000E+00         0.00000E+00        -0.10318E+07
 
    0.43714E+06         0.36531E+06         0.00000E+00
    0.36531E+06        -0.56353E+07         0.00000E+00
    0.00000E+00         0.00000E+00        -0.10396E+07
 
    0.39683E+06         0.43031E+06         0.00000E+00
    0.43031E+06        -0.56339E+07         0.00000E+00
    0.00000E+00         0.00000E+00        -0.10474E+07
 
    0.35668E+06         0.49494E+06         0.00000E+00
    0.49494E+06        -0.56323E+07         0.00000E+00
    0.00000E+00         0.00000E+00        -0.10551E+07
 
    0.31669E+06         0.55921E+06         0.00000E+00
    0.55921E+06        -0.56305E+07         0.00000E+00
    0.00000E+00         0.00000E+00        -0.10628E+07
 
    0.27686E+06         0.62315E+06         0.00000E+00
    0.62315E+06        -0.56285E+07         0.00000E+00
    0.00000E+00         0.00000E+00        -0.10703E+07
 
    0.23717E+06         0.68676E+06         0.00000E+00
    0.68676E+06        -0.56262E+07         0.00000E+00
    0.00000E+00         0.00000E+00        -0.10778E+07
 
    0.19763E+06         0.75006E+06         0.00000E+00
    0.75006E+06        -0.56236E+07         0.00000E+00
    0.00000E+00         0.00000E+00        -0.10852E+07
 
    0.15823E+06         0.81307E+06         0.00000E+00
    0.81307E+06        -0.56208E+07         0.00000E+00
    0.00000E+00         0.00000E+00        -0.10925E+07
 
    0.11897E+06         0.87580E+06         0.00000E+00
    0.87580E+06        -0.56178E+07         0.00000E+00
    0.00000E+00         0.00000E+00        -0.10998E+07
 
    0.79838E+05         0.93827E+06         0.00000E+00
    0.93827E+06        -0.56144E+07         0.00000E+00
    0.00000E+00         0.00000E+00        -0.11069E+07
 
    0.40825E+05         0.10005E+07         0.00000E+00
    0.10005E+07        -0.56109E+07         0.00000E+00
    0.00000E+00         0.00000E+00        -0.11140E+07
 
    0.19260E+04         0.10625E+07         0.00000E+00
    0.10625E+07        -0.56070E+07         0.00000E+00
    0.00000E+00         0.00000E+00        -0.11210E+07
 
   -0.36867E+05         0.11242E+07         0.00000E+00
    0.11242E+07        -0.56029E+07         0.00000E+00
    0.00000E+00         0.00000E+00        -0.11280E+07
 
   -0.75563E+05         0.11858E+07         0.00000E+00
    0.11858E+07        -0.55985E+07         0.00000E+00
    0.00000E+00         0.00000E+00        -0.11348E+07
 
   -0.11417E+06         0.12471E+07         0.00000E+00
    0.12471E+07        -0.55938E+07         0.00000E+00
    0.00000E+00         0.00000E+00        -0.11416E+07
 
   -0.15270E+06         0.13083E+07         0.00000E+00
    0.13083E+07        -0.55888E+07         0.00000E+00
    0.00000E+00         0.00000E+00        -0.11483E+07
 
   -0.19116E+06         0.13692E+07         0.00000E+00
    0.13692E+07        -0.55835E+07         0.00000E+00
    0.00000E+00         0.00000E+00        -0.11549E+07
 
   -0.22957E+06         0.14300E+07         0.00000E+00
    0.14300E+07        -0.55778E+07         0.00000E+00
    0.00000E+00         0.00000E+00        -0.11615E+07
 
   -0.26792E+06         0.14907E+07         0.00000E+00
    0.14907E+07        -0.55719E+07         0.00000E+00
    0.00000E+00         0.00000E+00        -0.11680E+07
 
   -0.30625E+06         0.15512E+07         0.00000E+00
    0.15512E+07        -0.55656E+07         0.00000E+00
    0.00000E+00         0.00000E+00        -0.11744E+07
 
   -0.34455E+06         0.16116E+07         0.00000E+00
    0.16116E+07        -0.55589E+07         0.00000E+00
    0.00000E+00         0.00000E+00        -0.11807E+07
 
   -0.38284E+06         0.16718E+07         0.00000E+00
    0.16718E+07        -0.55519E+07         0.00000E+00
    0.00000E+00         0.00000E+00        -0.11870E+07
 
   -0.42113E+06         0.17319E+07         0.00000E+00
    0.17319E+07        -0.55446E+07         0.00000E+00
    0.00000E+00         0.00000E+00        -0.11931E+07
 
   -0.45943E+06         0.17920E+07         0.00000E+00
    0.17920E+07        -0.55368E+07         0.00000E+00
    0.00000E+00         0.00000E+00        -0.11993E+07
 
   -0.49777E+06         0.18519E+07         0.00000E+00
    0.18519E+07        -0.55287E+07         0.00000E+00
    0.00000E+00         0.00000E+00        -0.12053E+07
 
   -0.53614E+06         0.19117E+07         0.00000E+00
    0.19117E+07        -0.55202E+07         0.00000E+00
    0.00000E+00         0.00000E+00        -0.12113E+07
 
   -0.57457E+06         0.19714E+07         0.00000E+00
    0.19714E+07        -0.55113E+07         0.00000E+00
    0.00000E+00         0.00000E+00        -0.12172E+07
 
   -0.61308E+06         0.20310E+07         0.00000E+00
    0.20310E+07        -0.55020E+07         0.00000E+00
    0.00000E+00         0.00000E+00        -0.12230E+07
 
   -0.65167E+06         0.20906E+07         0.00000E+00
    0.20906E+07        -0.54922E+07         0.00000E+00
    0.00000E+00         0.00000E+00        -0.12288E+07
 
   -0.69035E+06         0.21501E+07         0.00000E+00
    0.21501E+07        -0.54820E+07         0.00000E+00
    0.00000E+00         0.00000E+00        -0.12345E+07
 
   -0.72916E+06         0.22095E+07         0.00000E+00
    0.22095E+07        -0.54714E+07         0.00000E+00
    0.00000E+00         0.00000E+00        -0.12401E+07
 
   -0.76809E+06         0.22688E+07         0.00000E+00
    0.22688E+07        -0.54602E+07         0.00000E+00
    0.00000E+00         0.00000E+00        -0.12457E+07
 
   -0.80717E+06         0.23281E+07         0.00000E+00
    0.23281E+07        -0.54486E+07         0.00000E+00
    0.00000E+00         0.00000E+00        -0.12512E+07
 
   -0.84641E+06         0.23873E+07         0.00000E+00
    0.23873E+07        -0.54366E+07         0.00000E+00
    0.00000E+00         0.00000E+00        -0.12566E+07
 
   -0.88584E+06         0.24465E+07         0.00000E+00
    0.24465E+07        -0.54240E+07         0.00000E+00
    0.00000E+00         0.00000E+00        -0.12620E+07
 
   -0.92545E+06         0.25056E+07         0.00000E+00
    0.25056E+07        -0.54109E+07         0.00000E+00
    0.00000E+00         0.00000E+00        -0.12673E+07
 
   -0.96528E+06         0.25647E+07         0.00000E+00
    0.25647E+07        -0.53973E+07         0.00000E+00
    0.00000E+00         0.00000E+00        -0.12725E+07
 
   -0.10053E+07         0.26237E+07         0.00000E+00
    0.26237E+07        -0.53832E+07         0.00000E+00
    0.00000E+00         0.00000E+00        -0.12777E+07
 
   -0.10456E+07         0.26826E+07         0.00000E+00
    0.26826E+07        -0.53685E+07         0.00000E+00
    0.00000E+00         0.00000E+00        -0.12828E+07
 
   -0.10862E+07         0.27415E+07         0.00000E+00
    0.27415E+07        -0.53532E+07         0.00000E+00
    0.00000E+00         0.00000E+00        -0.12879E+07
 
   -0.11270E+07         0.28004E+07         0.00000E+00
    0.28004E+07        -0.53374E+07         0.00000E+00
    0.00000E+00         0.00000E+00        -0.12929E+07
 
   -0.11682E+07         0.28592E+07         0.00000E+00
    0.28592E+07        -0.53210E+07         0.00000E+00
    0.00000E+00         0.00000E+00        -0.12978E+07
 
   -0.12096E+07         0.29179E+07         0.00000E+00
    0.29179E+07        -0.53040E+07         0.00000E+00
    0.00000E+00         0.00000E+00        -0.13027E+07
 
   -0.12514E+07         0.29767E+07         0.00000E+00
    0.29767E+07        -0.52864E+07         0.00000E+00
    0.00000E+00         0.00000E+00        -0.13076E+07
 
   -0.12936E+07         0.30353E+07         0.00000E+00
    0.30353E+07        -0.52682E+07         0.00000E+00
    0.00000E+00         0.00000E+00        -0.13123E+07
 
    0.57888E+06         0.34709E+05         0.00000E+00
    0.34709E+05        -0.60407E+07         0.00000E+00
    0.00000E+00         0.00000E+00        -0.10924E+07
 
    0.53540E+06         0.10298E+06         0.00000E+00
    0.10298E+06        -0.60405E+07         0.00000E+00
    0.00000E+00         0.00000E+00        -0.11010E+07
 
    0.49216E+06         0.17079E+06         0.00000E+00
    0.17079E+06        -0.60401E+07         0.00000E+00
    0.00000E+00         0.00000E+00        -0.11096E+07
 
    0.44918E+06         0.23817E+06         0.00000E+00
    0.23817E+06        -0.60395E+07         0.00000E+00
    0.00000E+00         0.00000E+00        -0.11181E+07
 
    0.40645E+06         0.30512E+06         0.00000E+00
    0.30512E+06        -0.60388E+07         0.00000E+00
    0.00000E+00         0.00000E+00        -0.11265E+07
 
    0.36398E+06         0.37168E+06         0.00000E+00
    0.37168E+06        -0.60378E+07         0.00000E+00
    0.00000E+00         0.00000E+00        -0.11348E+07
 
    0.32175E+06         0.43785E+06         0.00000E+00
    0.43785E+06        -0.60366E+07         0.00000E+00
    0.00000E+00         0.00000E+00        -0.11430E+07
 
    0.27976E+06         0.50367E+06         0.00000E+00
    0.50367E+06        -0.60353E+07         0.00000E+00
    0.00000E+00         0.00000E+00        -0.11511E+07
 
    0.23802E+06         0.56914E+06         0.00000E+00
    0.56914E+06        -0.60337E+07         0.00000E+00
    0.00000E+00         0.00000E+00        -0.11591E+07
 
    0.19651E+06         0.63430E+06         0.00000E+00
    0.63430E+06        -0.60319E+07         0.00000E+00
    0.00000E+00         0.00000E+00        -0.11671E+07
 
    0.15523E+06         0.69915E+06         0.00000E+00
    0.69915E+06        -0.60299E+07         0.00000E+00
    0.00000E+00         0.00000E+00        -0.11749E+07
 
    0.11418E+06         0.76371E+06         0.00000E+00
    0.76371E+06        -0.60277E+07         0.00000E+00
    0.00000E+00         0.00000E+00        -0.11827E+07
 
    0.73337E+05         0.82800E+06         0.00000E+00
    0.82800E+06        -0.60252E+07         0.00000E+00
    0.00000E+00         0.00000E+00        -0.11904E+07
 
    0.32706E+05         0.89204E+06         0.00000E+00
    0.89204E+06        -0.60225E+07         0.00000E+00
    0.00000E+00         0.00000E+00        -0.11980E+07
 
   -0.77241E+04         0.95585E+06         0.00000E+00
    0.95585E+06        -0.60196E+07         0.00000E+00
    0.00000E+00         0.00000E+00        -0.12055E+07
 
   -0.47964E+05         0.10194E+07         0.00000E+00
    0.10194E+07        -0.60164E+07         0.00000E+00
    0.00000E+00         0.00000E+00        -0.12129E+07
 
   -0.88021E+05         0.10828E+07         0.00000E+00
    0.10828E+07        -0.60130E+07         0.00000E+00
    0.00000E+00         0.00000E+00        -0.12202E+07
 
   -0.12791E+06         0.11460E+07         0.00000E+00
    0.11460E+07        -0.60093E+07         0.00000E+00
    0.00000E+00         0.00000E+00        -0.12274E+07
 
   -0.16763E+06         0.12090E+07         0.00000E+00
    0.12090E+07        -0.60053E+07         0.00000E+00
    0.00000E+00         0.00000E+00        -0.12346E+07
 
   -0.20721E+06         0.12719E+07         0.00000E+00
    0.12719E+07        -0.60010E+07         0.00000E+00
    0.00000E+00         0.00000E+00        -0.12416E+07
 
   -0.24665E+06         0.13346E+07         0.00000E+00
    0.13346E+07        -0.59965E+07         0.00000E+00
    0.00000E+00         0.00000E+00        -0.12486E+07
 
   -0.28596E+06         0.13971E+07         0.00000E+00
    0.13971E+07        -0.59916E+07         0.00000E+00
    0.00000E+00         0.00000E+00        -0.12555E+07
 
   -0.32516E+06         0.14596E+07         0.00000E+00
    0.14596E+07        -0.59865E+07         0.00000E+00
    0.00000E+00         0.00000E+00        -0.12623E+07
 
   -0.36426E+06         0.15219E+07         0.00000E+00
    0.15219E+07        -0.59810E+07         0.00000E+00
    0.00000E+00         0.00000E+00        -0.12690E+07
 
   -0.40328E+06         0.15841E+07         0.00000E+00
    0.15841E+07        -0.59751E+07         0.00000E+00
    0.00000E+00         0.00000E+00        -0.12757E+07
 
   -0.44222E+06         0.16462E+07         0.00000E+00
    0.16462E+07        -0.59690E+07         0.00000E+00
    0.00000E+00         0.00000E+00        -0.12822E+07
 
   -0.48111E+06         0.17083E+07         0.00000E+00
    0.17083E+07        -0.59624E+07         0.00000E+00
    0.00000E+00         0.00000E+00        -0.12887E+07
 
   -0.51995E+06         0.17703E+07         0.00000E+00
    0.17703E+07        -0.59556E+07         0.00000E+00
    0.00000E+00         0.00000E+00        -0.12951E+07
 
   -0.55877E+06         0.18322E+07         0.00000E+00
    0.18322E+07        -0.59483E+07         0.00000E+00
    0.00000E+00         0.00000E+00        -0.13014E+07
 
   -0.59757E+06         0.18940E+07         0.00000E+00
    0.18940E+07        -0.59406E+07         0.00000E+00
    0.00000E+00         0.00000E+00        -0.13076E+07
 
   -0.63638E+06         0.19559E+07         0.00000E+00
    0.19559E+07        -0.59326E+07         0.00000E+00
    0.00000E+00         0.00000E+00        -0.13138E+07
 
   -0.67521E+06         0.20176E+07         0.00000E+00
    0.20176E+07        -0.59241E+07         0.00000E+00
    0.00000E+00         0.00000E+00        -0.13199E+07
 
   -0.71407E+06         0.20794E+07         0.00000E+00
    0.20794E+07        -0.59152E+07         0.00000E+00
    0.00000E+00         0.00000E+00        -0.13259E+07
 
   -0.75299E+06         0.21411E+07         0.00000E+00
    0.21411E+07        -0.59058E+07         0.00000E+00
    0.00000E+00         0.00000E+00        -0.13318E+07
 
   -0.79198E+06         0.22028E+07         0.00000E+00
    0.22028E+07        -0.58960E+07         0.00000E+00
    0.00000E+00         0.00000E+00        -0.13376E+07
 
   -0.83106E+06         0.22645E+07         0.00000E+00
    0.22645E+07        -0.58858E+07         0.00000E+00
    0.00000E+00         0.00000E+00        -0.13434E+07
 
   -0.87025E+06         0.23261E+07         0.00000E+00
    0.23261E+07        -0.58750E+07         0.00000E+00
    0.00000E+00         0.00000E+00        -0.13491E+07
 
   -0.90956E+06         0.23878E+07         0.00000E+00
    0.23878E+07        -0.58638E+07         0.00000E+00
    0.00000E+00         0.00000E+00        -0.13547E+07
 
   -0.94901E+06         0.24495E+07         0.00000E+00
    0.24495E+07        -0.58520E+07         0.00000E+00
    0.00000E+00         0.00000E+00        -0.13602E+07
 
   -0.98863E+06         0.25112E+07         0.00000E+00
    0.25112E+07        -0.58398E+07         0.00000E+00
    0.00000E+00         0.00000E+00        -0.13657E+07
 
   -0.10284E+07         0.25728E+07         0.00000E+00
    0.25728E+07        -0.58269E+07         0.00000E+00
    0.00000E+00         0.00000E+00        -0.13711E+07
 
   -0.10684E+07         0.26345E+07         0.00000E+00
    0.26345E+07        -0.58136E+07         0.00000E+00
    0.00000E+00         0.00000E+00        -0.13764E+07
 
   -0.11086E+07         0.26962E+07         0.00000E+00
    0.26962E+07        -0.57997E+07         0.00000E+00
    0.00000E+00         0.00000E+00        -0.13817E+07
 
   -0.11491E+07         0.27579E+07         0.00000E+00
    0.27579E+07        -0.57852E+07         0.00000E+00
    0.00000E+00         0.00000E+00        -0.13868E+07
 
   -0.11898E+07         0.28196E+07         0.00000E+00
    0.28196E+07        -0.57701E+07         0.00000E+00
    0.00000E+00         0.00000E+00        -0.13920E+07
 
   -0.12307E+07         0.28813E+07         0.00000E+00
    0.28813E+07        -0.57544E+07         0.00000E+00
    0.00000E+00         0.00000E+00        -0.13970E+07
 
   -0.12720E+07         0.29431E+07         0.00000E+00
    0.29431E+07        -0.57381E+07         0.00000E+00
    0.00000E+00         0.00000E+00        -0.14020E+07
 
   -0.13136E+07         0.30048E+07         0.00000E+00
    0.30048E+07        -0.57212E+07         0.00000E+00
    0.00000E+00         0.00000E+00        -0.14069E+07
 
   -0.13555E+07         0.30666E+07         0.00000E+00
    0.30666E+07        -0.57036E+07         0.00000E+00
    0.00000E+00         0.00000E+00        -0.14118E+07
 
   -0.13978E+07         0.31283E+07         0.00000E+00
    0.31283E+07        -0.56853E+07         0.00000E+00
    0.00000E+00         0.00000E+00        -0.14166E+07
 
    0.49887E+06         0.35212E+05         0.00000E+00
    0.35212E+05        -0.64658E+07         0.00000E+00
    0.00000E+00         0.00000E+00        -0.11934E+07
 
    0.45301E+06         0.10449E+06         0.00000E+00
    0.10449E+06        -0.64657E+07         0.00000E+00
    0.00000E+00         0.00000E+00        -0.12025E+07
 
    0.40752E+06         0.17331E+06         0.00000E+00
    0.17331E+06        -0.64654E+07         0.00000E+00
    0.00000E+00         0.00000E+00        -0.12116E+07
 
    0.36239E+06         0.24169E+06         0.00000E+00
    0.24169E+06        -0.64649E+07         0.00000E+00
    0.00000E+00         0.00000E+00        -0.12205E+07
 
    0.31760E+06         0.30967E+06         0.00000E+00
    0.30967E+06        -0.64643E+07         0.00000E+00
    0.00000E+00         0.00000E+00        -0.12293E+07
 
    0.27317E+06         0.37725E+06         0.00000E+00
    0.37725E+06        -0.64636E+07         0.00000E+00
    0.00000E+00         0.00000E+00        -0.12381E+07
 
    0.22909E+06         0.44448E+06         0.00000E+00
    0.44448E+06        -0.64626E+07         0.00000E+00
    0.00000E+00         0.00000E+00        -0.12467E+07
 
    0.18534E+06         0.51136E+06         0.00000E+00
    0.51136E+06        -0.64615E+07         0.00000E+00
    0.00000E+00         0.00000E+00        -0.12552E+07
 
    0.14193E+06         0.57792E+06         0.00000E+00
    0.57792E+06        -0.64603E+07         0.00000E+00
    0.00000E+00         0.00000E+00        -0.12637E+07
 
    0.98850E+05         0.64418E+06         0.00000E+00
    0.64418E+06        -0.64588E+07         0.00000E+00
    0.00000E+00         0.00000E+00        -0.12720E+07
 
    0.56088E+05         0.71017E+06         0.00000E+00
    0.71017E+06        -0.64572E+07         0.00000E+00
    0.00000E+00         0.00000E+00        -0.12802E+07
 
    0.13636E+05         0.77589E+06         0.00000E+00
    0.77589E+06        -0.64553E+07         0.00000E+00
    0.00000E+00         0.00000E+00        -0.12883E+07
 
   -0.28513E+05         0.84138E+06         0.00000E+00
    0.84138E+06        -0.64533E+07         0.00000E+00
    0.00000E+00         0.00000E+00        -0.12964E+07
 
   -0.70370E+05         0.90664E+06         0.00000E+00
    0.90664E+06        -0.64511E+07         0.00000E+00
    0.00000E+00         0.00000E+00        -0.13043E+07
 
   -0.11195E+06         0.97170E+06         0.00000E+00
    0.97170E+06        -0.64486E+07         0.00000E+00
    0.00000E+00         0.00000E+00        -0.13121E+07
 
   -0.15325E+06         0.10366E+07         0.00000E+00
    0.10366E+07        -0.64459E+07         0.00000E+00
    0.00000E+00         0.00000E+00        -0.13198E+07
 
   -0.19430E+06         0.11013E+07         0.00000E+00
    0.11013E+07        -0.64430E+07         0.00000E+00
    0.00000E+00         0.00000E+00        -0.13275E+07
 
   -0.23510E+06         0.11659E+07         0.00000E+00
    0.11659E+07        -0.64398E+07         0.00000E+00
    0.00000E+00         0.00000E+00        -0.13350E+07
 
   -0.27567E+06         0.12303E+07         0.00000E+00
    0.12303E+07        -0.64364E+07         0.00000E+00
    0.00000E+00         0.00000E+00        -0.13424E+07
 
   -0.31602E+06         0.12946E+07         0.00000E+00
    0.12946E+07        -0.64327E+07         0.00000E+00
    0.00000E+00         0.00000E+00        -0.13497E+07
 
   -0.35616E+06         0.13588E+07         0.00000E+00
    0.13588E+07        -0.64287E+07         0.00000E+00
    0.00000E+00         0.00000E+00        -0.13570E+07
 
   -0.39611E+06         0.14229E+07         0.00000E+00
    0.14229E+07        -0.64244E+07         0.00000E+00
    0.00000E+00         0.00000E+00        -0.13641E+07
 
   -0.43589E+06         0.14869E+07         0.00000E+00
    0.14869E+07        -0.64198E+07         0.00000E+00
    0.00000E+00         0.00000E+00        -0.13711E+07
 
   -0.47551E+06         0.15509E+07         0.00000E+00
    0.15509E+07        -0.64149E+07         0.00000E+00
    0.00000E+00         0.00000E+00        -0.13781E+07
 
   -0.51498E+06         0.16148E+07         0.00000E+00
    0.16148E+07        -0.64097E+07         0.00000E+00
    0.00000E+00         0.00000E+00        -0.13849E+07
 
   -0.55433E+06         0.16787E+07         0.00000E+00
    0.16787E+07        -0.64041E+07         0.00000E+00
    0.00000E+00         0.00000E+00        -0.13917E+07
 
   -0.59357E+06         0.17426E+07         0.00000E+00
    0.17426E+07        -0.63982E+07         0.00000E+00
    0.00000E+00         0.00000E+00        -0.13984E+07
 
   -0.63271E+06         0.18064E+07         0.00000E+00
    0.18064E+07        -0.63919E+07         0.00000E+00
    0.00000E+00         0.00000E+00        -0.14049E+07
 
   -0.67178E+06         0.18702E+07         0.00000E+00
    0.18702E+07        -0.63853E+07         0.00000E+00
    0.00000E+00         0.00000E+00        -0.14114E+07
 
   -0.71079E+06         0.19341E+07         0.00000E+00
    0.19341E+07        -0.63782E+07         0.00000E+00
    0.00000E+00         0.00000E+00        -0.14178E+07
 
   -0.74977E+06         0.19979E+07         0.00000E+00
    0.19979E+07        -0.63707E+07         0.00000E+00
    0.00000E+00         0.00000E+00        -0.14241E+07
 
   -0.78872E+06         0.20618E+07         0.00000E+00
    0.20618E+07        -0.63628E+07         0.00000E+00
    0.00000E+00         0.00000E+00        -0.14303E+07
 
   -0.82767E+06         0.21257E+07         0.00000E+00
    0.21257E+07        -0.63545E+07         0.00000E+00
    0.00000E+00         0.00000E+00        -0.14364E+07
 
   -0.86664E+06         0.21896E+07         0.00000E+00
    0.21896E+07        -0.63457E+07         0.00000E+00
    0.00000E+00         0.00000E+00        -0.14425E+07
 
   -0.90565E+06         0.22536E+07         0.00000E+00
    0.22536E+07        -0.63364E+07         0.00000E+00
    0.00000E+00         0.00000E+00        -0.14484E+07
 
   -0.94471E+06         0.23176E+07         0.00000E+00
    0.23176E+07        -0.63267E+07         0.00000E+00
    0.00000E+00         0.00000E+00        -0.14543E+07
 
   -0.98386E+06         0.23817E+07         0.00000E+00
    0.23817E+07        -0.63165E+07         0.00000E+00
    0.00000E+00         0.00000E+00        -0.14601E+07
 
   -0.10231E+07         0.24458E+07         0.00000E+00
    0.24458E+07        -0.63057E+07         0.00000E+00
    0.00000E+00         0.00000E+00        -0.14658E+07
 
   -0.10625E+07         0.25100E+07         0.00000E+00
    0.25100E+07        -0.62944E+07         0.00000E+00
    0.00000E+00         0.00000E+00        -0.14714E+07
 
   -0.11020E+07         0.25743E+07         0.00000E+00
    0.25743E+07        -0.62826E+07         0.00000E+00
    0.00000E+00         0.00000E+00        -0.14769E+07
 
   -0.11416E+07         0.26387E+07         0.00000E+00
    0.26387E+07        -0.62702E+07         0.00000E+00
    0.00000E+00         0.00000E+00        -0.14824E+07
 
   -0.11815E+07         0.27031E+07         0.00000E+00
    0.27031E+07        -0.62573E+07         0.00000E+00
    0.00000E+00         0.00000E+00        -0.14877E+07
 
   -0.12215E+07         0.27676E+07         0.00000E+00
    0.27676E+07        -0.62437E+07         0.00000E+00
    0.00000E+00         0.00000E+00        -0.14930E+07
 
   -0.12618E+07         0.28321E+07         0.00000E+00
    0.28321E+07        -0.62296E+07         0.00000E+00
    0.00000E+00         0.00000E+00        -0.14983E+07
 
   -0.13023E+07         0.28968E+07         0.00000E+00
    0.28968E+07        -0.62148E+07         0.00000E+00
    0.00000E+00         0.00000E+00        -0.15034E+07
 
   -0.13431E+07         0.29615E+07         0.00000E+00
    0.29615E+07        -0.61994E+07         0.00000E+00
    0.00000E+00         0.00000E+00        -0.15085E+07
 
   -0.13841E+07         0.30263E+07         0.00000E+00
    0.30263E+07        -0.61833E+07         0.00000E+00
    0.00000E+00         0.00000E+00        -0.15135E+07
 
   -0.14255E+07         0.30912E+07         0.00000E+00
    0.30912E+07        -0.61666E+07         0.00000E+00
    0.00000E+00         0.00000E+00        -0.15184E+07
 
   -0.14672E+07         0.31562E+07         0.00000E+00
    0.31562E+07        -0.61492E+07         0.00000E+00
    0.00000E+00         0.00000E+00        -0.15233E+07
 
   -0.15093E+07         0.32212E+07         0.00000E+00
    0.32212E+07        -0.61311E+07         0.00000E+00
    0.00000E+00         0.00000E+00        -0.15281E+07
 
    0.39887E+06         0.35616E+05         0.00000E+00
    0.35616E+05        -0.69155E+07         0.00000E+00
    0.00000E+00         0.00000E+00        -0.13033E+07
 
    0.35067E+06         0.10571E+06         0.00000E+00
    0.10571E+06        -0.69154E+07         0.00000E+00
    0.00000E+00         0.00000E+00        -0.13129E+07
 
    0.30296E+06         0.17535E+06         0.00000E+00
    0.17535E+06        -0.69152E+07         0.00000E+00
    0.00000E+00         0.00000E+00        -0.13225E+07
 
    0.25571E+06         0.24457E+06         0.00000E+00
    0.24457E+06        -0.69149E+07         0.00000E+00
    0.00000E+00         0.00000E+00        -0.13318E+07
 
    0.20894E+06         0.31340E+06         0.00000E+00
    0.31340E+06        -0.69145E+07         0.00000E+00
    0.00000E+00         0.00000E+00        -0.13411E+07
 
    0.16263E+06         0.38186E+06         0.00000E+00
    0.38186E+06        -0.69140E+07         0.00000E+00
    0.00000E+00         0.00000E+00        -0.13503E+07
 
    0.11678E+06         0.44997E+06         0.00000E+00
    0.44997E+06        -0.69133E+07         0.00000E+00
    0.00000E+00         0.00000E+00        -0.13593E+07
 
    0.71378E+05         0.51777E+06         0.00000E+00
    0.51777E+06        -0.69126E+07         0.00000E+00
    0.00000E+00         0.00000E+00        -0.13682E+07
 
    0.26418E+05         0.58527E+06         0.00000E+00
    0.58527E+06        -0.69117E+07         0.00000E+00
    0.00000E+00         0.00000E+00        -0.13771E+07
 
   -0.18110E+05         0.65250E+06         0.00000E+00
    0.65250E+06        -0.69106E+07         0.00000E+00
    0.00000E+00         0.00000E+00        -0.13857E+07
 
   -0.62216E+05         0.71948E+06         0.00000E+00
    0.71948E+06        -0.69094E+07         0.00000E+00
    0.00000E+00         0.00000E+00        -0.13943E+07
 
   -0.10591E+06         0.78624E+06         0.00000E+00
    0.78624E+06        -0.69081E+07         0.00000E+00
    0.00000E+00         0.00000E+00        -0.14028E+07
 
   -0.14921E+06         0.85280E+06         0.00000E+00
    0.85280E+06        -0.69066E+07         0.00000E+00
    0.00000E+00         0.00000E+00        -0.14112E+07
 
   -0.19212E+06         0.91918E+06         0.00000E+00
    0.91918E+06        -0.69049E+07         0.00000E+00
    0.00000E+00         0.00000E+00        -0.14194E+07
 
   -0.23465E+06         0.98539E+06         0.00000E+00
    0.98539E+06        -0.69030E+07         0.00000E+00
    0.00000E+00         0.00000E+00        -0.14275E+07
 
   -0.27683E+06         0.10515E+07         0.00000E+00
    0.10515E+07        -0.69009E+07         0.00000E+00
    0.00000E+00         0.00000E+00        -0.14355E+07
 
   -0.31866E+06         0.11174E+07         0.00000E+00
    0.11174E+07        -0.68985E+07         0.00000E+00
    0.00000E+00         0.00000E+00        -0.14434E+07
 
   -0.36016E+06         0.11833E+07         0.00000E+00
    0.11833E+07        -0.68960E+07         0.00000E+00
    0.00000E+00         0.00000E+00        -0.14512E+07
 
   -0.40135E+06         0.12490E+07         0.00000E+00
    0.12490E+07        -0.68932E+07         0.00000E+00
    0.00000E+00         0.00000E+00        -0.14589E+07
 
   -0.44223E+06         0.13147E+07         0.00000E+00
    0.13147E+07        -0.68902E+07         0.00000E+00
    0.00000E+00         0.00000E+00        -0.14665E+07
 
   -0.48284E+06         0.13804E+07         0.00000E+00
    0.13804E+07        -0.68869E+07         0.00000E+00
    0.00000E+00         0.00000E+00        -0.14740E+07
 
   -0.52319E+06         0.14460E+07         0.00000E+00
    0.14460E+07        -0.68833E+07         0.00000E+00
    0.00000E+00         0.00000E+00        -0.14813E+07
 
   -0.56329E+06         0.15116E+07         0.00000E+00
    0.15116E+07        -0.68795E+07         0.00000E+00
    0.00000E+00         0.00000E+00        -0.14886E+07
 
   -0.60316E+06         0.15772E+07         0.00000E+00
    0.15772E+07        -0.68753E+07         0.00000E+00
    0.00000E+00         0.00000E+00        -0.14957E+07
 
   -0.64282E+06         0.16428E+07         0.00000E+00
    0.16428E+07        -0.68708E+07         0.00000E+00
    0.00000E+00         0.00000E+00        -0.15027E+07
 
   -0.68229E+06         0.17084E+07         0.00000E+00
    0.17084E+07        -0.68660E+07         0.00000E+00
    0.00000E+00         0.00000E+00        -0.15097E+07
 
   -0.72160E+06         0.17740E+07         0.00000E+00
    0.17740E+07        -0.68608E+07         0.00000E+00
    0.00000E+00         0.00000E+00        -0.15165E+07
 
   -0.76075E+06         0.18397E+07         0.00000E+00
    0.18397E+07        -0.68553E+07         0.00000E+00
    0.00000E+00         0.00000E+00        -0.15232E+07
 
   -0.79978E+06         0.19055E+07         0.00000E+00
    0.19055E+07        -0.68494E+07         0.00000E+00
    0.00000E+00         0.00000E+00        -0.15298E+07
 
   -0.83870E+06         0.19713E+07         0.00000E+00
    0.19713E+07        -0.68430E+07         0.00000E+00
    0.00000E+00         0.00000E+00        -0.15363E+07
 
   -0.87753E+06         0.20372E+07         0.00000E+00
    0.20372E+07        -0.68363E+07         0.00000E+00
    0.00000E+00         0.00000E+00        -0.15428E+07
 
   -0.91629E+06         0.21032E+07         0.00000E+00
    0.21032E+07        -0.68291E+07         0.00000E+00
    0.00000E+00         0.00000E+00        -0.15491E+07
 
   -0.95501E+06         0.21693E+07         0.00000E+00
    0.21693E+07        -0.68215E+07         0.00000E+00
    0.00000E+00         0.00000E+00        -0.15553E+07
 
   -0.99371E+06         0.22355E+07         0.00000E+00
    0.22355E+07        -0.68135E+07         0.00000E+00
    0.00000E+00         0.00000E+00        -0.15614E+07
 
   -0.10324E+07         0.23018E+07         0.00000E+00
    0.23018E+07        -0.68049E+07         0.00000E+00
    0.00000E+00         0.00000E+00        -0.15675E+07
 
   -0.10711E+07         0.23682E+07         0.00000E+00
    0.23682E+07        -0.67959E+07         0.00000E+00
    0.00000E+00         0.00000E+00        -0.15734E+07
 
   -0.11099E+07         0.24348E+07         0.00000E+00
    0.24348E+07        -0.67863E+07         0.00000E+00
    0.00000E+00         0.00000E+00        -0.15792E+07
 
   -0.11487E+07         0.25014E+07         0.00000E+00
    0.25014E+07        -0.67762E+07         0.00000E+00
    0.00000E+00         0.00000E+00        -0.15850E+07
 
   -0.11877E+07         0.25683E+07         0.00000E+00
    0.25683E+07        -0.67656E+07         0.00000E+00
    0.00000E+00         0.00000E+00        -0.15906E+07
 
   -0.12267E+07         0.26352E+07         0.00000E+00
    0.26352E+07        -0.67544E+07         0.00000E+00
    0.00000E+00         0.00000E+00        -0.15962E+07
 
   -0.12659E+07         0.27023E+07         0.00000E+00
    0.27023E+07        -0.67426E+07         0.00000E+00
    0.00000E+00         0.00000E+00        -0.16017E+07
 
   -0.13052E+07         0.27696E+07         0.00000E+00
    0.27696E+07        -0.67302E+07         0.00000E+00
    0.00000E+00         0.00000E+00        -0.16071E+07
 
   -0.13448E+07         0.28370E+07         0.00000E+00
    0.28370E+07        -0.67172E+07         0.00000E+00
    0.00000E+00         0.00000E+00        -0.16124E+07
 
   -0.13845E+07         0.29045E+07         0.00000E+00
    0.29045E+07        -0.67035E+07         0.00000E+00
    0.00000E+00         0.00000E+00        -0.16176E+07
 
   -0.14245E+07         0.29723E+07         0.00000E+00
    0.29723E+07        -0.66892E+07         0.00000E+00
    0.00000E+00         0.00000E+00        -0.16227E+07
 
   -0.14647E+07         0.30401E+07         0.00000E+00
    0.30401E+07        -0.66743E+07         0.00000E+00
    0.00000E+00         0.00000E+00        -0.16278E+07
 
   -0.15052E+07         0.31081E+07         0.00000E+00
    0.31081E+07        -0.66586E+07         0.00000E+00
    0.00000E+00         0.00000E+00        -0.16328E+07
 
   -0.15460E+07         0.31763E+07         0.00000E+00
    0.31763E+07        -0.66423E+07         0.00000E+00
    0.00000E+00         0.00000E+00        -0.16377E+07
 
   -0.15872E+07         0.32447E+07         0.00000E+00
    0.32447E+07        -0.66252E+07         0.00000E+00
    0.00000E+00         0.00000E+00        -0.16425E+07
 
   -0.16287E+07         0.33131E+07         0.00000E+00
    0.33131E+07        -0.66073E+07         0.00000E+00
    0.00000E+00         0.00000E+00        -0.16472E+07
 
    0.27647E+06         0.35901E+05         0.00000E+00
    0.35901E+05        -0.73911E+07         0.00000E+00
    0.00000E+00         0.00000E+00        -0.14229E+07
 
    0.22597E+06         0.10659E+06         0.00000E+00
    0.10659E+06        -0.73911E+07         0.00000E+00
    0.00000E+00         0.00000E+00        -0.14330E+07
 
    0.17609E+06         0.17684E+06         0.00000E+00
    0.17684E+06        -0.73910E+07         0.00000E+00
    0.00000E+00         0.00000E+00        -0.14430E+07
 
    0.12682E+06         0.24668E+06         0.00000E+00
    0.24668E+06        -0.73909E+07         0.00000E+00
    0.00000E+00         0.00000E+00        -0.14528E+07
 
    0.78145E+05         0.31615E+06         0.00000E+00
    0.31615E+06        -0.73907E+07         0.00000E+00
    0.00000E+00         0.00000E+00        -0.14625E+07
 
    0.30067E+05         0.38528E+06         0.00000E+00
    0.38528E+06        -0.73905E+07         0.00000E+00
    0.00000E+00         0.00000E+00        -0.14721E+07
 
   -0.17427E+05         0.45409E+06         0.00000E+00
    0.45409E+06        -0.73902E+07         0.00000E+00
    0.00000E+00         0.00000E+00        -0.14815E+07
 
   -0.64347E+05         0.52261E+06         0.00000E+00
    0.52261E+06        -0.73898E+07         0.00000E+00
    0.00000E+00         0.00000E+00        -0.14908E+07
 
   -0.11071E+06         0.59087E+06         0.00000E+00
    0.59087E+06        -0.73893E+07         0.00000E+00
    0.00000E+00         0.00000E+00        -0.15000E+07
 
   -0.15651E+06         0.65890E+06         0.00000E+00
    0.65890E+06        -0.73888E+07         0.00000E+00
    0.00000E+00         0.00000E+00        -0.15091E+07
 
   -0.20178E+06         0.72672E+06         0.00000E+00
    0.72672E+06        -0.73881E+07         0.00000E+00
    0.00000E+00         0.00000E+00        -0.15180E+07
 
   -0.24653E+06         0.79436E+06         0.00000E+00
    0.79436E+06        -0.73873E+07         0.00000E+00
    0.00000E+00         0.00000E+00        -0.15268E+07
 
   -0.29077E+06         0.86184E+06         0.00000E+00
    0.86184E+06        -0.73864E+07         0.00000E+00
    0.00000E+00         0.00000E+00        -0.15354E+07
 
   -0.33452E+06         0.92919E+06         0.00000E+00
    0.92919E+06        -0.73853E+07         0.00000E+00
    0.00000E+00         0.00000E+00        -0.15440E+07
 
   -0.37779E+06         0.99643E+06         0.00000E+00
    0.99643E+06        -0.73841E+07         0.00000E+00
    0.00000E+00         0.00000E+00        -0.15524E+07
 
   -0.42060E+06         0.10636E+07         0.00000E+00
    0.10636E+07        -0.73827E+07         0.00000E+00
    0.00000E+00         0.00000E+00        -0.15607E+07
 
   -0.46297E+06         0.11307E+07         0.00000E+00
    0.11307E+07        -0.73811E+07         0.00000E+00
    0.00000E+00         0.00000E+00        -0.15688E+07
 
   -0.50491E+06         0.11977E+07         0.00000E+00
    0.11977E+07        -0.73794E+07         0.00000E+00
    0.00000E+00         0.00000E+00        -0.15769E+07
 
   -0.54646E+06         0.12647E+07         0.00000E+00
    0.12647E+07        -0.73774E+07         0.00000E+00
    0.00000E+00         0.00000E+00        -0.15848E+07
 
   -0.58761E+06         0.13317E+07         0.00000E+00
    0.13317E+07        -0.73752E+07         0.00000E+00
    0.00000E+00         0.00000E+00        -0.15926E+07
 
   -0.62840E+06         0.13987E+07         0.00000E+00
    0.13987E+07        -0.73727E+07         0.00000E+00
    0.00000E+00         0.00000E+00        -0.16002E+07
 
   -0.66884E+06         0.14657E+07         0.00000E+00
    0.14657E+07        -0.73700E+07         0.00000E+00
    0.00000E+00         0.00000E+00        -0.16078E+07
 
   -0.70897E+06         0.15328E+07         0.00000E+00
    0.15328E+07        -0.73670E+07         0.00000E+00
    0.00000E+00         0.00000E+00        -0.16152E+07
 
   -0.74878E+06         0.16000E+07         0.00000E+00
    0.16000E+07        -0.73637E+07         0.00000E+00
    0.00000E+00         0.00000E+00        -0.16225E+07
 
   -0.78832E+06         0.16672E+07         0.00000E+00
    0.16672E+07        -0.73601E+07         0.00000E+00
    0.00000E+00         0.00000E+00        -0.16297E+07
 
   -0.82760E+06         0.17345E+07         0.00000E+00
    0.17345E+07        -0.73562E+07         0.00000E+00
    0.00000E+00         0.00000E+00        -0.16368E+07
 
   -0.86665E+06         0.18019E+07         0.00000E+00
    0.18019E+07        -0.73519E+07         0.00000E+00
    0.00000E+00         0.00000E+00        -0.16437E+07
 
   -0.90548E+06         0.18695E+07         0.00000E+00
    0.18695E+07        -0.73472E+07         0.00000E+00
    0.00000E+00         0.00000E+00        -0.16505E+07
 
   -0.94413E+06         0.19371E+07         0.00000E+00
    0.19371E+07        -0.73422E+07         0.00000E+00
    0.00000E+00         0.00000E+00        -0.16573E+07
 
   -0.98261E+06         0.20050E+07         0.00000E+00
    0.20050E+07        -0.73368E+07         0.00000E+00
    0.00000E+00         0.00000E+00        -0.16639E+07
 
   -0.10209E+07         0.20729E+07         0.00000E+00
    0.20729E+07        -0.73310E+07         0.00000E+00
    0.00000E+00         0.00000E+00        -0.16704E+07
 
   -0.10592E+07         0.21411E+07         0.00000E+00
    0.21411E+07        -0.73247E+07         0.00000E+00
    0.00000E+00         0.00000E+00        -0.16768E+07
 
   -0.10973E+07         0.22094E+07         0.00000E+00
    0.22094E+07        -0.73180E+07         0.00000E+00
    0.00000E+00         0.00000E+00        -0.16831E+07
 
   -0.11354E+07         0.22779E+07         0.00000E+00
    0.22779E+07        -0.73108E+07         0.00000E+00
    0.00000E+00         0.00000E+00        -0.16892E+07
 
   -0.11734E+07         0.23465E+07         0.00000E+00
    0.23465E+07        -0.73032E+07         0.00000E+00
    0.00000E+00         0.00000E+00        -0.16953E+07
 
   -0.12114E+07         0.24154E+07         0.00000E+00
    0.24154E+07        -0.72950E+07         0.00000E+00
    0.00000E+00         0.00000E+00        -0.17013E+07
 
   -0.12494E+07         0.24845E+07         0.00000E+00
    0.24845E+07        -0.72863E+07         0.00000E+00
    0.00000E+00         0.00000E+00        -0.17071E+07
 
   -0.12875E+07         0.25538E+07         0.00000E+00
    0.25538E+07        -0.72770E+07         0.00000E+00
    0.00000E+00         0.00000E+00        -0.17129E+07
 
   -0.13256E+07         0.26233E+07         0.00000E+00
    0.26233E+07        -0.72672E+07         0.00000E+00
    0.00000E+00         0.00000E+00        -0.17185E+07
 
   -0.13638E+07         0.26930E+07         0.00000E+00
    0.26930E+07        -0.72567E+07         0.00000E+00
    0.00000E+00         0.00000E+00        -0.17241E+07
 
   -0.14021E+07         0.27630E+07         0.00000E+00
    0.27630E+07        -0.72457E+07         0.00000E+00
    0.00000E+00         0.00000E+00        -0.17296E+07
 
   -0.14405E+07         0.28332E+07         0.00000E+00
    0.28332E+07        -0.72341E+07         0.00000E+00
    0.00000E+00         0.00000E+00        -0.17349E+07
 
   -0.14792E+07         0.29036E+07         0.00000E+00
    0.29036E+07        -0.72218E+07         0.00000E+00
    0.00000E+00         0.00000E+00        -0.17402E+07
 
   -0.15180E+07         0.29743E+07         0.00000E+00
    0.29743E+07        -0.72088E+07         0.00000E+00
    0.00000E+00         0.00000E+00        -0.17454E+07
 
   -0.15570E+07         0.30452E+07         0.00000E+00
    0.30452E+07        -0.71952E+07         0.00000E+00
    0.00000E+00         0.00000E+00        -0.17504E+07
 
   -0.15963E+07         0.31163E+07         0.00000E+00
    0.31163E+07        -0.71809E+07         0.00000E+00
    0.00000E+00         0.00000E+00        -0.17554E+07
 
   -0.16359E+07         0.31877E+07         0.00000E+00
    0.31877E+07        -0.71658E+07         0.00000E+00
    0.00000E+00         0.00000E+00        -0.17603E+07
 
   -0.16757E+07         0.32593E+07         0.00000E+00
    0.32593E+07        -0.71500E+07         0.00000E+00
    0.00000E+00         0.00000E+00        -0.17651E+07
 
   -0.17159E+07         0.33312E+07         0.00000E+00
    0.33312E+07        -0.71334E+07         0.00000E+00
    0.00000E+00         0.00000E+00        -0.17699E+07
 
   -0.17564E+07         0.34033E+07         0.00000E+00
    0.34033E+07        -0.71161E+07         0.00000E+00
    0.00000E+00         0.00000E+00        -0.17745E+07
 
    0.12902E+06         0.36043E+05         0.00000E+00
    0.36043E+05        -0.78940E+07         0.00000E+00
    0.00000E+00         0.00000E+00        -0.15530E+07
 
    0.76301E+05         0.10705E+06         0.00000E+00
    0.10705E+06        -0.78940E+07         0.00000E+00
    0.00000E+00         0.00000E+00        -0.15635E+07
 
    0.24350E+05         0.17764E+06         0.00000E+00
    0.17764E+06        -0.78941E+07         0.00000E+00
    0.00000E+00         0.00000E+00        -0.15740E+07
 
   -0.26840E+05         0.24785E+06         0.00000E+00
    0.24785E+06        -0.78942E+07         0.00000E+00
    0.00000E+00         0.00000E+00        -0.15842E+07
 
   -0.77280E+05         0.31772E+06         0.00000E+00
    0.31772E+06        -0.78943E+07         0.00000E+00
    0.00000E+00         0.00000E+00        -0.15943E+07
 
   -0.12698E+06         0.38727E+06         0.00000E+00
    0.38727E+06        -0.78944E+07         0.00000E+00
    0.00000E+00         0.00000E+00        -0.16043E+07
 
   -0.17595E+06         0.45655E+06         0.00000E+00
    0.45655E+06        -0.78945E+07         0.00000E+00
    0.00000E+00         0.00000E+00        -0.16141E+07
 
   -0.22422E+06         0.52557E+06         0.00000E+00
    0.52557E+06        -0.78946E+07         0.00000E+00
    0.00000E+00         0.00000E+00        -0.16238E+07
 
   -0.27178E+06         0.59438E+06         0.00000E+00
    0.59438E+06        -0.78947E+07         0.00000E+00
    0.00000E+00         0.00000E+00        -0.16333E+07
 
   -0.31866E+06         0.66300E+06         0.00000E+00
    0.66300E+06        -0.78947E+07         0.00000E+00
    0.00000E+00         0.00000E+00        -0.16427E+07
 
   -0.36488E+06         0.73147E+06         0.00000E+00
    0.73147E+06        -0.78946E+07         0.00000E+00
    0.00000E+00         0.00000E+00        -0.16519E+07
 
   -0.41045E+06         0.79980E+06         0.00000E+00
    0.79980E+06        -0.78945E+07         0.00000E+00
    0.00000E+00         0.00000E+00        -0.16610E+07
 
   -0.45538E+06         0.86803E+06         0.00000E+00
    0.86803E+06        -0.78943E+07         0.00000E+00
    0.00000E+00         0.00000E+00        -0.16699E+07
 
   -0.49971E+06         0.93618E+06         0.00000E+00
    0.93618E+06        -0.78940E+07         0.00000E+00
    0.00000E+00         0.00000E+00        -0.16787E+07
 
   -0.54344E+06         0.10043E+07         0.00000E+00
    0.10043E+07        -0.78935E+07         0.00000E+00
    0.00000E+00         0.00000E+00        -0.16874E+07
 
   -0.58661E+06         0.10723E+07         0.00000E+00
    0.10723E+07        -0.78930E+07         0.00000E+00
    0.00000E+00         0.00000E+00        -0.16959E+07
 
   -0.62922E+06         0.11404E+07         0.00000E+00
    0.11404E+07        -0.78923E+07         0.00000E+00
    0.00000E+00         0.00000E+00        -0.17043E+07
 
   -0.67131E+06         0.12085E+07         0.00000E+00
    0.12085E+07        -0.78914E+07         0.00000E+00
    0.00000E+00         0.00000E+00        -0.17125E+07
 
   -0.71289E+06         0.12766E+07         0.00000E+00
    0.12766E+07        -0.78903E+07         0.00000E+00
    0.00000E+00         0.00000E+00        -0.17206E+07
 
   -0.75399E+06         0.13448E+07         0.00000E+00
    0.13448E+07        -0.78890E+07         0.00000E+00
    0.00000E+00         0.00000E+00        -0.17286E+07
 
   -0.79463E+06         0.14131E+07         0.00000E+00
    0.14131E+07        -0.78876E+07         0.00000E+00
    0.00000E+00         0.00000E+00        -0.17364E+07
 
   -0.83483E+06         0.14815E+07         0.00000E+00
    0.14815E+07        -0.78858E+07         0.00000E+00
    0.00000E+00         0.00000E+00        -0.17441E+07
 
   -0.87463E+06         0.15500E+07         0.00000E+00
    0.15500E+07        -0.78839E+07         0.00000E+00
    0.00000E+00         0.00000E+00        -0.17517E+07
 
   -0.91404E+06         0.16186E+07         0.00000E+00
    0.16186E+07        -0.78816E+07         0.00000E+00
    0.00000E+00         0.00000E+00        -0.17591E+07
 
   -0.95309E+06         0.16874E+07         0.00000E+00
    0.16874E+07        -0.78791E+07         0.00000E+00
    0.00000E+00         0.00000E+00        -0.17664E+07
 
   -0.99181E+06         0.17564E+07         0.00000E+00
    0.17564E+07        -0.78762E+07         0.00000E+00
    0.00000E+00         0.00000E+00        -0.17736E+07
 
   -0.10302E+07         0.18255E+07         0.00000E+00
    0.18255E+07        -0.78730E+07         0.00000E+00
    0.00000E+00         0.00000E+00        -0.17806E+07
 
   -0.10684E+07         0.18949E+07         0.00000E+00
    0.18949E+07        -0.78694E+07         0.00000E+00
    0.00000E+00         0.00000E+00        -0.17876E+07
 
   -0.11062E+07         0.19644E+07         0.00000E+00
    0.19644E+07        -0.78655E+07         0.00000E+00
    0.00000E+00         0.00000E+00        -0.17943E+07
 
   -0.11439E+07         0.20342E+07         0.00000E+00
    0.20342E+07        -0.78612E+07         0.00000E+00
    0.00000E+00         0.00000E+00        -0.18010E+07
 
   -0.11813E+07         0.21043E+07         0.00000E+00
    0.21043E+07        -0.78564E+07         0.00000E+00
    0.00000E+00         0.00000E+00        -0.18076E+07
 
   -0.12186E+07         0.21745E+07         0.00000E+00
    0.21745E+07        -0.78512E+07         0.00000E+00
    0.00000E+00         0.00000E+00        -0.18140E+07
 
   -0.12558E+07         0.22451E+07         0.00000E+00
    0.22451E+07        -0.78456E+07         0.00000E+00
    0.00000E+00         0.00000E+00        -0.18203E+07
 
   -0.12928E+07         0.23159E+07         0.00000E+00
    0.23159E+07        -0.78395E+07         0.00000E+00
    0.00000E+00         0.00000E+00        -0.18265E+07
 
   -0.13297E+07         0.23870E+07         0.00000E+00
    0.23870E+07        -0.78329E+07         0.00000E+00
    0.00000E+00         0.00000E+00        -0.18325E+07
 
   -0.13666E+07         0.24583E+07         0.00000E+00
    0.24583E+07        -0.78257E+07         0.00000E+00
    0.00000E+00         0.00000E+00        -0.18385E+07
 
   -0.14034E+07         0.25300E+07         0.00000E+00
    0.25300E+07        -0.78181E+07         0.00000E+00
    0.00000E+00         0.00000E+00        -0.18443E+07
 
   -0.14403E+07         0.26020E+07         0.00000E+00
    0.26020E+07        -0.78098E+07         0.00000E+00
    0.00000E+00         0.00000E+00        -0.18500E+07
 
   -0.14772E+07         0.26743E+07         0.00000E+00
    0.26743E+07        -0.78010E+07         0.00000E+00
    0.00000E+00         0.00000E+00        -0.18556E+07
 
   -0.15141E+07         0.27469E+07         0.00000E+00
    0.27469E+07        -0.77916E+07         0.00000E+00
    0.00000E+00         0.00000E+00        -0.18611E+07
 
   -0.15511E+07         0.28198E+07         0.00000E+00
    0.28198E+07        -0.77815E+07         0.00000E+00
    0.00000E+00         0.00000E+00        -0.18665E+07
 
   -0.15883E+07         0.28930E+07         0.00000E+00
    0.28930E+07        -0.77708E+07         0.00000E+00
    0.00000E+00         0.00000E+00        -0.18718E+07
 
   -0.16255E+07         0.29665E+07         0.00000E+00
    0.29665E+07        -0.77594E+07         0.00000E+00
    0.00000E+00         0.00000E+00        -0.18770E+07
 
   -0.16630E+07         0.30404E+07         0.00000E+00
    0.30404E+07        -0.77474E+07         0.00000E+00
    0.00000E+00         0.00000E+00        -0.18821E+07
 
   -0.17006E+07         0.31146E+07         0.00000E+00
    0.31146E+07        -0.77346E+07         0.00000E+00
    0.00000E+00         0.00000E+00        -0.18870E+07
 
   -0.17385E+07         0.31892E+07         0.00000E+00
    0.31892E+07        -0.77211E+07         0.00000E+00
    0.00000E+00         0.00000E+00        -0.18919E+07
 
   -0.17767E+07         0.32641E+07         0.00000E+00
    0.32641E+07        -0.77068E+07         0.00000E+00
    0.00000E+00         0.00000E+00        -0.18967E+07
 
   -0.18151E+07         0.33393E+07         0.00000E+00
    0.33393E+07        -0.76917E+07         0.00000E+00
    0.00000E+00         0.00000E+00        -0.19014E+07
 
   -0.18539E+07         0.34148E+07         0.00000E+00
    0.34148E+07        -0.76759E+07         0.00000E+00
    0.00000E+00         0.00000E+00        -0.19060E+07
 
   -0.18930E+07         0.34907E+07         0.00000E+00
    0.34907E+07        -0.76592E+07         0.00000E+00
    0.00000E+00         0.00000E+00        -0.19104E+07
 
   -0.46339E+05         0.36014E+05         0.00000E+00
    0.36014E+05        -0.84256E+07         0.00000E+00
    0.00000E+00         0.00000E+00        -0.16944E+07
 
   -0.10117E+06         0.10702E+06         0.00000E+00
    0.10702E+06        -0.84257E+07         0.00000E+00
    0.00000E+00         0.00000E+00        -0.17054E+07
 
   -0.15505E+06         0.17764E+06         0.00000E+00
    0.17764E+06        -0.84259E+07         0.00000E+00
    0.00000E+00         0.00000E+00        -0.17162E+07
 
   -0.20800E+06         0.24792E+06         0.00000E+00
    0.24792E+06        -0.84263E+07         0.00000E+00
    0.00000E+00         0.00000E+00        -0.17269E+07
 
   -0.26004E+06         0.31788E+06         0.00000E+00
    0.31788E+06        -0.84267E+07         0.00000E+00
    0.00000E+00         0.00000E+00        -0.17373E+07
 
   -0.31117E+06         0.38758E+06         0.00000E+00
    0.38758E+06        -0.84272E+07         0.00000E+00
    0.00000E+00         0.00000E+00        -0.17477E+07
 
   -0.36142E+06         0.45705E+06         0.00000E+00
    0.45705E+06        -0.84278E+07         0.00000E+00
    0.00000E+00         0.00000E+00        -0.17578E+07
 
   -0.41079E+06         0.52631E+06         0.00000E+00
    0.52631E+06        -0.84284E+07         0.00000E+00
    0.00000E+00         0.00000E+00        -0.17678E+07
 
   -0.45932E+06         0.59541E+06         0.00000E+00
    0.59541E+06        -0.84290E+07         0.00000E+00
    0.00000E+00         0.00000E+00        -0.17777E+07
 
   -0.50702E+06         0.66438E+06         0.00000E+00
    0.66438E+06        -0.84297E+07         0.00000E+00
    0.00000E+00         0.00000E+00        -0.17873E+07
 
   -0.55391E+06         0.73325E+06         0.00000E+00
    0.73325E+06        -0.84304E+07         0.00000E+00
    0.00000E+00         0.00000E+00        -0.17969E+07
 
   -0.60001E+06         0.80205E+06         0.00000E+00
    0.80205E+06        -0.84310E+07         0.00000E+00
    0.00000E+00         0.00000E+00        -0.18062E+07
 
   -0.64534E+06         0.87082E+06         0.00000E+00
    0.87082E+06        -0.84316E+07         0.00000E+00
    0.00000E+00         0.00000E+00        -0.18154E+07
 
   -0.68994E+06         0.93957E+06         0.00000E+00
    0.93957E+06        -0.84322E+07         0.00000E+00
    0.00000E+00         0.00000E+00        -0.18244E+07
 
   -0.73381E+06         0.10083E+07         0.00000E+00
    0.10083E+07        -0.84327E+07         0.00000E+00
    0.00000E+00         0.00000E+00        -0.18333E+07
 
   -0.77699E+06         0.10772E+07         0.00000E+00
    0.10772E+07        -0.84331E+07         0.00000E+00
    0.00000E+00         0.00000E+00        -0.18420E+07
 
   -0.81950E+06         0.11461E+07         0.00000E+00
    0.11461E+07        -0.84334E+07         0.00000E+00
    0.00000E+00         0.00000E+00        -0.18506E+07
 
   -0.86137E+06         0.12150E+07         0.00000E+00
    0.12150E+07        -0.84335E+07         0.00000E+00
    0.00000E+00         0.00000E+00        -0.18590E+07
 
   -0.90263E+06         0.12842E+07         0.00000E+00
    0.12842E+07        -0.84335E+07         0.00000E+00
    0.00000E+00         0.00000E+00        -0.18672E+07
 
   -0.94330E+06         0.13534E+07         0.00000E+00
    0.13534E+07        -0.84334E+07         0.00000E+00
    0.00000E+00         0.00000E+00        -0.18753E+07
 
   -0.98340E+06         0.14228E+07         0.00000E+00
    0.14228E+07        -0.84330E+07         0.00000E+00
    0.00000E+00         0.00000E+00        -0.18833E+07
 
   -0.10230E+07         0.14924E+07         0.00000E+00
    0.14924E+07        -0.84325E+07         0.00000E+00
    0.00000E+00         0.00000E+00        -0.18911E+07
 
   -0.10620E+07         0.15622E+07         0.00000E+00
    0.15622E+07        -0.84317E+07         0.00000E+00
    0.00000E+00         0.00000E+00        -0.18987E+07
 
   -0.11006E+07         0.16323E+07         0.00000E+00
    0.16323E+07        -0.84306E+07         0.00000E+00
    0.00000E+00         0.00000E+00        -0.19063E+07
 
   -0.11388E+07         0.17026E+07         0.00000E+00
    0.17026E+07        -0.84293E+07         0.00000E+00
    0.00000E+00         0.00000E+00        -0.19136E+07
 
   -0.11765E+07         0.17731E+07         0.00000E+00
    0.17731E+07        -0.84277E+07         0.00000E+00
    0.00000E+00         0.00000E+00        -0.19208E+07
 
   -0.12139E+07         0.18439E+07         0.00000E+00
    0.18439E+07        -0.84257E+07         0.00000E+00
    0.00000E+00         0.00000E+00        -0.19279E+07
 
   -0.12509E+07         0.19151E+07         0.00000E+00
    0.19151E+07        -0.84234E+07         0.00000E+00
    0.00000E+00         0.00000E+00        -0.19349E+07
 
   -0.12876E+07         0.19865E+07         0.00000E+00
    0.19865E+07        -0.84208E+07         0.00000E+00
    0.00000E+00         0.00000E+00        -0.19417E+07
 
   -0.13239E+07         0.20582E+07         0.00000E+00
    0.20582E+07        -0.84177E+07         0.00000E+00
    0.00000E+00         0.00000E+00        -0.19483E+07
 
   -0.13601E+07         0.21303E+07         0.00000E+00
    0.21303E+07        -0.84143E+07         0.00000E+00
    0.00000E+00         0.00000E+00        -0.19549E+07
 
   -0.13960E+07         0.22027E+07         0.00000E+00
    0.22027E+07        -0.84104E+07         0.00000E+00
    0.00000E+00         0.00000E+00        -0.19613E+07
 
   -0.14316E+07         0.22755E+07         0.00000E+00
    0.22755E+07        -0.84060E+07         0.00000E+00
    0.00000E+00         0.00000E+00        -0.19675E+07
 
   -0.14672E+07         0.23486E+07         0.00000E+00
    0.23486E+07        -0.84012E+07         0.00000E+00
    0.00000E+00         0.00000E+00        -0.19737E+07
 
   -0.15026E+07         0.24222E+07         0.00000E+00
    0.24222E+07        -0.83958E+07         0.00000E+00
    0.00000E+00         0.00000E+00        -0.19797E+07
 
   -0.15378E+07         0.24961E+07         0.00000E+00
    0.24961E+07        -0.83899E+07         0.00000E+00
    0.00000E+00         0.00000E+00        -0.19856E+07
 
   -0.15731E+07         0.25704E+07         0.00000E+00
    0.25704E+07        -0.83835E+07         0.00000E+00
    0.00000E+00         0.00000E+00        -0.19913E+07
 
   -0.16082E+07         0.26451E+07         0.00000E+00
    0.26451E+07        -0.83765E+07         0.00000E+00
    0.00000E+00         0.00000E+00        -0.19969E+07
 
   -0.16434E+07         0.27202E+07         0.00000E+00
    0.27202E+07        -0.83689E+07         0.00000E+00
    0.00000E+00         0.00000E+00        -0.20025E+07
 
   -0.16786E+07         0.27957E+07         0.00000E+00
    0.27957E+07        -0.83606E+07         0.00000E+00
    0.00000E+00         0.00000E+00        -0.20078E+07
 
   -0.17138E+07         0.28716E+07         0.00000E+00
    0.28716E+07        -0.83517E+07         0.00000E+00
    0.00000E+00         0.00000E+00        -0.20131E+07
 
   -0.17492E+07         0.29480E+07         0.00000E+00
    0.29480E+07        -0.83422E+07         0.00000E+00
    0.00000E+00         0.00000E+00        -0.20183E+07
 
   -0.17846E+07         0.30248E+07         0.00000E+00
    0.30248E+07        -0.83319E+07         0.00000E+00
    0.00000E+00         0.00000E+00        -0.20233E+07
 
   -0.18203E+07         0.31020E+07         0.00000E+00
    0.31020E+07        -0.83209E+07         0.00000E+00
    0.00000E+00         0.00000E+00        -0.20282E+07
 
   -0.18560E+07         0.31796E+07         0.00000E+00
    0.31796E+07        -0.83092E+07         0.00000E+00
    0.00000E+00         0.00000E+00        -0.20331E+07
 
   -0.18921E+07         0.32577E+07         0.00000E+00
    0.32577E+07        -0.82967E+07         0.00000E+00
    0.00000E+00         0.00000E+00        -0.20378E+07
 
   -0.19283E+07         0.33362E+07         0.00000E+00
    0.33362E+07        -0.82835E+07         0.00000E+00
    0.00000E+00         0.00000E+00        -0.20424E+07
 
   -0.19649E+07         0.34151E+07         0.00000E+00
    0.34151E+07        -0.82694E+07         0.00000E+00
    0.00000E+00         0.00000E+00        -0.20468E+07
 
   -0.20017E+07         0.34945E+07         0.00000E+00
    0.34945E+07        -0.82544E+07         0.00000E+00
    0.00000E+00         0.00000E+00        -0.20512E+07
 
   -0.20389E+07         0.35743E+07         0.00000E+00
    0.35743E+07        -0.82387E+07         0.00000E+00
    0.00000E+00         0.00000E+00        -0.20555E+07
 
   -0.25272E+06         0.35785E+05         0.00000E+00
    0.35785E+05        -0.89872E+07         0.00000E+00
    0.00000E+00         0.00000E+00        -0.18480E+07
 
   -0.30949E+06         0.10641E+06         0.00000E+00
    0.10641E+06        -0.89874E+07         0.00000E+00
    0.00000E+00         0.00000E+00        -0.18594E+07
 
   -0.36512E+06         0.17670E+06         0.00000E+00
    0.17670E+06        -0.89878E+07         0.00000E+00
    0.00000E+00         0.00000E+00        -0.18706E+07
 
   -0.41963E+06         0.24668E+06         0.00000E+00
    0.24668E+06        -0.89884E+07         0.00000E+00
    0.00000E+00         0.00000E+00        -0.18816E+07
 
   -0.47303E+06         0.31640E+06         0.00000E+00
    0.31640E+06        -0.89892E+07         0.00000E+00
    0.00000E+00         0.00000E+00        -0.18925E+07
 
   -0.52535E+06         0.38591E+06         0.00000E+00
    0.38591E+06        -0.89902E+07         0.00000E+00
    0.00000E+00         0.00000E+00        -0.19031E+07
 
   -0.57661E+06         0.45524E+06         0.00000E+00
    0.45524E+06        -0.89913E+07         0.00000E+00
    0.00000E+00         0.00000E+00        -0.19136E+07
 
   -0.62682E+06         0.52444E+06         0.00000E+00
    0.52444E+06        -0.89925E+07         0.00000E+00
    0.00000E+00         0.00000E+00        -0.19239E+07
 
   -0.67601E+06         0.59353E+06         0.00000E+00
    0.59353E+06        -0.89939E+07         0.00000E+00
    0.00000E+00         0.00000E+00        -0.19340E+07
 
   -0.72421E+06         0.66257E+06         0.00000E+00
    0.66257E+06        -0.89953E+07         0.00000E+00
    0.00000E+00         0.00000E+00        -0.19439E+07
 
   -0.77144E+06         0.73157E+06         0.00000E+00
    0.73157E+06        -0.89968E+07         0.00000E+00
    0.00000E+00         0.00000E+00        -0.19536E+07
 
   -0.81773E+06         0.80058E+06         0.00000E+00
    0.80058E+06        -0.89983E+07         0.00000E+00
    0.00000E+00         0.00000E+00        -0.19632E+07
 
   -0.86310E+06         0.86963E+06         0.00000E+00
    0.86963E+06        -0.89999E+07         0.00000E+00
    0.00000E+00         0.00000E+00        -0.19726E+07
 
   -0.90759E+06         0.93876E+06         0.00000E+00
    0.93876E+06        -0.90014E+07         0.00000E+00
    0.00000E+00         0.00000E+00        -0.19818E+07
 
   -0.95122E+06         0.10080E+07         0.00000E+00
    0.10080E+07        -0.90030E+07         0.00000E+00
    0.00000E+00         0.00000E+00        -0.19908E+07
 
   -0.99402E+06         0.10773E+07         0.00000E+00
    0.10773E+07        -0.90045E+07         0.00000E+00
    0.00000E+00         0.00000E+00        -0.19997E+07
 
   -0.10360E+07         0.11469E+07         0.00000E+00
    0.11469E+07        -0.90059E+07         0.00000E+00
    0.00000E+00         0.00000E+00        -0.20084E+07
 
   -0.10773E+07         0.12166E+07         0.00000E+00
    0.12166E+07        -0.90073E+07         0.00000E+00
    0.00000E+00         0.00000E+00        -0.20169E+07
 
   -0.11178E+07         0.12865E+07         0.00000E+00
    0.12865E+07        -0.90085E+07         0.00000E+00
    0.00000E+00         0.00000E+00        -0.20253E+07
 
   -0.11576E+07         0.13566E+07         0.00000E+00
    0.13566E+07        -0.90097E+07         0.00000E+00
    0.00000E+00         0.00000E+00        -0.20334E+07
 
   -0.11967E+07         0.14271E+07         0.00000E+00
    0.14271E+07        -0.90106E+07         0.00000E+00
    0.00000E+00         0.00000E+00        -0.20415E+07
 
   -0.12352E+07         0.14978E+07         0.00000E+00
    0.14978E+07        -0.90114E+07         0.00000E+00
    0.00000E+00         0.00000E+00        -0.20493E+07
 
   -0.12730E+07         0.15688E+07         0.00000E+00
    0.15688E+07        -0.90120E+07         0.00000E+00
    0.00000E+00         0.00000E+00        -0.20570E+07
 
   -0.13104E+07         0.16401E+07         0.00000E+00
    0.16401E+07        -0.90123E+07         0.00000E+00
    0.00000E+00         0.00000E+00        -0.20645E+07
 
   -0.13471E+07         0.17118E+07         0.00000E+00
    0.17118E+07        -0.90124E+07         0.00000E+00
    0.00000E+00         0.00000E+00        -0.20719E+07
 
   -0.13834E+07         0.17838E+07         0.00000E+00
    0.17838E+07        -0.90122E+07         0.00000E+00
    0.00000E+00         0.00000E+00        -0.20791E+07
 
   -0.14192E+07         0.18562E+07         0.00000E+00
    0.18562E+07        -0.90117E+07         0.00000E+00
    0.00000E+00         0.00000E+00        -0.20862E+07
 
   -0.14546E+07         0.19291E+07         0.00000E+00
    0.19291E+07        -0.90109E+07         0.00000E+00
    0.00000E+00         0.00000E+00        -0.20931E+07
 
   -0.14896E+07         0.20023E+07         0.00000E+00
    0.20023E+07        -0.90097E+07         0.00000E+00
    0.00000E+00         0.00000E+00        -0.20999E+07
 
   -0.15242E+07         0.20760E+07         0.00000E+00
    0.20760E+07        -0.90081E+07         0.00000E+00
    0.00000E+00         0.00000E+00        -0.21065E+07
 
   -0.15585E+07         0.21501E+07         0.00000E+00
    0.21501E+07        -0.90062E+07         0.00000E+00
    0.00000E+00         0.00000E+00        -0.21129E+07
 
   -0.15925E+07         0.22246E+07         0.00000E+00
    0.22246E+07        -0.90037E+07         0.00000E+00
    0.00000E+00         0.00000E+00        -0.21192E+07
 
   -0.16262E+07         0.22996E+07         0.00000E+00
    0.22996E+07        -0.90009E+07         0.00000E+00
    0.00000E+00         0.00000E+00        -0.21254E+07
 
   -0.16597E+07         0.23751E+07         0.00000E+00
    0.23751E+07        -0.89975E+07         0.00000E+00
    0.00000E+00         0.00000E+00        -0.21314E+07
 
   -0.16931E+07         0.24511E+07         0.00000E+00
    0.24511E+07        -0.89936E+07         0.00000E+00
    0.00000E+00         0.00000E+00        -0.21373E+07
 
   -0.17262E+07         0.25275E+07         0.00000E+00
    0.25275E+07        -0.89892E+07         0.00000E+00
    0.00000E+00         0.00000E+00        -0.21431E+07
 
   -0.17593E+07         0.26045E+07         0.00000E+00
    0.26045E+07        -0.89842E+07         0.00000E+00
    0.00000E+00         0.00000E+00        -0.21487E+07
 
   -0.17923E+07         0.26820E+07         0.00000E+00
    0.26820E+07        -0.89786E+07         0.00000E+00
    0.00000E+00         0.00000E+00        -0.21542E+07
 
   -0.18252E+07         0.27600E+07         0.00000E+00
    0.27600E+07        -0.89724E+07         0.00000E+00
    0.00000E+00         0.00000E+00        -0.21595E+07
 
   -0.18582E+07         0.28385E+07         0.00000E+00
    0.28385E+07        -0.89656E+07         0.00000E+00
    0.00000E+00         0.00000E+00        -0.21648E+07
 
   -0.18911E+07         0.29175E+07         0.00000E+00
    0.29175E+07        -0.89581E+07         0.00000E+00
    0.00000E+00         0.00000E+00        -0.21698E+07
 
   -0.19241E+07         0.29971E+07         0.00000E+00
    0.29971E+07        -0.89499E+07         0.00000E+00
    0.00000E+00         0.00000E+00        -0.21748E+07
 
   -0.19573E+07         0.30772E+07         0.00000E+00
    0.30772E+07        -0.89410E+07         0.00000E+00
    0.00000E+00         0.00000E+00        -0.21797E+07
 
   -0.19905E+07         0.31578E+07         0.00000E+00
    0.31578E+07        -0.89314E+07         0.00000E+00
    0.00000E+00         0.00000E+00        -0.21844E+07
 
   -0.20239E+07         0.32390E+07         0.00000E+00
    0.32390E+07        -0.89209E+07         0.00000E+00
    0.00000E+00         0.00000E+00        -0.21890E+07
 
   -0.20575E+07         0.33207E+07         0.00000E+00
    0.33207E+07        -0.89097E+07         0.00000E+00
    0.00000E+00         0.00000E+00        -0.21935E+07
 
   -0.20914E+07         0.34030E+07         0.00000E+00
    0.34030E+07        -0.88977E+07         0.00000E+00
    0.00000E+00         0.00000E+00        -0.21978E+07
 
   -0.21255E+07         0.34858E+07         0.00000E+00
    0.34858E+07        -0.88848E+07         0.00000E+00
    0.00000E+00         0.00000E+00        -0.22021E+07
 
   -0.21600E+07         0.35692E+07         0.00000E+00
    0.35692E+07        -0.88710E+07         0.00000E+00
    0.00000E+00         0.00000E+00        -0.22062E+07
 
   -0.21947E+07         0.36531E+07         0.00000E+00
    0.36531E+07        -0.88563E+07         0.00000E+00
    0.00000E+00         0.00000E+00        -0.22102E+07
 
   -0.49348E+06         0.35321E+05         0.00000E+00
    0.35321E+05        -0.95801E+07         0.00000E+00
    0.00000E+00         0.00000E+00        -0.20147E+07
 
   -0.55197E+06         0.10513E+06         0.00000E+00
    0.10513E+06        -0.95804E+07         0.00000E+00
    0.00000E+00         0.00000E+00        -0.20265E+07
 
   -0.60911E+06         0.17465E+06         0.00000E+00
    0.17465E+06        -0.95810E+07         0.00000E+00
    0.00000E+00         0.00000E+00        -0.20380E+07
 
   -0.66491E+06         0.24392E+06         0.00000E+00
    0.24392E+06        -0.95820E+07         0.00000E+00
    0.00000E+00         0.00000E+00        -0.20494E+07
 
   -0.71939E+06         0.31300E+06         0.00000E+00
    0.31300E+06        -0.95832E+07         0.00000E+00
    0.00000E+00         0.00000E+00        -0.20605E+07
 
   -0.77258E+06         0.38193E+06         0.00000E+00
    0.38193E+06        -0.95847E+07         0.00000E+00
    0.00000E+00         0.00000E+00        -0.20715E+07
 
   -0.82452E+06         0.45076E+06         0.00000E+00
    0.45076E+06        -0.95864E+07         0.00000E+00
    0.00000E+00         0.00000E+00        -0.20822E+07
 
   -0.87521E+06         0.51952E+06         0.00000E+00
    0.51952E+06        -0.95883E+07         0.00000E+00
    0.00000E+00         0.00000E+00        -0.20927E+07
 
   -0.92470E+06         0.58826E+06         0.00000E+00
    0.58826E+06        -0.95904E+07         0.00000E+00
    0.00000E+00         0.00000E+00        -0.21030E+07
 
   -0.97302E+06         0.65703E+06         0.00000E+00
    0.65703E+06        -0.95927E+07         0.00000E+00
    0.00000E+00         0.00000E+00        -0.21131E+07
 
   -0.10202E+07         0.72585E+06         0.00000E+00
    0.72585E+06        -0.95951E+07         0.00000E+00
    0.00000E+00         0.00000E+00        -0.21231E+07
 
   -0.10662E+07         0.79477E+06         0.00000E+00
    0.79477E+06        -0.95977E+07         0.00000E+00
    0.00000E+00         0.00000E+00        -0.21328E+07
 
   -0.11112E+07         0.86382E+06         0.00000E+00
    0.86382E+06        -0.96003E+07         0.00000E+00
    0.00000E+00         0.00000E+00        -0.21423E+07
 
   -0.11552E+07         0.93304E+06         0.00000E+00
    0.93304E+06        -0.96030E+07         0.00000E+00
    0.00000E+00         0.00000E+00        -0.21516E+07
 
   -0.11981E+07         0.10025E+07         0.00000E+00
    0.10025E+07        -0.96058E+07         0.00000E+00
    0.00000E+00         0.00000E+00        -0.21608E+07
 
   -0.12400E+07         0.10721E+07         0.00000E+00
    0.10721E+07        -0.96086E+07         0.00000E+00
    0.00000E+00         0.00000E+00        -0.21697E+07
 
   -0.12810E+07         0.11420E+07         0.00000E+00
    0.11420E+07        -0.96113E+07         0.00000E+00
    0.00000E+00         0.00000E+00        -0.21785E+07
 
   -0.13212E+07         0.12122E+07         0.00000E+00
    0.12122E+07        -0.96141E+07         0.00000E+00
    0.00000E+00         0.00000E+00        -0.21870E+07
 
   -0.13604E+07         0.12828E+07         0.00000E+00
    0.12828E+07        -0.96167E+07         0.00000E+00
    0.00000E+00         0.00000E+00        -0.21954E+07
 
   -0.13988E+07         0.13536E+07         0.00000E+00
    0.13536E+07        -0.96193E+07         0.00000E+00
    0.00000E+00         0.00000E+00        -0.22036E+07
 
   -0.14364E+07         0.14249E+07         0.00000E+00
    0.14249E+07        -0.96218E+07         0.00000E+00
    0.00000E+00         0.00000E+00        -0.22116E+07
 
   -0.14733E+07         0.14965E+07         0.00000E+00
    0.14965E+07        -0.96241E+07         0.00000E+00
    0.00000E+00         0.00000E+00        -0.22195E+07
 
   -0.15095E+07         0.15686E+07         0.00000E+00
    0.15686E+07        -0.96262E+07         0.00000E+00
    0.00000E+00         0.00000E+00        -0.22271E+07
 
   -0.15450E+07         0.16411E+07         0.00000E+00
    0.16411E+07        -0.96282E+07         0.00000E+00
    0.00000E+00         0.00000E+00        -0.22346E+07
 
   -0.15798E+07         0.17141E+07         0.00000E+00
    0.17141E+07        -0.96299E+07         0.00000E+00
    0.00000E+00         0.00000E+00        -0.22419E+07
 
   -0.16141E+07         0.17875E+07         0.00000E+00
    0.17875E+07        -0.96313E+07         0.00000E+00
    0.00000E+00         0.00000E+00        -0.22491E+07
 
   -0.16478E+07         0.18614E+07         0.00000E+00
    0.18614E+07        -0.96325E+07         0.00000E+00
    0.00000E+00         0.00000E+00        -0.22561E+07
 
   -0.16810E+07         0.19359E+07         0.00000E+00
    0.19359E+07        -0.96333E+07         0.00000E+00
    0.00000E+00         0.00000E+00        -0.22629E+07
 
   -0.17137E+07         0.20109E+07         0.00000E+00
    0.20109E+07        -0.96338E+07         0.00000E+00
    0.00000E+00         0.00000E+00        -0.22695E+07
 
   -0.17460E+07         0.20864E+07         0.00000E+00
    0.20864E+07        -0.96339E+07         0.00000E+00
    0.00000E+00         0.00000E+00        -0.22760E+07
 
   -0.17779E+07         0.21625E+07         0.00000E+00
    0.21625E+07        -0.96336E+07         0.00000E+00
    0.00000E+00         0.00000E+00        -0.22823E+07
 
   -0.18095E+07         0.22391E+07         0.00000E+00
    0.22391E+07        -0.96329E+07         0.00000E+00
    0.00000E+00         0.00000E+00        -0.22885E+07
 
   -0.18407E+07         0.23164E+07         0.00000E+00
    0.23164E+07        -0.96317E+07         0.00000E+00
    0.00000E+00         0.00000E+00        -0.22945E+07
 
   -0.18716E+07         0.23942E+07         0.00000E+00
    0.23942E+07        -0.96301E+07         0.00000E+00
    0.00000E+00         0.00000E+00        -0.23003E+07
 
   -0.19023E+07         0.24726E+07         0.00000E+00
    0.24726E+07        -0.96279E+07         0.00000E+00
    0.00000E+00         0.00000E+00        -0.23060E+07
 
   -0.19328E+07         0.25517E+07         0.00000E+00
    0.25517E+07        -0.96252E+07         0.00000E+00
    0.00000E+00         0.00000E+00        -0.23116E+07
 
   -0.19632E+07         0.26314E+07         0.00000E+00
    0.26314E+07        -0.96219E+07         0.00000E+00
    0.00000E+00         0.00000E+00        -0.23170E+07
 
   -0.19934E+07         0.27116E+07         0.00000E+00
    0.27116E+07        -0.96180E+07         0.00000E+00
    0.00000E+00         0.00000E+00        -0.23223E+07
 
   -0.20236E+07         0.27926E+07         0.00000E+00
    0.27926E+07        -0.96134E+07         0.00000E+00
    0.00000E+00         0.00000E+00        -0.23274E+07
 
   -0.20537E+07         0.28741E+07         0.00000E+00
    0.28741E+07        -0.96082E+07         0.00000E+00
    0.00000E+00         0.00000E+00        -0.23324E+07
 
   -0.20838E+07         0.29563E+07         0.00000E+00
    0.29563E+07        -0.96024E+07         0.00000E+00
    0.00000E+00         0.00000E+00        -0.23372E+07
 
   -0.21139E+07         0.30392E+07         0.00000E+00
    0.30392E+07        -0.95958E+07         0.00000E+00
    0.00000E+00         0.00000E+00        -0.23419E+07
 
   -0.21442E+07         0.31227E+07         0.00000E+00
    0.31227E+07        -0.95884E+07         0.00000E+00
    0.00000E+00         0.00000E+00        -0.23465E+07
 
   -0.21745E+07         0.32068E+07         0.00000E+00
    0.32068E+07        -0.95803E+07         0.00000E+00
    0.00000E+00         0.00000E+00        -0.23510E+07
 
   -0.22050E+07         0.32917E+07         0.00000E+00
    0.32917E+07        -0.95714E+07         0.00000E+00
    0.00000E+00         0.00000E+00        -0.23553E+07
 
   -0.22356E+07         0.33771E+07         0.00000E+00
    0.33771E+07        -0.95617E+07         0.00000E+00
    0.00000E+00         0.00000E+00        -0.23595E+07
 
   -0.22665E+07         0.34633E+07         0.00000E+00
    0.34633E+07        -0.95512E+07         0.00000E+00
    0.00000E+00         0.00000E+00        -0.23635E+07
 
   -0.22976E+07         0.35501E+07         0.00000E+00
    0.35501E+07        -0.95397E+07         0.00000E+00
    0.00000E+00         0.00000E+00        -0.23675E+07
 
   -0.23291E+07         0.36375E+07         0.00000E+00
    0.36375E+07        -0.95274E+07         0.00000E+00
    0.00000E+00         0.00000E+00        -0.23713E+07
 
   -0.23608E+07         0.37256E+07         0.00000E+00
    0.37256E+07        -0.95141E+07         0.00000E+00
    0.00000E+00         0.00000E+00        -0.23750E+07
 
   -0.77224E+06         0.34584E+05         0.00000E+00
    0.34584E+05        -0.10205E+08         0.00000E+00
    0.00000E+00         0.00000E+00        -0.21955E+07
 
   -0.83217E+06         0.10306E+06         0.00000E+00
    0.10306E+06        -0.10206E+08         0.00000E+00
    0.00000E+00         0.00000E+00        -0.22076E+07
 
   -0.89050E+06         0.17132E+06         0.00000E+00
    0.17132E+06        -0.10207E+08         0.00000E+00
    0.00000E+00         0.00000E+00        -0.22195E+07
 
   -0.94724E+06         0.23940E+06         0.00000E+00
    0.23940E+06        -0.10208E+08         0.00000E+00
    0.00000E+00         0.00000E+00        -0.22311E+07
 
   -0.10024E+07         0.30737E+06         0.00000E+00
    0.30737E+06        -0.10210E+08         0.00000E+00
    0.00000E+00         0.00000E+00        -0.22425E+07
 
   -0.10561E+07         0.37527E+06         0.00000E+00
    0.37527E+06        -0.10212E+08         0.00000E+00
    0.00000E+00         0.00000E+00        -0.22536E+07
 
   -0.11083E+07         0.44316E+06         0.00000E+00
    0.44316E+06        -0.10214E+08         0.00000E+00
    0.00000E+00         0.00000E+00        -0.22645E+07
 
   -0.11591E+07         0.51108E+06         0.00000E+00
    0.51108E+06        -0.10217E+08         0.00000E+00
    0.00000E+00         0.00000E+00        -0.22752E+07
 
   -0.12084E+07         0.57908E+06         0.00000E+00
    0.57908E+06        -0.10220E+08         0.00000E+00
    0.00000E+00         0.00000E+00        -0.22857E+07
 
   -0.12564E+07         0.64719E+06         0.00000E+00
    0.64719E+06        -0.10223E+08         0.00000E+00
    0.00000E+00         0.00000E+00        -0.22959E+07
 
   -0.13030E+07         0.71547E+06         0.00000E+00
    0.71547E+06        -0.10227E+08         0.00000E+00
    0.00000E+00         0.00000E+00        -0.23060E+07
 
   -0.13483E+07         0.78396E+06         0.00000E+00
    0.78396E+06        -0.10230E+08         0.00000E+00
    0.00000E+00         0.00000E+00        -0.23158E+07
 
   -0.13924E+07         0.85268E+06         0.00000E+00
    0.85268E+06        -0.10234E+08         0.00000E+00
    0.00000E+00         0.00000E+00        -0.23254E+07
 
   -0.14353E+07         0.92169E+06         0.00000E+00
    0.92169E+06        -0.10238E+08         0.00000E+00
    0.00000E+00         0.00000E+00        -0.23347E+07
 
   -0.14769E+07         0.99101E+06         0.00000E+00
    0.99101E+06        -0.10242E+08         0.00000E+00
    0.00000E+00         0.00000E+00        -0.23439E+07
 
   -0.15175E+07         0.10607E+07         0.00000E+00
    0.10607E+07        -0.10247E+08         0.00000E+00
    0.00000E+00         0.00000E+00        -0.23528E+07
 
   -0.15570E+07         0.11307E+07         0.00000E+00
    0.11307E+07        -0.10251E+08         0.00000E+00
    0.00000E+00         0.00000E+00        -0.23616E+07
 
   -0.15954E+07         0.12012E+07         0.00000E+00
    0.12012E+07        -0.10255E+08         0.00000E+00
    0.00000E+00         0.00000E+00        -0.23701E+07
 
   -0.16328E+07         0.12721E+07         0.00000E+00
    0.12721E+07        -0.10259E+08         0.00000E+00
    0.00000E+00         0.00000E+00        -0.23785E+07
 
   -0.16692E+07         0.13435E+07         0.00000E+00
    0.13435E+07        -0.10264E+08         0.00000E+00
    0.00000E+00         0.00000E+00        -0.23866E+07
 
   -0.17048E+07         0.14154E+07         0.00000E+00
    0.14154E+07        -0.10268E+08         0.00000E+00
    0.00000E+00         0.00000E+00        -0.23945E+07
 
   -0.17394E+07         0.14878E+07         0.00000E+00
    0.14878E+07        -0.10272E+08         0.00000E+00
    0.00000E+00         0.00000E+00        -0.24023E+07
 
   -0.17733E+07         0.15608E+07         0.00000E+00
    0.15608E+07        -0.10276E+08         0.00000E+00
    0.00000E+00         0.00000E+00        -0.24098E+07
 
   -0.18063E+07         0.16343E+07         0.00000E+00
    0.16343E+07        -0.10280E+08         0.00000E+00
    0.00000E+00         0.00000E+00        -0.24172E+07
 
   -0.18387E+07         0.17084E+07         0.00000E+00
    0.17084E+07        -0.10283E+08         0.00000E+00
    0.00000E+00         0.00000E+00        -0.24243E+07
 
   -0.18703E+07         0.17831E+07         0.00000E+00
    0.17831E+07        -0.10286E+08         0.00000E+00
    0.00000E+00         0.00000E+00        -0.24313E+07
 
   -0.19013E+07         0.18585E+07         0.00000E+00
    0.18585E+07        -0.10289E+08         0.00000E+00
    0.00000E+00         0.00000E+00        -0.24381E+07
 
   -0.19317E+07         0.19345E+07         0.00000E+00
    0.19345E+07        -0.10292E+08         0.00000E+00
    0.00000E+00         0.00000E+00        -0.24448E+07
 
   -0.19615E+07         0.20111E+07         0.00000E+00
    0.20111E+07        -0.10295E+08         0.00000E+00
    0.00000E+00         0.00000E+00        -0.24512E+07
 
   -0.19909E+07         0.20885E+07         0.00000E+00
    0.20885E+07        -0.10297E+08         0.00000E+00
    0.00000E+00         0.00000E+00        -0.24575E+07
 
   -0.20197E+07         0.21665E+07         0.00000E+00
    0.21665E+07        -0.10298E+08         0.00000E+00
    0.00000E+00         0.00000E+00        -0.24636E+07
 
   -0.20482E+07         0.22452E+07         0.00000E+00
    0.22452E+07        -0.10299E+08         0.00000E+00
    0.00000E+00         0.00000E+00        -0.24695E+07
 
   -0.20763E+07         0.23246E+07         0.00000E+00
    0.23246E+07        -0.10300E+08         0.00000E+00
    0.00000E+00         0.00000E+00        -0.24753E+07
 
   -0.21040E+07         0.24048E+07         0.00000E+00
    0.24048E+07        -0.10300E+08         0.00000E+00
    0.00000E+00         0.00000E+00        -0.24809E+07
 
   -0.21315E+07         0.24857E+07         0.00000E+00
    0.24857E+07        -0.10300E+08         0.00000E+00
    0.00000E+00         0.00000E+00        -0.24863E+07
 
   -0.21587E+07         0.25673E+07         0.00000E+00
    0.25673E+07        -0.10299E+08         0.00000E+00
    0.00000E+00         0.00000E+00        -0.24916E+07
 
   -0.21857E+07         0.26497E+07         0.00000E+00
    0.26497E+07        -0.10298E+08         0.00000E+00
    0.00000E+00         0.00000E+00        -0.24967E+07
 
   -0.22126E+07         0.27329E+07         0.00000E+00
    0.27329E+07        -0.10296E+08         0.00000E+00
    0.00000E+00         0.00000E+00        -0.25017E+07
 
   -0.22393E+07         0.28168E+07         0.00000E+00
    0.28168E+07        -0.10293E+08         0.00000E+00
    0.00000E+00         0.00000E+00        -0.25065E+07
 
   -0.22660E+07         0.29014E+07         0.00000E+00
    0.29014E+07        -0.10290E+08         0.00000E+00
    0.00000E+00         0.00000E+00        -0.25112E+07
 
   -0.22926E+07         0.29868E+07         0.00000E+00
    0.29868E+07        -0.10286E+08         0.00000E+00
    0.00000E+00         0.00000E+00        -0.25157E+07
 
   -0.23193E+07         0.30731E+07         0.00000E+00
    0.30731E+07        -0.10281E+08         0.00000E+00
    0.00000E+00         0.00000E+00        -0.25201E+07
 
   -0.23460E+07         0.31600E+07         0.00000E+00
    0.31600E+07        -0.10276E+08         0.00000E+00
    0.00000E+00         0.00000E+00        -0.25244E+07
 
   -0.23728E+07         0.32478E+07         0.00000E+00
    0.32478E+07        -0.10270E+08         0.00000E+00
    0.00000E+00         0.00000E+00        -0.25285E+07
 
   -0.23997E+07         0.33363E+07         0.00000E+00
    0.33363E+07        -0.10262E+08         0.00000E+00
    0.00000E+00         0.00000E+00        -0.25324E+07
 
   -0.24268E+07         0.34257E+07         0.00000E+00
    0.34257E+07        -0.10254E+08         0.00000E+00
    0.00000E+00         0.00000E+00        -0.25362E+07
 
   -0.24541E+07         0.35158E+07         0.00000E+00
    0.35158E+07        -0.10246E+08         0.00000E+00
    0.00000E+00         0.00000E+00        -0.25399E+07
 
   -0.24817E+07         0.36067E+07         0.00000E+00
    0.36067E+07        -0.10236E+08         0.00000E+00
    0.00000E+00         0.00000E+00        -0.25435E+07
 
   -0.25095E+07         0.36983E+07         0.00000E+00
    0.36983E+07        -0.10225E+08         0.00000E+00
    0.00000E+00         0.00000E+00        -0.25469E+07
 
   -0.25377E+07         0.37908E+07         0.00000E+00
    0.37908E+07        -0.10213E+08         0.00000E+00
    0.00000E+00         0.00000E+00        -0.25502E+07
 
   -0.10929E+07         0.33530E+05         0.00000E+00
    0.33530E+05        -0.10864E+08         0.00000E+00
    0.00000E+00         0.00000E+00        -0.23915E+07
 
   -0.11539E+07         0.10009E+06         0.00000E+00
    0.10009E+06        -0.10865E+08         0.00000E+00
    0.00000E+00         0.00000E+00        -0.24038E+07
 
   -0.12130E+07         0.16651E+06         0.00000E+00
    0.16651E+06        -0.10866E+08         0.00000E+00
    0.00000E+00         0.00000E+00        -0.24159E+07
 
   -0.12703E+07         0.23285E+06         0.00000E+00
    0.23285E+06        -0.10868E+08         0.00000E+00
    0.00000E+00         0.00000E+00        -0.24277E+07
 
   -0.13257E+07         0.29918E+06         0.00000E+00
    0.29918E+06        -0.10870E+08         0.00000E+00
    0.00000E+00         0.00000E+00        -0.24392E+07
 
   -0.13794E+07         0.36554E+06         0.00000E+00
    0.36554E+06        -0.10873E+08         0.00000E+00
    0.00000E+00         0.00000E+00        -0.24505E+07
 
   -0.14314E+07         0.43200E+06         0.00000E+00
    0.43200E+06        -0.10876E+08         0.00000E+00
    0.00000E+00         0.00000E+00        -0.24615E+07
 
   -0.14817E+07         0.49860E+06         0.00000E+00
    0.49860E+06        -0.10880E+08         0.00000E+00
    0.00000E+00         0.00000E+00        -0.24723E+07
 
   -0.15303E+07         0.56539E+06         0.00000E+00
    0.56539E+06        -0.10884E+08         0.00000E+00
    0.00000E+00         0.00000E+00        -0.24828E+07
 
   -0.15774E+07         0.63243E+06         0.00000E+00
    0.63243E+06        -0.10888E+08         0.00000E+00
    0.00000E+00         0.00000E+00        -0.24931E+07
 
   -0.16229E+07         0.69975E+06         0.00000E+00
    0.69975E+06        -0.10893E+08         0.00000E+00
    0.00000E+00         0.00000E+00        -0.25032E+07
 
   -0.16669E+07         0.76741E+06         0.00000E+00
    0.76741E+06        -0.10898E+08         0.00000E+00
    0.00000E+00         0.00000E+00        -0.25129E+07
 
   -0.17094E+07         0.83543E+06         0.00000E+00
    0.83543E+06        -0.10903E+08         0.00000E+00
    0.00000E+00         0.00000E+00        -0.25225E+07
 
   -0.17506E+07         0.90387E+06         0.00000E+00
    0.90387E+06        -0.10909E+08         0.00000E+00
    0.00000E+00         0.00000E+00        -0.25318E+07
 
   -0.17904E+07         0.97277E+06         0.00000E+00
    0.97277E+06        -0.10914E+08         0.00000E+00
    0.00000E+00         0.00000E+00        -0.25409E+07
 
   -0.18289E+07         0.10421E+07         0.00000E+00
    0.10421E+07        -0.10920E+08         0.00000E+00
    0.00000E+00         0.00000E+00        -0.25498E+07
 
   -0.18661E+07         0.11121E+07         0.00000E+00
    0.11121E+07        -0.10926E+08         0.00000E+00
    0.00000E+00         0.00000E+00        -0.25584E+07
 
   -0.19022E+07         0.11825E+07         0.00000E+00
    0.11825E+07        -0.10932E+08         0.00000E+00
    0.00000E+00         0.00000E+00        -0.25668E+07
 
   -0.19371E+07         0.12536E+07         0.00000E+00
    0.12536E+07        -0.10938E+08         0.00000E+00
    0.00000E+00         0.00000E+00        -0.25750E+07
 
   -0.19709E+07         0.13252E+07         0.00000E+00
    0.13252E+07        -0.10944E+08         0.00000E+00
    0.00000E+00         0.00000E+00        -0.25830E+07
 
   -0.20037E+07         0.13975E+07         0.00000E+00
    0.13975E+07        -0.10950E+08         0.00000E+00
    0.00000E+00         0.00000E+00        -0.25908E+07
 
   -0.20354E+07         0.14705E+07         0.00000E+00
    0.14705E+07        -0.10956E+08         0.00000E+00
    0.00000E+00         0.00000E+00        -0.25983E+07
 
   -0.20662E+07         0.15442E+07         0.00000E+00
    0.15442E+07        -0.10962E+08         0.00000E+00
    0.00000E+00         0.00000E+00        -0.26057E+07
 
   -0.20962E+07         0.16185E+07         0.00000E+00
    0.16185E+07        -0.10968E+08         0.00000E+00
    0.00000E+00         0.00000E+00        -0.26128E+07
 
   -0.21253E+07         0.16937E+07         0.00000E+00
    0.16937E+07        -0.10973E+08         0.00000E+00
    0.00000E+00         0.00000E+00        -0.26197E+07
 
   -0.21536E+07         0.17695E+07         0.00000E+00
    0.17695E+07        -0.10979E+08         0.00000E+00
    0.00000E+00         0.00000E+00        -0.26265E+07
 
   -0.21812E+07         0.18462E+07         0.00000E+00
    0.18462E+07        -0.10984E+08         0.00000E+00
    0.00000E+00         0.00000E+00        -0.26330E+07
 
   -0.22081E+07         0.19236E+07         0.00000E+00
    0.19236E+07        -0.10989E+08         0.00000E+00
    0.00000E+00         0.00000E+00        -0.26394E+07
 
   -0.22343E+07         0.20019E+07         0.00000E+00
    0.20019E+07        -0.10993E+08         0.00000E+00
    0.00000E+00         0.00000E+00        -0.26455E+07
 
   -0.22600E+07         0.20809E+07         0.00000E+00
    0.20809E+07        -0.10997E+08         0.00000E+00
    0.00000E+00         0.00000E+00        -0.26515E+07
 
   -0.22852E+07         0.21609E+07         0.00000E+00
    0.21609E+07        -0.11001E+08         0.00000E+00
    0.00000E+00         0.00000E+00        -0.26573E+07
 
   -0.23098E+07         0.22416E+07         0.00000E+00
    0.22416E+07        -0.11005E+08         0.00000E+00
    0.00000E+00         0.00000E+00        -0.26629E+07
 
   -0.23341E+07         0.23232E+07         0.00000E+00
    0.23232E+07        -0.11008E+08         0.00000E+00
    0.00000E+00         0.00000E+00        -0.26683E+07
 
   -0.23580E+07         0.24057E+07         0.00000E+00
    0.24057E+07        -0.11010E+08         0.00000E+00
    0.00000E+00         0.00000E+00        -0.26736E+07
 
   -0.23815E+07         0.24890E+07         0.00000E+00
    0.24890E+07        -0.11012E+08         0.00000E+00
    0.00000E+00         0.00000E+00        -0.26787E+07
 
   -0.24047E+07         0.25733E+07         0.00000E+00
    0.25733E+07        -0.11013E+08         0.00000E+00
    0.00000E+00         0.00000E+00        -0.26836E+07
 
   -0.24277E+07         0.26584E+07         0.00000E+00
    0.26584E+07        -0.11014E+08         0.00000E+00
    0.00000E+00         0.00000E+00        -0.26884E+07
 
   -0.24506E+07         0.27444E+07         0.00000E+00
    0.27444E+07        -0.11014E+08         0.00000E+00
    0.00000E+00         0.00000E+00        -0.26930E+07
 
   -0.24732E+07         0.28313E+07         0.00000E+00
    0.28313E+07        -0.11014E+08         0.00000E+00
    0.00000E+00         0.00000E+00        -0.26974E+07
 
   -0.24958E+07         0.29191E+07         0.00000E+00
    0.29191E+07        -0.11013E+08         0.00000E+00
    0.00000E+00         0.00000E+00        -0.27017E+07
 
   -0.25183E+07         0.30078E+07         0.00000E+00
    0.30078E+07        -0.11011E+08         0.00000E+00
    0.00000E+00         0.00000E+00        -0.27058E+07
 
   -0.25408E+07         0.30974E+07         0.00000E+00
    0.30974E+07        -0.11008E+08         0.00000E+00
    0.00000E+00         0.00000E+00        -0.27098E+07
 
   -0.25634E+07         0.31880E+07         0.00000E+00
    0.31880E+07        -0.11005E+08         0.00000E+00
    0.00000E+00         0.00000E+00        -0.27136E+07
 
   -0.25860E+07         0.32794E+07         0.00000E+00
    0.32794E+07        -0.11000E+08         0.00000E+00
    0.00000E+00         0.00000E+00        -0.27173E+07
 
   -0.26087E+07         0.33718E+07         0.00000E+00
    0.33718E+07        -0.10995E+08         0.00000E+00
    0.00000E+00         0.00000E+00        -0.27208E+07
 
   -0.26317E+07         0.34650E+07         0.00000E+00
    0.34650E+07        -0.10989E+08         0.00000E+00
    0.00000E+00         0.00000E+00        -0.27242E+07
 
   -0.26548E+07         0.35592E+07         0.00000E+00
    0.35592E+07        -0.10982E+08         0.00000E+00
    0.00000E+00         0.00000E+00        -0.27274E+07
 
   -0.26781E+07         0.36543E+07         0.00000E+00
    0.36543E+07        -0.10975E+08         0.00000E+00
    0.00000E+00         0.00000E+00        -0.27305E+07
 
   -0.27017E+07         0.37503E+07         0.00000E+00
    0.37503E+07        -0.10966E+08         0.00000E+00
    0.00000E+00         0.00000E+00        -0.27335E+07
 
   -0.27257E+07         0.38472E+07         0.00000E+00
    0.38472E+07        -0.10956E+08         0.00000E+00
    0.00000E+00         0.00000E+00        -0.27364E+07
 
   -0.14597E+07         0.32111E+05         0.00000E+00
    0.32111E+05        -0.11558E+08         0.00000E+00
    0.00000E+00         0.00000E+00        -0.26036E+07
 
   -0.15213E+07         0.96067E+05         0.00000E+00
    0.96067E+05        -0.11559E+08         0.00000E+00
    0.00000E+00         0.00000E+00        -0.26160E+07
 
   -0.15807E+07         0.16000E+06         0.00000E+00
    0.16000E+06        -0.11560E+08         0.00000E+00
    0.00000E+00         0.00000E+00        -0.26282E+07
 
   -0.16379E+07         0.22397E+06         0.00000E+00
    0.22397E+06        -0.11563E+08         0.00000E+00
    0.00000E+00         0.00000E+00        -0.26401E+07
 
   -0.16931E+07         0.28805E+06         0.00000E+00
    0.28805E+06        -0.11565E+08         0.00000E+00
    0.00000E+00         0.00000E+00        -0.26517E+07
 
   -0.17462E+07         0.35229E+06         0.00000E+00
    0.35229E+06        -0.11569E+08         0.00000E+00
    0.00000E+00         0.00000E+00        -0.26630E+07
 
   -0.17973E+07         0.41676E+06         0.00000E+00
    0.41676E+06        -0.11573E+08         0.00000E+00
    0.00000E+00         0.00000E+00        -0.26741E+07
 
   -0.18465E+07         0.48150E+06         0.00000E+00
    0.48150E+06        -0.11578E+08         0.00000E+00
    0.00000E+00         0.00000E+00        -0.26848E+07
 
   -0.18938E+07         0.54658E+06         0.00000E+00
    0.54658E+06        -0.11583E+08         0.00000E+00
    0.00000E+00         0.00000E+00        -0.26953E+07
 
   -0.19392E+07         0.61205E+06         0.00000E+00
    0.61205E+06        -0.11588E+08         0.00000E+00
    0.00000E+00         0.00000E+00        -0.27055E+07
 
   -0.19829E+07         0.67795E+06         0.00000E+00
    0.67795E+06        -0.11594E+08         0.00000E+00
    0.00000E+00         0.00000E+00        -0.27155E+07
 
   -0.20249E+07         0.74434E+06         0.00000E+00
    0.74434E+06        -0.11601E+08         0.00000E+00
    0.00000E+00         0.00000E+00        -0.27251E+07
 
   -0.20652E+07         0.81125E+06         0.00000E+00
    0.81125E+06        -0.11608E+08         0.00000E+00
    0.00000E+00         0.00000E+00        -0.27346E+07
 
   -0.21039E+07         0.87873E+06         0.00000E+00
    0.87873E+06        -0.11615E+08         0.00000E+00
    0.00000E+00         0.00000E+00        -0.27437E+07
 
   -0.21411E+07         0.94682E+06         0.00000E+00
    0.94682E+06        -0.11622E+08         0.00000E+00
    0.00000E+00         0.00000E+00        -0.27526E+07
 
   -0.21768E+07         0.10156E+07         0.00000E+00
    0.10156E+07        -0.11630E+08         0.00000E+00
    0.00000E+00         0.00000E+00        -0.27613E+07
 
   -0.22111E+07         0.10850E+07         0.00000E+00
    0.10850E+07        -0.11638E+08         0.00000E+00
    0.00000E+00         0.00000E+00        -0.27697E+07
 
   -0.22440E+07         0.11551E+07         0.00000E+00
    0.11551E+07        -0.11645E+08         0.00000E+00
    0.00000E+00         0.00000E+00        -0.27779E+07
 
   -0.22756E+07         0.12260E+07         0.00000E+00
    0.12260E+07        -0.11654E+08         0.00000E+00
    0.00000E+00         0.00000E+00        -0.27858E+07
 
   -0.23060E+07         0.12977E+07         0.00000E+00
    0.12977E+07        -0.11662E+08         0.00000E+00
    0.00000E+00         0.00000E+00        -0.27935E+07
 
   -0.23352E+07         0.13702E+07         0.00000E+00
    0.13702E+07        -0.11670E+08         0.00000E+00
    0.00000E+00         0.00000E+00        -0.28010E+07
 
   -0.23632E+07         0.14435E+07         0.00000E+00
    0.14435E+07        -0.11678E+08         0.00000E+00
    0.00000E+00         0.00000E+00        -0.28082E+07
 
   -0.23902E+07         0.15177E+07         0.00000E+00
    0.15177E+07        -0.11686E+08         0.00000E+00
    0.00000E+00         0.00000E+00        -0.28152E+07
 
   -0.24163E+07         0.15927E+07         0.00000E+00
    0.15927E+07        -0.11694E+08         0.00000E+00
    0.00000E+00         0.00000E+00        -0.28220E+07
 
   -0.24413E+07         0.16687E+07         0.00000E+00
    0.16687E+07        -0.11702E+08         0.00000E+00
    0.00000E+00         0.00000E+00        -0.28286E+07
 
   -0.24655E+07         0.17456E+07         0.00000E+00
    0.17456E+07        -0.11710E+08         0.00000E+00
    0.00000E+00         0.00000E+00        -0.28350E+07
 
   -0.24889E+07         0.18234E+07         0.00000E+00
    0.18234E+07        -0.11717E+08         0.00000E+00
    0.00000E+00         0.00000E+00        -0.28412E+07
 
   -0.25115E+07         0.19022E+07         0.00000E+00
    0.19022E+07        -0.11724E+08         0.00000E+00
    0.00000E+00         0.00000E+00        -0.28471E+07
 
   -0.25334E+07         0.19819E+07         0.00000E+00
    0.19819E+07        -0.11731E+08         0.00000E+00
    0.00000E+00         0.00000E+00        -0.28529E+07
 
   -0.25547E+07         0.20626E+07         0.00000E+00
    0.20626E+07        -0.11738E+08         0.00000E+00
    0.00000E+00         0.00000E+00        -0.28585E+07
 
   -0.25754E+07         0.21444E+07         0.00000E+00
    0.21444E+07        -0.11744E+08         0.00000E+00
    0.00000E+00         0.00000E+00        -0.28638E+07
 
   -0.25955E+07         0.22271E+07         0.00000E+00
    0.22271E+07        -0.11750E+08         0.00000E+00
    0.00000E+00         0.00000E+00        -0.28690E+07
 
   -0.26151E+07         0.23108E+07         0.00000E+00
    0.23108E+07        -0.11755E+08         0.00000E+00
    0.00000E+00         0.00000E+00        -0.28740E+07
 
   -0.26344E+07         0.23956E+07         0.00000E+00
    0.23956E+07        -0.11760E+08         0.00000E+00
    0.00000E+00         0.00000E+00        -0.28788E+07
 
   -0.26532E+07         0.24814E+07         0.00000E+00
    0.24814E+07        -0.11764E+08         0.00000E+00
    0.00000E+00         0.00000E+00        -0.28835E+07
 
   -0.26718E+07         0.25682E+07         0.00000E+00
    0.25682E+07        -0.11768E+08         0.00000E+00
    0.00000E+00         0.00000E+00        -0.28879E+07
 
   -0.26900E+07         0.26561E+07         0.00000E+00
    0.26561E+07        -0.11771E+08         0.00000E+00
    0.00000E+00         0.00000E+00        -0.28922E+07
 
   -0.27081E+07         0.27450E+07         0.00000E+00
    0.27450E+07        -0.11774E+08         0.00000E+00
    0.00000E+00         0.00000E+00        -0.28964E+07
 
   -0.27260E+07         0.28349E+07         0.00000E+00
    0.28349E+07        -0.11776E+08         0.00000E+00
    0.00000E+00         0.00000E+00        -0.29003E+07
 
   -0.27437E+07         0.29259E+07         0.00000E+00
    0.29259E+07        -0.11777E+08         0.00000E+00
    0.00000E+00         0.00000E+00        -0.29041E+07
 
   -0.27614E+07         0.30180E+07         0.00000E+00
    0.30180E+07        -0.11777E+08         0.00000E+00
    0.00000E+00         0.00000E+00        -0.29077E+07
 
   -0.27791E+07         0.31111E+07         0.00000E+00
    0.31111E+07        -0.11777E+08         0.00000E+00
    0.00000E+00         0.00000E+00        -0.29112E+07
 
   -0.27968E+07         0.32052E+07         0.00000E+00
    0.32052E+07        -0.11776E+08         0.00000E+00
    0.00000E+00         0.00000E+00        -0.29145E+07
 
   -0.28146E+07         0.33004E+07         0.00000E+00
    0.33004E+07        -0.11774E+08         0.00000E+00
    0.00000E+00         0.00000E+00        -0.29177E+07
 
   -0.28325E+07         0.33967E+07         0.00000E+00
    0.33967E+07        -0.11771E+08         0.00000E+00
    0.00000E+00         0.00000E+00        -0.29207E+07
 
   -0.28505E+07         0.34939E+07         0.00000E+00
    0.34939E+07        -0.11767E+08         0.00000E+00
    0.00000E+00         0.00000E+00        -0.29236E+07
 
   -0.28688E+07         0.35923E+07         0.00000E+00
    0.35923E+07        -0.11763E+08         0.00000E+00
    0.00000E+00         0.00000E+00        -0.29263E+07
 
   -0.28873E+07         0.36916E+07         0.00000E+00
    0.36916E+07        -0.11757E+08         0.00000E+00
    0.00000E+00         0.00000E+00        -0.29289E+07
 
   -0.29061E+07         0.37921E+07         0.00000E+00
    0.37921E+07        -0.11751E+08         0.00000E+00
    0.00000E+00         0.00000E+00        -0.29314E+07
 
   -0.29252E+07         0.38935E+07         0.00000E+00
    0.38935E+07        -0.11743E+08         0.00000E+00
    0.00000E+00         0.00000E+00        -0.29337E+07
 
   -0.18772E+07         0.30274E+05         0.00000E+00
    0.30274E+05        -0.12287E+08         0.00000E+00
    0.00000E+00         0.00000E+00        -0.28329E+07
 
   -0.19387E+07         0.90858E+05         0.00000E+00
    0.90858E+05        -0.12288E+08         0.00000E+00
    0.00000E+00         0.00000E+00        -0.28454E+07
 
   -0.19977E+07         0.15156E+06         0.00000E+00
    0.15156E+06        -0.12290E+08         0.00000E+00
    0.00000E+00         0.00000E+00        -0.28576E+07
 
   -0.20543E+07         0.21244E+06         0.00000E+00
    0.21244E+06        -0.12293E+08         0.00000E+00
    0.00000E+00         0.00000E+00        -0.28694E+07
 
   -0.21085E+07         0.27358E+06         0.00000E+00
    0.27358E+06        -0.12296E+08         0.00000E+00
    0.00000E+00         0.00000E+00        -0.28810E+07
 
   -0.21603E+07         0.33504E+06         0.00000E+00
    0.33504E+06        -0.12301E+08         0.00000E+00
    0.00000E+00         0.00000E+00        -0.28922E+07
 
   -0.22098E+07         0.39688E+06         0.00000E+00
    0.39688E+06        -0.12306E+08         0.00000E+00
    0.00000E+00         0.00000E+00        -0.29031E+07
 
   -0.22571E+07         0.45917E+06         0.00000E+00
    0.45917E+06        -0.12311E+08         0.00000E+00
    0.00000E+00         0.00000E+00        -0.29137E+07
 
   -0.23022E+07         0.52196E+06         0.00000E+00
    0.52196E+06        -0.12318E+08         0.00000E+00
    0.00000E+00         0.00000E+00        -0.29240E+07
 
   -0.23453E+07         0.58532E+06         0.00000E+00
    0.58532E+06        -0.12325E+08         0.00000E+00
    0.00000E+00         0.00000E+00        -0.29340E+07
 
   -0.23863E+07         0.64928E+06         0.00000E+00
    0.64928E+06        -0.12332E+08         0.00000E+00
    0.00000E+00         0.00000E+00        -0.29437E+07
 
   -0.24254E+07         0.71391E+06         0.00000E+00
    0.71391E+06        -0.12340E+08         0.00000E+00
    0.00000E+00         0.00000E+00        -0.29532E+07
 
   -0.24626E+07         0.77924E+06         0.00000E+00
    0.77924E+06        -0.12349E+08         0.00000E+00
    0.00000E+00         0.00000E+00        -0.29623E+07
 
   -0.24981E+07         0.84532E+06         0.00000E+00
    0.84532E+06        -0.12358E+08         0.00000E+00
    0.00000E+00         0.00000E+00        -0.29712E+07
 
   -0.25317E+07         0.91221E+06         0.00000E+00
    0.91221E+06        -0.12367E+08         0.00000E+00
    0.00000E+00         0.00000E+00        -0.29797E+07
 
   -0.25637E+07         0.97992E+06         0.00000E+00
    0.97992E+06        -0.12377E+08         0.00000E+00
    0.00000E+00         0.00000E+00        -0.29881E+07
 
   -0.25942E+07         0.10485E+07         0.00000E+00
    0.10485E+07        -0.12386E+08         0.00000E+00
    0.00000E+00         0.00000E+00        -0.29961E+07
 
   -0.26230E+07         0.11180E+07         0.00000E+00
    0.11180E+07        -0.12397E+08         0.00000E+00
    0.00000E+00         0.00000E+00        -0.30039E+07
 
   -0.26505E+07         0.11884E+07         0.00000E+00
    0.11884E+07        -0.12407E+08         0.00000E+00
    0.00000E+00         0.00000E+00        -0.30114E+07
 
   -0.26765E+07         0.12598E+07         0.00000E+00
    0.12598E+07        -0.12417E+08         0.00000E+00
    0.00000E+00         0.00000E+00        -0.30187E+07
 
   -0.27012E+07         0.13322E+07         0.00000E+00
    0.13322E+07        -0.12428E+08         0.00000E+00
    0.00000E+00         0.00000E+00        -0.30258E+07
 
   -0.27247E+07         0.14057E+07         0.00000E+00
    0.14057E+07        -0.12438E+08         0.00000E+00
    0.00000E+00         0.00000E+00        -0.30326E+07
 
   -0.27470E+07         0.14801E+07         0.00000E+00
    0.14801E+07        -0.12449E+08         0.00000E+00
    0.00000E+00         0.00000E+00        -0.30391E+07
 
   -0.27682E+07         0.15557E+07         0.00000E+00
    0.15557E+07        -0.12459E+08         0.00000E+00
    0.00000E+00         0.00000E+00        -0.30455E+07
 
   -0.27884E+07         0.16323E+07         0.00000E+00
    0.16323E+07        -0.12469E+08         0.00000E+00
    0.00000E+00         0.00000E+00        -0.30516E+07
 
   -0.28076E+07         0.17100E+07         0.00000E+00
    0.17100E+07        -0.12480E+08         0.00000E+00
    0.00000E+00         0.00000E+00        -0.30574E+07
 
   -0.28259E+07         0.17889E+07         0.00000E+00
    0.17889E+07        -0.12490E+08         0.00000E+00
    0.00000E+00         0.00000E+00        -0.30631E+07
 
   -0.28433E+07         0.18689E+07         0.00000E+00
    0.18689E+07        -0.12499E+08         0.00000E+00
    0.00000E+00         0.00000E+00        -0.30686E+07
 
   -0.28600E+07         0.19500E+07         0.00000E+00
    0.19500E+07        -0.12509E+08         0.00000E+00
    0.00000E+00         0.00000E+00        -0.30738E+07
 
   -0.28760E+07         0.20323E+07         0.00000E+00
    0.20323E+07        -0.12518E+08         0.00000E+00
    0.00000E+00         0.00000E+00        -0.30788E+07
 
   -0.28913E+07         0.21158E+07         0.00000E+00
    0.21158E+07        -0.12527E+08         0.00000E+00
    0.00000E+00         0.00000E+00        -0.30837E+07
 
   -0.29061E+07         0.22004E+07         0.00000E+00
    0.22004E+07        -0.12535E+08         0.00000E+00
    0.00000E+00         0.00000E+00        -0.30883E+07
 
   -0.29203E+07         0.22862E+07         0.00000E+00
    0.22862E+07        -0.12543E+08         0.00000E+00
    0.00000E+00         0.00000E+00        -0.30927E+07
 
   -0.29341E+07         0.23733E+07         0.00000E+00
    0.23733E+07        -0.12551E+08         0.00000E+00
    0.00000E+00         0.00000E+00        -0.30970E+07
 
   -0.29474E+07         0.24615E+07         0.00000E+00
    0.24615E+07        -0.12558E+08         0.00000E+00
    0.00000E+00         0.00000E+00        -0.31011E+07
 
   -0.29605E+07         0.25509E+07         0.00000E+00
    0.25509E+07        -0.12564E+08         0.00000E+00
    0.00000E+00         0.00000E+00        -0.31050E+07
 
   -0.29732E+07         0.26415E+07         0.00000E+00
    0.26415E+07        -0.12570E+08         0.00000E+00
    0.00000E+00         0.00000E+00        -0.31087E+07
 
   -0.29857E+07         0.27333E+07         0.00000E+00
    0.27333E+07        -0.12575E+08         0.00000E+00
    0.00000E+00         0.00000E+00        -0.31122E+07
 
   -0.29980E+07         0.28264E+07         0.00000E+00
    0.28264E+07        -0.12580E+08         0.00000E+00
    0.00000E+00         0.00000E+00        -0.31156E+07
 
   -0.30103E+07         0.29206E+07         0.00000E+00
    0.29206E+07        -0.12584E+08         0.00000E+00
    0.00000E+00         0.00000E+00        -0.31188E+07
 
   -0.30224E+07         0.30160E+07         0.00000E+00
    0.30160E+07        -0.12587E+08         0.00000E+00
    0.00000E+00         0.00000E+00        -0.31219E+07
 
   -0.30345E+07         0.31126E+07         0.00000E+00
    0.31126E+07        -0.12589E+08         0.00000E+00
    0.00000E+00         0.00000E+00        -0.31247E+07
 
   -0.30467E+07         0.32104E+07         0.00000E+00
    0.32104E+07        -0.12591E+08         0.00000E+00
    0.00000E+00         0.00000E+00        -0.31275E+07
 
   -0.30589E+07         0.33094E+07         0.00000E+00
    0.33094E+07        -0.12591E+08         0.00000E+00
    0.00000E+00         0.00000E+00        -0.31300E+07
 
   -0.30712E+07         0.34096E+07         0.00000E+00
    0.34096E+07        -0.12591E+08         0.00000E+00
    0.00000E+00         0.00000E+00        -0.31325E+07
 
   -0.30837E+07         0.35110E+07         0.00000E+00
    0.35110E+07        -0.12590E+08         0.00000E+00
    0.00000E+00         0.00000E+00        -0.31347E+07
 
   -0.30965E+07         0.36136E+07         0.00000E+00
    0.36136E+07        -0.12588E+08         0.00000E+00
    0.00000E+00         0.00000E+00        -0.31369E+07
 
   -0.31094E+07         0.37173E+07         0.00000E+00
    0.37173E+07        -0.12585E+08         0.00000E+00
    0.00000E+00         0.00000E+00        -0.31388E+07
 
   -0.31227E+07         0.38222E+07         0.00000E+00
    0.38222E+07        -0.12581E+08         0.00000E+00
    0.00000E+00         0.00000E+00        -0.31407E+07
 
   -0.31363E+07         0.39283E+07         0.00000E+00
    0.39283E+07        -0.12576E+08         0.00000E+00
    0.00000E+00         0.00000E+00        -0.31424E+07
 
   -0.23501E+07         0.27959E+05         0.00000E+00
    0.27959E+05        -0.13052E+08         0.00000E+00
    0.00000E+00         0.00000E+00        -0.30805E+07
 
   -0.24109E+07         0.84295E+05         0.00000E+00
    0.84295E+05        -0.13054E+08         0.00000E+00
    0.00000E+00         0.00000E+00        -0.30929E+07
 
   -0.24687E+07         0.14092E+06         0.00000E+00
    0.14092E+06        -0.13056E+08         0.00000E+00
    0.00000E+00         0.00000E+00        -0.31049E+07
 
   -0.25238E+07         0.19791E+06         0.00000E+00
    0.19791E+06        -0.13059E+08         0.00000E+00
    0.00000E+00         0.00000E+00        -0.31166E+07
 
   -0.25761E+07         0.25533E+06         0.00000E+00
    0.25533E+06        -0.13063E+08         0.00000E+00
    0.00000E+00         0.00000E+00        -0.31279E+07
 
   -0.26257E+07         0.31327E+06         0.00000E+00
    0.31327E+06        -0.13069E+08         0.00000E+00
    0.00000E+00         0.00000E+00        -0.31389E+07
 
   -0.26727E+07         0.37179E+06         0.00000E+00
    0.37179E+06        -0.13075E+08         0.00000E+00
    0.00000E+00         0.00000E+00        -0.31495E+07
 
   -0.27172E+07         0.43095E+06         0.00000E+00
    0.43095E+06        -0.13082E+08         0.00000E+00
    0.00000E+00         0.00000E+00        -0.31598E+07
 
   -0.27592E+07         0.49082E+06         0.00000E+00
    0.49082E+06        -0.13090E+08         0.00000E+00
    0.00000E+00         0.00000E+00        -0.31698E+07
 
   -0.27989E+07         0.55146E+06         0.00000E+00
    0.55146E+06        -0.13098E+08         0.00000E+00
    0.00000E+00         0.00000E+00        -0.31794E+07
 
   -0.28364E+07         0.61291E+06         0.00000E+00
    0.61291E+06        -0.13107E+08         0.00000E+00
    0.00000E+00         0.00000E+00        -0.31887E+07
 
   -0.28716E+07         0.67524E+06         0.00000E+00
    0.67524E+06        -0.13117E+08         0.00000E+00
    0.00000E+00         0.00000E+00        -0.31977E+07
 
   -0.29047E+07         0.73848E+06         0.00000E+00
    0.73848E+06        -0.13127E+08         0.00000E+00
    0.00000E+00         0.00000E+00        -0.32064E+07
 
   -0.29358E+07         0.80270E+06         0.00000E+00
    0.80270E+06        -0.13138E+08         0.00000E+00
    0.00000E+00         0.00000E+00        -0.32148E+07
 
   -0.29650E+07         0.86792E+06         0.00000E+00
    0.86792E+06        -0.13150E+08         0.00000E+00
    0.00000E+00         0.00000E+00        -0.32229E+07
 
   -0.29923E+07         0.93419E+06         0.00000E+00
    0.93419E+06        -0.13161E+08         0.00000E+00
    0.00000E+00         0.00000E+00        -0.32307E+07
 
   -0.30178E+07         0.10016E+07         0.00000E+00
    0.10016E+07        -0.13173E+08         0.00000E+00
    0.00000E+00         0.00000E+00        -0.32382E+07
 
   -0.30416E+07         0.10700E+07         0.00000E+00
    0.10700E+07        -0.13186E+08         0.00000E+00
    0.00000E+00         0.00000E+00        -0.32455E+07
 
   -0.30638E+07         0.11397E+07         0.00000E+00
    0.11397E+07        -0.13199E+08         0.00000E+00
    0.00000E+00         0.00000E+00        -0.32525E+07
 
   -0.30845E+07         0.12105E+07         0.00000E+00
    0.12105E+07        -0.13211E+08         0.00000E+00
    0.00000E+00         0.00000E+00        -0.32592E+07
 
   -0.31038E+07         0.12825E+07         0.00000E+00
    0.12825E+07        -0.13224E+08         0.00000E+00
    0.00000E+00         0.00000E+00        -0.32656E+07
 
   -0.31216E+07         0.13558E+07         0.00000E+00
    0.13558E+07        -0.13237E+08         0.00000E+00
    0.00000E+00         0.00000E+00        -0.32718E+07
 
   -0.31382E+07         0.14303E+07         0.00000E+00
    0.14303E+07        -0.13251E+08         0.00000E+00
    0.00000E+00         0.00000E+00        -0.32778E+07
 
   -0.31536E+07         0.15061E+07         0.00000E+00
    0.15061E+07        -0.13264E+08         0.00000E+00
    0.00000E+00         0.00000E+00        -0.32835E+07
 
   -0.31678E+07         0.15832E+07         0.00000E+00
    0.15832E+07        -0.13277E+08         0.00000E+00
    0.00000E+00         0.00000E+00        -0.32889E+07
 
   -0.31810E+07         0.16616E+07         0.00000E+00
    0.16616E+07        -0.13290E+08         0.00000E+00
    0.00000E+00         0.00000E+00        -0.32942E+07
 
   -0.31933E+07         0.17414E+07         0.00000E+00
    0.17414E+07        -0.13303E+08         0.00000E+00
    0.00000E+00         0.00000E+00        -0.32992E+07
 
   -0.32046E+07         0.18224E+07         0.00000E+00
    0.18224E+07        -0.13315E+08         0.00000E+00
    0.00000E+00         0.00000E+00        -0.33039E+07
 
   -0.32151E+07         0.19049E+07         0.00000E+00
    0.19049E+07        -0.13327E+08         0.00000E+00
    0.00000E+00         0.00000E+00        -0.33085E+07
 
   -0.32248E+07         0.19886E+07         0.00000E+00
    0.19886E+07        -0.13340E+08         0.00000E+00
    0.00000E+00         0.00000E+00        -0.33129E+07
 
   -0.32339E+07         0.20738E+07         0.00000E+00
    0.20738E+07        -0.13351E+08         0.00000E+00
    0.00000E+00         0.00000E+00        -0.33170E+07
 
   -0.32423E+07         0.21603E+07         0.00000E+00
    0.21603E+07        -0.13363E+08         0.00000E+00
    0.00000E+00         0.00000E+00        -0.33210E+07
 
   -0.32502E+07         0.22482E+07         0.00000E+00
    0.22482E+07        -0.13373E+08         0.00000E+00
    0.00000E+00         0.00000E+00        -0.33247E+07
 
   -0.32576E+07         0.23374E+07         0.00000E+00
    0.23374E+07        -0.13384E+08         0.00000E+00
    0.00000E+00         0.00000E+00        -0.33283E+07
 
   -0.32647E+07         0.24280E+07         0.00000E+00
    0.24280E+07        -0.13394E+08         0.00000E+00
    0.00000E+00         0.00000E+00        -0.33317E+07
 
   -0.32713E+07         0.25200E+07         0.00000E+00
    0.25200E+07        -0.13403E+08         0.00000E+00
    0.00000E+00         0.00000E+00        -0.33349E+07
 
   -0.32777E+07         0.26134E+07         0.00000E+00
    0.26134E+07        -0.13412E+08         0.00000E+00
    0.00000E+00         0.00000E+00        -0.33379E+07
 
   -0.32838E+07         0.27082E+07         0.00000E+00
    0.27082E+07        -0.13420E+08         0.00000E+00
    0.00000E+00         0.00000E+00        -0.33407E+07
 
   -0.32898E+07         0.28043E+07         0.00000E+00
    0.28043E+07        -0.13427E+08         0.00000E+00
    0.00000E+00         0.00000E+00        -0.33434E+07
 
   -0.32956E+07         0.29018E+07         0.00000E+00
    0.29018E+07        -0.13434E+08         0.00000E+00
    0.00000E+00         0.00000E+00        -0.33459E+07
 
   -0.33014E+07         0.30006E+07         0.00000E+00
    0.30006E+07        -0.13440E+08         0.00000E+00
    0.00000E+00         0.00000E+00        -0.33483E+07
 
   -0.33072E+07         0.31008E+07         0.00000E+00
    0.31008E+07        -0.13445E+08         0.00000E+00
    0.00000E+00         0.00000E+00        -0.33505E+07
 
   -0.33131E+07         0.32023E+07         0.00000E+00
    0.32023E+07        -0.13449E+08         0.00000E+00
    0.00000E+00         0.00000E+00        -0.33525E+07
 
   -0.33190E+07         0.33052E+07         0.00000E+00
    0.33052E+07        -0.13453E+08         0.00000E+00
    0.00000E+00         0.00000E+00        -0.33544E+07
 
   -0.33251E+07         0.34094E+07         0.00000E+00
    0.34094E+07        -0.13455E+08         0.00000E+00
    0.00000E+00         0.00000E+00        -0.33561E+07
 
   -0.33314E+07         0.35149E+07         0.00000E+00
    0.35149E+07        -0.13457E+08         0.00000E+00
    0.00000E+00         0.00000E+00        -0.33577E+07
 
   -0.33379E+07         0.36218E+07         0.00000E+00
    0.36218E+07        -0.13458E+08         0.00000E+00
    0.00000E+00         0.00000E+00        -0.33591E+07
 
   -0.33447E+07         0.37299E+07         0.00000E+00
    0.37299E+07        -0.13457E+08         0.00000E+00
    0.00000E+00         0.00000E+00        -0.33604E+07
 
   -0.33518E+07         0.38394E+07         0.00000E+00
    0.38394E+07        -0.13456E+08         0.00000E+00
    0.00000E+00         0.00000E+00        -0.33616E+07
 
   -0.33592E+07         0.39502E+07         0.00000E+00
    0.39502E+07        -0.13454E+08         0.00000E+00
    0.00000E+00         0.00000E+00        -0.33626E+07
 
   -0.28836E+07         0.25102E+05         0.00000E+00
    0.25102E+05        -0.13854E+08         0.00000E+00
    0.00000E+00         0.00000E+00        -0.33475E+07
 
   -0.29427E+07         0.76207E+05         0.00000E+00
    0.76207E+05        -0.13855E+08         0.00000E+00
    0.00000E+00         0.00000E+00        -0.33596E+07
 
   -0.29984E+07         0.12781E+06         0.00000E+00
    0.12781E+06        -0.13858E+08         0.00000E+00
    0.00000E+00         0.00000E+00        -0.33713E+07
 
   -0.30509E+07         0.18001E+06         0.00000E+00
    0.18001E+06        -0.13862E+08         0.00000E+00
    0.00000E+00         0.00000E+00        -0.33826E+07
 
   -0.31003E+07         0.23286E+06         0.00000E+00
    0.23286E+06        -0.13867E+08         0.00000E+00
    0.00000E+00         0.00000E+00        -0.33935E+07
 
   -0.31467E+07         0.28646E+06         0.00000E+00
    0.28646E+06        -0.13874E+08         0.00000E+00
    0.00000E+00         0.00000E+00        -0.34040E+07
 
   -0.31901E+07         0.34088E+06         0.00000E+00
    0.34088E+06        -0.13881E+08         0.00000E+00
    0.00000E+00         0.00000E+00        -0.34142E+07
 
   -0.32307E+07         0.39618E+06         0.00000E+00
    0.39618E+06        -0.13889E+08         0.00000E+00
    0.00000E+00         0.00000E+00        -0.34240E+07
 
   -0.32685E+07         0.45242E+06         0.00000E+00
    0.45242E+06        -0.13898E+08         0.00000E+00
    0.00000E+00         0.00000E+00        -0.34334E+07
 
   -0.33037E+07         0.50968E+06         0.00000E+00
    0.50968E+06        -0.13909E+08         0.00000E+00
    0.00000E+00         0.00000E+00        -0.34425E+07
 
   -0.33363E+07         0.56800E+06         0.00000E+00
    0.56800E+06        -0.13920E+08         0.00000E+00
    0.00000E+00         0.00000E+00        -0.34512E+07
 
   -0.33665E+07         0.62744E+06         0.00000E+00
    0.62744E+06        -0.13931E+08         0.00000E+00
    0.00000E+00         0.00000E+00        -0.34596E+07
 
   -0.33944E+07         0.68805E+06         0.00000E+00
    0.68805E+06        -0.13944E+08         0.00000E+00
    0.00000E+00         0.00000E+00        -0.34676E+07
 
   -0.34200E+07         0.74987E+06         0.00000E+00
    0.74987E+06        -0.13957E+08         0.00000E+00
    0.00000E+00         0.00000E+00        -0.34753E+07
 
   -0.34434E+07         0.81296E+06         0.00000E+00
    0.81296E+06        -0.13970E+08         0.00000E+00
    0.00000E+00         0.00000E+00        -0.34827E+07
 
   -0.34648E+07         0.87734E+06         0.00000E+00
    0.87734E+06        -0.13984E+08         0.00000E+00
    0.00000E+00         0.00000E+00        -0.34898E+07
 
   -0.34843E+07         0.94305E+06         0.00000E+00
    0.94305E+06        -0.13999E+08         0.00000E+00
    0.00000E+00         0.00000E+00        -0.34966E+07
 
   -0.35019E+07         0.10101E+07         0.00000E+00
    0.10101E+07        -0.14014E+08         0.00000E+00
    0.00000E+00         0.00000E+00        -0.35031E+07
 
   -0.35177E+07         0.10786E+07         0.00000E+00
    0.10786E+07        -0.14029E+08         0.00000E+00
    0.00000E+00         0.00000E+00        -0.35093E+07
 
   -0.35318E+07         0.11485E+07         0.00000E+00
    0.11485E+07        -0.14045E+08         0.00000E+00
    0.00000E+00         0.00000E+00        -0.35153E+07
 
   -0.35444E+07         0.12199E+07         0.00000E+00
    0.12199E+07        -0.14060E+08         0.00000E+00
    0.00000E+00         0.00000E+00        -0.35209E+07
 
   -0.35555E+07         0.12927E+07         0.00000E+00
    0.12927E+07        -0.14076E+08         0.00000E+00
    0.00000E+00         0.00000E+00        -0.35263E+07
 
   -0.35653E+07         0.13671E+07         0.00000E+00
    0.13671E+07        -0.14092E+08         0.00000E+00
    0.00000E+00         0.00000E+00        -0.35315E+07
 
   -0.35737E+07         0.14429E+07         0.00000E+00
    0.14429E+07        -0.14108E+08         0.00000E+00
    0.00000E+00         0.00000E+00        -0.35364E+07
 
   -0.35809E+07         0.15203E+07         0.00000E+00
    0.15203E+07        -0.14124E+08         0.00000E+00
    0.00000E+00         0.00000E+00        -0.35410E+07
 
   -0.35870E+07         0.15992E+07         0.00000E+00
    0.15992E+07        -0.14140E+08         0.00000E+00
    0.00000E+00         0.00000E+00        -0.35454E+07
 
   -0.35921E+07         0.16797E+07         0.00000E+00
    0.16797E+07        -0.14156E+08         0.00000E+00
    0.00000E+00         0.00000E+00        -0.35496E+07
 
   -0.35962E+07         0.17617E+07         0.00000E+00
    0.17617E+07        -0.14171E+08         0.00000E+00
    0.00000E+00         0.00000E+00        -0.35535E+07
 
   -0.35994E+07         0.18453E+07         0.00000E+00
    0.18453E+07        -0.14187E+08         0.00000E+00
    0.00000E+00         0.00000E+00        -0.35572E+07
 
   -0.36019E+07         0.19304E+07         0.00000E+00
    0.19304E+07        -0.14202E+08         0.00000E+00
    0.00000E+00         0.00000E+00        -0.35608E+07
 
   -0.36037E+07         0.20172E+07         0.00000E+00
    0.20172E+07        -0.14217E+08         0.00000E+00
    0.00000E+00         0.00000E+00        -0.35641E+07
 
   -0.36048E+07         0.21055E+07         0.00000E+00
    0.21055E+07        -0.14231E+08         0.00000E+00
    0.00000E+00         0.00000E+00        -0.35672E+07
 
   -0.36054E+07         0.21954E+07         0.00000E+00
    0.21954E+07        -0.14245E+08         0.00000E+00
    0.00000E+00         0.00000E+00        -0.35701E+07
 
   -0.36055E+07         0.22868E+07         0.00000E+00
    0.22868E+07        -0.14259E+08         0.00000E+00
    0.00000E+00         0.00000E+00        -0.35728E+07
 
   -0.36052E+07         0.23798E+07         0.00000E+00
    0.23798E+07        -0.14272E+08         0.00000E+00
    0.00000E+00         0.00000E+00        -0.35754E+07
 
   -0.36045E+07         0.24744E+07         0.00000E+00
    0.24744E+07        -0.14284E+08         0.00000E+00
    0.00000E+00         0.00000E+00        -0.35777E+07
 
   -0.36036E+07         0.25705E+07         0.00000E+00
    0.25705E+07        -0.14296E+08         0.00000E+00
    0.00000E+00         0.00000E+00        -0.35799E+07
 
   -0.36025E+07         0.26682E+07         0.00000E+00
    0.26682E+07        -0.14307E+08         0.00000E+00
    0.00000E+00         0.00000E+00        -0.35819E+07
 
   -0.36013E+07         0.27674E+07         0.00000E+00
    0.27674E+07        -0.14318E+08         0.00000E+00
    0.00000E+00         0.00000E+00        -0.35838E+07
 
   -0.35999E+07         0.28682E+07         0.00000E+00
    0.28682E+07        -0.14327E+08         0.00000E+00
    0.00000E+00         0.00000E+00        -0.35855E+07
 
   -0.35986E+07         0.29705E+07         0.00000E+00
    0.29705E+07        -0.14336E+08         0.00000E+00
    0.00000E+00         0.00000E+00        -0.35870E+07
 
   -0.35972E+07         0.30743E+07         0.00000E+00
    0.30743E+07        -0.14345E+08         0.00000E+00
    0.00000E+00         0.00000E+00        -0.35884E+07
 
   -0.35960E+07         0.31796E+07         0.00000E+00
    0.31796E+07        -0.14352E+08         0.00000E+00
    0.00000E+00         0.00000E+00        -0.35896E+07
 
   -0.35949E+07         0.32864E+07         0.00000E+00
    0.32864E+07        -0.14359E+08         0.00000E+00
    0.00000E+00         0.00000E+00        -0.35907E+07
 
   -0.35940E+07         0.33947E+07         0.00000E+00
    0.33947E+07        -0.14364E+08         0.00000E+00
    0.00000E+00         0.00000E+00        -0.35916E+07
 
   -0.35933E+07         0.35044E+07         0.00000E+00
    0.35044E+07        -0.14369E+08         0.00000E+00
    0.00000E+00         0.00000E+00        -0.35924E+07
 
   -0.35930E+07         0.36156E+07         0.00000E+00
    0.36156E+07        -0.14373E+08         0.00000E+00
    0.00000E+00         0.00000E+00        -0.35931E+07
 
   -0.35929E+07         0.37282E+07         0.00000E+00
    0.37282E+07        -0.14375E+08         0.00000E+00
    0.00000E+00         0.00000E+00        -0.35936E+07
 
   -0.35932E+07         0.38423E+07         0.00000E+00
    0.38423E+07        -0.14377E+08         0.00000E+00
    0.00000E+00         0.00000E+00        -0.35940E+07
 
   -0.35939E+07         0.39578E+07         0.00000E+00
    0.39578E+07        -0.14378E+08         0.00000E+00
    0.00000E+00         0.00000E+00        -0.35943E+07
 
   -0.34833E+07         0.21638E+05         0.00000E+00
    0.21638E+05        -0.14692E+08         0.00000E+00
    0.00000E+00         0.00000E+00        -0.36351E+07
 
   -0.35395E+07         0.66417E+05         0.00000E+00
    0.66417E+05        -0.14694E+08         0.00000E+00
    0.00000E+00         0.00000E+00        -0.36467E+07
 
   -0.35918E+07         0.11196E+06         0.00000E+00
    0.11196E+06        -0.14697E+08         0.00000E+00
    0.00000E+00         0.00000E+00        -0.36578E+07
 
   -0.36406E+07         0.15836E+06         0.00000E+00
    0.15836E+06        -0.14702E+08         0.00000E+00
    0.00000E+00         0.00000E+00        -0.36685E+07
 
   -0.36858E+07         0.20571E+06         0.00000E+00
    0.20571E+06        -0.14708E+08         0.00000E+00
    0.00000E+00         0.00000E+00        -0.36787E+07
 
   -0.37276E+07         0.25407E+06         0.00000E+00
    0.25407E+06        -0.14715E+08         0.00000E+00
    0.00000E+00         0.00000E+00        -0.36886E+07
 
   -0.37661E+07         0.30354E+06         0.00000E+00
    0.30354E+06        -0.14724E+08         0.00000E+00
    0.00000E+00         0.00000E+00        -0.36980E+07
 
   -0.38014E+07         0.35417E+06         0.00000E+00
    0.35417E+06        -0.14734E+08         0.00000E+00
    0.00000E+00         0.00000E+00        -0.37070E+07
 
   -0.38336E+07         0.40604E+06         0.00000E+00
    0.40604E+06        -0.14745E+08         0.00000E+00
    0.00000E+00         0.00000E+00        -0.37156E+07
 
   -0.38630E+07         0.45920E+06         0.00000E+00
    0.45920E+06        -0.14757E+08         0.00000E+00
    0.00000E+00         0.00000E+00        -0.37239E+07
 
   -0.38895E+07         0.51372E+06         0.00000E+00
    0.51372E+06        -0.14769E+08         0.00000E+00
    0.00000E+00         0.00000E+00        -0.37318E+07
 
   -0.39133E+07         0.56965E+06         0.00000E+00
    0.56965E+06        -0.14783E+08         0.00000E+00
    0.00000E+00         0.00000E+00        -0.37393E+07
 
   -0.39345E+07         0.62703E+06         0.00000E+00
    0.62703E+06        -0.14798E+08         0.00000E+00
    0.00000E+00         0.00000E+00        -0.37464E+07
 
   -0.39532E+07         0.68592E+06         0.00000E+00
    0.68592E+06        -0.14813E+08         0.00000E+00
    0.00000E+00         0.00000E+00        -0.37532E+07
 
   -0.39696E+07         0.74636E+06         0.00000E+00
    0.74636E+06        -0.14829E+08         0.00000E+00
    0.00000E+00         0.00000E+00        -0.37597E+07
 
   -0.39837E+07         0.80837E+06         0.00000E+00
    0.80837E+06        -0.14846E+08         0.00000E+00
    0.00000E+00         0.00000E+00        -0.37659E+07
 
   -0.39958E+07         0.87201E+06         0.00000E+00
    0.87201E+06        -0.14863E+08         0.00000E+00
    0.00000E+00         0.00000E+00        -0.37717E+07
 
   -0.40058E+07         0.93729E+06         0.00000E+00
    0.93729E+06        -0.14880E+08         0.00000E+00
    0.00000E+00         0.00000E+00        -0.37772E+07
 
   -0.40139E+07         0.10043E+07         0.00000E+00
    0.10043E+07        -0.14898E+08         0.00000E+00
    0.00000E+00         0.00000E+00        -0.37824E+07
 
   -0.40202E+07         0.10729E+07         0.00000E+00
    0.10729E+07        -0.14917E+08         0.00000E+00
    0.00000E+00         0.00000E+00        -0.37874E+07
 
   -0.40248E+07         0.11433E+07         0.00000E+00
    0.11433E+07        -0.14935E+08         0.00000E+00
    0.00000E+00         0.00000E+00        -0.37920E+07
 
   -0.40279E+07         0.12154E+07         0.00000E+00
    0.12154E+07        -0.14954E+08         0.00000E+00
    0.00000E+00         0.00000E+00        -0.37964E+07
 
   -0.40294E+07         0.12893E+07         0.00000E+00
    0.12893E+07        -0.14973E+08         0.00000E+00
    0.00000E+00         0.00000E+00        -0.38005E+07
 
   -0.40297E+07         0.13650E+07         0.00000E+00
    0.13650E+07        -0.14992E+08         0.00000E+00
    0.00000E+00         0.00000E+00        -0.38043E+07
 
   -0.40286E+07         0.14424E+07         0.00000E+00
    0.14424E+07        -0.15011E+08         0.00000E+00
    0.00000E+00         0.00000E+00        -0.38079E+07
 
   -0.40264E+07         0.15217E+07         0.00000E+00
    0.15217E+07        -0.15030E+08         0.00000E+00
    0.00000E+00         0.00000E+00        -0.38113E+07
 
   -0.40231E+07         0.16027E+07         0.00000E+00
    0.16027E+07        -0.15049E+08         0.00000E+00
    0.00000E+00         0.00000E+00        -0.38144E+07
 
   -0.40188E+07         0.16855E+07         0.00000E+00
    0.16855E+07        -0.15068E+08         0.00000E+00
    0.00000E+00         0.00000E+00        -0.38173E+07
 
   -0.40137E+07         0.17701E+07         0.00000E+00
    0.17701E+07        -0.15087E+08         0.00000E+00
    0.00000E+00         0.00000E+00        -0.38200E+07
 
   -0.40077E+07         0.18566E+07         0.00000E+00
    0.18566E+07        -0.15105E+08         0.00000E+00
    0.00000E+00         0.00000E+00        -0.38225E+07
 
   -0.40011E+07         0.19448E+07         0.00000E+00
    0.19448E+07        -0.15123E+08         0.00000E+00
    0.00000E+00         0.00000E+00        -0.38248E+07
 
   -0.39938E+07         0.20348E+07         0.00000E+00
    0.20348E+07        -0.15141E+08         0.00000E+00
    0.00000E+00         0.00000E+00        -0.38269E+07
 
   -0.39860E+07         0.21267E+07         0.00000E+00
    0.21267E+07        -0.15158E+08         0.00000E+00
    0.00000E+00         0.00000E+00        -0.38288E+07
 
   -0.39777E+07         0.22203E+07         0.00000E+00
    0.22203E+07        -0.15175E+08         0.00000E+00
    0.00000E+00         0.00000E+00        -0.38305E+07
 
   -0.39691E+07         0.23156E+07         0.00000E+00
    0.23156E+07        -0.15191E+08         0.00000E+00
    0.00000E+00         0.00000E+00        -0.38320E+07
 
   -0.39602E+07         0.24128E+07         0.00000E+00
    0.24128E+07        -0.15207E+08         0.00000E+00
    0.00000E+00         0.00000E+00        -0.38334E+07
 
   -0.39510E+07         0.25117E+07         0.00000E+00
    0.25117E+07        -0.15222E+08         0.00000E+00
    0.00000E+00         0.00000E+00        -0.38346E+07
 
   -0.39417E+07         0.26123E+07         0.00000E+00
    0.26123E+07        -0.15236E+08         0.00000E+00
    0.00000E+00         0.00000E+00        -0.38356E+07
 
   -0.39323E+07         0.27147E+07         0.00000E+00
    0.27147E+07        -0.15250E+08         0.00000E+00
    0.00000E+00         0.00000E+00        -0.38365E+07
 
   -0.39229E+07         0.28187E+07         0.00000E+00
    0.28187E+07        -0.15263E+08         0.00000E+00
    0.00000E+00         0.00000E+00        -0.38373E+07
 
   -0.39136E+07         0.29245E+07         0.00000E+00
    0.29245E+07        -0.15276E+08         0.00000E+00
    0.00000E+00         0.00000E+00        -0.38378E+07
 
   -0.39043E+07         0.30319E+07         0.00000E+00
    0.30319E+07        -0.15287E+08         0.00000E+00
    0.00000E+00         0.00000E+00        -0.38383E+07
 
   -0.38952E+07         0.31411E+07         0.00000E+00
    0.31411E+07        -0.15298E+08         0.00000E+00
    0.00000E+00         0.00000E+00        -0.38386E+07
 
   -0.38863E+07         0.32518E+07         0.00000E+00
    0.32518E+07        -0.15308E+08         0.00000E+00
    0.00000E+00         0.00000E+00        -0.38388E+07
 
   -0.38777E+07         0.33642E+07         0.00000E+00
    0.33642E+07        -0.15317E+08         0.00000E+00
    0.00000E+00         0.00000E+00        -0.38389E+07
 
   -0.38694E+07         0.34782E+07         0.00000E+00
    0.34782E+07        -0.15325E+08         0.00000E+00
    0.00000E+00         0.00000E+00        -0.38388E+07
 
   -0.38614E+07         0.35937E+07         0.00000E+00
    0.35937E+07        -0.15331E+08         0.00000E+00
    0.00000E+00         0.00000E+00        -0.38386E+07
 
   -0.38539E+07         0.37109E+07         0.00000E+00
    0.37109E+07        -0.15337E+08         0.00000E+00
    0.00000E+00         0.00000E+00        -0.38383E+07
 
   -0.38468E+07         0.38296E+07         0.00000E+00
    0.38296E+07        -0.15342E+08         0.00000E+00
    0.00000E+00         0.00000E+00        -0.38378E+07
 
   -0.38401E+07         0.39498E+07         0.00000E+00
    0.39498E+07        -0.15346E+08         0.00000E+00
    0.00000E+00         0.00000E+00        -0.38373E+07
 
   -0.41549E+07         0.17499E+05         0.00000E+00
    0.17499E+05        -0.15567E+08         0.00000E+00
    0.00000E+00         0.00000E+00        -0.39444E+07
 
   -0.42066E+07         0.54748E+05         0.00000E+00
    0.54748E+05        -0.15569E+08         0.00000E+00
    0.00000E+00         0.00000E+00        -0.39552E+07
 
   -0.42541E+07         0.93092E+05         0.00000E+00
    0.93092E+05        -0.15573E+08         0.00000E+00
    0.00000E+00         0.00000E+00        -0.39654E+07
 
   -0.42976E+07         0.13262E+06         0.00000E+00
    0.13262E+06        -0.15578E+08         0.00000E+00
    0.00000E+00         0.00000E+00        -0.39752E+07
 
   -0.43370E+07         0.17343E+06         0.00000E+00
    0.17343E+06        -0.15585E+08         0.00000E+00
    0.00000E+00         0.00000E+00        -0.39845E+07
 
   -0.43727E+07         0.21560E+06         0.00000E+00
    0.21560E+06        -0.15594E+08         0.00000E+00
    0.00000E+00         0.00000E+00        -0.39933E+07
 
   -0.44047E+07         0.25920E+06         0.00000E+00
    0.25920E+06        -0.15604E+08         0.00000E+00
    0.00000E+00         0.00000E+00        -0.40017E+07
 
   -0.44332E+07         0.30431E+06         0.00000E+00
    0.30431E+06        -0.15615E+08         0.00000E+00
    0.00000E+00         0.00000E+00        -0.40097E+07
 
   -0.44583E+07         0.35100E+06         0.00000E+00
    0.35100E+06        -0.15628E+08         0.00000E+00
    0.00000E+00         0.00000E+00        -0.40172E+07
 
   -0.44802E+07         0.39932E+06         0.00000E+00
    0.39932E+06        -0.15642E+08         0.00000E+00
    0.00000E+00         0.00000E+00        -0.40243E+07
 
   -0.44989E+07         0.44933E+06         0.00000E+00
    0.44933E+06        -0.15656E+08         0.00000E+00
    0.00000E+00         0.00000E+00        -0.40311E+07
 
   -0.45147E+07         0.50109E+06         0.00000E+00
    0.50109E+06        -0.15672E+08         0.00000E+00
    0.00000E+00         0.00000E+00        -0.40374E+07
 
   -0.45277E+07         0.55464E+06         0.00000E+00
    0.55464E+06        -0.15689E+08         0.00000E+00
    0.00000E+00         0.00000E+00        -0.40434E+07
 
   -0.45380E+07         0.61002E+06         0.00000E+00
    0.61002E+06        -0.15707E+08         0.00000E+00
    0.00000E+00         0.00000E+00        -0.40490E+07
 
   -0.45458E+07         0.66728E+06         0.00000E+00
    0.66728E+06        -0.15725E+08         0.00000E+00
    0.00000E+00         0.00000E+00        -0.40542E+07
 
   -0.45511E+07         0.72644E+06         0.00000E+00
    0.72644E+06        -0.15745E+08         0.00000E+00
    0.00000E+00         0.00000E+00        -0.40591E+07
 
   -0.45542E+07         0.78755E+06         0.00000E+00
    0.78755E+06        -0.15764E+08         0.00000E+00
    0.00000E+00         0.00000E+00        -0.40637E+07
 
   -0.45551E+07         0.85061E+06         0.00000E+00
    0.85061E+06        -0.15785E+08         0.00000E+00
    0.00000E+00         0.00000E+00        -0.40680E+07
 
   -0.45539E+07         0.91567E+06         0.00000E+00
    0.91567E+06        -0.15806E+08         0.00000E+00
    0.00000E+00         0.00000E+00        -0.40719E+07
 
   -0.45509E+07         0.98273E+06         0.00000E+00
    0.98273E+06        -0.15827E+08         0.00000E+00
    0.00000E+00         0.00000E+00        -0.40756E+07
 
   -0.45461E+07         0.10518E+07         0.00000E+00
    0.10518E+07        -0.15849E+08         0.00000E+00
    0.00000E+00         0.00000E+00        -0.40789E+07
 
   -0.45397E+07         0.11229E+07         0.00000E+00
    0.11229E+07        -0.15870E+08         0.00000E+00
    0.00000E+00         0.00000E+00        -0.40820E+07
 
   -0.45317E+07         0.11961E+07         0.00000E+00
    0.11961E+07        -0.15892E+08         0.00000E+00
    0.00000E+00         0.00000E+00        -0.40848E+07
 
   -0.45223E+07         0.12713E+07         0.00000E+00
    0.12713E+07        -0.15915E+08         0.00000E+00
    0.00000E+00         0.00000E+00        -0.40874E+07
 
   -0.45116E+07         0.13486E+07         0.00000E+00
    0.13486E+07        -0.15937E+08         0.00000E+00
    0.00000E+00         0.00000E+00        -0.40897E+07
 
   -0.44997E+07         0.14280E+07         0.00000E+00
    0.14280E+07        -0.15959E+08         0.00000E+00
    0.00000E+00         0.00000E+00        -0.40918E+07
 
   -0.44868E+07         0.15094E+07         0.00000E+00
    0.15094E+07        -0.15982E+08         0.00000E+00
    0.00000E+00         0.00000E+00        -0.40937E+07
 
   -0.44728E+07         0.15929E+07         0.00000E+00
    0.15929E+07        -0.16004E+08         0.00000E+00
    0.00000E+00         0.00000E+00        -0.40953E+07
 
   -0.44580E+07         0.16785E+07         0.00000E+00
    0.16785E+07        -0.16026E+08         0.00000E+00
    0.00000E+00         0.00000E+00        -0.40967E+07
 
   -0.44424E+07         0.17661E+07         0.00000E+00
    0.17661E+07        -0.16047E+08         0.00000E+00
    0.00000E+00         0.00000E+00        -0.40979E+07
 
   -0.44261E+07         0.18557E+07         0.00000E+00
    0.18557E+07        -0.16069E+08         0.00000E+00
    0.00000E+00         0.00000E+00        -0.40990E+07
 
   -0.44093E+07         0.19474E+07         0.00000E+00
    0.19474E+07        -0.16090E+08         0.00000E+00
    0.00000E+00         0.00000E+00        -0.40998E+07
 
   -0.43920E+07         0.20411E+07         0.00000E+00
    0.20411E+07        -0.16111E+08         0.00000E+00
    0.00000E+00         0.00000E+00        -0.41005E+07
 
   -0.43742E+07         0.21368E+07         0.00000E+00
    0.21368E+07        -0.16131E+08         0.00000E+00
    0.00000E+00         0.00000E+00        -0.41010E+07
 
   -0.43562E+07         0.22345E+07         0.00000E+00
    0.22345E+07        -0.16151E+08         0.00000E+00
    0.00000E+00         0.00000E+00        -0.41014E+07
 
   -0.43379E+07         0.23342E+07         0.00000E+00
    0.23342E+07        -0.16170E+08         0.00000E+00
    0.00000E+00         0.00000E+00        -0.41016E+07
 
   -0.43195E+07         0.24358E+07         0.00000E+00
    0.24358E+07        -0.16188E+08         0.00000E+00
    0.00000E+00         0.00000E+00        -0.41016E+07
 
   -0.43011E+07         0.25394E+07         0.00000E+00
    0.25394E+07        -0.16206E+08         0.00000E+00
    0.00000E+00         0.00000E+00        -0.41015E+07
 
   -0.42826E+07         0.26449E+07         0.00000E+00
    0.26449E+07        -0.16224E+08         0.00000E+00
    0.00000E+00         0.00000E+00        -0.41013E+07
 
   -0.42642E+07         0.27523E+07         0.00000E+00
    0.27523E+07        -0.16240E+08         0.00000E+00
    0.00000E+00         0.00000E+00        -0.41009E+07
 
   -0.42459E+07         0.28615E+07         0.00000E+00
    0.28615E+07        -0.16256E+08         0.00000E+00
    0.00000E+00         0.00000E+00        -0.41004E+07
 
   -0.42279E+07         0.29726E+07         0.00000E+00
    0.29726E+07        -0.16271E+08         0.00000E+00
    0.00000E+00         0.00000E+00        -0.40998E+07
 
   -0.42101E+07         0.30856E+07         0.00000E+00
    0.30856E+07        -0.16285E+08         0.00000E+00
    0.00000E+00         0.00000E+00        -0.40991E+07
 
   -0.41926E+07         0.32003E+07         0.00000E+00
    0.32003E+07        -0.16299E+08         0.00000E+00
    0.00000E+00         0.00000E+00        -0.40982E+07
 
   -0.41755E+07         0.33168E+07         0.00000E+00
    0.33168E+07        -0.16311E+08         0.00000E+00
    0.00000E+00         0.00000E+00        -0.40973E+07
 
   -0.41589E+07         0.34351E+07         0.00000E+00
    0.34351E+07        -0.16322E+08         0.00000E+00
    0.00000E+00         0.00000E+00        -0.40962E+07
 
   -0.41427E+07         0.35551E+07         0.00000E+00
    0.35551E+07        -0.16333E+08         0.00000E+00
    0.00000E+00         0.00000E+00        -0.40951E+07
 
   -0.41270E+07         0.36768E+07         0.00000E+00
    0.36768E+07        -0.16342E+08         0.00000E+00
    0.00000E+00         0.00000E+00        -0.40938E+07
 
   -0.41119E+07         0.38001E+07         0.00000E+00
    0.38001E+07        -0.16351E+08         0.00000E+00
    0.00000E+00         0.00000E+00        -0.40925E+07
 
   -0.40974E+07         0.39251E+07         0.00000E+00
    0.39251E+07        -0.16358E+08         0.00000E+00
    0.00000E+00         0.00000E+00        -0.40911E+07
 
   -0.49042E+07         0.12620E+05         0.00000E+00
    0.12620E+05        -0.16478E+08         0.00000E+00
    0.00000E+00         0.00000E+00        -0.42765E+07
 
   -0.49498E+07         0.41041E+05         0.00000E+00
    0.41041E+05        -0.16480E+08         0.00000E+00
    0.00000E+00         0.00000E+00        -0.42860E+07
 
   -0.49906E+07         0.70957E+05         0.00000E+00
    0.70957E+05        -0.16485E+08         0.00000E+00
    0.00000E+00         0.00000E+00        -0.42950E+07
 
   -0.50269E+07         0.10246E+06         0.00000E+00
    0.10246E+06        -0.16491E+08         0.00000E+00
    0.00000E+00         0.00000E+00        -0.43035E+07
 
   -0.50588E+07         0.13565E+06         0.00000E+00
    0.13565E+06        -0.16499E+08         0.00000E+00
    0.00000E+00         0.00000E+00        -0.43115E+07
 
   -0.50864E+07         0.17060E+06         0.00000E+00
    0.17060E+06        -0.16509E+08         0.00000E+00
    0.00000E+00         0.00000E+00        -0.43190E+07
 
   -0.51101E+07         0.20739E+06         0.00000E+00
    0.20739E+06        -0.16520E+08         0.00000E+00
    0.00000E+00         0.00000E+00        -0.43260E+07
 
   -0.51299E+07         0.24609E+06         0.00000E+00
    0.24609E+06        -0.16533E+08         0.00000E+00
    0.00000E+00         0.00000E+00        -0.43326E+07
 
   -0.51459E+07         0.28676E+06         0.00000E+00
    0.28676E+06        -0.16547E+08         0.00000E+00
    0.00000E+00         0.00000E+00        -0.43387E+07
 
   -0.51585E+07         0.32946E+06         0.00000E+00
    0.32946E+06        -0.16563E+08         0.00000E+00
    0.00000E+00         0.00000E+00        -0.43443E+07
 
   -0.51677E+07         0.37425E+06         0.00000E+00
    0.37425E+06        -0.16580E+08         0.00000E+00
    0.00000E+00         0.00000E+00        -0.43495E+07
 
   -0.51736E+07         0.42117E+06         0.00000E+00
    0.42117E+06        -0.16598E+08         0.00000E+00
    0.00000E+00         0.00000E+00        -0.43544E+07
 
   -0.51766E+07         0.47026E+06         0.00000E+00
    0.47026E+06        -0.16617E+08         0.00000E+00
    0.00000E+00         0.00000E+00        -0.43588E+07
 
   -0.51766E+07         0.52156E+06         0.00000E+00
    0.52156E+06        -0.16638E+08         0.00000E+00
    0.00000E+00         0.00000E+00        -0.43628E+07
 
   -0.51740E+07         0.57511E+06         0.00000E+00
    0.57511E+06        -0.16659E+08         0.00000E+00
    0.00000E+00         0.00000E+00        -0.43665E+07
 
   -0.51688E+07         0.63093E+06         0.00000E+00
    0.63093E+06        -0.16680E+08         0.00000E+00
    0.00000E+00         0.00000E+00        -0.43698E+07
 
   -0.51611E+07         0.68904E+06         0.00000E+00
    0.68904E+06        -0.16703E+08         0.00000E+00
    0.00000E+00         0.00000E+00        -0.43728E+07
 
   -0.51512E+07         0.74947E+06         0.00000E+00
    0.74947E+06        -0.16726E+08         0.00000E+00
    0.00000E+00         0.00000E+00        -0.43755E+07
 
   -0.51392E+07         0.81223E+06         0.00000E+00
    0.81223E+06        -0.16750E+08         0.00000E+00
    0.00000E+00         0.00000E+00        -0.43778E+07
 
   -0.51252E+07         0.87734E+06         0.00000E+00
    0.87734E+06        -0.16774E+08         0.00000E+00
    0.00000E+00         0.00000E+00        -0.43799E+07
 
   -0.51094E+07         0.94481E+06         0.00000E+00
    0.94481E+06        -0.16799E+08         0.00000E+00
    0.00000E+00         0.00000E+00        -0.43816E+07
 
   -0.50919E+07         0.10146E+07         0.00000E+00
    0.10146E+07        -0.16824E+08         0.00000E+00
    0.00000E+00         0.00000E+00        -0.43831E+07
 
   -0.50728E+07         0.10868E+07         0.00000E+00
    0.10868E+07        -0.16849E+08         0.00000E+00
    0.00000E+00         0.00000E+00        -0.43844E+07
 
   -0.50522E+07         0.11614E+07         0.00000E+00
    0.11614E+07        -0.16874E+08         0.00000E+00
    0.00000E+00         0.00000E+00        -0.43853E+07
 
   -0.50304E+07         0.12383E+07         0.00000E+00
    0.12383E+07        -0.16900E+08         0.00000E+00
    0.00000E+00         0.00000E+00        -0.43861E+07
 
   -0.50074E+07         0.13176E+07         0.00000E+00
    0.13176E+07        -0.16926E+08         0.00000E+00
    0.00000E+00         0.00000E+00        -0.43866E+07
 
   -0.49833E+07         0.13992E+07         0.00000E+00
    0.13992E+07        -0.16951E+08         0.00000E+00
    0.00000E+00         0.00000E+00        -0.43869E+07
 
   -0.49583E+07         0.14832E+07         0.00000E+00
    0.14832E+07        -0.16977E+08         0.00000E+00
    0.00000E+00         0.00000E+00        -0.43870E+07
 
   -0.49325E+07         0.15695E+07         0.00000E+00
    0.15695E+07        -0.17002E+08         0.00000E+00
    0.00000E+00         0.00000E+00        -0.43869E+07
 
   -0.49059E+07         0.16582E+07         0.00000E+00
    0.16582E+07        -0.17027E+08         0.00000E+00
    0.00000E+00         0.00000E+00        -0.43866E+07
 
   -0.48788E+07         0.17491E+07         0.00000E+00
    0.17491E+07        -0.17052E+08         0.00000E+00
    0.00000E+00         0.00000E+00        -0.43862E+07
 
   -0.48511E+07         0.18423E+07         0.00000E+00
    0.18423E+07        -0.17077E+08         0.00000E+00
    0.00000E+00         0.00000E+00        -0.43855E+07
 
   -0.48230E+07         0.19378E+07         0.00000E+00
    0.19378E+07        -0.17101E+08         0.00000E+00
    0.00000E+00         0.00000E+00        -0.43848E+07
 
   -0.47946E+07         0.20356E+07         0.00000E+00
    0.20356E+07        -0.17125E+08         0.00000E+00
    0.00000E+00         0.00000E+00        -0.43839E+07
 
   -0.47660E+07         0.21355E+07         0.00000E+00
    0.21355E+07        -0.17148E+08         0.00000E+00
    0.00000E+00         0.00000E+00        -0.43828E+07
 
   -0.47373E+07         0.22377E+07         0.00000E+00
    0.22377E+07        -0.17171E+08         0.00000E+00
    0.00000E+00         0.00000E+00        -0.43816E+07
 
   -0.47086E+07         0.23420E+07         0.00000E+00
    0.23420E+07        -0.17193E+08         0.00000E+00
    0.00000E+00         0.00000E+00        -0.43803E+07
 
   -0.46799E+07         0.24485E+07         0.00000E+00
    0.24485E+07        -0.17215E+08         0.00000E+00
    0.00000E+00         0.00000E+00        -0.43789E+07
 
   -0.46513E+07         0.25571E+07         0.00000E+00
    0.25571E+07        -0.17235E+08         0.00000E+00
    0.00000E+00         0.00000E+00        -0.43774E+07
 
   -0.46230E+07         0.26678E+07         0.00000E+00
    0.26678E+07        -0.17256E+08         0.00000E+00
    0.00000E+00         0.00000E+00        -0.43757E+07
 
   -0.45949E+07         0.27806E+07         0.00000E+00
    0.27806E+07        -0.17275E+08         0.00000E+00
    0.00000E+00         0.00000E+00        -0.43740E+07
 
   -0.45672E+07         0.28954E+07         0.00000E+00
    0.28954E+07        -0.17294E+08         0.00000E+00
    0.00000E+00         0.00000E+00        -0.43722E+07
 
   -0.45399E+07         0.30122E+07         0.00000E+00
    0.30122E+07        -0.17312E+08         0.00000E+00
    0.00000E+00         0.00000E+00        -0.43703E+07
 
   -0.45131E+07         0.31309E+07         0.00000E+00
    0.31309E+07        -0.17328E+08         0.00000E+00
    0.00000E+00         0.00000E+00        -0.43683E+07
 
   -0.44868E+07         0.32516E+07         0.00000E+00
    0.32516E+07        -0.17345E+08         0.00000E+00
    0.00000E+00         0.00000E+00        -0.43663E+07
 
   -0.44611E+07         0.33742E+07         0.00000E+00
    0.33742E+07        -0.17360E+08         0.00000E+00
    0.00000E+00         0.00000E+00        -0.43641E+07
 
   -0.44360E+07         0.34986E+07         0.00000E+00
    0.34986E+07        -0.17374E+08         0.00000E+00
    0.00000E+00         0.00000E+00        -0.43619E+07
 
   -0.44116E+07         0.36248E+07         0.00000E+00
    0.36248E+07        -0.17387E+08         0.00000E+00
    0.00000E+00         0.00000E+00        -0.43597E+07
 
   -0.43879E+07         0.37529E+07         0.00000E+00
    0.37529E+07        -0.17399E+08         0.00000E+00
    0.00000E+00         0.00000E+00        -0.43573E+07
 
   -0.43650E+07         0.38827E+07         0.00000E+00
    0.38827E+07        -0.17410E+08         0.00000E+00
    0.00000E+00         0.00000E+00        -0.43549E+07
 
   -0.57374E+07         0.69456E+04         0.00000E+00
    0.69456E+04        -0.17424E+08         0.00000E+00
    0.00000E+00         0.00000E+00        -0.46323E+07
 
   -0.57746E+07         0.25164E+05         0.00000E+00
    0.25164E+05        -0.17427E+08         0.00000E+00
    0.00000E+00         0.00000E+00        -0.46403E+07
 
   -0.58065E+07         0.45365E+05         0.00000E+00
    0.45365E+05        -0.17432E+08         0.00000E+00
    0.00000E+00         0.00000E+00        -0.46476E+07
 
   -0.58334E+07         0.67645E+05         0.00000E+00
    0.67645E+05        -0.17439E+08         0.00000E+00
    0.00000E+00         0.00000E+00        -0.46544E+07
 
   -0.58554E+07         0.92091E+05         0.00000E+00
    0.92091E+05        -0.17448E+08         0.00000E+00
    0.00000E+00         0.00000E+00        -0.46606E+07
 
   -0.58729E+07         0.11878E+06         0.00000E+00
    0.11878E+06        -0.17459E+08         0.00000E+00
    0.00000E+00         0.00000E+00        -0.46663E+07
 
   -0.58859E+07         0.14779E+06         0.00000E+00
    0.14779E+06        -0.17472E+08         0.00000E+00
    0.00000E+00         0.00000E+00        -0.46715E+07
 
   -0.58948E+07         0.17917E+06         0.00000E+00
    0.17917E+06        -0.17486E+08         0.00000E+00
    0.00000E+00         0.00000E+00        -0.46762E+07
 
   -0.58997E+07         0.21300E+06         0.00000E+00
    0.21300E+06        -0.17502E+08         0.00000E+00
    0.00000E+00         0.00000E+00        -0.46804E+07
 
   -0.59007E+07         0.24931E+06         0.00000E+00
    0.24931E+06        -0.17520E+08         0.00000E+00
    0.00000E+00         0.00000E+00        -0.46841E+07
 
   -0.58982E+07         0.28816E+06         0.00000E+00
    0.28816E+06        -0.17539E+08         0.00000E+00
    0.00000E+00         0.00000E+00        -0.46874E+07
 
   -0.58923E+07         0.32958E+06         0.00000E+00
    0.32958E+06        -0.17559E+08         0.00000E+00
    0.00000E+00         0.00000E+00        -0.46903E+07
 
   -0.58831E+07         0.37360E+06         0.00000E+00
    0.37360E+06        -0.17581E+08         0.00000E+00
    0.00000E+00         0.00000E+00        -0.46928E+07
 
   -0.58709E+07         0.42027E+06         0.00000E+00
    0.42027E+06        -0.17603E+08         0.00000E+00
    0.00000E+00         0.00000E+00        -0.46948E+07
 
   -0.58558E+07         0.46959E+06         0.00000E+00
    0.46959E+06        -0.17627E+08         0.00000E+00
    0.00000E+00         0.00000E+00        -0.46965E+07
 
   -0.58381E+07         0.52159E+06         0.00000E+00
    0.52159E+06        -0.17651E+08         0.00000E+00
    0.00000E+00         0.00000E+00        -0.46979E+07
 
   -0.58179E+07         0.57628E+06         0.00000E+00
    0.57628E+06        -0.17677E+08         0.00000E+00
    0.00000E+00         0.00000E+00        -0.46989E+07
 
   -0.57953E+07         0.63367E+06         0.00000E+00
    0.63367E+06        -0.17702E+08         0.00000E+00
    0.00000E+00         0.00000E+00        -0.46996E+07
 
   -0.57705E+07         0.69377E+06         0.00000E+00
    0.69377E+06        -0.17729E+08         0.00000E+00
    0.00000E+00         0.00000E+00        -0.46999E+07
 
   -0.57438E+07         0.75659E+06         0.00000E+00
    0.75659E+06        -0.17756E+08         0.00000E+00
    0.00000E+00         0.00000E+00        -0.47000E+07
 
   -0.57151E+07         0.82211E+06         0.00000E+00
    0.82211E+06        -0.17784E+08         0.00000E+00
    0.00000E+00         0.00000E+00        -0.46998E+07
 
   -0.56848E+07         0.89035E+06         0.00000E+00
    0.89035E+06        -0.17812E+08         0.00000E+00
    0.00000E+00         0.00000E+00        -0.46993E+07
 
   -0.56529E+07         0.96129E+06         0.00000E+00
    0.96129E+06        -0.17840E+08         0.00000E+00
    0.00000E+00         0.00000E+00        -0.46986E+07
 
   -0.56197E+07         0.10349E+07         0.00000E+00
    0.10349E+07        -0.17869E+08         0.00000E+00
    0.00000E+00         0.00000E+00        -0.46977E+07
 
   -0.55851E+07         0.11113E+07         0.00000E+00
    0.11113E+07        -0.17897E+08         0.00000E+00
    0.00000E+00         0.00000E+00        -0.46965E+07
 
   -0.55494E+07         0.11902E+07         0.00000E+00
    0.11902E+07        -0.17926E+08         0.00000E+00
    0.00000E+00         0.00000E+00        -0.46951E+07
 
   -0.55127E+07         0.12719E+07         0.00000E+00
    0.12719E+07        -0.17955E+08         0.00000E+00
    0.00000E+00         0.00000E+00        -0.46935E+07
 
   -0.54752E+07         0.13562E+07         0.00000E+00
    0.13562E+07        -0.17984E+08         0.00000E+00
    0.00000E+00         0.00000E+00        -0.46918E+07
 
   -0.54369E+07         0.14431E+07         0.00000E+00
    0.14431E+07        -0.18013E+08         0.00000E+00
    0.00000E+00         0.00000E+00        -0.46899E+07
 
   -0.53980E+07         0.15326E+07         0.00000E+00
    0.15326E+07        -0.18041E+08         0.00000E+00
    0.00000E+00         0.00000E+00        -0.46878E+07
 
   -0.53585E+07         0.16247E+07         0.00000E+00
    0.16247E+07        -0.18069E+08         0.00000E+00
    0.00000E+00         0.00000E+00        -0.46856E+07
 
   -0.53187E+07         0.17193E+07         0.00000E+00
    0.17193E+07        -0.18097E+08         0.00000E+00
    0.00000E+00         0.00000E+00        -0.46832E+07
 
   -0.52786E+07         0.18165E+07         0.00000E+00
    0.18165E+07        -0.18125E+08         0.00000E+00
    0.00000E+00         0.00000E+00        -0.46808E+07
 
   -0.52383E+07         0.19161E+07         0.00000E+00
    0.19161E+07        -0.18152E+08         0.00000E+00
    0.00000E+00         0.00000E+00        -0.46782E+07
 
   -0.51980E+07         0.20182E+07         0.00000E+00
    0.20182E+07        -0.18179E+08         0.00000E+00
    0.00000E+00         0.00000E+00        -0.46755E+07
 
   -0.51576E+07         0.21228E+07         0.00000E+00
    0.21228E+07        -0.18206E+08         0.00000E+00
    0.00000E+00         0.00000E+00        -0.46727E+07
 
   -0.51174E+07         0.22297E+07         0.00000E+00
    0.22297E+07        -0.18232E+08         0.00000E+00
    0.00000E+00         0.00000E+00        -0.46698E+07
 
   -0.50774E+07         0.23391E+07         0.00000E+00
    0.23391E+07        -0.18257E+08         0.00000E+00
    0.00000E+00         0.00000E+00        -0.46669E+07
 
   -0.50377E+07         0.24507E+07         0.00000E+00
    0.24507E+07        -0.18281E+08         0.00000E+00
    0.00000E+00         0.00000E+00        -0.46638E+07
 
   -0.49984E+07         0.25647E+07         0.00000E+00
    0.25647E+07        -0.18305E+08         0.00000E+00
    0.00000E+00         0.00000E+00        -0.46608E+07
 
   -0.49596E+07         0.26809E+07         0.00000E+00
    0.26809E+07        -0.18329E+08         0.00000E+00
    0.00000E+00         0.00000E+00        -0.46576E+07
 
   -0.49213E+07         0.27993E+07         0.00000E+00
    0.27993E+07        -0.18351E+08         0.00000E+00
    0.00000E+00         0.00000E+00        -0.46545E+07
 
   -0.48836E+07         0.29199E+07         0.00000E+00
    0.29199E+07        -0.18373E+08         0.00000E+00
    0.00000E+00         0.00000E+00        -0.46512E+07
 
   -0.48466E+07         0.30427E+07         0.00000E+00
    0.30427E+07        -0.18393E+08         0.00000E+00
    0.00000E+00         0.00000E+00        -0.46480E+07
 
   -0.48103E+07         0.31675E+07         0.00000E+00
    0.31675E+07        -0.18413E+08         0.00000E+00
    0.00000E+00         0.00000E+00        -0.46447E+07
 
   -0.47748E+07         0.32944E+07         0.00000E+00
    0.32944E+07        -0.18432E+08         0.00000E+00
    0.00000E+00         0.00000E+00        -0.46414E+07
 
   -0.47402E+07         0.34233E+07         0.00000E+00
    0.34233E+07        -0.18450E+08         0.00000E+00
    0.00000E+00         0.00000E+00        -0.46380E+07
 
   -0.47064E+07         0.35541E+07         0.00000E+00
    0.35541E+07        -0.18467E+08         0.00000E+00
    0.00000E+00         0.00000E+00        -0.46346E+07
 
   -0.46736E+07         0.36868E+07         0.00000E+00
    0.36868E+07        -0.18483E+08         0.00000E+00
    0.00000E+00         0.00000E+00        -0.46313E+07
 
   -0.46418E+07         0.38214E+07         0.00000E+00
    0.38214E+07        -0.18497E+08         0.00000E+00
    0.00000E+00         0.00000E+00        -0.46279E+07
 
   -0.66605E+07         0.43729E+03         0.00000E+00
    0.43729E+03        -0.18404E+08         0.00000E+00
    0.00000E+00         0.00000E+00        -0.50129E+07
 
   -0.66865E+07         0.70403E+04         0.00000E+00
    0.70403E+04        -0.18407E+08         0.00000E+00
    0.00000E+00         0.00000E+00        -0.50187E+07
 
   -0.67068E+07         0.16220E+05         0.00000E+00
    0.16220E+05        -0.18412E+08         0.00000E+00
    0.00000E+00         0.00000E+00        -0.50238E+07
 
   -0.67216E+07         0.28064E+05         0.00000E+00
    0.28064E+05        -0.18420E+08         0.00000E+00
    0.00000E+00         0.00000E+00        -0.50284E+07
 
   -0.67311E+07         0.42652E+05         0.00000E+00
    0.42652E+05        -0.18430E+08         0.00000E+00
    0.00000E+00         0.00000E+00        -0.50323E+07
 
   -0.67357E+07         0.60054E+05         0.00000E+00
    0.60054E+05        -0.18443E+08         0.00000E+00
    0.00000E+00         0.00000E+00        -0.50357E+07
 
   -0.67356E+07         0.80332E+05         0.00000E+00
    0.80332E+05        -0.18457E+08         0.00000E+00
    0.00000E+00         0.00000E+00        -0.50385E+07
 
   -0.67310E+07         0.10354E+06         0.00000E+00
    0.10354E+06        -0.18473E+08         0.00000E+00
    0.00000E+00         0.00000E+00        -0.50408E+07
 
   -0.67222E+07         0.12972E+06         0.00000E+00
    0.12972E+06        -0.18491E+08         0.00000E+00
    0.00000E+00         0.00000E+00        -0.50426E+07
 
   -0.67093E+07         0.15892E+06         0.00000E+00
    0.15892E+06        -0.18510E+08         0.00000E+00
    0.00000E+00         0.00000E+00        -0.50439E+07
 
   -0.66926E+07         0.19117E+06         0.00000E+00
    0.19117E+06        -0.18531E+08         0.00000E+00
    0.00000E+00         0.00000E+00        -0.50448E+07
 
   -0.66724E+07         0.22648E+06         0.00000E+00
    0.22648E+06        -0.18554E+08         0.00000E+00
    0.00000E+00         0.00000E+00        -0.50452E+07
 
   -0.66488E+07         0.26489E+06         0.00000E+00
    0.26489E+06        -0.18577E+08         0.00000E+00
    0.00000E+00         0.00000E+00        -0.50452E+07
 
   -0.66221E+07         0.30641E+06         0.00000E+00
    0.30641E+06        -0.18602E+08         0.00000E+00
    0.00000E+00         0.00000E+00        -0.50448E+07
 
   -0.65924E+07         0.35104E+06         0.00000E+00
    0.35104E+06        -0.18628E+08         0.00000E+00
    0.00000E+00         0.00000E+00        -0.50441E+07
 
   -0.65600E+07         0.39879E+06         0.00000E+00
    0.39879E+06        -0.18655E+08         0.00000E+00
    0.00000E+00         0.00000E+00        -0.50430E+07
 
   -0.65250E+07         0.44967E+06         0.00000E+00
    0.44967E+06        -0.18682E+08         0.00000E+00
    0.00000E+00         0.00000E+00        -0.50415E+07
 
   -0.64878E+07         0.50366E+06         0.00000E+00
    0.50366E+06        -0.18711E+08         0.00000E+00
    0.00000E+00         0.00000E+00        -0.50397E+07
 
   -0.64483E+07         0.56076E+06         0.00000E+00
    0.56076E+06        -0.18740E+08         0.00000E+00
    0.00000E+00         0.00000E+00        -0.50377E+07
 
   -0.64068E+07         0.62096E+06         0.00000E+00
    0.62096E+06        -0.18770E+08         0.00000E+00
    0.00000E+00         0.00000E+00        -0.50354E+07
 
   -0.63636E+07         0.68425E+06         0.00000E+00
    0.68425E+06        -0.18800E+08         0.00000E+00
    0.00000E+00         0.00000E+00        -0.50328E+07
 
   -0.63186E+07         0.75061E+06         0.00000E+00
    0.75061E+06        -0.18831E+08         0.00000E+00
    0.00000E+00         0.00000E+00        -0.50299E+07
 
   -0.62722E+07         0.82003E+06         0.00000E+00
    0.82003E+06        -0.18862E+08         0.00000E+00
    0.00000E+00         0.00000E+00        -0.50269E+07
 
   -0.62245E+07         0.89248E+06         0.00000E+00
    0.89248E+06        -0.18894E+08         0.00000E+00
    0.00000E+00         0.00000E+00        -0.50236E+07
 
   -0.61755E+07         0.96795E+06         0.00000E+00
    0.96795E+06        -0.18925E+08         0.00000E+00
    0.00000E+00         0.00000E+00        -0.50201E+07
 
   -0.61256E+07         0.10464E+07         0.00000E+00
    0.10464E+07        -0.18957E+08         0.00000E+00
    0.00000E+00         0.00000E+00        -0.50165E+07
 
   -0.60747E+07         0.11278E+07         0.00000E+00
    0.11278E+07        -0.18989E+08         0.00000E+00
    0.00000E+00         0.00000E+00        -0.50127E+07
 
   -0.60231E+07         0.12122E+07         0.00000E+00
    0.12122E+07        -0.19021E+08         0.00000E+00
    0.00000E+00         0.00000E+00        -0.50088E+07
 
   -0.59708E+07         0.12994E+07         0.00000E+00
    0.12994E+07        -0.19053E+08         0.00000E+00
    0.00000E+00         0.00000E+00        -0.50047E+07
 
   -0.59181E+07         0.13896E+07         0.00000E+00
    0.13896E+07        -0.19084E+08         0.00000E+00
    0.00000E+00         0.00000E+00        -0.50005E+07
 
   -0.58650E+07         0.14826E+07         0.00000E+00
    0.14826E+07        -0.19116E+08         0.00000E+00
    0.00000E+00         0.00000E+00        -0.49962E+07
 
   -0.58117E+07         0.15784E+07         0.00000E+00
    0.15784E+07        -0.19147E+08         0.00000E+00
    0.00000E+00         0.00000E+00        -0.49918E+07
 
   -0.57582E+07         0.16770E+07         0.00000E+00
    0.16770E+07        -0.19178E+08         0.00000E+00
    0.00000E+00         0.00000E+00        -0.49873E+07
 
   -0.57047E+07         0.17784E+07         0.00000E+00
    0.17784E+07        -0.19209E+08         0.00000E+00
    0.00000E+00         0.00000E+00        -0.49828E+07
 
   -0.56513E+07         0.18825E+07         0.00000E+00
    0.18825E+07        -0.19239E+08         0.00000E+00
    0.00000E+00         0.00000E+00        -0.49782E+07
 
   -0.55982E+07         0.19892E+07         0.00000E+00
    0.19892E+07        -0.19269E+08         0.00000E+00
    0.00000E+00         0.00000E+00        -0.49735E+07
 
   -0.55453E+07         0.20986E+07         0.00000E+00
    0.20986E+07        -0.19299E+08         0.00000E+00
    0.00000E+00         0.00000E+00        -0.49688E+07
 
   -0.54929E+07         0.22106E+07         0.00000E+00
    0.22106E+07        -0.19328E+08         0.00000E+00
    0.00000E+00         0.00000E+00        -0.49641E+07
 
   -0.54409E+07         0.23252E+07         0.00000E+00
    0.23252E+07        -0.19356E+08         0.00000E+00
    0.00000E+00         0.00000E+00        -0.49594E+07
 
   -0.53896E+07         0.24423E+07         0.00000E+00
    0.24423E+07        -0.19384E+08         0.00000E+00
    0.00000E+00         0.00000E+00        -0.49547E+07
 
   -0.53389E+07         0.25618E+07         0.00000E+00
    0.25618E+07        -0.19411E+08         0.00000E+00
    0.00000E+00         0.00000E+00        -0.49499E+07
 
   -0.52890E+07         0.26838E+07         0.00000E+00
    0.26838E+07        -0.19437E+08         0.00000E+00
    0.00000E+00         0.00000E+00        -0.49452E+07
 
   -0.52400E+07         0.28081E+07         0.00000E+00
    0.28081E+07        -0.19462E+08         0.00000E+00
    0.00000E+00         0.00000E+00        -0.49405E+07
 
   -0.51919E+07         0.29348E+07         0.00000E+00
    0.29348E+07        -0.19487E+08         0.00000E+00
    0.00000E+00         0.00000E+00        -0.49358E+07
 
   -0.51448E+07         0.30637E+07         0.00000E+00
    0.30637E+07        -0.19511E+08         0.00000E+00
    0.00000E+00         0.00000E+00        -0.49311E+07
 
   -0.50988E+07         0.31949E+07         0.00000E+00
    0.31949E+07        -0.19534E+08         0.00000E+00
    0.00000E+00         0.00000E+00        -0.49265E+07
 
   -0.50538E+07         0.33282E+07         0.00000E+00
    0.33282E+07        -0.19556E+08         0.00000E+00
    0.00000E+00         0.00000E+00        -0.49219E+07
 
   -0.50101E+07         0.34635E+07         0.00000E+00
    0.34635E+07        -0.19577E+08         0.00000E+00
    0.00000E+00         0.00000E+00        -0.49173E+07
 
   -0.49676E+07         0.36009E+07         0.00000E+00
    0.36009E+07        -0.19596E+08         0.00000E+00
    0.00000E+00         0.00000E+00        -0.49128E+07
 
   -0.49264E+07         0.37403E+07         0.00000E+00
    0.37403E+07        -0.19615E+08         0.00000E+00
    0.00000E+00         0.00000E+00        -0.49083E+07
 
   -0.76789E+07        -0.69193E+04         0.00000E+00
   -0.69193E+04        -0.19416E+08         0.00000E+00
    0.00000E+00         0.00000E+00        -0.54191E+07
 
   -0.76905E+07        -0.13324E+05         0.00000E+00
   -0.13324E+05        -0.19420E+08         0.00000E+00
    0.00000E+00         0.00000E+00        -0.54220E+07
 
   -0.76959E+07        -0.16439E+05         0.00000E+00
   -0.16439E+05        -0.19425E+08         0.00000E+00
    0.00000E+00         0.00000E+00        -0.54243E+07
 
   -0.76954E+07        -0.16189E+05         0.00000E+00
   -0.16189E+05        -0.19434E+08         0.00000E+00
    0.00000E+00         0.00000E+00        -0.54259E+07
 
   -0.76894E+07        -0.12508E+05         0.00000E+00
   -0.12508E+05        -0.19445E+08         0.00000E+00
    0.00000E+00         0.00000E+00        -0.54269E+07
 
   -0.76780E+07        -0.53413E+04         0.00000E+00
   -0.53413E+04        -0.19458E+08         0.00000E+00
    0.00000E+00         0.00000E+00        -0.54273E+07
 
   -0.76617E+07         0.53548E+04         0.00000E+00
    0.53548E+04        -0.19474E+08         0.00000E+00
    0.00000E+00         0.00000E+00        -0.54271E+07
 
   -0.76407E+07         0.19616E+05         0.00000E+00
    0.19616E+05        -0.19491E+08         0.00000E+00
    0.00000E+00         0.00000E+00        -0.54264E+07
 
   -0.76152E+07         0.37471E+05         0.00000E+00
    0.37471E+05        -0.19511E+08         0.00000E+00
    0.00000E+00         0.00000E+00        -0.54252E+07
 
   -0.75856E+07         0.58937E+05         0.00000E+00
    0.58937E+05        -0.19532E+08         0.00000E+00
    0.00000E+00         0.00000E+00        -0.54235E+07
 
   -0.75520E+07         0.84026E+05         0.00000E+00
    0.84026E+05        -0.19554E+08         0.00000E+00
    0.00000E+00         0.00000E+00        -0.54213E+07
 
   -0.75148E+07         0.11274E+06         0.00000E+00
    0.11274E+06        -0.19579E+08         0.00000E+00
    0.00000E+00         0.00000E+00        -0.54187E+07
 
   -0.74743E+07         0.14509E+06         0.00000E+00
    0.14509E+06        -0.19604E+08         0.00000E+00
    0.00000E+00         0.00000E+00        -0.54157E+07
 
   -0.74305E+07         0.18106E+06         0.00000E+00
    0.18106E+06        -0.19631E+08         0.00000E+00
    0.00000E+00         0.00000E+00        -0.54123E+07
 
   -0.73839E+07         0.22063E+06         0.00000E+00
    0.22063E+06        -0.19659E+08         0.00000E+00
    0.00000E+00         0.00000E+00        -0.54085E+07
 
   -0.73345E+07         0.26380E+06         0.00000E+00
    0.26380E+06        -0.19687E+08         0.00000E+00
    0.00000E+00         0.00000E+00        -0.54044E+07
 
   -0.72826E+07         0.31054E+06         0.00000E+00
    0.31054E+06        -0.19717E+08         0.00000E+00
    0.00000E+00         0.00000E+00        -0.54000E+07
 
   -0.72285E+07         0.36084E+06         0.00000E+00
    0.36084E+06        -0.19748E+08         0.00000E+00
    0.00000E+00         0.00000E+00        -0.53952E+07
 
   -0.71723E+07         0.41465E+06         0.00000E+00
    0.41465E+06        -0.19779E+08         0.00000E+00
    0.00000E+00         0.00000E+00        -0.53903E+07
 
   -0.71141E+07         0.47197E+06         0.00000E+00
    0.47197E+06        -0.19811E+08         0.00000E+00
    0.00000E+00         0.00000E+00        -0.53850E+07
 
   -0.70543E+07         0.53275E+06         0.00000E+00
    0.53275E+06        -0.19843E+08         0.00000E+00
    0.00000E+00         0.00000E+00        -0.53796E+07
 
   -0.69929E+07         0.59696E+06         0.00000E+00
    0.59696E+06        -0.19876E+08         0.00000E+00
    0.00000E+00         0.00000E+00        -0.53739E+07
 
   -0.69302E+07         0.66458E+06         0.00000E+00
    0.66458E+06        -0.19910E+08         0.00000E+00
    0.00000E+00         0.00000E+00        -0.53680E+07
 
   -0.68662E+07         0.73557E+06         0.00000E+00
    0.73557E+06        -0.19944E+08         0.00000E+00
    0.00000E+00         0.00000E+00        -0.53620E+07
 
   -0.68012E+07         0.80989E+06         0.00000E+00
    0.80989E+06        -0.19978E+08         0.00000E+00
    0.00000E+00         0.00000E+00        -0.53558E+07
 
   -0.67354E+07         0.88751E+06         0.00000E+00
    0.88751E+06        -0.20012E+08         0.00000E+00
    0.00000E+00         0.00000E+00        -0.53495E+07
 
   -0.66688E+07         0.96839E+06         0.00000E+00
    0.96839E+06        -0.20046E+08         0.00000E+00
    0.00000E+00         0.00000E+00        -0.53430E+07
 
   -0.66016E+07         0.10525E+07         0.00000E+00
    0.10525E+07        -0.20081E+08         0.00000E+00
    0.00000E+00         0.00000E+00        -0.53365E+07
 
   -0.65339E+07         0.11398E+07         0.00000E+00
    0.11398E+07        -0.20116E+08         0.00000E+00
    0.00000E+00         0.00000E+00        -0.53299E+07
 
   -0.64660E+07         0.12303E+07         0.00000E+00
    0.12303E+07        -0.20150E+08         0.00000E+00
    0.00000E+00         0.00000E+00        -0.53232E+07
 
   -0.63978E+07         0.13239E+07         0.00000E+00
    0.13239E+07        -0.20185E+08         0.00000E+00
    0.00000E+00         0.00000E+00        -0.53165E+07
 
   -0.63296E+07         0.14205E+07         0.00000E+00
    0.14205E+07        -0.20219E+08         0.00000E+00
    0.00000E+00         0.00000E+00        -0.53097E+07
 
   -0.62614E+07         0.15203E+07         0.00000E+00
    0.15203E+07        -0.20253E+08         0.00000E+00
    0.00000E+00         0.00000E+00        -0.53029E+07
 
   -0.61934E+07         0.16230E+07         0.00000E+00
    0.16230E+07        -0.20287E+08         0.00000E+00
    0.00000E+00         0.00000E+00        -0.52961E+07
 
   -0.61257E+07         0.17287E+07         0.00000E+00
    0.17287E+07        -0.20321E+08         0.00000E+00
    0.00000E+00         0.00000E+00        -0.52893E+07
 
   -0.60584E+07         0.18373E+07         0.00000E+00
    0.18373E+07        -0.20354E+08         0.00000E+00
    0.00000E+00         0.00000E+00        -0.52825E+07
 
   -0.59916E+07         0.19488E+07         0.00000E+00
    0.19488E+07        -0.20387E+08         0.00000E+00
    0.00000E+00         0.00000E+00        -0.52757E+07
 
   -0.59255E+07         0.20632E+07         0.00000E+00
    0.20632E+07        -0.20419E+08         0.00000E+00
    0.00000E+00         0.00000E+00        -0.52690E+07
 
   -0.58601E+07         0.21804E+07         0.00000E+00
    0.21804E+07        -0.20451E+08         0.00000E+00
    0.00000E+00         0.00000E+00        -0.52623E+07
 
   -0.57956E+07         0.23003E+07         0.00000E+00
    0.23003E+07        -0.20483E+08         0.00000E+00
    0.00000E+00         0.00000E+00        -0.52557E+07
 
   -0.57320E+07         0.24229E+07         0.00000E+00
    0.24229E+07        -0.20514E+08         0.00000E+00
    0.00000E+00         0.00000E+00        -0.52491E+07
 
   -0.56694E+07         0.25482E+07         0.00000E+00
    0.25482E+07        -0.20544E+08         0.00000E+00
    0.00000E+00         0.00000E+00        -0.52427E+07
 
   -0.56080E+07         0.26761E+07         0.00000E+00
    0.26761E+07        -0.20573E+08         0.00000E+00
    0.00000E+00         0.00000E+00        -0.52363E+07
 
   -0.55478E+07         0.28065E+07         0.00000E+00
    0.28065E+07        -0.20602E+08         0.00000E+00
    0.00000E+00         0.00000E+00        -0.52300E+07
 
   -0.54889E+07         0.29394E+07         0.00000E+00
    0.29394E+07        -0.20630E+08         0.00000E+00
    0.00000E+00         0.00000E+00        -0.52238E+07
 
   -0.54315E+07         0.30746E+07         0.00000E+00
    0.30746E+07        -0.20657E+08         0.00000E+00
    0.00000E+00         0.00000E+00        -0.52177E+07
 
   -0.53754E+07         0.32123E+07         0.00000E+00
    0.32123E+07        -0.20683E+08         0.00000E+00
    0.00000E+00         0.00000E+00        -0.52117E+07
 
   -0.53210E+07         0.33522E+07         0.00000E+00
    0.33522E+07        -0.20708E+08         0.00000E+00
    0.00000E+00         0.00000E+00        -0.52058E+07
 
   -0.52681E+07         0.34943E+07         0.00000E+00
    0.34943E+07        -0.20732E+08         0.00000E+00
    0.00000E+00         0.00000E+00        -0.52001E+07
 
   -0.52169E+07         0.36385E+07         0.00000E+00
    0.36385E+07        -0.20755E+08         0.00000E+00
    0.00000E+00         0.00000E+00        -0.51945E+07
 
   -0.87976E+07        -0.15103E+05         0.00000E+00
   -0.15103E+05        -0.20459E+08         0.00000E+00
    0.00000E+00         0.00000E+00        -0.58512E+07
 
   -0.87908E+07        -0.35814E+05         0.00000E+00
   -0.35814E+05        -0.20462E+08         0.00000E+00
    0.00000E+00         0.00000E+00        -0.58506E+07
 
   -0.87775E+07        -0.52379E+05         0.00000E+00
   -0.52379E+05        -0.20468E+08         0.00000E+00
    0.00000E+00         0.00000E+00        -0.58492E+07
 
   -0.87579E+07        -0.64743E+05         0.00000E+00
   -0.64743E+05        -0.20478E+08         0.00000E+00
    0.00000E+00         0.00000E+00        -0.58471E+07
 
   -0.87325E+07        -0.72866E+05         0.00000E+00
   -0.72866E+05        -0.20489E+08         0.00000E+00
    0.00000E+00         0.00000E+00        -0.58444E+07
 
   -0.87016E+07        -0.76718E+05         0.00000E+00
   -0.76718E+05        -0.20504E+08         0.00000E+00
    0.00000E+00         0.00000E+00        -0.58411E+07
 
   -0.86656E+07        -0.76280E+05         0.00000E+00
   -0.76280E+05        -0.20520E+08         0.00000E+00
    0.00000E+00         0.00000E+00        -0.58371E+07
 
   -0.86247E+07        -0.71545E+05         0.00000E+00
   -0.71545E+05        -0.20539E+08         0.00000E+00
    0.00000E+00         0.00000E+00        -0.58327E+07
 
   -0.85794E+07        -0.62515E+05         0.00000E+00
   -0.62515E+05        -0.20559E+08         0.00000E+00
    0.00000E+00         0.00000E+00        -0.58277E+07
 
   -0.85298E+07        -0.49201E+05         0.00000E+00
   -0.49201E+05        -0.20581E+08         0.00000E+00
    0.00000E+00         0.00000E+00        -0.58223E+07
 
   -0.84764E+07        -0.31622E+05         0.00000E+00
   -0.31622E+05        -0.20605E+08         0.00000E+00
    0.00000E+00         0.00000E+00        -0.58163E+07
 
   -0.84194E+07        -0.98045E+04         0.00000E+00
   -0.98045E+04        -0.20631E+08         0.00000E+00
    0.00000E+00         0.00000E+00        -0.58100E+07
 
   -0.83590E+07         0.16220E+05         0.00000E+00
    0.16220E+05        -0.20657E+08         0.00000E+00
    0.00000E+00         0.00000E+00        -0.58033E+07
 
   -0.82957E+07         0.46414E+05         0.00000E+00
    0.46414E+05        -0.20685E+08         0.00000E+00
    0.00000E+00         0.00000E+00        -0.57962E+07
 
   -0.82295E+07         0.80734E+05         0.00000E+00
    0.80734E+05        -0.20715E+08         0.00000E+00
    0.00000E+00         0.00000E+00        -0.57888E+07
 
   -0.81607E+07         0.11914E+06         0.00000E+00
    0.11914E+06        -0.20745E+08         0.00000E+00
    0.00000E+00         0.00000E+00        -0.57811E+07
 
   -0.80897E+07         0.16157E+06         0.00000E+00
    0.16157E+06        -0.20776E+08         0.00000E+00
    0.00000E+00         0.00000E+00        -0.57731E+07
 
   -0.80165E+07         0.20799E+06         0.00000E+00
    0.20799E+06        -0.20808E+08         0.00000E+00
    0.00000E+00         0.00000E+00        -0.57648E+07
 
   -0.79414E+07         0.25833E+06         0.00000E+00
    0.25833E+06        -0.20840E+08         0.00000E+00
    0.00000E+00         0.00000E+00        -0.57563E+07
 
   -0.78647E+07         0.31255E+06         0.00000E+00
    0.31255E+06        -0.20873E+08         0.00000E+00
    0.00000E+00         0.00000E+00        -0.57476E+07
 
   -0.77864E+07         0.37060E+06         0.00000E+00
    0.37060E+06        -0.20907E+08         0.00000E+00
    0.00000E+00         0.00000E+00        -0.57387E+07
 
   -0.77068E+07         0.43242E+06         0.00000E+00
    0.43242E+06        -0.20942E+08         0.00000E+00
    0.00000E+00         0.00000E+00        -0.57297E+07
 
   -0.76260E+07         0.49796E+06         0.00000E+00
    0.49796E+06        -0.20977E+08         0.00000E+00
    0.00000E+00         0.00000E+00        -0.57205E+07
 
   -0.75443E+07         0.56717E+06         0.00000E+00
    0.56717E+06        -0.21012E+08         0.00000E+00
    0.00000E+00         0.00000E+00        -0.57112E+07
 
   -0.74617E+07         0.64000E+06         0.00000E+00
    0.64000E+06        -0.21048E+08         0.00000E+00
    0.00000E+00         0.00000E+00        -0.57019E+07
 
   -0.73785E+07         0.71640E+06         0.00000E+00
    0.71640E+06        -0.21084E+08         0.00000E+00
    0.00000E+00         0.00000E+00        -0.56924E+07
 
   -0.72947E+07         0.79633E+06         0.00000E+00
    0.79633E+06        -0.21120E+08         0.00000E+00
    0.00000E+00         0.00000E+00        -0.56829E+07
 
   -0.72105E+07         0.87975E+06         0.00000E+00
    0.87975E+06        -0.21156E+08         0.00000E+00
    0.00000E+00         0.00000E+00        -0.56733E+07
 
   -0.71260E+07         0.96662E+06         0.00000E+00
    0.96662E+06        -0.21193E+08         0.00000E+00
    0.00000E+00         0.00000E+00        -0.56638E+07
 
   -0.70415E+07         0.10569E+07         0.00000E+00
    0.10569E+07        -0.21229E+08         0.00000E+00
    0.00000E+00         0.00000E+00        -0.56542E+07
 
   -0.69569E+07         0.11505E+07         0.00000E+00
    0.11505E+07        -0.21266E+08         0.00000E+00
    0.00000E+00         0.00000E+00        -0.56446E+07
 
   -0.68725E+07         0.12475E+07         0.00000E+00
    0.12475E+07        -0.21303E+08         0.00000E+00
    0.00000E+00         0.00000E+00        -0.56351E+07
 
   -0.67883E+07         0.13477E+07         0.00000E+00
    0.13477E+07        -0.21340E+08         0.00000E+00
    0.00000E+00         0.00000E+00        -0.56256E+07
 
   -0.67044E+07         0.14512E+07         0.00000E+00
    0.14512E+07        -0.21376E+08         0.00000E+00
    0.00000E+00         0.00000E+00        -0.56162E+07
 
   -0.66211E+07         0.15580E+07         0.00000E+00
    0.15580E+07        -0.21413E+08         0.00000E+00
    0.00000E+00         0.00000E+00        -0.56068E+07
 
   -0.65384E+07         0.16679E+07         0.00000E+00
    0.16679E+07        -0.21449E+08         0.00000E+00
    0.00000E+00         0.00000E+00        -0.55976E+07
 
   -0.64565E+07         0.17809E+07         0.00000E+00
    0.17809E+07        -0.21486E+08         0.00000E+00
    0.00000E+00         0.00000E+00        -0.55884E+07
 
   -0.63754E+07         0.18971E+07         0.00000E+00
    0.18971E+07        -0.21521E+08         0.00000E+00
    0.00000E+00         0.00000E+00        -0.55794E+07
 
   -0.62952E+07         0.20163E+07         0.00000E+00
    0.20163E+07        -0.21557E+08         0.00000E+00
    0.00000E+00         0.00000E+00        -0.55704E+07
 
   -0.62162E+07         0.21386E+07         0.00000E+00
    0.21386E+07        -0.21592E+08         0.00000E+00
    0.00000E+00         0.00000E+00        -0.55617E+07
 
   -0.61384E+07         0.22638E+07         0.00000E+00
    0.22638E+07        -0.21627E+08         0.00000E+00
    0.00000E+00         0.00000E+00        -0.55530E+07
 
   -0.60619E+07         0.23919E+07         0.00000E+00
    0.23919E+07        -0.21661E+08         0.00000E+00
    0.00000E+00         0.00000E+00        -0.55446E+07
 
   -0.59869E+07         0.25229E+07         0.00000E+00
    0.25229E+07        -0.21694E+08         0.00000E+00
    0.00000E+00         0.00000E+00        -0.55363E+07
 
   -0.59134E+07         0.26567E+07         0.00000E+00
    0.26567E+07        -0.21727E+08         0.00000E+00
    0.00000E+00         0.00000E+00        -0.55281E+07
 
   -0.58415E+07         0.27933E+07         0.00000E+00
    0.27933E+07        -0.21760E+08         0.00000E+00
    0.00000E+00         0.00000E+00        -0.55202E+07
 
   -0.57715E+07         0.29325E+07         0.00000E+00
    0.29325E+07        -0.21791E+08         0.00000E+00
    0.00000E+00         0.00000E+00        -0.55125E+07
 
   -0.57033E+07         0.30743E+07         0.00000E+00
    0.30743E+07        -0.21822E+08         0.00000E+00
    0.00000E+00         0.00000E+00        -0.55050E+07
 
   -0.56370E+07         0.32187E+07         0.00000E+00
    0.32187E+07        -0.21851E+08         0.00000E+00
    0.00000E+00         0.00000E+00        -0.54977E+07
 
   -0.55729E+07         0.33654E+07         0.00000E+00
    0.33654E+07        -0.21880E+08         0.00000E+00
    0.00000E+00         0.00000E+00        -0.54906E+07
 
   -0.55108E+07         0.35145E+07         0.00000E+00
    0.35145E+07        -0.21908E+08         0.00000E+00
    0.00000E+00         0.00000E+00        -0.54837E+07
 
   -0.10020E+08        -0.24052E+05         0.00000E+00
   -0.24052E+05        -0.21528E+08         0.00000E+00
    0.00000E+00         0.00000E+00        -0.63097E+07
 
   -0.99905E+07        -0.60172E+05         0.00000E+00
   -0.60172E+05        -0.21532E+08         0.00000E+00
    0.00000E+00         0.00000E+00        -0.63044E+07
 
   -0.99537E+07        -0.91119E+05         0.00000E+00
   -0.91119E+05        -0.21538E+08         0.00000E+00
    0.00000E+00         0.00000E+00        -0.62984E+07
 
   -0.99106E+07        -0.11687E+06         0.00000E+00
   -0.11687E+06        -0.21548E+08         0.00000E+00
    0.00000E+00         0.00000E+00        -0.62917E+07
 
   -0.98614E+07        -0.13743E+06         0.00000E+00
   -0.13743E+06        -0.21560E+08         0.00000E+00
    0.00000E+00         0.00000E+00        -0.62844E+07
 
   -0.98068E+07        -0.15279E+06         0.00000E+00
   -0.15279E+06        -0.21575E+08         0.00000E+00
    0.00000E+00         0.00000E+00        -0.62764E+07
 
   -0.97470E+07        -0.16298E+06         0.00000E+00
   -0.16298E+06        -0.21592E+08         0.00000E+00
    0.00000E+00         0.00000E+00        -0.62679E+07
 
   -0.96824E+07        -0.16803E+06         0.00000E+00
   -0.16803E+06        -0.21612E+08         0.00000E+00
    0.00000E+00         0.00000E+00        -0.62588E+07
 
   -0.96135E+07        -0.16800E+06         0.00000E+00
   -0.16800E+06        -0.21633E+08         0.00000E+00
    0.00000E+00         0.00000E+00        -0.62492E+07
 
   -0.95405E+07        -0.16293E+06         0.00000E+00
   -0.16293E+06        -0.21655E+08         0.00000E+00
    0.00000E+00         0.00000E+00        -0.62392E+07
 
   -0.94639E+07        -0.15289E+06         0.00000E+00
   -0.15289E+06        -0.21680E+08         0.00000E+00
    0.00000E+00         0.00000E+00        -0.62287E+07
 
   -0.93839E+07        -0.13796E+06         0.00000E+00
   -0.13796E+06        -0.21706E+08         0.00000E+00
    0.00000E+00         0.00000E+00        -0.62179E+07
 
   -0.93009E+07        -0.11820E+06         0.00000E+00
   -0.11820E+06        -0.21733E+08         0.00000E+00
    0.00000E+00         0.00000E+00        -0.62067E+07
 
   -0.92151E+07        -0.93717E+05         0.00000E+00
   -0.93717E+05        -0.21761E+08         0.00000E+00
    0.00000E+00         0.00000E+00        -0.61952E+07
 
   -0.91268E+07        -0.64582E+05         0.00000E+00
   -0.64582E+05        -0.21790E+08         0.00000E+00
    0.00000E+00         0.00000E+00        -0.61834E+07
 
   -0.90363E+07        -0.30890E+05         0.00000E+00
   -0.30890E+05        -0.21821E+08         0.00000E+00
    0.00000E+00         0.00000E+00        -0.61714E+07
 
   -0.89439E+07         0.72709E+04         0.00000E+00
    0.72709E+04        -0.21852E+08         0.00000E+00
    0.00000E+00         0.00000E+00        -0.61591E+07
 
   -0.88496E+07         0.49810E+05         0.00000E+00
    0.49810E+05        -0.21884E+08         0.00000E+00
    0.00000E+00         0.00000E+00        -0.61467E+07
 
   -0.87538E+07         0.96640E+05         0.00000E+00
    0.96640E+05        -0.21916E+08         0.00000E+00
    0.00000E+00         0.00000E+00        -0.61340E+07
 
   -0.86567E+07         0.14767E+06         0.00000E+00
    0.14767E+06        -0.21950E+08         0.00000E+00
    0.00000E+00         0.00000E+00        -0.61213E+07
 
   -0.85583E+07         0.20283E+06         0.00000E+00
    0.20283E+06        -0.21984E+08         0.00000E+00
    0.00000E+00         0.00000E+00        -0.61084E+07
 
   -0.84590E+07         0.26202E+06         0.00000E+00
    0.26202E+06        -0.22018E+08         0.00000E+00
    0.00000E+00         0.00000E+00        -0.60954E+07
 
   -0.83588E+07         0.32519E+06         0.00000E+00
    0.32519E+06        -0.22053E+08         0.00000E+00
    0.00000E+00         0.00000E+00        -0.60824E+07
 
   -0.82579E+07         0.39225E+06         0.00000E+00
    0.39225E+06        -0.22089E+08         0.00000E+00
    0.00000E+00         0.00000E+00        -0.60693E+07
 
   -0.81565E+07         0.46314E+06         0.00000E+00
    0.46314E+06        -0.22125E+08         0.00000E+00
    0.00000E+00         0.00000E+00        -0.60562E+07
 
   -0.80546E+07         0.53780E+06         0.00000E+00
    0.53780E+06        -0.22161E+08         0.00000E+00
    0.00000E+00         0.00000E+00        -0.60431E+07
 
   -0.79525E+07         0.61619E+06         0.00000E+00
    0.61619E+06        -0.22198E+08         0.00000E+00
    0.00000E+00         0.00000E+00        -0.60301E+07
 
   -0.78501E+07         0.69824E+06         0.00000E+00
    0.69824E+06        -0.22235E+08         0.00000E+00
    0.00000E+00         0.00000E+00        -0.60170E+07
 
   -0.77478E+07         0.78392E+06         0.00000E+00
    0.78392E+06        -0.22273E+08         0.00000E+00
    0.00000E+00         0.00000E+00        -0.60041E+07
 
   -0.76455E+07         0.87319E+06         0.00000E+00
    0.87319E+06        -0.22310E+08         0.00000E+00
    0.00000E+00         0.00000E+00        -0.59912E+07
 
   -0.75433E+07         0.96601E+06         0.00000E+00
    0.96601E+06        -0.22348E+08         0.00000E+00
    0.00000E+00         0.00000E+00        -0.59784E+07
 
   -0.74415E+07         0.10624E+07         0.00000E+00
    0.10624E+07        -0.22387E+08         0.00000E+00
    0.00000E+00         0.00000E+00        -0.59657E+07
 
   -0.73401E+07         0.11622E+07         0.00000E+00
    0.11622E+07        -0.22425E+08         0.00000E+00
    0.00000E+00         0.00000E+00        -0.59531E+07
 
   -0.72393E+07         0.12655E+07         0.00000E+00
    0.12655E+07        -0.22464E+08         0.00000E+00
    0.00000E+00         0.00000E+00        -0.59407E+07
 
   -0.71391E+07         0.13723E+07         0.00000E+00
    0.13723E+07        -0.22503E+08         0.00000E+00
    0.00000E+00         0.00000E+00        -0.59284E+07
 
   -0.70397E+07         0.14825E+07         0.00000E+00
    0.14825E+07        -0.22542E+08         0.00000E+00
    0.00000E+00         0.00000E+00        -0.59163E+07
 
   -0.69412E+07         0.15961E+07         0.00000E+00
    0.15961E+07        -0.22581E+08         0.00000E+00
    0.00000E+00         0.00000E+00        -0.59044E+07
 
   -0.68437E+07         0.17131E+07         0.00000E+00
    0.17131E+07        -0.22620E+08         0.00000E+00
    0.00000E+00         0.00000E+00        -0.58927E+07
 
   -0.67474E+07         0.18334E+07         0.00000E+00
    0.18334E+07        -0.22659E+08         0.00000E+00
    0.00000E+00         0.00000E+00        -0.58813E+07
 
   -0.66524E+07         0.19571E+07         0.00000E+00
    0.19571E+07        -0.22698E+08         0.00000E+00
    0.00000E+00         0.00000E+00        -0.58700E+07
 
   -0.65588E+07         0.20840E+07         0.00000E+00
    0.20840E+07        -0.22736E+08         0.00000E+00
    0.00000E+00         0.00000E+00        -0.58590E+07
 
   -0.64669E+07         0.22142E+07         0.00000E+00
    0.22142E+07        -0.22774E+08         0.00000E+00
    0.00000E+00         0.00000E+00        -0.58483E+07
 
   -0.63766E+07         0.23477E+07         0.00000E+00
    0.23477E+07        -0.22812E+08         0.00000E+00
    0.00000E+00         0.00000E+00        -0.58378E+07
 
   -0.62883E+07         0.24843E+07         0.00000E+00
    0.24843E+07        -0.22850E+08         0.00000E+00
    0.00000E+00         0.00000E+00        -0.58276E+07
 
   -0.62019E+07         0.26240E+07         0.00000E+00
    0.26240E+07        -0.22887E+08         0.00000E+00
    0.00000E+00         0.00000E+00        -0.58177E+07
 
   -0.61177E+07         0.27667E+07         0.00000E+00
    0.27667E+07        -0.22923E+08         0.00000E+00
    0.00000E+00         0.00000E+00        -0.58081E+07
 
   -0.60358E+07         0.29124E+07         0.00000E+00
    0.29124E+07        -0.22959E+08         0.00000E+00
    0.00000E+00         0.00000E+00        -0.57989E+07
 
   -0.59564E+07         0.30609E+07         0.00000E+00
    0.30609E+07        -0.22993E+08         0.00000E+00
    0.00000E+00         0.00000E+00        -0.57899E+07
 
   -0.58796E+07         0.32122E+07         0.00000E+00
    0.32122E+07        -0.23027E+08         0.00000E+00
    0.00000E+00         0.00000E+00        -0.57814E+07
 
   -0.58054E+07         0.33662E+07         0.00000E+00
    0.33662E+07        -0.23060E+08         0.00000E+00
    0.00000E+00         0.00000E+00        -0.57731E+07
 
   -0.11349E+08        -0.33659E+05         0.00000E+00
   -0.33659E+05        -0.22621E+08         0.00000E+00
    0.00000E+00         0.00000E+00        -0.67941E+07
 
   -0.11290E+08        -0.85977E+05         0.00000E+00
   -0.85977E+05        -0.22625E+08         0.00000E+00
    0.00000E+00         0.00000E+00        -0.67831E+07
 
   -0.11225E+08        -0.13189E+06         0.00000E+00
   -0.13189E+06        -0.22632E+08         0.00000E+00
    0.00000E+00         0.00000E+00        -0.67714E+07
 
   -0.11153E+08        -0.17141E+06         0.00000E+00
   -0.17141E+06        -0.22642E+08         0.00000E+00
    0.00000E+00         0.00000E+00        -0.67590E+07
 
   -0.11075E+08        -0.20459E+06         0.00000E+00
   -0.20459E+06        -0.22655E+08         0.00000E+00
    0.00000E+00         0.00000E+00        -0.67459E+07
 
   -0.10991E+08        -0.23148E+06         0.00000E+00
   -0.23148E+06        -0.22670E+08         0.00000E+00
    0.00000E+00         0.00000E+00        -0.67322E+07
 
   -0.10903E+08        -0.25219E+06         0.00000E+00
   -0.25219E+06        -0.22687E+08         0.00000E+00
    0.00000E+00         0.00000E+00        -0.67180E+07
 
   -0.10810E+08        -0.26679E+06         0.00000E+00
   -0.26679E+06        -0.22706E+08         0.00000E+00
    0.00000E+00         0.00000E+00        -0.67032E+07
 
   -0.10714E+08        -0.27540E+06         0.00000E+00
   -0.27540E+06        -0.22727E+08         0.00000E+00
    0.00000E+00         0.00000E+00        -0.66881E+07
 
   -0.10614E+08        -0.27814E+06         0.00000E+00
   -0.27814E+06        -0.22749E+08         0.00000E+00
    0.00000E+00         0.00000E+00        -0.66725E+07
 
   -0.10510E+08        -0.27516E+06         0.00000E+00
   -0.27516E+06        -0.22773E+08         0.00000E+00
    0.00000E+00         0.00000E+00        -0.66566E+07
 
   -0.10404E+08        -0.26659E+06         0.00000E+00
   -0.26659E+06        -0.22798E+08         0.00000E+00
    0.00000E+00         0.00000E+00        -0.66403E+07
 
   -0.10295E+08        -0.25259E+06         0.00000E+00
   -0.25259E+06        -0.22824E+08         0.00000E+00
    0.00000E+00         0.00000E+00        -0.66238E+07
 
   -0.10184E+08        -0.23330E+06         0.00000E+00
   -0.23330E+06        -0.22851E+08         0.00000E+00
    0.00000E+00         0.00000E+00        -0.66070E+07
 
   -0.10072E+08        -0.20887E+06         0.00000E+00
   -0.20887E+06        -0.22879E+08         0.00000E+00
    0.00000E+00         0.00000E+00        -0.65901E+07
 
   -0.99572E+07        -0.17947E+06         0.00000E+00
   -0.17947E+06        -0.22908E+08         0.00000E+00
    0.00000E+00         0.00000E+00        -0.65730E+07
 
   -0.98414E+07        -0.14523E+06         0.00000E+00
   -0.14523E+06        -0.22937E+08         0.00000E+00
    0.00000E+00         0.00000E+00        -0.65557E+07
 
   -0.97243E+07        -0.10630E+06         0.00000E+00
   -0.10630E+06        -0.22967E+08         0.00000E+00
    0.00000E+00         0.00000E+00        -0.65383E+07
 
   -0.96063E+07        -0.62830E+05         0.00000E+00
   -0.62830E+05        -0.22998E+08         0.00000E+00
    0.00000E+00         0.00000E+00        -0.65209E+07
 
   -0.94874E+07        -0.14940E+05         0.00000E+00
   -0.14940E+05        -0.23030E+08         0.00000E+00
    0.00000E+00         0.00000E+00        -0.65034E+07
 
   -0.93679E+07         0.37243E+05         0.00000E+00
    0.37243E+05        -0.23062E+08         0.00000E+00
    0.00000E+00         0.00000E+00        -0.64859E+07
 
   -0.92478E+07         0.93608E+05         0.00000E+00
    0.93608E+05        -0.23094E+08         0.00000E+00
    0.00000E+00         0.00000E+00        -0.64684E+07
 
   -0.91273E+07         0.15405E+06         0.00000E+00
    0.15405E+06        -0.23128E+08         0.00000E+00
    0.00000E+00         0.00000E+00        -0.64510E+07
 
   -0.90064E+07         0.21848E+06         0.00000E+00
    0.21848E+06        -0.23162E+08         0.00000E+00
    0.00000E+00         0.00000E+00        -0.64336E+07
 
   -0.88854E+07         0.28681E+06         0.00000E+00
    0.28681E+06        -0.23196E+08         0.00000E+00
    0.00000E+00         0.00000E+00        -0.64163E+07
 
   -0.87642E+07         0.35898E+06         0.00000E+00
    0.35898E+06        -0.23231E+08         0.00000E+00
    0.00000E+00         0.00000E+00        -0.63991E+07
 
   -0.86431E+07         0.43492E+06         0.00000E+00
    0.43492E+06        -0.23267E+08         0.00000E+00
    0.00000E+00         0.00000E+00        -0.63819E+07
 
   -0.85220E+07         0.51459E+06         0.00000E+00
    0.51459E+06        -0.23303E+08         0.00000E+00
    0.00000E+00         0.00000E+00        -0.63650E+07
 
   -0.84010E+07         0.59796E+06         0.00000E+00
    0.59796E+06        -0.23340E+08         0.00000E+00
    0.00000E+00         0.00000E+00        -0.63481E+07
 
   -0.82802E+07         0.68498E+06         0.00000E+00
    0.68498E+06        -0.23377E+08         0.00000E+00
    0.00000E+00         0.00000E+00        -0.63315E+07
 
   -0.81598E+07         0.77565E+06         0.00000E+00
    0.77565E+06        -0.23415E+08         0.00000E+00
    0.00000E+00         0.00000E+00        -0.63150E+07
 
   -0.80398E+07         0.86995E+06         0.00000E+00
    0.86995E+06        -0.23454E+08         0.00000E+00
    0.00000E+00         0.00000E+00        -0.62987E+07
 
   -0.79203E+07         0.96789E+06         0.00000E+00
    0.96789E+06        -0.23493E+08         0.00000E+00
    0.00000E+00         0.00000E+00        -0.62827E+07
 
   -0.78014E+07         0.10695E+07         0.00000E+00
    0.10695E+07        -0.23533E+08         0.00000E+00
    0.00000E+00         0.00000E+00        -0.62669E+07
 
   -0.76832E+07         0.11747E+07         0.00000E+00
    0.11747E+07        -0.23573E+08         0.00000E+00
    0.00000E+00         0.00000E+00        -0.62513E+07
 
   -0.75658E+07         0.12835E+07         0.00000E+00
    0.12835E+07        -0.23614E+08         0.00000E+00
    0.00000E+00         0.00000E+00        -0.62360E+07
 
   -0.74493E+07         0.13960E+07         0.00000E+00
    0.13960E+07        -0.23656E+08         0.00000E+00
    0.00000E+00         0.00000E+00        -0.62210E+07
 
   -0.73340E+07         0.15122E+07         0.00000E+00
    0.15122E+07        -0.23697E+08         0.00000E+00
    0.00000E+00         0.00000E+00        -0.62063E+07
 
   -0.72199E+07         0.16321E+07         0.00000E+00
    0.16321E+07        -0.23740E+08         0.00000E+00
    0.00000E+00         0.00000E+00        -0.61919E+07
 
   -0.71072E+07         0.17557E+07         0.00000E+00
    0.17557E+07        -0.23782E+08         0.00000E+00
    0.00000E+00         0.00000E+00        -0.61778E+07
 
   -0.69960E+07         0.18829E+07         0.00000E+00
    0.18829E+07        -0.23824E+08         0.00000E+00
    0.00000E+00         0.00000E+00        -0.61641E+07
 
   -0.68866E+07         0.20139E+07         0.00000E+00
    0.20139E+07        -0.23867E+08         0.00000E+00
    0.00000E+00         0.00000E+00        -0.61507E+07
 
   -0.67791E+07         0.21485E+07         0.00000E+00
    0.21485E+07        -0.23910E+08         0.00000E+00
    0.00000E+00         0.00000E+00        -0.61378E+07
 
   -0.66737E+07         0.22868E+07         0.00000E+00
    0.22868E+07        -0.23952E+08         0.00000E+00
    0.00000E+00         0.00000E+00        -0.61252E+07
 
   -0.65706E+07         0.24287E+07         0.00000E+00
    0.24287E+07        -0.23994E+08         0.00000E+00
    0.00000E+00         0.00000E+00        -0.61130E+07
 
   -0.64701E+07         0.25742E+07         0.00000E+00
    0.25742E+07        -0.24036E+08         0.00000E+00
    0.00000E+00         0.00000E+00        -0.61013E+07
 
   -0.63723E+07         0.27231E+07         0.00000E+00
    0.27231E+07        -0.24078E+08         0.00000E+00
    0.00000E+00         0.00000E+00        -0.60900E+07
 
   -0.62774E+07         0.28755E+07         0.00000E+00
    0.28755E+07        -0.24118E+08         0.00000E+00
    0.00000E+00         0.00000E+00        -0.60791E+07
 
   -0.61857E+07         0.30312E+07         0.00000E+00
    0.30312E+07        -0.24158E+08         0.00000E+00
    0.00000E+00         0.00000E+00        -0.60688E+07
 
   -0.60974E+07         0.31900E+07         0.00000E+00
    0.31900E+07        -0.24197E+08         0.00000E+00
    0.00000E+00         0.00000E+00        -0.60589E+07
 
   -0.12784E+08        -0.43794E+05         0.00000E+00
   -0.43794E+05        -0.23735E+08         0.00000E+00
    0.00000E+00         0.00000E+00        -0.73038E+07
 
   -0.12689E+08        -0.11266E+06         0.00000E+00
   -0.11266E+06        -0.23739E+08         0.00000E+00
    0.00000E+00         0.00000E+00        -0.72856E+07
 
   -0.12588E+08        -0.17356E+06         0.00000E+00
   -0.17356E+06        -0.23746E+08         0.00000E+00
    0.00000E+00         0.00000E+00        -0.72668E+07
 
   -0.12480E+08        -0.22663E+06         0.00000E+00
   -0.22663E+06        -0.23756E+08         0.00000E+00
    0.00000E+00         0.00000E+00        -0.72472E+07
 
   -0.12367E+08        -0.27197E+06         0.00000E+00
   -0.27197E+06        -0.23768E+08         0.00000E+00
    0.00000E+00         0.00000E+00        -0.72271E+07
 
   -0.12249E+08        -0.30971E+06         0.00000E+00
   -0.30971E+06        -0.23783E+08         0.00000E+00
    0.00000E+00         0.00000E+00        -0.72064E+07
 
   -0.12127E+08        -0.34003E+06         0.00000E+00
   -0.34003E+06        -0.23799E+08         0.00000E+00
    0.00000E+00         0.00000E+00        -0.71852E+07
 
   -0.12002E+08        -0.36313E+06         0.00000E+00
   -0.36313E+06        -0.23817E+08         0.00000E+00
    0.00000E+00         0.00000E+00        -0.71636E+07
 
   -0.11873E+08        -0.37922E+06         0.00000E+00
   -0.37922E+06        -0.23836E+08         0.00000E+00
    0.00000E+00         0.00000E+00        -0.71417E+07
 
   -0.11741E+08        -0.38855E+06         0.00000E+00
   -0.38855E+06        -0.23856E+08         0.00000E+00
    0.00000E+00         0.00000E+00        -0.71195E+07
 
   -0.11607E+08        -0.39135E+06         0.00000E+00
   -0.39135E+06        -0.23878E+08         0.00000E+00
    0.00000E+00         0.00000E+00        -0.70970E+07
 
   -0.11471E+08        -0.38787E+06         0.00000E+00
   -0.38787E+06        -0.23900E+08         0.00000E+00
    0.00000E+00         0.00000E+00        -0.70743E+07
 
   -0.11334E+08        -0.37838E+06         0.00000E+00
   -0.37838E+06        -0.23923E+08         0.00000E+00
    0.00000E+00         0.00000E+00        -0.70515E+07
 
   -0.11196E+08        -0.36312E+06         0.00000E+00
   -0.36312E+06        -0.23947E+08         0.00000E+00
    0.00000E+00         0.00000E+00        -0.70285E+07
 
   -0.11057E+08        -0.34234E+06         0.00000E+00
   -0.34234E+06        -0.23971E+08         0.00000E+00
    0.00000E+00         0.00000E+00        -0.70055E+07
 
   -0.10917E+08        -0.31629E+06         0.00000E+00
   -0.31629E+06        -0.23996E+08         0.00000E+00
    0.00000E+00         0.00000E+00        -0.69825E+07
 
   -0.10776E+08        -0.28521E+06         0.00000E+00
   -0.28521E+06        -0.24021E+08         0.00000E+00
    0.00000E+00         0.00000E+00        -0.69595E+07
 
   -0.10635E+08        -0.24931E+06         0.00000E+00
   -0.24931E+06        -0.24047E+08         0.00000E+00
    0.00000E+00         0.00000E+00        -0.69365E+07
 
   -0.10494E+08        -0.20881E+06         0.00000E+00
   -0.20881E+06        -0.24073E+08         0.00000E+00
    0.00000E+00         0.00000E+00        -0.69136E+07
 
   -0.10353E+08        -0.16388E+06         0.00000E+00
   -0.16388E+06        -0.24100E+08         0.00000E+00
    0.00000E+00         0.00000E+00        -0.68907E+07
 
   -0.10212E+08        -0.11470E+06         0.00000E+00
   -0.11470E+06        -0.24128E+08         0.00000E+00
    0.00000E+00         0.00000E+00        -0.68680E+07
 
   -0.10071E+08        -0.61417E+05         0.00000E+00
   -0.61417E+05        -0.24156E+08         0.00000E+00
    0.00000E+00         0.00000E+00        -0.68455E+07
 
   -0.99305E+07        -0.41727E+04         0.00000E+00
   -0.41727E+04        -0.24185E+08         0.00000E+00
    0.00000E+00         0.00000E+00        -0.68230E+07
 
   -0.97899E+07         0.56925E+05         0.00000E+00
    0.56925E+05        -0.24214E+08         0.00000E+00
    0.00000E+00         0.00000E+00        -0.68008E+07
 
   -0.96494E+07         0.12178E+06         0.00000E+00
    0.12178E+06        -0.24245E+08         0.00000E+00
    0.00000E+00         0.00000E+00        -0.67788E+07
 
   -0.95091E+07         0.19032E+06         0.00000E+00
    0.19032E+06        -0.24276E+08         0.00000E+00
    0.00000E+00         0.00000E+00        -0.67570E+07
 
   -0.93691E+07         0.26249E+06         0.00000E+00
    0.26249E+06        -0.24308E+08         0.00000E+00
    0.00000E+00         0.00000E+00        -0.67354E+07
 
   -0.92294E+07         0.33825E+06         0.00000E+00
    0.33825E+06        -0.24341E+08         0.00000E+00
    0.00000E+00         0.00000E+00        -0.67140E+07
 
   -0.90899E+07         0.41757E+06         0.00000E+00
    0.41757E+06        -0.24375E+08         0.00000E+00
    0.00000E+00         0.00000E+00        -0.66930E+07
 
   -0.89507E+07         0.50046E+06         0.00000E+00
    0.50046E+06        -0.24410E+08         0.00000E+00
    0.00000E+00         0.00000E+00        -0.66721E+07
 
   -0.88118E+07         0.58693E+06         0.00000E+00
    0.58693E+06        -0.24446E+08         0.00000E+00
    0.00000E+00         0.00000E+00        -0.66516E+07
 
   -0.86733E+07         0.67700E+06         0.00000E+00
    0.67700E+06        -0.24484E+08         0.00000E+00
    0.00000E+00         0.00000E+00        -0.66314E+07
 
   -0.85352E+07         0.77071E+06         0.00000E+00
    0.77071E+06        -0.24522E+08         0.00000E+00
    0.00000E+00         0.00000E+00        -0.66115E+07
 
   -0.83975E+07         0.86812E+06         0.00000E+00
    0.86812E+06        -0.24562E+08         0.00000E+00
    0.00000E+00         0.00000E+00        -0.65919E+07
 
   -0.82604E+07         0.96927E+06         0.00000E+00
    0.96927E+06        -0.24603E+08         0.00000E+00
    0.00000E+00         0.00000E+00        -0.65726E+07
 
   -0.81239E+07         0.10743E+07         0.00000E+00
    0.10743E+07        -0.24645E+08         0.00000E+00
    0.00000E+00         0.00000E+00        -0.65537E+07
 
   -0.79882E+07         0.11831E+07         0.00000E+00
    0.11831E+07        -0.24688E+08         0.00000E+00
    0.00000E+00         0.00000E+00        -0.65352E+07
 
   -0.78534E+07         0.12960E+07         0.00000E+00
    0.12960E+07        -0.24732E+08         0.00000E+00
    0.00000E+00         0.00000E+00        -0.65170E+07
 
   -0.77196E+07         0.14129E+07         0.00000E+00
    0.14129E+07        -0.24777E+08         0.00000E+00
    0.00000E+00         0.00000E+00        -0.64993E+07
 
   -0.75870E+07         0.15339E+07         0.00000E+00
    0.15339E+07        -0.24823E+08         0.00000E+00
    0.00000E+00         0.00000E+00        -0.64820E+07
 
   -0.74559E+07         0.16592E+07         0.00000E+00
    0.16592E+07        -0.24870E+08         0.00000E+00
    0.00000E+00         0.00000E+00        -0.64651E+07
 
   -0.73264E+07         0.17887E+07         0.00000E+00
    0.17887E+07        -0.24917E+08         0.00000E+00
    0.00000E+00         0.00000E+00        -0.64487E+07
 
   -0.71988E+07         0.19225E+07         0.00000E+00
    0.19225E+07        -0.24965E+08         0.00000E+00
    0.00000E+00         0.00000E+00        -0.64328E+07
 
   -0.70734E+07         0.20606E+07         0.00000E+00
    0.20606E+07        -0.25014E+08         0.00000E+00
    0.00000E+00         0.00000E+00        -0.64174E+07
 
   -0.69504E+07         0.22031E+07         0.00000E+00
    0.22031E+07        -0.25062E+08         0.00000E+00
    0.00000E+00         0.00000E+00        -0.64025E+07
 
   -0.68301E+07         0.23500E+07         0.00000E+00
    0.23500E+07        -0.25111E+08         0.00000E+00
    0.00000E+00         0.00000E+00        -0.63882E+07
 
   -0.67129E+07         0.25012E+07         0.00000E+00
    0.25012E+07        -0.25159E+08         0.00000E+00
    0.00000E+00         0.00000E+00        -0.63744E+07
 
   -0.65991E+07         0.26566E+07         0.00000E+00
    0.26566E+07        -0.25207E+08         0.00000E+00
    0.00000E+00         0.00000E+00        -0.63613E+07
 
   -0.64890E+07         0.28163E+07         0.00000E+00
    0.28163E+07        -0.25255E+08         0.00000E+00
    0.00000E+00         0.00000E+00        -0.63487E+07
 
   -0.63830E+07         0.29800E+07         0.00000E+00
    0.29800E+07        -0.25301E+08         0.00000E+00
    0.00000E+00         0.00000E+00        -0.63369E+07
 
   -0.14321E+08        -0.54336E+05         0.00000E+00
   -0.54336E+05        -0.24865E+08         0.00000E+00
    0.00000E+00         0.00000E+00        -0.78372E+07
 
   -0.14182E+08        -0.13943E+06         0.00000E+00
   -0.13943E+06        -0.24869E+08         0.00000E+00
    0.00000E+00         0.00000E+00        -0.78100E+07
 
   -0.14036E+08        -0.21471E+06         0.00000E+00
   -0.21471E+06        -0.24876E+08         0.00000E+00
    0.00000E+00         0.00000E+00        -0.77823E+07
 
   -0.13885E+08        -0.28016E+06         0.00000E+00
   -0.28016E+06        -0.24885E+08         0.00000E+00
    0.00000E+00         0.00000E+00        -0.77539E+07
 
   -0.13729E+08        -0.33607E+06         0.00000E+00
   -0.33607E+06        -0.24896E+08         0.00000E+00
    0.00000E+00         0.00000E+00        -0.77250E+07
 
   -0.13570E+08        -0.38277E+06         0.00000E+00
   -0.38277E+06        -0.24909E+08         0.00000E+00
    0.00000E+00         0.00000E+00        -0.76957E+07
 
   -0.13408E+08        -0.42058E+06         0.00000E+00
   -0.42058E+06        -0.24923E+08         0.00000E+00
    0.00000E+00         0.00000E+00        -0.76661E+07
 
   -0.13243E+08        -0.44988E+06         0.00000E+00
   -0.44988E+06        -0.24938E+08         0.00000E+00
    0.00000E+00         0.00000E+00        -0.76362E+07
 
   -0.13077E+08        -0.47103E+06         0.00000E+00
   -0.47103E+06        -0.24954E+08         0.00000E+00
    0.00000E+00         0.00000E+00        -0.76061E+07
 
   -0.12910E+08        -0.48444E+06         0.00000E+00
   -0.48444E+06        -0.24970E+08         0.00000E+00
    0.00000E+00         0.00000E+00        -0.75759E+07
 
   -0.12742E+08        -0.49054E+06         0.00000E+00
   -0.49054E+06        -0.24986E+08         0.00000E+00
    0.00000E+00         0.00000E+00        -0.75456E+07
 
   -0.12574E+08        -0.48977E+06         0.00000E+00
   -0.48977E+06        -0.25003E+08         0.00000E+00
    0.00000E+00         0.00000E+00        -0.75154E+07
 
   -0.12406E+08        -0.48254E+06         0.00000E+00
   -0.48254E+06        -0.25020E+08         0.00000E+00
    0.00000E+00         0.00000E+00        -0.74852E+07
 
   -0.12238E+08        -0.46927E+06         0.00000E+00
   -0.46927E+06        -0.25037E+08         0.00000E+00
    0.00000E+00         0.00000E+00        -0.74551E+07
 
   -0.12071E+08        -0.45037E+06         0.00000E+00
   -0.45037E+06        -0.25054E+08         0.00000E+00
    0.00000E+00         0.00000E+00        -0.74251E+07
 
   -0.11905E+08        -0.42619E+06         0.00000E+00
   -0.42619E+06        -0.25071E+08         0.00000E+00
    0.00000E+00         0.00000E+00        -0.73953E+07
 
   -0.11740E+08        -0.39709E+06         0.00000E+00
   -0.39709E+06        -0.25089E+08         0.00000E+00
    0.00000E+00         0.00000E+00        -0.73658E+07
 
   -0.11576E+08        -0.36338E+06         0.00000E+00
   -0.36338E+06        -0.25107E+08         0.00000E+00
    0.00000E+00         0.00000E+00        -0.73365E+07
 
   -0.11413E+08        -0.32533E+06         0.00000E+00
   -0.32533E+06        -0.25125E+08         0.00000E+00
    0.00000E+00         0.00000E+00        -0.73075E+07
 
   -0.11250E+08        -0.28319E+06         0.00000E+00
   -0.28319E+06        -0.25143E+08         0.00000E+00
    0.00000E+00         0.00000E+00        -0.72788E+07
 
   -0.11089E+08        -0.23718E+06         0.00000E+00
   -0.23718E+06        -0.25163E+08         0.00000E+00
    0.00000E+00         0.00000E+00        -0.72503E+07
 
   -0.10928E+08        -0.18749E+06         0.00000E+00
   -0.18749E+06        -0.25183E+08         0.00000E+00
    0.00000E+00         0.00000E+00        -0.72222E+07
 
   -0.10769E+08        -0.13426E+06         0.00000E+00
   -0.13426E+06        -0.25204E+08         0.00000E+00
    0.00000E+00         0.00000E+00        -0.71945E+07
 
   -0.10610E+08        -0.77614E+05         0.00000E+00
   -0.77614E+05        -0.25226E+08         0.00000E+00
    0.00000E+00         0.00000E+00        -0.71670E+07
 
   -0.10451E+08        -0.17656E+05         0.00000E+00
   -0.17656E+05        -0.25249E+08         0.00000E+00
    0.00000E+00         0.00000E+00        -0.71400E+07
 
   -0.10293E+08         0.45549E+05         0.00000E+00
    0.45549E+05        -0.25273E+08         0.00000E+00
    0.00000E+00         0.00000E+00        -0.71132E+07
 
   -0.10136E+08         0.11196E+06         0.00000E+00
    0.11196E+06        -0.25298E+08         0.00000E+00
    0.00000E+00         0.00000E+00        -0.70869E+07
 
   -0.99788E+07         0.18156E+06         0.00000E+00
    0.18156E+06        -0.25326E+08         0.00000E+00
    0.00000E+00         0.00000E+00        -0.70609E+07
 
   -0.98219E+07         0.25436E+06         0.00000E+00
    0.25436E+06        -0.25354E+08         0.00000E+00
    0.00000E+00         0.00000E+00        -0.70352E+07
 
   -0.96653E+07         0.33039E+06         0.00000E+00
    0.33039E+06        -0.25385E+08         0.00000E+00
    0.00000E+00         0.00000E+00        -0.70100E+07
 
   -0.95087E+07         0.40970E+06         0.00000E+00
    0.40970E+06        -0.25417E+08         0.00000E+00
    0.00000E+00         0.00000E+00        -0.69851E+07
 
   -0.93523E+07         0.49238E+06         0.00000E+00
    0.49238E+06        -0.25451E+08         0.00000E+00
    0.00000E+00         0.00000E+00        -0.69606E+07
 
   -0.91958E+07         0.57852E+06         0.00000E+00
    0.57852E+06        -0.25486E+08         0.00000E+00
    0.00000E+00         0.00000E+00        -0.69365E+07
 
   -0.90394E+07         0.66825E+06         0.00000E+00
    0.66825E+06        -0.25524E+08         0.00000E+00
    0.00000E+00         0.00000E+00        -0.69127E+07
 
   -0.88830E+07         0.76170E+06         0.00000E+00
    0.76170E+06        -0.25564E+08         0.00000E+00
    0.00000E+00         0.00000E+00        -0.68894E+07
 
   -0.87266E+07         0.85902E+06         0.00000E+00
    0.85902E+06        -0.25606E+08         0.00000E+00
    0.00000E+00         0.00000E+00        -0.68665E+07
 
   -0.85705E+07         0.96040E+06         0.00000E+00
    0.96040E+06        -0.25650E+08         0.00000E+00
    0.00000E+00         0.00000E+00        -0.68441E+07
 
   -0.84145E+07         0.10660E+07         0.00000E+00
    0.10660E+07        -0.25696E+08         0.00000E+00
    0.00000E+00         0.00000E+00        -0.68221E+07
 
   -0.82590E+07         0.11761E+07         0.00000E+00
    0.11761E+07        -0.25744E+08         0.00000E+00
    0.00000E+00         0.00000E+00        -0.68006E+07
 
   -0.81040E+07         0.12907E+07         0.00000E+00
    0.12907E+07        -0.25794E+08         0.00000E+00
    0.00000E+00         0.00000E+00        -0.67795E+07
 
   -0.79498E+07         0.14102E+07         0.00000E+00
    0.14102E+07        -0.25845E+08         0.00000E+00
    0.00000E+00         0.00000E+00        -0.67590E+07
 
   -0.77968E+07         0.15347E+07         0.00000E+00
    0.15347E+07        -0.25898E+08         0.00000E+00
    0.00000E+00         0.00000E+00        -0.67390E+07
 
   -0.76452E+07         0.16644E+07         0.00000E+00
    0.16644E+07        -0.25953E+08         0.00000E+00
    0.00000E+00         0.00000E+00        -0.67196E+07
 
   -0.74953E+07         0.17994E+07         0.00000E+00
    0.17994E+07        -0.26009E+08         0.00000E+00
    0.00000E+00         0.00000E+00        -0.67008E+07
 
   -0.73477E+07         0.19398E+07         0.00000E+00
    0.19398E+07        -0.26065E+08         0.00000E+00
    0.00000E+00         0.00000E+00        -0.66826E+07
 
   -0.72026E+07         0.20858E+07         0.00000E+00
    0.20858E+07        -0.26123E+08         0.00000E+00
    0.00000E+00         0.00000E+00        -0.66651E+07
 
   -0.70607E+07         0.22374E+07         0.00000E+00
    0.22374E+07        -0.26181E+08         0.00000E+00
    0.00000E+00         0.00000E+00        -0.66482E+07
 
   -0.69223E+07         0.23947E+07         0.00000E+00
    0.23947E+07        -0.26238E+08         0.00000E+00
    0.00000E+00         0.00000E+00        -0.66321E+07
 
   -0.67882E+07         0.25576E+07         0.00000E+00
    0.25576E+07        -0.26296E+08         0.00000E+00
    0.00000E+00         0.00000E+00        -0.66168E+07
 
   -0.66587E+07         0.27259E+07         0.00000E+00
    0.27259E+07        -0.26353E+08         0.00000E+00
    0.00000E+00         0.00000E+00        -0.66023E+07
 
   -0.15954E+08        -0.65338E+05         0.00000E+00
   -0.65338E+05        -0.26005E+08         0.00000E+00
    0.00000E+00         0.00000E+00        -0.83919E+07
 
   -0.15758E+08        -0.16578E+06         0.00000E+00
   -0.16578E+06        -0.26010E+08         0.00000E+00
    0.00000E+00         0.00000E+00        -0.83535E+07
 
   -0.15556E+08        -0.25299E+06         0.00000E+00
   -0.25299E+06        -0.26016E+08         0.00000E+00
    0.00000E+00         0.00000E+00        -0.83144E+07
 
   -0.15351E+08        -0.32803E+06         0.00000E+00
   -0.32803E+06        -0.26024E+08         0.00000E+00
    0.00000E+00         0.00000E+00        -0.82749E+07
 
   -0.15143E+08        -0.39131E+06         0.00000E+00
   -0.39131E+06        -0.26033E+08         0.00000E+00
    0.00000E+00         0.00000E+00        -0.82351E+07
 
   -0.14933E+08        -0.44323E+06         0.00000E+00
   -0.44323E+06        -0.26042E+08         0.00000E+00
    0.00000E+00         0.00000E+00        -0.81951E+07
 
   -0.14723E+08        -0.48434E+06         0.00000E+00
   -0.48434E+06        -0.26052E+08         0.00000E+00
    0.00000E+00         0.00000E+00        -0.81550E+07
 
   -0.14513E+08        -0.51530E+06         0.00000E+00
   -0.51530E+06        -0.26062E+08         0.00000E+00
    0.00000E+00         0.00000E+00        -0.81149E+07
 
   -0.14304E+08        -0.53687E+06         0.00000E+00
   -0.53687E+06        -0.26070E+08         0.00000E+00
    0.00000E+00         0.00000E+00        -0.80750E+07
 
   -0.14098E+08        -0.54983E+06         0.00000E+00
   -0.54983E+06        -0.26078E+08         0.00000E+00
    0.00000E+00         0.00000E+00        -0.80352E+07
 
   -0.13893E+08        -0.55498E+06         0.00000E+00
   -0.55498E+06        -0.26086E+08         0.00000E+00
    0.00000E+00         0.00000E+00        -0.79957E+07
 
   -0.13691E+08        -0.55305E+06         0.00000E+00
   -0.55305E+06        -0.26092E+08         0.00000E+00
    0.00000E+00         0.00000E+00        -0.79566E+07
 
   -0.13492E+08        -0.54473E+06         0.00000E+00
   -0.54473E+06        -0.26098E+08         0.00000E+00
    0.00000E+00         0.00000E+00        -0.79179E+07
 
   -0.13296E+08        -0.53066E+06         0.00000E+00
   -0.53066E+06        -0.26103E+08         0.00000E+00
    0.00000E+00         0.00000E+00        -0.78797E+07
 
   -0.13102E+08        -0.51140E+06         0.00000E+00
   -0.51140E+06        -0.26108E+08         0.00000E+00
    0.00000E+00         0.00000E+00        -0.78420E+07
 
   -0.12912E+08        -0.48744E+06         0.00000E+00
   -0.48744E+06        -0.26112E+08         0.00000E+00
    0.00000E+00         0.00000E+00        -0.78048E+07
 
   -0.12724E+08        -0.45922E+06         0.00000E+00
   -0.45922E+06        -0.26117E+08         0.00000E+00
    0.00000E+00         0.00000E+00        -0.77682E+07
 
   -0.12539E+08        -0.42711E+06         0.00000E+00
   -0.42711E+06        -0.26122E+08         0.00000E+00
    0.00000E+00         0.00000E+00        -0.77322E+07
 
   -0.12356E+08        -0.39144E+06         0.00000E+00
   -0.39144E+06        -0.26127E+08         0.00000E+00
    0.00000E+00         0.00000E+00        -0.76967E+07
 
   -0.12175E+08        -0.35248E+06         0.00000E+00
   -0.35248E+06        -0.26133E+08         0.00000E+00
    0.00000E+00         0.00000E+00        -0.76617E+07
 
   -0.11997E+08        -0.31045E+06         0.00000E+00
   -0.31045E+06        -0.26140E+08         0.00000E+00
    0.00000E+00         0.00000E+00        -0.76274E+07
 
   -0.11820E+08        -0.26553E+06         0.00000E+00
   -0.26553E+06        -0.26148E+08         0.00000E+00
    0.00000E+00         0.00000E+00        -0.75936E+07
 
   -0.11644E+08        -0.21788E+06         0.00000E+00
   -0.21788E+06        -0.26157E+08         0.00000E+00
    0.00000E+00         0.00000E+00        -0.75603E+07
 
   -0.11470E+08        -0.16759E+06         0.00000E+00
   -0.16759E+06        -0.26168E+08         0.00000E+00
    0.00000E+00         0.00000E+00        -0.75276E+07
 
   -0.11297E+08        -0.11474E+06         0.00000E+00
   -0.11474E+06        -0.26180E+08         0.00000E+00
    0.00000E+00         0.00000E+00        -0.74954E+07
 
   -0.11124E+08        -0.59379E+05         0.00000E+00
   -0.59379E+05        -0.26194E+08         0.00000E+00
    0.00000E+00         0.00000E+00        -0.74637E+07
 
   -0.10952E+08        -0.15176E+04         0.00000E+00
   -0.15176E+04        -0.26210E+08         0.00000E+00
    0.00000E+00         0.00000E+00        -0.74325E+07
 
   -0.10780E+08         0.58860E+05         0.00000E+00
    0.58860E+05        -0.26229E+08         0.00000E+00
    0.00000E+00         0.00000E+00        -0.74018E+07
 
   -0.10609E+08         0.12180E+06         0.00000E+00
    0.12180E+06        -0.26249E+08         0.00000E+00
    0.00000E+00         0.00000E+00        -0.73715E+07
 
   -0.10437E+08         0.18736E+06         0.00000E+00
    0.18736E+06        -0.26272E+08         0.00000E+00
    0.00000E+00         0.00000E+00        -0.73418E+07
 
   -0.10265E+08         0.25566E+06         0.00000E+00
    0.25566E+06        -0.26298E+08         0.00000E+00
    0.00000E+00         0.00000E+00        -0.73125E+07
 
   -0.10092E+08         0.32682E+06         0.00000E+00
    0.32682E+06        -0.26326E+08         0.00000E+00
    0.00000E+00         0.00000E+00        -0.72836E+07
 
   -0.99185E+07         0.40099E+06         0.00000E+00
    0.40099E+06        -0.26357E+08         0.00000E+00
    0.00000E+00         0.00000E+00        -0.72552E+07
 
   -0.97444E+07         0.47838E+06         0.00000E+00
    0.47838E+06        -0.26391E+08         0.00000E+00
    0.00000E+00         0.00000E+00        -0.72271E+07
 
   -0.95693E+07         0.55919E+06         0.00000E+00
    0.55919E+06        -0.26429E+08         0.00000E+00
    0.00000E+00         0.00000E+00        -0.71996E+07
 
   -0.93932E+07         0.64368E+06         0.00000E+00
    0.64368E+06        -0.26469E+08         0.00000E+00
    0.00000E+00         0.00000E+00        -0.71724E+07
 
   -0.92160E+07         0.73214E+06         0.00000E+00
    0.73214E+06        -0.26513E+08         0.00000E+00
    0.00000E+00         0.00000E+00        -0.71457E+07
 
   -0.90378E+07         0.82490E+06         0.00000E+00
    0.82490E+06        -0.26559E+08         0.00000E+00
    0.00000E+00         0.00000E+00        -0.71194E+07
 
   -0.88586E+07         0.92230E+06         0.00000E+00
    0.92230E+06        -0.26610E+08         0.00000E+00
    0.00000E+00         0.00000E+00        -0.70936E+07
 
   -0.86785E+07         0.10247E+07         0.00000E+00
    0.10247E+07        -0.26663E+08         0.00000E+00
    0.00000E+00         0.00000E+00        -0.70683E+07
 
   -0.84978E+07         0.11326E+07         0.00000E+00
    0.11326E+07        -0.26720E+08         0.00000E+00
    0.00000E+00         0.00000E+00        -0.70435E+07
 
   -0.83167E+07         0.12464E+07         0.00000E+00
    0.12464E+07        -0.26780E+08         0.00000E+00
    0.00000E+00         0.00000E+00        -0.70192E+07
 
   -0.81356E+07         0.13665E+07         0.00000E+00
    0.13665E+07        -0.26842E+08         0.00000E+00
    0.00000E+00         0.00000E+00        -0.69956E+07
 
   -0.79551E+07         0.14933E+07         0.00000E+00
    0.14933E+07        -0.26908E+08         0.00000E+00
    0.00000E+00         0.00000E+00        -0.69725E+07
 
   -0.77758E+07         0.16271E+07         0.00000E+00
    0.16271E+07        -0.26975E+08         0.00000E+00
    0.00000E+00         0.00000E+00        -0.69502E+07
 
   -0.75983E+07         0.17684E+07         0.00000E+00
    0.17684E+07        -0.27045E+08         0.00000E+00
    0.00000E+00         0.00000E+00        -0.69286E+07
 
   -0.74233E+07         0.19172E+07         0.00000E+00
    0.19172E+07        -0.27115E+08         0.00000E+00
    0.00000E+00         0.00000E+00        -0.69077E+07
 
   -0.72516E+07         0.20736E+07         0.00000E+00
    0.20736E+07        -0.27187E+08         0.00000E+00
    0.00000E+00         0.00000E+00        -0.68876E+07
 
   -0.70837E+07         0.22379E+07         0.00000E+00
    0.22379E+07        -0.27258E+08         0.00000E+00
    0.00000E+00         0.00000E+00        -0.68684E+07
 
   -0.69213E+07         0.24106E+07         0.00000E+00
    0.24106E+07        -0.27331E+08         0.00000E+00
    0.00000E+00         0.00000E+00        -0.68504E+07
 
   -0.17671E+08        -0.77125E+05         0.00000E+00
   -0.77125E+05        -0.27152E+08         0.00000E+00
    0.00000E+00         0.00000E+00        -0.89647E+07
 
   -0.17400E+08        -0.18883E+06         0.00000E+00
   -0.18883E+06        -0.27154E+08         0.00000E+00
    0.00000E+00         0.00000E+00        -0.89108E+07
 
   -0.17126E+08        -0.28541E+06         0.00000E+00
   -0.28541E+06        -0.27160E+08         0.00000E+00
    0.00000E+00         0.00000E+00        -0.88573E+07
 
   -0.16851E+08        -0.36507E+06         0.00000E+00
   -0.36507E+06        -0.27167E+08         0.00000E+00
    0.00000E+00         0.00000E+00        -0.88035E+07
 
   -0.16576E+08        -0.42829E+06         0.00000E+00
   -0.42829E+06        -0.27172E+08         0.00000E+00
    0.00000E+00         0.00000E+00        -0.87495E+07
 
   -0.16303E+08        -0.47653E+06         0.00000E+00
   -0.47653E+06        -0.27175E+08         0.00000E+00
    0.00000E+00         0.00000E+00        -0.86957E+07
 
   -0.16036E+08        -0.51160E+06         0.00000E+00
   -0.51160E+06        -0.27175E+08         0.00000E+00
    0.00000E+00         0.00000E+00        -0.86422E+07
 
   -0.15775E+08        -0.53528E+06         0.00000E+00
   -0.53528E+06        -0.27172E+08         0.00000E+00
    0.00000E+00         0.00000E+00        -0.85894E+07
 
   -0.15521E+08        -0.54921E+06         0.00000E+00
   -0.54921E+06        -0.27166E+08         0.00000E+00
    0.00000E+00         0.00000E+00        -0.85373E+07
 
   -0.15274E+08        -0.55486E+06         0.00000E+00
   -0.55486E+06        -0.27158E+08         0.00000E+00
    0.00000E+00         0.00000E+00        -0.84862E+07
 
   -0.15033E+08        -0.55346E+06         0.00000E+00
   -0.55346E+06        -0.27147E+08         0.00000E+00
    0.00000E+00         0.00000E+00        -0.84361E+07
 
   -0.14800E+08        -0.54606E+06         0.00000E+00
   -0.54606E+06        -0.27135E+08         0.00000E+00
    0.00000E+00         0.00000E+00        -0.83871E+07
 
   -0.14573E+08        -0.53354E+06         0.00000E+00
   -0.53354E+06        -0.27122E+08         0.00000E+00
    0.00000E+00         0.00000E+00        -0.83391E+07
 
   -0.14353E+08        -0.51663E+06         0.00000E+00
   -0.51663E+06        -0.27108E+08         0.00000E+00
    0.00000E+00         0.00000E+00        -0.82922E+07
 
   -0.14138E+08        -0.49592E+06         0.00000E+00
   -0.49592E+06        -0.27094E+08         0.00000E+00
    0.00000E+00         0.00000E+00        -0.82464E+07
 
   -0.13928E+08        -0.47192E+06         0.00000E+00
   -0.47192E+06        -0.27080E+08         0.00000E+00
    0.00000E+00         0.00000E+00        -0.82016E+07
 
   -0.13723E+08        -0.44503E+06         0.00000E+00
   -0.44503E+06        -0.27067E+08         0.00000E+00
    0.00000E+00         0.00000E+00        -0.81579E+07
 
   -0.13522E+08        -0.41557E+06         0.00000E+00
   -0.41557E+06        -0.27054E+08         0.00000E+00
    0.00000E+00         0.00000E+00        -0.81151E+07
 
   -0.13325E+08        -0.38382E+06         0.00000E+00
   -0.38382E+06        -0.27042E+08         0.00000E+00
    0.00000E+00         0.00000E+00        -0.80733E+07
 
   -0.13131E+08        -0.34999E+06         0.00000E+00
   -0.34999E+06        -0.27031E+08         0.00000E+00
    0.00000E+00         0.00000E+00        -0.80324E+07
 
   -0.12940E+08        -0.31423E+06         0.00000E+00
   -0.31423E+06        -0.27022E+08         0.00000E+00
    0.00000E+00         0.00000E+00        -0.79923E+07
 
   -0.12751E+08        -0.27669E+06         0.00000E+00
   -0.27669E+06        -0.27014E+08         0.00000E+00
    0.00000E+00         0.00000E+00        -0.79531E+07
 
   -0.12565E+08        -0.23745E+06         0.00000E+00
   -0.23745E+06        -0.27009E+08         0.00000E+00
    0.00000E+00         0.00000E+00        -0.79147E+07
 
   -0.12380E+08        -0.19656E+06         0.00000E+00
   -0.19656E+06        -0.27006E+08         0.00000E+00
    0.00000E+00         0.00000E+00        -0.78771E+07
 
   -0.12196E+08        -0.15406E+06         0.00000E+00
   -0.15406E+06        -0.27005E+08         0.00000E+00
    0.00000E+00         0.00000E+00        -0.78401E+07
 
   -0.12013E+08        -0.10996E+06         0.00000E+00
   -0.10996E+06        -0.27007E+08         0.00000E+00
    0.00000E+00         0.00000E+00        -0.78039E+07
 
   -0.11830E+08        -0.64239E+05         0.00000E+00
   -0.64239E+05        -0.27011E+08         0.00000E+00
    0.00000E+00         0.00000E+00        -0.77682E+07
 
   -0.11648E+08        -0.16846E+05         0.00000E+00
   -0.16846E+05        -0.27019E+08         0.00000E+00
    0.00000E+00         0.00000E+00        -0.77332E+07
 
   -0.11465E+08         0.32284E+05         0.00000E+00
    0.32284E+05        -0.27029E+08         0.00000E+00
    0.00000E+00         0.00000E+00        -0.76988E+07
 
   -0.11281E+08         0.83245E+05         0.00000E+00
    0.83245E+05        -0.27043E+08         0.00000E+00
    0.00000E+00         0.00000E+00        -0.76648E+07
 
   -0.11097E+08         0.13616E+06         0.00000E+00
    0.13616E+06        -0.27060E+08         0.00000E+00
    0.00000E+00         0.00000E+00        -0.76314E+07
 
   -0.10911E+08         0.19117E+06         0.00000E+00
    0.19117E+06        -0.27081E+08         0.00000E+00
    0.00000E+00         0.00000E+00        -0.75984E+07
 
   -0.10724E+08         0.24847E+06         0.00000E+00
    0.24847E+06        -0.27106E+08         0.00000E+00
    0.00000E+00         0.00000E+00        -0.75659E+07
 
   -0.10535E+08         0.30826E+06         0.00000E+00
    0.30826E+06        -0.27134E+08         0.00000E+00
    0.00000E+00         0.00000E+00        -0.75338E+07
 
   -0.10343E+08         0.37081E+06         0.00000E+00
    0.37081E+06        -0.27167E+08         0.00000E+00
    0.00000E+00         0.00000E+00        -0.75020E+07
 
   -0.10149E+08         0.43642E+06         0.00000E+00
    0.43642E+06        -0.27204E+08         0.00000E+00
    0.00000E+00         0.00000E+00        -0.74706E+07
 
   -0.99524E+07         0.50543E+06         0.00000E+00
    0.50543E+06        -0.27245E+08         0.00000E+00
    0.00000E+00         0.00000E+00        -0.74396E+07
 
   -0.97525E+07         0.57827E+06         0.00000E+00
    0.57827E+06        -0.27292E+08         0.00000E+00
    0.00000E+00         0.00000E+00        -0.74088E+07
 
   -0.95494E+07         0.65543E+06         0.00000E+00
    0.65543E+06        -0.27343E+08         0.00000E+00
    0.00000E+00         0.00000E+00        -0.73784E+07
 
   -0.93429E+07         0.73745E+06         0.00000E+00
    0.73745E+06        -0.27399E+08         0.00000E+00
    0.00000E+00         0.00000E+00        -0.73483E+07
 
   -0.91330E+07         0.82501E+06         0.00000E+00
    0.82501E+06        -0.27460E+08         0.00000E+00
    0.00000E+00         0.00000E+00        -0.73185E+07
 
   -0.89196E+07         0.91885E+06         0.00000E+00
    0.91885E+06        -0.27526E+08         0.00000E+00
    0.00000E+00         0.00000E+00        -0.72891E+07
 
   -0.87030E+07         0.10198E+07         0.00000E+00
    0.10198E+07        -0.27598E+08         0.00000E+00
    0.00000E+00         0.00000E+00        -0.72601E+07
 
   -0.84835E+07         0.11289E+07         0.00000E+00
    0.11289E+07        -0.27674E+08         0.00000E+00
    0.00000E+00         0.00000E+00        -0.72316E+07
 
   -0.82620E+07         0.12472E+07         0.00000E+00
    0.12472E+07        -0.27756E+08         0.00000E+00
    0.00000E+00         0.00000E+00        -0.72036E+07
 
   -0.80395E+07         0.13757E+07         0.00000E+00
    0.13757E+07        -0.27842E+08         0.00000E+00
    0.00000E+00         0.00000E+00        -0.71764E+07
 
   -0.78175E+07         0.15155E+07         0.00000E+00
    0.15155E+07        -0.27932E+08         0.00000E+00
    0.00000E+00         0.00000E+00        -0.71500E+07
 
   -0.75978E+07         0.16672E+07         0.00000E+00
    0.16672E+07        -0.28025E+08         0.00000E+00
    0.00000E+00         0.00000E+00        -0.71246E+07
 
   -0.73821E+07         0.18306E+07         0.00000E+00
    0.18306E+07        -0.28119E+08         0.00000E+00
    0.00000E+00         0.00000E+00        -0.71002E+07
 
   -0.71695E+07         0.20037E+07         0.00000E+00
    0.20037E+07        -0.28210E+08         0.00000E+00
    0.00000E+00         0.00000E+00        -0.70759E+07
 
   -0.19458E+08        -0.91978E+05         0.00000E+00
   -0.91978E+05        -0.28296E+08         0.00000E+00
    0.00000E+00         0.00000E+00        -0.95507E+07
 
   -0.19076E+08        -0.21759E+06         0.00000E+00
   -0.21759E+06        -0.28313E+08         0.00000E+00
    0.00000E+00         0.00000E+00        -0.94776E+07
 
   -0.18689E+08        -0.30600E+06         0.00000E+00
   -0.30600E+06        -0.28317E+08         0.00000E+00
    0.00000E+00         0.00000E+00        -0.94013E+07
 
   -0.18313E+08        -0.36689E+06         0.00000E+00
   -0.36689E+06        -0.28311E+08         0.00000E+00
    0.00000E+00         0.00000E+00        -0.93248E+07
 
   -0.17954E+08        -0.40749E+06         0.00000E+00
   -0.40749E+06        -0.28296E+08         0.00000E+00
    0.00000E+00         0.00000E+00        -0.92498E+07
 
   -0.17612E+08        -0.43305E+06         0.00000E+00
   -0.43305E+06        -0.28273E+08         0.00000E+00
    0.00000E+00         0.00000E+00        -0.91769E+07
 
   -0.17287E+08        -0.44740E+06         0.00000E+00
   -0.44740E+06        -0.28245E+08         0.00000E+00
    0.00000E+00         0.00000E+00        -0.91064E+07
 
   -0.16980E+08        -0.45326E+06         0.00000E+00
   -0.45326E+06        -0.28213E+08         0.00000E+00
    0.00000E+00         0.00000E+00        -0.90384E+07
 
   -0.16687E+08        -0.45266E+06         0.00000E+00
   -0.45266E+06        -0.28177E+08         0.00000E+00
    0.00000E+00         0.00000E+00        -0.89728E+07
 
   -0.16409E+08        -0.44706E+06         0.00000E+00
   -0.44706E+06        -0.28139E+08         0.00000E+00
    0.00000E+00         0.00000E+00        -0.89096E+07
 
   -0.16143E+08        -0.43755E+06         0.00000E+00
   -0.43755E+06        -0.28100E+08         0.00000E+00
    0.00000E+00         0.00000E+00        -0.88486E+07
 
   -0.15888E+08        -0.42493E+06         0.00000E+00
   -0.42493E+06        -0.28061E+08         0.00000E+00
    0.00000E+00         0.00000E+00        -0.87898E+07
 
   -0.15643E+08        -0.40983E+06         0.00000E+00
   -0.40983E+06        -0.28021E+08         0.00000E+00
    0.00000E+00         0.00000E+00        -0.87329E+07
 
   -0.15407E+08        -0.39269E+06         0.00000E+00
   -0.39269E+06        -0.27983E+08         0.00000E+00
    0.00000E+00         0.00000E+00        -0.86780E+07
 
   -0.15179E+08        -0.37388E+06         0.00000E+00
   -0.37388E+06        -0.27945E+08         0.00000E+00
    0.00000E+00         0.00000E+00        -0.86249E+07
 
   -0.14959E+08        -0.35364E+06         0.00000E+00
   -0.35364E+06        -0.27908E+08         0.00000E+00
    0.00000E+00         0.00000E+00        -0.85734E+07
 
   -0.14744E+08        -0.33220E+06         0.00000E+00
   -0.33220E+06        -0.27874E+08         0.00000E+00
    0.00000E+00         0.00000E+00        -0.85234E+07
 
   -0.14534E+08        -0.30970E+06         0.00000E+00
   -0.30970E+06        -0.27841E+08         0.00000E+00
    0.00000E+00         0.00000E+00        -0.84750E+07
 
   -0.14329E+08        -0.28626E+06         0.00000E+00
   -0.28626E+06        -0.27810E+08         0.00000E+00
    0.00000E+00         0.00000E+00        -0.84279E+07
 
   -0.14129E+08        -0.26196E+06         0.00000E+00
   -0.26196E+06        -0.27782E+08         0.00000E+00
    0.00000E+00         0.00000E+00        -0.83821E+07
 
   -0.13931E+08        -0.23686E+06         0.00000E+00
   -0.23686E+06        -0.27756E+08         0.00000E+00
    0.00000E+00         0.00000E+00        -0.83374E+07
 
   -0.13736E+08        -0.21100E+06         0.00000E+00
   -0.21100E+06        -0.27733E+08         0.00000E+00
    0.00000E+00         0.00000E+00        -0.82939E+07
 
   -0.13544E+08        -0.18441E+06         0.00000E+00
   -0.18441E+06        -0.27714E+08         0.00000E+00
    0.00000E+00         0.00000E+00        -0.82514E+07
 
   -0.13353E+08        -0.15707E+06         0.00000E+00
   -0.15707E+06        -0.27697E+08         0.00000E+00
    0.00000E+00         0.00000E+00        -0.82099E+07
 
   -0.13163E+08        -0.12899E+06         0.00000E+00
   -0.12899E+06        -0.27683E+08         0.00000E+00
    0.00000E+00         0.00000E+00        -0.81693E+07
 
   -0.12974E+08        -0.10014E+06         0.00000E+00
   -0.10014E+06        -0.27673E+08         0.00000E+00
    0.00000E+00         0.00000E+00        -0.81294E+07
 
   -0.12785E+08        -0.70490E+05         0.00000E+00
   -0.70490E+05        -0.27667E+08         0.00000E+00
    0.00000E+00         0.00000E+00        -0.80904E+07
 
   -0.12596E+08        -0.39977E+05         0.00000E+00
   -0.39977E+05        -0.27664E+08         0.00000E+00
    0.00000E+00         0.00000E+00        -0.80520E+07
 
   -0.12407E+08        -0.85421E+04         0.00000E+00
   -0.85421E+04        -0.27664E+08         0.00000E+00
    0.00000E+00         0.00000E+00        -0.80142E+07
 
   -0.12216E+08         0.23897E+05         0.00000E+00
    0.23897E+05        -0.27669E+08         0.00000E+00
    0.00000E+00         0.00000E+00        -0.79771E+07
 
   -0.12024E+08         0.57437E+05         0.00000E+00
    0.57437E+05        -0.27678E+08         0.00000E+00
    0.00000E+00         0.00000E+00        -0.79404E+07
 
   -0.11829E+08         0.92198E+05         0.00000E+00
    0.92198E+05        -0.27691E+08         0.00000E+00
    0.00000E+00         0.00000E+00        -0.79041E+07
 
   -0.11632E+08         0.12832E+06         0.00000E+00
    0.12832E+06        -0.27709E+08         0.00000E+00
    0.00000E+00         0.00000E+00        -0.78683E+07
 
   -0.11432E+08         0.16597E+06         0.00000E+00
    0.16597E+06        -0.27732E+08         0.00000E+00
    0.00000E+00         0.00000E+00        -0.78328E+07
 
   -0.11229E+08         0.20536E+06         0.00000E+00
    0.20536E+06        -0.27759E+08         0.00000E+00
    0.00000E+00         0.00000E+00        -0.77976E+07
 
   -0.11021E+08         0.24672E+06         0.00000E+00
    0.24672E+06        -0.27791E+08         0.00000E+00
    0.00000E+00         0.00000E+00        -0.77625E+07
 
   -0.10809E+08         0.29034E+06         0.00000E+00
    0.29034E+06        -0.27829E+08         0.00000E+00
    0.00000E+00         0.00000E+00        -0.77277E+07
 
   -0.10592E+08         0.33658E+06         0.00000E+00
    0.33658E+06        -0.27872E+08         0.00000E+00
    0.00000E+00         0.00000E+00        -0.76929E+07
 
   -0.10369E+08         0.38587E+06         0.00000E+00
    0.38587E+06        -0.27922E+08         0.00000E+00
    0.00000E+00         0.00000E+00        -0.76581E+07
 
   -0.10139E+08         0.43874E+06         0.00000E+00
    0.43874E+06        -0.27978E+08         0.00000E+00
    0.00000E+00         0.00000E+00        -0.76233E+07
 
   -0.99023E+07         0.49584E+06         0.00000E+00
    0.49584E+06        -0.28040E+08         0.00000E+00
    0.00000E+00         0.00000E+00        -0.75885E+07
 
   -0.96575E+07         0.55799E+06         0.00000E+00
    0.55799E+06        -0.28110E+08         0.00000E+00
    0.00000E+00         0.00000E+00        -0.75534E+07
 
   -0.94041E+07         0.62624E+06         0.00000E+00
    0.62624E+06        -0.28187E+08         0.00000E+00
    0.00000E+00         0.00000E+00        -0.75182E+07
 
   -0.91414E+07         0.70192E+06         0.00000E+00
    0.70192E+06        -0.28272E+08         0.00000E+00
    0.00000E+00         0.00000E+00        -0.74828E+07
 
   -0.88689E+07         0.78673E+06         0.00000E+00
    0.78673E+06        -0.28367E+08         0.00000E+00
    0.00000E+00         0.00000E+00        -0.74471E+07
 
   -0.85865E+07         0.88291E+06         0.00000E+00
    0.88291E+06        -0.28470E+08         0.00000E+00
    0.00000E+00         0.00000E+00        -0.74113E+07
 
   -0.82948E+07         0.99343E+06         0.00000E+00
    0.99343E+06        -0.28583E+08         0.00000E+00
    0.00000E+00         0.00000E+00        -0.73756E+07
 
   -0.79958E+07         0.11221E+07         0.00000E+00
    0.11221E+07        -0.28706E+08         0.00000E+00
    0.00000E+00         0.00000E+00        -0.73405E+07
 
   -0.76950E+07         0.12742E+07         0.00000E+00
    0.12742E+07        -0.28840E+08         0.00000E+00
    0.00000E+00         0.00000E+00        -0.73070E+07
 
   -0.74046E+07         0.14559E+07         0.00000E+00
    0.14559E+07        -0.28983E+08         0.00000E+00
    0.00000E+00         0.00000E+00        -0.72774E+07
 
   -0.21222E+08        -0.13186E+06         0.00000E+00
   -0.13186E+06        -0.29459E+08         0.00000E+00
    0.00000E+00         0.00000E+00        -0.10136E+08
 
   -0.20611E+08        -0.17139E+06         0.00000E+00
   -0.17139E+06        -0.29413E+08         0.00000E+00
    0.00000E+00         0.00000E+00        -0.10005E+08
 
   -0.20081E+08        -0.19086E+06         0.00000E+00
   -0.19086E+06        -0.29356E+08         0.00000E+00
    0.00000E+00         0.00000E+00        -0.98874E+07
 
   -0.19611E+08        -0.19951E+06         0.00000E+00
   -0.19951E+06        -0.29291E+08         0.00000E+00
    0.00000E+00         0.00000E+00        -0.97804E+07
 
   -0.19188E+08        -0.20202E+06         0.00000E+00
   -0.20202E+06        -0.29222E+08         0.00000E+00
    0.00000E+00         0.00000E+00        -0.96819E+07
 
   -0.18802E+08        -0.20090E+06         0.00000E+00
   -0.20090E+06        -0.29150E+08         0.00000E+00
    0.00000E+00         0.00000E+00        -0.95904E+07
 
   -0.18446E+08        -0.19753E+06         0.00000E+00
   -0.19753E+06        -0.29078E+08         0.00000E+00
    0.00000E+00         0.00000E+00        -0.95048E+07
 
   -0.18115E+08        -0.19269E+06         0.00000E+00
   -0.19269E+06        -0.29007E+08         0.00000E+00
    0.00000E+00         0.00000E+00        -0.94243E+07
 
   -0.17805E+08        -0.18686E+06         0.00000E+00
   -0.18686E+06        -0.28936E+08         0.00000E+00
    0.00000E+00         0.00000E+00        -0.93483E+07
 
   -0.17514E+08        -0.18033E+06         0.00000E+00
   -0.18033E+06        -0.28867E+08         0.00000E+00
    0.00000E+00         0.00000E+00        -0.92762E+07
 
   -0.17238E+08        -0.17328E+06         0.00000E+00
   -0.17328E+06        -0.28800E+08         0.00000E+00
    0.00000E+00         0.00000E+00        -0.92076E+07
 
   -0.16976E+08        -0.16584E+06         0.00000E+00
   -0.16584E+06        -0.28735E+08         0.00000E+00
    0.00000E+00         0.00000E+00        -0.91421E+07
 
   -0.16725E+08        -0.15809E+06         0.00000E+00
   -0.15809E+06        -0.28673E+08         0.00000E+00
    0.00000E+00         0.00000E+00        -0.90795E+07
 
   -0.16484E+08        -0.15007E+06         0.00000E+00
   -0.15007E+06        -0.28613E+08         0.00000E+00
    0.00000E+00         0.00000E+00        -0.90195E+07
 
   -0.16252E+08        -0.14184E+06         0.00000E+00
   -0.14184E+06        -0.28557E+08         0.00000E+00
    0.00000E+00         0.00000E+00        -0.89619E+07
 
   -0.16028E+08        -0.13342E+06         0.00000E+00
   -0.13342E+06        -0.28504E+08         0.00000E+00
    0.00000E+00         0.00000E+00        -0.89064E+07
 
   -0.15810E+08        -0.12482E+06         0.00000E+00
   -0.12482E+06        -0.28453E+08         0.00000E+00
    0.00000E+00         0.00000E+00        -0.88528E+07
 
   -0.15599E+08        -0.11606E+06         0.00000E+00
   -0.11606E+06        -0.28407E+08         0.00000E+00
    0.00000E+00         0.00000E+00        -0.88010E+07
 
   -0.15392E+08        -0.10715E+06         0.00000E+00
   -0.10715E+06        -0.28363E+08         0.00000E+00
    0.00000E+00         0.00000E+00        -0.87509E+07
 
   -0.15189E+08        -0.98083E+05         0.00000E+00
   -0.98083E+05        -0.28323E+08         0.00000E+00
    0.00000E+00         0.00000E+00        -0.87024E+07
 
   -0.14989E+08        -0.88867E+05         0.00000E+00
   -0.88867E+05        -0.28287E+08         0.00000E+00
    0.00000E+00         0.00000E+00        -0.86552E+07
 
   -0.14793E+08        -0.79493E+05         0.00000E+00
   -0.79493E+05        -0.28254E+08         0.00000E+00
    0.00000E+00         0.00000E+00        -0.86093E+07
 
   -0.14598E+08        -0.69956E+05         0.00000E+00
   -0.69956E+05        -0.28225E+08         0.00000E+00
    0.00000E+00         0.00000E+00        -0.85646E+07
 
   -0.14405E+08        -0.60245E+05         0.00000E+00
   -0.60245E+05        -0.28199E+08         0.00000E+00
    0.00000E+00         0.00000E+00        -0.85209E+07
 
   -0.14214E+08        -0.50346E+05         0.00000E+00
   -0.50346E+05        -0.28178E+08         0.00000E+00
    0.00000E+00         0.00000E+00        -0.84783E+07
 
   -0.14023E+08        -0.40245E+05         0.00000E+00
   -0.40245E+05        -0.28160E+08         0.00000E+00
    0.00000E+00         0.00000E+00        -0.84366E+07
 
   -0.13832E+08        -0.29921E+05         0.00000E+00
   -0.29921E+05        -0.28147E+08         0.00000E+00
    0.00000E+00         0.00000E+00        -0.83957E+07
 
   -0.13640E+08        -0.19351E+05         0.00000E+00
   -0.19351E+05        -0.28137E+08         0.00000E+00
    0.00000E+00         0.00000E+00        -0.83555E+07
 
   -0.13448E+08        -0.85079E+04         0.00000E+00
   -0.85079E+04        -0.28132E+08         0.00000E+00
    0.00000E+00         0.00000E+00        -0.83160E+07
 
   -0.13254E+08         0.26396E+04         0.00000E+00
    0.26396E+04        -0.28131E+08         0.00000E+00
    0.00000E+00         0.00000E+00        -0.82770E+07
 
   -0.13058E+08         0.14130E+05         0.00000E+00
    0.14130E+05        -0.28135E+08         0.00000E+00
    0.00000E+00         0.00000E+00        -0.82386E+07
 
   -0.12860E+08         0.26007E+05         0.00000E+00
    0.26007E+05        -0.28143E+08         0.00000E+00
    0.00000E+00         0.00000E+00        -0.82006E+07
 
   -0.12659E+08         0.38323E+05         0.00000E+00
    0.38323E+05        -0.28156E+08         0.00000E+00
    0.00000E+00         0.00000E+00        -0.81629E+07
 
   -0.12453E+08         0.51140E+05         0.00000E+00
    0.51140E+05        -0.28174E+08         0.00000E+00
    0.00000E+00         0.00000E+00        -0.81255E+07
 
   -0.12244E+08         0.64534E+05         0.00000E+00
    0.64534E+05        -0.28198E+08         0.00000E+00
    0.00000E+00         0.00000E+00        -0.80883E+07
 
   -0.12030E+08         0.78593E+05         0.00000E+00
    0.78593E+05        -0.28226E+08         0.00000E+00
    0.00000E+00         0.00000E+00        -0.80512E+07
 
   -0.11809E+08         0.93429E+05         0.00000E+00
    0.93429E+05        -0.28261E+08         0.00000E+00
    0.00000E+00         0.00000E+00        -0.80140E+07
 
   -0.11583E+08         0.10918E+06         0.00000E+00
    0.10918E+06        -0.28301E+08         0.00000E+00
    0.00000E+00         0.00000E+00        -0.79768E+07
 
   -0.11348E+08         0.12601E+06         0.00000E+00
    0.12601E+06        -0.28348E+08         0.00000E+00
    0.00000E+00         0.00000E+00        -0.79393E+07
 
   -0.11105E+08         0.14413E+06         0.00000E+00
    0.14413E+06        -0.28402E+08         0.00000E+00
    0.00000E+00         0.00000E+00        -0.79014E+07
 
   -0.10852E+08         0.16383E+06         0.00000E+00
    0.16383E+06        -0.28464E+08         0.00000E+00
    0.00000E+00         0.00000E+00        -0.78630E+07
 
   -0.10587E+08         0.18545E+06         0.00000E+00
    0.18545E+06        -0.28533E+08         0.00000E+00
    0.00000E+00         0.00000E+00        -0.78240E+07
 
   -0.10309E+08         0.20950E+06         0.00000E+00
    0.20950E+06        -0.28611E+08         0.00000E+00
    0.00000E+00         0.00000E+00        -0.77840E+07
 
   -0.10015E+08         0.23662E+06         0.00000E+00
    0.23662E+06        -0.28700E+08         0.00000E+00
    0.00000E+00         0.00000E+00        -0.77429E+07
 
   -0.97027E+07         0.26776E+06         0.00000E+00
    0.26776E+06        -0.28799E+08         0.00000E+00
    0.00000E+00         0.00000E+00        -0.77004E+07
 
   -0.93683E+07         0.30427E+06         0.00000E+00
    0.30427E+06        -0.28911E+08         0.00000E+00
    0.00000E+00         0.00000E+00        -0.76559E+07
 
   -0.90069E+07         0.34821E+06         0.00000E+00
    0.34821E+06        -0.29038E+08         0.00000E+00
    0.00000E+00         0.00000E+00        -0.76090E+07
 
   -0.86117E+07         0.40283E+06         0.00000E+00
    0.40283E+06        -0.29183E+08         0.00000E+00
    0.00000E+00         0.00000E+00        -0.75589E+07
 
   -0.81731E+07         0.47351E+06         0.00000E+00
    0.47351E+06        -0.29348E+08         0.00000E+00
    0.00000E+00         0.00000E+00        -0.75043E+07
 
   -0.76761E+07         0.56974E+06         0.00000E+00
    0.56974E+06        -0.29540E+08         0.00000E+00
    0.00000E+00         0.00000E+00        -0.74432E+07
 
TENSORS stresstot double 
   -0.55347E+08        -0.88772E+05         0.00000E+00
   -0.88772E+05        -0.49983E+08         0.00000E+00
    0.00000E+00         0.00000E+00        -0.62837E+08
 
   -0.55758E+08        -0.11532E+06         0.00000E+00
   -0.11532E+06        -0.50014E+08         0.00000E+00
    0.00000E+00         0.00000E+00        -0.62926E+08
 
   -0.56114E+08        -0.12837E+06         0.00000E+00
   -0.12837E+06        -0.50053E+08         0.00000E+00
    0.00000E+00         0.00000E+00        -0.63005E+08
 
   -0.56431E+08        -0.13413E+06         0.00000E+00
   -0.13413E+06        -0.50096E+08         0.00000E+00
    0.00000E+00         0.00000E+00        -0.63077E+08
 
   -0.56715E+08        -0.13576E+06         0.00000E+00
   -0.13576E+06        -0.50142E+08         0.00000E+00
    0.00000E+00         0.00000E+00        -0.63143E+08
 
   -0.56975E+08        -0.13494E+06         0.00000E+00
   -0.13494E+06        -0.50190E+08         0.00000E+00
    0.00000E+00         0.00000E+00        -0.63204E+08
 
   -0.57215E+08        -0.13262E+06         0.00000E+00
   -0.13262E+06        -0.50238E+08         0.00000E+00
    0.00000E+00         0.00000E+00        -0.63262E+08
 
   -0.57437E+08        -0.12931E+06         0.00000E+00
   -0.12931E+06        -0.50286E+08         0.00000E+00
    0.00000E+00         0.00000E+00        -0.63316E+08
 
   -0.57646E+08        -0.12534E+06         0.00000E+00
   -0.12534E+06        -0.50333E+08         0.00000E+00
    0.00000E+00         0.00000E+00        -0.63366E+08
 
   -0.57842E+08        -0.12089E+06         0.00000E+00
   -0.12089E+06        -0.50380E+08         0.00000E+00
    0.00000E+00         0.00000E+00        -0.63415E+08
 
   -0.58027E+08        -0.11610E+06         0.00000E+00
   -0.11610E+06        -0.50424E+08         0.00000E+00
    0.00000E+00         0.00000E+00        -0.63461E+08
 
   -0.58204E+08        -0.11105E+06         0.00000E+00
   -0.11105E+06        -0.50467E+08         0.00000E+00
    0.00000E+00         0.00000E+00        -0.63505E+08
 
   -0.58373E+08        -0.10579E+06         0.00000E+00
   -0.10579E+06        -0.50509E+08         0.00000E+00
    0.00000E+00         0.00000E+00        -0.63546E+08
 
   -0.58535E+08        -0.10035E+06         0.00000E+00
   -0.10035E+06        -0.50548E+08         0.00000E+00
    0.00000E+00         0.00000E+00        -0.63587E+08
 
   -0.58692E+08        -0.94773E+05         0.00000E+00
   -0.94773E+05        -0.50586E+08         0.00000E+00
    0.00000E+00         0.00000E+00        -0.63625E+08
 
   -0.58843E+08        -0.89065E+05         0.00000E+00
   -0.89065E+05        -0.50621E+08         0.00000E+00
    0.00000E+00         0.00000E+00        -0.63662E+08
 
   -0.58990E+08        -0.83243E+05         0.00000E+00
   -0.83243E+05        -0.50654E+08         0.00000E+00
    0.00000E+00         0.00000E+00        -0.63698E+08
 
   -0.59132E+08        -0.77314E+05         0.00000E+00
   -0.77314E+05        -0.50685E+08         0.00000E+00
    0.00000E+00         0.00000E+00        -0.63733E+08
 
   -0.59272E+08        -0.71282E+05         0.00000E+00
   -0.71282E+05        -0.50714E+08         0.00000E+00
    0.00000E+00         0.00000E+00        -0.63767E+08
 
   -0.59409E+08        -0.65150E+05         0.00000E+00
   -0.65150E+05        -0.50740E+08         0.00000E+00
    0.00000E+00         0.00000E+00        -0.63799E+08
 
   -0.59544E+08        -0.58917E+05         0.00000E+00
   -0.58917E+05        -0.50764E+08         0.00000E+00
    0.00000E+00         0.00000E+00        -0.63831E+08
 
   -0.59677E+08        -0.52579E+05         0.00000E+00
   -0.52579E+05        -0.50786E+08         0.00000E+00
    0.00000E+00         0.00000E+00        -0.63861E+08
 
   -0.59808E+08        -0.46133E+05         0.00000E+00
   -0.46133E+05        -0.50805E+08         0.00000E+00
    0.00000E+00         0.00000E+00        -0.63891E+08
 
   -0.59938E+08        -0.39571E+05         0.00000E+00
   -0.39571E+05        -0.50821E+08         0.00000E+00
    0.00000E+00         0.00000E+00        -0.63921E+08
 
   -0.60068E+08        -0.32884E+05         0.00000E+00
   -0.32884E+05        -0.50835E+08         0.00000E+00
    0.00000E+00         0.00000E+00        -0.63949E+08
 
   -0.60197E+08        -0.26062E+05         0.00000E+00
   -0.26062E+05        -0.50846E+08         0.00000E+00
    0.00000E+00         0.00000E+00        -0.63977E+08
 
   -0.60326E+08        -0.19091E+05         0.00000E+00
   -0.19091E+05        -0.50855E+08         0.00000E+00
    0.00000E+00         0.00000E+00        -0.64005E+08
 
   -0.60455E+08        -0.11957E+05         0.00000E+00
   -0.11957E+05        -0.50861E+08         0.00000E+00
    0.00000E+00         0.00000E+00        -0.64031E+08
 
   -0.60586E+08        -0.46396E+04         0.00000E+00
   -0.46396E+04        -0.50864E+08         0.00000E+00
    0.00000E+00         0.00000E+00        -0.64058E+08
 
   -0.60717E+08         0.28812E+04         0.00000E+00
    0.28812E+04        -0.50864E+08         0.00000E+00
    0.00000E+00         0.00000E+00        -0.64084E+08
 
   -0.60849E+08         0.10631E+05         0.00000E+00
    0.10631E+05        -0.50860E+08         0.00000E+00
    0.00000E+00         0.00000E+00        -0.64110E+08
 
   -0.60983E+08         0.18640E+05         0.00000E+00
    0.18640E+05        -0.50854E+08         0.00000E+00
    0.00000E+00         0.00000E+00        -0.64135E+08
 
   -0.61120E+08         0.26943E+05         0.00000E+00
    0.26943E+05        -0.50845E+08         0.00000E+00
    0.00000E+00         0.00000E+00        -0.64161E+08
 
   -0.61258E+08         0.35582E+05         0.00000E+00
    0.35582E+05        -0.50832E+08         0.00000E+00
    0.00000E+00         0.00000E+00        -0.64186E+08
 
   -0.61400E+08         0.44607E+05         0.00000E+00
    0.44607E+05        -0.50816E+08         0.00000E+00
    0.00000E+00         0.00000E+00        -0.64211E+08
 
   -0.61545E+08         0.54080E+05         0.00000E+00
    0.54080E+05        -0.50796E+08         0.00000E+00
    0.00000E+00         0.00000E+00        -0.64236E+08
 
   -0.61694E+08         0.64073E+05         0.00000E+00
    0.64073E+05        -0.50772E+08         0.00000E+00
    0.00000E+00         0.00000E+00        -0.64261E+08
 
   -0.61848E+08         0.74678E+05         0.00000E+00
    0.74678E+05        -0.50744E+08         0.00000E+00
    0.00000E+00         0.00000E+00        -0.64286E+08
 
   -0.62006E+08         0.86009E+05         0.00000E+00
    0.86009E+05        -0.50712E+08         0.00000E+00
    0.00000E+00         0.00000E+00        -0.64311E+08
 
   -0.62171E+08         0.98211E+05         0.00000E+00
    0.98211E+05        -0.50675E+08         0.00000E+00
    0.00000E+00         0.00000E+00        -0.64336E+08
 
   -0.62342E+08         0.11147E+06         0.00000E+00
    0.11147E+06        -0.50633E+08         0.00000E+00
    0.00000E+00         0.00000E+00        -0.64362E+08
 
   -0.62521E+08         0.12602E+06         0.00000E+00
    0.12602E+06        -0.50586E+08         0.00000E+00
    0.00000E+00         0.00000E+00        -0.64388E+08
 
   -0.62709E+08         0.14220E+06         0.00000E+00
    0.14220E+06        -0.50532E+08         0.00000E+00
    0.00000E+00         0.00000E+00        -0.64415E+08
 
   -0.62908E+08         0.16045E+06         0.00000E+00
    0.16045E+06        -0.50472E+08         0.00000E+00
    0.00000E+00         0.00000E+00        -0.64443E+08
 
   -0.63119E+08         0.18140E+06         0.00000E+00
    0.18140E+06        -0.50405E+08         0.00000E+00
    0.00000E+00         0.00000E+00        -0.64472E+08
 
   -0.63345E+08         0.20597E+06         0.00000E+00
    0.20597E+06        -0.50329E+08         0.00000E+00
    0.00000E+00         0.00000E+00        -0.64502E+08
 
   -0.63589E+08         0.23552E+06         0.00000E+00
    0.23552E+06        -0.50243E+08         0.00000E+00
    0.00000E+00         0.00000E+00        -0.64533E+08
 
   -0.63856E+08         0.27226E+06         0.00000E+00
    0.27226E+06        -0.50145E+08         0.00000E+00
    0.00000E+00         0.00000E+00        -0.64567E+08
 
   -0.64152E+08         0.31981E+06         0.00000E+00
    0.31981E+06        -0.50033E+08         0.00000E+00
    0.00000E+00         0.00000E+00        -0.64604E+08
 
   -0.64488E+08         0.38454E+06         0.00000E+00
    0.38454E+06        -0.49904E+08         0.00000E+00
    0.00000E+00         0.00000E+00        -0.64645E+08
 
   -0.55768E+08        -0.61825E+05         0.00000E+00
   -0.61825E+05        -0.50001E+08         0.00000E+00
    0.00000E+00         0.00000E+00        -0.62466E+08
 
   -0.56025E+08        -0.14622E+06         0.00000E+00
   -0.14622E+06        -0.49989E+08         0.00000E+00
    0.00000E+00         0.00000E+00        -0.62515E+08
 
   -0.56285E+08        -0.20557E+06         0.00000E+00
   -0.20557E+06        -0.49986E+08         0.00000E+00
    0.00000E+00         0.00000E+00        -0.62566E+08
 
   -0.56538E+08        -0.24639E+06         0.00000E+00
   -0.24639E+06        -0.49990E+08         0.00000E+00
    0.00000E+00         0.00000E+00        -0.62617E+08
 
   -0.56780E+08        -0.27356E+06         0.00000E+00
   -0.27356E+06        -0.50000E+08         0.00000E+00
    0.00000E+00         0.00000E+00        -0.62667E+08
 
   -0.57009E+08        -0.29062E+06         0.00000E+00
   -0.29062E+06        -0.50014E+08         0.00000E+00
    0.00000E+00         0.00000E+00        -0.62716E+08
 
   -0.57227E+08        -0.30012E+06         0.00000E+00
   -0.30012E+06        -0.50033E+08         0.00000E+00
    0.00000E+00         0.00000E+00        -0.62763E+08
 
   -0.57434E+08        -0.30393E+06         0.00000E+00
   -0.30393E+06        -0.50054E+08         0.00000E+00
    0.00000E+00         0.00000E+00        -0.62808E+08
 
   -0.57631E+08        -0.30338E+06         0.00000E+00
   -0.30338E+06        -0.50077E+08         0.00000E+00
    0.00000E+00         0.00000E+00        -0.62852E+08
 
   -0.57818E+08        -0.29947E+06         0.00000E+00
   -0.29947E+06        -0.50102E+08         0.00000E+00
    0.00000E+00         0.00000E+00        -0.62894E+08
 
   -0.57997E+08        -0.29294E+06         0.00000E+00
   -0.29294E+06        -0.50127E+08         0.00000E+00
    0.00000E+00         0.00000E+00        -0.62935E+08
 
   -0.58168E+08        -0.28432E+06         0.00000E+00
   -0.28432E+06        -0.50153E+08         0.00000E+00
    0.00000E+00         0.00000E+00        -0.62974E+08
 
   -0.58333E+08        -0.27403E+06         0.00000E+00
   -0.27403E+06        -0.50179E+08         0.00000E+00
    0.00000E+00         0.00000E+00        -0.63011E+08
 
   -0.58491E+08        -0.26238E+06         0.00000E+00
   -0.26238E+06        -0.50204E+08         0.00000E+00
    0.00000E+00         0.00000E+00        -0.63048E+08
 
   -0.58644E+08        -0.24960E+06         0.00000E+00
   -0.24960E+06        -0.50229E+08         0.00000E+00
    0.00000E+00         0.00000E+00        -0.63083E+08
 
   -0.58793E+08        -0.23587E+06         0.00000E+00
   -0.23587E+06        -0.50252E+08         0.00000E+00
    0.00000E+00         0.00000E+00        -0.63117E+08
 
   -0.58938E+08        -0.22133E+06         0.00000E+00
   -0.22133E+06        -0.50275E+08         0.00000E+00
    0.00000E+00         0.00000E+00        -0.63150E+08
 
   -0.59079E+08        -0.20609E+06         0.00000E+00
   -0.20609E+06        -0.50296E+08         0.00000E+00
    0.00000E+00         0.00000E+00        -0.63182E+08
 
   -0.59216E+08        -0.19021E+06         0.00000E+00
   -0.19021E+06        -0.50316E+08         0.00000E+00
    0.00000E+00         0.00000E+00        -0.63214E+08
 
   -0.59352E+08        -0.17376E+06         0.00000E+00
   -0.17376E+06        -0.50334E+08         0.00000E+00
    0.00000E+00         0.00000E+00        -0.63244E+08
 
   -0.59485E+08        -0.15678E+06         0.00000E+00
   -0.15678E+06        -0.50350E+08         0.00000E+00
    0.00000E+00         0.00000E+00        -0.63274E+08
 
   -0.59616E+08        -0.13929E+06         0.00000E+00
   -0.13929E+06        -0.50365E+08         0.00000E+00
    0.00000E+00         0.00000E+00        -0.63302E+08
 
   -0.59746E+08        -0.12131E+06         0.00000E+00
   -0.12131E+06        -0.50377E+08         0.00000E+00
    0.00000E+00         0.00000E+00        -0.63331E+08
 
   -0.59875E+08        -0.10283E+06         0.00000E+00
   -0.10283E+06        -0.50388E+08         0.00000E+00
    0.00000E+00         0.00000E+00        -0.63358E+08
 
   -0.60002E+08        -0.83862E+05         0.00000E+00
   -0.83862E+05        -0.50396E+08         0.00000E+00
    0.00000E+00         0.00000E+00        -0.63385E+08
 
   -0.60130E+08        -0.64375E+05         0.00000E+00
   -0.64375E+05        -0.50402E+08         0.00000E+00
    0.00000E+00         0.00000E+00        -0.63412E+08
 
   -0.60257E+08        -0.44349E+05         0.00000E+00
   -0.44349E+05        -0.50406E+08         0.00000E+00
    0.00000E+00         0.00000E+00        -0.63437E+08
 
   -0.60385E+08        -0.23751E+05         0.00000E+00
   -0.23751E+05        -0.50407E+08         0.00000E+00
    0.00000E+00         0.00000E+00        -0.63463E+08
 
   -0.60513E+08        -0.25346E+04         0.00000E+00
   -0.25346E+04        -0.50405E+08         0.00000E+00
    0.00000E+00         0.00000E+00        -0.63488E+08
 
   -0.60642E+08         0.19353E+05         0.00000E+00
    0.19353E+05        -0.50401E+08         0.00000E+00
    0.00000E+00         0.00000E+00        -0.63513E+08
 
   -0.60772E+08         0.41978E+05         0.00000E+00
    0.41978E+05        -0.50394E+08         0.00000E+00
    0.00000E+00         0.00000E+00        -0.63537E+08
 
   -0.60903E+08         0.65421E+05         0.00000E+00
    0.65421E+05        -0.50384E+08         0.00000E+00
    0.00000E+00         0.00000E+00        -0.63561E+08
 
   -0.61036E+08         0.89775E+05         0.00000E+00
    0.89775E+05        -0.50372E+08         0.00000E+00
    0.00000E+00         0.00000E+00        -0.63585E+08
 
   -0.61171E+08         0.11516E+06         0.00000E+00
    0.11516E+06        -0.50356E+08         0.00000E+00
    0.00000E+00         0.00000E+00        -0.63609E+08
 
   -0.61309E+08         0.14170E+06         0.00000E+00
    0.14170E+06        -0.50337E+08         0.00000E+00
    0.00000E+00         0.00000E+00        -0.63632E+08
 
   -0.61449E+08         0.16956E+06         0.00000E+00
    0.16956E+06        -0.50314E+08         0.00000E+00
    0.00000E+00         0.00000E+00        -0.63655E+08
 
   -0.61592E+08         0.19895E+06         0.00000E+00
    0.19895E+06        -0.50288E+08         0.00000E+00
    0.00000E+00         0.00000E+00        -0.63679E+08
 
   -0.61739E+08         0.23010E+06         0.00000E+00
    0.23010E+06        -0.50258E+08         0.00000E+00
    0.00000E+00         0.00000E+00        -0.63702E+08
 
   -0.61890E+08         0.26329E+06         0.00000E+00
    0.26329E+06        -0.50224E+08         0.00000E+00
    0.00000E+00         0.00000E+00        -0.63725E+08
 
   -0.62045E+08         0.29888E+06         0.00000E+00
    0.29888E+06        -0.50185E+08         0.00000E+00
    0.00000E+00         0.00000E+00        -0.63748E+08
 
   -0.62205E+08         0.33732E+06         0.00000E+00
    0.33732E+06        -0.50142E+08         0.00000E+00
    0.00000E+00         0.00000E+00        -0.63771E+08
 
   -0.62371E+08         0.37915E+06         0.00000E+00
    0.37915E+06        -0.50095E+08         0.00000E+00
    0.00000E+00         0.00000E+00        -0.63795E+08
 
   -0.62542E+08         0.42508E+06         0.00000E+00
    0.42508E+06        -0.50042E+08         0.00000E+00
    0.00000E+00         0.00000E+00        -0.63818E+08
 
   -0.62720E+08         0.47600E+06         0.00000E+00
    0.47600E+06        -0.49984E+08         0.00000E+00
    0.00000E+00         0.00000E+00        -0.63842E+08
 
   -0.62904E+08         0.53306E+06         0.00000E+00
    0.53306E+06        -0.49920E+08         0.00000E+00
    0.00000E+00         0.00000E+00        -0.63866E+08
 
   -0.63095E+08         0.59778E+06         0.00000E+00
    0.59778E+06        -0.49849E+08         0.00000E+00
    0.00000E+00         0.00000E+00        -0.63890E+08
 
   -0.63292E+08         0.67212E+06         0.00000E+00
    0.67212E+06        -0.49773E+08         0.00000E+00
    0.00000E+00         0.00000E+00        -0.63914E+08
 
   -0.63494E+08         0.75871E+06         0.00000E+00
    0.75871E+06        -0.49689E+08         0.00000E+00
    0.00000E+00         0.00000E+00        -0.63938E+08
 
   -0.63698E+08         0.86097E+06         0.00000E+00
    0.86097E+06        -0.49599E+08         0.00000E+00
    0.00000E+00         0.00000E+00        -0.63960E+08
 
   -0.63894E+08         0.98325E+06         0.00000E+00
    0.98325E+06        -0.49502E+08         0.00000E+00
    0.00000E+00         0.00000E+00        -0.63980E+08
 
   -0.56199E+08        -0.51755E+05         0.00000E+00
   -0.51755E+05        -0.50000E+08         0.00000E+00
    0.00000E+00         0.00000E+00        -0.62090E+08
 
   -0.56381E+08        -0.12666E+06         0.00000E+00
   -0.12666E+06        -0.49999E+08         0.00000E+00
    0.00000E+00         0.00000E+00        -0.62126E+08
 
   -0.56565E+08        -0.19139E+06         0.00000E+00
   -0.19139E+06        -0.49994E+08         0.00000E+00
    0.00000E+00         0.00000E+00        -0.62162E+08
 
   -0.56751E+08        -0.24475E+06         0.00000E+00
   -0.24475E+06        -0.49989E+08         0.00000E+00
    0.00000E+00         0.00000E+00        -0.62197E+08
 
   -0.56935E+08        -0.28705E+06         0.00000E+00
   -0.28705E+06        -0.49985E+08         0.00000E+00
    0.00000E+00         0.00000E+00        -0.62233E+08
 
   -0.57118E+08        -0.31927E+06         0.00000E+00
   -0.31927E+06        -0.49983E+08         0.00000E+00
    0.00000E+00         0.00000E+00        -0.62269E+08
 
   -0.57298E+08        -0.34264E+06         0.00000E+00
   -0.34264E+06        -0.49982E+08         0.00000E+00
    0.00000E+00         0.00000E+00        -0.62305E+08
 
   -0.57473E+08        -0.35834E+06         0.00000E+00
   -0.35834E+06        -0.49984E+08         0.00000E+00
    0.00000E+00         0.00000E+00        -0.62340E+08
 
   -0.57644E+08        -0.36750E+06         0.00000E+00
   -0.36750E+06        -0.49987E+08         0.00000E+00
    0.00000E+00         0.00000E+00        -0.62374E+08
 
   -0.57810E+08        -0.37108E+06         0.00000E+00
   -0.37108E+06        -0.49992E+08         0.00000E+00
    0.00000E+00         0.00000E+00        -0.62408E+08
 
   -0.57972E+08        -0.36993E+06         0.00000E+00
   -0.36993E+06        -0.49998E+08         0.00000E+00
    0.00000E+00         0.00000E+00        -0.62441E+08
 
   -0.58128E+08        -0.36474E+06         0.00000E+00
   -0.36474E+06        -0.50005E+08         0.00000E+00
    0.00000E+00         0.00000E+00        -0.62474E+08
 
   -0.58281E+08        -0.35612E+06         0.00000E+00
   -0.35612E+06        -0.50013E+08         0.00000E+00
    0.00000E+00         0.00000E+00        -0.62506E+08
 
   -0.58429E+08        -0.34454E+06         0.00000E+00
   -0.34454E+06        -0.50021E+08         0.00000E+00
    0.00000E+00         0.00000E+00        -0.62537E+08
 
   -0.58574E+08        -0.33042E+06         0.00000E+00
   -0.33042E+06        -0.50030E+08         0.00000E+00
    0.00000E+00         0.00000E+00        -0.62567E+08
 
   -0.58715E+08        -0.31409E+06         0.00000E+00
   -0.31409E+06        -0.50039E+08         0.00000E+00
    0.00000E+00         0.00000E+00        -0.62596E+08
 
   -0.58853E+08        -0.29581E+06         0.00000E+00
   -0.29581E+06        -0.50047E+08         0.00000E+00
    0.00000E+00         0.00000E+00        -0.62625E+08
 
   -0.58988E+08        -0.27582E+06         0.00000E+00
   -0.27582E+06        -0.50055E+08         0.00000E+00
    0.00000E+00         0.00000E+00        -0.62653E+08
 
   -0.59121E+08        -0.25429E+06         0.00000E+00
   -0.25429E+06        -0.50062E+08         0.00000E+00
    0.00000E+00         0.00000E+00        -0.62681E+08
 
   -0.59251E+08        -0.23136E+06         0.00000E+00
   -0.23136E+06        -0.50068E+08         0.00000E+00
    0.00000E+00         0.00000E+00        -0.62708E+08
 
   -0.59380E+08        -0.20715E+06         0.00000E+00
   -0.20715E+06        -0.50073E+08         0.00000E+00
    0.00000E+00         0.00000E+00        -0.62734E+08
 
   -0.59507E+08        -0.18174E+06         0.00000E+00
   -0.18174E+06        -0.50077E+08         0.00000E+00
    0.00000E+00         0.00000E+00        -0.62760E+08
 
   -0.59632E+08        -0.15519E+06         0.00000E+00
   -0.15519E+06        -0.50080E+08         0.00000E+00
    0.00000E+00         0.00000E+00        -0.62786E+08
 
   -0.59757E+08        -0.12754E+06         0.00000E+00
   -0.12754E+06        -0.50081E+08         0.00000E+00
    0.00000E+00         0.00000E+00        -0.62810E+08
 
   -0.59881E+08        -0.98819E+05         0.00000E+00
   -0.98819E+05        -0.50081E+08         0.00000E+00
    0.00000E+00         0.00000E+00        -0.62835E+08
 
   -0.60005E+08        -0.69019E+05         0.00000E+00
   -0.69019E+05        -0.50079E+08         0.00000E+00
    0.00000E+00         0.00000E+00        -0.62859E+08
 
   -0.60128E+08        -0.38132E+05         0.00000E+00
   -0.38132E+05        -0.50075E+08         0.00000E+00
    0.00000E+00         0.00000E+00        -0.62882E+08
 
   -0.60251E+08        -0.61287E+04         0.00000E+00
   -0.61287E+04        -0.50069E+08         0.00000E+00
    0.00000E+00         0.00000E+00        -0.62905E+08
 
   -0.60374E+08         0.27038E+05         0.00000E+00
    0.27038E+05        -0.50061E+08         0.00000E+00
    0.00000E+00         0.00000E+00        -0.62928E+08
 
   -0.60498E+08         0.61430E+05         0.00000E+00
    0.61430E+05        -0.50050E+08         0.00000E+00
    0.00000E+00         0.00000E+00        -0.62951E+08
 
   -0.60623E+08         0.97130E+05         0.00000E+00
    0.97130E+05        -0.50038E+08         0.00000E+00
    0.00000E+00         0.00000E+00        -0.62973E+08
 
   -0.60748E+08         0.13424E+06         0.00000E+00
    0.13424E+06        -0.50023E+08         0.00000E+00
    0.00000E+00         0.00000E+00        -0.62995E+08
 
   -0.60874E+08         0.17288E+06         0.00000E+00
    0.17288E+06        -0.50005E+08         0.00000E+00
    0.00000E+00         0.00000E+00        -0.63016E+08
 
   -0.61002E+08         0.21319E+06         0.00000E+00
    0.21319E+06        -0.49985E+08         0.00000E+00
    0.00000E+00         0.00000E+00        -0.63037E+08
 
   -0.61132E+08         0.25535E+06         0.00000E+00
    0.25535E+06        -0.49962E+08         0.00000E+00
    0.00000E+00         0.00000E+00        -0.63058E+08
 
   -0.61263E+08         0.29956E+06         0.00000E+00
    0.29956E+06        -0.49936E+08         0.00000E+00
    0.00000E+00         0.00000E+00        -0.63079E+08
 
   -0.61396E+08         0.34606E+06         0.00000E+00
    0.34606E+06        -0.49908E+08         0.00000E+00
    0.00000E+00         0.00000E+00        -0.63100E+08
 
   -0.61531E+08         0.39512E+06         0.00000E+00
    0.39512E+06        -0.49876E+08         0.00000E+00
    0.00000E+00         0.00000E+00        -0.63120E+08
 
   -0.61668E+08         0.44708E+06         0.00000E+00
    0.44708E+06        -0.49840E+08         0.00000E+00
    0.00000E+00         0.00000E+00        -0.63140E+08
 
   -0.61808E+08         0.50231E+06         0.00000E+00
    0.50231E+06        -0.49802E+08         0.00000E+00
    0.00000E+00         0.00000E+00        -0.63160E+08
 
   -0.61950E+08         0.56126E+06         0.00000E+00
    0.56126E+06        -0.49760E+08         0.00000E+00
    0.00000E+00         0.00000E+00        -0.63180E+08
 
   -0.62094E+08         0.62443E+06         0.00000E+00
    0.62443E+06        -0.49715E+08         0.00000E+00
    0.00000E+00         0.00000E+00        -0.63200E+08
 
   -0.62241E+08         0.69239E+06         0.00000E+00
    0.69239E+06        -0.49666E+08         0.00000E+00
    0.00000E+00         0.00000E+00        -0.63219E+08
 
   -0.62389E+08         0.76582E+06         0.00000E+00
    0.76582E+06        -0.49613E+08         0.00000E+00
    0.00000E+00         0.00000E+00        -0.63238E+08
 
   -0.62539E+08         0.84540E+06         0.00000E+00
    0.84540E+06        -0.49558E+08         0.00000E+00
    0.00000E+00         0.00000E+00        -0.63257E+08
 
   -0.62690E+08         0.93188E+06         0.00000E+00
    0.93188E+06        -0.49499E+08         0.00000E+00
    0.00000E+00         0.00000E+00        -0.63275E+08
 
   -0.62840E+08         0.10259E+07         0.00000E+00
    0.10259E+07        -0.49437E+08         0.00000E+00
    0.00000E+00         0.00000E+00        -0.63293E+08
 
   -0.62989E+08         0.11280E+07         0.00000E+00
    0.11280E+07        -0.49374E+08         0.00000E+00
    0.00000E+00         0.00000E+00        -0.63310E+08
 
   -0.63135E+08         0.12379E+07         0.00000E+00
    0.12379E+07        -0.49311E+08         0.00000E+00
    0.00000E+00         0.00000E+00        -0.63327E+08
 
   -0.63279E+08         0.13543E+07         0.00000E+00
    0.13543E+07        -0.49249E+08         0.00000E+00
    0.00000E+00         0.00000E+00        -0.63343E+08
 
   -0.56582E+08        -0.43761E+05         0.00000E+00
   -0.43761E+05        -0.50001E+08         0.00000E+00
    0.00000E+00         0.00000E+00        -0.61704E+08
 
   -0.56714E+08        -0.11097E+06         0.00000E+00
   -0.11097E+06        -0.49997E+08         0.00000E+00
    0.00000E+00         0.00000E+00        -0.61730E+08
 
   -0.56849E+08        -0.16929E+06         0.00000E+00
   -0.16929E+06        -0.49993E+08         0.00000E+00
    0.00000E+00         0.00000E+00        -0.61756E+08
 
   -0.56987E+08        -0.21943E+06         0.00000E+00
   -0.21943E+06        -0.49988E+08         0.00000E+00
    0.00000E+00         0.00000E+00        -0.61782E+08
 
   -0.57127E+08        -0.26167E+06         0.00000E+00
   -0.26167E+06        -0.49981E+08         0.00000E+00
    0.00000E+00         0.00000E+00        -0.61809E+08
 
   -0.57268E+08        -0.29628E+06         0.00000E+00
   -0.29628E+06        -0.49974E+08         0.00000E+00
    0.00000E+00         0.00000E+00        -0.61835E+08
 
   -0.57410E+08        -0.32361E+06         0.00000E+00
   -0.32361E+06        -0.49967E+08         0.00000E+00
    0.00000E+00         0.00000E+00        -0.61862E+08
 
   -0.57551E+08        -0.34413E+06         0.00000E+00
   -0.34413E+06        -0.49960E+08         0.00000E+00
    0.00000E+00         0.00000E+00        -0.61889E+08
 
   -0.57691E+08        -0.35834E+06         0.00000E+00
   -0.35834E+06        -0.49954E+08         0.00000E+00
    0.00000E+00         0.00000E+00        -0.61915E+08
 
   -0.57830E+08        -0.36677E+06         0.00000E+00
   -0.36677E+06        -0.49948E+08         0.00000E+00
    0.00000E+00         0.00000E+00        -0.61941E+08
 
   -0.57968E+08        -0.36994E+06         0.00000E+00
   -0.36994E+06        -0.49942E+08         0.00000E+00
    0.00000E+00         0.00000E+00        -0.61968E+08
 
   -0.58104E+08        -0.36836E+06         0.00000E+00
   -0.36836E+06        -0.49937E+08         0.00000E+00
    0.00000E+00         0.00000E+00        -0.61993E+08
 
   -0.58238E+08        -0.36249E+06         0.00000E+00
   -0.36249E+06        -0.49932E+08         0.00000E+00
    0.00000E+00         0.00000E+00        -0.62019E+08
 
   -0.58370E+08        -0.35276E+06         0.00000E+00
   -0.35276E+06        -0.49928E+08         0.00000E+00
    0.00000E+00         0.00000E+00        -0.62044E+08
 
   -0.58500E+08        -0.33953E+06         0.00000E+00
   -0.33953E+06        -0.49924E+08         0.00000E+00
    0.00000E+00         0.00000E+00        -0.62069E+08
 
   -0.58628E+08        -0.32316E+06         0.00000E+00
   -0.32316E+06        -0.49920E+08         0.00000E+00
    0.00000E+00         0.00000E+00        -0.62094E+08
 
   -0.58754E+08        -0.30393E+06         0.00000E+00
   -0.30393E+06        -0.49916E+08         0.00000E+00
    0.00000E+00         0.00000E+00        -0.62118E+08
 
   -0.58879E+08        -0.28209E+06         0.00000E+00
   -0.28209E+06        -0.49912E+08         0.00000E+00
    0.00000E+00         0.00000E+00        -0.62142E+08
 
   -0.59002E+08        -0.25786E+06         0.00000E+00
   -0.25786E+06        -0.49908E+08         0.00000E+00
    0.00000E+00         0.00000E+00        -0.62165E+08
 
   -0.59124E+08        -0.23142E+06         0.00000E+00
   -0.23142E+06        -0.49903E+08         0.00000E+00
    0.00000E+00         0.00000E+00        -0.62188E+08
 
   -0.59244E+08        -0.20292E+06         0.00000E+00
   -0.20292E+06        -0.49897E+08         0.00000E+00
    0.00000E+00         0.00000E+00        -0.62211E+08
 
   -0.59364E+08        -0.17249E+06         0.00000E+00
   -0.17249E+06        -0.49891E+08         0.00000E+00
    0.00000E+00         0.00000E+00        -0.62233E+08
 
   -0.59482E+08        -0.14022E+06         0.00000E+00
   -0.14022E+06        -0.49884E+08         0.00000E+00
    0.00000E+00         0.00000E+00        -0.62255E+08
 
   -0.59599E+08        -0.10619E+06         0.00000E+00
   -0.10619E+06        -0.49876E+08         0.00000E+00
    0.00000E+00         0.00000E+00        -0.62277E+08
 
   -0.59716E+08        -0.70448E+05         0.00000E+00
   -0.70448E+05        -0.49867E+08         0.00000E+00
    0.00000E+00         0.00000E+00        -0.62298E+08
 
   -0.59833E+08        -0.33020E+05         0.00000E+00
   -0.33020E+05        -0.49856E+08         0.00000E+00
    0.00000E+00         0.00000E+00        -0.62319E+08
 
   -0.59949E+08         0.60832E+04         0.00000E+00
    0.60832E+04        -0.49845E+08         0.00000E+00
    0.00000E+00         0.00000E+00        -0.62339E+08
 
   -0.60065E+08         0.46871E+05         0.00000E+00
    0.46871E+05        -0.49831E+08         0.00000E+00
    0.00000E+00         0.00000E+00        -0.62360E+08
 
   -0.60181E+08         0.89374E+05         0.00000E+00
    0.89374E+05        -0.49817E+08         0.00000E+00
    0.00000E+00         0.00000E+00        -0.62380E+08
 
   -0.60297E+08         0.13364E+06         0.00000E+00
    0.13364E+06        -0.49800E+08         0.00000E+00
    0.00000E+00         0.00000E+00        -0.62399E+08
 
   -0.60413E+08         0.17973E+06         0.00000E+00
    0.17973E+06        -0.49782E+08         0.00000E+00
    0.00000E+00         0.00000E+00        -0.62419E+08
 
   -0.60530E+08         0.22774E+06         0.00000E+00
    0.22774E+06        -0.49762E+08         0.00000E+00
    0.00000E+00         0.00000E+00        -0.62438E+08
 
   -0.60647E+08         0.27778E+06         0.00000E+00
    0.27778E+06        -0.49740E+08         0.00000E+00
    0.00000E+00         0.00000E+00        -0.62457E+08
 
   -0.60765E+08         0.32996E+06         0.00000E+00
    0.32996E+06        -0.49717E+08         0.00000E+00
    0.00000E+00         0.00000E+00        -0.62475E+08
 
   -0.60884E+08         0.38444E+06         0.00000E+00
    0.38444E+06        -0.49691E+08         0.00000E+00
    0.00000E+00         0.00000E+00        -0.62494E+08
 
   -0.61003E+08         0.44139E+06         0.00000E+00
    0.44139E+06        -0.49663E+08         0.00000E+00
    0.00000E+00         0.00000E+00        -0.62512E+08
 
   -0.61123E+08         0.50100E+06         0.00000E+00
    0.50100E+06        -0.49632E+08         0.00000E+00
    0.00000E+00         0.00000E+00        -0.62529E+08
 
   -0.61243E+08         0.56350E+06         0.00000E+00
    0.56350E+06        -0.49600E+08         0.00000E+00
    0.00000E+00         0.00000E+00        -0.62547E+08
 
   -0.61365E+08         0.62911E+06         0.00000E+00
    0.62911E+06        -0.49565E+08         0.00000E+00
    0.00000E+00         0.00000E+00        -0.62564E+08
 
   -0.61487E+08         0.69810E+06         0.00000E+00
    0.69810E+06        -0.49529E+08         0.00000E+00
    0.00000E+00         0.00000E+00        -0.62581E+08
 
   -0.61609E+08         0.77075E+06         0.00000E+00
    0.77075E+06        -0.49490E+08         0.00000E+00
    0.00000E+00         0.00000E+00        -0.62597E+08
 
   -0.61732E+08         0.84734E+06         0.00000E+00
    0.84734E+06        -0.49449E+08         0.00000E+00
    0.00000E+00         0.00000E+00        -0.62614E+08
 
   -0.61855E+08         0.92817E+06         0.00000E+00
    0.92817E+06        -0.49406E+08         0.00000E+00
    0.00000E+00         0.00000E+00        -0.62629E+08
 
   -0.61977E+08         0.10135E+07         0.00000E+00
    0.10135E+07        -0.49361E+08         0.00000E+00
    0.00000E+00         0.00000E+00        -0.62645E+08
 
   -0.62099E+08         0.11036E+07         0.00000E+00
    0.11036E+07        -0.49315E+08         0.00000E+00
    0.00000E+00         0.00000E+00        -0.62660E+08
 
   -0.62219E+08         0.11987E+07         0.00000E+00
    0.11987E+07        -0.49267E+08         0.00000E+00
    0.00000E+00         0.00000E+00        -0.62674E+08
 
   -0.62338E+08         0.12988E+07         0.00000E+00
    0.12988E+07        -0.49219E+08         0.00000E+00
    0.00000E+00         0.00000E+00        -0.62688E+08
 
   -0.62454E+08         0.14040E+07         0.00000E+00
    0.14040E+07        -0.49171E+08         0.00000E+00
    0.00000E+00         0.00000E+00        -0.62702E+08
 
   -0.62569E+08         0.15145E+07         0.00000E+00
    0.15145E+07        -0.49122E+08         0.00000E+00
    0.00000E+00         0.00000E+00        -0.62715E+08
 
   -0.62679E+08         0.16307E+07         0.00000E+00
    0.16307E+07        -0.49073E+08         0.00000E+00
    0.00000E+00         0.00000E+00        -0.62727E+08
 
   -0.56911E+08        -0.36300E+05         0.00000E+00
   -0.36300E+05        -0.50001E+08         0.00000E+00
    0.00000E+00         0.00000E+00        -0.61310E+08
 
   -0.57005E+08        -0.93079E+05         0.00000E+00
   -0.93079E+05        -0.49998E+08         0.00000E+00
    0.00000E+00         0.00000E+00        -0.61328E+08
 
   -0.57103E+08        -0.14326E+06         0.00000E+00
   -0.14326E+06        -0.49993E+08         0.00000E+00
    0.00000E+00         0.00000E+00        -0.61346E+08
 
   -0.57205E+08        -0.18685E+06         0.00000E+00
   -0.18685E+06        -0.49987E+08         0.00000E+00
    0.00000E+00         0.00000E+00        -0.61365E+08
 
   -0.57310E+08        -0.22403E+06         0.00000E+00
   -0.22403E+06        -0.49979E+08         0.00000E+00
    0.00000E+00         0.00000E+00        -0.61385E+08
 
   -0.57417E+08        -0.25503E+06         0.00000E+00
   -0.25503E+06        -0.49970E+08         0.00000E+00
    0.00000E+00         0.00000E+00        -0.61404E+08
 
   -0.57526E+08        -0.28006E+06         0.00000E+00
   -0.28006E+06        -0.49960E+08         0.00000E+00
    0.00000E+00         0.00000E+00        -0.61424E+08
 
   -0.57637E+08        -0.29937E+06         0.00000E+00
   -0.29937E+06        -0.49950E+08         0.00000E+00
    0.00000E+00         0.00000E+00        -0.61444E+08
 
   -0.57749E+08        -0.31321E+06         0.00000E+00
   -0.31321E+06        -0.49939E+08         0.00000E+00
    0.00000E+00         0.00000E+00        -0.61464E+08
 
   -0.57862E+08        -0.32185E+06         0.00000E+00
   -0.32185E+06        -0.49927E+08         0.00000E+00
    0.00000E+00         0.00000E+00        -0.61484E+08
 
   -0.57975E+08        -0.32559E+06         0.00000E+00
   -0.32559E+06        -0.49916E+08         0.00000E+00
    0.00000E+00         0.00000E+00        -0.61504E+08
 
   -0.58088E+08        -0.32470E+06         0.00000E+00
   -0.32470E+06        -0.49904E+08         0.00000E+00
    0.00000E+00         0.00000E+00        -0.61524E+08
 
   -0.58201E+08        -0.31949E+06         0.00000E+00
   -0.31949E+06        -0.49892E+08         0.00000E+00
    0.00000E+00         0.00000E+00        -0.61544E+08
 
   -0.58314E+08        -0.31022E+06         0.00000E+00
   -0.31022E+06        -0.49880E+08         0.00000E+00
    0.00000E+00         0.00000E+00        -0.61564E+08
 
   -0.58427E+08        -0.29717E+06         0.00000E+00
   -0.29717E+06        -0.49868E+08         0.00000E+00
    0.00000E+00         0.00000E+00        -0.61584E+08
 
   -0.58539E+08        -0.28058E+06         0.00000E+00
   -0.28058E+06        -0.49856E+08         0.00000E+00
    0.00000E+00         0.00000E+00        -0.61604E+08
 
   -0.58650E+08        -0.26069E+06         0.00000E+00
   -0.26069E+06        -0.49843E+08         0.00000E+00
    0.00000E+00         0.00000E+00        -0.61624E+08
 
   -0.58761E+08        -0.23770E+06         0.00000E+00
   -0.23770E+06        -0.49831E+08         0.00000E+00
    0.00000E+00         0.00000E+00        -0.61643E+08
 
   -0.58871E+08        -0.21180E+06         0.00000E+00
   -0.21180E+06        -0.49818E+08         0.00000E+00
    0.00000E+00         0.00000E+00        -0.61662E+08
 
   -0.58981E+08        -0.18316E+06         0.00000E+00
   -0.18316E+06        -0.49804E+08         0.00000E+00
    0.00000E+00         0.00000E+00        -0.61681E+08
 
   -0.59090E+08        -0.15193E+06         0.00000E+00
   -0.15193E+06        -0.49791E+08         0.00000E+00
    0.00000E+00         0.00000E+00        -0.61700E+08
 
   -0.59198E+08        -0.11822E+06         0.00000E+00
   -0.11822E+06        -0.49777E+08         0.00000E+00
    0.00000E+00         0.00000E+00        -0.61719E+08
 
   -0.59306E+08        -0.82143E+05         0.00000E+00
   -0.82143E+05        -0.49762E+08         0.00000E+00
    0.00000E+00         0.00000E+00        -0.61737E+08
 
   -0.59414E+08        -0.43781E+05         0.00000E+00
   -0.43781E+05        -0.49746E+08         0.00000E+00
    0.00000E+00         0.00000E+00        -0.61756E+08
 
   -0.59521E+08        -0.31967E+04         0.00000E+00
   -0.31967E+04        -0.49730E+08         0.00000E+00
    0.00000E+00         0.00000E+00        -0.61774E+08
 
   -0.59628E+08         0.39563E+05         0.00000E+00
    0.39563E+05        -0.49713E+08         0.00000E+00
    0.00000E+00         0.00000E+00        -0.61791E+08
 
   -0.59734E+08         0.84471E+05         0.00000E+00
    0.84471E+05        -0.49695E+08         0.00000E+00
    0.00000E+00         0.00000E+00        -0.61809E+08
 
   -0.59840E+08         0.13152E+06         0.00000E+00
    0.13152E+06        -0.49676E+08         0.00000E+00
    0.00000E+00         0.00000E+00        -0.61826E+08
 
   -0.59947E+08         0.18070E+06         0.00000E+00
    0.18070E+06        -0.49656E+08         0.00000E+00
    0.00000E+00         0.00000E+00        -0.61843E+08
 
   -0.60053E+08         0.23205E+06         0.00000E+00
    0.23205E+06        -0.49635E+08         0.00000E+00
    0.00000E+00         0.00000E+00        -0.61860E+08
 
   -0.60159E+08         0.28561E+06         0.00000E+00
    0.28561E+06        -0.49613E+08         0.00000E+00
    0.00000E+00         0.00000E+00        -0.61877E+08
 
   -0.60265E+08         0.34141E+06         0.00000E+00
    0.34141E+06        -0.49589E+08         0.00000E+00
    0.00000E+00         0.00000E+00        -0.61893E+08
 
   -0.60371E+08         0.39954E+06         0.00000E+00
    0.39954E+06        -0.49564E+08         0.00000E+00
    0.00000E+00         0.00000E+00        -0.61909E+08
 
   -0.60477E+08         0.46007E+06         0.00000E+00
    0.46007E+06        -0.49538E+08         0.00000E+00
    0.00000E+00         0.00000E+00        -0.61925E+08
 
   -0.60583E+08         0.52309E+06         0.00000E+00
    0.52309E+06        -0.49510E+08         0.00000E+00
    0.00000E+00         0.00000E+00        -0.61940E+08
 
   -0.60689E+08         0.58871E+06         0.00000E+00
    0.58871E+06        -0.49481E+08         0.00000E+00
    0.00000E+00         0.00000E+00        -0.61956E+08
 
   -0.60795E+08         0.65705E+06         0.00000E+00
    0.65705E+06        -0.49451E+08         0.00000E+00
    0.00000E+00         0.00000E+00        -0.61971E+08
 
   -0.60901E+08         0.72822E+06         0.00000E+00
    0.72822E+06        -0.49419E+08         0.00000E+00
    0.00000E+00         0.00000E+00        -0.61985E+08
 
   -0.61006E+08         0.80237E+06         0.00000E+00
    0.80237E+06        -0.49386E+08         0.00000E+00
    0.00000E+00         0.00000E+00        -0.62000E+08
 
   -0.61112E+08         0.87962E+06         0.00000E+00
    0.87962E+06        -0.49352E+08         0.00000E+00
    0.00000E+00         0.00000E+00        -0.62014E+08
 
   -0.61216E+08         0.96010E+06         0.00000E+00
    0.96010E+06        -0.49317E+08         0.00000E+00
    0.00000E+00         0.00000E+00        -0.62028E+08
 
   -0.61320E+08         0.10439E+07         0.00000E+00
    0.10439E+07        -0.49280E+08         0.00000E+00
    0.00000E+00         0.00000E+00        -0.62041E+08
 
   -0.61423E+08         0.11313E+07         0.00000E+00
    0.11313E+07        -0.49243E+08         0.00000E+00
    0.00000E+00         0.00000E+00        -0.62054E+08
 
   -0.61525E+08         0.12221E+07         0.00000E+00
    0.12221E+07        -0.49205E+08         0.00000E+00
    0.00000E+00         0.00000E+00        -0.62067E+08
 
   -0.61626E+08         0.13167E+07         0.00000E+00
    0.13167E+07        -0.49166E+08         0.00000E+00
    0.00000E+00         0.00000E+00        -0.62079E+08
 
   -0.61724E+08         0.14149E+07         0.00000E+00
    0.14149E+07        -0.49127E+08         0.00000E+00
    0.00000E+00         0.00000E+00        -0.62091E+08
 
   -0.61821E+08         0.15169E+07         0.00000E+00
    0.15169E+07        -0.49087E+08         0.00000E+00
    0.00000E+00         0.00000E+00        -0.62102E+08
 
   -0.61915E+08         0.16227E+07         0.00000E+00
    0.16227E+07        -0.49048E+08         0.00000E+00
    0.00000E+00         0.00000E+00        -0.62113E+08
 
   -0.62007E+08         0.17324E+07         0.00000E+00
    0.17324E+07        -0.49008E+08         0.00000E+00
    0.00000E+00         0.00000E+00        -0.62124E+08
 
   -0.62095E+08         0.18456E+07         0.00000E+00
    0.18456E+07        -0.48970E+08         0.00000E+00
    0.00000E+00         0.00000E+00        -0.62134E+08
 
   -0.57183E+08        -0.29155E+05         0.00000E+00
   -0.29155E+05        -0.50001E+08         0.00000E+00
    0.00000E+00         0.00000E+00        -0.60908E+08
 
   -0.57247E+08        -0.74909E+05         0.00000E+00
   -0.74909E+05        -0.49998E+08         0.00000E+00
    0.00000E+00         0.00000E+00        -0.60920E+08
 
   -0.57315E+08        -0.11532E+06         0.00000E+00
   -0.11532E+06        -0.49993E+08         0.00000E+00
    0.00000E+00         0.00000E+00        -0.60933E+08
 
   -0.57388E+08        -0.15048E+06         0.00000E+00
   -0.15048E+06        -0.49987E+08         0.00000E+00
    0.00000E+00         0.00000E+00        -0.60946E+08
 
   -0.57464E+08        -0.18045E+06         0.00000E+00
   -0.18045E+06        -0.49978E+08         0.00000E+00
    0.00000E+00         0.00000E+00        -0.60960E+08
 
   -0.57544E+08        -0.20533E+06         0.00000E+00
   -0.20533E+06        -0.49969E+08         0.00000E+00
    0.00000E+00         0.00000E+00        -0.60974E+08
 
   -0.57626E+08        -0.22522E+06         0.00000E+00
   -0.22522E+06        -0.49957E+08         0.00000E+00
    0.00000E+00         0.00000E+00        -0.60988E+08
 
   -0.57711E+08        -0.24027E+06         0.00000E+00
   -0.24027E+06        -0.49945E+08         0.00000E+00
    0.00000E+00         0.00000E+00        -0.61003E+08
 
   -0.57798E+08        -0.25063E+06         0.00000E+00
   -0.25063E+06        -0.49932E+08         0.00000E+00
    0.00000E+00         0.00000E+00        -0.61017E+08
 
   -0.57887E+08        -0.25643E+06         0.00000E+00
   -0.25643E+06        -0.49918E+08         0.00000E+00
    0.00000E+00         0.00000E+00        -0.61032E+08
 
   -0.57978E+08        -0.25787E+06         0.00000E+00
   -0.25787E+06        -0.49903E+08         0.00000E+00
    0.00000E+00         0.00000E+00        -0.61047E+08
 
   -0.58069E+08        -0.25509E+06         0.00000E+00
   -0.25509E+06        -0.49888E+08         0.00000E+00
    0.00000E+00         0.00000E+00        -0.61063E+08
 
   -0.58162E+08        -0.24827E+06         0.00000E+00
   -0.24827E+06        -0.49872E+08         0.00000E+00
    0.00000E+00         0.00000E+00        -0.61078E+08
 
   -0.58256E+08        -0.23758E+06         0.00000E+00
   -0.23758E+06        -0.49856E+08         0.00000E+00
    0.00000E+00         0.00000E+00        -0.61093E+08
 
   -0.58350E+08        -0.22319E+06         0.00000E+00
   -0.22319E+06        -0.49839E+08         0.00000E+00
    0.00000E+00         0.00000E+00        -0.61109E+08
 
   -0.58445E+08        -0.20527E+06         0.00000E+00
   -0.20527E+06        -0.49822E+08         0.00000E+00
    0.00000E+00         0.00000E+00        -0.61124E+08
 
   -0.58540E+08        -0.18397E+06         0.00000E+00
   -0.18397E+06        -0.49805E+08         0.00000E+00
    0.00000E+00         0.00000E+00        -0.61140E+08
 
   -0.58635E+08        -0.15944E+06         0.00000E+00
   -0.15944E+06        -0.49787E+08         0.00000E+00
    0.00000E+00         0.00000E+00        -0.61155E+08
 
   -0.58731E+08        -0.13182E+06         0.00000E+00
   -0.13182E+06        -0.49769E+08         0.00000E+00
    0.00000E+00         0.00000E+00        -0.61171E+08
 
   -0.58826E+08        -0.10124E+06         0.00000E+00
   -0.10124E+06        -0.49750E+08         0.00000E+00
    0.00000E+00         0.00000E+00        -0.61186E+08
 
   -0.58922E+08        -0.67801E+05         0.00000E+00
   -0.67801E+05        -0.49731E+08         0.00000E+00
    0.00000E+00         0.00000E+00        -0.61201E+08
 
   -0.59017E+08        -0.31620E+05         0.00000E+00
   -0.31620E+05        -0.49712E+08         0.00000E+00
    0.00000E+00         0.00000E+00        -0.61217E+08
 
   -0.59113E+08         0.72184E+04         0.00000E+00
    0.72184E+04        -0.49692E+08         0.00000E+00
    0.00000E+00         0.00000E+00        -0.61232E+08
 
   -0.59208E+08         0.48639E+05         0.00000E+00
    0.48639E+05        -0.49671E+08         0.00000E+00
    0.00000E+00         0.00000E+00        -0.61247E+08
 
   -0.59304E+08         0.92577E+05         0.00000E+00
    0.92577E+05        -0.49651E+08         0.00000E+00
    0.00000E+00         0.00000E+00        -0.61261E+08
 
   -0.59399E+08         0.13898E+06         0.00000E+00
    0.13898E+06        -0.49629E+08         0.00000E+00
    0.00000E+00         0.00000E+00        -0.61276E+08
 
   -0.59494E+08         0.18782E+06         0.00000E+00
    0.18782E+06        -0.49607E+08         0.00000E+00
    0.00000E+00         0.00000E+00        -0.61291E+08
 
   -0.59589E+08         0.23906E+06         0.00000E+00
    0.23906E+06        -0.49584E+08         0.00000E+00
    0.00000E+00         0.00000E+00        -0.61305E+08
 
   -0.59684E+08         0.29269E+06         0.00000E+00
    0.29269E+06        -0.49561E+08         0.00000E+00
    0.00000E+00         0.00000E+00        -0.61319E+08
 
   -0.59778E+08         0.34871E+06         0.00000E+00
    0.34871E+06        -0.49536E+08         0.00000E+00
    0.00000E+00         0.00000E+00        -0.61333E+08
 
   -0.59873E+08         0.40713E+06         0.00000E+00
    0.40713E+06        -0.49512E+08         0.00000E+00
    0.00000E+00         0.00000E+00        -0.61347E+08
 
   -0.59967E+08         0.46795E+06         0.00000E+00
    0.46795E+06        -0.49486E+08         0.00000E+00
    0.00000E+00         0.00000E+00        -0.61361E+08
 
   -0.60061E+08         0.53122E+06         0.00000E+00
    0.53122E+06        -0.49459E+08         0.00000E+00
    0.00000E+00         0.00000E+00        -0.61374E+08
 
   -0.60154E+08         0.59696E+06         0.00000E+00
    0.59696E+06        -0.49432E+08         0.00000E+00
    0.00000E+00         0.00000E+00        -0.61388E+08
 
   -0.60248E+08         0.66521E+06         0.00000E+00
    0.66521E+06        -0.49404E+08         0.00000E+00
    0.00000E+00         0.00000E+00        -0.61401E+08
 
   -0.60341E+08         0.73602E+06         0.00000E+00
    0.73602E+06        -0.49375E+08         0.00000E+00
    0.00000E+00         0.00000E+00        -0.61413E+08
 
   -0.60433E+08         0.80945E+06         0.00000E+00
    0.80945E+06        -0.49346E+08         0.00000E+00
    0.00000E+00         0.00000E+00        -0.61426E+08
 
   -0.60525E+08         0.88553E+06         0.00000E+00
    0.88553E+06        -0.49315E+08         0.00000E+00
    0.00000E+00         0.00000E+00        -0.61438E+08
 
   -0.60616E+08         0.96434E+06         0.00000E+00
    0.96434E+06        -0.49284E+08         0.00000E+00
    0.00000E+00         0.00000E+00        -0.61450E+08
 
   -0.60707E+08         0.10459E+07         0.00000E+00
    0.10459E+07        -0.49253E+08         0.00000E+00
    0.00000E+00         0.00000E+00        -0.61462E+08
 
   -0.60796E+08         0.11303E+07         0.00000E+00
    0.11303E+07        -0.49221E+08         0.00000E+00
    0.00000E+00         0.00000E+00        -0.61473E+08
 
   -0.60884E+08         0.12175E+07         0.00000E+00
    0.12175E+07        -0.49188E+08         0.00000E+00
    0.00000E+00         0.00000E+00        -0.61485E+08
 
   -0.60971E+08         0.13076E+07         0.00000E+00
    0.13076E+07        -0.49155E+08         0.00000E+00
    0.00000E+00         0.00000E+00        -0.61495E+08
 
   -0.61057E+08         0.14007E+07         0.00000E+00
    0.14007E+07        -0.49122E+08         0.00000E+00
    0.00000E+00         0.00000E+00        -0.61506E+08
 
   -0.61141E+08         0.14966E+07         0.00000E+00
    0.14966E+07        -0.49089E+08         0.00000E+00
    0.00000E+00         0.00000E+00        -0.61516E+08
 
   -0.61223E+08         0.15955E+07         0.00000E+00
    0.15955E+07        -0.49056E+08         0.00000E+00
    0.00000E+00         0.00000E+00        -0.61526E+08
 
   -0.61303E+08         0.16972E+07         0.00000E+00
    0.16972E+07        -0.49022E+08         0.00000E+00
    0.00000E+00         0.00000E+00        -0.61535E+08
 
   -0.61381E+08         0.18019E+07         0.00000E+00
    0.18019E+07        -0.48990E+08         0.00000E+00
    0.00000E+00         0.00000E+00        -0.61544E+08
 
   -0.61457E+08         0.19093E+07         0.00000E+00
    0.19093E+07        -0.48957E+08         0.00000E+00
    0.00000E+00         0.00000E+00        -0.61553E+08
 
   -0.61529E+08         0.20194E+07         0.00000E+00
    0.20194E+07        -0.48925E+08         0.00000E+00
    0.00000E+00         0.00000E+00        -0.61561E+08
 
   -0.57396E+08        -0.22286E+05         0.00000E+00
   -0.22286E+05        -0.50001E+08         0.00000E+00
    0.00000E+00         0.00000E+00        -0.60501E+08
 
   -0.57435E+08        -0.56810E+05         0.00000E+00
   -0.56810E+05        -0.49998E+08         0.00000E+00
    0.00000E+00         0.00000E+00        -0.60509E+08
 
   -0.57480E+08        -0.87042E+05         0.00000E+00
   -0.87042E+05        -0.49994E+08         0.00000E+00
    0.00000E+00         0.00000E+00        -0.60517E+08
 
   -0.57529E+08        -0.11299E+06         0.00000E+00
   -0.11299E+06        -0.49987E+08         0.00000E+00
    0.00000E+00         0.00000E+00        -0.60525E+08
 
   -0.57582E+08        -0.13468E+06         0.00000E+00
   -0.13468E+06        -0.49978E+08         0.00000E+00
    0.00000E+00         0.00000E+00        -0.60534E+08
 
   -0.57638E+08        -0.15217E+06         0.00000E+00
   -0.15217E+06        -0.49968E+08         0.00000E+00
    0.00000E+00         0.00000E+00        -0.60544E+08
 
   -0.57698E+08        -0.16550E+06         0.00000E+00
   -0.16550E+06        -0.49957E+08         0.00000E+00
    0.00000E+00         0.00000E+00        -0.60553E+08
 
   -0.57761E+08        -0.17475E+06         0.00000E+00
   -0.17475E+06        -0.49944E+08         0.00000E+00
    0.00000E+00         0.00000E+00        -0.60564E+08
 
   -0.57827E+08        -0.17997E+06         0.00000E+00
   -0.17997E+06        -0.49930E+08         0.00000E+00
    0.00000E+00         0.00000E+00        -0.60574E+08
 
   -0.57895E+08        -0.18127E+06         0.00000E+00
   -0.18127E+06        -0.49915E+08         0.00000E+00
    0.00000E+00         0.00000E+00        -0.60585E+08
 
   -0.57965E+08        -0.17872E+06         0.00000E+00
   -0.17872E+06        -0.49899E+08         0.00000E+00
    0.00000E+00         0.00000E+00        -0.60596E+08
 
   -0.58037E+08        -0.17243E+06         0.00000E+00
   -0.17243E+06        -0.49882E+08         0.00000E+00
    0.00000E+00         0.00000E+00        -0.60607E+08
 
   -0.58111E+08        -0.16250E+06         0.00000E+00
   -0.16250E+06        -0.49864E+08         0.00000E+00
    0.00000E+00         0.00000E+00        -0.60618E+08
 
   -0.58187E+08        -0.14902E+06         0.00000E+00
   -0.14902E+06        -0.49846E+08         0.00000E+00
    0.00000E+00         0.00000E+00        -0.60630E+08
 
   -0.58264E+08        -0.13210E+06         0.00000E+00
   -0.13210E+06        -0.49827E+08         0.00000E+00
    0.00000E+00         0.00000E+00        -0.60641E+08
 
   -0.58341E+08        -0.11184E+06         0.00000E+00
   -0.11184E+06        -0.49808E+08         0.00000E+00
    0.00000E+00         0.00000E+00        -0.60653E+08
 
   -0.58420E+08        -0.88339E+05         0.00000E+00
   -0.88339E+05        -0.49788E+08         0.00000E+00
    0.00000E+00         0.00000E+00        -0.60665E+08
 
   -0.58500E+08        -0.61700E+05         0.00000E+00
   -0.61700E+05        -0.49767E+08         0.00000E+00
    0.00000E+00         0.00000E+00        -0.60677E+08
 
   -0.58580E+08        -0.32012E+05         0.00000E+00
   -0.32012E+05        -0.49746E+08         0.00000E+00
    0.00000E+00         0.00000E+00        -0.60689E+08
 
   -0.58661E+08         0.63455E+03         0.00000E+00
    0.63455E+03        -0.49725E+08         0.00000E+00
    0.00000E+00         0.00000E+00        -0.60701E+08
 
   -0.58743E+08         0.36158E+05         0.00000E+00
    0.36158E+05        -0.49703E+08         0.00000E+00
    0.00000E+00         0.00000E+00        -0.60713E+08
 
   -0.58825E+08         0.74483E+05         0.00000E+00
    0.74483E+05        -0.49681E+08         0.00000E+00
    0.00000E+00         0.00000E+00        -0.60725E+08
 
   -0.58907E+08         0.11554E+06         0.00000E+00
    0.11554E+06        -0.49658E+08         0.00000E+00
    0.00000E+00         0.00000E+00        -0.60737E+08
 
   -0.58989E+08         0.15927E+06         0.00000E+00
    0.15927E+06        -0.49635E+08         0.00000E+00
    0.00000E+00         0.00000E+00        -0.60749E+08
 
   -0.59072E+08         0.20561E+06         0.00000E+00
    0.20561E+06        -0.49612E+08         0.00000E+00
    0.00000E+00         0.00000E+00        -0.60761E+08
 
   -0.59154E+08         0.25452E+06         0.00000E+00
    0.25452E+06        -0.49588E+08         0.00000E+00
    0.00000E+00         0.00000E+00        -0.60773E+08
 
   -0.59237E+08         0.30595E+06         0.00000E+00
    0.30595E+06        -0.49564E+08         0.00000E+00
    0.00000E+00         0.00000E+00        -0.60785E+08
 
   -0.59320E+08         0.35989E+06         0.00000E+00
    0.35989E+06        -0.49539E+08         0.00000E+00
    0.00000E+00         0.00000E+00        -0.60796E+08
 
   -0.59403E+08         0.41629E+06         0.00000E+00
    0.41629E+06        -0.49514E+08         0.00000E+00
    0.00000E+00         0.00000E+00        -0.60808E+08
 
   -0.59485E+08         0.47515E+06         0.00000E+00
    0.47515E+06        -0.49488E+08         0.00000E+00
    0.00000E+00         0.00000E+00        -0.60819E+08
 
   -0.59567E+08         0.53644E+06         0.00000E+00
    0.53644E+06        -0.49462E+08         0.00000E+00
    0.00000E+00         0.00000E+00        -0.60831E+08
 
   -0.59649E+08         0.60017E+06         0.00000E+00
    0.60017E+06        -0.49436E+08         0.00000E+00
    0.00000E+00         0.00000E+00        -0.60842E+08
 
   -0.59731E+08         0.66632E+06         0.00000E+00
    0.66632E+06        -0.49409E+08         0.00000E+00
    0.00000E+00         0.00000E+00        -0.60853E+08
 
   -0.59812E+08         0.73491E+06         0.00000E+00
    0.73491E+06        -0.49382E+08         0.00000E+00
    0.00000E+00         0.00000E+00        -0.60864E+08
 
   -0.59893E+08         0.80593E+06         0.00000E+00
    0.80593E+06        -0.49354E+08         0.00000E+00
    0.00000E+00         0.00000E+00        -0.60875E+08
 
   -0.59974E+08         0.87940E+06         0.00000E+00
    0.87940E+06        -0.49326E+08         0.00000E+00
    0.00000E+00         0.00000E+00        -0.60885E+08
 
   -0.60053E+08         0.95532E+06         0.00000E+00
    0.95532E+06        -0.49298E+08         0.00000E+00
    0.00000E+00         0.00000E+00        -0.60896E+08
 
   -0.60132E+08         0.10337E+07         0.00000E+00
    0.10337E+07        -0.49270E+08         0.00000E+00
    0.00000E+00         0.00000E+00        -0.60906E+08
 
   -0.60210E+08         0.11145E+07         0.00000E+00
    0.11145E+07        -0.49241E+08         0.00000E+00
    0.00000E+00         0.00000E+00        -0.60916E+08
 
   -0.60288E+08         0.11978E+07         0.00000E+00
    0.11978E+07        -0.49212E+08         0.00000E+00
    0.00000E+00         0.00000E+00        -0.60925E+08
 
   -0.60364E+08         0.12836E+07         0.00000E+00
    0.12836E+07        -0.49183E+08         0.00000E+00
    0.00000E+00         0.00000E+00        -0.60935E+08
 
   -0.60439E+08         0.13719E+07         0.00000E+00
    0.13719E+07        -0.49154E+08         0.00000E+00
    0.00000E+00         0.00000E+00        -0.60944E+08
 
   -0.60513E+08         0.14626E+07         0.00000E+00
    0.14626E+07        -0.49125E+08         0.00000E+00
    0.00000E+00         0.00000E+00        -0.60953E+08
 
   -0.60585E+08         0.15557E+07         0.00000E+00
    0.15557E+07        -0.49095E+08         0.00000E+00
    0.00000E+00         0.00000E+00        -0.60962E+08
 
   -0.60656E+08         0.16513E+07         0.00000E+00
    0.16513E+07        -0.49066E+08         0.00000E+00
    0.00000E+00         0.00000E+00        -0.60970E+08
 
   -0.60725E+08         0.17493E+07         0.00000E+00
    0.17493E+07        -0.49038E+08         0.00000E+00
    0.00000E+00         0.00000E+00        -0.60978E+08
 
   -0.60792E+08         0.18495E+07         0.00000E+00
    0.18495E+07        -0.49009E+08         0.00000E+00
    0.00000E+00         0.00000E+00        -0.60986E+08
 
   -0.60857E+08         0.19521E+07         0.00000E+00
    0.19521E+07        -0.48981E+08         0.00000E+00
    0.00000E+00         0.00000E+00        -0.60994E+08
 
   -0.60920E+08         0.20569E+07         0.00000E+00
    0.20569E+07        -0.48954E+08         0.00000E+00
    0.00000E+00         0.00000E+00        -0.61001E+08
 
   -0.60981E+08         0.21638E+07         0.00000E+00
    0.21638E+07        -0.48927E+08         0.00000E+00
    0.00000E+00         0.00000E+00        -0.61008E+08
 
   -0.57550E+08        -0.15775E+05         0.00000E+00
   -0.15775E+05        -0.50001E+08         0.00000E+00
    0.00000E+00         0.00000E+00        -0.60091E+08
 
   -0.57571E+08        -0.39306E+05         0.00000E+00
   -0.39306E+05        -0.49998E+08         0.00000E+00
    0.00000E+00         0.00000E+00        -0.60095E+08
 
   -0.57596E+08        -0.59374E+05         0.00000E+00
   -0.59374E+05        -0.49994E+08         0.00000E+00
    0.00000E+00         0.00000E+00        -0.60099E+08
 
   -0.57626E+08        -0.75966E+05         0.00000E+00
   -0.75966E+05        -0.49988E+08         0.00000E+00
    0.00000E+00         0.00000E+00        -0.60104E+08
 
   -0.57659E+08        -0.89075E+05         0.00000E+00
   -0.89075E+05        -0.49979E+08         0.00000E+00
    0.00000E+00         0.00000E+00        -0.60109E+08
 
   -0.57697E+08        -0.98707E+05         0.00000E+00
   -0.98707E+05        -0.49969E+08         0.00000E+00
    0.00000E+00         0.00000E+00        -0.60115E+08
 
   -0.57738E+08        -0.10488E+06         0.00000E+00
   -0.10488E+06        -0.49958E+08         0.00000E+00
    0.00000E+00         0.00000E+00        -0.60121E+08
 
   -0.57782E+08        -0.10761E+06         0.00000E+00
   -0.10761E+06        -0.49945E+08         0.00000E+00
    0.00000E+00         0.00000E+00        -0.60127E+08
 
   -0.57829E+08        -0.10693E+06         0.00000E+00
   -0.10693E+06        -0.49931E+08         0.00000E+00
    0.00000E+00         0.00000E+00        -0.60134E+08
 
   -0.57879E+08        -0.10288E+06         0.00000E+00
   -0.10288E+06        -0.49916E+08         0.00000E+00
    0.00000E+00         0.00000E+00        -0.60141E+08
 
   -0.57932E+08        -0.95495E+05         0.00000E+00
   -0.95495E+05        -0.49900E+08         0.00000E+00
    0.00000E+00         0.00000E+00        -0.60149E+08
 
   -0.57987E+08        -0.84836E+05         0.00000E+00
   -0.84836E+05        -0.49883E+08         0.00000E+00
    0.00000E+00         0.00000E+00        -0.60156E+08
 
   -0.58044E+08        -0.70949E+05         0.00000E+00
   -0.70949E+05        -0.49865E+08         0.00000E+00
    0.00000E+00         0.00000E+00        -0.60164E+08
 
   -0.58103E+08        -0.53890E+05         0.00000E+00
   -0.53890E+05        -0.49846E+08         0.00000E+00
    0.00000E+00         0.00000E+00        -0.60173E+08
 
   -0.58163E+08        -0.33719E+05         0.00000E+00
   -0.33719E+05        -0.49826E+08         0.00000E+00
    0.00000E+00         0.00000E+00        -0.60181E+08
 
   -0.58225E+08        -0.10495E+05         0.00000E+00
   -0.10495E+05        -0.49806E+08         0.00000E+00
    0.00000E+00         0.00000E+00        -0.60190E+08
 
   -0.58289E+08         0.15722E+05         0.00000E+00
    0.15722E+05        -0.49785E+08         0.00000E+00
    0.00000E+00         0.00000E+00        -0.60198E+08
 
   -0.58353E+08         0.44871E+05         0.00000E+00
    0.44871E+05        -0.49764E+08         0.00000E+00
    0.00000E+00         0.00000E+00        -0.60207E+08
 
   -0.58419E+08         0.76893E+05         0.00000E+00
    0.76893E+05        -0.49742E+08         0.00000E+00
    0.00000E+00         0.00000E+00        -0.60216E+08
 
   -0.58486E+08         0.11173E+06         0.00000E+00
    0.11173E+06        -0.49719E+08         0.00000E+00
    0.00000E+00         0.00000E+00        -0.60225E+08
 
   -0.58553E+08         0.14933E+06         0.00000E+00
    0.14933E+06        -0.49696E+08         0.00000E+00
    0.00000E+00         0.00000E+00        -0.60235E+08
 
   -0.58622E+08         0.18963E+06         0.00000E+00
    0.18963E+06        -0.49673E+08         0.00000E+00
    0.00000E+00         0.00000E+00        -0.60244E+08
 
   -0.58690E+08         0.23259E+06         0.00000E+00
    0.23259E+06        -0.49650E+08         0.00000E+00
    0.00000E+00         0.00000E+00        -0.60253E+08
 
   -0.58760E+08         0.27815E+06         0.00000E+00
    0.27815E+06        -0.49626E+08         0.00000E+00
    0.00000E+00         0.00000E+00        -0.60263E+08
 
   -0.58829E+08         0.32628E+06         0.00000E+00
    0.32628E+06        -0.49602E+08         0.00000E+00
    0.00000E+00         0.00000E+00        -0.60272E+08
 
   -0.58899E+08         0.37694E+06         0.00000E+00
    0.37694E+06        -0.49577E+08         0.00000E+00
    0.00000E+00         0.00000E+00        -0.60281E+08
 
   -0.58970E+08         0.43008E+06         0.00000E+00
    0.43008E+06        -0.49552E+08         0.00000E+00
    0.00000E+00         0.00000E+00        -0.60291E+08
 
   -0.59040E+08         0.48568E+06         0.00000E+00
    0.48568E+06        -0.49527E+08         0.00000E+00
    0.00000E+00         0.00000E+00        -0.60300E+08
 
   -0.59110E+08         0.54370E+06         0.00000E+00
    0.54370E+06        -0.49502E+08         0.00000E+00
    0.00000E+00         0.00000E+00        -0.60309E+08
 
   -0.59181E+08         0.60413E+06         0.00000E+00
    0.60413E+06        -0.49476E+08         0.00000E+00
    0.00000E+00         0.00000E+00        -0.60318E+08
 
   -0.59251E+08         0.66693E+06         0.00000E+00
    0.66693E+06        -0.49451E+08         0.00000E+00
    0.00000E+00         0.00000E+00        -0.60328E+08
 
   -0.59321E+08         0.73209E+06         0.00000E+00
    0.73209E+06        -0.49425E+08         0.00000E+00
    0.00000E+00         0.00000E+00        -0.60337E+08
 
   -0.59391E+08         0.79959E+06         0.00000E+00
    0.79959E+06        -0.49398E+08         0.00000E+00
    0.00000E+00         0.00000E+00        -0.60346E+08
 
   -0.59460E+08         0.86941E+06         0.00000E+00
    0.86941E+06        -0.49372E+08         0.00000E+00
    0.00000E+00         0.00000E+00        -0.60354E+08
 
   -0.59529E+08         0.94153E+06         0.00000E+00
    0.94153E+06        -0.49346E+08         0.00000E+00
    0.00000E+00         0.00000E+00        -0.60363E+08
 
   -0.59598E+08         0.10159E+07         0.00000E+00
    0.10159E+07        -0.49319E+08         0.00000E+00
    0.00000E+00         0.00000E+00        -0.60372E+08
 
   -0.59666E+08         0.10926E+07         0.00000E+00
    0.10926E+07        -0.49293E+08         0.00000E+00
    0.00000E+00         0.00000E+00        -0.60380E+08
 
   -0.59733E+08         0.11716E+07         0.00000E+00
    0.11716E+07        -0.49266E+08         0.00000E+00
    0.00000E+00         0.00000E+00        -0.60389E+08
 
   -0.59799E+08         0.12528E+07         0.00000E+00
    0.12528E+07        -0.49240E+08         0.00000E+00
    0.00000E+00         0.00000E+00        -0.60397E+08
 
   -0.59865E+08         0.13362E+07         0.00000E+00
    0.13362E+07        -0.49213E+08         0.00000E+00
    0.00000E+00         0.00000E+00        -0.60405E+08
 
   -0.59929E+08         0.14218E+07         0.00000E+00
    0.14218E+07        -0.49187E+08         0.00000E+00
    0.00000E+00         0.00000E+00        -0.60412E+08
 
   -0.59993E+08         0.15096E+07         0.00000E+00
    0.15096E+07        -0.49161E+08         0.00000E+00
    0.00000E+00         0.00000E+00        -0.60420E+08
 
   -0.60055E+08         0.15996E+07         0.00000E+00
    0.15996E+07        -0.49135E+08         0.00000E+00
    0.00000E+00         0.00000E+00        -0.60428E+08
 
   -0.60116E+08         0.16916E+07         0.00000E+00
    0.16916E+07        -0.49109E+08         0.00000E+00
    0.00000E+00         0.00000E+00        -0.60435E+08
 
   -0.60176E+08         0.17858E+07         0.00000E+00
    0.17858E+07        -0.49084E+08         0.00000E+00
    0.00000E+00         0.00000E+00        -0.60442E+08
 
   -0.60234E+08         0.18819E+07         0.00000E+00
    0.18819E+07        -0.49059E+08         0.00000E+00
    0.00000E+00         0.00000E+00        -0.60448E+08
 
   -0.60291E+08         0.19800E+07         0.00000E+00
    0.19800E+07        -0.49035E+08         0.00000E+00
    0.00000E+00         0.00000E+00        -0.60455E+08
 
   -0.60346E+08         0.20800E+07         0.00000E+00
    0.20800E+07        -0.49011E+08         0.00000E+00
    0.00000E+00         0.00000E+00        -0.60461E+08
 
   -0.60399E+08         0.21819E+07         0.00000E+00
    0.21819E+07        -0.48987E+08         0.00000E+00
    0.00000E+00         0.00000E+00        -0.60467E+08
 
   -0.60451E+08         0.22855E+07         0.00000E+00
    0.22855E+07        -0.48965E+08         0.00000E+00
    0.00000E+00         0.00000E+00        -0.60473E+08
 
   -0.57649E+08        -0.97077E+04         0.00000E+00
   -0.97077E+04        -0.50001E+08         0.00000E+00
    0.00000E+00         0.00000E+00        -0.59679E+08
 
   -0.57654E+08        -0.22777E+05         0.00000E+00
   -0.22777E+05        -0.49999E+08         0.00000E+00
    0.00000E+00         0.00000E+00        -0.59680E+08
 
   -0.57664E+08        -0.33075E+05         0.00000E+00
   -0.33075E+05        -0.49994E+08         0.00000E+00
    0.00000E+00         0.00000E+00        -0.59681E+08
 
   -0.57678E+08        -0.40564E+05         0.00000E+00
   -0.40564E+05        -0.49988E+08         0.00000E+00
    0.00000E+00         0.00000E+00        -0.59683E+08
 
   -0.57696E+08        -0.45217E+05         0.00000E+00
   -0.45217E+05        -0.49981E+08         0.00000E+00
    0.00000E+00         0.00000E+00        -0.59685E+08
 
   -0.57717E+08        -0.47013E+05         0.00000E+00
   -0.47013E+05        -0.49971E+08         0.00000E+00
    0.00000E+00         0.00000E+00        -0.59688E+08
 
   -0.57743E+08        -0.45939E+05         0.00000E+00
   -0.45939E+05        -0.49960E+08         0.00000E+00
    0.00000E+00         0.00000E+00        -0.59691E+08
 
   -0.57771E+08        -0.41991E+05         0.00000E+00
   -0.41991E+05        -0.49948E+08         0.00000E+00
    0.00000E+00         0.00000E+00        -0.59694E+08
 
   -0.57803E+08        -0.35169E+05         0.00000E+00
   -0.35169E+05        -0.49935E+08         0.00000E+00
    0.00000E+00         0.00000E+00        -0.59698E+08
 
   -0.57837E+08        -0.25481E+05         0.00000E+00
   -0.25481E+05        -0.49920E+08         0.00000E+00
    0.00000E+00         0.00000E+00        -0.59702E+08
 
   -0.57875E+08        -0.12938E+05         0.00000E+00
   -0.12938E+05        -0.49904E+08         0.00000E+00
    0.00000E+00         0.00000E+00        -0.59707E+08
 
   -0.57914E+08         0.24409E+04         0.00000E+00
    0.24409E+04        -0.49888E+08         0.00000E+00
    0.00000E+00         0.00000E+00        -0.59712E+08
 
   -0.57956E+08         0.20635E+05         0.00000E+00
    0.20635E+05        -0.49870E+08         0.00000E+00
    0.00000E+00         0.00000E+00        -0.59717E+08
 
   -0.58000E+08         0.41619E+05         0.00000E+00
    0.41619E+05        -0.49851E+08         0.00000E+00
    0.00000E+00         0.00000E+00        -0.59723E+08
 
   -0.58046E+08         0.65364E+05         0.00000E+00
    0.65364E+05        -0.49832E+08         0.00000E+00
    0.00000E+00         0.00000E+00        -0.59728E+08
 
   -0.58094E+08         0.91840E+05         0.00000E+00
    0.91840E+05        -0.49812E+08         0.00000E+00
    0.00000E+00         0.00000E+00        -0.59734E+08
 
   -0.58143E+08         0.12101E+06         0.00000E+00
    0.12101E+06        -0.49792E+08         0.00000E+00
    0.00000E+00         0.00000E+00        -0.59740E+08
 
   -0.58194E+08         0.15285E+06         0.00000E+00
    0.15285E+06        -0.49771E+08         0.00000E+00
    0.00000E+00         0.00000E+00        -0.59747E+08
 
   -0.58246E+08         0.18732E+06         0.00000E+00
    0.18732E+06        -0.49749E+08         0.00000E+00
    0.00000E+00         0.00000E+00        -0.59753E+08
 
   -0.58300E+08         0.22438E+06         0.00000E+00
    0.22438E+06        -0.49727E+08         0.00000E+00
    0.00000E+00         0.00000E+00        -0.59760E+08
 
   -0.58354E+08         0.26400E+06         0.00000E+00
    0.26400E+06        -0.49704E+08         0.00000E+00
    0.00000E+00         0.00000E+00        -0.59767E+08
 
   -0.58409E+08         0.30615E+06         0.00000E+00
    0.30615E+06        -0.49681E+08         0.00000E+00
    0.00000E+00         0.00000E+00        -0.59774E+08
 
   -0.58465E+08         0.35078E+06         0.00000E+00
    0.35078E+06        -0.49658E+08         0.00000E+00
    0.00000E+00         0.00000E+00        -0.59780E+08
 
   -0.58522E+08         0.39786E+06         0.00000E+00
    0.39786E+06        -0.49635E+08         0.00000E+00
    0.00000E+00         0.00000E+00        -0.59788E+08
 
   -0.58579E+08         0.44737E+06         0.00000E+00
    0.44737E+06        -0.49611E+08         0.00000E+00
    0.00000E+00         0.00000E+00        -0.59795E+08
 
   -0.58637E+08         0.49927E+06         0.00000E+00
    0.49927E+06        -0.49587E+08         0.00000E+00
    0.00000E+00         0.00000E+00        -0.59802E+08
 
   -0.58695E+08         0.55352E+06         0.00000E+00
    0.55352E+06        -0.49563E+08         0.00000E+00
    0.00000E+00         0.00000E+00        -0.59809E+08
 
   -0.58754E+08         0.61011E+06         0.00000E+00
    0.61011E+06        -0.49538E+08         0.00000E+00
    0.00000E+00         0.00000E+00        -0.59816E+08
 
   -0.58812E+08         0.66899E+06         0.00000E+00
    0.66899E+06        -0.49514E+08         0.00000E+00
    0.00000E+00         0.00000E+00        -0.59823E+08
 
   -0.58871E+08         0.73016E+06         0.00000E+00
    0.73016E+06        -0.49489E+08         0.00000E+00
    0.00000E+00         0.00000E+00        -0.59831E+08
 
   -0.58930E+08         0.79357E+06         0.00000E+00
    0.79357E+06        -0.49465E+08         0.00000E+00
    0.00000E+00         0.00000E+00        -0.59838E+08
 
   -0.58988E+08         0.85920E+06         0.00000E+00
    0.85920E+06        -0.49440E+08         0.00000E+00
    0.00000E+00         0.00000E+00        -0.59845E+08
 
   -0.59047E+08         0.92703E+06         0.00000E+00
    0.92703E+06        -0.49415E+08         0.00000E+00
    0.00000E+00         0.00000E+00        -0.59852E+08
 
   -0.59105E+08         0.99704E+06         0.00000E+00
    0.99704E+06        -0.49390E+08         0.00000E+00
    0.00000E+00         0.00000E+00        -0.59859E+08
 
   -0.59163E+08         0.10692E+07         0.00000E+00
    0.10692E+07        -0.49366E+08         0.00000E+00
    0.00000E+00         0.00000E+00        -0.59866E+08
 
   -0.59221E+08         0.11435E+07         0.00000E+00
    0.11435E+07        -0.49341E+08         0.00000E+00
    0.00000E+00         0.00000E+00        -0.59873E+08
 
   -0.59278E+08         0.12199E+07         0.00000E+00
    0.12199E+07        -0.49317E+08         0.00000E+00
    0.00000E+00         0.00000E+00        -0.59880E+08
 
   -0.59334E+08         0.12983E+07         0.00000E+00
    0.12983E+07        -0.49293E+08         0.00000E+00
    0.00000E+00         0.00000E+00        -0.59886E+08
 
   -0.59390E+08         0.13788E+07         0.00000E+00
    0.13788E+07        -0.49268E+08         0.00000E+00
    0.00000E+00         0.00000E+00        -0.59893E+08
 
   -0.59445E+08         0.14613E+07         0.00000E+00
    0.14613E+07        -0.49245E+08         0.00000E+00
    0.00000E+00         0.00000E+00        -0.59900E+08
 
   -0.59499E+08         0.15458E+07         0.00000E+00
    0.15458E+07        -0.49221E+08         0.00000E+00
    0.00000E+00         0.00000E+00        -0.59906E+08
 
   -0.59552E+08         0.16323E+07         0.00000E+00
    0.16323E+07        -0.49198E+08         0.00000E+00
    0.00000E+00         0.00000E+00        -0.59912E+08
 
   -0.59605E+08         0.17206E+07         0.00000E+00
    0.17206E+07        -0.49175E+08         0.00000E+00
    0.00000E+00         0.00000E+00        -0.59918E+08
 
   -0.59656E+08         0.18109E+07         0.00000E+00
    0.18109E+07        -0.49152E+08         0.00000E+00
    0.00000E+00         0.00000E+00        -0.59924E+08
 
   -0.59706E+08         0.19029E+07         0.00000E+00
    0.19029E+07        -0.49130E+08         0.00000E+00
    0.00000E+00         0.00000E+00        -0.59930E+08
 
   -0.59755E+08         0.19968E+07         0.00000E+00
    0.19968E+07        -0.49109E+08         0.00000E+00
    0.00000E+00         0.00000E+00        -0.59935E+08
 
   -0.59803E+08         0.20923E+07         0.00000E+00
    0.20923E+07        -0.49087E+08         0.00000E+00
    0.00000E+00         0.00000E+00        -0.59941E+08
 
   -0.59849E+08         0.21896E+07         0.00000E+00
    0.21896E+07        -0.49067E+08         0.00000E+00
    0.00000E+00         0.00000E+00        -0.59946E+08
 
   -0.59894E+08         0.22884E+07         0.00000E+00
    0.22884E+07        -0.49047E+08         0.00000E+00
    0.00000E+00         0.00000E+00        -0.59951E+08
 
   -0.59937E+08         0.23887E+07         0.00000E+00
    0.23887E+07        -0.49028E+08         0.00000E+00
    0.00000E+00         0.00000E+00        -0.59956E+08
 
   -0.57696E+08        -0.41549E+04         0.00000E+00
   -0.41549E+04        -0.50001E+08         0.00000E+00
    0.00000E+00         0.00000E+00        -0.59268E+08
 
   -0.57689E+08        -0.75056E+04         0.00000E+00
   -0.75056E+04        -0.49999E+08         0.00000E+00
    0.00000E+00         0.00000E+00        -0.59266E+08
 
   -0.57686E+08        -0.86603E+04         0.00000E+00
   -0.86603E+04        -0.49995E+08         0.00000E+00
    0.00000E+00         0.00000E+00        -0.59265E+08
 
   -0.57687E+08        -0.75681E+04         0.00000E+00
   -0.75681E+04        -0.49989E+08         0.00000E+00
    0.00000E+00         0.00000E+00        -0.59264E+08
 
   -0.57692E+08        -0.41849E+04         0.00000E+00
   -0.41849E+04        -0.49982E+08         0.00000E+00
    0.00000E+00         0.00000E+00        -0.59264E+08
 
   -0.57701E+08         0.15260E+04         0.00000E+00
    0.15260E+04        -0.49974E+08         0.00000E+00
    0.00000E+00         0.00000E+00        -0.59264E+08
 
   -0.57713E+08         0.95949E+04         0.00000E+00
    0.95949E+04        -0.49964E+08         0.00000E+00
    0.00000E+00         0.00000E+00        -0.59265E+08
 
   -0.57729E+08         0.20046E+05         0.00000E+00
    0.20046E+05        -0.49952E+08         0.00000E+00
    0.00000E+00         0.00000E+00        -0.59266E+08
 
   -0.57747E+08         0.32898E+05         0.00000E+00
    0.32898E+05        -0.49940E+08         0.00000E+00
    0.00000E+00         0.00000E+00        -0.59267E+08
 
   -0.57768E+08         0.48164E+05         0.00000E+00
    0.48164E+05        -0.49926E+08         0.00000E+00
    0.00000E+00         0.00000E+00        -0.59269E+08
 
   -0.57792E+08         0.65851E+05         0.00000E+00
    0.65851E+05        -0.49911E+08         0.00000E+00
    0.00000E+00         0.00000E+00        -0.59272E+08
 
   -0.57819E+08         0.85963E+05         0.00000E+00
    0.85963E+05        -0.49895E+08         0.00000E+00
    0.00000E+00         0.00000E+00        -0.59274E+08
 
   -0.57848E+08         0.10850E+06         0.00000E+00
    0.10850E+06        -0.49879E+08         0.00000E+00
    0.00000E+00         0.00000E+00        -0.59277E+08
 
   -0.57879E+08         0.13346E+06         0.00000E+00
    0.13346E+06        -0.49861E+08         0.00000E+00
    0.00000E+00         0.00000E+00        -0.59280E+08
 
   -0.57912E+08         0.16083E+06         0.00000E+00
    0.16083E+06        -0.49843E+08         0.00000E+00
    0.00000E+00         0.00000E+00        -0.59284E+08
 
   -0.57947E+08         0.19060E+06         0.00000E+00
    0.19060E+06        -0.49824E+08         0.00000E+00
    0.00000E+00         0.00000E+00        -0.59287E+08
 
   -0.57984E+08         0.22276E+06         0.00000E+00
    0.22276E+06        -0.49805E+08         0.00000E+00
    0.00000E+00         0.00000E+00        -0.59291E+08
 
   -0.58022E+08         0.25729E+06         0.00000E+00
    0.25729E+06        -0.49785E+08         0.00000E+00
    0.00000E+00         0.00000E+00        -0.59296E+08
 
   -0.58062E+08         0.29418E+06         0.00000E+00
    0.29418E+06        -0.49764E+08         0.00000E+00
    0.00000E+00         0.00000E+00        -0.59300E+08
 
   -0.58103E+08         0.33340E+06         0.00000E+00
    0.33340E+06        -0.49743E+08         0.00000E+00
    0.00000E+00         0.00000E+00        -0.59304E+08
 
   -0.58145E+08         0.37494E+06         0.00000E+00
    0.37494E+06        -0.49722E+08         0.00000E+00
    0.00000E+00         0.00000E+00        -0.59309E+08
 
   -0.58188E+08         0.41878E+06         0.00000E+00
    0.41878E+06        -0.49700E+08         0.00000E+00
    0.00000E+00         0.00000E+00        -0.59314E+08
 
   -0.58233E+08         0.46489E+06         0.00000E+00
    0.46489E+06        -0.49678E+08         0.00000E+00
    0.00000E+00         0.00000E+00        -0.59319E+08
 
   -0.58278E+08         0.51325E+06         0.00000E+00
    0.51325E+06        -0.49656E+08         0.00000E+00
    0.00000E+00         0.00000E+00        -0.59324E+08
 
   -0.58323E+08         0.56384E+06         0.00000E+00
    0.56384E+06        -0.49633E+08         0.00000E+00
    0.00000E+00         0.00000E+00        -0.59329E+08
 
   -0.58370E+08         0.61663E+06         0.00000E+00
    0.61663E+06        -0.49610E+08         0.00000E+00
    0.00000E+00         0.00000E+00        -0.59334E+08
 
   -0.58417E+08         0.67160E+06         0.00000E+00
    0.67160E+06        -0.49587E+08         0.00000E+00
    0.00000E+00         0.00000E+00        -0.59340E+08
 
   -0.58464E+08         0.72872E+06         0.00000E+00
    0.72872E+06        -0.49565E+08         0.00000E+00
    0.00000E+00         0.00000E+00        -0.59345E+08
 
   -0.58512E+08         0.78798E+06         0.00000E+00
    0.78798E+06        -0.49542E+08         0.00000E+00
    0.00000E+00         0.00000E+00        -0.59351E+08
 
   -0.58559E+08         0.84935E+06         0.00000E+00
    0.84935E+06        -0.49519E+08         0.00000E+00
    0.00000E+00         0.00000E+00        -0.59356E+08
 
   -0.58607E+08         0.91280E+06         0.00000E+00
    0.91280E+06        -0.49496E+08         0.00000E+00
    0.00000E+00         0.00000E+00        -0.59361E+08
 
   -0.58655E+08         0.97831E+06         0.00000E+00
    0.97831E+06        -0.49473E+08         0.00000E+00
    0.00000E+00         0.00000E+00        -0.59367E+08
 
   -0.58703E+08         0.10458E+07         0.00000E+00
    0.10458E+07        -0.49450E+08         0.00000E+00
    0.00000E+00         0.00000E+00        -0.59372E+08
 
   -0.58751E+08         0.11154E+07         0.00000E+00
    0.11154E+07        -0.49427E+08         0.00000E+00
    0.00000E+00         0.00000E+00        -0.59378E+08
 
   -0.58799E+08         0.11869E+07         0.00000E+00
    0.11869E+07        -0.49405E+08         0.00000E+00
    0.00000E+00         0.00000E+00        -0.59383E+08
 
   -0.58846E+08         0.12604E+07         0.00000E+00
    0.12604E+07        -0.49382E+08         0.00000E+00
    0.00000E+00         0.00000E+00        -0.59389E+08
 
   -0.58893E+08         0.13358E+07         0.00000E+00
    0.13358E+07        -0.49360E+08         0.00000E+00
    0.00000E+00         0.00000E+00        -0.59394E+08
 
   -0.58940E+08         0.14131E+07         0.00000E+00
    0.14131E+07        -0.49338E+08         0.00000E+00
    0.00000E+00         0.00000E+00        -0.59399E+08
 
   -0.58986E+08         0.14923E+07         0.00000E+00
    0.14923E+07        -0.49317E+08         0.00000E+00
    0.00000E+00         0.00000E+00        -0.59405E+08
 
   -0.59031E+08         0.15733E+07         0.00000E+00
    0.15733E+07        -0.49295E+08         0.00000E+00
    0.00000E+00         0.00000E+00        -0.59410E+08
 
   -0.59076E+08         0.16561E+07         0.00000E+00
    0.16561E+07        -0.49274E+08         0.00000E+00
    0.00000E+00         0.00000E+00        -0.59415E+08
 
   -0.59120E+08         0.17407E+07         0.00000E+00
    0.17407E+07        -0.49254E+08         0.00000E+00
    0.00000E+00         0.00000E+00        -0.59420E+08
 
   -0.59164E+08         0.18270E+07         0.00000E+00
    0.18270E+07        -0.49234E+08         0.00000E+00
    0.00000E+00         0.00000E+00        -0.59425E+08
 
   -0.59206E+08         0.19150E+07         0.00000E+00
    0.19150E+07        -0.49214E+08         0.00000E+00
    0.00000E+00         0.00000E+00        -0.59430E+08
 
   -0.59248E+08         0.20046E+07         0.00000E+00
    0.20046E+07        -0.49195E+08         0.00000E+00
    0.00000E+00         0.00000E+00        -0.59434E+08
 
   -0.59288E+08         0.20959E+07         0.00000E+00
    0.20959E+07        -0.49176E+08         0.00000E+00
    0.00000E+00         0.00000E+00        -0.59439E+08
 
   -0.59328E+08         0.21887E+07         0.00000E+00
    0.21887E+07        -0.49158E+08         0.00000E+00
    0.00000E+00         0.00000E+00        -0.59443E+08
 
   -0.59366E+08         0.22830E+07         0.00000E+00
    0.22830E+07        -0.49141E+08         0.00000E+00
    0.00000E+00         0.00000E+00        -0.59448E+08
 
   -0.59404E+08         0.23787E+07         0.00000E+00
    0.23787E+07        -0.49124E+08         0.00000E+00
    0.00000E+00         0.00000E+00        -0.59452E+08
 
   -0.59440E+08         0.24759E+07         0.00000E+00
    0.24759E+07        -0.49108E+08         0.00000E+00
    0.00000E+00         0.00000E+00        -0.59456E+08
 
   -0.57695E+08         0.84168E+03         0.00000E+00
    0.84168E+03        -0.50001E+08         0.00000E+00
    0.00000E+00         0.00000E+00        -0.58859E+08
 
   -0.57678E+08         0.63382E+04         0.00000E+00
    0.63382E+04        -0.49999E+08         0.00000E+00
    0.00000E+00         0.00000E+00        -0.58855E+08
 
   -0.57666E+08         0.13551E+05         0.00000E+00
    0.13551E+05        -0.49996E+08         0.00000E+00
    0.00000E+00         0.00000E+00        -0.58852E+08
 
   -0.57657E+08         0.22539E+05         0.00000E+00
    0.22539E+05        -0.49991E+08         0.00000E+00
    0.00000E+00         0.00000E+00        -0.58849E+08
 
   -0.57651E+08         0.33356E+05         0.00000E+00
    0.33356E+05        -0.49984E+08         0.00000E+00
    0.00000E+00         0.00000E+00        -0.58847E+08
 
   -0.57650E+08         0.46050E+05         0.00000E+00
    0.46050E+05        -0.49976E+08         0.00000E+00
    0.00000E+00         0.00000E+00        -0.58846E+08
 
   -0.57651E+08         0.60661E+05         0.00000E+00
    0.60661E+05        -0.49967E+08         0.00000E+00
    0.00000E+00         0.00000E+00        -0.58844E+08
 
   -0.57655E+08         0.77227E+05         0.00000E+00
    0.77227E+05        -0.49957E+08         0.00000E+00
    0.00000E+00         0.00000E+00        -0.58844E+08
 
   -0.57663E+08         0.95779E+05         0.00000E+00
    0.95779E+05        -0.49945E+08         0.00000E+00
    0.00000E+00         0.00000E+00        -0.58843E+08
 
   -0.57673E+08         0.11634E+06         0.00000E+00
    0.11634E+06        -0.49933E+08         0.00000E+00
    0.00000E+00         0.00000E+00        -0.58843E+08
 
   -0.57686E+08         0.13894E+06         0.00000E+00
    0.13894E+06        -0.49919E+08         0.00000E+00
    0.00000E+00         0.00000E+00        -0.58843E+08
 
   -0.57702E+08         0.16358E+06         0.00000E+00
    0.16358E+06        -0.49905E+08         0.00000E+00
    0.00000E+00         0.00000E+00        -0.58844E+08
 
   -0.57719E+08         0.19029E+06         0.00000E+00
    0.19029E+06        -0.49889E+08         0.00000E+00
    0.00000E+00         0.00000E+00        -0.58845E+08
 
   -0.57739E+08         0.21908E+06         0.00000E+00
    0.21908E+06        -0.49873E+08         0.00000E+00
    0.00000E+00         0.00000E+00        -0.58846E+08
 
   -0.57761E+08         0.24994E+06         0.00000E+00
    0.24994E+06        -0.49857E+08         0.00000E+00
    0.00000E+00         0.00000E+00        -0.58848E+08
 
   -0.57785E+08         0.28289E+06         0.00000E+00
    0.28289E+06        -0.49839E+08         0.00000E+00
    0.00000E+00         0.00000E+00        -0.58850E+08
 
   -0.57810E+08         0.31791E+06         0.00000E+00
    0.31791E+06        -0.49821E+08         0.00000E+00
    0.00000E+00         0.00000E+00        -0.58852E+08
 
   -0.57837E+08         0.35502E+06         0.00000E+00
    0.35502E+06        -0.49803E+08         0.00000E+00
    0.00000E+00         0.00000E+00        -0.58854E+08
 
   -0.57866E+08         0.39421E+06         0.00000E+00
    0.39421E+06        -0.49784E+08         0.00000E+00
    0.00000E+00         0.00000E+00        -0.58857E+08
 
   -0.57896E+08         0.43547E+06         0.00000E+00
    0.43547E+06        -0.49764E+08         0.00000E+00
    0.00000E+00         0.00000E+00        -0.58860E+08
 
   -0.57928E+08         0.47878E+06         0.00000E+00
    0.47878E+06        -0.49745E+08         0.00000E+00
    0.00000E+00         0.00000E+00        -0.58863E+08
 
   -0.57960E+08         0.52415E+06         0.00000E+00
    0.52415E+06        -0.49724E+08         0.00000E+00
    0.00000E+00         0.00000E+00        -0.58866E+08
 
   -0.57993E+08         0.57155E+06         0.00000E+00
    0.57155E+06        -0.49704E+08         0.00000E+00
    0.00000E+00         0.00000E+00        -0.58869E+08
 
   -0.58028E+08         0.62098E+06         0.00000E+00
    0.62098E+06        -0.49684E+08         0.00000E+00
    0.00000E+00         0.00000E+00        -0.58872E+08
 
   -0.58063E+08         0.67242E+06         0.00000E+00
    0.67242E+06        -0.49663E+08         0.00000E+00
    0.00000E+00         0.00000E+00        -0.58876E+08
 
   -0.58099E+08         0.72585E+06         0.00000E+00
    0.72585E+06        -0.49642E+08         0.00000E+00
    0.00000E+00         0.00000E+00        -0.58880E+08
 
   -0.58136E+08         0.78126E+06         0.00000E+00
    0.78126E+06        -0.49621E+08         0.00000E+00
    0.00000E+00         0.00000E+00        -0.58883E+08
 
   -0.58173E+08         0.83863E+06         0.00000E+00
    0.83863E+06        -0.49600E+08         0.00000E+00
    0.00000E+00         0.00000E+00        -0.58887E+08
 
   -0.58210E+08         0.89794E+06         0.00000E+00
    0.89794E+06        -0.49579E+08         0.00000E+00
    0.00000E+00         0.00000E+00        -0.58891E+08
 
   -0.58248E+08         0.95918E+06         0.00000E+00
    0.95918E+06        -0.49558E+08         0.00000E+00
    0.00000E+00         0.00000E+00        -0.58895E+08
 
   -0.58286E+08         0.10223E+07         0.00000E+00
    0.10223E+07        -0.49537E+08         0.00000E+00
    0.00000E+00         0.00000E+00        -0.58899E+08
 
   -0.58324E+08         0.10873E+07         0.00000E+00
    0.10873E+07        -0.49516E+08         0.00000E+00
    0.00000E+00         0.00000E+00        -0.58903E+08
 
   -0.58363E+08         0.11542E+07         0.00000E+00
    0.11542E+07        -0.49496E+08         0.00000E+00
    0.00000E+00         0.00000E+00        -0.58907E+08
 
   -0.58401E+08         0.12229E+07         0.00000E+00
    0.12229E+07        -0.49475E+08         0.00000E+00
    0.00000E+00         0.00000E+00        -0.58911E+08
 
   -0.58439E+08         0.12934E+07         0.00000E+00
    0.12934E+07        -0.49455E+08         0.00000E+00
    0.00000E+00         0.00000E+00        -0.58915E+08
 
   -0.58477E+08         0.13657E+07         0.00000E+00
    0.13657E+07        -0.49435E+08         0.00000E+00
    0.00000E+00         0.00000E+00        -0.58919E+08
 
   -0.58515E+08         0.14398E+07         0.00000E+00
    0.14398E+07        -0.49415E+08         0.00000E+00
    0.00000E+00         0.00000E+00        -0.58923E+08
 
   -0.58553E+08         0.15155E+07         0.00000E+00
    0.15155E+07        -0.49396E+08         0.00000E+00
    0.00000E+00         0.00000E+00        -0.58927E+08
 
   -0.58590E+08         0.15930E+07         0.00000E+00
    0.15930E+07        -0.49377E+08         0.00000E+00
    0.00000E+00         0.00000E+00        -0.58931E+08
 
   -0.58627E+08         0.16722E+07         0.00000E+00
    0.16722E+07        -0.49358E+08         0.00000E+00
    0.00000E+00         0.00000E+00        -0.58936E+08
 
   -0.58663E+08         0.17530E+07         0.00000E+00
    0.17530E+07        -0.49340E+08         0.00000E+00
    0.00000E+00         0.00000E+00        -0.58939E+08
 
   -0.58699E+08         0.18354E+07         0.00000E+00
    0.18354E+07        -0.49322E+08         0.00000E+00
    0.00000E+00         0.00000E+00        -0.58943E+08
 
   -0.58734E+08         0.19194E+07         0.00000E+00
    0.19194E+07        -0.49305E+08         0.00000E+00
    0.00000E+00         0.00000E+00        -0.58947E+08
 
   -0.58769E+08         0.20049E+07         0.00000E+00
    0.20049E+07        -0.49288E+08         0.00000E+00
    0.00000E+00         0.00000E+00        -0.58951E+08
 
   -0.58802E+08         0.20919E+07         0.00000E+00
    0.20919E+07        -0.49272E+08         0.00000E+00
    0.00000E+00         0.00000E+00        -0.58955E+08
 
   -0.58835E+08         0.21804E+07         0.00000E+00
    0.21804E+07        -0.49256E+08         0.00000E+00
    0.00000E+00         0.00000E+00        -0.58958E+08
 
   -0.58868E+08         0.22704E+07         0.00000E+00
    0.22704E+07        -0.49240E+08         0.00000E+00
    0.00000E+00         0.00000E+00        -0.58962E+08
 
   -0.58899E+08         0.23617E+07         0.00000E+00
    0.23617E+07        -0.49226E+08         0.00000E+00
    0.00000E+00         0.00000E+00        -0.58965E+08
 
   -0.58930E+08         0.24543E+07         0.00000E+00
    0.24543E+07        -0.49212E+08         0.00000E+00
    0.00000E+00         0.00000E+00        -0.58969E+08
 
   -0.58959E+08         0.25483E+07         0.00000E+00
    0.25483E+07        -0.49198E+08         0.00000E+00
    0.00000E+00         0.00000E+00        -0.58972E+08
 
   -0.57651E+08         0.52687E+04         0.00000E+00
    0.52687E+04        -0.50001E+08         0.00000E+00
    0.00000E+00         0.00000E+00        -0.58454E+08
 
   -0.57627E+08         0.18678E+05         0.00000E+00
    0.18678E+05        -0.49999E+08         0.00000E+00
    0.00000E+00         0.00000E+00        -0.58449E+08
 
   -0.57607E+08         0.33404E+05         0.00000E+00
    0.33404E+05        -0.49996E+08         0.00000E+00
    0.00000E+00         0.00000E+00        -0.58444E+08
 
   -0.57590E+08         0.49512E+05         0.00000E+00
    0.49512E+05        -0.49992E+08         0.00000E+00
    0.00000E+00         0.00000E+00        -0.58440E+08
 
   -0.57576E+08         0.67060E+05         0.00000E+00
    0.67060E+05        -0.49986E+08         0.00000E+00
    0.00000E+00         0.00000E+00        -0.58436E+08
 
   -0.57566E+08         0.86102E+05         0.00000E+00
    0.86102E+05        -0.49979E+08         0.00000E+00
    0.00000E+00         0.00000E+00        -0.58433E+08
 
   -0.57558E+08         0.10668E+06         0.00000E+00
    0.10668E+06        -0.49971E+08         0.00000E+00
    0.00000E+00         0.00000E+00        -0.58431E+08
 
   -0.57554E+08         0.12885E+06         0.00000E+00
    0.12885E+06        -0.49962E+08         0.00000E+00
    0.00000E+00         0.00000E+00        -0.58428E+08
 
   -0.57552E+08         0.15264E+06         0.00000E+00
    0.15264E+06        -0.49951E+08         0.00000E+00
    0.00000E+00         0.00000E+00        -0.58426E+08
 
   -0.57553E+08         0.17809E+06         0.00000E+00
    0.17809E+06        -0.49940E+08         0.00000E+00
    0.00000E+00         0.00000E+00        -0.58425E+08
 
   -0.57557E+08         0.20522E+06         0.00000E+00
    0.20522E+06        -0.49928E+08         0.00000E+00
    0.00000E+00         0.00000E+00        -0.58424E+08
 
   -0.57563E+08         0.23407E+06         0.00000E+00
    0.23407E+06        -0.49915E+08         0.00000E+00
    0.00000E+00         0.00000E+00        -0.58423E+08
 
   -0.57571E+08         0.26466E+06         0.00000E+00
    0.26466E+06        -0.49901E+08         0.00000E+00
    0.00000E+00         0.00000E+00        -0.58422E+08
 
   -0.57581E+08         0.29700E+06         0.00000E+00
    0.29700E+06        -0.49887E+08         0.00000E+00
    0.00000E+00         0.00000E+00        -0.58422E+08
 
   -0.57594E+08         0.33112E+06         0.00000E+00
    0.33112E+06        -0.49872E+08         0.00000E+00
    0.00000E+00         0.00000E+00        -0.58422E+08
 
   -0.57608E+08         0.36702E+06         0.00000E+00
    0.36702E+06        -0.49856E+08         0.00000E+00
    0.00000E+00         0.00000E+00        -0.58422E+08
 
   -0.57624E+08         0.40471E+06         0.00000E+00
    0.40471E+06        -0.49840E+08         0.00000E+00
    0.00000E+00         0.00000E+00        -0.58423E+08
 
   -0.57641E+08         0.44420E+06         0.00000E+00
    0.44420E+06        -0.49823E+08         0.00000E+00
    0.00000E+00         0.00000E+00        -0.58424E+08
 
   -0.57660E+08         0.48550E+06         0.00000E+00
    0.48550E+06        -0.49806E+08         0.00000E+00
    0.00000E+00         0.00000E+00        -0.58425E+08
 
   -0.57681E+08         0.52860E+06         0.00000E+00
    0.52860E+06        -0.49788E+08         0.00000E+00
    0.00000E+00         0.00000E+00        -0.58426E+08
 
   -0.57702E+08         0.57352E+06         0.00000E+00
    0.57352E+06        -0.49770E+08         0.00000E+00
    0.00000E+00         0.00000E+00        -0.58428E+08
 
   -0.57725E+08         0.62024E+06         0.00000E+00
    0.62024E+06        -0.49752E+08         0.00000E+00
    0.00000E+00         0.00000E+00        -0.58429E+08
 
   -0.57749E+08         0.66876E+06         0.00000E+00
    0.66876E+06        -0.49734E+08         0.00000E+00
    0.00000E+00         0.00000E+00        -0.58431E+08
 
   -0.57774E+08         0.71907E+06         0.00000E+00
    0.71907E+06        -0.49716E+08         0.00000E+00
    0.00000E+00         0.00000E+00        -0.58433E+08
 
   -0.57800E+08         0.77117E+06         0.00000E+00
    0.77117E+06        -0.49697E+08         0.00000E+00
    0.00000E+00         0.00000E+00        -0.58435E+08
 
   -0.57826E+08         0.82506E+06         0.00000E+00
    0.82506E+06        -0.49678E+08         0.00000E+00
    0.00000E+00         0.00000E+00        -0.58437E+08
 
   -0.57853E+08         0.88071E+06         0.00000E+00
    0.88071E+06        -0.49659E+08         0.00000E+00
    0.00000E+00         0.00000E+00        -0.58440E+08
 
   -0.57881E+08         0.93811E+06         0.00000E+00
    0.93811E+06        -0.49641E+08         0.00000E+00
    0.00000E+00         0.00000E+00        -0.58442E+08
 
   -0.57909E+08         0.99726E+06         0.00000E+00
    0.99726E+06        -0.49622E+08         0.00000E+00
    0.00000E+00         0.00000E+00        -0.58445E+08
 
   -0.57938E+08         0.10581E+07         0.00000E+00
    0.10581E+07        -0.49603E+08         0.00000E+00
    0.00000E+00         0.00000E+00        -0.58447E+08
 
   -0.57967E+08         0.11207E+07         0.00000E+00
    0.11207E+07        -0.49584E+08         0.00000E+00
    0.00000E+00         0.00000E+00        -0.58450E+08
 
   -0.57997E+08         0.11850E+07         0.00000E+00
    0.11850E+07        -0.49566E+08         0.00000E+00
    0.00000E+00         0.00000E+00        -0.58453E+08
 
   -0.58026E+08         0.12510E+07         0.00000E+00
    0.12510E+07        -0.49548E+08         0.00000E+00
    0.00000E+00         0.00000E+00        -0.58456E+08
 
   -0.58056E+08         0.13186E+07         0.00000E+00
    0.13186E+07        -0.49530E+08         0.00000E+00
    0.00000E+00         0.00000E+00        -0.58459E+08
 
   -0.58086E+08         0.13879E+07         0.00000E+00
    0.13879E+07        -0.49512E+08         0.00000E+00
    0.00000E+00         0.00000E+00        -0.58462E+08
 
   -0.58115E+08         0.14588E+07         0.00000E+00
    0.14588E+07        -0.49494E+08         0.00000E+00
    0.00000E+00         0.00000E+00        -0.58465E+08
 
   -0.58145E+08         0.15313E+07         0.00000E+00
    0.15313E+07        -0.49477E+08         0.00000E+00
    0.00000E+00         0.00000E+00        -0.58468E+08
 
   -0.58174E+08         0.16053E+07         0.00000E+00
    0.16053E+07        -0.49460E+08         0.00000E+00
    0.00000E+00         0.00000E+00        -0.58471E+08
 
   -0.58203E+08         0.16809E+07         0.00000E+00
    0.16809E+07        -0.49444E+08         0.00000E+00
    0.00000E+00         0.00000E+00        -0.58474E+08
 
   -0.58232E+08         0.17581E+07         0.00000E+00
    0.17581E+07        -0.49427E+08         0.00000E+00
    0.00000E+00         0.00000E+00        -0.58477E+08
 
   -0.58261E+08         0.18367E+07         0.00000E+00
    0.18367E+07        -0.49412E+08         0.00000E+00
    0.00000E+00         0.00000E+00        -0.58480E+08
 
   -0.58289E+08         0.19168E+07         0.00000E+00
    0.19168E+07        -0.49397E+08         0.00000E+00
    0.00000E+00         0.00000E+00        -0.58482E+08
 
   -0.58317E+08         0.19983E+07         0.00000E+00
    0.19983E+07        -0.49382E+08         0.00000E+00
    0.00000E+00         0.00000E+00        -0.58485E+08
 
   -0.58344E+08         0.20813E+07         0.00000E+00
    0.20813E+07        -0.49368E+08         0.00000E+00
    0.00000E+00         0.00000E+00        -0.58488E+08
 
   -0.58371E+08         0.21656E+07         0.00000E+00
    0.21656E+07        -0.49354E+08         0.00000E+00
    0.00000E+00         0.00000E+00        -0.58491E+08
 
   -0.58397E+08         0.22513E+07         0.00000E+00
    0.22513E+07        -0.49341E+08         0.00000E+00
    0.00000E+00         0.00000E+00        -0.58494E+08
 
   -0.58422E+08         0.23383E+07         0.00000E+00
    0.23383E+07        -0.49328E+08         0.00000E+00
    0.00000E+00         0.00000E+00        -0.58497E+08
 
   -0.58447E+08         0.24266E+07         0.00000E+00
    0.24266E+07        -0.49316E+08         0.00000E+00
    0.00000E+00         0.00000E+00        -0.58499E+08
 
   -0.58471E+08         0.25162E+07         0.00000E+00
    0.25162E+07        -0.49305E+08         0.00000E+00
    0.00000E+00         0.00000E+00        -0.58502E+08
 
   -0.58494E+08         0.26070E+07         0.00000E+00
    0.26070E+07        -0.49294E+08         0.00000E+00
    0.00000E+00         0.00000E+00        -0.58505E+08
 
   -0.57569E+08         0.91362E+04         0.00000E+00
    0.91362E+04        -0.50001E+08         0.00000E+00
    0.00000E+00         0.00000E+00        -0.58055E+08
 
   -0.57540E+08         0.29511E+05         0.00000E+00
    0.29511E+05        -0.49999E+08         0.00000E+00
    0.00000E+00         0.00000E+00        -0.58048E+08
 
   -0.57513E+08         0.50875E+05         0.00000E+00
    0.50875E+05        -0.49997E+08         0.00000E+00
    0.00000E+00         0.00000E+00        -0.58043E+08
 
   -0.57490E+08         0.73293E+05         0.00000E+00
    0.73293E+05        -0.49993E+08         0.00000E+00
    0.00000E+00         0.00000E+00        -0.58038E+08
 
   -0.57470E+08         0.96825E+05         0.00000E+00
    0.96825E+05        -0.49988E+08         0.00000E+00
    0.00000E+00         0.00000E+00        -0.58033E+08
 
   -0.57453E+08         0.12153E+06         0.00000E+00
    0.12153E+06        -0.49982E+08         0.00000E+00
    0.00000E+00         0.00000E+00        -0.58029E+08
 
   -0.57438E+08         0.14745E+06         0.00000E+00
    0.14745E+06        -0.49974E+08         0.00000E+00
    0.00000E+00         0.00000E+00        -0.58025E+08
 
   -0.57427E+08         0.17464E+06         0.00000E+00
    0.17464E+06        -0.49966E+08         0.00000E+00
    0.00000E+00         0.00000E+00        -0.58021E+08
 
   -0.57418E+08         0.20314E+06         0.00000E+00
    0.20314E+06        -0.49957E+08         0.00000E+00
    0.00000E+00         0.00000E+00        -0.58018E+08
 
   -0.57411E+08         0.23299E+06         0.00000E+00
    0.23299E+06        -0.49947E+08         0.00000E+00
    0.00000E+00         0.00000E+00        -0.58015E+08
 
   -0.57407E+08         0.26422E+06         0.00000E+00
    0.26422E+06        -0.49937E+08         0.00000E+00
    0.00000E+00         0.00000E+00        -0.58013E+08
 
   -0.57405E+08         0.29687E+06         0.00000E+00
    0.29687E+06        -0.49925E+08         0.00000E+00
    0.00000E+00         0.00000E+00        -0.58011E+08
 
   -0.57405E+08         0.33097E+06         0.00000E+00
    0.33097E+06        -0.49913E+08         0.00000E+00
    0.00000E+00         0.00000E+00        -0.58009E+08
 
   -0.57407E+08         0.36653E+06         0.00000E+00
    0.36653E+06        -0.49900E+08         0.00000E+00
    0.00000E+00         0.00000E+00        -0.58008E+08
 
   -0.57412E+08         0.40359E+06         0.00000E+00
    0.40359E+06        -0.49887E+08         0.00000E+00
    0.00000E+00         0.00000E+00        -0.58006E+08
 
   -0.57417E+08         0.44216E+06         0.00000E+00
    0.44216E+06        -0.49873E+08         0.00000E+00
    0.00000E+00         0.00000E+00        -0.58005E+08
 
   -0.57425E+08         0.48225E+06         0.00000E+00
    0.48225E+06        -0.49859E+08         0.00000E+00
    0.00000E+00         0.00000E+00        -0.58005E+08
 
   -0.57434E+08         0.52389E+06         0.00000E+00
    0.52389E+06        -0.49844E+08         0.00000E+00
    0.00000E+00         0.00000E+00        -0.58004E+08
 
   -0.57445E+08         0.56707E+06         0.00000E+00
    0.56707E+06        -0.49829E+08         0.00000E+00
    0.00000E+00         0.00000E+00        -0.58004E+08
 
   -0.57457E+08         0.61182E+06         0.00000E+00
    0.61182E+06        -0.49813E+08         0.00000E+00
    0.00000E+00         0.00000E+00        -0.58004E+08
 
   -0.57470E+08         0.65813E+06         0.00000E+00
    0.65813E+06        -0.49797E+08         0.00000E+00
    0.00000E+00         0.00000E+00        -0.58004E+08
 
   -0.57484E+08         0.70602E+06         0.00000E+00
    0.70602E+06        -0.49781E+08         0.00000E+00
    0.00000E+00         0.00000E+00        -0.58005E+08
 
   -0.57500E+08         0.75547E+06         0.00000E+00
    0.75547E+06        -0.49765E+08         0.00000E+00
    0.00000E+00         0.00000E+00        -0.58005E+08
 
   -0.57516E+08         0.80650E+06         0.00000E+00
    0.80650E+06        -0.49749E+08         0.00000E+00
    0.00000E+00         0.00000E+00        -0.58006E+08
 
   -0.57534E+08         0.85910E+06         0.00000E+00
    0.85910E+06        -0.49732E+08         0.00000E+00
    0.00000E+00         0.00000E+00        -0.58007E+08
 
   -0.57552E+08         0.91327E+06         0.00000E+00
    0.91327E+06        -0.49716E+08         0.00000E+00
    0.00000E+00         0.00000E+00        -0.58008E+08
 
   -0.57571E+08         0.96901E+06         0.00000E+00
    0.96901E+06        -0.49699E+08         0.00000E+00
    0.00000E+00         0.00000E+00        -0.58009E+08
 
   -0.57590E+08         0.10263E+07         0.00000E+00
    0.10263E+07        -0.49683E+08         0.00000E+00
    0.00000E+00         0.00000E+00        -0.58011E+08
 
   -0.57610E+08         0.10851E+07         0.00000E+00
    0.10851E+07        -0.49666E+08         0.00000E+00
    0.00000E+00         0.00000E+00        -0.58012E+08
 
   -0.57631E+08         0.11455E+07         0.00000E+00
    0.11455E+07        -0.49650E+08         0.00000E+00
    0.00000E+00         0.00000E+00        -0.58014E+08
 
   -0.57652E+08         0.12074E+07         0.00000E+00
    0.12074E+07        -0.49634E+08         0.00000E+00
    0.00000E+00         0.00000E+00        -0.58015E+08
 
   -0.57673E+08         0.12709E+07         0.00000E+00
    0.12709E+07        -0.49618E+08         0.00000E+00
    0.00000E+00         0.00000E+00        -0.58017E+08
 
   -0.57695E+08         0.13358E+07         0.00000E+00
    0.13358E+07        -0.49602E+08         0.00000E+00
    0.00000E+00         0.00000E+00        -0.58019E+08
 
   -0.57717E+08         0.14022E+07         0.00000E+00
    0.14022E+07        -0.49586E+08         0.00000E+00
    0.00000E+00         0.00000E+00        -0.58021E+08
 
   -0.57739E+08         0.14701E+07         0.00000E+00
    0.14701E+07        -0.49571E+08         0.00000E+00
    0.00000E+00         0.00000E+00        -0.58023E+08
 
   -0.57761E+08         0.15395E+07         0.00000E+00
    0.15395E+07        -0.49556E+08         0.00000E+00
    0.00000E+00         0.00000E+00        -0.58025E+08
 
   -0.57783E+08         0.16103E+07         0.00000E+00
    0.16103E+07        -0.49541E+08         0.00000E+00
    0.00000E+00         0.00000E+00        -0.58027E+08
 
   -0.57805E+08         0.16825E+07         0.00000E+00
    0.16825E+07        -0.49527E+08         0.00000E+00
    0.00000E+00         0.00000E+00        -0.58029E+08
 
   -0.57827E+08         0.17561E+07         0.00000E+00
    0.17561E+07        -0.49513E+08         0.00000E+00
    0.00000E+00         0.00000E+00        -0.58031E+08
 
   -0.57848E+08         0.18312E+07         0.00000E+00
    0.18312E+07        -0.49499E+08         0.00000E+00
    0.00000E+00         0.00000E+00        -0.58033E+08
 
   -0.57870E+08         0.19075E+07         0.00000E+00
    0.19075E+07        -0.49486E+08         0.00000E+00
    0.00000E+00         0.00000E+00        -0.58035E+08
 
   -0.57891E+08         0.19853E+07         0.00000E+00
    0.19853E+07        -0.49473E+08         0.00000E+00
    0.00000E+00         0.00000E+00        -0.58037E+08
 
   -0.57912E+08         0.20643E+07         0.00000E+00
    0.20643E+07        -0.49461E+08         0.00000E+00
    0.00000E+00         0.00000E+00        -0.58039E+08
 
   -0.57932E+08         0.21446E+07         0.00000E+00
    0.21446E+07        -0.49449E+08         0.00000E+00
    0.00000E+00         0.00000E+00        -0.58041E+08
 
   -0.57952E+08         0.22263E+07         0.00000E+00
    0.22263E+07        -0.49438E+08         0.00000E+00
    0.00000E+00         0.00000E+00        -0.58043E+08
 
   -0.57972E+08         0.23091E+07         0.00000E+00
    0.23091E+07        -0.49427E+08         0.00000E+00
    0.00000E+00         0.00000E+00        -0.58045E+08
 
   -0.57991E+08         0.23932E+07         0.00000E+00
    0.23932E+07        -0.49417E+08         0.00000E+00
    0.00000E+00         0.00000E+00        -0.58047E+08
 
   -0.58010E+08         0.24785E+07         0.00000E+00
    0.24785E+07        -0.49408E+08         0.00000E+00
    0.00000E+00         0.00000E+00        -0.58049E+08
 
   -0.58028E+08         0.25650E+07         0.00000E+00
    0.25650E+07        -0.49399E+08         0.00000E+00
    0.00000E+00         0.00000E+00        -0.58051E+08
 
   -0.58046E+08         0.26526E+07         0.00000E+00
    0.26526E+07        -0.49391E+08         0.00000E+00
    0.00000E+00         0.00000E+00        -0.58053E+08
 
   -0.57454E+08         0.12471E+05         0.00000E+00
    0.12471E+05        -0.50001E+08         0.00000E+00
    0.00000E+00         0.00000E+00        -0.57663E+08
 
   -0.57420E+08         0.38892E+05         0.00000E+00
    0.38892E+05        -0.50000E+08         0.00000E+00
    0.00000E+00         0.00000E+00        -0.57656E+08
 
   -0.57389E+08         0.66032E+05         0.00000E+00
    0.66032E+05        -0.49997E+08         0.00000E+00
    0.00000E+00         0.00000E+00        -0.57649E+08
 
   -0.57361E+08         0.93956E+05         0.00000E+00
    0.93956E+05        -0.49994E+08         0.00000E+00
    0.00000E+00         0.00000E+00        -0.57643E+08
 
   -0.57336E+08         0.12272E+06         0.00000E+00
    0.12272E+06        -0.49990E+08         0.00000E+00
    0.00000E+00         0.00000E+00        -0.57638E+08
 
   -0.57314E+08         0.15239E+06         0.00000E+00
    0.15239E+06        -0.49984E+08         0.00000E+00
    0.00000E+00         0.00000E+00        -0.57633E+08
 
   -0.57294E+08         0.18300E+06         0.00000E+00
    0.18300E+06        -0.49978E+08         0.00000E+00
    0.00000E+00         0.00000E+00        -0.57628E+08
 
   -0.57277E+08         0.21461E+06         0.00000E+00
    0.21461E+06        -0.49971E+08         0.00000E+00
    0.00000E+00         0.00000E+00        -0.57623E+08
 
   -0.57262E+08         0.24726E+06         0.00000E+00
    0.24726E+06        -0.49963E+08         0.00000E+00
    0.00000E+00         0.00000E+00        -0.57619E+08
 
   -0.57249E+08         0.28100E+06         0.00000E+00
    0.28100E+06        -0.49955E+08         0.00000E+00
    0.00000E+00         0.00000E+00        -0.57616E+08
 
   -0.57238E+08         0.31586E+06         0.00000E+00
    0.31586E+06        -0.49945E+08         0.00000E+00
    0.00000E+00         0.00000E+00        -0.57612E+08
 
   -0.57230E+08         0.35187E+06         0.00000E+00
    0.35187E+06        -0.49935E+08         0.00000E+00
    0.00000E+00         0.00000E+00        -0.57609E+08
 
   -0.57224E+08         0.38907E+06         0.00000E+00
    0.38907E+06        -0.49925E+08         0.00000E+00
    0.00000E+00         0.00000E+00        -0.57606E+08
 
   -0.57219E+08         0.42749E+06         0.00000E+00
    0.42749E+06        -0.49914E+08         0.00000E+00
    0.00000E+00         0.00000E+00        -0.57604E+08
 
   -0.57216E+08         0.46715E+06         0.00000E+00
    0.46715E+06        -0.49902E+08         0.00000E+00
    0.00000E+00         0.00000E+00        -0.57602E+08
 
   -0.57215E+08         0.50807E+06         0.00000E+00
    0.50807E+06        -0.49890E+08         0.00000E+00
    0.00000E+00         0.00000E+00        -0.57600E+08
 
   -0.57216E+08         0.55028E+06         0.00000E+00
    0.55028E+06        -0.49877E+08         0.00000E+00
    0.00000E+00         0.00000E+00        -0.57598E+08
 
   -0.57218E+08         0.59379E+06         0.00000E+00
    0.59379E+06        -0.49865E+08         0.00000E+00
    0.00000E+00         0.00000E+00        -0.57597E+08
 
   -0.57221E+08         0.63862E+06         0.00000E+00
    0.63862E+06        -0.49851E+08         0.00000E+00
    0.00000E+00         0.00000E+00        -0.57595E+08
 
   -0.57226E+08         0.68478E+06         0.00000E+00
    0.68478E+06        -0.49838E+08         0.00000E+00
    0.00000E+00         0.00000E+00        -0.57595E+08
 
   -0.57232E+08         0.73229E+06         0.00000E+00
    0.73229E+06        -0.49824E+08         0.00000E+00
    0.00000E+00         0.00000E+00        -0.57594E+08
 
   -0.57239E+08         0.78115E+06         0.00000E+00
    0.78115E+06        -0.49810E+08         0.00000E+00
    0.00000E+00         0.00000E+00        -0.57593E+08
 
   -0.57247E+08         0.83136E+06         0.00000E+00
    0.83136E+06        -0.49796E+08         0.00000E+00
    0.00000E+00         0.00000E+00        -0.57593E+08
 
   -0.57256E+08         0.88295E+06         0.00000E+00
    0.88295E+06        -0.49782E+08         0.00000E+00
    0.00000E+00         0.00000E+00        -0.57593E+08
 
   -0.57266E+08         0.93589E+06         0.00000E+00
    0.93589E+06        -0.49768E+08         0.00000E+00
    0.00000E+00         0.00000E+00        -0.57592E+08
 
   -0.57277E+08         0.99021E+06         0.00000E+00
    0.99021E+06        -0.49754E+08         0.00000E+00
    0.00000E+00         0.00000E+00        -0.57593E+08
 
   -0.57289E+08         0.10459E+07         0.00000E+00
    0.10459E+07        -0.49739E+08         0.00000E+00
    0.00000E+00         0.00000E+00        -0.57593E+08
 
   -0.57301E+08         0.11030E+07         0.00000E+00
    0.11030E+07        -0.49725E+08         0.00000E+00
    0.00000E+00         0.00000E+00        -0.57593E+08
 
   -0.57314E+08         0.11614E+07         0.00000E+00
    0.11614E+07        -0.49711E+08         0.00000E+00
    0.00000E+00         0.00000E+00        -0.57594E+08
 
   -0.57327E+08         0.12211E+07         0.00000E+00
    0.12211E+07        -0.49697E+08         0.00000E+00
    0.00000E+00         0.00000E+00        -0.57594E+08
 
   -0.57341E+08         0.12823E+07         0.00000E+00
    0.12823E+07        -0.49683E+08         0.00000E+00
    0.00000E+00         0.00000E+00        -0.57595E+08
 
   -0.57355E+08         0.13448E+07         0.00000E+00
    0.13448E+07        -0.49669E+08         0.00000E+00
    0.00000E+00         0.00000E+00        -0.57596E+08
 
   -0.57370E+08         0.14086E+07         0.00000E+00
    0.14086E+07        -0.49656E+08         0.00000E+00
    0.00000E+00         0.00000E+00        -0.57597E+08
 
   -0.57385E+08         0.14737E+07         0.00000E+00
    0.14737E+07        -0.49643E+08         0.00000E+00
    0.00000E+00         0.00000E+00        -0.57598E+08
 
   -0.57400E+08         0.15402E+07         0.00000E+00
    0.15402E+07        -0.49630E+08         0.00000E+00
    0.00000E+00         0.00000E+00        -0.57599E+08
 
   -0.57415E+08         0.16080E+07         0.00000E+00
    0.16080E+07        -0.49617E+08         0.00000E+00
    0.00000E+00         0.00000E+00        -0.57600E+08
 
   -0.57430E+08         0.16770E+07         0.00000E+00
    0.16770E+07        -0.49605E+08         0.00000E+00
    0.00000E+00         0.00000E+00        -0.57601E+08
 
   -0.57445E+08         0.17474E+07         0.00000E+00
    0.17474E+07        -0.49593E+08         0.00000E+00
    0.00000E+00         0.00000E+00        -0.57602E+08
 
   -0.57460E+08         0.18190E+07         0.00000E+00
    0.18190E+07        -0.49581E+08         0.00000E+00
    0.00000E+00         0.00000E+00        -0.57603E+08
 
   -0.57475E+08         0.18919E+07         0.00000E+00
    0.18919E+07        -0.49570E+08         0.00000E+00
    0.00000E+00         0.00000E+00        -0.57605E+08
 
   -0.57490E+08         0.19660E+07         0.00000E+00
    0.19660E+07        -0.49559E+08         0.00000E+00
    0.00000E+00         0.00000E+00        -0.57606E+08
 
   -0.57505E+08         0.20413E+07         0.00000E+00
    0.20413E+07        -0.49549E+08         0.00000E+00
    0.00000E+00         0.00000E+00        -0.57607E+08
 
   -0.57520E+08         0.21179E+07         0.00000E+00
    0.21179E+07        -0.49539E+08         0.00000E+00
    0.00000E+00         0.00000E+00        -0.57609E+08
 
   -0.57534E+08         0.21956E+07         0.00000E+00
    0.21956E+07        -0.49530E+08         0.00000E+00
    0.00000E+00         0.00000E+00        -0.57610E+08
 
   -0.57548E+08         0.22745E+07         0.00000E+00
    0.22745E+07        -0.49521E+08         0.00000E+00
    0.00000E+00         0.00000E+00        -0.57611E+08
 
   -0.57562E+08         0.23545E+07         0.00000E+00
    0.23545E+07        -0.49513E+08         0.00000E+00
    0.00000E+00         0.00000E+00        -0.57613E+08
 
   -0.57575E+08         0.24357E+07         0.00000E+00
    0.24357E+07        -0.49505E+08         0.00000E+00
    0.00000E+00         0.00000E+00        -0.57614E+08
 
   -0.57588E+08         0.25180E+07         0.00000E+00
    0.25180E+07        -0.49498E+08         0.00000E+00
    0.00000E+00         0.00000E+00        -0.57615E+08
 
   -0.57601E+08         0.26014E+07         0.00000E+00
    0.26014E+07        -0.49492E+08         0.00000E+00
    0.00000E+00         0.00000E+00        -0.57617E+08
 
   -0.57613E+08         0.26859E+07         0.00000E+00
    0.26859E+07        -0.49486E+08         0.00000E+00
    0.00000E+00         0.00000E+00        -0.57618E+08
 
   -0.57310E+08         0.15311E+05         0.00000E+00
    0.15311E+05        -0.50001E+08         0.00000E+00
    0.00000E+00         0.00000E+00        -0.57280E+08
 
   -0.57273E+08         0.46908E+05         0.00000E+00
    0.46908E+05        -0.50000E+08         0.00000E+00
    0.00000E+00         0.00000E+00        -0.57272E+08
 
   -0.57239E+08         0.79006E+05         0.00000E+00
    0.79006E+05        -0.49998E+08         0.00000E+00
    0.00000E+00         0.00000E+00        -0.57265E+08
 
   -0.57208E+08         0.11166E+06         0.00000E+00
    0.11166E+06        -0.49995E+08         0.00000E+00
    0.00000E+00         0.00000E+00        -0.57258E+08
 
   -0.57179E+08         0.14494E+06         0.00000E+00
    0.14494E+06        -0.49991E+08         0.00000E+00
    0.00000E+00         0.00000E+00        -0.57252E+08
 
   -0.57153E+08         0.17889E+06         0.00000E+00
    0.17889E+06        -0.49987E+08         0.00000E+00
    0.00000E+00         0.00000E+00        -0.57246E+08
 
   -0.57128E+08         0.21355E+06         0.00000E+00
    0.21355E+06        -0.49981E+08         0.00000E+00
    0.00000E+00         0.00000E+00        -0.57241E+08
 
   -0.57107E+08         0.24899E+06         0.00000E+00
    0.24899E+06        -0.49975E+08         0.00000E+00
    0.00000E+00         0.00000E+00        -0.57236E+08
 
   -0.57087E+08         0.28524E+06         0.00000E+00
    0.28524E+06        -0.49969E+08         0.00000E+00
    0.00000E+00         0.00000E+00        -0.57231E+08
 
   -0.57069E+08         0.32235E+06         0.00000E+00
    0.32235E+06        -0.49961E+08         0.00000E+00
    0.00000E+00         0.00000E+00        -0.57226E+08
 
   -0.57054E+08         0.36035E+06         0.00000E+00
    0.36035E+06        -0.49953E+08         0.00000E+00
    0.00000E+00         0.00000E+00        -0.57222E+08
 
   -0.57040E+08         0.39928E+06         0.00000E+00
    0.39928E+06        -0.49945E+08         0.00000E+00
    0.00000E+00         0.00000E+00        -0.57219E+08
 
   -0.57028E+08         0.43918E+06         0.00000E+00
    0.43918E+06        -0.49936E+08         0.00000E+00
    0.00000E+00         0.00000E+00        -0.57215E+08
 
   -0.57018E+08         0.48006E+06         0.00000E+00
    0.48006E+06        -0.49926E+08         0.00000E+00
    0.00000E+00         0.00000E+00        -0.57212E+08
 
   -0.57009E+08         0.52197E+06         0.00000E+00
    0.52197E+06        -0.49916E+08         0.00000E+00
    0.00000E+00         0.00000E+00        -0.57209E+08
 
   -0.57002E+08         0.56492E+06         0.00000E+00
    0.56492E+06        -0.49906E+08         0.00000E+00
    0.00000E+00         0.00000E+00        -0.57206E+08
 
   -0.56997E+08         0.60895E+06         0.00000E+00
    0.60895E+06        -0.49895E+08         0.00000E+00
    0.00000E+00         0.00000E+00        -0.57204E+08
 
   -0.56993E+08         0.65406E+06         0.00000E+00
    0.65406E+06        -0.49884E+08         0.00000E+00
    0.00000E+00         0.00000E+00        -0.57201E+08
 
   -0.56990E+08         0.70028E+06         0.00000E+00
    0.70028E+06        -0.49873E+08         0.00000E+00
    0.00000E+00         0.00000E+00        -0.57199E+08
 
   -0.56989E+08         0.74763E+06         0.00000E+00
    0.74763E+06        -0.49862E+08         0.00000E+00
    0.00000E+00         0.00000E+00        -0.57197E+08
 
   -0.56988E+08         0.79612E+06         0.00000E+00
    0.79612E+06        -0.49850E+08         0.00000E+00
    0.00000E+00         0.00000E+00        -0.57196E+08
 
   -0.56989E+08         0.84576E+06         0.00000E+00
    0.84576E+06        -0.49838E+08         0.00000E+00
    0.00000E+00         0.00000E+00        -0.57194E+08
 
   -0.56991E+08         0.89656E+06         0.00000E+00
    0.89656E+06        -0.49826E+08         0.00000E+00
    0.00000E+00         0.00000E+00        -0.57193E+08
 
   -0.56994E+08         0.94853E+06         0.00000E+00
    0.94853E+06        -0.49814E+08         0.00000E+00
    0.00000E+00         0.00000E+00        -0.57192E+08
 
   -0.56998E+08         0.10017E+07         0.00000E+00
    0.10017E+07        -0.49802E+08         0.00000E+00
    0.00000E+00         0.00000E+00        -0.57191E+08
 
   -0.57002E+08         0.10560E+07         0.00000E+00
    0.10560E+07        -0.49790E+08         0.00000E+00
    0.00000E+00         0.00000E+00        -0.57190E+08
 
   -0.57007E+08         0.11115E+07         0.00000E+00
    0.11115E+07        -0.49778E+08         0.00000E+00
    0.00000E+00         0.00000E+00        -0.57190E+08
 
   -0.57013E+08         0.11683E+07         0.00000E+00
    0.11683E+07        -0.49766E+08         0.00000E+00
    0.00000E+00         0.00000E+00        -0.57189E+08
 
   -0.57020E+08         0.12262E+07         0.00000E+00
    0.12262E+07        -0.49754E+08         0.00000E+00
    0.00000E+00         0.00000E+00        -0.57189E+08
 
   -0.57027E+08         0.12852E+07         0.00000E+00
    0.12852E+07        -0.49742E+08         0.00000E+00
    0.00000E+00         0.00000E+00        -0.57189E+08
 
   -0.57034E+08         0.13455E+07         0.00000E+00
    0.13455E+07        -0.49730E+08         0.00000E+00
    0.00000E+00         0.00000E+00        -0.57189E+08
 
   -0.57042E+08         0.14070E+07         0.00000E+00
    0.14070E+07        -0.49719E+08         0.00000E+00
    0.00000E+00         0.00000E+00        -0.57189E+08
 
   -0.57050E+08         0.14696E+07         0.00000E+00
    0.14696E+07        -0.49708E+08         0.00000E+00
    0.00000E+00         0.00000E+00        -0.57189E+08
 
   -0.57059E+08         0.15335E+07         0.00000E+00
    0.15335E+07        -0.49697E+08         0.00000E+00
    0.00000E+00         0.00000E+00        -0.57189E+08
 
   -0.57068E+08         0.15985E+07         0.00000E+00
    0.15985E+07        -0.49686E+08         0.00000E+00
    0.00000E+00         0.00000E+00        -0.57189E+08
 
   -0.57077E+08         0.16646E+07         0.00000E+00
    0.16646E+07        -0.49676E+08         0.00000E+00
    0.00000E+00         0.00000E+00        -0.57190E+08
 
   -0.57086E+08         0.17319E+07         0.00000E+00
    0.17319E+07        -0.49666E+08         0.00000E+00
    0.00000E+00         0.00000E+00        -0.57190E+08
 
   -0.57095E+08         0.18004E+07         0.00000E+00
    0.18004E+07        -0.49656E+08         0.00000E+00
    0.00000E+00         0.00000E+00        -0.57191E+08
 
   -0.57104E+08         0.18700E+07         0.00000E+00
    0.18700E+07        -0.49647E+08         0.00000E+00
    0.00000E+00         0.00000E+00        -0.57191E+08
 
   -0.57114E+08         0.19407E+07         0.00000E+00
    0.19407E+07        -0.49638E+08         0.00000E+00
    0.00000E+00         0.00000E+00        -0.57192E+08
 
   -0.57123E+08         0.20126E+07         0.00000E+00
    0.20126E+07        -0.49630E+08         0.00000E+00
    0.00000E+00         0.00000E+00        -0.57192E+08
 
   -0.57132E+08         0.20855E+07         0.00000E+00
    0.20855E+07        -0.49622E+08         0.00000E+00
    0.00000E+00         0.00000E+00        -0.57193E+08
 
   -0.57141E+08         0.21596E+07         0.00000E+00
    0.21596E+07        -0.49614E+08         0.00000E+00
    0.00000E+00         0.00000E+00        -0.57194E+08
 
   -0.57149E+08         0.22347E+07         0.00000E+00
    0.22347E+07        -0.49607E+08         0.00000E+00
    0.00000E+00         0.00000E+00        -0.57194E+08
 
   -0.57158E+08         0.23109E+07         0.00000E+00
    0.23109E+07        -0.49601E+08         0.00000E+00
    0.00000E+00         0.00000E+00        -0.57195E+08
 
   -0.57166E+08         0.23881E+07         0.00000E+00
    0.23881E+07        -0.49595E+08         0.00000E+00
    0.00000E+00         0.00000E+00        -0.57196E+08
 
   -0.57174E+08         0.24664E+07         0.00000E+00
    0.24664E+07        -0.49590E+08         0.00000E+00
    0.00000E+00         0.00000E+00        -0.57196E+08
 
   -0.57182E+08         0.25457E+07         0.00000E+00
    0.25457E+07        -0.49585E+08         0.00000E+00
    0.00000E+00         0.00000E+00        -0.57197E+08
 
   -0.57189E+08         0.26261E+07         0.00000E+00
    0.26261E+07        -0.49581E+08         0.00000E+00
    0.00000E+00         0.00000E+00        -0.57198E+08
 
   -0.57196E+08         0.27074E+07         0.00000E+00
    0.27074E+07        -0.49577E+08         0.00000E+00
    0.00000E+00         0.00000E+00        -0.57199E+08
 
   -0.57142E+08         0.17700E+05         0.00000E+00
    0.17700E+05        -0.50001E+08         0.00000E+00
    0.00000E+00         0.00000E+00        -0.56906E+08
 
   -0.57103E+08         0.53671E+05         0.00000E+00
    0.53671E+05        -0.50000E+08         0.00000E+00
    0.00000E+00         0.00000E+00        -0.56898E+08
 
   -0.57067E+08         0.89963E+05         0.00000E+00
    0.89963E+05        -0.49998E+08         0.00000E+00
    0.00000E+00         0.00000E+00        -0.56891E+08
 
   -0.57033E+08         0.12663E+06         0.00000E+00
    0.12663E+06        -0.49996E+08         0.00000E+00
    0.00000E+00         0.00000E+00        -0.56884E+08
 
   -0.57001E+08         0.16374E+06         0.00000E+00
    0.16374E+06        -0.49993E+08         0.00000E+00
    0.00000E+00         0.00000E+00        -0.56877E+08
 
   -0.56972E+08         0.20132E+06         0.00000E+00
    0.20132E+06        -0.49989E+08         0.00000E+00
    0.00000E+00         0.00000E+00        -0.56871E+08
 
   -0.56945E+08         0.23944E+06         0.00000E+00
    0.23944E+06        -0.49984E+08         0.00000E+00
    0.00000E+00         0.00000E+00        -0.56865E+08
 
   -0.56919E+08         0.27814E+06         0.00000E+00
    0.27814E+06        -0.49979E+08         0.00000E+00
    0.00000E+00         0.00000E+00        -0.56859E+08
 
   -0.56896E+08         0.31745E+06         0.00000E+00
    0.31745E+06        -0.49974E+08         0.00000E+00
    0.00000E+00         0.00000E+00        -0.56854E+08
 
   -0.56874E+08         0.35743E+06         0.00000E+00
    0.35743E+06        -0.49968E+08         0.00000E+00
    0.00000E+00         0.00000E+00        -0.56849E+08
 
   -0.56855E+08         0.39811E+06         0.00000E+00
    0.39811E+06        -0.49961E+08         0.00000E+00
    0.00000E+00         0.00000E+00        -0.56844E+08
 
   -0.56837E+08         0.43952E+06         0.00000E+00
    0.43952E+06        -0.49954E+08         0.00000E+00
    0.00000E+00         0.00000E+00        -0.56840E+08
 
   -0.56820E+08         0.48170E+06         0.00000E+00
    0.48170E+06        -0.49946E+08         0.00000E+00
    0.00000E+00         0.00000E+00        -0.56835E+08
 
   -0.56806E+08         0.52468E+06         0.00000E+00
    0.52468E+06        -0.49938E+08         0.00000E+00
    0.00000E+00         0.00000E+00        -0.56832E+08
 
   -0.56793E+08         0.56848E+06         0.00000E+00
    0.56848E+06        -0.49930E+08         0.00000E+00
    0.00000E+00         0.00000E+00        -0.56828E+08
 
   -0.56781E+08         0.61314E+06         0.00000E+00
    0.61314E+06        -0.49921E+08         0.00000E+00
    0.00000E+00         0.00000E+00        -0.56825E+08
 
   -0.56770E+08         0.65868E+06         0.00000E+00
    0.65868E+06        -0.49912E+08         0.00000E+00
    0.00000E+00         0.00000E+00        -0.56821E+08
 
   -0.56761E+08         0.70512E+06         0.00000E+00
    0.70512E+06        -0.49903E+08         0.00000E+00
    0.00000E+00         0.00000E+00        -0.56818E+08
 
   -0.56754E+08         0.75249E+06         0.00000E+00
    0.75249E+06        -0.49893E+08         0.00000E+00
    0.00000E+00         0.00000E+00        -0.56816E+08
 
   -0.56747E+08         0.80079E+06         0.00000E+00
    0.80079E+06        -0.49884E+08         0.00000E+00
    0.00000E+00         0.00000E+00        -0.56813E+08
 
   -0.56741E+08         0.85005E+06         0.00000E+00
    0.85005E+06        -0.49874E+08         0.00000E+00
    0.00000E+00         0.00000E+00        -0.56811E+08
 
   -0.56737E+08         0.90028E+06         0.00000E+00
    0.90028E+06        -0.49864E+08         0.00000E+00
    0.00000E+00         0.00000E+00        -0.56809E+08
 
   -0.56733E+08         0.95149E+06         0.00000E+00
    0.95149E+06        -0.49854E+08         0.00000E+00
    0.00000E+00         0.00000E+00        -0.56807E+08
 
   -0.56731E+08         0.10037E+07         0.00000E+00
    0.10037E+07        -0.49844E+08         0.00000E+00
    0.00000E+00         0.00000E+00        -0.56805E+08
 
   -0.56729E+08         0.10569E+07         0.00000E+00
    0.10569E+07        -0.49834E+08         0.00000E+00
    0.00000E+00         0.00000E+00        -0.56804E+08
 
   -0.56728E+08         0.11111E+07         0.00000E+00
    0.11111E+07        -0.49824E+08         0.00000E+00
    0.00000E+00         0.00000E+00        -0.56802E+08
 
   -0.56728E+08         0.11664E+07         0.00000E+00
    0.11664E+07        -0.49814E+08         0.00000E+00
    0.00000E+00         0.00000E+00        -0.56801E+08
 
   -0.56728E+08         0.12227E+07         0.00000E+00
    0.12227E+07        -0.49804E+08         0.00000E+00
    0.00000E+00         0.00000E+00        -0.56800E+08
 
   -0.56729E+08         0.12800E+07         0.00000E+00
    0.12800E+07        -0.49794E+08         0.00000E+00
    0.00000E+00         0.00000E+00        -0.56799E+08
 
   -0.56730E+08         0.13383E+07         0.00000E+00
    0.13383E+07        -0.49785E+08         0.00000E+00
    0.00000E+00         0.00000E+00        -0.56798E+08
 
   -0.56732E+08         0.13977E+07         0.00000E+00
    0.13977E+07        -0.49775E+08         0.00000E+00
    0.00000E+00         0.00000E+00        -0.56797E+08
 
   -0.56735E+08         0.14581E+07         0.00000E+00
    0.14581E+07        -0.49766E+08         0.00000E+00
    0.00000E+00         0.00000E+00        -0.56796E+08
 
   -0.56737E+08         0.15195E+07         0.00000E+00
    0.15195E+07        -0.49757E+08         0.00000E+00
    0.00000E+00         0.00000E+00        -0.56796E+08
 
   -0.56741E+08         0.15820E+07         0.00000E+00
    0.15820E+07        -0.49748E+08         0.00000E+00
    0.00000E+00         0.00000E+00        -0.56795E+08
 
   -0.56744E+08         0.16455E+07         0.00000E+00
    0.16455E+07        -0.49740E+08         0.00000E+00
    0.00000E+00         0.00000E+00        -0.56795E+08
 
   -0.56747E+08         0.17101E+07         0.00000E+00
    0.17101E+07        -0.49731E+08         0.00000E+00
    0.00000E+00         0.00000E+00        -0.56795E+08
 
   -0.56751E+08         0.17756E+07         0.00000E+00
    0.17756E+07        -0.49723E+08         0.00000E+00
    0.00000E+00         0.00000E+00        -0.56794E+08
 
   -0.56755E+08         0.18422E+07         0.00000E+00
    0.18422E+07        -0.49716E+08         0.00000E+00
    0.00000E+00         0.00000E+00        -0.56794E+08
 
   -0.56759E+08         0.19098E+07         0.00000E+00
    0.19098E+07        -0.49709E+08         0.00000E+00
    0.00000E+00         0.00000E+00        -0.56794E+08
 
   -0.56763E+08         0.19784E+07         0.00000E+00
    0.19784E+07        -0.49702E+08         0.00000E+00
    0.00000E+00         0.00000E+00        -0.56794E+08
 
   -0.56767E+08         0.20480E+07         0.00000E+00
    0.20480E+07        -0.49696E+08         0.00000E+00
    0.00000E+00         0.00000E+00        -0.56794E+08
 
   -0.56770E+08         0.21186E+07         0.00000E+00
    0.21186E+07        -0.49690E+08         0.00000E+00
    0.00000E+00         0.00000E+00        -0.56794E+08
 
   -0.56774E+08         0.21901E+07         0.00000E+00
    0.21901E+07        -0.49685E+08         0.00000E+00
    0.00000E+00         0.00000E+00        -0.56794E+08
 
   -0.56778E+08         0.22627E+07         0.00000E+00
    0.22627E+07        -0.49680E+08         0.00000E+00
    0.00000E+00         0.00000E+00        -0.56794E+08
 
   -0.56781E+08         0.23362E+07         0.00000E+00
    0.23362E+07        -0.49676E+08         0.00000E+00
    0.00000E+00         0.00000E+00        -0.56794E+08
 
   -0.56784E+08         0.24107E+07         0.00000E+00
    0.24107E+07        -0.49672E+08         0.00000E+00
    0.00000E+00         0.00000E+00        -0.56794E+08
 
   -0.56787E+08         0.24861E+07         0.00000E+00
    0.24861E+07        -0.49669E+08         0.00000E+00
    0.00000E+00         0.00000E+00        -0.56795E+08
 
   -0.56790E+08         0.25625E+07         0.00000E+00
    0.25625E+07        -0.49666E+08         0.00000E+00
    0.00000E+00         0.00000E+00        -0.56795E+08
 
   -0.56792E+08         0.26398E+07         0.00000E+00
    0.26398E+07        -0.49664E+08         0.00000E+00
    0.00000E+00         0.00000E+00        -0.56795E+08
 
   -0.56794E+08         0.27180E+07         0.00000E+00
    0.27180E+07        -0.49663E+08         0.00000E+00
    0.00000E+00         0.00000E+00        -0.56795E+08
 
   -0.56953E+08         0.19683E+05         0.00000E+00
    0.19683E+05        -0.50001E+08         0.00000E+00
    0.00000E+00         0.00000E+00        -0.56543E+08
 
   -0.56913E+08         0.59298E+05         0.00000E+00
    0.59298E+05        -0.50000E+08         0.00000E+00
    0.00000E+00         0.00000E+00        -0.56535E+08
 
   -0.56876E+08         0.99090E+05         0.00000E+00
    0.99090E+05        -0.49999E+08         0.00000E+00
    0.00000E+00         0.00000E+00        -0.56527E+08
 
   -0.56840E+08         0.13911E+06         0.00000E+00
    0.13911E+06        -0.49997E+08         0.00000E+00
    0.00000E+00         0.00000E+00        -0.56520E+08
 
   -0.56807E+08         0.17942E+06         0.00000E+00
    0.17942E+06        -0.49994E+08         0.00000E+00
    0.00000E+00         0.00000E+00        -0.56513E+08
 
   -0.56775E+08         0.22005E+06         0.00000E+00
    0.22005E+06        -0.49991E+08         0.00000E+00
    0.00000E+00         0.00000E+00        -0.56506E+08
 
   -0.56745E+08         0.26105E+06         0.00000E+00
    0.26105E+06        -0.49987E+08         0.00000E+00
    0.00000E+00         0.00000E+00        -0.56500E+08
 
   -0.56717E+08         0.30247E+06         0.00000E+00
    0.30247E+06        -0.49983E+08         0.00000E+00
    0.00000E+00         0.00000E+00        -0.56494E+08
 
   -0.56691E+08         0.34435E+06         0.00000E+00
    0.34435E+06        -0.49978E+08         0.00000E+00
    0.00000E+00         0.00000E+00        -0.56488E+08
 
   -0.56667E+08         0.38672E+06         0.00000E+00
    0.38672E+06        -0.49973E+08         0.00000E+00
    0.00000E+00         0.00000E+00        -0.56483E+08
 
   -0.56644E+08         0.42963E+06         0.00000E+00
    0.42963E+06        -0.49968E+08         0.00000E+00
    0.00000E+00         0.00000E+00        -0.56477E+08
 
   -0.56623E+08         0.47311E+06         0.00000E+00
    0.47311E+06        -0.49962E+08         0.00000E+00
    0.00000E+00         0.00000E+00        -0.56473E+08
 
   -0.56603E+08         0.51719E+06         0.00000E+00
    0.51719E+06        -0.49955E+08         0.00000E+00
    0.00000E+00         0.00000E+00        -0.56468E+08
 
   -0.56585E+08         0.56189E+06         0.00000E+00
    0.56189E+06        -0.49949E+08         0.00000E+00
    0.00000E+00         0.00000E+00        -0.56464E+08
 
   -0.56568E+08         0.60726E+06         0.00000E+00
    0.60726E+06        -0.49942E+08         0.00000E+00
    0.00000E+00         0.00000E+00        -0.56460E+08
 
   -0.56552E+08         0.65332E+06         0.00000E+00
    0.65332E+06        -0.49935E+08         0.00000E+00
    0.00000E+00         0.00000E+00        -0.56456E+08
 
   -0.56538E+08         0.70009E+06         0.00000E+00
    0.70009E+06        -0.49927E+08         0.00000E+00
    0.00000E+00         0.00000E+00        -0.56452E+08
 
   -0.56524E+08         0.74759E+06         0.00000E+00
    0.74759E+06        -0.49920E+08         0.00000E+00
    0.00000E+00         0.00000E+00        -0.56449E+08
 
   -0.56512E+08         0.79584E+06         0.00000E+00
    0.79584E+06        -0.49912E+08         0.00000E+00
    0.00000E+00         0.00000E+00        -0.56445E+08
 
   -0.56501E+08         0.84488E+06         0.00000E+00
    0.84488E+06        -0.49904E+08         0.00000E+00
    0.00000E+00         0.00000E+00        -0.56442E+08
 
   -0.56491E+08         0.89470E+06         0.00000E+00
    0.89470E+06        -0.49896E+08         0.00000E+00
    0.00000E+00         0.00000E+00        -0.56440E+08
 
   -0.56482E+08         0.94534E+06         0.00000E+00
    0.94534E+06        -0.49888E+08         0.00000E+00
    0.00000E+00         0.00000E+00        -0.56437E+08
 
   -0.56474E+08         0.99680E+06         0.00000E+00
    0.99680E+06        -0.49880E+08         0.00000E+00
    0.00000E+00         0.00000E+00        -0.56434E+08
 
   -0.56467E+08         0.10491E+07         0.00000E+00
    0.10491E+07        -0.49872E+08         0.00000E+00
    0.00000E+00         0.00000E+00        -0.56432E+08
 
   -0.56461E+08         0.11022E+07         0.00000E+00
    0.11022E+07        -0.49863E+08         0.00000E+00
    0.00000E+00         0.00000E+00        -0.56430E+08
 
   -0.56455E+08         0.11562E+07         0.00000E+00
    0.11562E+07        -0.49855E+08         0.00000E+00
    0.00000E+00         0.00000E+00        -0.56428E+08
 
   -0.56450E+08         0.12111E+07         0.00000E+00
    0.12111E+07        -0.49847E+08         0.00000E+00
    0.00000E+00         0.00000E+00        -0.56426E+08
 
   -0.56446E+08         0.12669E+07         0.00000E+00
    0.12669E+07        -0.49839E+08         0.00000E+00
    0.00000E+00         0.00000E+00        -0.56424E+08
 
   -0.56442E+08         0.13235E+07         0.00000E+00
    0.13235E+07        -0.49832E+08         0.00000E+00
    0.00000E+00         0.00000E+00        -0.56423E+08
 
   -0.56438E+08         0.13810E+07         0.00000E+00
    0.13810E+07        -0.49824E+08         0.00000E+00
    0.00000E+00         0.00000E+00        -0.56421E+08
 
   -0.56435E+08         0.14394E+07         0.00000E+00
    0.14394E+07        -0.49816E+08         0.00000E+00
    0.00000E+00         0.00000E+00        -0.56420E+08
 
   -0.56433E+08         0.14988E+07         0.00000E+00
    0.14988E+07        -0.49809E+08         0.00000E+00
    0.00000E+00         0.00000E+00        -0.56419E+08
 
   -0.56431E+08         0.15590E+07         0.00000E+00
    0.15590E+07        -0.49802E+08         0.00000E+00
    0.00000E+00         0.00000E+00        -0.56417E+08
 
   -0.56429E+08         0.16201E+07         0.00000E+00
    0.16201E+07        -0.49795E+08         0.00000E+00
    0.00000E+00         0.00000E+00        -0.56416E+08
 
   -0.56428E+08         0.16821E+07         0.00000E+00
    0.16821E+07        -0.49789E+08         0.00000E+00
    0.00000E+00         0.00000E+00        -0.56415E+08
 
   -0.56426E+08         0.17450E+07         0.00000E+00
    0.17450E+07        -0.49783E+08         0.00000E+00
    0.00000E+00         0.00000E+00        -0.56415E+08
 
   -0.56425E+08         0.18088E+07         0.00000E+00
    0.18088E+07        -0.49777E+08         0.00000E+00
    0.00000E+00         0.00000E+00        -0.56414E+08
 
   -0.56424E+08         0.18735E+07         0.00000E+00
    0.18735E+07        -0.49771E+08         0.00000E+00
    0.00000E+00         0.00000E+00        -0.56413E+08
 
   -0.56423E+08         0.19391E+07         0.00000E+00
    0.19391E+07        -0.49766E+08         0.00000E+00
    0.00000E+00         0.00000E+00        -0.56412E+08
 
   -0.56423E+08         0.20056E+07         0.00000E+00
    0.20056E+07        -0.49762E+08         0.00000E+00
    0.00000E+00         0.00000E+00        -0.56412E+08
 
   -0.56422E+08         0.20730E+07         0.00000E+00
    0.20730E+07        -0.49757E+08         0.00000E+00
    0.00000E+00         0.00000E+00        -0.56411E+08
 
   -0.56421E+08         0.21412E+07         0.00000E+00
    0.21412E+07        -0.49754E+08         0.00000E+00
    0.00000E+00         0.00000E+00        -0.56411E+08
 
   -0.56420E+08         0.22104E+07         0.00000E+00
    0.22104E+07        -0.49750E+08         0.00000E+00
    0.00000E+00         0.00000E+00        -0.56410E+08
 
   -0.56419E+08         0.22804E+07         0.00000E+00
    0.22804E+07        -0.49748E+08         0.00000E+00
    0.00000E+00         0.00000E+00        -0.56410E+08
 
   -0.56418E+08         0.23512E+07         0.00000E+00
    0.23512E+07        -0.49745E+08         0.00000E+00
    0.00000E+00         0.00000E+00        -0.56409E+08
 
   -0.56417E+08         0.24230E+07         0.00000E+00
    0.24230E+07        -0.49743E+08         0.00000E+00
    0.00000E+00         0.00000E+00        -0.56409E+08
 
   -0.56415E+08         0.24956E+07         0.00000E+00
    0.24956E+07        -0.49742E+08         0.00000E+00
    0.00000E+00         0.00000E+00        -0.56409E+08
 
   -0.56413E+08         0.25690E+07         0.00000E+00
    0.25690E+07        -0.49742E+08         0.00000E+00
    0.00000E+00         0.00000E+00        -0.56408E+08
 
   -0.56411E+08         0.26433E+07         0.00000E+00
    0.26433E+07        -0.49742E+08         0.00000E+00
    0.00000E+00         0.00000E+00        -0.56408E+08
 
   -0.56409E+08         0.27185E+07         0.00000E+00
    0.27185E+07        -0.49742E+08         0.00000E+00
    0.00000E+00         0.00000E+00        -0.56408E+08
 
   -0.56747E+08         0.21307E+05         0.00000E+00
    0.21307E+05        -0.50001E+08         0.00000E+00
    0.00000E+00         0.00000E+00        -0.56190E+08
 
   -0.56707E+08         0.63911E+05         0.00000E+00
    0.63911E+05        -0.50000E+08         0.00000E+00
    0.00000E+00         0.00000E+00        -0.56182E+08
 
   -0.56669E+08         0.10658E+06         0.00000E+00
    0.10658E+06        -0.49999E+08         0.00000E+00
    0.00000E+00         0.00000E+00        -0.56174E+08
 
   -0.56633E+08         0.14935E+06         0.00000E+00
    0.14935E+06        -0.49997E+08         0.00000E+00
    0.00000E+00         0.00000E+00        -0.56167E+08
 
   -0.56598E+08         0.19228E+06         0.00000E+00
    0.19228E+06        -0.49995E+08         0.00000E+00
    0.00000E+00         0.00000E+00        -0.56160E+08
 
   -0.56565E+08         0.23541E+06         0.00000E+00
    0.23541E+06        -0.49993E+08         0.00000E+00
    0.00000E+00         0.00000E+00        -0.56153E+08
 
   -0.56533E+08         0.27879E+06         0.00000E+00
    0.27879E+06        -0.49990E+08         0.00000E+00
    0.00000E+00         0.00000E+00        -0.56147E+08
 
   -0.56504E+08         0.32244E+06         0.00000E+00
    0.32244E+06        -0.49986E+08         0.00000E+00
    0.00000E+00         0.00000E+00        -0.56140E+08
 
   -0.56475E+08         0.36642E+06         0.00000E+00
    0.36642E+06        -0.49982E+08         0.00000E+00
    0.00000E+00         0.00000E+00        -0.56134E+08
 
   -0.56449E+08         0.41076E+06         0.00000E+00
    0.41076E+06        -0.49978E+08         0.00000E+00
    0.00000E+00         0.00000E+00        -0.56129E+08
 
   -0.56423E+08         0.45548E+06         0.00000E+00
    0.45548E+06        -0.49974E+08         0.00000E+00
    0.00000E+00         0.00000E+00        -0.56123E+08
 
   -0.56400E+08         0.50064E+06         0.00000E+00
    0.50064E+06        -0.49969E+08         0.00000E+00
    0.00000E+00         0.00000E+00        -0.56118E+08
 
   -0.56377E+08         0.54625E+06         0.00000E+00
    0.54625E+06        -0.49964E+08         0.00000E+00
    0.00000E+00         0.00000E+00        -0.56113E+08
 
   -0.56356E+08         0.59235E+06         0.00000E+00
    0.59235E+06        -0.49959E+08         0.00000E+00
    0.00000E+00         0.00000E+00        -0.56108E+08
 
   -0.56336E+08         0.63896E+06         0.00000E+00
    0.63896E+06        -0.49953E+08         0.00000E+00
    0.00000E+00         0.00000E+00        -0.56104E+08
 
   -0.56317E+08         0.68612E+06         0.00000E+00
    0.68612E+06        -0.49947E+08         0.00000E+00
    0.00000E+00         0.00000E+00        -0.56100E+08
 
   -0.56300E+08         0.73384E+06         0.00000E+00
    0.73384E+06        -0.49941E+08         0.00000E+00
    0.00000E+00         0.00000E+00        -0.56096E+08
 
   -0.56283E+08         0.78215E+06         0.00000E+00
    0.78215E+06        -0.49935E+08         0.00000E+00
    0.00000E+00         0.00000E+00        -0.56092E+08
 
   -0.56268E+08         0.83107E+06         0.00000E+00
    0.83107E+06        -0.49929E+08         0.00000E+00
    0.00000E+00         0.00000E+00        -0.56088E+08
 
   -0.56253E+08         0.88062E+06         0.00000E+00
    0.88062E+06        -0.49922E+08         0.00000E+00
    0.00000E+00         0.00000E+00        -0.56085E+08
 
   -0.56239E+08         0.93082E+06         0.00000E+00
    0.93082E+06        -0.49916E+08         0.00000E+00
    0.00000E+00         0.00000E+00        -0.56081E+08
 
   -0.56227E+08         0.98168E+06         0.00000E+00
    0.98168E+06        -0.49910E+08         0.00000E+00
    0.00000E+00         0.00000E+00        -0.56078E+08
 
   -0.56215E+08         0.10332E+07         0.00000E+00
    0.10332E+07        -0.49903E+08         0.00000E+00
    0.00000E+00         0.00000E+00        -0.56075E+08
 
   -0.56204E+08         0.10855E+07         0.00000E+00
    0.10855E+07        -0.49897E+08         0.00000E+00
    0.00000E+00         0.00000E+00        -0.56073E+08
 
   -0.56193E+08         0.11384E+07         0.00000E+00
    0.11384E+07        -0.49890E+08         0.00000E+00
    0.00000E+00         0.00000E+00        -0.56070E+08
 
   -0.56184E+08         0.11921E+07         0.00000E+00
    0.11921E+07        -0.49884E+08         0.00000E+00
    0.00000E+00         0.00000E+00        -0.56068E+08
 
   -0.56175E+08         0.12465E+07         0.00000E+00
    0.12465E+07        -0.49878E+08         0.00000E+00
    0.00000E+00         0.00000E+00        -0.56065E+08
 
   -0.56166E+08         0.13016E+07         0.00000E+00
    0.13016E+07        -0.49872E+08         0.00000E+00
    0.00000E+00         0.00000E+00        -0.56063E+08
 
   -0.56158E+08         0.13575E+07         0.00000E+00
    0.13575E+07        -0.49866E+08         0.00000E+00
    0.00000E+00         0.00000E+00        -0.56061E+08
 
   -0.56151E+08         0.14142E+07         0.00000E+00
    0.14142E+07        -0.49860E+08         0.00000E+00
    0.00000E+00         0.00000E+00        -0.56059E+08
 
   -0.56144E+08         0.14716E+07         0.00000E+00
    0.14716E+07        -0.49854E+08         0.00000E+00
    0.00000E+00         0.00000E+00        -0.56057E+08
 
   -0.56137E+08         0.15298E+07         0.00000E+00
    0.15298E+07        -0.49849E+08         0.00000E+00
    0.00000E+00         0.00000E+00        -0.56055E+08
 
   -0.56131E+08         0.15887E+07         0.00000E+00
    0.15887E+07        -0.49843E+08         0.00000E+00
    0.00000E+00         0.00000E+00        -0.56054E+08
 
   -0.56125E+08         0.16484E+07         0.00000E+00
    0.16484E+07        -0.49839E+08         0.00000E+00
    0.00000E+00         0.00000E+00        -0.56052E+08
 
   -0.56119E+08         0.17089E+07         0.00000E+00
    0.17089E+07        -0.49834E+08         0.00000E+00
    0.00000E+00         0.00000E+00        -0.56051E+08
 
   -0.56114E+08         0.17702E+07         0.00000E+00
    0.17702E+07        -0.49830E+08         0.00000E+00
    0.00000E+00         0.00000E+00        -0.56049E+08
 
   -0.56109E+08         0.18323E+07         0.00000E+00
    0.18323E+07        -0.49826E+08         0.00000E+00
    0.00000E+00         0.00000E+00        -0.56048E+08
 
   -0.56103E+08         0.18951E+07         0.00000E+00
    0.18951E+07        -0.49822E+08         0.00000E+00
    0.00000E+00         0.00000E+00        -0.56047E+08
 
   -0.56098E+08         0.19587E+07         0.00000E+00
    0.19587E+07        -0.49819E+08         0.00000E+00
    0.00000E+00         0.00000E+00        -0.56046E+08
 
   -0.56093E+08         0.20231E+07         0.00000E+00
    0.20231E+07        -0.49816E+08         0.00000E+00
    0.00000E+00         0.00000E+00        -0.56045E+08
 
   -0.56088E+08         0.20883E+07         0.00000E+00
    0.20883E+07        -0.49814E+08         0.00000E+00
    0.00000E+00         0.00000E+00        -0.56043E+08
 
   -0.56083E+08         0.21543E+07         0.00000E+00
    0.21543E+07        -0.49812E+08         0.00000E+00
    0.00000E+00         0.00000E+00        -0.56042E+08
 
   -0.56078E+08         0.22210E+07         0.00000E+00
    0.22210E+07        -0.49810E+08         0.00000E+00
    0.00000E+00         0.00000E+00        -0.56042E+08
 
   -0.56073E+08         0.22885E+07         0.00000E+00
    0.22885E+07        -0.49809E+08         0.00000E+00
    0.00000E+00         0.00000E+00        -0.56041E+08
 
   -0.56068E+08         0.23568E+07         0.00000E+00
    0.23568E+07        -0.49809E+08         0.00000E+00
    0.00000E+00         0.00000E+00        -0.56040E+08
 
   -0.56063E+08         0.24258E+07         0.00000E+00
    0.24258E+07        -0.49809E+08         0.00000E+00
    0.00000E+00         0.00000E+00        -0.56039E+08
 
   -0.56057E+08         0.24957E+07         0.00000E+00
    0.24957E+07        -0.49809E+08         0.00000E+00
    0.00000E+00         0.00000E+00        -0.56038E+08
 
   -0.56051E+08         0.25662E+07         0.00000E+00
    0.25662E+07        -0.49810E+08         0.00000E+00
    0.00000E+00         0.00000E+00        -0.56037E+08
 
   -0.56045E+08         0.26376E+07         0.00000E+00
    0.26376E+07        -0.49812E+08         0.00000E+00
    0.00000E+00         0.00000E+00        -0.56037E+08
 
   -0.56039E+08         0.27096E+07         0.00000E+00
    0.27096E+07        -0.49814E+08         0.00000E+00
    0.00000E+00         0.00000E+00        -0.56036E+08
 
   -0.56528E+08         0.22613E+05         0.00000E+00
    0.22613E+05        -0.50000E+08         0.00000E+00
    0.00000E+00         0.00000E+00        -0.55849E+08
 
   -0.56488E+08         0.67625E+05         0.00000E+00
    0.67625E+05        -0.50000E+08         0.00000E+00
    0.00000E+00         0.00000E+00        -0.55841E+08
 
   -0.56450E+08         0.11261E+06         0.00000E+00
    0.11261E+06        -0.49999E+08         0.00000E+00
    0.00000E+00         0.00000E+00        -0.55834E+08
 
   -0.56413E+08         0.15760E+06         0.00000E+00
    0.15760E+06        -0.49998E+08         0.00000E+00
    0.00000E+00         0.00000E+00        -0.55826E+08
 
   -0.56377E+08         0.20265E+06         0.00000E+00
    0.20265E+06        -0.49996E+08         0.00000E+00
    0.00000E+00         0.00000E+00        -0.55819E+08
 
   -0.56343E+08         0.24779E+06         0.00000E+00
    0.24779E+06        -0.49994E+08         0.00000E+00
    0.00000E+00         0.00000E+00        -0.55812E+08
 
   -0.56311E+08         0.29307E+06         0.00000E+00
    0.29307E+06        -0.49992E+08         0.00000E+00
    0.00000E+00         0.00000E+00        -0.55805E+08
 
   -0.56280E+08         0.33852E+06         0.00000E+00
    0.33852E+06        -0.49989E+08         0.00000E+00
    0.00000E+00         0.00000E+00        -0.55799E+08
 
   -0.56250E+08         0.38417E+06         0.00000E+00
    0.38417E+06        -0.49986E+08         0.00000E+00
    0.00000E+00         0.00000E+00        -0.55793E+08
 
   -0.56222E+08         0.43007E+06         0.00000E+00
    0.43007E+06        -0.49983E+08         0.00000E+00
    0.00000E+00         0.00000E+00        -0.55787E+08
 
   -0.56195E+08         0.47624E+06         0.00000E+00
    0.47624E+06        -0.49979E+08         0.00000E+00
    0.00000E+00         0.00000E+00        -0.55781E+08
 
   -0.56169E+08         0.52272E+06         0.00000E+00
    0.52272E+06        -0.49975E+08         0.00000E+00
    0.00000E+00         0.00000E+00        -0.55776E+08
 
   -0.56145E+08         0.56953E+06         0.00000E+00
    0.56953E+06        -0.49971E+08         0.00000E+00
    0.00000E+00         0.00000E+00        -0.55771E+08
 
   -0.56122E+08         0.61670E+06         0.00000E+00
    0.61670E+06        -0.49967E+08         0.00000E+00
    0.00000E+00         0.00000E+00        -0.55766E+08
 
   -0.56099E+08         0.66427E+06         0.00000E+00
    0.66427E+06        -0.49963E+08         0.00000E+00
    0.00000E+00         0.00000E+00        -0.55761E+08
 
   -0.56078E+08         0.71225E+06         0.00000E+00
    0.71225E+06        -0.49958E+08         0.00000E+00
    0.00000E+00         0.00000E+00        -0.55757E+08
 
   -0.56058E+08         0.76067E+06         0.00000E+00
    0.76067E+06        -0.49954E+08         0.00000E+00
    0.00000E+00         0.00000E+00        -0.55752E+08
 
   -0.56039E+08         0.80955E+06         0.00000E+00
    0.80955E+06        -0.49949E+08         0.00000E+00
    0.00000E+00         0.00000E+00        -0.55748E+08
 
   -0.56020E+08         0.85891E+06         0.00000E+00
    0.85891E+06        -0.49944E+08         0.00000E+00
    0.00000E+00         0.00000E+00        -0.55744E+08
 
   -0.56003E+08         0.90878E+06         0.00000E+00
    0.90878E+06        -0.49939E+08         0.00000E+00
    0.00000E+00         0.00000E+00        -0.55740E+08
 
   -0.55986E+08         0.95917E+06         0.00000E+00
    0.95917E+06        -0.49934E+08         0.00000E+00
    0.00000E+00         0.00000E+00        -0.55737E+08
 
   -0.55971E+08         0.10101E+07         0.00000E+00
    0.10101E+07        -0.49929E+08         0.00000E+00
    0.00000E+00         0.00000E+00        -0.55733E+08
 
   -0.55956E+08         0.10616E+07         0.00000E+00
    0.10616E+07        -0.49924E+08         0.00000E+00
    0.00000E+00         0.00000E+00        -0.55730E+08
 
   -0.55941E+08         0.11136E+07         0.00000E+00
    0.11136E+07        -0.49919E+08         0.00000E+00
    0.00000E+00         0.00000E+00        -0.55727E+08
 
   -0.55928E+08         0.11663E+07         0.00000E+00
    0.11663E+07        -0.49914E+08         0.00000E+00
    0.00000E+00         0.00000E+00        -0.55724E+08
 
   -0.55915E+08         0.12195E+07         0.00000E+00
    0.12195E+07        -0.49910E+08         0.00000E+00
    0.00000E+00         0.00000E+00        -0.55721E+08
 
   -0.55902E+08         0.12733E+07         0.00000E+00
    0.12733E+07        -0.49905E+08         0.00000E+00
    0.00000E+00         0.00000E+00        -0.55718E+08
 
   -0.55890E+08         0.13278E+07         0.00000E+00
    0.13278E+07        -0.49900E+08         0.00000E+00
    0.00000E+00         0.00000E+00        -0.55716E+08
 
   -0.55879E+08         0.13828E+07         0.00000E+00
    0.13828E+07        -0.49896E+08         0.00000E+00
    0.00000E+00         0.00000E+00        -0.55713E+08
 
   -0.55868E+08         0.14386E+07         0.00000E+00
    0.14386E+07        -0.49892E+08         0.00000E+00
    0.00000E+00         0.00000E+00        -0.55711E+08
 
   -0.55858E+08         0.14949E+07         0.00000E+00
    0.14949E+07        -0.49888E+08         0.00000E+00
    0.00000E+00         0.00000E+00        -0.55709E+08
 
   -0.55847E+08         0.15519E+07         0.00000E+00
    0.15519E+07        -0.49884E+08         0.00000E+00
    0.00000E+00         0.00000E+00        -0.55706E+08
 
   -0.55838E+08         0.16096E+07         0.00000E+00
    0.16096E+07        -0.49881E+08         0.00000E+00
    0.00000E+00         0.00000E+00        -0.55704E+08
 
   -0.55828E+08         0.16679E+07         0.00000E+00
    0.16679E+07        -0.49877E+08         0.00000E+00
    0.00000E+00         0.00000E+00        -0.55702E+08
 
   -0.55819E+08         0.17269E+07         0.00000E+00
    0.17269E+07        -0.49875E+08         0.00000E+00
    0.00000E+00         0.00000E+00        -0.55701E+08
 
   -0.55810E+08         0.17865E+07         0.00000E+00
    0.17865E+07        -0.49872E+08         0.00000E+00
    0.00000E+00         0.00000E+00        -0.55699E+08
 
   -0.55801E+08         0.18469E+07         0.00000E+00
    0.18469E+07        -0.49870E+08         0.00000E+00
    0.00000E+00         0.00000E+00        -0.55697E+08
 
   -0.55792E+08         0.19079E+07         0.00000E+00
    0.19079E+07        -0.49868E+08         0.00000E+00
    0.00000E+00         0.00000E+00        -0.55695E+08
 
   -0.55783E+08         0.19695E+07         0.00000E+00
    0.19695E+07        -0.49866E+08         0.00000E+00
    0.00000E+00         0.00000E+00        -0.55694E+08
 
   -0.55775E+08         0.20319E+07         0.00000E+00
    0.20319E+07        -0.49865E+08         0.00000E+00
    0.00000E+00         0.00000E+00        -0.55692E+08
 
   -0.55766E+08         0.20949E+07         0.00000E+00
    0.20949E+07        -0.49864E+08         0.00000E+00
    0.00000E+00         0.00000E+00        -0.55691E+08
 
   -0.55757E+08         0.21586E+07         0.00000E+00
    0.21586E+07        -0.49864E+08         0.00000E+00
    0.00000E+00         0.00000E+00        -0.55689E+08
 
   -0.55749E+08         0.22230E+07         0.00000E+00
    0.22230E+07        -0.49864E+08         0.00000E+00
    0.00000E+00         0.00000E+00        -0.55688E+08
 
   -0.55740E+08         0.22880E+07         0.00000E+00
    0.22880E+07        -0.49865E+08         0.00000E+00
    0.00000E+00         0.00000E+00        -0.55687E+08
 
   -0.55731E+08         0.23538E+07         0.00000E+00
    0.23538E+07        -0.49866E+08         0.00000E+00
    0.00000E+00         0.00000E+00        -0.55686E+08
 
   -0.55722E+08         0.24202E+07         0.00000E+00
    0.24202E+07        -0.49868E+08         0.00000E+00
    0.00000E+00         0.00000E+00        -0.55684E+08
 
   -0.55713E+08         0.24872E+07         0.00000E+00
    0.24872E+07        -0.49870E+08         0.00000E+00
    0.00000E+00         0.00000E+00        -0.55683E+08
 
   -0.55704E+08         0.25550E+07         0.00000E+00
    0.25550E+07        -0.49873E+08         0.00000E+00
    0.00000E+00         0.00000E+00        -0.55682E+08
 
   -0.55694E+08         0.26234E+07         0.00000E+00
    0.26234E+07        -0.49876E+08         0.00000E+00
    0.00000E+00         0.00000E+00        -0.55681E+08
 
   -0.55684E+08         0.26925E+07         0.00000E+00
    0.26925E+07        -0.49880E+08         0.00000E+00
    0.00000E+00         0.00000E+00        -0.55680E+08
 
   -0.56298E+08         0.23642E+05         0.00000E+00
    0.23642E+05        -0.50000E+08         0.00000E+00
    0.00000E+00         0.00000E+00        -0.55520E+08
 
   -0.56258E+08         0.70552E+05         0.00000E+00
    0.70552E+05        -0.50000E+08         0.00000E+00
    0.00000E+00         0.00000E+00        -0.55512E+08
 
   -0.56220E+08         0.11736E+06         0.00000E+00
    0.11736E+06        -0.49999E+08         0.00000E+00
    0.00000E+00         0.00000E+00        -0.55505E+08
 
   -0.56183E+08         0.16409E+06         0.00000E+00
    0.16409E+06        -0.49998E+08         0.00000E+00
    0.00000E+00         0.00000E+00        -0.55497E+08
 
   -0.56148E+08         0.21080E+06         0.00000E+00
    0.21080E+06        -0.49997E+08         0.00000E+00
    0.00000E+00         0.00000E+00        -0.55490E+08
 
   -0.56113E+08         0.25752E+06         0.00000E+00
    0.25752E+06        -0.49996E+08         0.00000E+00
    0.00000E+00         0.00000E+00        -0.55483E+08
 
   -0.56081E+08         0.30429E+06         0.00000E+00
    0.30429E+06        -0.49994E+08         0.00000E+00
    0.00000E+00         0.00000E+00        -0.55477E+08
 
   -0.56049E+08         0.35113E+06         0.00000E+00
    0.35113E+06        -0.49992E+08         0.00000E+00
    0.00000E+00         0.00000E+00        -0.55470E+08
 
   -0.56018E+08         0.39809E+06         0.00000E+00
    0.39809E+06        -0.49989E+08         0.00000E+00
    0.00000E+00         0.00000E+00        -0.55464E+08
 
   -0.55989E+08         0.44519E+06         0.00000E+00
    0.44519E+06        -0.49987E+08         0.00000E+00
    0.00000E+00         0.00000E+00        -0.55458E+08
 
   -0.55961E+08         0.49246E+06         0.00000E+00
    0.49246E+06        -0.49984E+08         0.00000E+00
    0.00000E+00         0.00000E+00        -0.55452E+08
 
   -0.55934E+08         0.53994E+06         0.00000E+00
    0.53994E+06        -0.49981E+08         0.00000E+00
    0.00000E+00         0.00000E+00        -0.55447E+08
 
   -0.55908E+08         0.58764E+06         0.00000E+00
    0.58764E+06        -0.49978E+08         0.00000E+00
    0.00000E+00         0.00000E+00        -0.55441E+08
 
   -0.55883E+08         0.63561E+06         0.00000E+00
    0.63561E+06        -0.49975E+08         0.00000E+00
    0.00000E+00         0.00000E+00        -0.55436E+08
 
   -0.55859E+08         0.68386E+06         0.00000E+00
    0.68386E+06        -0.49971E+08         0.00000E+00
    0.00000E+00         0.00000E+00        -0.55431E+08
 
   -0.55836E+08         0.73241E+06         0.00000E+00
    0.73241E+06        -0.49968E+08         0.00000E+00
    0.00000E+00         0.00000E+00        -0.55427E+08
 
   -0.55813E+08         0.78130E+06         0.00000E+00
    0.78130E+06        -0.49964E+08         0.00000E+00
    0.00000E+00         0.00000E+00        -0.55422E+08
 
   -0.55792E+08         0.83053E+06         0.00000E+00
    0.83053E+06        -0.49961E+08         0.00000E+00
    0.00000E+00         0.00000E+00        -0.55418E+08
 
   -0.55772E+08         0.88014E+06         0.00000E+00
    0.88014E+06        -0.49957E+08         0.00000E+00
    0.00000E+00         0.00000E+00        -0.55414E+08
 
   -0.55752E+08         0.93014E+06         0.00000E+00
    0.93014E+06        -0.49954E+08         0.00000E+00
    0.00000E+00         0.00000E+00        -0.55409E+08
 
   -0.55733E+08         0.98055E+06         0.00000E+00
    0.98055E+06        -0.49950E+08         0.00000E+00
    0.00000E+00         0.00000E+00        -0.55406E+08
 
   -0.55715E+08         0.10314E+07         0.00000E+00
    0.10314E+07        -0.49946E+08         0.00000E+00
    0.00000E+00         0.00000E+00        -0.55402E+08
 
   -0.55697E+08         0.10827E+07         0.00000E+00
    0.10827E+07        -0.49943E+08         0.00000E+00
    0.00000E+00         0.00000E+00        -0.55398E+08
 
   -0.55681E+08         0.11344E+07         0.00000E+00
    0.11344E+07        -0.49939E+08         0.00000E+00
    0.00000E+00         0.00000E+00        -0.55395E+08
 
   -0.55664E+08         0.11866E+07         0.00000E+00
    0.11866E+07        -0.49936E+08         0.00000E+00
    0.00000E+00         0.00000E+00        -0.55392E+08
 
   -0.55649E+08         0.12393E+07         0.00000E+00
    0.12393E+07        -0.49932E+08         0.00000E+00
    0.00000E+00         0.00000E+00        -0.55388E+08
 
   -0.55633E+08         0.12925E+07         0.00000E+00
    0.12925E+07        -0.49929E+08         0.00000E+00
    0.00000E+00         0.00000E+00        -0.55385E+08
 
   -0.55619E+08         0.13461E+07         0.00000E+00
    0.13461E+07        -0.49926E+08         0.00000E+00
    0.00000E+00         0.00000E+00        -0.55382E+08
 
   -0.55604E+08         0.14004E+07         0.00000E+00
    0.14004E+07        -0.49923E+08         0.00000E+00
    0.00000E+00         0.00000E+00        -0.55380E+08
 
   -0.55591E+08         0.14551E+07         0.00000E+00
    0.14551E+07        -0.49921E+08         0.00000E+00
    0.00000E+00         0.00000E+00        -0.55377E+08
 
   -0.55577E+08         0.15103E+07         0.00000E+00
    0.15103E+07        -0.49918E+08         0.00000E+00
    0.00000E+00         0.00000E+00        -0.55374E+08
 
   -0.55564E+08         0.15661E+07         0.00000E+00
    0.15661E+07        -0.49916E+08         0.00000E+00
    0.00000E+00         0.00000E+00        -0.55372E+08
 
   -0.55551E+08         0.16225E+07         0.00000E+00
    0.16225E+07        -0.49914E+08         0.00000E+00
    0.00000E+00         0.00000E+00        -0.55369E+08
 
   -0.55538E+08         0.16794E+07         0.00000E+00
    0.16794E+07        -0.49912E+08         0.00000E+00
    0.00000E+00         0.00000E+00        -0.55367E+08
 
   -0.55526E+08         0.17369E+07         0.00000E+00
    0.17369E+07        -0.49911E+08         0.00000E+00
    0.00000E+00         0.00000E+00        -0.55365E+08
 
   -0.55514E+08         0.17949E+07         0.00000E+00
    0.17949E+07        -0.49910E+08         0.00000E+00
    0.00000E+00         0.00000E+00        -0.55363E+08
 
   -0.55502E+08         0.18535E+07         0.00000E+00
    0.18535E+07        -0.49909E+08         0.00000E+00
    0.00000E+00         0.00000E+00        -0.55361E+08
 
   -0.55490E+08         0.19127E+07         0.00000E+00
    0.19127E+07        -0.49908E+08         0.00000E+00
    0.00000E+00         0.00000E+00        -0.55359E+08
 
   -0.55478E+08         0.19724E+07         0.00000E+00
    0.19724E+07        -0.49908E+08         0.00000E+00
    0.00000E+00         0.00000E+00        -0.55357E+08
 
   -0.55466E+08         0.20327E+07         0.00000E+00
    0.20327E+07        -0.49909E+08         0.00000E+00
    0.00000E+00         0.00000E+00        -0.55355E+08
 
   -0.55455E+08         0.20936E+07         0.00000E+00
    0.20936E+07        -0.49910E+08         0.00000E+00
    0.00000E+00         0.00000E+00        -0.55353E+08
 
   -0.55443E+08         0.21551E+07         0.00000E+00
    0.21551E+07        -0.49911E+08         0.00000E+00
    0.00000E+00         0.00000E+00        -0.55351E+08
 
   -0.55431E+08         0.22172E+07         0.00000E+00
    0.22172E+07        -0.49912E+08         0.00000E+00
    0.00000E+00         0.00000E+00        -0.55350E+08
 
   -0.55419E+08         0.22798E+07         0.00000E+00
    0.22798E+07        -0.49914E+08         0.00000E+00
    0.00000E+00         0.00000E+00        -0.55348E+08
 
   -0.55407E+08         0.23431E+07         0.00000E+00
    0.23431E+07        -0.49917E+08         0.00000E+00
    0.00000E+00         0.00000E+00        -0.55346E+08
 
   -0.55395E+08         0.24069E+07         0.00000E+00
    0.24069E+07        -0.49920E+08         0.00000E+00
    0.00000E+00         0.00000E+00        -0.55345E+08
 
   -0.55383E+08         0.24712E+07         0.00000E+00
    0.24712E+07        -0.49924E+08         0.00000E+00
    0.00000E+00         0.00000E+00        -0.55343E+08
 
   -0.55370E+08         0.25362E+07         0.00000E+00
    0.25362E+07        -0.49928E+08         0.00000E+00
    0.00000E+00         0.00000E+00        -0.55342E+08
 
   -0.55357E+08         0.26018E+07         0.00000E+00
    0.26018E+07        -0.49933E+08         0.00000E+00
    0.00000E+00         0.00000E+00        -0.55340E+08
 
   -0.55344E+08         0.26679E+07         0.00000E+00
    0.26679E+07        -0.49938E+08         0.00000E+00
    0.00000E+00         0.00000E+00        -0.55339E+08
 
   -0.56059E+08         0.24430E+05         0.00000E+00
    0.24430E+05        -0.50000E+08         0.00000E+00
    0.00000E+00         0.00000E+00        -0.55203E+08
 
   -0.56020E+08         0.72791E+05         0.00000E+00
    0.72791E+05        -0.50000E+08         0.00000E+00
    0.00000E+00         0.00000E+00        -0.55195E+08
 
   -0.55983E+08         0.12099E+06         0.00000E+00
    0.12099E+06        -0.50000E+08         0.00000E+00
    0.00000E+00         0.00000E+00        -0.55188E+08
 
   -0.55946E+08         0.16905E+06         0.00000E+00
    0.16905E+06        -0.49999E+08         0.00000E+00
    0.00000E+00         0.00000E+00        -0.55180E+08
 
   -0.55911E+08         0.21703E+06         0.00000E+00
    0.21703E+06        -0.49998E+08         0.00000E+00
    0.00000E+00         0.00000E+00        -0.55173E+08
 
   -0.55877E+08         0.26494E+06         0.00000E+00
    0.26494E+06        -0.49997E+08         0.00000E+00
    0.00000E+00         0.00000E+00        -0.55167E+08
 
   -0.55844E+08         0.31282E+06         0.00000E+00
    0.31282E+06        -0.49995E+08         0.00000E+00
    0.00000E+00         0.00000E+00        -0.55160E+08
 
   -0.55812E+08         0.36071E+06         0.00000E+00
    0.36071E+06        -0.49994E+08         0.00000E+00
    0.00000E+00         0.00000E+00        -0.55154E+08
 
   -0.55781E+08         0.40863E+06         0.00000E+00
    0.40863E+06        -0.49992E+08         0.00000E+00
    0.00000E+00         0.00000E+00        -0.55147E+08
 
   -0.55751E+08         0.45661E+06         0.00000E+00
    0.45661E+06        -0.49990E+08         0.00000E+00
    0.00000E+00         0.00000E+00        -0.55141E+08
 
   -0.55722E+08         0.50468E+06         0.00000E+00
    0.50468E+06        -0.49988E+08         0.00000E+00
    0.00000E+00         0.00000E+00        -0.55136E+08
 
   -0.55694E+08         0.55287E+06         0.00000E+00
    0.55287E+06        -0.49986E+08         0.00000E+00
    0.00000E+00         0.00000E+00        -0.55130E+08
 
   -0.55667E+08         0.60120E+06         0.00000E+00
    0.60120E+06        -0.49984E+08         0.00000E+00
    0.00000E+00         0.00000E+00        -0.55125E+08
 
   -0.55641E+08         0.64970E+06         0.00000E+00
    0.64970E+06        -0.49981E+08         0.00000E+00
    0.00000E+00         0.00000E+00        -0.55119E+08
 
   -0.55616E+08         0.69839E+06         0.00000E+00
    0.69839E+06        -0.49979E+08         0.00000E+00
    0.00000E+00         0.00000E+00        -0.55114E+08
 
   -0.55591E+08         0.74729E+06         0.00000E+00
    0.74729E+06        -0.49977E+08         0.00000E+00
    0.00000E+00         0.00000E+00        -0.55109E+08
 
   -0.55568E+08         0.79643E+06         0.00000E+00
    0.79643E+06        -0.49974E+08         0.00000E+00
    0.00000E+00         0.00000E+00        -0.55105E+08
 
   -0.55545E+08         0.84583E+06         0.00000E+00
    0.84583E+06        -0.49971E+08         0.00000E+00
    0.00000E+00         0.00000E+00        -0.55100E+08
 
   -0.55523E+08         0.89549E+06         0.00000E+00
    0.89549E+06        -0.49969E+08         0.00000E+00
    0.00000E+00         0.00000E+00        -0.55096E+08
 
   -0.55501E+08         0.94546E+06         0.00000E+00
    0.94546E+06        -0.49966E+08         0.00000E+00
    0.00000E+00         0.00000E+00        -0.55092E+08
 
   -0.55480E+08         0.99573E+06         0.00000E+00
    0.99573E+06        -0.49964E+08         0.00000E+00
    0.00000E+00         0.00000E+00        -0.55088E+08
 
   -0.55460E+08         0.10463E+07         0.00000E+00
    0.10463E+07        -0.49961E+08         0.00000E+00
    0.00000E+00         0.00000E+00        -0.55084E+08
 
   -0.55441E+08         0.10973E+07         0.00000E+00
    0.10973E+07        -0.49959E+08         0.00000E+00
    0.00000E+00         0.00000E+00        -0.55080E+08
 
   -0.55422E+08         0.11486E+07         0.00000E+00
    0.11486E+07        -0.49957E+08         0.00000E+00
    0.00000E+00         0.00000E+00        -0.55076E+08
 
   -0.55403E+08         0.12002E+07         0.00000E+00
    0.12002E+07        -0.49955E+08         0.00000E+00
    0.00000E+00         0.00000E+00        -0.55073E+08
 
   -0.55386E+08         0.12523E+07         0.00000E+00
    0.12523E+07        -0.49953E+08         0.00000E+00
    0.00000E+00         0.00000E+00        -0.55069E+08
 
   -0.55368E+08         0.13047E+07         0.00000E+00
    0.13047E+07        -0.49951E+08         0.00000E+00
    0.00000E+00         0.00000E+00        -0.55066E+08
 
   -0.55351E+08         0.13576E+07         0.00000E+00
    0.13576E+07        -0.49949E+08         0.00000E+00
    0.00000E+00         0.00000E+00        -0.55063E+08
 
   -0.55334E+08         0.14109E+07         0.00000E+00
    0.14109E+07        -0.49947E+08         0.00000E+00
    0.00000E+00         0.00000E+00        -0.55060E+08
 
   -0.55318E+08         0.14646E+07         0.00000E+00
    0.14646E+07        -0.49946E+08         0.00000E+00
    0.00000E+00         0.00000E+00        -0.55057E+08
 
   -0.55302E+08         0.15187E+07         0.00000E+00
    0.15187E+07        -0.49945E+08         0.00000E+00
    0.00000E+00         0.00000E+00        -0.55054E+08
 
   -0.55287E+08         0.15733E+07         0.00000E+00
    0.15733E+07        -0.49944E+08         0.00000E+00
    0.00000E+00         0.00000E+00        -0.55051E+08
 
   -0.55271E+08         0.16283E+07         0.00000E+00
    0.16283E+07        -0.49943E+08         0.00000E+00
    0.00000E+00         0.00000E+00        -0.55049E+08
 
   -0.55256E+08         0.16838E+07         0.00000E+00
    0.16838E+07        -0.49943E+08         0.00000E+00
    0.00000E+00         0.00000E+00        -0.55046E+08
 
   -0.55241E+08         0.17397E+07         0.00000E+00
    0.17397E+07        -0.49943E+08         0.00000E+00
    0.00000E+00         0.00000E+00        -0.55043E+08
 
   -0.55226E+08         0.17962E+07         0.00000E+00
    0.17962E+07        -0.49943E+08         0.00000E+00
    0.00000E+00         0.00000E+00        -0.55041E+08
 
   -0.55212E+08         0.18531E+07         0.00000E+00
    0.18531E+07        -0.49944E+08         0.00000E+00
    0.00000E+00         0.00000E+00        -0.55039E+08
 
   -0.55197E+08         0.19104E+07         0.00000E+00
    0.19104E+07        -0.49944E+08         0.00000E+00
    0.00000E+00         0.00000E+00        -0.55036E+08
 
   -0.55183E+08         0.19683E+07         0.00000E+00
    0.19683E+07        -0.49946E+08         0.00000E+00
    0.00000E+00         0.00000E+00        -0.55034E+08
 
   -0.55168E+08         0.20266E+07         0.00000E+00
    0.20266E+07        -0.49947E+08         0.00000E+00
    0.00000E+00         0.00000E+00        -0.55032E+08
 
   -0.55154E+08         0.20854E+07         0.00000E+00
    0.20854E+07        -0.49949E+08         0.00000E+00
    0.00000E+00         0.00000E+00        -0.55030E+08
 
   -0.55140E+08         0.21447E+07         0.00000E+00
    0.21447E+07        -0.49952E+08         0.00000E+00
    0.00000E+00         0.00000E+00        -0.55028E+08
 
   -0.55125E+08         0.22045E+07         0.00000E+00
    0.22045E+07        -0.49955E+08         0.00000E+00
    0.00000E+00         0.00000E+00        -0.55026E+08
 
   -0.55111E+08         0.22648E+07         0.00000E+00
    0.22648E+07        -0.49958E+08         0.00000E+00
    0.00000E+00         0.00000E+00        -0.55024E+08
 
   -0.55096E+08         0.23256E+07         0.00000E+00
    0.23256E+07        -0.49962E+08         0.00000E+00
    0.00000E+00         0.00000E+00        -0.55022E+08
 
   -0.55081E+08         0.23868E+07         0.00000E+00
    0.23868E+07        -0.49966E+08         0.00000E+00
    0.00000E+00         0.00000E+00        -0.55020E+08
 
   -0.55066E+08         0.24486E+07         0.00000E+00
    0.24486E+07        -0.49971E+08         0.00000E+00
    0.00000E+00         0.00000E+00        -0.55018E+08
 
   -0.55051E+08         0.25109E+07         0.00000E+00
    0.25109E+07        -0.49977E+08         0.00000E+00
    0.00000E+00         0.00000E+00        -0.55016E+08
 
   -0.55035E+08         0.25736E+07         0.00000E+00
    0.25736E+07        -0.49983E+08         0.00000E+00
    0.00000E+00         0.00000E+00        -0.55014E+08
 
   -0.55020E+08         0.26369E+07         0.00000E+00
    0.26369E+07        -0.49989E+08         0.00000E+00
    0.00000E+00         0.00000E+00        -0.55013E+08
 
   -0.55814E+08         0.25010E+05         0.00000E+00
    0.25010E+05        -0.50000E+08         0.00000E+00
    0.00000E+00         0.00000E+00        -0.54898E+08
 
   -0.55776E+08         0.74435E+05         0.00000E+00
    0.74435E+05        -0.50000E+08         0.00000E+00
    0.00000E+00         0.00000E+00        -0.54890E+08
 
   -0.55739E+08         0.12365E+06         0.00000E+00
    0.12365E+06        -0.50000E+08         0.00000E+00
    0.00000E+00         0.00000E+00        -0.54883E+08
 
   -0.55704E+08         0.17268E+06         0.00000E+00
    0.17268E+06        -0.49999E+08         0.00000E+00
    0.00000E+00         0.00000E+00        -0.54876E+08
 
   -0.55669E+08         0.22157E+06         0.00000E+00
    0.22157E+06        -0.49999E+08         0.00000E+00
    0.00000E+00         0.00000E+00        -0.54869E+08
 
   -0.55635E+08         0.27034E+06         0.00000E+00
    0.27034E+06        -0.49998E+08         0.00000E+00
    0.00000E+00         0.00000E+00        -0.54862E+08
 
   -0.55602E+08         0.31902E+06         0.00000E+00
    0.31902E+06        -0.49997E+08         0.00000E+00
    0.00000E+00         0.00000E+00        -0.54855E+08
 
   -0.55570E+08         0.36764E+06         0.00000E+00
    0.36764E+06        -0.49996E+08         0.00000E+00
    0.00000E+00         0.00000E+00        -0.54849E+08
 
   -0.55539E+08         0.41623E+06         0.00000E+00
    0.41623E+06        -0.49995E+08         0.00000E+00
    0.00000E+00         0.00000E+00        -0.54843E+08
 
   -0.55509E+08         0.46481E+06         0.00000E+00
    0.46481E+06        -0.49993E+08         0.00000E+00
    0.00000E+00         0.00000E+00        -0.54837E+08
 
   -0.55480E+08         0.51341E+06         0.00000E+00
    0.51341E+06        -0.49992E+08         0.00000E+00
    0.00000E+00         0.00000E+00        -0.54831E+08
 
   -0.55452E+08         0.56206E+06         0.00000E+00
    0.56206E+06        -0.49990E+08         0.00000E+00
    0.00000E+00         0.00000E+00        -0.54826E+08
 
   -0.55424E+08         0.61077E+06         0.00000E+00
    0.61077E+06        -0.49989E+08         0.00000E+00
    0.00000E+00         0.00000E+00        -0.54820E+08
 
   -0.55397E+08         0.65957E+06         0.00000E+00
    0.65957E+06        -0.49987E+08         0.00000E+00
    0.00000E+00         0.00000E+00        -0.54815E+08
 
   -0.55371E+08         0.70849E+06         0.00000E+00
    0.70849E+06        -0.49986E+08         0.00000E+00
    0.00000E+00         0.00000E+00        -0.54810E+08
 
   -0.55346E+08         0.75754E+06         0.00000E+00
    0.75754E+06        -0.49984E+08         0.00000E+00
    0.00000E+00         0.00000E+00        -0.54805E+08
 
   -0.55321E+08         0.80674E+06         0.00000E+00
    0.80674E+06        -0.49982E+08         0.00000E+00
    0.00000E+00         0.00000E+00        -0.54800E+08
 
   -0.55297E+08         0.85612E+06         0.00000E+00
    0.85612E+06        -0.49981E+08         0.00000E+00
    0.00000E+00         0.00000E+00        -0.54796E+08
 
   -0.55274E+08         0.90569E+06         0.00000E+00
    0.90569E+06        -0.49979E+08         0.00000E+00
    0.00000E+00         0.00000E+00        -0.54791E+08
 
   -0.55251E+08         0.95546E+06         0.00000E+00
    0.95546E+06        -0.49978E+08         0.00000E+00
    0.00000E+00         0.00000E+00        -0.54787E+08
 
   -0.55229E+08         0.10055E+07         0.00000E+00
    0.10055E+07        -0.49976E+08         0.00000E+00
    0.00000E+00         0.00000E+00        -0.54783E+08
 
   -0.55207E+08         0.10557E+07         0.00000E+00
    0.10557E+07        -0.49975E+08         0.00000E+00
    0.00000E+00         0.00000E+00        -0.54779E+08
 
   -0.55186E+08         0.11062E+07         0.00000E+00
    0.11062E+07        -0.49973E+08         0.00000E+00
    0.00000E+00         0.00000E+00        -0.54775E+08
 
   -0.55166E+08         0.11570E+07         0.00000E+00
    0.11570E+07        -0.49972E+08         0.00000E+00
    0.00000E+00         0.00000E+00        -0.54771E+08
 
   -0.55146E+08         0.12080E+07         0.00000E+00
    0.12080E+07        -0.49971E+08         0.00000E+00
    0.00000E+00         0.00000E+00        -0.54767E+08
 
   -0.55126E+08         0.12594E+07         0.00000E+00
    0.12594E+07        -0.49970E+08         0.00000E+00
    0.00000E+00         0.00000E+00        -0.54764E+08
 
   -0.55107E+08         0.13110E+07         0.00000E+00
    0.13110E+07        -0.49969E+08         0.00000E+00
    0.00000E+00         0.00000E+00        -0.54760E+08
 
   -0.55088E+08         0.13630E+07         0.00000E+00
    0.13630E+07        -0.49969E+08         0.00000E+00
    0.00000E+00         0.00000E+00        -0.54757E+08
 
   -0.55070E+08         0.14153E+07         0.00000E+00
    0.14153E+07        -0.49968E+08         0.00000E+00
    0.00000E+00         0.00000E+00        -0.54753E+08
 
   -0.55051E+08         0.14679E+07         0.00000E+00
    0.14679E+07        -0.49968E+08         0.00000E+00
    0.00000E+00         0.00000E+00        -0.54750E+08
 
   -0.55033E+08         0.15209E+07         0.00000E+00
    0.15209E+07        -0.49968E+08         0.00000E+00
    0.00000E+00         0.00000E+00        -0.54747E+08
 
   -0.55016E+08         0.15742E+07         0.00000E+00
    0.15742E+07        -0.49968E+08         0.00000E+00
    0.00000E+00         0.00000E+00        -0.54744E+08
 
   -0.54998E+08         0.16279E+07         0.00000E+00
    0.16279E+07        -0.49969E+08         0.00000E+00
    0.00000E+00         0.00000E+00        -0.54741E+08
 
   -0.54981E+08         0.16819E+07         0.00000E+00
    0.16819E+07        -0.49970E+08         0.00000E+00
    0.00000E+00         0.00000E+00        -0.54739E+08
 
   -0.54964E+08         0.17364E+07         0.00000E+00
    0.17364E+07        -0.49971E+08         0.00000E+00
    0.00000E+00         0.00000E+00        -0.54736E+08
 
   -0.54947E+08         0.17912E+07         0.00000E+00
    0.17912E+07        -0.49972E+08         0.00000E+00
    0.00000E+00         0.00000E+00        -0.54733E+08
 
   -0.54931E+08         0.18464E+07         0.00000E+00
    0.18464E+07        -0.49974E+08         0.00000E+00
    0.00000E+00         0.00000E+00        -0.54731E+08
 
   -0.54914E+08         0.19020E+07         0.00000E+00
    0.19020E+07        -0.49976E+08         0.00000E+00
    0.00000E+00         0.00000E+00        -0.54728E+08
 
   -0.54897E+08         0.19579E+07         0.00000E+00
    0.19579E+07        -0.49978E+08         0.00000E+00
    0.00000E+00         0.00000E+00        -0.54726E+08
 
   -0.54881E+08         0.20143E+07         0.00000E+00
    0.20143E+07        -0.49981E+08         0.00000E+00
    0.00000E+00         0.00000E+00        -0.54723E+08
 
   -0.54864E+08         0.20711E+07         0.00000E+00
    0.20711E+07        -0.49984E+08         0.00000E+00
    0.00000E+00         0.00000E+00        -0.54721E+08
 
   -0.54847E+08         0.21283E+07         0.00000E+00
    0.21283E+07        -0.49988E+08         0.00000E+00
    0.00000E+00         0.00000E+00        -0.54718E+08
 
   -0.54831E+08         0.21858E+07         0.00000E+00
    0.21858E+07        -0.49992E+08         0.00000E+00
    0.00000E+00         0.00000E+00        -0.54716E+08
 
   -0.54814E+08         0.22438E+07         0.00000E+00
    0.22438E+07        -0.49996E+08         0.00000E+00
    0.00000E+00         0.00000E+00        -0.54714E+08
 
   -0.54797E+08         0.23022E+07         0.00000E+00
    0.23022E+07        -0.50001E+08         0.00000E+00
    0.00000E+00         0.00000E+00        -0.54712E+08
 
   -0.54780E+08         0.23610E+07         0.00000E+00
    0.23610E+07        -0.50007E+08         0.00000E+00
    0.00000E+00         0.00000E+00        -0.54710E+08
 
   -0.54762E+08         0.24202E+07         0.00000E+00
    0.24202E+07        -0.50013E+08         0.00000E+00
    0.00000E+00         0.00000E+00        -0.54708E+08
 
   -0.54745E+08         0.24799E+07         0.00000E+00
    0.24799E+07        -0.50019E+08         0.00000E+00
    0.00000E+00         0.00000E+00        -0.54705E+08
 
   -0.54727E+08         0.25399E+07         0.00000E+00
    0.25399E+07        -0.50026E+08         0.00000E+00
    0.00000E+00         0.00000E+00        -0.54703E+08
 
   -0.54709E+08         0.26003E+07         0.00000E+00
    0.26003E+07        -0.50034E+08         0.00000E+00
    0.00000E+00         0.00000E+00        -0.54701E+08
 
   -0.55564E+08         0.25412E+05         0.00000E+00
    0.25412E+05        -0.50000E+08         0.00000E+00
    0.00000E+00         0.00000E+00        -0.54604E+08
 
   -0.55528E+08         0.75566E+05         0.00000E+00
    0.75566E+05        -0.50000E+08         0.00000E+00
    0.00000E+00         0.00000E+00        -0.54597E+08
 
   -0.55492E+08         0.12547E+06         0.00000E+00
    0.12547E+06        -0.50000E+08         0.00000E+00
    0.00000E+00         0.00000E+00        -0.54590E+08
 
   -0.55457E+08         0.17516E+06         0.00000E+00
    0.17516E+06        -0.50000E+08         0.00000E+00
    0.00000E+00         0.00000E+00        -0.54583E+08
 
   -0.55423E+08         0.22466E+06         0.00000E+00
    0.22466E+06        -0.49999E+08         0.00000E+00
    0.00000E+00         0.00000E+00        -0.54576E+08
 
   -0.55390E+08         0.27399E+06         0.00000E+00
    0.27399E+06        -0.49999E+08         0.00000E+00
    0.00000E+00         0.00000E+00        -0.54569E+08
 
   -0.55358E+08         0.32319E+06         0.00000E+00
    0.32319E+06        -0.49998E+08         0.00000E+00
    0.00000E+00         0.00000E+00        -0.54563E+08
 
   -0.55326E+08         0.37228E+06         0.00000E+00
    0.37228E+06        -0.49997E+08         0.00000E+00
    0.00000E+00         0.00000E+00        -0.54557E+08
 
   -0.55295E+08         0.42128E+06         0.00000E+00
    0.42128E+06        -0.49997E+08         0.00000E+00
    0.00000E+00         0.00000E+00        -0.54551E+08
 
   -0.55265E+08         0.47021E+06         0.00000E+00
    0.47021E+06        -0.49996E+08         0.00000E+00
    0.00000E+00         0.00000E+00        -0.54545E+08
 
   -0.55236E+08         0.51911E+06         0.00000E+00
    0.51911E+06        -0.49995E+08         0.00000E+00
    0.00000E+00         0.00000E+00        -0.54539E+08
 
   -0.55208E+08         0.56799E+06         0.00000E+00
    0.56799E+06        -0.49994E+08         0.00000E+00
    0.00000E+00         0.00000E+00        -0.54534E+08
 
   -0.55180E+08         0.61687E+06         0.00000E+00
    0.61687E+06        -0.49993E+08         0.00000E+00
    0.00000E+00         0.00000E+00        -0.54528E+08
 
   -0.55153E+08         0.66578E+06         0.00000E+00
    0.66578E+06        -0.49992E+08         0.00000E+00
    0.00000E+00         0.00000E+00        -0.54523E+08
 
   -0.55126E+08         0.71474E+06         0.00000E+00
    0.71474E+06        -0.49991E+08         0.00000E+00
    0.00000E+00         0.00000E+00        -0.54518E+08
 
   -0.55100E+08         0.76376E+06         0.00000E+00
    0.76376E+06        -0.49990E+08         0.00000E+00
    0.00000E+00         0.00000E+00        -0.54513E+08
 
   -0.55075E+08         0.81286E+06         0.00000E+00
    0.81286E+06        -0.49990E+08         0.00000E+00
    0.00000E+00         0.00000E+00        -0.54508E+08
 
   -0.55050E+08         0.86206E+06         0.00000E+00
    0.86206E+06        -0.49989E+08         0.00000E+00
    0.00000E+00         0.00000E+00        -0.54504E+08
 
   -0.55026E+08         0.91139E+06         0.00000E+00
    0.91139E+06        -0.49988E+08         0.00000E+00
    0.00000E+00         0.00000E+00        -0.54499E+08
 
   -0.55003E+08         0.96084E+06         0.00000E+00
    0.96084E+06        -0.49987E+08         0.00000E+00
    0.00000E+00         0.00000E+00        -0.54495E+08
 
   -0.54979E+08         0.10104E+07         0.00000E+00
    0.10104E+07        -0.49987E+08         0.00000E+00
    0.00000E+00         0.00000E+00        -0.54490E+08
 
   -0.54957E+08         0.10602E+07         0.00000E+00
    0.10602E+07        -0.49986E+08         0.00000E+00
    0.00000E+00         0.00000E+00        -0.54486E+08
 
   -0.54935E+08         0.11102E+07         0.00000E+00
    0.11102E+07        -0.49986E+08         0.00000E+00
    0.00000E+00         0.00000E+00        -0.54482E+08
 
   -0.54913E+08         0.11603E+07         0.00000E+00
    0.11603E+07        -0.49985E+08         0.00000E+00
    0.00000E+00         0.00000E+00        -0.54478E+08
 
   -0.54892E+08         0.12106E+07         0.00000E+00
    0.12106E+07        -0.49985E+08         0.00000E+00
    0.00000E+00         0.00000E+00        -0.54475E+08
 
   -0.54871E+08         0.12612E+07         0.00000E+00
    0.12612E+07        -0.49985E+08         0.00000E+00
    0.00000E+00         0.00000E+00        -0.54471E+08
 
   -0.54850E+08         0.13120E+07         0.00000E+00
    0.13120E+07        -0.49985E+08         0.00000E+00
    0.00000E+00         0.00000E+00        -0.54467E+08
 
   -0.54830E+08         0.13630E+07         0.00000E+00
    0.13630E+07        -0.49986E+08         0.00000E+00
    0.00000E+00         0.00000E+00        -0.54464E+08
 
   -0.54810E+08         0.14143E+07         0.00000E+00
    0.14143E+07        -0.49986E+08         0.00000E+00
    0.00000E+00         0.00000E+00        -0.54460E+08
 
   -0.54790E+08         0.14658E+07         0.00000E+00
    0.14658E+07        -0.49987E+08         0.00000E+00
    0.00000E+00         0.00000E+00        -0.54457E+08
 
   -0.54771E+08         0.15176E+07         0.00000E+00
    0.15176E+07        -0.49988E+08         0.00000E+00
    0.00000E+00         0.00000E+00        -0.54454E+08
 
   -0.54752E+08         0.15697E+07         0.00000E+00
    0.15697E+07        -0.49989E+08         0.00000E+00
    0.00000E+00         0.00000E+00        -0.54451E+08
 
   -0.54733E+08         0.16220E+07         0.00000E+00
    0.16220E+07        -0.49991E+08         0.00000E+00
    0.00000E+00         0.00000E+00        -0.54448E+08
 
   -0.54714E+08         0.16746E+07         0.00000E+00
    0.16746E+07        -0.49993E+08         0.00000E+00
    0.00000E+00         0.00000E+00        -0.54445E+08
 
   -0.54695E+08         0.17276E+07         0.00000E+00
    0.17276E+07        -0.49995E+08         0.00000E+00
    0.00000E+00         0.00000E+00        -0.54442E+08
 
   -0.54676E+08         0.17808E+07         0.00000E+00
    0.17808E+07        -0.49997E+08         0.00000E+00
    0.00000E+00         0.00000E+00        -0.54439E+08
 
   -0.54658E+08         0.18343E+07         0.00000E+00
    0.18343E+07        -0.50000E+08         0.00000E+00
    0.00000E+00         0.00000E+00        -0.54436E+08
 
   -0.54639E+08         0.18881E+07         0.00000E+00
    0.18881E+07        -0.50003E+08         0.00000E+00
    0.00000E+00         0.00000E+00        -0.54433E+08
 
   -0.54621E+08         0.19423E+07         0.00000E+00
    0.19423E+07        -0.50006E+08         0.00000E+00
    0.00000E+00         0.00000E+00        -0.54431E+08
 
   -0.54603E+08         0.19967E+07         0.00000E+00
    0.19967E+07        -0.50010E+08         0.00000E+00
    0.00000E+00         0.00000E+00        -0.54428E+08
 
   -0.54584E+08         0.20515E+07         0.00000E+00
    0.20515E+07        -0.50014E+08         0.00000E+00
    0.00000E+00         0.00000E+00        -0.54425E+08
 
   -0.54566E+08         0.21066E+07         0.00000E+00
    0.21066E+07        -0.50019E+08         0.00000E+00
    0.00000E+00         0.00000E+00        -0.54423E+08
 
   -0.54547E+08         0.21620E+07         0.00000E+00
    0.21620E+07        -0.50024E+08         0.00000E+00
    0.00000E+00         0.00000E+00        -0.54421E+08
 
   -0.54528E+08         0.22178E+07         0.00000E+00
    0.22178E+07        -0.50029E+08         0.00000E+00
    0.00000E+00         0.00000E+00        -0.54418E+08
 
   -0.54510E+08         0.22739E+07         0.00000E+00
    0.22739E+07        -0.50035E+08         0.00000E+00
    0.00000E+00         0.00000E+00        -0.54416E+08
 
   -0.54491E+08         0.23303E+07         0.00000E+00
    0.23303E+07        -0.50042E+08         0.00000E+00
    0.00000E+00         0.00000E+00        -0.54413E+08
 
   -0.54472E+08         0.23870E+07         0.00000E+00
    0.23870E+07        -0.50048E+08         0.00000E+00
    0.00000E+00         0.00000E+00        -0.54411E+08
 
   -0.54452E+08         0.24441E+07         0.00000E+00
    0.24441E+07        -0.50056E+08         0.00000E+00
    0.00000E+00         0.00000E+00        -0.54409E+08
 
   -0.54433E+08         0.25015E+07         0.00000E+00
    0.25015E+07        -0.50064E+08         0.00000E+00
    0.00000E+00         0.00000E+00        -0.54406E+08
 
   -0.54413E+08         0.25592E+07         0.00000E+00
    0.25592E+07        -0.50072E+08         0.00000E+00
    0.00000E+00         0.00000E+00        -0.54404E+08
 
   -0.55312E+08         0.25661E+05         0.00000E+00
    0.25661E+05        -0.50000E+08         0.00000E+00
    0.00000E+00         0.00000E+00        -0.54322E+08
 
   -0.55276E+08         0.76260E+05         0.00000E+00
    0.76260E+05        -0.50000E+08         0.00000E+00
    0.00000E+00         0.00000E+00        -0.54315E+08
 
   -0.55242E+08         0.12658E+06         0.00000E+00
    0.12658E+06        -0.50000E+08         0.00000E+00
    0.00000E+00         0.00000E+00        -0.54308E+08
 
   -0.55208E+08         0.17666E+06         0.00000E+00
    0.17666E+06        -0.50000E+08         0.00000E+00
    0.00000E+00         0.00000E+00        -0.54301E+08
 
   -0.55175E+08         0.22651E+06         0.00000E+00
    0.22651E+06        -0.50000E+08         0.00000E+00
    0.00000E+00         0.00000E+00        -0.54295E+08
 
   -0.55143E+08         0.27616E+06         0.00000E+00
    0.27616E+06        -0.49999E+08         0.00000E+00
    0.00000E+00         0.00000E+00        -0.54288E+08
 
   -0.55111E+08         0.32563E+06         0.00000E+00
    0.32563E+06        -0.49999E+08         0.00000E+00
    0.00000E+00         0.00000E+00        -0.54282E+08
 
   -0.55080E+08         0.37495E+06         0.00000E+00
    0.37495E+06        -0.49999E+08         0.00000E+00
    0.00000E+00         0.00000E+00        -0.54276E+08
 
   -0.55050E+08         0.42413E+06         0.00000E+00
    0.42413E+06        -0.49998E+08         0.00000E+00
    0.00000E+00         0.00000E+00        -0.54270E+08
 
   -0.55020E+08         0.47321E+06         0.00000E+00
    0.47321E+06        -0.49998E+08         0.00000E+00
    0.00000E+00         0.00000E+00        -0.54265E+08
 
   -0.54991E+08         0.52220E+06         0.00000E+00
    0.52220E+06        -0.49998E+08         0.00000E+00
    0.00000E+00         0.00000E+00        -0.54259E+08
 
   -0.54963E+08         0.57112E+06         0.00000E+00
    0.57112E+06        -0.49997E+08         0.00000E+00
    0.00000E+00         0.00000E+00        -0.54254E+08
 
   -0.54935E+08         0.61999E+06         0.00000E+00
    0.61999E+06        -0.49997E+08         0.00000E+00
    0.00000E+00         0.00000E+00        -0.54248E+08
 
   -0.54908E+08         0.66884E+06         0.00000E+00
    0.66884E+06        -0.49996E+08         0.00000E+00
    0.00000E+00         0.00000E+00        -0.54243E+08
 
   -0.54881E+08         0.71767E+06         0.00000E+00
    0.71767E+06        -0.49996E+08         0.00000E+00
    0.00000E+00         0.00000E+00        -0.54238E+08
 
   -0.54855E+08         0.76650E+06         0.00000E+00
    0.76650E+06        -0.49996E+08         0.00000E+00
    0.00000E+00         0.00000E+00        -0.54233E+08
 
   -0.54830E+08         0.81536E+06         0.00000E+00
    0.81536E+06        -0.49996E+08         0.00000E+00
    0.00000E+00         0.00000E+00        -0.54228E+08
 
   -0.54805E+08         0.86426E+06         0.00000E+00
    0.86426E+06        -0.49996E+08         0.00000E+00
    0.00000E+00         0.00000E+00        -0.54224E+08
 
   -0.54780E+08         0.91321E+06         0.00000E+00
    0.91321E+06        -0.49995E+08         0.00000E+00
    0.00000E+00         0.00000E+00        -0.54219E+08
 
   -0.54756E+08         0.96224E+06         0.00000E+00
    0.96224E+06        -0.49996E+08         0.00000E+00
    0.00000E+00         0.00000E+00        -0.54215E+08
 
   -0.54732E+08         0.10113E+07         0.00000E+00
    0.10113E+07        -0.49996E+08         0.00000E+00
    0.00000E+00         0.00000E+00        -0.54211E+08
 
   -0.54709E+08         0.10605E+07         0.00000E+00
    0.10605E+07        -0.49996E+08         0.00000E+00
    0.00000E+00         0.00000E+00        -0.54206E+08
 
   -0.54686E+08         0.11099E+07         0.00000E+00
    0.11099E+07        -0.49996E+08         0.00000E+00
    0.00000E+00         0.00000E+00        -0.54202E+08
 
   -0.54664E+08         0.11593E+07         0.00000E+00
    0.11593E+07        -0.49997E+08         0.00000E+00
    0.00000E+00         0.00000E+00        -0.54198E+08
 
   -0.54641E+08         0.12089E+07         0.00000E+00
    0.12089E+07        -0.49997E+08         0.00000E+00
    0.00000E+00         0.00000E+00        -0.54194E+08
 
   -0.54619E+08         0.12586E+07         0.00000E+00
    0.12586E+07        -0.49998E+08         0.00000E+00
    0.00000E+00         0.00000E+00        -0.54191E+08
 
   -0.54598E+08         0.13085E+07         0.00000E+00
    0.13085E+07        -0.49999E+08         0.00000E+00
    0.00000E+00         0.00000E+00        -0.54187E+08
 
   -0.54577E+08         0.13585E+07         0.00000E+00
    0.13585E+07        -0.50000E+08         0.00000E+00
    0.00000E+00         0.00000E+00        -0.54183E+08
 
   -0.54556E+08         0.14087E+07         0.00000E+00
    0.14087E+07        -0.50002E+08         0.00000E+00
    0.00000E+00         0.00000E+00        -0.54180E+08
 
   -0.54535E+08         0.14591E+07         0.00000E+00
    0.14591E+07        -0.50004E+08         0.00000E+00
    0.00000E+00         0.00000E+00        -0.54176E+08
 
   -0.54514E+08         0.15097E+07         0.00000E+00
    0.15097E+07        -0.50005E+08         0.00000E+00
    0.00000E+00         0.00000E+00        -0.54173E+08
 
   -0.54494E+08         0.15605E+07         0.00000E+00
    0.15605E+07        -0.50007E+08         0.00000E+00
    0.00000E+00         0.00000E+00        -0.54170E+08
 
   -0.54474E+08         0.16115E+07         0.00000E+00
    0.16115E+07        -0.50010E+08         0.00000E+00
    0.00000E+00         0.00000E+00        -0.54167E+08
 
   -0.54453E+08         0.16627E+07         0.00000E+00
    0.16627E+07        -0.50013E+08         0.00000E+00
    0.00000E+00         0.00000E+00        -0.54164E+08
 
   -0.54433E+08         0.17141E+07         0.00000E+00
    0.17141E+07        -0.50015E+08         0.00000E+00
    0.00000E+00         0.00000E+00        -0.54160E+08
 
   -0.54413E+08         0.17658E+07         0.00000E+00
    0.17658E+07        -0.50019E+08         0.00000E+00
    0.00000E+00         0.00000E+00        -0.54158E+08
 
   -0.54394E+08         0.18177E+07         0.00000E+00
    0.18177E+07        -0.50022E+08         0.00000E+00
    0.00000E+00         0.00000E+00        -0.54155E+08
 
   -0.54374E+08         0.18698E+07         0.00000E+00
    0.18698E+07        -0.50026E+08         0.00000E+00
    0.00000E+00         0.00000E+00        -0.54152E+08
 
   -0.54354E+08         0.19221E+07         0.00000E+00
    0.19221E+07        -0.50030E+08         0.00000E+00
    0.00000E+00         0.00000E+00        -0.54149E+08
 
   -0.54334E+08         0.19747E+07         0.00000E+00
    0.19747E+07        -0.50035E+08         0.00000E+00
    0.00000E+00         0.00000E+00        -0.54146E+08
 
   -0.54314E+08         0.20275E+07         0.00000E+00
    0.20275E+07        -0.50040E+08         0.00000E+00
    0.00000E+00         0.00000E+00        -0.54143E+08
 
   -0.54294E+08         0.20806E+07         0.00000E+00
    0.20806E+07        -0.50045E+08         0.00000E+00
    0.00000E+00         0.00000E+00        -0.54141E+08
 
   -0.54274E+08         0.21340E+07         0.00000E+00
    0.21340E+07        -0.50051E+08         0.00000E+00
    0.00000E+00         0.00000E+00        -0.54138E+08
 
   -0.54254E+08         0.21875E+07         0.00000E+00
    0.21875E+07        -0.50057E+08         0.00000E+00
    0.00000E+00         0.00000E+00        -0.54136E+08
 
   -0.54234E+08         0.22414E+07         0.00000E+00
    0.22414E+07        -0.50064E+08         0.00000E+00
    0.00000E+00         0.00000E+00        -0.54133E+08
 
   -0.54214E+08         0.22955E+07         0.00000E+00
    0.22955E+07        -0.50071E+08         0.00000E+00
    0.00000E+00         0.00000E+00        -0.54131E+08
 
   -0.54193E+08         0.23498E+07         0.00000E+00
    0.23498E+07        -0.50079E+08         0.00000E+00
    0.00000E+00         0.00000E+00        -0.54128E+08
 
   -0.54172E+08         0.24044E+07         0.00000E+00
    0.24044E+07        -0.50087E+08         0.00000E+00
    0.00000E+00         0.00000E+00        -0.54126E+08
 
   -0.54151E+08         0.24593E+07         0.00000E+00
    0.24593E+07        -0.50095E+08         0.00000E+00
    0.00000E+00         0.00000E+00        -0.54123E+08
 
   -0.54130E+08         0.25144E+07         0.00000E+00
    0.25144E+07        -0.50104E+08         0.00000E+00
    0.00000E+00         0.00000E+00        -0.54121E+08
 
   -0.55057E+08         0.25782E+05         0.00000E+00
    0.25782E+05        -0.50000E+08         0.00000E+00
    0.00000E+00         0.00000E+00        -0.54051E+08
 
   -0.55023E+08         0.76582E+05         0.00000E+00
    0.76582E+05        -0.50000E+08         0.00000E+00
    0.00000E+00         0.00000E+00        -0.54044E+08
 
   -0.54990E+08         0.12709E+06         0.00000E+00
    0.12709E+06        -0.50000E+08         0.00000E+00
    0.00000E+00         0.00000E+00        -0.54038E+08
 
   -0.54958E+08         0.17732E+06         0.00000E+00
    0.17732E+06        -0.50000E+08         0.00000E+00
    0.00000E+00         0.00000E+00        -0.54031E+08
 
   -0.54926E+08         0.22730E+06         0.00000E+00
    0.22730E+06        -0.50000E+08         0.00000E+00
    0.00000E+00         0.00000E+00        -0.54025E+08
 
   -0.54895E+08         0.27705E+06         0.00000E+00
    0.27705E+06        -0.50000E+08         0.00000E+00
    0.00000E+00         0.00000E+00        -0.54019E+08
 
   -0.54864E+08         0.32659E+06         0.00000E+00
    0.32659E+06        -0.50000E+08         0.00000E+00
    0.00000E+00         0.00000E+00        -0.54013E+08
 
   -0.54834E+08         0.37594E+06         0.00000E+00
    0.37594E+06        -0.50000E+08         0.00000E+00
    0.00000E+00         0.00000E+00        -0.54007E+08
 
   -0.54804E+08         0.42513E+06         0.00000E+00
    0.42513E+06        -0.50000E+08         0.00000E+00
    0.00000E+00         0.00000E+00        -0.54001E+08
 
   -0.54775E+08         0.47417E+06         0.00000E+00
    0.47417E+06        -0.50000E+08         0.00000E+00
    0.00000E+00         0.00000E+00        -0.53996E+08
 
   -0.54747E+08         0.52307E+06         0.00000E+00
    0.52307E+06        -0.50000E+08         0.00000E+00
    0.00000E+00         0.00000E+00        -0.53990E+08
 
   -0.54719E+08         0.57187E+06         0.00000E+00
    0.57187E+06        -0.50000E+08         0.00000E+00
    0.00000E+00         0.00000E+00        -0.53985E+08
 
   -0.54691E+08         0.62057E+06         0.00000E+00
    0.62057E+06        -0.50000E+08         0.00000E+00
    0.00000E+00         0.00000E+00        -0.53980E+08
 
   -0.54664E+08         0.66920E+06         0.00000E+00
    0.66920E+06        -0.50000E+08         0.00000E+00
    0.00000E+00         0.00000E+00        -0.53975E+08
 
   -0.54638E+08         0.71777E+06         0.00000E+00
    0.71777E+06        -0.50000E+08         0.00000E+00
    0.00000E+00         0.00000E+00        -0.53970E+08
 
   -0.54612E+08         0.76629E+06         0.00000E+00
    0.76629E+06        -0.50001E+08         0.00000E+00
    0.00000E+00         0.00000E+00        -0.53965E+08
 
   -0.54586E+08         0.81478E+06         0.00000E+00
    0.81478E+06        -0.50001E+08         0.00000E+00
    0.00000E+00         0.00000E+00        -0.53960E+08
 
   -0.54561E+08         0.86326E+06         0.00000E+00
    0.86326E+06        -0.50001E+08         0.00000E+00
    0.00000E+00         0.00000E+00        -0.53956E+08
 
   -0.54536E+08         0.91174E+06         0.00000E+00
    0.91174E+06        -0.50002E+08         0.00000E+00
    0.00000E+00         0.00000E+00        -0.53951E+08
 
   -0.54512E+08         0.96023E+06         0.00000E+00
    0.96023E+06        -0.50003E+08         0.00000E+00
    0.00000E+00         0.00000E+00        -0.53947E+08
 
   -0.54488E+08         0.10088E+07         0.00000E+00
    0.10088E+07        -0.50003E+08         0.00000E+00
    0.00000E+00         0.00000E+00        -0.53943E+08
 
   -0.54464E+08         0.10573E+07         0.00000E+00
    0.10573E+07        -0.50004E+08         0.00000E+00
    0.00000E+00         0.00000E+00        -0.53938E+08
 
   -0.54441E+08         0.11059E+07         0.00000E+00
    0.11059E+07        -0.50005E+08         0.00000E+00
    0.00000E+00         0.00000E+00        -0.53934E+08
 
   -0.54418E+08         0.11546E+07         0.00000E+00
    0.11546E+07        -0.50006E+08         0.00000E+00
    0.00000E+00         0.00000E+00        -0.53930E+08
 
   -0.54395E+08         0.12033E+07         0.00000E+00
    0.12033E+07        -0.50008E+08         0.00000E+00
    0.00000E+00         0.00000E+00        -0.53926E+08
 
   -0.54373E+08         0.12522E+07         0.00000E+00
    0.12522E+07        -0.50009E+08         0.00000E+00
    0.00000E+00         0.00000E+00        -0.53923E+08
 
   -0.54351E+08         0.13011E+07         0.00000E+00
    0.13011E+07        -0.50011E+08         0.00000E+00
    0.00000E+00         0.00000E+00        -0.53919E+08
 
   -0.54329E+08         0.13501E+07         0.00000E+00
    0.13501E+07        -0.50013E+08         0.00000E+00
    0.00000E+00         0.00000E+00        -0.53915E+08
 
   -0.54307E+08         0.13992E+07         0.00000E+00
    0.13992E+07        -0.50015E+08         0.00000E+00
    0.00000E+00         0.00000E+00        -0.53912E+08
 
   -0.54285E+08         0.14485E+07         0.00000E+00
    0.14485E+07        -0.50017E+08         0.00000E+00
    0.00000E+00         0.00000E+00        -0.53908E+08
 
   -0.54264E+08         0.14979E+07         0.00000E+00
    0.14979E+07        -0.50020E+08         0.00000E+00
    0.00000E+00         0.00000E+00        -0.53905E+08
 
   -0.54243E+08         0.15474E+07         0.00000E+00
    0.15474E+07        -0.50023E+08         0.00000E+00
    0.00000E+00         0.00000E+00        -0.53901E+08
 
   -0.54221E+08         0.15970E+07         0.00000E+00
    0.15970E+07        -0.50026E+08         0.00000E+00
    0.00000E+00         0.00000E+00        -0.53898E+08
 
   -0.54200E+08         0.16468E+07         0.00000E+00
    0.16468E+07        -0.50029E+08         0.00000E+00
    0.00000E+00         0.00000E+00        -0.53895E+08
 
   -0.54179E+08         0.16968E+07         0.00000E+00
    0.16968E+07        -0.50033E+08         0.00000E+00
    0.00000E+00         0.00000E+00        -0.53892E+08
 
   -0.54159E+08         0.17469E+07         0.00000E+00
    0.17469E+07        -0.50037E+08         0.00000E+00
    0.00000E+00         0.00000E+00        -0.53889E+08
 
   -0.54138E+08         0.17972E+07         0.00000E+00
    0.17972E+07        -0.50041E+08         0.00000E+00
    0.00000E+00         0.00000E+00        -0.53886E+08
 
   -0.54117E+08         0.18476E+07         0.00000E+00
    0.18476E+07        -0.50046E+08         0.00000E+00
    0.00000E+00         0.00000E+00        -0.53883E+08
 
   -0.54096E+08         0.18982E+07         0.00000E+00
    0.18982E+07        -0.50051E+08         0.00000E+00
    0.00000E+00         0.00000E+00        -0.53880E+08
 
   -0.54075E+08         0.19490E+07         0.00000E+00
    0.19490E+07        -0.50056E+08         0.00000E+00
    0.00000E+00         0.00000E+00        -0.53877E+08
 
   -0.54054E+08         0.19999E+07         0.00000E+00
    0.19999E+07        -0.50061E+08         0.00000E+00
    0.00000E+00         0.00000E+00        -0.53874E+08
 
   -0.54033E+08         0.20511E+07         0.00000E+00
    0.20511E+07        -0.50068E+08         0.00000E+00
    0.00000E+00         0.00000E+00        -0.53871E+08
 
   -0.54012E+08         0.21024E+07         0.00000E+00
    0.21024E+07        -0.50074E+08         0.00000E+00
    0.00000E+00         0.00000E+00        -0.53869E+08
 
   -0.53991E+08         0.21539E+07         0.00000E+00
    0.21539E+07        -0.50081E+08         0.00000E+00
    0.00000E+00         0.00000E+00        -0.53866E+08
 
   -0.53970E+08         0.22055E+07         0.00000E+00
    0.22055E+07        -0.50088E+08         0.00000E+00
    0.00000E+00         0.00000E+00        -0.53863E+08
 
   -0.53948E+08         0.22574E+07         0.00000E+00
    0.22574E+07        -0.50096E+08         0.00000E+00
    0.00000E+00         0.00000E+00        -0.53861E+08
 
   -0.53927E+08         0.23094E+07         0.00000E+00
    0.23094E+07        -0.50104E+08         0.00000E+00
    0.00000E+00         0.00000E+00        -0.53858E+08
 
   -0.53905E+08         0.23617E+07         0.00000E+00
    0.23617E+07        -0.50112E+08         0.00000E+00
    0.00000E+00         0.00000E+00        -0.53856E+08
 
   -0.53883E+08         0.24141E+07         0.00000E+00
    0.24141E+07        -0.50121E+08         0.00000E+00
    0.00000E+00         0.00000E+00        -0.53853E+08
 
   -0.53860E+08         0.24667E+07         0.00000E+00
    0.24667E+07        -0.50131E+08         0.00000E+00
    0.00000E+00         0.00000E+00        -0.53850E+08
 
   -0.54802E+08         0.25794E+05         0.00000E+00
    0.25794E+05        -0.50000E+08         0.00000E+00
    0.00000E+00         0.00000E+00        -0.53791E+08
 
   -0.54770E+08         0.76591E+05         0.00000E+00
    0.76591E+05        -0.50000E+08         0.00000E+00
    0.00000E+00         0.00000E+00        -0.53785E+08
 
   -0.54739E+08         0.12708E+06         0.00000E+00
    0.12708E+06        -0.50000E+08         0.00000E+00
    0.00000E+00         0.00000E+00        -0.53779E+08
 
   -0.54707E+08         0.17727E+06         0.00000E+00
    0.17727E+06        -0.50000E+08         0.00000E+00
    0.00000E+00         0.00000E+00        -0.53772E+08
 
   -0.54677E+08         0.22720E+06         0.00000E+00
    0.22720E+06        -0.50000E+08         0.00000E+00
    0.00000E+00         0.00000E+00        -0.53766E+08
 
   -0.54647E+08         0.27687E+06         0.00000E+00
    0.27687E+06        -0.50001E+08         0.00000E+00
    0.00000E+00         0.00000E+00        -0.53761E+08
 
   -0.54617E+08         0.32631E+06         0.00000E+00
    0.32631E+06        -0.50001E+08         0.00000E+00
    0.00000E+00         0.00000E+00        -0.53755E+08
 
   -0.54588E+08         0.37553E+06         0.00000E+00
    0.37553E+06        -0.50001E+08         0.00000E+00
    0.00000E+00         0.00000E+00        -0.53749E+08
 
   -0.54559E+08         0.42455E+06         0.00000E+00
    0.42455E+06        -0.50001E+08         0.00000E+00
    0.00000E+00         0.00000E+00        -0.53744E+08
 
   -0.54531E+08         0.47340E+06         0.00000E+00
    0.47340E+06        -0.50001E+08         0.00000E+00
    0.00000E+00         0.00000E+00        -0.53738E+08
 
   -0.54503E+08         0.52208E+06         0.00000E+00
    0.52208E+06        -0.50002E+08         0.00000E+00
    0.00000E+00         0.00000E+00        -0.53733E+08
 
   -0.54476E+08         0.57061E+06         0.00000E+00
    0.57061E+06        -0.50002E+08         0.00000E+00
    0.00000E+00         0.00000E+00        -0.53728E+08
 
   -0.54449E+08         0.61902E+06         0.00000E+00
    0.61902E+06        -0.50003E+08         0.00000E+00
    0.00000E+00         0.00000E+00        -0.53723E+08
 
   -0.54422E+08         0.66730E+06         0.00000E+00
    0.66730E+06        -0.50003E+08         0.00000E+00
    0.00000E+00         0.00000E+00        -0.53718E+08
 
   -0.54396E+08         0.71549E+06         0.00000E+00
    0.71549E+06        -0.50004E+08         0.00000E+00
    0.00000E+00         0.00000E+00        -0.53713E+08
 
   -0.54370E+08         0.76359E+06         0.00000E+00
    0.76359E+06        -0.50004E+08         0.00000E+00
    0.00000E+00         0.00000E+00        -0.53708E+08
 
   -0.54345E+08         0.81161E+06         0.00000E+00
    0.81161E+06        -0.50005E+08         0.00000E+00
    0.00000E+00         0.00000E+00        -0.53704E+08
 
   -0.54320E+08         0.85958E+06         0.00000E+00
    0.85958E+06        -0.50006E+08         0.00000E+00
    0.00000E+00         0.00000E+00        -0.53699E+08
 
   -0.54295E+08         0.90750E+06         0.00000E+00
    0.90750E+06        -0.50007E+08         0.00000E+00
    0.00000E+00         0.00000E+00        -0.53695E+08
 
   -0.54271E+08         0.95538E+06         0.00000E+00
    0.95538E+06        -0.50008E+08         0.00000E+00
    0.00000E+00         0.00000E+00        -0.53690E+08
 
   -0.54247E+08         0.10032E+07         0.00000E+00
    0.10032E+07        -0.50010E+08         0.00000E+00
    0.00000E+00         0.00000E+00        -0.53686E+08
 
   -0.54223E+08         0.10511E+07         0.00000E+00
    0.10511E+07        -0.50011E+08         0.00000E+00
    0.00000E+00         0.00000E+00        -0.53682E+08
 
   -0.54200E+08         0.10989E+07         0.00000E+00
    0.10989E+07        -0.50013E+08         0.00000E+00
    0.00000E+00         0.00000E+00        -0.53678E+08
 
   -0.54176E+08         0.11468E+07         0.00000E+00
    0.11468E+07        -0.50014E+08         0.00000E+00
    0.00000E+00         0.00000E+00        -0.53674E+08
 
   -0.54154E+08         0.11947E+07         0.00000E+00
    0.11947E+07        -0.50016E+08         0.00000E+00
    0.00000E+00         0.00000E+00        -0.53670E+08
 
   -0.54131E+08         0.12426E+07         0.00000E+00
    0.12426E+07        -0.50018E+08         0.00000E+00
    0.00000E+00         0.00000E+00        -0.53666E+08
 
   -0.54108E+08         0.12905E+07         0.00000E+00
    0.12905E+07        -0.50021E+08         0.00000E+00
    0.00000E+00         0.00000E+00        -0.53663E+08
 
   -0.54086E+08         0.13385E+07         0.00000E+00
    0.13385E+07        -0.50023E+08         0.00000E+00
    0.00000E+00         0.00000E+00        -0.53659E+08
 
   -0.54064E+08         0.13865E+07         0.00000E+00
    0.13865E+07        -0.50026E+08         0.00000E+00
    0.00000E+00         0.00000E+00        -0.53655E+08
 
   -0.54042E+08         0.14346E+07         0.00000E+00
    0.14346E+07        -0.50029E+08         0.00000E+00
    0.00000E+00         0.00000E+00        -0.53652E+08
 
   -0.54020E+08         0.14828E+07         0.00000E+00
    0.14828E+07        -0.50032E+08         0.00000E+00
    0.00000E+00         0.00000E+00        -0.53648E+08
 
   -0.53998E+08         0.15311E+07         0.00000E+00
    0.15311E+07        -0.50035E+08         0.00000E+00
    0.00000E+00         0.00000E+00        -0.53645E+08
 
   -0.53976E+08         0.15794E+07         0.00000E+00
    0.15794E+07        -0.50039E+08         0.00000E+00
    0.00000E+00         0.00000E+00        -0.53642E+08
 
   -0.53955E+08         0.16278E+07         0.00000E+00
    0.16278E+07        -0.50043E+08         0.00000E+00
    0.00000E+00         0.00000E+00        -0.53638E+08
 
   -0.53933E+08         0.16763E+07         0.00000E+00
    0.16763E+07        -0.50047E+08         0.00000E+00
    0.00000E+00         0.00000E+00        -0.53635E+08
 
   -0.53911E+08         0.17249E+07         0.00000E+00
    0.17249E+07        -0.50052E+08         0.00000E+00
    0.00000E+00         0.00000E+00        -0.53632E+08
 
   -0.53890E+08         0.17736E+07         0.00000E+00
    0.17736E+07        -0.50057E+08         0.00000E+00
    0.00000E+00         0.00000E+00        -0.53629E+08
 
   -0.53868E+08         0.18224E+07         0.00000E+00
    0.18224E+07        -0.50062E+08         0.00000E+00
    0.00000E+00         0.00000E+00        -0.53626E+08
 
   -0.53847E+08         0.18713E+07         0.00000E+00
    0.18713E+07        -0.50067E+08         0.00000E+00
    0.00000E+00         0.00000E+00        -0.53623E+08
 
   -0.53825E+08         0.19203E+07         0.00000E+00
    0.19203E+07        -0.50073E+08         0.00000E+00
    0.00000E+00         0.00000E+00        -0.53620E+08
 
   -0.53804E+08         0.19694E+07         0.00000E+00
    0.19694E+07        -0.50079E+08         0.00000E+00
    0.00000E+00         0.00000E+00        -0.53617E+08
 
   -0.53782E+08         0.20187E+07         0.00000E+00
    0.20187E+07        -0.50086E+08         0.00000E+00
    0.00000E+00         0.00000E+00        -0.53614E+08
 
   -0.53760E+08         0.20680E+07         0.00000E+00
    0.20680E+07        -0.50093E+08         0.00000E+00
    0.00000E+00         0.00000E+00        -0.53612E+08
 
   -0.53738E+08         0.21175E+07         0.00000E+00
    0.21175E+07        -0.50100E+08         0.00000E+00
    0.00000E+00         0.00000E+00        -0.53609E+08
 
   -0.53716E+08         0.21671E+07         0.00000E+00
    0.21671E+07        -0.50108E+08         0.00000E+00
    0.00000E+00         0.00000E+00        -0.53606E+08
 
   -0.53694E+08         0.22168E+07         0.00000E+00
    0.22168E+07        -0.50116E+08         0.00000E+00
    0.00000E+00         0.00000E+00        -0.53603E+08
 
   -0.53672E+08         0.22667E+07         0.00000E+00
    0.22667E+07        -0.50124E+08         0.00000E+00
    0.00000E+00         0.00000E+00        -0.53601E+08
 
   -0.53649E+08         0.23166E+07         0.00000E+00
    0.23166E+07        -0.50133E+08         0.00000E+00
    0.00000E+00         0.00000E+00        -0.53598E+08
 
   -0.53626E+08         0.23667E+07         0.00000E+00
    0.23667E+07        -0.50143E+08         0.00000E+00
    0.00000E+00         0.00000E+00        -0.53595E+08
 
   -0.53603E+08         0.24169E+07         0.00000E+00
    0.24169E+07        -0.50152E+08         0.00000E+00
    0.00000E+00         0.00000E+00        -0.53593E+08
 
   -0.54548E+08         0.25716E+05         0.00000E+00
    0.25716E+05        -0.50000E+08         0.00000E+00
    0.00000E+00         0.00000E+00        -0.53542E+08
 
   -0.54517E+08         0.76341E+05         0.00000E+00
    0.76341E+05        -0.50000E+08         0.00000E+00
    0.00000E+00         0.00000E+00        -0.53536E+08
 
   -0.54487E+08         0.12664E+06         0.00000E+00
    0.12664E+06        -0.50000E+08         0.00000E+00
    0.00000E+00         0.00000E+00        -0.53530E+08
 
   -0.54458E+08         0.17664E+06         0.00000E+00
    0.17664E+06        -0.50001E+08         0.00000E+00
    0.00000E+00         0.00000E+00        -0.53524E+08
 
   -0.54428E+08         0.22636E+06         0.00000E+00
    0.22636E+06        -0.50001E+08         0.00000E+00
    0.00000E+00         0.00000E+00        -0.53518E+08
 
   -0.54399E+08         0.27580E+06         0.00000E+00
    0.27580E+06        -0.50001E+08         0.00000E+00
    0.00000E+00         0.00000E+00        -0.53513E+08
 
   -0.54371E+08         0.32499E+06         0.00000E+00
    0.32499E+06        -0.50001E+08         0.00000E+00
    0.00000E+00         0.00000E+00        -0.53507E+08
 
   -0.54343E+08         0.37394E+06         0.00000E+00
    0.37394E+06        -0.50002E+08         0.00000E+00
    0.00000E+00         0.00000E+00        -0.53502E+08
 
   -0.54315E+08         0.42267E+06         0.00000E+00
    0.42267E+06        -0.50002E+08         0.00000E+00
    0.00000E+00         0.00000E+00        -0.53497E+08
 
   -0.54288E+08         0.47120E+06         0.00000E+00
    0.47120E+06        -0.50003E+08         0.00000E+00
    0.00000E+00         0.00000E+00        -0.53491E+08
 
   -0.54261E+08         0.51953E+06         0.00000E+00
    0.51953E+06        -0.50003E+08         0.00000E+00
    0.00000E+00         0.00000E+00        -0.53486E+08
 
   -0.54234E+08         0.56769E+06         0.00000E+00
    0.56769E+06        -0.50004E+08         0.00000E+00
    0.00000E+00         0.00000E+00        -0.53481E+08
 
   -0.54208E+08         0.61568E+06         0.00000E+00
    0.61568E+06        -0.50005E+08         0.00000E+00
    0.00000E+00         0.00000E+00        -0.53476E+08
 
   -0.54182E+08         0.66353E+06         0.00000E+00
    0.66353E+06        -0.50006E+08         0.00000E+00
    0.00000E+00         0.00000E+00        -0.53472E+08
 
   -0.54157E+08         0.71124E+06         0.00000E+00
    0.71124E+06        -0.50007E+08         0.00000E+00
    0.00000E+00         0.00000E+00        -0.53467E+08
 
   -0.54131E+08         0.75882E+06         0.00000E+00
    0.75882E+06        -0.50008E+08         0.00000E+00
    0.00000E+00         0.00000E+00        -0.53462E+08
 
   -0.54107E+08         0.80630E+06         0.00000E+00
    0.80630E+06        -0.50009E+08         0.00000E+00
    0.00000E+00         0.00000E+00        -0.53458E+08
 
   -0.54082E+08         0.85367E+06         0.00000E+00
    0.85367E+06        -0.50010E+08         0.00000E+00
    0.00000E+00         0.00000E+00        -0.53453E+08
 
   -0.54057E+08         0.90096E+06         0.00000E+00
    0.90096E+06        -0.50012E+08         0.00000E+00
    0.00000E+00         0.00000E+00        -0.53449E+08
 
   -0.54033E+08         0.94817E+06         0.00000E+00
    0.94817E+06        -0.50013E+08         0.00000E+00
    0.00000E+00         0.00000E+00        -0.53445E+08
 
   -0.54010E+08         0.99532E+06         0.00000E+00
    0.99532E+06        -0.50015E+08         0.00000E+00
    0.00000E+00         0.00000E+00        -0.53441E+08
 
   -0.53986E+08         0.10424E+07         0.00000E+00
    0.10424E+07        -0.50017E+08         0.00000E+00
    0.00000E+00         0.00000E+00        -0.53437E+08
 
   -0.53963E+08         0.10894E+07         0.00000E+00
    0.10894E+07        -0.50019E+08         0.00000E+00
    0.00000E+00         0.00000E+00        -0.53433E+08
 
   -0.53939E+08         0.11364E+07         0.00000E+00
    0.11364E+07        -0.50021E+08         0.00000E+00
    0.00000E+00         0.00000E+00        -0.53429E+08
 
   -0.53916E+08         0.11834E+07         0.00000E+00
    0.11834E+07        -0.50023E+08         0.00000E+00
    0.00000E+00         0.00000E+00        -0.53425E+08
 
   -0.53894E+08         0.12304E+07         0.00000E+00
    0.12304E+07        -0.50026E+08         0.00000E+00
    0.00000E+00         0.00000E+00        -0.53421E+08
 
   -0.53871E+08         0.12773E+07         0.00000E+00
    0.12773E+07        -0.50029E+08         0.00000E+00
    0.00000E+00         0.00000E+00        -0.53417E+08
 
   -0.53848E+08         0.13243E+07         0.00000E+00
    0.13243E+07        -0.50032E+08         0.00000E+00
    0.00000E+00         0.00000E+00        -0.53414E+08
 
   -0.53826E+08         0.13712E+07         0.00000E+00
    0.13712E+07        -0.50035E+08         0.00000E+00
    0.00000E+00         0.00000E+00        -0.53410E+08
 
   -0.53804E+08         0.14182E+07         0.00000E+00
    0.14182E+07        -0.50038E+08         0.00000E+00
    0.00000E+00         0.00000E+00        -0.53407E+08
 
   -0.53782E+08         0.14651E+07         0.00000E+00
    0.14651E+07        -0.50042E+08         0.00000E+00
    0.00000E+00         0.00000E+00        -0.53403E+08
 
   -0.53760E+08         0.15121E+07         0.00000E+00
    0.15121E+07        -0.50046E+08         0.00000E+00
    0.00000E+00         0.00000E+00        -0.53400E+08
 
   -0.53738E+08         0.15591E+07         0.00000E+00
    0.15591E+07        -0.50050E+08         0.00000E+00
    0.00000E+00         0.00000E+00        -0.53397E+08
 
   -0.53716E+08         0.16062E+07         0.00000E+00
    0.16062E+07        -0.50054E+08         0.00000E+00
    0.00000E+00         0.00000E+00        -0.53393E+08
 
   -0.53694E+08         0.16533E+07         0.00000E+00
    0.16533E+07        -0.50059E+08         0.00000E+00
    0.00000E+00         0.00000E+00        -0.53390E+08
 
   -0.53672E+08         0.17004E+07         0.00000E+00
    0.17004E+07        -0.50064E+08         0.00000E+00
    0.00000E+00         0.00000E+00        -0.53387E+08
 
   -0.53650E+08         0.17475E+07         0.00000E+00
    0.17475E+07        -0.50069E+08         0.00000E+00
    0.00000E+00         0.00000E+00        -0.53384E+08
 
   -0.53628E+08         0.17948E+07         0.00000E+00
    0.17948E+07        -0.50075E+08         0.00000E+00
    0.00000E+00         0.00000E+00        -0.53381E+08
 
   -0.53606E+08         0.18420E+07         0.00000E+00
    0.18420E+07        -0.50081E+08         0.00000E+00
    0.00000E+00         0.00000E+00        -0.53378E+08
 
   -0.53584E+08         0.18893E+07         0.00000E+00
    0.18893E+07        -0.50087E+08         0.00000E+00
    0.00000E+00         0.00000E+00        -0.53375E+08
 
   -0.53562E+08         0.19367E+07         0.00000E+00
    0.19367E+07        -0.50093E+08         0.00000E+00
    0.00000E+00         0.00000E+00        -0.53372E+08
 
   -0.53540E+08         0.19841E+07         0.00000E+00
    0.19841E+07        -0.50100E+08         0.00000E+00
    0.00000E+00         0.00000E+00        -0.53369E+08
 
   -0.53518E+08         0.20316E+07         0.00000E+00
    0.20316E+07        -0.50107E+08         0.00000E+00
    0.00000E+00         0.00000E+00        -0.53366E+08
 
   -0.53496E+08         0.20792E+07         0.00000E+00
    0.20792E+07        -0.50115E+08         0.00000E+00
    0.00000E+00         0.00000E+00        -0.53363E+08
 
   -0.53473E+08         0.21268E+07         0.00000E+00
    0.21268E+07        -0.50123E+08         0.00000E+00
    0.00000E+00         0.00000E+00        -0.53361E+08
 
   -0.53450E+08         0.21745E+07         0.00000E+00
    0.21745E+07        -0.50131E+08         0.00000E+00
    0.00000E+00         0.00000E+00        -0.53358E+08
 
   -0.53427E+08         0.22222E+07         0.00000E+00
    0.22222E+07        -0.50140E+08         0.00000E+00
    0.00000E+00         0.00000E+00        -0.53355E+08
 
   -0.53404E+08         0.22700E+07         0.00000E+00
    0.22700E+07        -0.50150E+08         0.00000E+00
    0.00000E+00         0.00000E+00        -0.53352E+08
 
   -0.53381E+08         0.23178E+07         0.00000E+00
    0.23178E+07        -0.50159E+08         0.00000E+00
    0.00000E+00         0.00000E+00        -0.53350E+08
 
   -0.53358E+08         0.23657E+07         0.00000E+00
    0.23657E+07        -0.50169E+08         0.00000E+00
    0.00000E+00         0.00000E+00        -0.53347E+08
 
   -0.54295E+08         0.25565E+05         0.00000E+00
    0.25565E+05        -0.50000E+08         0.00000E+00
    0.00000E+00         0.00000E+00        -0.53303E+08
 
   -0.54266E+08         0.75878E+05         0.00000E+00
    0.75878E+05        -0.50000E+08         0.00000E+00
    0.00000E+00         0.00000E+00        -0.53297E+08
 
   -0.54237E+08         0.12586E+06         0.00000E+00
    0.12586E+06        -0.50000E+08         0.00000E+00
    0.00000E+00         0.00000E+00        -0.53291E+08
 
   -0.54209E+08         0.17554E+06         0.00000E+00
    0.17554E+06        -0.50001E+08         0.00000E+00
    0.00000E+00         0.00000E+00        -0.53286E+08
 
   -0.54181E+08         0.22491E+06         0.00000E+00
    0.22491E+06        -0.50001E+08         0.00000E+00
    0.00000E+00         0.00000E+00        -0.53280E+08
 
   -0.54154E+08         0.27401E+06         0.00000E+00
    0.27401E+06        -0.50001E+08         0.00000E+00
    0.00000E+00         0.00000E+00        -0.53275E+08
 
   -0.54127E+08         0.32283E+06         0.00000E+00
    0.32283E+06        -0.50002E+08         0.00000E+00
    0.00000E+00         0.00000E+00        -0.53270E+08
 
   -0.54100E+08         0.37140E+06         0.00000E+00
    0.37140E+06        -0.50002E+08         0.00000E+00
    0.00000E+00         0.00000E+00        -0.53265E+08
 
   -0.54073E+08         0.41973E+06         0.00000E+00
    0.41973E+06        -0.50003E+08         0.00000E+00
    0.00000E+00         0.00000E+00        -0.53260E+08
 
   -0.54047E+08         0.46783E+06         0.00000E+00
    0.46783E+06        -0.50004E+08         0.00000E+00
    0.00000E+00         0.00000E+00        -0.53255E+08
 
   -0.54021E+08         0.51572E+06         0.00000E+00
    0.51572E+06        -0.50005E+08         0.00000E+00
    0.00000E+00         0.00000E+00        -0.53250E+08
 
   -0.53995E+08         0.56341E+06         0.00000E+00
    0.56341E+06        -0.50005E+08         0.00000E+00
    0.00000E+00         0.00000E+00        -0.53245E+08
 
   -0.53970E+08         0.61091E+06         0.00000E+00
    0.61091E+06        -0.50006E+08         0.00000E+00
    0.00000E+00         0.00000E+00        -0.53240E+08
 
   -0.53945E+08         0.65823E+06         0.00000E+00
    0.65823E+06        -0.50008E+08         0.00000E+00
    0.00000E+00         0.00000E+00        -0.53236E+08
 
   -0.53920E+08         0.70538E+06         0.00000E+00
    0.70538E+06        -0.50009E+08         0.00000E+00
    0.00000E+00         0.00000E+00        -0.53231E+08
 
   -0.53895E+08         0.75239E+06         0.00000E+00
    0.75239E+06        -0.50010E+08         0.00000E+00
    0.00000E+00         0.00000E+00        -0.53227E+08
 
   -0.53871E+08         0.79924E+06         0.00000E+00
    0.79924E+06        -0.50012E+08         0.00000E+00
    0.00000E+00         0.00000E+00        -0.53222E+08
 
   -0.53847E+08         0.84597E+06         0.00000E+00
    0.84597E+06        -0.50013E+08         0.00000E+00
    0.00000E+00         0.00000E+00        -0.53218E+08
 
   -0.53823E+08         0.89257E+06         0.00000E+00
    0.89257E+06        -0.50015E+08         0.00000E+00
    0.00000E+00         0.00000E+00        -0.53214E+08
 
   -0.53799E+08         0.93906E+06         0.00000E+00
    0.93906E+06        -0.50017E+08         0.00000E+00
    0.00000E+00         0.00000E+00        -0.53210E+08
 
   -0.53776E+08         0.98545E+06         0.00000E+00
    0.98545E+06        -0.50019E+08         0.00000E+00
    0.00000E+00         0.00000E+00        -0.53206E+08
 
   -0.53753E+08         0.10317E+07         0.00000E+00
    0.10317E+07        -0.50021E+08         0.00000E+00
    0.00000E+00         0.00000E+00        -0.53202E+08
 
   -0.53730E+08         0.10779E+07         0.00000E+00
    0.10779E+07        -0.50024E+08         0.00000E+00
    0.00000E+00         0.00000E+00        -0.53198E+08
 
   -0.53707E+08         0.11241E+07         0.00000E+00
    0.11241E+07        -0.50026E+08         0.00000E+00
    0.00000E+00         0.00000E+00        -0.53194E+08
 
   -0.53684E+08         0.11701E+07         0.00000E+00
    0.11701E+07        -0.50029E+08         0.00000E+00
    0.00000E+00         0.00000E+00        -0.53190E+08
 
   -0.53661E+08         0.12161E+07         0.00000E+00
    0.12161E+07        -0.50032E+08         0.00000E+00
    0.00000E+00         0.00000E+00        -0.53187E+08
 
   -0.53639E+08         0.12621E+07         0.00000E+00
    0.12621E+07        -0.50035E+08         0.00000E+00
    0.00000E+00         0.00000E+00        -0.53183E+08
 
   -0.53616E+08         0.13080E+07         0.00000E+00
    0.13080E+07        -0.50038E+08         0.00000E+00
    0.00000E+00         0.00000E+00        -0.53179E+08
 
   -0.53594E+08         0.13538E+07         0.00000E+00
    0.13538E+07        -0.50042E+08         0.00000E+00
    0.00000E+00         0.00000E+00        -0.53176E+08
 
   -0.53572E+08         0.13996E+07         0.00000E+00
    0.13996E+07        -0.50046E+08         0.00000E+00
    0.00000E+00         0.00000E+00        -0.53172E+08
 
   -0.53550E+08         0.14454E+07         0.00000E+00
    0.14454E+07        -0.50050E+08         0.00000E+00
    0.00000E+00         0.00000E+00        -0.53169E+08
 
   -0.53528E+08         0.14911E+07         0.00000E+00
    0.14911E+07        -0.50054E+08         0.00000E+00
    0.00000E+00         0.00000E+00        -0.53166E+08
 
   -0.53506E+08         0.15369E+07         0.00000E+00
    0.15369E+07        -0.50058E+08         0.00000E+00
    0.00000E+00         0.00000E+00        -0.53162E+08
 
   -0.53484E+08         0.15826E+07         0.00000E+00
    0.15826E+07        -0.50063E+08         0.00000E+00
    0.00000E+00         0.00000E+00        -0.53159E+08
 
   -0.53462E+08         0.16283E+07         0.00000E+00
    0.16283E+07        -0.50068E+08         0.00000E+00
    0.00000E+00         0.00000E+00        -0.53156E+08
 
   -0.53440E+08         0.16740E+07         0.00000E+00
    0.16740E+07        -0.50073E+08         0.00000E+00
    0.00000E+00         0.00000E+00        -0.53153E+08
 
   -0.53418E+08         0.17197E+07         0.00000E+00
    0.17197E+07        -0.50079E+08         0.00000E+00
    0.00000E+00         0.00000E+00        -0.53150E+08
 
   -0.53396E+08         0.17654E+07         0.00000E+00
    0.17654E+07        -0.50085E+08         0.00000E+00
    0.00000E+00         0.00000E+00        -0.53147E+08
 
   -0.53374E+08         0.18110E+07         0.00000E+00
    0.18110E+07        -0.50091E+08         0.00000E+00
    0.00000E+00         0.00000E+00        -0.53144E+08
 
   -0.53352E+08         0.18567E+07         0.00000E+00
    0.18567E+07        -0.50097E+08         0.00000E+00
    0.00000E+00         0.00000E+00        -0.53141E+08
 
   -0.53330E+08         0.19024E+07         0.00000E+00
    0.19024E+07        -0.50104E+08         0.00000E+00
    0.00000E+00         0.00000E+00        -0.53138E+08
 
   -0.53307E+08         0.19481E+07         0.00000E+00
    0.19481E+07        -0.50111E+08         0.00000E+00
    0.00000E+00         0.00000E+00        -0.53135E+08
 
   -0.53285E+08         0.19938E+07         0.00000E+00
    0.19938E+07        -0.50119E+08         0.00000E+00
    0.00000E+00         0.00000E+00        -0.53132E+08
 
   -0.53262E+08         0.20395E+07         0.00000E+00
    0.20395E+07        -0.50127E+08         0.00000E+00
    0.00000E+00         0.00000E+00        -0.53129E+08
 
   -0.53240E+08         0.20852E+07         0.00000E+00
    0.20852E+07        -0.50135E+08         0.00000E+00
    0.00000E+00         0.00000E+00        -0.53126E+08
 
   -0.53217E+08         0.21309E+07         0.00000E+00
    0.21309E+07        -0.50143E+08         0.00000E+00
    0.00000E+00         0.00000E+00        -0.53124E+08
 
   -0.53194E+08         0.21767E+07         0.00000E+00
    0.21767E+07        -0.50152E+08         0.00000E+00
    0.00000E+00         0.00000E+00        -0.53121E+08
 
   -0.53171E+08         0.22224E+07         0.00000E+00
    0.22224E+07        -0.50162E+08         0.00000E+00
    0.00000E+00         0.00000E+00        -0.53118E+08
 
   -0.53147E+08         0.22681E+07         0.00000E+00
    0.22681E+07        -0.50172E+08         0.00000E+00
    0.00000E+00         0.00000E+00        -0.53116E+08
 
   -0.53123E+08         0.23139E+07         0.00000E+00
    0.23139E+07        -0.50182E+08         0.00000E+00
    0.00000E+00         0.00000E+00        -0.53113E+08
 
   -0.54043E+08         0.25354E+05         0.00000E+00
    0.25354E+05        -0.50000E+08         0.00000E+00
    0.00000E+00         0.00000E+00        -0.53073E+08
 
   -0.54016E+08         0.75246E+05         0.00000E+00
    0.75246E+05        -0.50000E+08         0.00000E+00
    0.00000E+00         0.00000E+00        -0.53068E+08
 
   -0.53989E+08         0.12481E+06         0.00000E+00
    0.12481E+06        -0.50000E+08         0.00000E+00
    0.00000E+00         0.00000E+00        -0.53063E+08
 
   -0.53962E+08         0.17405E+06         0.00000E+00
    0.17405E+06        -0.50001E+08         0.00000E+00
    0.00000E+00         0.00000E+00        -0.53057E+08
 
   -0.53936E+08         0.22299E+06         0.00000E+00
    0.22299E+06        -0.50001E+08         0.00000E+00
    0.00000E+00         0.00000E+00        -0.53052E+08
 
   -0.53910E+08         0.27163E+06         0.00000E+00
    0.27163E+06        -0.50002E+08         0.00000E+00
    0.00000E+00         0.00000E+00        -0.53047E+08
 
   -0.53884E+08         0.32000E+06         0.00000E+00
    0.32000E+06        -0.50002E+08         0.00000E+00
    0.00000E+00         0.00000E+00        -0.53042E+08
 
   -0.53859E+08         0.36809E+06         0.00000E+00
    0.36809E+06        -0.50003E+08         0.00000E+00
    0.00000E+00         0.00000E+00        -0.53037E+08
 
   -0.53833E+08         0.41594E+06         0.00000E+00
    0.41594E+06        -0.50004E+08         0.00000E+00
    0.00000E+00         0.00000E+00        -0.53033E+08
 
   -0.53808E+08         0.46354E+06         0.00000E+00
    0.46354E+06        -0.50005E+08         0.00000E+00
    0.00000E+00         0.00000E+00        -0.53028E+08
 
   -0.53783E+08         0.51090E+06         0.00000E+00
    0.51090E+06        -0.50006E+08         0.00000E+00
    0.00000E+00         0.00000E+00        -0.53023E+08
 
   -0.53759E+08         0.55805E+06         0.00000E+00
    0.55805E+06        -0.50007E+08         0.00000E+00
    0.00000E+00         0.00000E+00        -0.53019E+08
 
   -0.53734E+08         0.60498E+06         0.00000E+00
    0.60498E+06        -0.50008E+08         0.00000E+00
    0.00000E+00         0.00000E+00        -0.53014E+08
 
   -0.53710E+08         0.65172E+06         0.00000E+00
    0.65172E+06        -0.50009E+08         0.00000E+00
    0.00000E+00         0.00000E+00        -0.53010E+08
 
   -0.53686E+08         0.69826E+06         0.00000E+00
    0.69826E+06        -0.50011E+08         0.00000E+00
    0.00000E+00         0.00000E+00        -0.53005E+08
 
   -0.53662E+08         0.74462E+06         0.00000E+00
    0.74462E+06        -0.50012E+08         0.00000E+00
    0.00000E+00         0.00000E+00        -0.53001E+08
 
   -0.53639E+08         0.79082E+06         0.00000E+00
    0.79082E+06        -0.50014E+08         0.00000E+00
    0.00000E+00         0.00000E+00        -0.52997E+08
 
   -0.53615E+08         0.83685E+06         0.00000E+00
    0.83685E+06        -0.50016E+08         0.00000E+00
    0.00000E+00         0.00000E+00        -0.52993E+08
 
   -0.53592E+08         0.88273E+06         0.00000E+00
    0.88273E+06        -0.50018E+08         0.00000E+00
    0.00000E+00         0.00000E+00        -0.52989E+08
 
   -0.53569E+08         0.92846E+06         0.00000E+00
    0.92846E+06        -0.50020E+08         0.00000E+00
    0.00000E+00         0.00000E+00        -0.52985E+08
 
   -0.53546E+08         0.97406E+06         0.00000E+00
    0.97406E+06        -0.50022E+08         0.00000E+00
    0.00000E+00         0.00000E+00        -0.52981E+08
 
   -0.53523E+08         0.10195E+07         0.00000E+00
    0.10195E+07        -0.50025E+08         0.00000E+00
    0.00000E+00         0.00000E+00        -0.52977E+08
 
   -0.53501E+08         0.10649E+07         0.00000E+00
    0.10649E+07        -0.50027E+08         0.00000E+00
    0.00000E+00         0.00000E+00        -0.52973E+08
 
   -0.53478E+08         0.11101E+07         0.00000E+00
    0.11101E+07        -0.50030E+08         0.00000E+00
    0.00000E+00         0.00000E+00        -0.52969E+08
 
   -0.53456E+08         0.11553E+07         0.00000E+00
    0.11553E+07        -0.50033E+08         0.00000E+00
    0.00000E+00         0.00000E+00        -0.52966E+08
 
   -0.53434E+08         0.12003E+07         0.00000E+00
    0.12003E+07        -0.50036E+08         0.00000E+00
    0.00000E+00         0.00000E+00        -0.52962E+08
 
   -0.53412E+08         0.12452E+07         0.00000E+00
    0.12452E+07        -0.50040E+08         0.00000E+00
    0.00000E+00         0.00000E+00        -0.52959E+08
 
   -0.53390E+08         0.12901E+07         0.00000E+00
    0.12901E+07        -0.50043E+08         0.00000E+00
    0.00000E+00         0.00000E+00        -0.52955E+08
 
   -0.53368E+08         0.13348E+07         0.00000E+00
    0.13348E+07        -0.50047E+08         0.00000E+00
    0.00000E+00         0.00000E+00        -0.52952E+08
 
   -0.53346E+08         0.13795E+07         0.00000E+00
    0.13795E+07        -0.50051E+08         0.00000E+00
    0.00000E+00         0.00000E+00        -0.52948E+08
 
   -0.53324E+08         0.14241E+07         0.00000E+00
    0.14241E+07        -0.50056E+08         0.00000E+00
    0.00000E+00         0.00000E+00        -0.52945E+08
 
   -0.53302E+08         0.14687E+07         0.00000E+00
    0.14687E+07        -0.50060E+08         0.00000E+00
    0.00000E+00         0.00000E+00        -0.52942E+08
 
   -0.53280E+08         0.15132E+07         0.00000E+00
    0.15132E+07        -0.50065E+08         0.00000E+00
    0.00000E+00         0.00000E+00        -0.52938E+08
 
   -0.53259E+08         0.15576E+07         0.00000E+00
    0.15576E+07        -0.50070E+08         0.00000E+00
    0.00000E+00         0.00000E+00        -0.52935E+08
 
   -0.53237E+08         0.16020E+07         0.00000E+00
    0.16020E+07        -0.50075E+08         0.00000E+00
    0.00000E+00         0.00000E+00        -0.52932E+08
 
   -0.53215E+08         0.16463E+07         0.00000E+00
    0.16463E+07        -0.50080E+08         0.00000E+00
    0.00000E+00         0.00000E+00        -0.52929E+08
 
   -0.53193E+08         0.16905E+07         0.00000E+00
    0.16905E+07        -0.50086E+08         0.00000E+00
    0.00000E+00         0.00000E+00        -0.52926E+08
 
   -0.53171E+08         0.17347E+07         0.00000E+00
    0.17347E+07        -0.50092E+08         0.00000E+00
    0.00000E+00         0.00000E+00        -0.52923E+08
 
   -0.53149E+08         0.17789E+07         0.00000E+00
    0.17789E+07        -0.50099E+08         0.00000E+00
    0.00000E+00         0.00000E+00        -0.52920E+08
 
   -0.53127E+08         0.18230E+07         0.00000E+00
    0.18230E+07        -0.50105E+08         0.00000E+00
    0.00000E+00         0.00000E+00        -0.52917E+08
 
   -0.53105E+08         0.18671E+07         0.00000E+00
    0.18671E+07        -0.50112E+08         0.00000E+00
    0.00000E+00         0.00000E+00        -0.52914E+08
 
   -0.53083E+08         0.19111E+07         0.00000E+00
    0.19111E+07        -0.50120E+08         0.00000E+00
    0.00000E+00         0.00000E+00        -0.52911E+08
 
   -0.53061E+08         0.19551E+07         0.00000E+00
    0.19551E+07        -0.50127E+08         0.00000E+00
    0.00000E+00         0.00000E+00        -0.52908E+08
 
   -0.53038E+08         0.19991E+07         0.00000E+00
    0.19991E+07        -0.50135E+08         0.00000E+00
    0.00000E+00         0.00000E+00        -0.52906E+08
 
   -0.53016E+08         0.20430E+07         0.00000E+00
    0.20430E+07        -0.50143E+08         0.00000E+00
    0.00000E+00         0.00000E+00        -0.52903E+08
 
   -0.52993E+08         0.20869E+07         0.00000E+00
    0.20869E+07        -0.50152E+08         0.00000E+00
    0.00000E+00         0.00000E+00        -0.52900E+08
 
   -0.52970E+08         0.21307E+07         0.00000E+00
    0.21307E+07        -0.50161E+08         0.00000E+00
    0.00000E+00         0.00000E+00        -0.52897E+08
 
   -0.52947E+08         0.21745E+07         0.00000E+00
    0.21745E+07        -0.50170E+08         0.00000E+00
    0.00000E+00         0.00000E+00        -0.52895E+08
 
   -0.52923E+08         0.22182E+07         0.00000E+00
    0.22182E+07        -0.50180E+08         0.00000E+00
    0.00000E+00         0.00000E+00        -0.52892E+08
 
   -0.52900E+08         0.22619E+07         0.00000E+00
    0.22619E+07        -0.50190E+08         0.00000E+00
    0.00000E+00         0.00000E+00        -0.52889E+08
 
   -0.53794E+08         0.25098E+05         0.00000E+00
    0.25098E+05        -0.50000E+08         0.00000E+00
    0.00000E+00         0.00000E+00        -0.52853E+08
 
   -0.53769E+08         0.74481E+05         0.00000E+00
    0.74481E+05        -0.50000E+08         0.00000E+00
    0.00000E+00         0.00000E+00        -0.52848E+08
 
   -0.53743E+08         0.12353E+06         0.00000E+00
    0.12353E+06        -0.50001E+08         0.00000E+00
    0.00000E+00         0.00000E+00        -0.52843E+08
 
   -0.53718E+08         0.17226E+06         0.00000E+00
    0.17226E+06        -0.50001E+08         0.00000E+00
    0.00000E+00         0.00000E+00        -0.52838E+08
 
   -0.53693E+08         0.22068E+06         0.00000E+00
    0.22068E+06        -0.50001E+08         0.00000E+00
    0.00000E+00         0.00000E+00        -0.52833E+08
 
   -0.53669E+08         0.26881E+06         0.00000E+00
    0.26881E+06        -0.50002E+08         0.00000E+00
    0.00000E+00         0.00000E+00        -0.52828E+08
 
   -0.53644E+08         0.31664E+06         0.00000E+00
    0.31664E+06        -0.50002E+08         0.00000E+00
    0.00000E+00         0.00000E+00        -0.52824E+08
 
   -0.53620E+08         0.36420E+06         0.00000E+00
    0.36420E+06        -0.50003E+08         0.00000E+00
    0.00000E+00         0.00000E+00        -0.52819E+08
 
   -0.53596E+08         0.41149E+06         0.00000E+00
    0.41149E+06        -0.50004E+08         0.00000E+00
    0.00000E+00         0.00000E+00        -0.52815E+08
 
   -0.53572E+08         0.45852E+06         0.00000E+00
    0.45852E+06        -0.50005E+08         0.00000E+00
    0.00000E+00         0.00000E+00        -0.52810E+08
 
   -0.53548E+08         0.50531E+06         0.00000E+00
    0.50531E+06        -0.50006E+08         0.00000E+00
    0.00000E+00         0.00000E+00        -0.52806E+08
 
   -0.53525E+08         0.55186E+06         0.00000E+00
    0.55186E+06        -0.50007E+08         0.00000E+00
    0.00000E+00         0.00000E+00        -0.52801E+08
 
   -0.53502E+08         0.59818E+06         0.00000E+00
    0.59818E+06        -0.50009E+08         0.00000E+00
    0.00000E+00         0.00000E+00        -0.52797E+08
 
   -0.53478E+08         0.64428E+06         0.00000E+00
    0.64428E+06        -0.50010E+08         0.00000E+00
    0.00000E+00         0.00000E+00        -0.52793E+08
 
   -0.53455E+08         0.69017E+06         0.00000E+00
    0.69017E+06        -0.50012E+08         0.00000E+00
    0.00000E+00         0.00000E+00        -0.52789E+08
 
   -0.53433E+08         0.73586E+06         0.00000E+00
    0.73586E+06        -0.50014E+08         0.00000E+00
    0.00000E+00         0.00000E+00        -0.52785E+08
 
   -0.53410E+08         0.78135E+06         0.00000E+00
    0.78135E+06        -0.50016E+08         0.00000E+00
    0.00000E+00         0.00000E+00        -0.52781E+08
 
   -0.53387E+08         0.82666E+06         0.00000E+00
    0.82666E+06        -0.50018E+08         0.00000E+00
    0.00000E+00         0.00000E+00        -0.52777E+08
 
   -0.53365E+08         0.87179E+06         0.00000E+00
    0.87179E+06        -0.50020E+08         0.00000E+00
    0.00000E+00         0.00000E+00        -0.52773E+08
 
   -0.53343E+08         0.91675E+06         0.00000E+00
    0.91675E+06        -0.50022E+08         0.00000E+00
    0.00000E+00         0.00000E+00        -0.52769E+08
 
   -0.53320E+08         0.96155E+06         0.00000E+00
    0.96155E+06        -0.50025E+08         0.00000E+00
    0.00000E+00         0.00000E+00        -0.52765E+08
 
   -0.53298E+08         0.10062E+07         0.00000E+00
    0.10062E+07        -0.50027E+08         0.00000E+00
    0.00000E+00         0.00000E+00        -0.52761E+08
 
   -0.53277E+08         0.10507E+07         0.00000E+00
    0.10507E+07        -0.50030E+08         0.00000E+00
    0.00000E+00         0.00000E+00        -0.52758E+08
 
   -0.53255E+08         0.10950E+07         0.00000E+00
    0.10950E+07        -0.50033E+08         0.00000E+00
    0.00000E+00         0.00000E+00        -0.52754E+08
 
   -0.53233E+08         0.11392E+07         0.00000E+00
    0.11392E+07        -0.50036E+08         0.00000E+00
    0.00000E+00         0.00000E+00        -0.52751E+08
 
   -0.53211E+08         0.11833E+07         0.00000E+00
    0.11833E+07        -0.50040E+08         0.00000E+00
    0.00000E+00         0.00000E+00        -0.52747E+08
 
   -0.53190E+08         0.12272E+07         0.00000E+00
    0.12272E+07        -0.50043E+08         0.00000E+00
    0.00000E+00         0.00000E+00        -0.52744E+08
 
   -0.53168E+08         0.12711E+07         0.00000E+00
    0.12711E+07        -0.50047E+08         0.00000E+00
    0.00000E+00         0.00000E+00        -0.52740E+08
 
   -0.53147E+08         0.13148E+07         0.00000E+00
    0.13148E+07        -0.50051E+08         0.00000E+00
    0.00000E+00         0.00000E+00        -0.52737E+08
 
   -0.53125E+08         0.13584E+07         0.00000E+00
    0.13584E+07        -0.50055E+08         0.00000E+00
    0.00000E+00         0.00000E+00        -0.52734E+08
 
   -0.53104E+08         0.14019E+07         0.00000E+00
    0.14019E+07        -0.50060E+08         0.00000E+00
    0.00000E+00         0.00000E+00        -0.52730E+08
 
   -0.53083E+08         0.14452E+07         0.00000E+00
    0.14452E+07        -0.50064E+08         0.00000E+00
    0.00000E+00         0.00000E+00        -0.52727E+08
 
   -0.53061E+08         0.14885E+07         0.00000E+00
    0.14885E+07        -0.50069E+08         0.00000E+00
    0.00000E+00         0.00000E+00        -0.52724E+08
 
   -0.53040E+08         0.15317E+07         0.00000E+00
    0.15317E+07        -0.50074E+08         0.00000E+00
    0.00000E+00         0.00000E+00        -0.52721E+08
 
   -0.53018E+08         0.15748E+07         0.00000E+00
    0.15748E+07        -0.50080E+08         0.00000E+00
    0.00000E+00         0.00000E+00        -0.52718E+08
 
   -0.52997E+08         0.16177E+07         0.00000E+00
    0.16177E+07        -0.50085E+08         0.00000E+00
    0.00000E+00         0.00000E+00        -0.52715E+08
 
   -0.52975E+08         0.16606E+07         0.00000E+00
    0.16606E+07        -0.50091E+08         0.00000E+00
    0.00000E+00         0.00000E+00        -0.52712E+08
 
   -0.52954E+08         0.17034E+07         0.00000E+00
    0.17034E+07        -0.50097E+08         0.00000E+00
    0.00000E+00         0.00000E+00        -0.52709E+08
 
   -0.52932E+08         0.17462E+07         0.00000E+00
    0.17462E+07        -0.50104E+08         0.00000E+00
    0.00000E+00         0.00000E+00        -0.52706E+08
 
   -0.52911E+08         0.17888E+07         0.00000E+00
    0.17888E+07        -0.50111E+08         0.00000E+00
    0.00000E+00         0.00000E+00        -0.52703E+08
 
   -0.52889E+08         0.18313E+07         0.00000E+00
    0.18313E+07        -0.50118E+08         0.00000E+00
    0.00000E+00         0.00000E+00        -0.52700E+08
 
   -0.52867E+08         0.18738E+07         0.00000E+00
    0.18738E+07        -0.50125E+08         0.00000E+00
    0.00000E+00         0.00000E+00        -0.52698E+08
 
   -0.52845E+08         0.19162E+07         0.00000E+00
    0.19162E+07        -0.50133E+08         0.00000E+00
    0.00000E+00         0.00000E+00        -0.52695E+08
 
   -0.52823E+08         0.19585E+07         0.00000E+00
    0.19585E+07        -0.50140E+08         0.00000E+00
    0.00000E+00         0.00000E+00        -0.52692E+08
 
   -0.52800E+08         0.20007E+07         0.00000E+00
    0.20007E+07        -0.50149E+08         0.00000E+00
    0.00000E+00         0.00000E+00        -0.52689E+08
 
   -0.52778E+08         0.20428E+07         0.00000E+00
    0.20428E+07        -0.50157E+08         0.00000E+00
    0.00000E+00         0.00000E+00        -0.52687E+08
 
   -0.52755E+08         0.20849E+07         0.00000E+00
    0.20849E+07        -0.50166E+08         0.00000E+00
    0.00000E+00         0.00000E+00        -0.52684E+08
 
   -0.52733E+08         0.21268E+07         0.00000E+00
    0.21268E+07        -0.50176E+08         0.00000E+00
    0.00000E+00         0.00000E+00        -0.52681E+08
 
   -0.52710E+08         0.21687E+07         0.00000E+00
    0.21687E+07        -0.50185E+08         0.00000E+00
    0.00000E+00         0.00000E+00        -0.52679E+08
 
   -0.52686E+08         0.22104E+07         0.00000E+00
    0.22104E+07        -0.50195E+08         0.00000E+00
    0.00000E+00         0.00000E+00        -0.52676E+08
 
   -0.53548E+08         0.24808E+05         0.00000E+00
    0.24808E+05        -0.50000E+08         0.00000E+00
    0.00000E+00         0.00000E+00        -0.52641E+08
 
   -0.53524E+08         0.73618E+05         0.00000E+00
    0.73618E+05        -0.50000E+08         0.00000E+00
    0.00000E+00         0.00000E+00        -0.52637E+08
 
   -0.53500E+08         0.12210E+06         0.00000E+00
    0.12210E+06        -0.50001E+08         0.00000E+00
    0.00000E+00         0.00000E+00        -0.52632E+08
 
   -0.53477E+08         0.17026E+06         0.00000E+00
    0.17026E+06        -0.50001E+08         0.00000E+00
    0.00000E+00         0.00000E+00        -0.52627E+08
 
   -0.53453E+08         0.21810E+06         0.00000E+00
    0.21810E+06        -0.50001E+08         0.00000E+00
    0.00000E+00         0.00000E+00        -0.52623E+08
 
   -0.53430E+08         0.26565E+06         0.00000E+00
    0.26565E+06        -0.50002E+08         0.00000E+00
    0.00000E+00         0.00000E+00        -0.52618E+08
 
   -0.53407E+08         0.31290E+06         0.00000E+00
    0.31290E+06        -0.50003E+08         0.00000E+00
    0.00000E+00         0.00000E+00        -0.52614E+08
 
   -0.53384E+08         0.35987E+06         0.00000E+00
    0.35987E+06        -0.50004E+08         0.00000E+00
    0.00000E+00         0.00000E+00        -0.52610E+08
 
   -0.53362E+08         0.40656E+06         0.00000E+00
    0.40656E+06        -0.50004E+08         0.00000E+00
    0.00000E+00         0.00000E+00        -0.52605E+08
 
   -0.53339E+08         0.45298E+06         0.00000E+00
    0.45298E+06        -0.50006E+08         0.00000E+00
    0.00000E+00         0.00000E+00        -0.52601E+08
 
   -0.53317E+08         0.49915E+06         0.00000E+00
    0.49915E+06        -0.50007E+08         0.00000E+00
    0.00000E+00         0.00000E+00        -0.52597E+08
 
   -0.53294E+08         0.54507E+06         0.00000E+00
    0.54507E+06        -0.50008E+08         0.00000E+00
    0.00000E+00         0.00000E+00        -0.52593E+08
 
   -0.53272E+08         0.59074E+06         0.00000E+00
    0.59074E+06        -0.50010E+08         0.00000E+00
    0.00000E+00         0.00000E+00        -0.52589E+08
 
   -0.53250E+08         0.63618E+06         0.00000E+00
    0.63618E+06        -0.50011E+08         0.00000E+00
    0.00000E+00         0.00000E+00        -0.52585E+08
 
   -0.53228E+08         0.68139E+06         0.00000E+00
    0.68139E+06        -0.50013E+08         0.00000E+00
    0.00000E+00         0.00000E+00        -0.52581E+08
 
   -0.53206E+08         0.72638E+06         0.00000E+00
    0.72638E+06        -0.50015E+08         0.00000E+00
    0.00000E+00         0.00000E+00        -0.52577E+08
 
   -0.53185E+08         0.77115E+06         0.00000E+00
    0.77115E+06        -0.50017E+08         0.00000E+00
    0.00000E+00         0.00000E+00        -0.52573E+08
 
   -0.53163E+08         0.81572E+06         0.00000E+00
    0.81572E+06        -0.50019E+08         0.00000E+00
    0.00000E+00         0.00000E+00        -0.52569E+08
 
   -0.53142E+08         0.86009E+06         0.00000E+00
    0.86009E+06        -0.50021E+08         0.00000E+00
    0.00000E+00         0.00000E+00        -0.52566E+08
 
   -0.53120E+08         0.90427E+06         0.00000E+00
    0.90427E+06        -0.50024E+08         0.00000E+00
    0.00000E+00         0.00000E+00        -0.52562E+08
 
   -0.53099E+08         0.94826E+06         0.00000E+00
    0.94826E+06        -0.50026E+08         0.00000E+00
    0.00000E+00         0.00000E+00        -0.52558E+08
 
   -0.53078E+08         0.99207E+06         0.00000E+00
    0.99207E+06        -0.50029E+08         0.00000E+00
    0.00000E+00         0.00000E+00        -0.52555E+08
 
   -0.53057E+08         0.10357E+07         0.00000E+00
    0.10357E+07        -0.50032E+08         0.00000E+00
    0.00000E+00         0.00000E+00        -0.52551E+08
 
   -0.53036E+08         0.10792E+07         0.00000E+00
    0.10792E+07        -0.50035E+08         0.00000E+00
    0.00000E+00         0.00000E+00        -0.52548E+08
 
   -0.53015E+08         0.11225E+07         0.00000E+00
    0.11225E+07        -0.50039E+08         0.00000E+00
    0.00000E+00         0.00000E+00        -0.52545E+08
 
   -0.52994E+08         0.11656E+07         0.00000E+00
    0.11656E+07        -0.50042E+08         0.00000E+00
    0.00000E+00         0.00000E+00        -0.52541E+08
 
   -0.52973E+08         0.12086E+07         0.00000E+00
    0.12086E+07        -0.50046E+08         0.00000E+00
    0.00000E+00         0.00000E+00        -0.52538E+08
 
   -0.52952E+08         0.12514E+07         0.00000E+00
    0.12514E+07        -0.50050E+08         0.00000E+00
    0.00000E+00         0.00000E+00        -0.52535E+08
 
   -0.52931E+08         0.12941E+07         0.00000E+00
    0.12941E+07        -0.50054E+08         0.00000E+00
    0.00000E+00         0.00000E+00        -0.52531E+08
 
   -0.52910E+08         0.13366E+07         0.00000E+00
    0.13366E+07        -0.50058E+08         0.00000E+00
    0.00000E+00         0.00000E+00        -0.52528E+08
 
   -0.52890E+08         0.13790E+07         0.00000E+00
    0.13790E+07        -0.50063E+08         0.00000E+00
    0.00000E+00         0.00000E+00        -0.52525E+08
 
   -0.52869E+08         0.14212E+07         0.00000E+00
    0.14212E+07        -0.50067E+08         0.00000E+00
    0.00000E+00         0.00000E+00        -0.52522E+08
 
   -0.52848E+08         0.14633E+07         0.00000E+00
    0.14633E+07        -0.50072E+08         0.00000E+00
    0.00000E+00         0.00000E+00        -0.52519E+08
 
   -0.52827E+08         0.15053E+07         0.00000E+00
    0.15053E+07        -0.50077E+08         0.00000E+00
    0.00000E+00         0.00000E+00        -0.52516E+08
 
   -0.52806E+08         0.15472E+07         0.00000E+00
    0.15472E+07        -0.50083E+08         0.00000E+00
    0.00000E+00         0.00000E+00        -0.52513E+08
 
   -0.52785E+08         0.15889E+07         0.00000E+00
    0.15889E+07        -0.50088E+08         0.00000E+00
    0.00000E+00         0.00000E+00        -0.52510E+08
 
   -0.52764E+08         0.16305E+07         0.00000E+00
    0.16305E+07        -0.50094E+08         0.00000E+00
    0.00000E+00         0.00000E+00        -0.52507E+08
 
   -0.52743E+08         0.16719E+07         0.00000E+00
    0.16719E+07        -0.50100E+08         0.00000E+00
    0.00000E+00         0.00000E+00        -0.52504E+08
 
   -0.52722E+08         0.17133E+07         0.00000E+00
    0.17133E+07        -0.50107E+08         0.00000E+00
    0.00000E+00         0.00000E+00        -0.52502E+08
 
   -0.52701E+08         0.17545E+07         0.00000E+00
    0.17545E+07        -0.50114E+08         0.00000E+00
    0.00000E+00         0.00000E+00        -0.52499E+08
 
   -0.52680E+08         0.17956E+07         0.00000E+00
    0.17956E+07        -0.50121E+08         0.00000E+00
    0.00000E+00         0.00000E+00        -0.52496E+08
 
   -0.52659E+08         0.18366E+07         0.00000E+00
    0.18366E+07        -0.50128E+08         0.00000E+00
    0.00000E+00         0.00000E+00        -0.52493E+08
 
   -0.52637E+08         0.18774E+07         0.00000E+00
    0.18774E+07        -0.50135E+08         0.00000E+00
    0.00000E+00         0.00000E+00        -0.52491E+08
 
   -0.52615E+08         0.19182E+07         0.00000E+00
    0.19182E+07        -0.50143E+08         0.00000E+00
    0.00000E+00         0.00000E+00        -0.52488E+08
 
   -0.52594E+08         0.19588E+07         0.00000E+00
    0.19588E+07        -0.50151E+08         0.00000E+00
    0.00000E+00         0.00000E+00        -0.52485E+08
 
   -0.52572E+08         0.19993E+07         0.00000E+00
    0.19993E+07        -0.50160E+08         0.00000E+00
    0.00000E+00         0.00000E+00        -0.52483E+08
 
   -0.52550E+08         0.20396E+07         0.00000E+00
    0.20396E+07        -0.50169E+08         0.00000E+00
    0.00000E+00         0.00000E+00        -0.52480E+08
 
   -0.52527E+08         0.20798E+07         0.00000E+00
    0.20798E+07        -0.50178E+08         0.00000E+00
    0.00000E+00         0.00000E+00        -0.52477E+08
 
   -0.52505E+08         0.21199E+07         0.00000E+00
    0.21199E+07        -0.50187E+08         0.00000E+00
    0.00000E+00         0.00000E+00        -0.52475E+08
 
   -0.52482E+08         0.21599E+07         0.00000E+00
    0.21599E+07        -0.50197E+08         0.00000E+00
    0.00000E+00         0.00000E+00        -0.52472E+08
 
   -0.53304E+08         0.24493E+05         0.00000E+00
    0.24493E+05        -0.50000E+08         0.00000E+00
    0.00000E+00         0.00000E+00        -0.52438E+08
 
   -0.53282E+08         0.72687E+05         0.00000E+00
    0.72687E+05        -0.50000E+08         0.00000E+00
    0.00000E+00         0.00000E+00        -0.52434E+08
 
   -0.53260E+08         0.12055E+06         0.00000E+00
    0.12055E+06        -0.50001E+08         0.00000E+00
    0.00000E+00         0.00000E+00        -0.52429E+08
 
   -0.53238E+08         0.16810E+06         0.00000E+00
    0.16810E+06        -0.50001E+08         0.00000E+00
    0.00000E+00         0.00000E+00        -0.52425E+08
 
   -0.53216E+08         0.21533E+06         0.00000E+00
    0.21533E+06        -0.50001E+08         0.00000E+00
    0.00000E+00         0.00000E+00        -0.52421E+08
 
   -0.53195E+08         0.26226E+06         0.00000E+00
    0.26226E+06        -0.50002E+08         0.00000E+00
    0.00000E+00         0.00000E+00        -0.52417E+08
 
   -0.53173E+08         0.30890E+06         0.00000E+00
    0.30890E+06        -0.50003E+08         0.00000E+00
    0.00000E+00         0.00000E+00        -0.52412E+08
 
   -0.53152E+08         0.35524E+06         0.00000E+00
    0.35524E+06        -0.50004E+08         0.00000E+00
    0.00000E+00         0.00000E+00        -0.52408E+08
 
   -0.53130E+08         0.40131E+06         0.00000E+00
    0.40131E+06        -0.50005E+08         0.00000E+00
    0.00000E+00         0.00000E+00        -0.52404E+08
 
   -0.53109E+08         0.44709E+06         0.00000E+00
    0.44709E+06        -0.50006E+08         0.00000E+00
    0.00000E+00         0.00000E+00        -0.52400E+08
 
   -0.53088E+08         0.49261E+06         0.00000E+00
    0.49261E+06        -0.50007E+08         0.00000E+00
    0.00000E+00         0.00000E+00        -0.52396E+08
 
   -0.53067E+08         0.53787E+06         0.00000E+00
    0.53787E+06        -0.50008E+08         0.00000E+00
    0.00000E+00         0.00000E+00        -0.52393E+08
 
   -0.53046E+08         0.58288E+06         0.00000E+00
    0.58288E+06        -0.50010E+08         0.00000E+00
    0.00000E+00         0.00000E+00        -0.52389E+08
 
   -0.53025E+08         0.62764E+06         0.00000E+00
    0.62764E+06        -0.50012E+08         0.00000E+00
    0.00000E+00         0.00000E+00        -0.52385E+08
 
   -0.53004E+08         0.67215E+06         0.00000E+00
    0.67215E+06        -0.50013E+08         0.00000E+00
    0.00000E+00         0.00000E+00        -0.52381E+08
 
   -0.52984E+08         0.71644E+06         0.00000E+00
    0.71644E+06        -0.50015E+08         0.00000E+00
    0.00000E+00         0.00000E+00        -0.52378E+08
 
   -0.52963E+08         0.76049E+06         0.00000E+00
    0.76049E+06        -0.50018E+08         0.00000E+00
    0.00000E+00         0.00000E+00        -0.52374E+08
 
   -0.52943E+08         0.80431E+06         0.00000E+00
    0.80431E+06        -0.50020E+08         0.00000E+00
    0.00000E+00         0.00000E+00        -0.52370E+08
 
   -0.52922E+08         0.84792E+06         0.00000E+00
    0.84792E+06        -0.50022E+08         0.00000E+00
    0.00000E+00         0.00000E+00        -0.52367E+08
 
   -0.52902E+08         0.89132E+06         0.00000E+00
    0.89132E+06        -0.50025E+08         0.00000E+00
    0.00000E+00         0.00000E+00        -0.52363E+08
 
   -0.52881E+08         0.93451E+06         0.00000E+00
    0.93451E+06        -0.50027E+08         0.00000E+00
    0.00000E+00         0.00000E+00        -0.52360E+08
 
   -0.52861E+08         0.97749E+06         0.00000E+00
    0.97749E+06        -0.50030E+08         0.00000E+00
    0.00000E+00         0.00000E+00        -0.52357E+08
 
   -0.52841E+08         0.10203E+07         0.00000E+00
    0.10203E+07        -0.50033E+08         0.00000E+00
    0.00000E+00         0.00000E+00        -0.52353E+08
 
   -0.52821E+08         0.10629E+07         0.00000E+00
    0.10629E+07        -0.50036E+08         0.00000E+00
    0.00000E+00         0.00000E+00        -0.52350E+08
 
   -0.52801E+08         0.11053E+07         0.00000E+00
    0.11053E+07        -0.50040E+08         0.00000E+00
    0.00000E+00         0.00000E+00        -0.52347E+08
 
   -0.52781E+08         0.11475E+07         0.00000E+00
    0.11475E+07        -0.50043E+08         0.00000E+00
    0.00000E+00         0.00000E+00        -0.52344E+08
 
   -0.52761E+08         0.11895E+07         0.00000E+00
    0.11895E+07        -0.50047E+08         0.00000E+00
    0.00000E+00         0.00000E+00        -0.52340E+08
 
   -0.52741E+08         0.12314E+07         0.00000E+00
    0.12314E+07        -0.50051E+08         0.00000E+00
    0.00000E+00         0.00000E+00        -0.52337E+08
 
   -0.52721E+08         0.12731E+07         0.00000E+00
    0.12731E+07        -0.50055E+08         0.00000E+00
    0.00000E+00         0.00000E+00        -0.52334E+08
 
   -0.52701E+08         0.13146E+07         0.00000E+00
    0.13146E+07        -0.50059E+08         0.00000E+00
    0.00000E+00         0.00000E+00        -0.52331E+08
 
   -0.52681E+08         0.13559E+07         0.00000E+00
    0.13559E+07        -0.50064E+08         0.00000E+00
    0.00000E+00         0.00000E+00        -0.52328E+08
 
   -0.52661E+08         0.13971E+07         0.00000E+00
    0.13971E+07        -0.50069E+08         0.00000E+00
    0.00000E+00         0.00000E+00        -0.52325E+08
 
   -0.52641E+08         0.14381E+07         0.00000E+00
    0.14381E+07        -0.50074E+08         0.00000E+00
    0.00000E+00         0.00000E+00        -0.52322E+08
 
   -0.52620E+08         0.14789E+07         0.00000E+00
    0.14789E+07        -0.50079E+08         0.00000E+00
    0.00000E+00         0.00000E+00        -0.52320E+08
 
   -0.52600E+08         0.15196E+07         0.00000E+00
    0.15196E+07        -0.50084E+08         0.00000E+00
    0.00000E+00         0.00000E+00        -0.52317E+08
 
   -0.52580E+08         0.15601E+07         0.00000E+00
    0.15601E+07        -0.50090E+08         0.00000E+00
    0.00000E+00         0.00000E+00        -0.52314E+08
 
   -0.52560E+08         0.16005E+07         0.00000E+00
    0.16005E+07        -0.50095E+08         0.00000E+00
    0.00000E+00         0.00000E+00        -0.52311E+08
 
   -0.52540E+08         0.16407E+07         0.00000E+00
    0.16407E+07        -0.50102E+08         0.00000E+00
    0.00000E+00         0.00000E+00        -0.52308E+08
 
   -0.52519E+08         0.16807E+07         0.00000E+00
    0.16807E+07        -0.50108E+08         0.00000E+00
    0.00000E+00         0.00000E+00        -0.52306E+08
 
   -0.52499E+08         0.17206E+07         0.00000E+00
    0.17206E+07        -0.50114E+08         0.00000E+00
    0.00000E+00         0.00000E+00        -0.52303E+08
 
   -0.52478E+08         0.17603E+07         0.00000E+00
    0.17603E+07        -0.50121E+08         0.00000E+00
    0.00000E+00         0.00000E+00        -0.52300E+08
 
   -0.52458E+08         0.17999E+07         0.00000E+00
    0.17999E+07        -0.50128E+08         0.00000E+00
    0.00000E+00         0.00000E+00        -0.52298E+08
 
   -0.52437E+08         0.18393E+07         0.00000E+00
    0.18393E+07        -0.50136E+08         0.00000E+00
    0.00000E+00         0.00000E+00        -0.52295E+08
 
   -0.52416E+08         0.18786E+07         0.00000E+00
    0.18786E+07        -0.50143E+08         0.00000E+00
    0.00000E+00         0.00000E+00        -0.52292E+08
 
   -0.52395E+08         0.19177E+07         0.00000E+00
    0.19177E+07        -0.50151E+08         0.00000E+00
    0.00000E+00         0.00000E+00        -0.52290E+08
 
   -0.52374E+08         0.19566E+07         0.00000E+00
    0.19566E+07        -0.50160E+08         0.00000E+00
    0.00000E+00         0.00000E+00        -0.52287E+08
 
   -0.52352E+08         0.19954E+07         0.00000E+00
    0.19954E+07        -0.50168E+08         0.00000E+00
    0.00000E+00         0.00000E+00        -0.52285E+08
 
   -0.52331E+08         0.20340E+07         0.00000E+00
    0.20340E+07        -0.50177E+08         0.00000E+00
    0.00000E+00         0.00000E+00        -0.52282E+08
 
   -0.52309E+08         0.20725E+07         0.00000E+00
    0.20725E+07        -0.50186E+08         0.00000E+00
    0.00000E+00         0.00000E+00        -0.52280E+08
 
   -0.52287E+08         0.21108E+07         0.00000E+00
    0.21108E+07        -0.50196E+08         0.00000E+00
    0.00000E+00         0.00000E+00        -0.52277E+08
 
   -0.53064E+08         0.24165E+05         0.00000E+00
    0.24165E+05        -0.50000E+08         0.00000E+00
    0.00000E+00         0.00000E+00        -0.52242E+08
 
   -0.53044E+08         0.71716E+05         0.00000E+00
    0.71716E+05        -0.50000E+08         0.00000E+00
    0.00000E+00         0.00000E+00        -0.52238E+08
 
   -0.53023E+08         0.11894E+06         0.00000E+00
    0.11894E+06        -0.50001E+08         0.00000E+00
    0.00000E+00         0.00000E+00        -0.52234E+08
 
   -0.53003E+08         0.16585E+06         0.00000E+00
    0.16585E+06        -0.50001E+08         0.00000E+00
    0.00000E+00         0.00000E+00        -0.52230E+08
 
   -0.52983E+08         0.21245E+06         0.00000E+00
    0.21245E+06        -0.50001E+08         0.00000E+00
    0.00000E+00         0.00000E+00        -0.52226E+08
 
   -0.52962E+08         0.25875E+06         0.00000E+00
    0.25875E+06        -0.50002E+08         0.00000E+00
    0.00000E+00         0.00000E+00        -0.52222E+08
 
   -0.52942E+08         0.30474E+06         0.00000E+00
    0.30474E+06        -0.50003E+08         0.00000E+00
    0.00000E+00         0.00000E+00        -0.52219E+08
 
   -0.52922E+08         0.35045E+06         0.00000E+00
    0.35045E+06        -0.50004E+08         0.00000E+00
    0.00000E+00         0.00000E+00        -0.52215E+08
 
   -0.52902E+08         0.39587E+06         0.00000E+00
    0.39587E+06        -0.50005E+08         0.00000E+00
    0.00000E+00         0.00000E+00        -0.52211E+08
 
   -0.52882E+08         0.44101E+06         0.00000E+00
    0.44101E+06        -0.50006E+08         0.00000E+00
    0.00000E+00         0.00000E+00        -0.52207E+08
 
   -0.52863E+08         0.48587E+06         0.00000E+00
    0.48587E+06        -0.50007E+08         0.00000E+00
    0.00000E+00         0.00000E+00        -0.52204E+08
 
   -0.52843E+08         0.53047E+06         0.00000E+00
    0.53047E+06        -0.50009E+08         0.00000E+00
    0.00000E+00         0.00000E+00        -0.52200E+08
 
   -0.52823E+08         0.57480E+06         0.00000E+00
    0.57480E+06        -0.50010E+08         0.00000E+00
    0.00000E+00         0.00000E+00        -0.52196E+08
 
   -0.52804E+08         0.61887E+06         0.00000E+00
    0.61887E+06        -0.50012E+08         0.00000E+00
    0.00000E+00         0.00000E+00        -0.52193E+08
 
   -0.52784E+08         0.66270E+06         0.00000E+00
    0.66270E+06        -0.50014E+08         0.00000E+00
    0.00000E+00         0.00000E+00        -0.52189E+08
 
   -0.52765E+08         0.70627E+06         0.00000E+00
    0.70627E+06        -0.50016E+08         0.00000E+00
    0.00000E+00         0.00000E+00        -0.52186E+08
 
   -0.52745E+08         0.74960E+06         0.00000E+00
    0.74960E+06        -0.50018E+08         0.00000E+00
    0.00000E+00         0.00000E+00        -0.52183E+08
 
   -0.52726E+08         0.79269E+06         0.00000E+00
    0.79269E+06        -0.50020E+08         0.00000E+00
    0.00000E+00         0.00000E+00        -0.52179E+08
 
   -0.52706E+08         0.83555E+06         0.00000E+00
    0.83555E+06        -0.50022E+08         0.00000E+00
    0.00000E+00         0.00000E+00        -0.52176E+08
 
   -0.52687E+08         0.87818E+06         0.00000E+00
    0.87818E+06        -0.50025E+08         0.00000E+00
    0.00000E+00         0.00000E+00        -0.52173E+08
 
   -0.52668E+08         0.92058E+06         0.00000E+00
    0.92058E+06        -0.50028E+08         0.00000E+00
    0.00000E+00         0.00000E+00        -0.52169E+08
 
   -0.52649E+08         0.96277E+06         0.00000E+00
    0.96277E+06        -0.50031E+08         0.00000E+00
    0.00000E+00         0.00000E+00        -0.52166E+08
 
   -0.52630E+08         0.10047E+07         0.00000E+00
    0.10047E+07        -0.50034E+08         0.00000E+00
    0.00000E+00         0.00000E+00        -0.52163E+08
 
   -0.52610E+08         0.10465E+07         0.00000E+00
    0.10465E+07        -0.50037E+08         0.00000E+00
    0.00000E+00         0.00000E+00        -0.52160E+08
 
   -0.52591E+08         0.10880E+07         0.00000E+00
    0.10880E+07        -0.50040E+08         0.00000E+00
    0.00000E+00         0.00000E+00        -0.52157E+08
 
   -0.52572E+08         0.11294E+07         0.00000E+00
    0.11294E+07        -0.50044E+08         0.00000E+00
    0.00000E+00         0.00000E+00        -0.52154E+08
 
   -0.52553E+08         0.11705E+07         0.00000E+00
    0.11705E+07        -0.50047E+08         0.00000E+00
    0.00000E+00         0.00000E+00        -0.52151E+08
 
   -0.52534E+08         0.12114E+07         0.00000E+00
    0.12114E+07        -0.50051E+08         0.00000E+00
    0.00000E+00         0.00000E+00        -0.52148E+08
 
   -0.52515E+08         0.12521E+07         0.00000E+00
    0.12521E+07        -0.50055E+08         0.00000E+00
    0.00000E+00         0.00000E+00        -0.52145E+08
 
   -0.52496E+08         0.12927E+07         0.00000E+00
    0.12927E+07        -0.50060E+08         0.00000E+00
    0.00000E+00         0.00000E+00        -0.52142E+08
 
   -0.52477E+08         0.13330E+07         0.00000E+00
    0.13330E+07        -0.50064E+08         0.00000E+00
    0.00000E+00         0.00000E+00        -0.52139E+08
 
   -0.52458E+08         0.13731E+07         0.00000E+00
    0.13731E+07        -0.50069E+08         0.00000E+00
    0.00000E+00         0.00000E+00        -0.52136E+08
 
   -0.52439E+08         0.14131E+07         0.00000E+00
    0.14131E+07        -0.50073E+08         0.00000E+00
    0.00000E+00         0.00000E+00        -0.52134E+08
 
   -0.52419E+08         0.14528E+07         0.00000E+00
    0.14528E+07        -0.50079E+08         0.00000E+00
    0.00000E+00         0.00000E+00        -0.52131E+08
 
   -0.52400E+08         0.14924E+07         0.00000E+00
    0.14924E+07        -0.50084E+08         0.00000E+00
    0.00000E+00         0.00000E+00        -0.52128E+08
 
   -0.52381E+08         0.15318E+07         0.00000E+00
    0.15318E+07        -0.50089E+08         0.00000E+00
    0.00000E+00         0.00000E+00        -0.52126E+08
 
   -0.52361E+08         0.15710E+07         0.00000E+00
    0.15710E+07        -0.50095E+08         0.00000E+00
    0.00000E+00         0.00000E+00        -0.52123E+08
 
   -0.52342E+08         0.16100E+07         0.00000E+00
    0.16100E+07        -0.50101E+08         0.00000E+00
    0.00000E+00         0.00000E+00        -0.52120E+08
 
   -0.52322E+08         0.16488E+07         0.00000E+00
    0.16488E+07        -0.50107E+08         0.00000E+00
    0.00000E+00         0.00000E+00        -0.52118E+08
 
   -0.52303E+08         0.16875E+07         0.00000E+00
    0.16875E+07        -0.50113E+08         0.00000E+00
    0.00000E+00         0.00000E+00        -0.52115E+08
 
   -0.52283E+08         0.17259E+07         0.00000E+00
    0.17259E+07        -0.50120E+08         0.00000E+00
    0.00000E+00         0.00000E+00        -0.52113E+08
 
   -0.52263E+08         0.17642E+07         0.00000E+00
    0.17642E+07        -0.50127E+08         0.00000E+00
    0.00000E+00         0.00000E+00        -0.52110E+08
 
   -0.52243E+08         0.18023E+07         0.00000E+00
    0.18023E+07        -0.50134E+08         0.00000E+00
    0.00000E+00         0.00000E+00        -0.52108E+08
 
   -0.52223E+08         0.18402E+07         0.00000E+00
    0.18402E+07        -0.50142E+08         0.00000E+00
    0.00000E+00         0.00000E+00        -0.52105E+08
 
   -0.52203E+08         0.18779E+07         0.00000E+00
    0.18779E+07        -0.50149E+08         0.00000E+00
    0.00000E+00         0.00000E+00        -0.52103E+08
 
   -0.52183E+08         0.19154E+07         0.00000E+00
    0.19154E+07        -0.50157E+08         0.00000E+00
    0.00000E+00         0.00000E+00        -0.52100E+08
 
   -0.52162E+08         0.19527E+07         0.00000E+00
    0.19527E+07        -0.50165E+08         0.00000E+00
    0.00000E+00         0.00000E+00        -0.52098E+08
 
   -0.52142E+08         0.19898E+07         0.00000E+00
    0.19898E+07        -0.50174E+08         0.00000E+00
    0.00000E+00         0.00000E+00        -0.52095E+08
 
   -0.52121E+08         0.20268E+07         0.00000E+00
    0.20268E+07        -0.50183E+08         0.00000E+00
    0.00000E+00         0.00000E+00        -0.52093E+08
 
   -0.52100E+08         0.20635E+07         0.00000E+00
    0.20635E+07        -0.50192E+08         0.00000E+00
    0.00000E+00         0.00000E+00        -0.52091E+08
 
   -0.52827E+08         0.23830E+05         0.00000E+00
    0.23830E+05        -0.50000E+08         0.00000E+00
    0.00000E+00         0.00000E+00        -0.52054E+08
 
   -0.52808E+08         0.70728E+05         0.00000E+00
    0.70728E+05        -0.50000E+08         0.00000E+00
    0.00000E+00         0.00000E+00        -0.52050E+08
 
   -0.52789E+08         0.11731E+06         0.00000E+00
    0.11731E+06        -0.50001E+08         0.00000E+00
    0.00000E+00         0.00000E+00        -0.52046E+08
 
   -0.52771E+08         0.16357E+06         0.00000E+00
    0.16357E+06        -0.50001E+08         0.00000E+00
    0.00000E+00         0.00000E+00        -0.52043E+08
 
   -0.52752E+08         0.20953E+06         0.00000E+00
    0.20953E+06        -0.50001E+08         0.00000E+00
    0.00000E+00         0.00000E+00        -0.52039E+08
 
   -0.52733E+08         0.25518E+06         0.00000E+00
    0.25518E+06        -0.50002E+08         0.00000E+00
    0.00000E+00         0.00000E+00        -0.52035E+08
 
   -0.52715E+08         0.30054E+06         0.00000E+00
    0.30054E+06        -0.50003E+08         0.00000E+00
    0.00000E+00         0.00000E+00        -0.52032E+08
 
   -0.52696E+08         0.34560E+06         0.00000E+00
    0.34560E+06        -0.50004E+08         0.00000E+00
    0.00000E+00         0.00000E+00        -0.52028E+08
 
   -0.52678E+08         0.39037E+06         0.00000E+00
    0.39037E+06        -0.50005E+08         0.00000E+00
    0.00000E+00         0.00000E+00        -0.52025E+08
 
   -0.52659E+08         0.43486E+06         0.00000E+00
    0.43486E+06        -0.50006E+08         0.00000E+00
    0.00000E+00         0.00000E+00        -0.52021E+08
 
   -0.52641E+08         0.47908E+06         0.00000E+00
    0.47908E+06        -0.50007E+08         0.00000E+00
    0.00000E+00         0.00000E+00        -0.52018E+08
 
   -0.52622E+08         0.52301E+06         0.00000E+00
    0.52301E+06        -0.50009E+08         0.00000E+00
    0.00000E+00         0.00000E+00        -0.52015E+08
 
   -0.52604E+08         0.56668E+06         0.00000E+00
    0.56668E+06        -0.50010E+08         0.00000E+00
    0.00000E+00         0.00000E+00        -0.52011E+08
 
   -0.52586E+08         0.61008E+06         0.00000E+00
    0.61008E+06        -0.50012E+08         0.00000E+00
    0.00000E+00         0.00000E+00        -0.52008E+08
 
   -0.52567E+08         0.65321E+06         0.00000E+00
    0.65321E+06        -0.50014E+08         0.00000E+00
    0.00000E+00         0.00000E+00        -0.52005E+08
 
   -0.52549E+08         0.69609E+06         0.00000E+00
    0.69609E+06        -0.50016E+08         0.00000E+00
    0.00000E+00         0.00000E+00        -0.52001E+08
 
   -0.52531E+08         0.73872E+06         0.00000E+00
    0.73872E+06        -0.50018E+08         0.00000E+00
    0.00000E+00         0.00000E+00        -0.51998E+08
 
   -0.52513E+08         0.78109E+06         0.00000E+00
    0.78109E+06        -0.50020E+08         0.00000E+00
    0.00000E+00         0.00000E+00        -0.51995E+08
 
   -0.52495E+08         0.82322E+06         0.00000E+00
    0.82322E+06        -0.50022E+08         0.00000E+00
    0.00000E+00         0.00000E+00        -0.51992E+08
 
   -0.52476E+08         0.86510E+06         0.00000E+00
    0.86510E+06        -0.50025E+08         0.00000E+00
    0.00000E+00         0.00000E+00        -0.51989E+08
 
   -0.52458E+08         0.90675E+06         0.00000E+00
    0.90675E+06        -0.50028E+08         0.00000E+00
    0.00000E+00         0.00000E+00        -0.51986E+08
 
   -0.52440E+08         0.94815E+06         0.00000E+00
    0.94815E+06        -0.50030E+08         0.00000E+00
    0.00000E+00         0.00000E+00        -0.51983E+08
 
   -0.52422E+08         0.98933E+06         0.00000E+00
    0.98933E+06        -0.50033E+08         0.00000E+00
    0.00000E+00         0.00000E+00        -0.51980E+08
 
   -0.52404E+08         0.10303E+07         0.00000E+00
    0.10303E+07        -0.50036E+08         0.00000E+00
    0.00000E+00         0.00000E+00        -0.51977E+08
 
   -0.52386E+08         0.10710E+07         0.00000E+00
    0.10710E+07        -0.50040E+08         0.00000E+00
    0.00000E+00         0.00000E+00        -0.51974E+08
 
   -0.52368E+08         0.11115E+07         0.00000E+00
    0.11115E+07        -0.50043E+08         0.00000E+00
    0.00000E+00         0.00000E+00        -0.51971E+08
 
   -0.52350E+08         0.11517E+07         0.00000E+00
    0.11517E+07        -0.50047E+08         0.00000E+00
    0.00000E+00         0.00000E+00        -0.51969E+08
 
   -0.52332E+08         0.11918E+07         0.00000E+00
    0.11918E+07        -0.50051E+08         0.00000E+00
    0.00000E+00         0.00000E+00        -0.51966E+08
 
   -0.52314E+08         0.12316E+07         0.00000E+00
    0.12316E+07        -0.50055E+08         0.00000E+00
    0.00000E+00         0.00000E+00        -0.51963E+08
 
   -0.52296E+08         0.12712E+07         0.00000E+00
    0.12712E+07        -0.50059E+08         0.00000E+00
    0.00000E+00         0.00000E+00        -0.51960E+08
 
   -0.52278E+08         0.13106E+07         0.00000E+00
    0.13106E+07        -0.50063E+08         0.00000E+00
    0.00000E+00         0.00000E+00        -0.51958E+08
 
   -0.52260E+08         0.13497E+07         0.00000E+00
    0.13497E+07        -0.50068E+08         0.00000E+00
    0.00000E+00         0.00000E+00        -0.51955E+08
 
   -0.52242E+08         0.13887E+07         0.00000E+00
    0.13887E+07        -0.50072E+08         0.00000E+00
    0.00000E+00         0.00000E+00        -0.51952E+08
 
   -0.52224E+08         0.14274E+07         0.00000E+00
    0.14274E+07        -0.50077E+08         0.00000E+00
    0.00000E+00         0.00000E+00        -0.51950E+08
 
   -0.52205E+08         0.14660E+07         0.00000E+00
    0.14660E+07        -0.50082E+08         0.00000E+00
    0.00000E+00         0.00000E+00        -0.51947E+08
 
   -0.52187E+08         0.15043E+07         0.00000E+00
    0.15043E+07        -0.50087E+08         0.00000E+00
    0.00000E+00         0.00000E+00        -0.51945E+08
 
   -0.52169E+08         0.15424E+07         0.00000E+00
    0.15424E+07        -0.50093E+08         0.00000E+00
    0.00000E+00         0.00000E+00        -0.51942E+08
 
   -0.52150E+08         0.15803E+07         0.00000E+00
    0.15803E+07        -0.50099E+08         0.00000E+00
    0.00000E+00         0.00000E+00        -0.51940E+08
 
   -0.52132E+08         0.16180E+07         0.00000E+00
    0.16180E+07        -0.50105E+08         0.00000E+00
    0.00000E+00         0.00000E+00        -0.51937E+08
 
   -0.52113E+08         0.16555E+07         0.00000E+00
    0.16555E+07        -0.50111E+08         0.00000E+00
    0.00000E+00         0.00000E+00        -0.51935E+08
 
   -0.52094E+08         0.16927E+07         0.00000E+00
    0.16927E+07        -0.50117E+08         0.00000E+00
    0.00000E+00         0.00000E+00        -0.51932E+08
 
   -0.52076E+08         0.17298E+07         0.00000E+00
    0.17298E+07        -0.50124E+08         0.00000E+00
    0.00000E+00         0.00000E+00        -0.51930E+08
 
   -0.52057E+08         0.17666E+07         0.00000E+00
    0.17666E+07        -0.50131E+08         0.00000E+00
    0.00000E+00         0.00000E+00        -0.51928E+08
 
   -0.52038E+08         0.18032E+07         0.00000E+00
    0.18032E+07        -0.50138E+08         0.00000E+00
    0.00000E+00         0.00000E+00        -0.51925E+08
 
   -0.52018E+08         0.18396E+07         0.00000E+00
    0.18396E+07        -0.50145E+08         0.00000E+00
    0.00000E+00         0.00000E+00        -0.51923E+08
 
   -0.51999E+08         0.18758E+07         0.00000E+00
    0.18758E+07        -0.50153E+08         0.00000E+00
    0.00000E+00         0.00000E+00        -0.51921E+08
 
   -0.51980E+08         0.19118E+07         0.00000E+00
    0.19118E+07        -0.50160E+08         0.00000E+00
    0.00000E+00         0.00000E+00        -0.51918E+08
 
   -0.51960E+08         0.19475E+07         0.00000E+00
    0.19475E+07        -0.50169E+08         0.00000E+00
    0.00000E+00         0.00000E+00        -0.51916E+08
 
   -0.51940E+08         0.19831E+07         0.00000E+00
    0.19831E+07        -0.50177E+08         0.00000E+00
    0.00000E+00         0.00000E+00        -0.51914E+08
 
   -0.51920E+08         0.20184E+07         0.00000E+00
    0.20184E+07        -0.50186E+08         0.00000E+00
    0.00000E+00         0.00000E+00        -0.51912E+08
 
   -0.52593E+08         0.23497E+05         0.00000E+00
    0.23497E+05        -0.50000E+08         0.00000E+00
    0.00000E+00         0.00000E+00        -0.51872E+08
 
   -0.52576E+08         0.69745E+05         0.00000E+00
    0.69745E+05        -0.50000E+08         0.00000E+00
    0.00000E+00         0.00000E+00        -0.51868E+08
 
   -0.52559E+08         0.11568E+06         0.00000E+00
    0.11568E+06        -0.50000E+08         0.00000E+00
    0.00000E+00         0.00000E+00        -0.51865E+08
 
   -0.52542E+08         0.16131E+06         0.00000E+00
    0.16131E+06        -0.50001E+08         0.00000E+00
    0.00000E+00         0.00000E+00        -0.51861E+08
 
   -0.52525E+08         0.20663E+06         0.00000E+00
    0.20663E+06        -0.50001E+08         0.00000E+00
    0.00000E+00         0.00000E+00        -0.51858E+08
 
   -0.52507E+08         0.25165E+06         0.00000E+00
    0.25165E+06        -0.50002E+08         0.00000E+00
    0.00000E+00         0.00000E+00        -0.51855E+08
 
   -0.52490E+08         0.29637E+06         0.00000E+00
    0.29637E+06        -0.50003E+08         0.00000E+00
    0.00000E+00         0.00000E+00        -0.51851E+08
 
   -0.52473E+08         0.34080E+06         0.00000E+00
    0.34080E+06        -0.50004E+08         0.00000E+00
    0.00000E+00         0.00000E+00        -0.51848E+08
 
   -0.52456E+08         0.38494E+06         0.00000E+00
    0.38494E+06        -0.50005E+08         0.00000E+00
    0.00000E+00         0.00000E+00        -0.51845E+08
 
   -0.52439E+08         0.42879E+06         0.00000E+00
    0.42879E+06        -0.50006E+08         0.00000E+00
    0.00000E+00         0.00000E+00        -0.51842E+08
 
   -0.52422E+08         0.47236E+06         0.00000E+00
    0.47236E+06        -0.50007E+08         0.00000E+00
    0.00000E+00         0.00000E+00        -0.51839E+08
 
   -0.52405E+08         0.51565E+06         0.00000E+00
    0.51565E+06        -0.50008E+08         0.00000E+00
    0.00000E+00         0.00000E+00        -0.51836E+08
 
   -0.52388E+08         0.55867E+06         0.00000E+00
    0.55867E+06        -0.50010E+08         0.00000E+00
    0.00000E+00         0.00000E+00        -0.51833E+08
 
   -0.52371E+08         0.60141E+06         0.00000E+00
    0.60141E+06        -0.50012E+08         0.00000E+00
    0.00000E+00         0.00000E+00        -0.51830E+08
 
   -0.52354E+08         0.64388E+06         0.00000E+00
    0.64388E+06        -0.50013E+08         0.00000E+00
    0.00000E+00         0.00000E+00        -0.51827E+08
 
   -0.52337E+08         0.68609E+06         0.00000E+00
    0.68609E+06        -0.50015E+08         0.00000E+00
    0.00000E+00         0.00000E+00        -0.51824E+08
 
   -0.52320E+08         0.72803E+06         0.00000E+00
    0.72803E+06        -0.50017E+08         0.00000E+00
    0.00000E+00         0.00000E+00        -0.51821E+08
 
   -0.52303E+08         0.76972E+06         0.00000E+00
    0.76972E+06        -0.50020E+08         0.00000E+00
    0.00000E+00         0.00000E+00        -0.51818E+08
 
   -0.52286E+08         0.81114E+06         0.00000E+00
    0.81114E+06        -0.50022E+08         0.00000E+00
    0.00000E+00         0.00000E+00        -0.51815E+08
 
   -0.52269E+08         0.85231E+06         0.00000E+00
    0.85231E+06        -0.50024E+08         0.00000E+00
    0.00000E+00         0.00000E+00        -0.51812E+08
 
   -0.52253E+08         0.89323E+06         0.00000E+00
    0.89323E+06        -0.50027E+08         0.00000E+00
    0.00000E+00         0.00000E+00        -0.51809E+08
 
   -0.52236E+08         0.93389E+06         0.00000E+00
    0.93389E+06        -0.50030E+08         0.00000E+00
    0.00000E+00         0.00000E+00        -0.51806E+08
 
   -0.52219E+08         0.97431E+06         0.00000E+00
    0.97431E+06        -0.50032E+08         0.00000E+00
    0.00000E+00         0.00000E+00        -0.51804E+08
 
   -0.52202E+08         0.10145E+07         0.00000E+00
    0.10145E+07        -0.50035E+08         0.00000E+00
    0.00000E+00         0.00000E+00        -0.51801E+08
 
   -0.52185E+08         0.10544E+07         0.00000E+00
    0.10544E+07        -0.50039E+08         0.00000E+00
    0.00000E+00         0.00000E+00        -0.51798E+08
 
   -0.52168E+08         0.10941E+07         0.00000E+00
    0.10941E+07        -0.50042E+08         0.00000E+00
    0.00000E+00         0.00000E+00        -0.51796E+08
 
   -0.52152E+08         0.11335E+07         0.00000E+00
    0.11335E+07        -0.50045E+08         0.00000E+00
    0.00000E+00         0.00000E+00        -0.51793E+08
 
   -0.52135E+08         0.11728E+07         0.00000E+00
    0.11728E+07        -0.50049E+08         0.00000E+00
    0.00000E+00         0.00000E+00        -0.51790E+08
 
   -0.52118E+08         0.12117E+07         0.00000E+00
    0.12117E+07        -0.50053E+08         0.00000E+00
    0.00000E+00         0.00000E+00        -0.51788E+08
 
   -0.52101E+08         0.12505E+07         0.00000E+00
    0.12505E+07        -0.50057E+08         0.00000E+00
    0.00000E+00         0.00000E+00        -0.51785E+08
 
   -0.52084E+08         0.12890E+07         0.00000E+00
    0.12890E+07        -0.50061E+08         0.00000E+00
    0.00000E+00         0.00000E+00        -0.51783E+08
 
   -0.52067E+08         0.13272E+07         0.00000E+00
    0.13272E+07        -0.50065E+08         0.00000E+00
    0.00000E+00         0.00000E+00        -0.51780E+08
 
   -0.52050E+08         0.13652E+07         0.00000E+00
    0.13652E+07        -0.50070E+08         0.00000E+00
    0.00000E+00         0.00000E+00        -0.51778E+08
 
   -0.52033E+08         0.14030E+07         0.00000E+00
    0.14030E+07        -0.50074E+08         0.00000E+00
    0.00000E+00         0.00000E+00        -0.51775E+08
 
   -0.52016E+08         0.14406E+07         0.00000E+00
    0.14406E+07        -0.50079E+08         0.00000E+00
    0.00000E+00         0.00000E+00        -0.51773E+08
 
   -0.51998E+08         0.14779E+07         0.00000E+00
    0.14779E+07        -0.50084E+08         0.00000E+00
    0.00000E+00         0.00000E+00        -0.51771E+08
 
   -0.51981E+08         0.15150E+07         0.00000E+00
    0.15150E+07        -0.50090E+08         0.00000E+00
    0.00000E+00         0.00000E+00        -0.51768E+08
 
   -0.51964E+08         0.15519E+07         0.00000E+00
    0.15519E+07        -0.50095E+08         0.00000E+00
    0.00000E+00         0.00000E+00        -0.51766E+08
 
   -0.51946E+08         0.15885E+07         0.00000E+00
    0.15885E+07        -0.50101E+08         0.00000E+00
    0.00000E+00         0.00000E+00        -0.51764E+08
 
   -0.51929E+08         0.16249E+07         0.00000E+00
    0.16249E+07        -0.50107E+08         0.00000E+00
    0.00000E+00         0.00000E+00        -0.51761E+08
 
   -0.51911E+08         0.16611E+07         0.00000E+00
    0.16611E+07        -0.50113E+08         0.00000E+00
    0.00000E+00         0.00000E+00        -0.51759E+08
 
   -0.51894E+08         0.16970E+07         0.00000E+00
    0.16970E+07        -0.50119E+08         0.00000E+00
    0.00000E+00         0.00000E+00        -0.51757E+08
 
   -0.51876E+08         0.17327E+07         0.00000E+00
    0.17327E+07        -0.50125E+08         0.00000E+00
    0.00000E+00         0.00000E+00        -0.51755E+08
 
   -0.51858E+08         0.17681E+07         0.00000E+00
    0.17681E+07        -0.50132E+08         0.00000E+00
    0.00000E+00         0.00000E+00        -0.51752E+08
 
   -0.51840E+08         0.18033E+07         0.00000E+00
    0.18033E+07        -0.50139E+08         0.00000E+00
    0.00000E+00         0.00000E+00        -0.51750E+08
 
   -0.51822E+08         0.18383E+07         0.00000E+00
    0.18383E+07        -0.50146E+08         0.00000E+00
    0.00000E+00         0.00000E+00        -0.51748E+08
 
   -0.51804E+08         0.18730E+07         0.00000E+00
    0.18730E+07        -0.50154E+08         0.00000E+00
    0.00000E+00         0.00000E+00        -0.51746E+08
 
   -0.51785E+08         0.19075E+07         0.00000E+00
    0.19075E+07        -0.50161E+08         0.00000E+00
    0.00000E+00         0.00000E+00        -0.51744E+08
 
   -0.51767E+08         0.19417E+07         0.00000E+00
    0.19417E+07        -0.50169E+08         0.00000E+00
    0.00000E+00         0.00000E+00        -0.51742E+08
 
   -0.51748E+08         0.19757E+07         0.00000E+00
    0.19757E+07        -0.50177E+08         0.00000E+00
    0.00000E+00         0.00000E+00        -0.51739E+08
 
   -0.52363E+08         0.23172E+05         0.00000E+00
    0.23172E+05        -0.50000E+08         0.00000E+00
    0.00000E+00         0.00000E+00        -0.51696E+08
 
   -0.52347E+08         0.68787E+05         0.00000E+00
    0.68787E+05        -0.50000E+08         0.00000E+00
    0.00000E+00         0.00000E+00        -0.51692E+08
 
   -0.52332E+08         0.11410E+06         0.00000E+00
    0.11410E+06        -0.50000E+08         0.00000E+00
    0.00000E+00         0.00000E+00        -0.51689E+08
 
   -0.52316E+08         0.15910E+06         0.00000E+00
    0.15910E+06        -0.50001E+08         0.00000E+00
    0.00000E+00         0.00000E+00        -0.51686E+08
 
   -0.52300E+08         0.20380E+06         0.00000E+00
    0.20380E+06        -0.50001E+08         0.00000E+00
    0.00000E+00         0.00000E+00        -0.51683E+08
 
   -0.52285E+08         0.24821E+06         0.00000E+00
    0.24821E+06        -0.50002E+08         0.00000E+00
    0.00000E+00         0.00000E+00        -0.51680E+08
 
   -0.52269E+08         0.29232E+06         0.00000E+00
    0.29232E+06        -0.50003E+08         0.00000E+00
    0.00000E+00         0.00000E+00        -0.51677E+08
 
   -0.52253E+08         0.33613E+06         0.00000E+00
    0.33613E+06        -0.50004E+08         0.00000E+00
    0.00000E+00         0.00000E+00        -0.51674E+08
 
   -0.52238E+08         0.37966E+06         0.00000E+00
    0.37966E+06        -0.50005E+08         0.00000E+00
    0.00000E+00         0.00000E+00        -0.51671E+08
 
   -0.52222E+08         0.42290E+06         0.00000E+00
    0.42290E+06        -0.50006E+08         0.00000E+00
    0.00000E+00         0.00000E+00        -0.51668E+08
 
   -0.52206E+08         0.46585E+06         0.00000E+00
    0.46585E+06        -0.50007E+08         0.00000E+00
    0.00000E+00         0.00000E+00        -0.51666E+08
 
   -0.52191E+08         0.50852E+06         0.00000E+00
    0.50852E+06        -0.50008E+08         0.00000E+00
    0.00000E+00         0.00000E+00        -0.51663E+08
 
   -0.52175E+08         0.55091E+06         0.00000E+00
    0.55091E+06        -0.50010E+08         0.00000E+00
    0.00000E+00         0.00000E+00        -0.51660E+08
 
   -0.52159E+08         0.59303E+06         0.00000E+00
    0.59303E+06        -0.50011E+08         0.00000E+00
    0.00000E+00         0.00000E+00        -0.51657E+08
 
   -0.52144E+08         0.63487E+06         0.00000E+00
    0.63487E+06        -0.50013E+08         0.00000E+00
    0.00000E+00         0.00000E+00        -0.51654E+08
 
   -0.52128E+08         0.67643E+06         0.00000E+00
    0.67643E+06        -0.50015E+08         0.00000E+00
    0.00000E+00         0.00000E+00        -0.51652E+08
 
   -0.52113E+08         0.71773E+06         0.00000E+00
    0.71773E+06        -0.50017E+08         0.00000E+00
    0.00000E+00         0.00000E+00        -0.51649E+08
 
   -0.52097E+08         0.75875E+06         0.00000E+00
    0.75875E+06        -0.50019E+08         0.00000E+00
    0.00000E+00         0.00000E+00        -0.51646E+08
 
   -0.52082E+08         0.79951E+06         0.00000E+00
    0.79951E+06        -0.50021E+08         0.00000E+00
    0.00000E+00         0.00000E+00        -0.51644E+08
 
   -0.52066E+08         0.84000E+06         0.00000E+00
    0.84000E+06        -0.50023E+08         0.00000E+00
    0.00000E+00         0.00000E+00        -0.51641E+08
 
   -0.52050E+08         0.88024E+06         0.00000E+00
    0.88024E+06        -0.50026E+08         0.00000E+00
    0.00000E+00         0.00000E+00        -0.51638E+08
 
   -0.52035E+08         0.92020E+06         0.00000E+00
    0.92020E+06        -0.50028E+08         0.00000E+00
    0.00000E+00         0.00000E+00        -0.51636E+08
 
   -0.52019E+08         0.95991E+06         0.00000E+00
    0.95991E+06        -0.50031E+08         0.00000E+00
    0.00000E+00         0.00000E+00        -0.51633E+08
 
   -0.52004E+08         0.99936E+06         0.00000E+00
    0.99936E+06        -0.50034E+08         0.00000E+00
    0.00000E+00         0.00000E+00        -0.51631E+08
 
   -0.51988E+08         0.10386E+07         0.00000E+00
    0.10386E+07        -0.50037E+08         0.00000E+00
    0.00000E+00         0.00000E+00        -0.51628E+08
 
   -0.51972E+08         0.10775E+07         0.00000E+00
    0.10775E+07        -0.50040E+08         0.00000E+00
    0.00000E+00         0.00000E+00        -0.51626E+08
 
   -0.51957E+08         0.11162E+07         0.00000E+00
    0.11162E+07        -0.50043E+08         0.00000E+00
    0.00000E+00         0.00000E+00        -0.51623E+08
 
   -0.51941E+08         0.11546E+07         0.00000E+00
    0.11546E+07        -0.50047E+08         0.00000E+00
    0.00000E+00         0.00000E+00        -0.51621E+08
 
   -0.51926E+08         0.11928E+07         0.00000E+00
    0.11928E+07        -0.50050E+08         0.00000E+00
    0.00000E+00         0.00000E+00        -0.51619E+08
 
   -0.51910E+08         0.12307E+07         0.00000E+00
    0.12307E+07        -0.50054E+08         0.00000E+00
    0.00000E+00         0.00000E+00        -0.51616E+08
 
   -0.51894E+08         0.12684E+07         0.00000E+00
    0.12684E+07        -0.50058E+08         0.00000E+00
    0.00000E+00         0.00000E+00        -0.51614E+08
 
   -0.51878E+08         0.13058E+07         0.00000E+00
    0.13058E+07        -0.50062E+08         0.00000E+00
    0.00000E+00         0.00000E+00        -0.51612E+08
 
   -0.51863E+08         0.13430E+07         0.00000E+00
    0.13430E+07        -0.50066E+08         0.00000E+00
    0.00000E+00         0.00000E+00        -0.51609E+08
 
   -0.51847E+08         0.13799E+07         0.00000E+00
    0.13799E+07        -0.50071E+08         0.00000E+00
    0.00000E+00         0.00000E+00        -0.51607E+08
 
   -0.51831E+08         0.14165E+07         0.00000E+00
    0.14165E+07        -0.50075E+08         0.00000E+00
    0.00000E+00         0.00000E+00        -0.51605E+08
 
   -0.51815E+08         0.14529E+07         0.00000E+00
    0.14529E+07        -0.50080E+08         0.00000E+00
    0.00000E+00         0.00000E+00        -0.51603E+08
 
   -0.51799E+08         0.14891E+07         0.00000E+00
    0.14891E+07        -0.50085E+08         0.00000E+00
    0.00000E+00         0.00000E+00        -0.51601E+08
 
   -0.51783E+08         0.15250E+07         0.00000E+00
    0.15250E+07        -0.50090E+08         0.00000E+00
    0.00000E+00         0.00000E+00        -0.51598E+08
 
   -0.51766E+08         0.15607E+07         0.00000E+00
    0.15607E+07        -0.50095E+08         0.00000E+00
    0.00000E+00         0.00000E+00        -0.51596E+08
 
   -0.51750E+08         0.15961E+07         0.00000E+00
    0.15961E+07        -0.50101E+08         0.00000E+00
    0.00000E+00         0.00000E+00        -0.51594E+08
 
   -0.51734E+08         0.16312E+07         0.00000E+00
    0.16312E+07        -0.50107E+08         0.00000E+00
    0.00000E+00         0.00000E+00        -0.51592E+08
 
   -0.51717E+08         0.16661E+07         0.00000E+00
    0.16661E+07        -0.50112E+08         0.00000E+00
    0.00000E+00         0.00000E+00        -0.51590E+08
 
   -0.51701E+08         0.17007E+07         0.00000E+00
    0.17007E+07        -0.50119E+08         0.00000E+00
    0.00000E+00         0.00000E+00        -0.51588E+08
 
   -0.51684E+08         0.17351E+07         0.00000E+00
    0.17351E+07        -0.50125E+08         0.00000E+00
    0.00000E+00         0.00000E+00        -0.51586E+08
 
   -0.51667E+08         0.17692E+07         0.00000E+00
    0.17692E+07        -0.50131E+08         0.00000E+00
    0.00000E+00         0.00000E+00        -0.51584E+08
 
   -0.51650E+08         0.18031E+07         0.00000E+00
    0.18031E+07        -0.50138E+08         0.00000E+00
    0.00000E+00         0.00000E+00        -0.51582E+08
 
   -0.51633E+08         0.18366E+07         0.00000E+00
    0.18366E+07        -0.50145E+08         0.00000E+00
    0.00000E+00         0.00000E+00        -0.51580E+08
 
   -0.51616E+08         0.18700E+07         0.00000E+00
    0.18700E+07        -0.50152E+08         0.00000E+00
    0.00000E+00         0.00000E+00        -0.51578E+08
 
   -0.51599E+08         0.19030E+07         0.00000E+00
    0.19030E+07        -0.50159E+08         0.00000E+00
    0.00000E+00         0.00000E+00        -0.51576E+08
 
   -0.51582E+08         0.19358E+07         0.00000E+00
    0.19358E+07        -0.50167E+08         0.00000E+00
    0.00000E+00         0.00000E+00        -0.51574E+08
 
   -0.52136E+08         0.22861E+05         0.00000E+00
    0.22861E+05        -0.50000E+08         0.00000E+00
    0.00000E+00         0.00000E+00        -0.51525E+08
 
   -0.52121E+08         0.67872E+05         0.00000E+00
    0.67872E+05        -0.50000E+08         0.00000E+00
    0.00000E+00         0.00000E+00        -0.51522E+08
 
   -0.52107E+08         0.11258E+06         0.00000E+00
    0.11258E+06        -0.50000E+08         0.00000E+00
    0.00000E+00         0.00000E+00        -0.51520E+08
 
   -0.52093E+08         0.15699E+06         0.00000E+00
    0.15699E+06        -0.50001E+08         0.00000E+00
    0.00000E+00         0.00000E+00        -0.51517E+08
 
   -0.52079E+08         0.20111E+06         0.00000E+00
    0.20111E+06        -0.50001E+08         0.00000E+00
    0.00000E+00         0.00000E+00        -0.51514E+08
 
   -0.52065E+08         0.24493E+06         0.00000E+00
    0.24493E+06        -0.50002E+08         0.00000E+00
    0.00000E+00         0.00000E+00        -0.51511E+08
 
   -0.52050E+08         0.28845E+06         0.00000E+00
    0.28845E+06        -0.50003E+08         0.00000E+00
    0.00000E+00         0.00000E+00        -0.51509E+08
 
   -0.52036E+08         0.33169E+06         0.00000E+00
    0.33169E+06        -0.50003E+08         0.00000E+00
    0.00000E+00         0.00000E+00        -0.51506E+08
 
   -0.52022E+08         0.37463E+06         0.00000E+00
    0.37463E+06        -0.50004E+08         0.00000E+00
    0.00000E+00         0.00000E+00        -0.51503E+08
 
   -0.52008E+08         0.41729E+06         0.00000E+00
    0.41729E+06        -0.50005E+08         0.00000E+00
    0.00000E+00         0.00000E+00        -0.51501E+08
 
   -0.51994E+08         0.45966E+06         0.00000E+00
    0.45966E+06        -0.50006E+08         0.00000E+00
    0.00000E+00         0.00000E+00        -0.51498E+08
 
   -0.51979E+08         0.50174E+06         0.00000E+00
    0.50174E+06        -0.50008E+08         0.00000E+00
    0.00000E+00         0.00000E+00        -0.51495E+08
 
   -0.51965E+08         0.54354E+06         0.00000E+00
    0.54354E+06        -0.50009E+08         0.00000E+00
    0.00000E+00         0.00000E+00        -0.51493E+08
 
   -0.51951E+08         0.58507E+06         0.00000E+00
    0.58507E+06        -0.50011E+08         0.00000E+00
    0.00000E+00         0.00000E+00        -0.51490E+08
 
   -0.51937E+08         0.62631E+06         0.00000E+00
    0.62631E+06        -0.50012E+08         0.00000E+00
    0.00000E+00         0.00000E+00        -0.51488E+08
 
   -0.51923E+08         0.66727E+06         0.00000E+00
    0.66727E+06        -0.50014E+08         0.00000E+00
    0.00000E+00         0.00000E+00        -0.51485E+08
 
   -0.51908E+08         0.70796E+06         0.00000E+00
    0.70796E+06        -0.50016E+08         0.00000E+00
    0.00000E+00         0.00000E+00        -0.51483E+08
 
   -0.51894E+08         0.74837E+06         0.00000E+00
    0.74837E+06        -0.50018E+08         0.00000E+00
    0.00000E+00         0.00000E+00        -0.51480E+08
 
   -0.51880E+08         0.78850E+06         0.00000E+00
    0.78850E+06        -0.50020E+08         0.00000E+00
    0.00000E+00         0.00000E+00        -0.51478E+08
 
   -0.51866E+08         0.82837E+06         0.00000E+00
    0.82837E+06        -0.50022E+08         0.00000E+00
    0.00000E+00         0.00000E+00        -0.51476E+08
 
   -0.51851E+08         0.86796E+06         0.00000E+00
    0.86796E+06        -0.50024E+08         0.00000E+00
    0.00000E+00         0.00000E+00        -0.51473E+08
 
   -0.51837E+08         0.90728E+06         0.00000E+00
    0.90728E+06        -0.50027E+08         0.00000E+00
    0.00000E+00         0.00000E+00        -0.51471E+08
 
   -0.51823E+08         0.94633E+06         0.00000E+00
    0.94633E+06        -0.50029E+08         0.00000E+00
    0.00000E+00         0.00000E+00        -0.51469E+08
 
   -0.51809E+08         0.98511E+06         0.00000E+00
    0.98511E+06        -0.50032E+08         0.00000E+00
    0.00000E+00         0.00000E+00        -0.51466E+08
 
   -0.51794E+08         0.10236E+07         0.00000E+00
    0.10236E+07        -0.50035E+08         0.00000E+00
    0.00000E+00         0.00000E+00        -0.51464E+08
 
   -0.51780E+08         0.10619E+07         0.00000E+00
    0.10619E+07        -0.50038E+08         0.00000E+00
    0.00000E+00         0.00000E+00        -0.51462E+08
 
   -0.51766E+08         0.10998E+07         0.00000E+00
    0.10998E+07        -0.50041E+08         0.00000E+00
    0.00000E+00         0.00000E+00        -0.51460E+08
 
   -0.51752E+08         0.11376E+07         0.00000E+00
    0.11376E+07        -0.50044E+08         0.00000E+00
    0.00000E+00         0.00000E+00        -0.51457E+08
 
   -0.51737E+08         0.11750E+07         0.00000E+00
    0.11750E+07        -0.50047E+08         0.00000E+00
    0.00000E+00         0.00000E+00        -0.51455E+08
 
   -0.51723E+08         0.12122E+07         0.00000E+00
    0.12122E+07        -0.50051E+08         0.00000E+00
    0.00000E+00         0.00000E+00        -0.51453E+08
 
   -0.51708E+08         0.12491E+07         0.00000E+00
    0.12491E+07        -0.50054E+08         0.00000E+00
    0.00000E+00         0.00000E+00        -0.51451E+08
 
   -0.51694E+08         0.12857E+07         0.00000E+00
    0.12857E+07        -0.50058E+08         0.00000E+00
    0.00000E+00         0.00000E+00        -0.51449E+08
 
   -0.51679E+08         0.13221E+07         0.00000E+00
    0.13221E+07        -0.50062E+08         0.00000E+00
    0.00000E+00         0.00000E+00        -0.51447E+08
 
   -0.51665E+08         0.13582E+07         0.00000E+00
    0.13582E+07        -0.50066E+08         0.00000E+00
    0.00000E+00         0.00000E+00        -0.51445E+08
 
   -0.51650E+08         0.13940E+07         0.00000E+00
    0.13940E+07        -0.50071E+08         0.00000E+00
    0.00000E+00         0.00000E+00        -0.51443E+08
 
   -0.51635E+08         0.14296E+07         0.00000E+00
    0.14296E+07        -0.50075E+08         0.00000E+00
    0.00000E+00         0.00000E+00        -0.51441E+08
 
   -0.51621E+08         0.14649E+07         0.00000E+00
    0.14649E+07        -0.50079E+08         0.00000E+00
    0.00000E+00         0.00000E+00        -0.51439E+08
 
   -0.51606E+08         0.15000E+07         0.00000E+00
    0.15000E+07        -0.50084E+08         0.00000E+00
    0.00000E+00         0.00000E+00        -0.51437E+08
 
   -0.51591E+08         0.15347E+07         0.00000E+00
    0.15347E+07        -0.50089E+08         0.00000E+00
    0.00000E+00         0.00000E+00        -0.51435E+08
 
   -0.51576E+08         0.15692E+07         0.00000E+00
    0.15692E+07        -0.50094E+08         0.00000E+00
    0.00000E+00         0.00000E+00        -0.51433E+08
 
   -0.51561E+08         0.16034E+07         0.00000E+00
    0.16034E+07        -0.50099E+08         0.00000E+00
    0.00000E+00         0.00000E+00        -0.51431E+08
 
   -0.51546E+08         0.16374E+07         0.00000E+00
    0.16374E+07        -0.50105E+08         0.00000E+00
    0.00000E+00         0.00000E+00        -0.51429E+08
 
   -0.51531E+08         0.16711E+07         0.00000E+00
    0.16711E+07        -0.50110E+08         0.00000E+00
    0.00000E+00         0.00000E+00        -0.51427E+08
 
   -0.51515E+08         0.17044E+07         0.00000E+00
    0.17044E+07        -0.50116E+08         0.00000E+00
    0.00000E+00         0.00000E+00        -0.51425E+08
 
   -0.51500E+08         0.17376E+07         0.00000E+00
    0.17376E+07        -0.50122E+08         0.00000E+00
    0.00000E+00         0.00000E+00        -0.51423E+08
 
   -0.51484E+08         0.17704E+07         0.00000E+00
    0.17704E+07        -0.50128E+08         0.00000E+00
    0.00000E+00         0.00000E+00        -0.51421E+08
 
   -0.51469E+08         0.18029E+07         0.00000E+00
    0.18029E+07        -0.50135E+08         0.00000E+00
    0.00000E+00         0.00000E+00        -0.51419E+08
 
   -0.51453E+08         0.18352E+07         0.00000E+00
    0.18352E+07        -0.50141E+08         0.00000E+00
    0.00000E+00         0.00000E+00        -0.51418E+08
 
   -0.51437E+08         0.18672E+07         0.00000E+00
    0.18672E+07        -0.50148E+08         0.00000E+00
    0.00000E+00         0.00000E+00        -0.51416E+08
 
   -0.51421E+08         0.18989E+07         0.00000E+00
    0.18989E+07        -0.50155E+08         0.00000E+00
    0.00000E+00         0.00000E+00        -0.51414E+08
 
   -0.51911E+08         0.22569E+05         0.00000E+00
    0.22569E+05        -0.50000E+08         0.00000E+00
    0.00000E+00         0.00000E+00        -0.51360E+08
 
   -0.51899E+08         0.67014E+05         0.00000E+00
    0.67014E+05        -0.50000E+08         0.00000E+00
    0.00000E+00         0.00000E+00        -0.51357E+08
 
   -0.51886E+08         0.11116E+06         0.00000E+00
    0.11116E+06        -0.50000E+08         0.00000E+00
    0.00000E+00         0.00000E+00        -0.51355E+08
 
   -0.51873E+08         0.15502E+06         0.00000E+00
    0.15502E+06        -0.50001E+08         0.00000E+00
    0.00000E+00         0.00000E+00        -0.51352E+08
 
   -0.51860E+08         0.19858E+06         0.00000E+00
    0.19858E+06        -0.50001E+08         0.00000E+00
    0.00000E+00         0.00000E+00        -0.51350E+08
 
   -0.51848E+08         0.24186E+06         0.00000E+00
    0.24186E+06        -0.50002E+08         0.00000E+00
    0.00000E+00         0.00000E+00        -0.51347E+08
 
   -0.51835E+08         0.28484E+06         0.00000E+00
    0.28484E+06        -0.50002E+08         0.00000E+00
    0.00000E+00         0.00000E+00        -0.51345E+08
 
   -0.51822E+08         0.32753E+06         0.00000E+00
    0.32753E+06        -0.50003E+08         0.00000E+00
    0.00000E+00         0.00000E+00        -0.51342E+08
 
   -0.51809E+08         0.36993E+06         0.00000E+00
    0.36993E+06        -0.50004E+08         0.00000E+00
    0.00000E+00         0.00000E+00        -0.51340E+08
 
   -0.51797E+08         0.41205E+06         0.00000E+00
    0.41205E+06        -0.50005E+08         0.00000E+00
    0.00000E+00         0.00000E+00        -0.51338E+08
 
   -0.51784E+08         0.45387E+06         0.00000E+00
    0.45387E+06        -0.50006E+08         0.00000E+00
    0.00000E+00         0.00000E+00        -0.51335E+08
 
   -0.51771E+08         0.49542E+06         0.00000E+00
    0.49542E+06        -0.50007E+08         0.00000E+00
    0.00000E+00         0.00000E+00        -0.51333E+08
 
   -0.51758E+08         0.53667E+06         0.00000E+00
    0.53667E+06        -0.50008E+08         0.00000E+00
    0.00000E+00         0.00000E+00        -0.51331E+08
 
   -0.51745E+08         0.57765E+06         0.00000E+00
    0.57765E+06        -0.50010E+08         0.00000E+00
    0.00000E+00         0.00000E+00        -0.51328E+08
 
   -0.51733E+08         0.61833E+06         0.00000E+00
    0.61833E+06        -0.50011E+08         0.00000E+00
    0.00000E+00         0.00000E+00        -0.51326E+08
 
   -0.51720E+08         0.65874E+06         0.00000E+00
    0.65874E+06        -0.50013E+08         0.00000E+00
    0.00000E+00         0.00000E+00        -0.51324E+08
 
   -0.51707E+08         0.69887E+06         0.00000E+00
    0.69887E+06        -0.50014E+08         0.00000E+00
    0.00000E+00         0.00000E+00        -0.51322E+08
 
   -0.51694E+08         0.73871E+06         0.00000E+00
    0.73871E+06        -0.50016E+08         0.00000E+00
    0.00000E+00         0.00000E+00        -0.51320E+08
 
   -0.51681E+08         0.77827E+06         0.00000E+00
    0.77827E+06        -0.50018E+08         0.00000E+00
    0.00000E+00         0.00000E+00        -0.51317E+08
 
   -0.51669E+08         0.81756E+06         0.00000E+00
    0.81756E+06        -0.50020E+08         0.00000E+00
    0.00000E+00         0.00000E+00        -0.51315E+08
 
   -0.51656E+08         0.85656E+06         0.00000E+00
    0.85656E+06        -0.50022E+08         0.00000E+00
    0.00000E+00         0.00000E+00        -0.51313E+08
 
   -0.51643E+08         0.89528E+06         0.00000E+00
    0.89528E+06        -0.50025E+08         0.00000E+00
    0.00000E+00         0.00000E+00        -0.51311E+08
 
   -0.51630E+08         0.93373E+06         0.00000E+00
    0.93373E+06        -0.50027E+08         0.00000E+00
    0.00000E+00         0.00000E+00        -0.51309E+08
 
   -0.51617E+08         0.97190E+06         0.00000E+00
    0.97190E+06        -0.50029E+08         0.00000E+00
    0.00000E+00         0.00000E+00        -0.51307E+08
 
   -0.51604E+08         0.10098E+07         0.00000E+00
    0.10098E+07        -0.50032E+08         0.00000E+00
    0.00000E+00         0.00000E+00        -0.51305E+08
 
   -0.51591E+08         0.10474E+07         0.00000E+00
    0.10474E+07        -0.50035E+08         0.00000E+00
    0.00000E+00         0.00000E+00        -0.51303E+08
 
   -0.51578E+08         0.10847E+07         0.00000E+00
    0.10847E+07        -0.50037E+08         0.00000E+00
    0.00000E+00         0.00000E+00        -0.51301E+08
 
   -0.51565E+08         0.11218E+07         0.00000E+00
    0.11218E+07        -0.50040E+08         0.00000E+00
    0.00000E+00         0.00000E+00        -0.51299E+08
 
   -0.51552E+08         0.11586E+07         0.00000E+00
    0.11586E+07        -0.50044E+08         0.00000E+00
    0.00000E+00         0.00000E+00        -0.51297E+08
 
   -0.51539E+08         0.11951E+07         0.00000E+00
    0.11951E+07        -0.50047E+08         0.00000E+00
    0.00000E+00         0.00000E+00        -0.51295E+08
 
   -0.51526E+08         0.12313E+07         0.00000E+00
    0.12313E+07        -0.50050E+08         0.00000E+00
    0.00000E+00         0.00000E+00        -0.51293E+08
 
   -0.51513E+08         0.12672E+07         0.00000E+00
    0.12672E+07        -0.50054E+08         0.00000E+00
    0.00000E+00         0.00000E+00        -0.51291E+08
 
   -0.51500E+08         0.13029E+07         0.00000E+00
    0.13029E+07        -0.50057E+08         0.00000E+00
    0.00000E+00         0.00000E+00        -0.51289E+08
 
   -0.51487E+08         0.13383E+07         0.00000E+00
    0.13383E+07        -0.50061E+08         0.00000E+00
    0.00000E+00         0.00000E+00        -0.51287E+08
 
   -0.51473E+08         0.13734E+07         0.00000E+00
    0.13734E+07        -0.50065E+08         0.00000E+00
    0.00000E+00         0.00000E+00        -0.51285E+08
 
   -0.51460E+08         0.14082E+07         0.00000E+00
    0.14082E+07        -0.50069E+08         0.00000E+00
    0.00000E+00         0.00000E+00        -0.51284E+08
 
   -0.51447E+08         0.14427E+07         0.00000E+00
    0.14427E+07        -0.50073E+08         0.00000E+00
    0.00000E+00         0.00000E+00        -0.51282E+08
 
   -0.51433E+08         0.14770E+07         0.00000E+00
    0.14770E+07        -0.50077E+08         0.00000E+00
    0.00000E+00         0.00000E+00        -0.51280E+08
 
   -0.51420E+08         0.15109E+07         0.00000E+00
    0.15109E+07        -0.50082E+08         0.00000E+00
    0.00000E+00         0.00000E+00        -0.51278E+08
 
   -0.51406E+08         0.15446E+07         0.00000E+00
    0.15446E+07        -0.50086E+08         0.00000E+00
    0.00000E+00         0.00000E+00        -0.51276E+08
 
   -0.51393E+08         0.15780E+07         0.00000E+00
    0.15780E+07        -0.50091E+08         0.00000E+00
    0.00000E+00         0.00000E+00        -0.51275E+08
 
   -0.51379E+08         0.16111E+07         0.00000E+00
    0.16111E+07        -0.50096E+08         0.00000E+00
    0.00000E+00         0.00000E+00        -0.51273E+08
 
   -0.51365E+08         0.16439E+07         0.00000E+00
    0.16439E+07        -0.50101E+08         0.00000E+00
    0.00000E+00         0.00000E+00        -0.51271E+08
 
   -0.51351E+08         0.16764E+07         0.00000E+00
    0.16764E+07        -0.50106E+08         0.00000E+00
    0.00000E+00         0.00000E+00        -0.51269E+08
 
   -0.51337E+08         0.17086E+07         0.00000E+00
    0.17086E+07        -0.50112E+08         0.00000E+00
    0.00000E+00         0.00000E+00        -0.51268E+08
 
   -0.51323E+08         0.17405E+07         0.00000E+00
    0.17405E+07        -0.50117E+08         0.00000E+00
    0.00000E+00         0.00000E+00        -0.51266E+08
 
   -0.51309E+08         0.17721E+07         0.00000E+00
    0.17721E+07        -0.50123E+08         0.00000E+00
    0.00000E+00         0.00000E+00        -0.51264E+08
 
   -0.51295E+08         0.18035E+07         0.00000E+00
    0.18035E+07        -0.50129E+08         0.00000E+00
    0.00000E+00         0.00000E+00        -0.51263E+08
 
   -0.51280E+08         0.18345E+07         0.00000E+00
    0.18345E+07        -0.50135E+08         0.00000E+00
    0.00000E+00         0.00000E+00        -0.51261E+08
 
   -0.51266E+08         0.18652E+07         0.00000E+00
    0.18652E+07        -0.50141E+08         0.00000E+00
    0.00000E+00         0.00000E+00        -0.51260E+08
 
   -0.51690E+08         0.22302E+05         0.00000E+00
    0.22302E+05        -0.50000E+08         0.00000E+00
    0.00000E+00         0.00000E+00        -0.51199E+08
 
   -0.51678E+08         0.66228E+05         0.00000E+00
    0.66228E+05        -0.50000E+08         0.00000E+00
    0.00000E+00         0.00000E+00        -0.51196E+08
 
   -0.51667E+08         0.10986E+06         0.00000E+00
    0.10986E+06        -0.50000E+08         0.00000E+00
    0.00000E+00         0.00000E+00        -0.51194E+08
 
   -0.51656E+08         0.15321E+06         0.00000E+00
    0.15321E+06        -0.50001E+08         0.00000E+00
    0.00000E+00         0.00000E+00        -0.51192E+08
 
   -0.51645E+08         0.19627E+06         0.00000E+00
    0.19627E+06        -0.50001E+08         0.00000E+00
    0.00000E+00         0.00000E+00        -0.51190E+08
 
   -0.51633E+08         0.23905E+06         0.00000E+00
    0.23905E+06        -0.50002E+08         0.00000E+00
    0.00000E+00         0.00000E+00        -0.51188E+08
 
   -0.51622E+08         0.28153E+06         0.00000E+00
    0.28153E+06        -0.50002E+08         0.00000E+00
    0.00000E+00         0.00000E+00        -0.51186E+08
 
   -0.51611E+08         0.32373E+06         0.00000E+00
    0.32373E+06        -0.50003E+08         0.00000E+00
    0.00000E+00         0.00000E+00        -0.51183E+08
 
   -0.51599E+08         0.36563E+06         0.00000E+00
    0.36563E+06        -0.50004E+08         0.00000E+00
    0.00000E+00         0.00000E+00        -0.51181E+08
 
   -0.51588E+08         0.40726E+06         0.00000E+00
    0.40726E+06        -0.50004E+08         0.00000E+00
    0.00000E+00         0.00000E+00        -0.51179E+08
 
   -0.51577E+08         0.44859E+06         0.00000E+00
    0.44859E+06        -0.50005E+08         0.00000E+00
    0.00000E+00         0.00000E+00        -0.51177E+08
 
   -0.51565E+08         0.48964E+06         0.00000E+00
    0.48964E+06        -0.50006E+08         0.00000E+00
    0.00000E+00         0.00000E+00        -0.51175E+08
 
   -0.51554E+08         0.53040E+06         0.00000E+00
    0.53040E+06        -0.50008E+08         0.00000E+00
    0.00000E+00         0.00000E+00        -0.51173E+08
 
   -0.51543E+08         0.57087E+06         0.00000E+00
    0.57087E+06        -0.50009E+08         0.00000E+00
    0.00000E+00         0.00000E+00        -0.51171E+08
 
   -0.51531E+08         0.61106E+06         0.00000E+00
    0.61106E+06        -0.50010E+08         0.00000E+00
    0.00000E+00         0.00000E+00        -0.51169E+08
 
   -0.51520E+08         0.65097E+06         0.00000E+00
    0.65097E+06        -0.50012E+08         0.00000E+00
    0.00000E+00         0.00000E+00        -0.51167E+08
 
   -0.51508E+08         0.69058E+06         0.00000E+00
    0.69058E+06        -0.50013E+08         0.00000E+00
    0.00000E+00         0.00000E+00        -0.51165E+08
 
   -0.51497E+08         0.72991E+06         0.00000E+00
    0.72991E+06        -0.50015E+08         0.00000E+00
    0.00000E+00         0.00000E+00        -0.51163E+08
 
   -0.51486E+08         0.76896E+06         0.00000E+00
    0.76896E+06        -0.50016E+08         0.00000E+00
    0.00000E+00         0.00000E+00        -0.51161E+08
 
   -0.51474E+08         0.80772E+06         0.00000E+00
    0.80772E+06        -0.50018E+08         0.00000E+00
    0.00000E+00         0.00000E+00        -0.51159E+08
 
   -0.51463E+08         0.84619E+06         0.00000E+00
    0.84619E+06        -0.50020E+08         0.00000E+00
    0.00000E+00         0.00000E+00        -0.51157E+08
 
   -0.51451E+08         0.88438E+06         0.00000E+00
    0.88438E+06        -0.50022E+08         0.00000E+00
    0.00000E+00         0.00000E+00        -0.51155E+08
 
   -0.51440E+08         0.92228E+06         0.00000E+00
    0.92228E+06        -0.50024E+08         0.00000E+00
    0.00000E+00         0.00000E+00        -0.51154E+08
 
   -0.51428E+08         0.95990E+06         0.00000E+00
    0.95990E+06        -0.50026E+08         0.00000E+00
    0.00000E+00         0.00000E+00        -0.51152E+08
 
   -0.51417E+08         0.99723E+06         0.00000E+00
    0.99723E+06        -0.50029E+08         0.00000E+00
    0.00000E+00         0.00000E+00        -0.51150E+08
 
   -0.51405E+08         0.10343E+07         0.00000E+00
    0.10343E+07        -0.50031E+08         0.00000E+00
    0.00000E+00         0.00000E+00        -0.51148E+08
 
   -0.51394E+08         0.10710E+07         0.00000E+00
    0.10710E+07        -0.50034E+08         0.00000E+00
    0.00000E+00         0.00000E+00        -0.51146E+08
 
   -0.51382E+08         0.11075E+07         0.00000E+00
    0.11075E+07        -0.50036E+08         0.00000E+00
    0.00000E+00         0.00000E+00        -0.51145E+08
 
   -0.51371E+08         0.11437E+07         0.00000E+00
    0.11437E+07        -0.50039E+08         0.00000E+00
    0.00000E+00         0.00000E+00        -0.51143E+08
 
   -0.51359E+08         0.11796E+07         0.00000E+00
    0.11796E+07        -0.50042E+08         0.00000E+00
    0.00000E+00         0.00000E+00        -0.51141E+08
 
   -0.51347E+08         0.12152E+07         0.00000E+00
    0.12152E+07        -0.50045E+08         0.00000E+00
    0.00000E+00         0.00000E+00        -0.51139E+08
 
   -0.51336E+08         0.12505E+07         0.00000E+00
    0.12505E+07        -0.50048E+08         0.00000E+00
    0.00000E+00         0.00000E+00        -0.51138E+08
 
   -0.51324E+08         0.12855E+07         0.00000E+00
    0.12855E+07        -0.50051E+08         0.00000E+00
    0.00000E+00         0.00000E+00        -0.51136E+08
 
   -0.51312E+08         0.13202E+07         0.00000E+00
    0.13202E+07        -0.50055E+08         0.00000E+00
    0.00000E+00         0.00000E+00        -0.51134E+08
 
   -0.51300E+08         0.13546E+07         0.00000E+00
    0.13546E+07        -0.50058E+08         0.00000E+00
    0.00000E+00         0.00000E+00        -0.51133E+08
 
   -0.51289E+08         0.13888E+07         0.00000E+00
    0.13888E+07        -0.50062E+08         0.00000E+00
    0.00000E+00         0.00000E+00        -0.51131E+08
 
   -0.51277E+08         0.14226E+07         0.00000E+00
    0.14226E+07        -0.50065E+08         0.00000E+00
    0.00000E+00         0.00000E+00        -0.51129E+08
 
   -0.51265E+08         0.14562E+07         0.00000E+00
    0.14562E+07        -0.50069E+08         0.00000E+00
    0.00000E+00         0.00000E+00        -0.51128E+08
 
   -0.51253E+08         0.14894E+07         0.00000E+00
    0.14894E+07        -0.50073E+08         0.00000E+00
    0.00000E+00         0.00000E+00        -0.51126E+08
 
   -0.51241E+08         0.15224E+07         0.00000E+00
    0.15224E+07        -0.50077E+08         0.00000E+00
    0.00000E+00         0.00000E+00        -0.51125E+08
 
   -0.51228E+08         0.15550E+07         0.00000E+00
    0.15550E+07        -0.50082E+08         0.00000E+00
    0.00000E+00         0.00000E+00        -0.51123E+08
 
   -0.51216E+08         0.15873E+07         0.00000E+00
    0.15873E+07        -0.50086E+08         0.00000E+00
    0.00000E+00         0.00000E+00        -0.51122E+08
 
   -0.51204E+08         0.16194E+07         0.00000E+00
    0.16194E+07        -0.50091E+08         0.00000E+00
    0.00000E+00         0.00000E+00        -0.51120E+08
 
   -0.51192E+08         0.16511E+07         0.00000E+00
    0.16511E+07        -0.50095E+08         0.00000E+00
    0.00000E+00         0.00000E+00        -0.51119E+08
 
   -0.51179E+08         0.16825E+07         0.00000E+00
    0.16825E+07        -0.50100E+08         0.00000E+00
    0.00000E+00         0.00000E+00        -0.51117E+08
 
   -0.51167E+08         0.17136E+07         0.00000E+00
    0.17136E+07        -0.50105E+08         0.00000E+00
    0.00000E+00         0.00000E+00        -0.51116E+08
 
   -0.51154E+08         0.17444E+07         0.00000E+00
    0.17444E+07        -0.50110E+08         0.00000E+00
    0.00000E+00         0.00000E+00        -0.51114E+08
 
   -0.51141E+08         0.17749E+07         0.00000E+00
    0.17749E+07        -0.50116E+08         0.00000E+00
    0.00000E+00         0.00000E+00        -0.51113E+08
 
   -0.51128E+08         0.18050E+07         0.00000E+00
    0.18050E+07        -0.50121E+08         0.00000E+00
    0.00000E+00         0.00000E+00        -0.51111E+08
 
   -0.51115E+08         0.18349E+07         0.00000E+00
    0.18349E+07        -0.50127E+08         0.00000E+00
    0.00000E+00         0.00000E+00        -0.51110E+08
 
   -0.51470E+08         0.22062E+05         0.00000E+00
    0.22062E+05        -0.50000E+08         0.00000E+00
    0.00000E+00         0.00000E+00        -0.51042E+08
 
   -0.51461E+08         0.65525E+05         0.00000E+00
    0.65525E+05        -0.50000E+08         0.00000E+00
    0.00000E+00         0.00000E+00        -0.51040E+08
 
   -0.51451E+08         0.10870E+06         0.00000E+00
    0.10870E+06        -0.50000E+08         0.00000E+00
    0.00000E+00         0.00000E+00        -0.51038E+08
 
   -0.51441E+08         0.15160E+06         0.00000E+00
    0.15160E+06        -0.50001E+08         0.00000E+00
    0.00000E+00         0.00000E+00        -0.51036E+08
 
   -0.51431E+08         0.19421E+06         0.00000E+00
    0.19421E+06        -0.50001E+08         0.00000E+00
    0.00000E+00         0.00000E+00        -0.51034E+08
 
   -0.51421E+08         0.23654E+06         0.00000E+00
    0.23654E+06        -0.50001E+08         0.00000E+00
    0.00000E+00         0.00000E+00        -0.51032E+08
 
   -0.51411E+08         0.27858E+06         0.00000E+00
    0.27858E+06        -0.50002E+08         0.00000E+00
    0.00000E+00         0.00000E+00        -0.51030E+08
 
   -0.51402E+08         0.32033E+06         0.00000E+00
    0.32033E+06        -0.50002E+08         0.00000E+00
    0.00000E+00         0.00000E+00        -0.51028E+08
 
   -0.51392E+08         0.36180E+06         0.00000E+00
    0.36180E+06        -0.50003E+08         0.00000E+00
    0.00000E+00         0.00000E+00        -0.51027E+08
 
   -0.51382E+08         0.40299E+06         0.00000E+00
    0.40299E+06        -0.50004E+08         0.00000E+00
    0.00000E+00         0.00000E+00        -0.51025E+08
 
   -0.51372E+08         0.44388E+06         0.00000E+00
    0.44388E+06        -0.50005E+08         0.00000E+00
    0.00000E+00         0.00000E+00        -0.51023E+08
 
   -0.51362E+08         0.48449E+06         0.00000E+00
    0.48449E+06        -0.50006E+08         0.00000E+00
    0.00000E+00         0.00000E+00        -0.51021E+08
 
   -0.51352E+08         0.52481E+06         0.00000E+00
    0.52481E+06        -0.50007E+08         0.00000E+00
    0.00000E+00         0.00000E+00        -0.51019E+08
 
   -0.51342E+08         0.56485E+06         0.00000E+00
    0.56485E+06        -0.50008E+08         0.00000E+00
    0.00000E+00         0.00000E+00        -0.51018E+08
 
   -0.51332E+08         0.60459E+06         0.00000E+00
    0.60459E+06        -0.50009E+08         0.00000E+00
    0.00000E+00         0.00000E+00        -0.51016E+08
 
   -0.51322E+08         0.64405E+06         0.00000E+00
    0.64405E+06        -0.50010E+08         0.00000E+00
    0.00000E+00         0.00000E+00        -0.51014E+08
 
   -0.51312E+08         0.68322E+06         0.00000E+00
    0.68322E+06        -0.50011E+08         0.00000E+00
    0.00000E+00         0.00000E+00        -0.51012E+08
 
   -0.51302E+08         0.72209E+06         0.00000E+00
    0.72209E+06        -0.50013E+08         0.00000E+00
    0.00000E+00         0.00000E+00        -0.51011E+08
 
   -0.51292E+08         0.76068E+06         0.00000E+00
    0.76068E+06        -0.50014E+08         0.00000E+00
    0.00000E+00         0.00000E+00        -0.51009E+08
 
   -0.51282E+08         0.79898E+06         0.00000E+00
    0.79898E+06        -0.50016E+08         0.00000E+00
    0.00000E+00         0.00000E+00        -0.51007E+08
 
   -0.51272E+08         0.83698E+06         0.00000E+00
    0.83698E+06        -0.50018E+08         0.00000E+00
    0.00000E+00         0.00000E+00        -0.51006E+08
 
   -0.51262E+08         0.87470E+06         0.00000E+00
    0.87470E+06        -0.50019E+08         0.00000E+00
    0.00000E+00         0.00000E+00        -0.51004E+08
 
   -0.51252E+08         0.91212E+06         0.00000E+00
    0.91212E+06        -0.50021E+08         0.00000E+00
    0.00000E+00         0.00000E+00        -0.51002E+08
 
   -0.51242E+08         0.94925E+06         0.00000E+00
    0.94925E+06        -0.50023E+08         0.00000E+00
    0.00000E+00         0.00000E+00        -0.51001E+08
 
   -0.51232E+08         0.98609E+06         0.00000E+00
    0.98609E+06        -0.50025E+08         0.00000E+00
    0.00000E+00         0.00000E+00        -0.50999E+08
 
   -0.51222E+08         0.10226E+07         0.00000E+00
    0.10226E+07        -0.50027E+08         0.00000E+00
    0.00000E+00         0.00000E+00        -0.50998E+08
 
   -0.51212E+08         0.10589E+07         0.00000E+00
    0.10589E+07        -0.50030E+08         0.00000E+00
    0.00000E+00         0.00000E+00        -0.50996E+08
 
   -0.51202E+08         0.10948E+07         0.00000E+00
    0.10948E+07        -0.50032E+08         0.00000E+00
    0.00000E+00         0.00000E+00        -0.50995E+08
 
   -0.51192E+08         0.11305E+07         0.00000E+00
    0.11305E+07        -0.50034E+08         0.00000E+00
    0.00000E+00         0.00000E+00        -0.50993E+08
 
   -0.51182E+08         0.11658E+07         0.00000E+00
    0.11658E+07        -0.50037E+08         0.00000E+00
    0.00000E+00         0.00000E+00        -0.50991E+08
 
   -0.51171E+08         0.12009E+07         0.00000E+00
    0.12009E+07        -0.50039E+08         0.00000E+00
    0.00000E+00         0.00000E+00        -0.50990E+08
 
   -0.51161E+08         0.12356E+07         0.00000E+00
    0.12356E+07        -0.50042E+08         0.00000E+00
    0.00000E+00         0.00000E+00        -0.50988E+08
 
   -0.51151E+08         0.12701E+07         0.00000E+00
    0.12701E+07        -0.50045E+08         0.00000E+00
    0.00000E+00         0.00000E+00        -0.50987E+08
 
   -0.51141E+08         0.13042E+07         0.00000E+00
    0.13042E+07        -0.50048E+08         0.00000E+00
    0.00000E+00         0.00000E+00        -0.50986E+08
 
   -0.51130E+08         0.13381E+07         0.00000E+00
    0.13381E+07        -0.50051E+08         0.00000E+00
    0.00000E+00         0.00000E+00        -0.50984E+08
 
   -0.51120E+08         0.13716E+07         0.00000E+00
    0.13716E+07        -0.50054E+08         0.00000E+00
    0.00000E+00         0.00000E+00        -0.50983E+08
 
   -0.51110E+08         0.14049E+07         0.00000E+00
    0.14049E+07        -0.50057E+08         0.00000E+00
    0.00000E+00         0.00000E+00        -0.50981E+08
 
   -0.51099E+08         0.14378E+07         0.00000E+00
    0.14378E+07        -0.50061E+08         0.00000E+00
    0.00000E+00         0.00000E+00        -0.50980E+08
 
   -0.51089E+08         0.14704E+07         0.00000E+00
    0.14704E+07        -0.50064E+08         0.00000E+00
    0.00000E+00         0.00000E+00        -0.50979E+08
 
   -0.51078E+08         0.15027E+07         0.00000E+00
    0.15027E+07        -0.50068E+08         0.00000E+00
    0.00000E+00         0.00000E+00        -0.50977E+08
 
   -0.51068E+08         0.15347E+07         0.00000E+00
    0.15347E+07        -0.50071E+08         0.00000E+00
    0.00000E+00         0.00000E+00        -0.50976E+08
 
   -0.51057E+08         0.15664E+07         0.00000E+00
    0.15664E+07        -0.50075E+08         0.00000E+00
    0.00000E+00         0.00000E+00        -0.50974E+08
 
   -0.51046E+08         0.15977E+07         0.00000E+00
    0.15977E+07        -0.50079E+08         0.00000E+00
    0.00000E+00         0.00000E+00        -0.50973E+08
 
   -0.51035E+08         0.16288E+07         0.00000E+00
    0.16288E+07        -0.50083E+08         0.00000E+00
    0.00000E+00         0.00000E+00        -0.50972E+08
 
   -0.51025E+08         0.16595E+07         0.00000E+00
    0.16595E+07        -0.50088E+08         0.00000E+00
    0.00000E+00         0.00000E+00        -0.50970E+08
 
   -0.51014E+08         0.16899E+07         0.00000E+00
    0.16899E+07        -0.50092E+08         0.00000E+00
    0.00000E+00         0.00000E+00        -0.50969E+08
 
   -0.51003E+08         0.17199E+07         0.00000E+00
    0.17199E+07        -0.50096E+08         0.00000E+00
    0.00000E+00         0.00000E+00        -0.50968E+08
 
   -0.50992E+08         0.17497E+07         0.00000E+00
    0.17497E+07        -0.50101E+08         0.00000E+00
    0.00000E+00         0.00000E+00        -0.50967E+08
 
   -0.50980E+08         0.17791E+07         0.00000E+00
    0.17791E+07        -0.50106E+08         0.00000E+00
    0.00000E+00         0.00000E+00        -0.50965E+08
 
   -0.50969E+08         0.18081E+07         0.00000E+00
    0.18081E+07        -0.50111E+08         0.00000E+00
    0.00000E+00         0.00000E+00        -0.50964E+08
 
   -0.51253E+08         0.21855E+05         0.00000E+00
    0.21855E+05        -0.50000E+08         0.00000E+00
    0.00000E+00         0.00000E+00        -0.50888E+08
 
   -0.51245E+08         0.64917E+05         0.00000E+00
    0.64917E+05        -0.50000E+08         0.00000E+00
    0.00000E+00         0.00000E+00        -0.50887E+08
 
   -0.51237E+08         0.10770E+06         0.00000E+00
    0.10770E+06        -0.50000E+08         0.00000E+00
    0.00000E+00         0.00000E+00        -0.50885E+08
 
   -0.51228E+08         0.15020E+06         0.00000E+00
    0.15020E+06        -0.50000E+08         0.00000E+00
    0.00000E+00         0.00000E+00        -0.50883E+08
 
   -0.51220E+08         0.19243E+06         0.00000E+00
    0.19243E+06        -0.50001E+08         0.00000E+00
    0.00000E+00         0.00000E+00        -0.50882E+08
 
   -0.51211E+08         0.23437E+06         0.00000E+00
    0.23437E+06        -0.50001E+08         0.00000E+00
    0.00000E+00         0.00000E+00        -0.50880E+08
 
   -0.51203E+08         0.27603E+06         0.00000E+00
    0.27603E+06        -0.50002E+08         0.00000E+00
    0.00000E+00         0.00000E+00        -0.50878E+08
 
   -0.51194E+08         0.31740E+06         0.00000E+00
    0.31740E+06        -0.50002E+08         0.00000E+00
    0.00000E+00         0.00000E+00        -0.50877E+08
 
   -0.51186E+08         0.35850E+06         0.00000E+00
    0.35850E+06        -0.50003E+08         0.00000E+00
    0.00000E+00         0.00000E+00        -0.50875E+08
 
   -0.51177E+08         0.39930E+06         0.00000E+00
    0.39930E+06        -0.50003E+08         0.00000E+00
    0.00000E+00         0.00000E+00        -0.50874E+08
 
   -0.51169E+08         0.43982E+06         0.00000E+00
    0.43982E+06        -0.50004E+08         0.00000E+00
    0.00000E+00         0.00000E+00        -0.50872E+08
 
   -0.51160E+08         0.48005E+06         0.00000E+00
    0.48005E+06        -0.50005E+08         0.00000E+00
    0.00000E+00         0.00000E+00        -0.50871E+08
 
   -0.51152E+08         0.52000E+06         0.00000E+00
    0.52000E+06        -0.50006E+08         0.00000E+00
    0.00000E+00         0.00000E+00        -0.50869E+08
 
   -0.51144E+08         0.55965E+06         0.00000E+00
    0.55965E+06        -0.50007E+08         0.00000E+00
    0.00000E+00         0.00000E+00        -0.50868E+08
 
   -0.51135E+08         0.59901E+06         0.00000E+00
    0.59901E+06        -0.50008E+08         0.00000E+00
    0.00000E+00         0.00000E+00        -0.50866E+08
 
   -0.51127E+08         0.63809E+06         0.00000E+00
    0.63809E+06        -0.50009E+08         0.00000E+00
    0.00000E+00         0.00000E+00        -0.50865E+08
 
   -0.51118E+08         0.67687E+06         0.00000E+00
    0.67687E+06        -0.50010E+08         0.00000E+00
    0.00000E+00         0.00000E+00        -0.50863E+08
 
   -0.51110E+08         0.71536E+06         0.00000E+00
    0.71536E+06        -0.50011E+08         0.00000E+00
    0.00000E+00         0.00000E+00        -0.50862E+08
 
   -0.51101E+08         0.75355E+06         0.00000E+00
    0.75355E+06        -0.50012E+08         0.00000E+00
    0.00000E+00         0.00000E+00        -0.50860E+08
 
   -0.51092E+08         0.79145E+06         0.00000E+00
    0.79145E+06        -0.50014E+08         0.00000E+00
    0.00000E+00         0.00000E+00        -0.50859E+08
 
   -0.51084E+08         0.82905E+06         0.00000E+00
    0.82905E+06        -0.50015E+08         0.00000E+00
    0.00000E+00         0.00000E+00        -0.50857E+08
 
   -0.51075E+08         0.86636E+06         0.00000E+00
    0.86636E+06        -0.50016E+08         0.00000E+00
    0.00000E+00         0.00000E+00        -0.50856E+08
 
   -0.51067E+08         0.90337E+06         0.00000E+00
    0.90337E+06        -0.50018E+08         0.00000E+00
    0.00000E+00         0.00000E+00        -0.50855E+08
 
   -0.51058E+08         0.94008E+06         0.00000E+00
    0.94008E+06        -0.50020E+08         0.00000E+00
    0.00000E+00         0.00000E+00        -0.50853E+08
 
   -0.51050E+08         0.97650E+06         0.00000E+00
    0.97650E+06        -0.50021E+08         0.00000E+00
    0.00000E+00         0.00000E+00        -0.50852E+08
 
   -0.51041E+08         0.10126E+07         0.00000E+00
    0.10126E+07        -0.50023E+08         0.00000E+00
    0.00000E+00         0.00000E+00        -0.50851E+08
 
   -0.51033E+08         0.10484E+07         0.00000E+00
    0.10484E+07        -0.50025E+08         0.00000E+00
    0.00000E+00         0.00000E+00        -0.50849E+08
 
   -0.51024E+08         0.10839E+07         0.00000E+00
    0.10839E+07        -0.50027E+08         0.00000E+00
    0.00000E+00         0.00000E+00        -0.50848E+08
 
   -0.51015E+08         0.11191E+07         0.00000E+00
    0.11191E+07        -0.50029E+08         0.00000E+00
    0.00000E+00         0.00000E+00        -0.50847E+08
 
   -0.51007E+08         0.11540E+07         0.00000E+00
    0.11540E+07        -0.50031E+08         0.00000E+00
    0.00000E+00         0.00000E+00        -0.50845E+08
 
   -0.50998E+08         0.11886E+07         0.00000E+00
    0.11886E+07        -0.50033E+08         0.00000E+00
    0.00000E+00         0.00000E+00        -0.50844E+08
 
   -0.50989E+08         0.12229E+07         0.00000E+00
    0.12229E+07        -0.50036E+08         0.00000E+00
    0.00000E+00         0.00000E+00        -0.50843E+08
 
   -0.50981E+08         0.12569E+07         0.00000E+00
    0.12569E+07        -0.50038E+08         0.00000E+00
    0.00000E+00         0.00000E+00        -0.50842E+08
 
   -0.50972E+08         0.12905E+07         0.00000E+00
    0.12905E+07        -0.50040E+08         0.00000E+00
    0.00000E+00         0.00000E+00        -0.50840E+08
 
   -0.50963E+08         0.13239E+07         0.00000E+00
    0.13239E+07        -0.50043E+08         0.00000E+00
    0.00000E+00         0.00000E+00        -0.50839E+08
 
   -0.50954E+08         0.13569E+07         0.00000E+00
    0.13569E+07        -0.50046E+08         0.00000E+00
    0.00000E+00         0.00000E+00        -0.50838E+08
 
   -0.50946E+08         0.13896E+07         0.00000E+00
    0.13896E+07        -0.50048E+08         0.00000E+00
    0.00000E+00         0.00000E+00        -0.50837E+08
 
   -0.50937E+08         0.14220E+07         0.00000E+00
    0.14220E+07        -0.50051E+08         0.00000E+00
    0.00000E+00         0.00000E+00        -0.50835E+08
 
   -0.50928E+08         0.14541E+07         0.00000E+00
    0.14541E+07        -0.50054E+08         0.00000E+00
    0.00000E+00         0.00000E+00        -0.50834E+08
 
   -0.50919E+08         0.14858E+07         0.00000E+00
    0.14858E+07        -0.50057E+08         0.00000E+00
    0.00000E+00         0.00000E+00        -0.50833E+08
 
   -0.50910E+08         0.15172E+07         0.00000E+00
    0.15172E+07        -0.50060E+08         0.00000E+00
    0.00000E+00         0.00000E+00        -0.50832E+08
 
   -0.50901E+08         0.15484E+07         0.00000E+00
    0.15484E+07        -0.50064E+08         0.00000E+00
    0.00000E+00         0.00000E+00        -0.50831E+08
 
   -0.50892E+08         0.15791E+07         0.00000E+00
    0.15791E+07        -0.50067E+08         0.00000E+00
    0.00000E+00         0.00000E+00        -0.50830E+08
 
   -0.50883E+08         0.16096E+07         0.00000E+00
    0.16096E+07        -0.50070E+08         0.00000E+00
    0.00000E+00         0.00000E+00        -0.50829E+08
 
   -0.50873E+08         0.16397E+07         0.00000E+00
    0.16397E+07        -0.50074E+08         0.00000E+00
    0.00000E+00         0.00000E+00        -0.50827E+08
 
   -0.50864E+08         0.16694E+07         0.00000E+00
    0.16694E+07        -0.50078E+08         0.00000E+00
    0.00000E+00         0.00000E+00        -0.50826E+08
 
   -0.50855E+08         0.16989E+07         0.00000E+00
    0.16989E+07        -0.50082E+08         0.00000E+00
    0.00000E+00         0.00000E+00        -0.50825E+08
 
   -0.50845E+08         0.17280E+07         0.00000E+00
    0.17280E+07        -0.50085E+08         0.00000E+00
    0.00000E+00         0.00000E+00        -0.50824E+08
 
   -0.50836E+08         0.17567E+07         0.00000E+00
    0.17567E+07        -0.50090E+08         0.00000E+00
    0.00000E+00         0.00000E+00        -0.50823E+08
 
   -0.50826E+08         0.17851E+07         0.00000E+00
    0.17851E+07        -0.50094E+08         0.00000E+00
    0.00000E+00         0.00000E+00        -0.50822E+08
 
   -0.51038E+08         0.21683E+05         0.00000E+00
    0.21683E+05        -0.50000E+08         0.00000E+00
    0.00000E+00         0.00000E+00        -0.50738E+08
 
   -0.51031E+08         0.64412E+05         0.00000E+00
    0.64412E+05        -0.50000E+08         0.00000E+00
    0.00000E+00         0.00000E+00        -0.50736E+08
 
   -0.51024E+08         0.10687E+06         0.00000E+00
    0.10687E+06        -0.50000E+08         0.00000E+00
    0.00000E+00         0.00000E+00        -0.50735E+08
 
   -0.51017E+08         0.14905E+06         0.00000E+00
    0.14905E+06        -0.50000E+08         0.00000E+00
    0.00000E+00         0.00000E+00        -0.50734E+08
 
   -0.51010E+08         0.19095E+06         0.00000E+00
    0.19095E+06        -0.50001E+08         0.00000E+00
    0.00000E+00         0.00000E+00        -0.50732E+08
 
   -0.51003E+08         0.23257E+06         0.00000E+00
    0.23257E+06        -0.50001E+08         0.00000E+00
    0.00000E+00         0.00000E+00        -0.50731E+08
 
   -0.50996E+08         0.27392E+06         0.00000E+00
    0.27392E+06        -0.50001E+08         0.00000E+00
    0.00000E+00         0.00000E+00        -0.50730E+08
 
   -0.50989E+08         0.31498E+06         0.00000E+00
    0.31498E+06        -0.50002E+08         0.00000E+00
    0.00000E+00         0.00000E+00        -0.50728E+08
 
   -0.50982E+08         0.35576E+06         0.00000E+00
    0.35576E+06        -0.50002E+08         0.00000E+00
    0.00000E+00         0.00000E+00        -0.50727E+08
 
   -0.50975E+08         0.39625E+06         0.00000E+00
    0.39625E+06        -0.50003E+08         0.00000E+00
    0.00000E+00         0.00000E+00        -0.50726E+08
 
   -0.50968E+08         0.43646E+06         0.00000E+00
    0.43646E+06        -0.50003E+08         0.00000E+00
    0.00000E+00         0.00000E+00        -0.50724E+08
 
   -0.50961E+08         0.47638E+06         0.00000E+00
    0.47638E+06        -0.50004E+08         0.00000E+00
    0.00000E+00         0.00000E+00        -0.50723E+08
 
   -0.50954E+08         0.51601E+06         0.00000E+00
    0.51601E+06        -0.50005E+08         0.00000E+00
    0.00000E+00         0.00000E+00        -0.50722E+08
 
   -0.50947E+08         0.55535E+06         0.00000E+00
    0.55535E+06        -0.50005E+08         0.00000E+00
    0.00000E+00         0.00000E+00        -0.50721E+08
 
   -0.50940E+08         0.59440E+06         0.00000E+00
    0.59440E+06        -0.50006E+08         0.00000E+00
    0.00000E+00         0.00000E+00        -0.50719E+08
 
   -0.50933E+08         0.63316E+06         0.00000E+00
    0.63316E+06        -0.50007E+08         0.00000E+00
    0.00000E+00         0.00000E+00        -0.50718E+08
 
   -0.50926E+08         0.67162E+06         0.00000E+00
    0.67162E+06        -0.50008E+08         0.00000E+00
    0.00000E+00         0.00000E+00        -0.50717E+08
 
   -0.50919E+08         0.70979E+06         0.00000E+00
    0.70979E+06        -0.50009E+08         0.00000E+00
    0.00000E+00         0.00000E+00        -0.50716E+08
 
   -0.50912E+08         0.74766E+06         0.00000E+00
    0.74766E+06        -0.50010E+08         0.00000E+00
    0.00000E+00         0.00000E+00        -0.50714E+08
 
   -0.50905E+08         0.78523E+06         0.00000E+00
    0.78523E+06        -0.50011E+08         0.00000E+00
    0.00000E+00         0.00000E+00        -0.50713E+08
 
   -0.50898E+08         0.82250E+06         0.00000E+00
    0.82250E+06        -0.50012E+08         0.00000E+00
    0.00000E+00         0.00000E+00        -0.50712E+08
 
   -0.50890E+08         0.85948E+06         0.00000E+00
    0.85948E+06        -0.50013E+08         0.00000E+00
    0.00000E+00         0.00000E+00        -0.50711E+08
 
   -0.50883E+08         0.89614E+06         0.00000E+00
    0.89614E+06        -0.50014E+08         0.00000E+00
    0.00000E+00         0.00000E+00        -0.50710E+08
 
   -0.50876E+08         0.93251E+06         0.00000E+00
    0.93251E+06        -0.50016E+08         0.00000E+00
    0.00000E+00         0.00000E+00        -0.50709E+08
 
   -0.50869E+08         0.96857E+06         0.00000E+00
    0.96857E+06        -0.50017E+08         0.00000E+00
    0.00000E+00         0.00000E+00        -0.50708E+08
 
   -0.50862E+08         0.10043E+07         0.00000E+00
    0.10043E+07        -0.50019E+08         0.00000E+00
    0.00000E+00         0.00000E+00        -0.50706E+08
 
   -0.50855E+08         0.10398E+07         0.00000E+00
    0.10398E+07        -0.50020E+08         0.00000E+00
    0.00000E+00         0.00000E+00        -0.50705E+08
 
   -0.50848E+08         0.10749E+07         0.00000E+00
    0.10749E+07        -0.50022E+08         0.00000E+00
    0.00000E+00         0.00000E+00        -0.50704E+08
 
   -0.50841E+08         0.11097E+07         0.00000E+00
    0.11097E+07        -0.50023E+08         0.00000E+00
    0.00000E+00         0.00000E+00        -0.50703E+08
 
   -0.50834E+08         0.11442E+07         0.00000E+00
    0.11442E+07        -0.50025E+08         0.00000E+00
    0.00000E+00         0.00000E+00        -0.50702E+08
 
   -0.50827E+08         0.11784E+07         0.00000E+00
    0.11784E+07        -0.50027E+08         0.00000E+00
    0.00000E+00         0.00000E+00        -0.50701E+08
 
   -0.50820E+08         0.12123E+07         0.00000E+00
    0.12123E+07        -0.50029E+08         0.00000E+00
    0.00000E+00         0.00000E+00        -0.50700E+08
 
   -0.50813E+08         0.12459E+07         0.00000E+00
    0.12459E+07        -0.50031E+08         0.00000E+00
    0.00000E+00         0.00000E+00        -0.50699E+08
 
   -0.50806E+08         0.12791E+07         0.00000E+00
    0.12791E+07        -0.50033E+08         0.00000E+00
    0.00000E+00         0.00000E+00        -0.50698E+08
 
   -0.50798E+08         0.13121E+07         0.00000E+00
    0.13121E+07        -0.50035E+08         0.00000E+00
    0.00000E+00         0.00000E+00        -0.50697E+08
 
   -0.50791E+08         0.13447E+07         0.00000E+00
    0.13447E+07        -0.50037E+08         0.00000E+00
    0.00000E+00         0.00000E+00        -0.50696E+08
 
   -0.50784E+08         0.13769E+07         0.00000E+00
    0.13769E+07        -0.50039E+08         0.00000E+00
    0.00000E+00         0.00000E+00        -0.50695E+08
 
   -0.50777E+08         0.14089E+07         0.00000E+00
    0.14089E+07        -0.50041E+08         0.00000E+00
    0.00000E+00         0.00000E+00        -0.50694E+08
 
   -0.50769E+08         0.14405E+07         0.00000E+00
    0.14405E+07        -0.50044E+08         0.00000E+00
    0.00000E+00         0.00000E+00        -0.50693E+08
 
   -0.50762E+08         0.14718E+07         0.00000E+00
    0.14718E+07        -0.50046E+08         0.00000E+00
    0.00000E+00         0.00000E+00        -0.50692E+08
 
   -0.50755E+08         0.15028E+07         0.00000E+00
    0.15028E+07        -0.50049E+08         0.00000E+00
    0.00000E+00         0.00000E+00        -0.50691E+08
 
   -0.50747E+08         0.15334E+07         0.00000E+00
    0.15334E+07        -0.50051E+08         0.00000E+00
    0.00000E+00         0.00000E+00        -0.50690E+08
 
   -0.50740E+08         0.15637E+07         0.00000E+00
    0.15637E+07        -0.50054E+08         0.00000E+00
    0.00000E+00         0.00000E+00        -0.50689E+08
 
   -0.50732E+08         0.15936E+07         0.00000E+00
    0.15936E+07        -0.50057E+08         0.00000E+00
    0.00000E+00         0.00000E+00        -0.50688E+08
 
   -0.50725E+08         0.16232E+07         0.00000E+00
    0.16232E+07        -0.50060E+08         0.00000E+00
    0.00000E+00         0.00000E+00        -0.50687E+08
 
   -0.50717E+08         0.16525E+07         0.00000E+00
    0.16525E+07        -0.50063E+08         0.00000E+00
    0.00000E+00         0.00000E+00        -0.50687E+08
 
   -0.50710E+08         0.16814E+07         0.00000E+00
    0.16814E+07        -0.50066E+08         0.00000E+00
    0.00000E+00         0.00000E+00        -0.50686E+08
 
   -0.50702E+08         0.17099E+07         0.00000E+00
    0.17099E+07        -0.50069E+08         0.00000E+00
    0.00000E+00         0.00000E+00        -0.50685E+08
 
   -0.50694E+08         0.17381E+07         0.00000E+00
    0.17381E+07        -0.50072E+08         0.00000E+00
    0.00000E+00         0.00000E+00        -0.50684E+08
 
   -0.50687E+08         0.17660E+07         0.00000E+00
    0.17660E+07        -0.50076E+08         0.00000E+00
    0.00000E+00         0.00000E+00        -0.50683E+08
 
   -0.50825E+08         0.21548E+05         0.00000E+00
    0.21548E+05        -0.50000E+08         0.00000E+00
    0.00000E+00         0.00000E+00        -0.50590E+08
 
   -0.50819E+08         0.64019E+05         0.00000E+00
    0.64019E+05        -0.50000E+08         0.00000E+00
    0.00000E+00         0.00000E+00        -0.50589E+08
 
   -0.50813E+08         0.10622E+06         0.00000E+00
    0.10622E+06        -0.50000E+08         0.00000E+00
    0.00000E+00         0.00000E+00        -0.50588E+08
 
   -0.50808E+08         0.14815E+06         0.00000E+00
    0.14815E+06        -0.50000E+08         0.00000E+00
    0.00000E+00         0.00000E+00        -0.50586E+08
 
   -0.50802E+08         0.18980E+06         0.00000E+00
    0.18980E+06        -0.50000E+08         0.00000E+00
    0.00000E+00         0.00000E+00        -0.50585E+08
 
   -0.50796E+08         0.23118E+06         0.00000E+00
    0.23118E+06        -0.50001E+08         0.00000E+00
    0.00000E+00         0.00000E+00        -0.50584E+08
 
   -0.50791E+08         0.27228E+06         0.00000E+00
    0.27228E+06        -0.50001E+08         0.00000E+00
    0.00000E+00         0.00000E+00        -0.50583E+08
 
   -0.50785E+08         0.31310E+06         0.00000E+00
    0.31310E+06        -0.50001E+08         0.00000E+00
    0.00000E+00         0.00000E+00        -0.50582E+08
 
   -0.50779E+08         0.35364E+06         0.00000E+00
    0.35364E+06        -0.50002E+08         0.00000E+00
    0.00000E+00         0.00000E+00        -0.50581E+08
 
   -0.50774E+08         0.39389E+06         0.00000E+00
    0.39389E+06        -0.50002E+08         0.00000E+00
    0.00000E+00         0.00000E+00        -0.50580E+08
 
   -0.50768E+08         0.43386E+06         0.00000E+00
    0.43386E+06        -0.50002E+08         0.00000E+00
    0.00000E+00         0.00000E+00        -0.50579E+08
 
   -0.50763E+08         0.47354E+06         0.00000E+00
    0.47354E+06        -0.50003E+08         0.00000E+00
    0.00000E+00         0.00000E+00        -0.50578E+08
 
   -0.50757E+08         0.51293E+06         0.00000E+00
    0.51293E+06        -0.50003E+08         0.00000E+00
    0.00000E+00         0.00000E+00        -0.50577E+08
 
   -0.50751E+08         0.55203E+06         0.00000E+00
    0.55203E+06        -0.50004E+08         0.00000E+00
    0.00000E+00         0.00000E+00        -0.50576E+08
 
   -0.50746E+08         0.59083E+06         0.00000E+00
    0.59083E+06        -0.50004E+08         0.00000E+00
    0.00000E+00         0.00000E+00        -0.50575E+08
 
   -0.50740E+08         0.62935E+06         0.00000E+00
    0.62935E+06        -0.50005E+08         0.00000E+00
    0.00000E+00         0.00000E+00        -0.50574E+08
 
   -0.50735E+08         0.66756E+06         0.00000E+00
    0.66756E+06        -0.50006E+08         0.00000E+00
    0.00000E+00         0.00000E+00        -0.50573E+08
 
   -0.50729E+08         0.70548E+06         0.00000E+00
    0.70548E+06        -0.50006E+08         0.00000E+00
    0.00000E+00         0.00000E+00        -0.50572E+08
 
   -0.50724E+08         0.74309E+06         0.00000E+00
    0.74309E+06        -0.50007E+08         0.00000E+00
    0.00000E+00         0.00000E+00        -0.50571E+08
 
   -0.50718E+08         0.78041E+06         0.00000E+00
    0.78041E+06        -0.50008E+08         0.00000E+00
    0.00000E+00         0.00000E+00        -0.50570E+08
 
   -0.50713E+08         0.81742E+06         0.00000E+00
    0.81742E+06        -0.50009E+08         0.00000E+00
    0.00000E+00         0.00000E+00        -0.50569E+08
 
   -0.50707E+08         0.85413E+06         0.00000E+00
    0.85413E+06        -0.50010E+08         0.00000E+00
    0.00000E+00         0.00000E+00        -0.50568E+08
 
   -0.50702E+08         0.89053E+06         0.00000E+00
    0.89053E+06        -0.50011E+08         0.00000E+00
    0.00000E+00         0.00000E+00        -0.50567E+08
 
   -0.50696E+08         0.92663E+06         0.00000E+00
    0.92663E+06        -0.50012E+08         0.00000E+00
    0.00000E+00         0.00000E+00        -0.50567E+08
 
   -0.50691E+08         0.96241E+06         0.00000E+00
    0.96241E+06        -0.50013E+08         0.00000E+00
    0.00000E+00         0.00000E+00        -0.50566E+08
 
   -0.50685E+08         0.99788E+06         0.00000E+00
    0.99788E+06        -0.50014E+08         0.00000E+00
    0.00000E+00         0.00000E+00        -0.50565E+08
 
   -0.50680E+08         0.10330E+07         0.00000E+00
    0.10330E+07        -0.50015E+08         0.00000E+00
    0.00000E+00         0.00000E+00        -0.50564E+08
 
   -0.50674E+08         0.10679E+07         0.00000E+00
    0.10679E+07        -0.50016E+08         0.00000E+00
    0.00000E+00         0.00000E+00        -0.50563E+08
 
   -0.50669E+08         0.11024E+07         0.00000E+00
    0.11024E+07        -0.50017E+08         0.00000E+00
    0.00000E+00         0.00000E+00        -0.50562E+08
 
   -0.50663E+08         0.11366E+07         0.00000E+00
    0.11366E+07        -0.50019E+08         0.00000E+00
    0.00000E+00         0.00000E+00        -0.50561E+08
 
   -0.50658E+08         0.11705E+07         0.00000E+00
    0.11705E+07        -0.50020E+08         0.00000E+00
    0.00000E+00         0.00000E+00        -0.50561E+08
 
   -0.50652E+08         0.12041E+07         0.00000E+00
    0.12041E+07        -0.50021E+08         0.00000E+00
    0.00000E+00         0.00000E+00        -0.50560E+08
 
   -0.50646E+08         0.12373E+07         0.00000E+00
    0.12373E+07        -0.50023E+08         0.00000E+00
    0.00000E+00         0.00000E+00        -0.50559E+08
 
   -0.50641E+08         0.12702E+07         0.00000E+00
    0.12702E+07        -0.50024E+08         0.00000E+00
    0.00000E+00         0.00000E+00        -0.50558E+08
 
   -0.50635E+08         0.13028E+07         0.00000E+00
    0.13028E+07        -0.50026E+08         0.00000E+00
    0.00000E+00         0.00000E+00        -0.50557E+08
 
   -0.50630E+08         0.13351E+07         0.00000E+00
    0.13351E+07        -0.50027E+08         0.00000E+00
    0.00000E+00         0.00000E+00        -0.50557E+08
 
   -0.50624E+08         0.13670E+07         0.00000E+00
    0.13670E+07        -0.50029E+08         0.00000E+00
    0.00000E+00         0.00000E+00        -0.50556E+08
 
   -0.50619E+08         0.13986E+07         0.00000E+00
    0.13986E+07        -0.50031E+08         0.00000E+00
    0.00000E+00         0.00000E+00        -0.50555E+08
 
   -0.50613E+08         0.14299E+07         0.00000E+00
    0.14299E+07        -0.50033E+08         0.00000E+00
    0.00000E+00         0.00000E+00        -0.50554E+08
 
   -0.50607E+08         0.14608E+07         0.00000E+00
    0.14608E+07        -0.50034E+08         0.00000E+00
    0.00000E+00         0.00000E+00        -0.50554E+08
 
   -0.50602E+08         0.14913E+07         0.00000E+00
    0.14913E+07        -0.50036E+08         0.00000E+00
    0.00000E+00         0.00000E+00        -0.50553E+08
 
   -0.50596E+08         0.15216E+07         0.00000E+00
    0.15216E+07        -0.50038E+08         0.00000E+00
    0.00000E+00         0.00000E+00        -0.50552E+08
 
   -0.50590E+08         0.15515E+07         0.00000E+00
    0.15515E+07        -0.50040E+08         0.00000E+00
    0.00000E+00         0.00000E+00        -0.50552E+08
 
   -0.50585E+08         0.15810E+07         0.00000E+00
    0.15810E+07        -0.50043E+08         0.00000E+00
    0.00000E+00         0.00000E+00        -0.50551E+08
 
   -0.50579E+08         0.16102E+07         0.00000E+00
    0.16102E+07        -0.50045E+08         0.00000E+00
    0.00000E+00         0.00000E+00        -0.50550E+08
 
   -0.50573E+08         0.16390E+07         0.00000E+00
    0.16390E+07        -0.50047E+08         0.00000E+00
    0.00000E+00         0.00000E+00        -0.50549E+08
 
   -0.50567E+08         0.16675E+07         0.00000E+00
    0.16675E+07        -0.50049E+08         0.00000E+00
    0.00000E+00         0.00000E+00        -0.50549E+08
 
   -0.50561E+08         0.16956E+07         0.00000E+00
    0.16956E+07        -0.50052E+08         0.00000E+00
    0.00000E+00         0.00000E+00        -0.50548E+08
 
   -0.50555E+08         0.17234E+07         0.00000E+00
    0.17234E+07        -0.50054E+08         0.00000E+00
    0.00000E+00         0.00000E+00        -0.50547E+08
 
   -0.50549E+08         0.17507E+07         0.00000E+00
    0.17507E+07        -0.50057E+08         0.00000E+00
    0.00000E+00         0.00000E+00        -0.50547E+08
 
   -0.50612E+08         0.21454E+05         0.00000E+00
    0.21454E+05        -0.50000E+08         0.00000E+00
    0.00000E+00         0.00000E+00        -0.50444E+08
 
   -0.50608E+08         0.63745E+05         0.00000E+00
    0.63745E+05        -0.50000E+08         0.00000E+00
    0.00000E+00         0.00000E+00        -0.50443E+08
 
   -0.50603E+08         0.10577E+06         0.00000E+00
    0.10577E+06        -0.50000E+08         0.00000E+00
    0.00000E+00         0.00000E+00        -0.50442E+08
 
   -0.50599E+08         0.14752E+06         0.00000E+00
    0.14752E+06        -0.50000E+08         0.00000E+00
    0.00000E+00         0.00000E+00        -0.50441E+08
 
   -0.50595E+08         0.18901E+06         0.00000E+00
    0.18901E+06        -0.50000E+08         0.00000E+00
    0.00000E+00         0.00000E+00        -0.50440E+08
 
   -0.50591E+08         0.23022E+06         0.00000E+00
    0.23022E+06        -0.50000E+08         0.00000E+00
    0.00000E+00         0.00000E+00        -0.50440E+08
 
   -0.50586E+08         0.27115E+06         0.00000E+00
    0.27115E+06        -0.50001E+08         0.00000E+00
    0.00000E+00         0.00000E+00        -0.50439E+08
 
   -0.50582E+08         0.31180E+06         0.00000E+00
    0.31180E+06        -0.50001E+08         0.00000E+00
    0.00000E+00         0.00000E+00        -0.50438E+08
 
   -0.50578E+08         0.35217E+06         0.00000E+00
    0.35217E+06        -0.50001E+08         0.00000E+00
    0.00000E+00         0.00000E+00        -0.50437E+08
 
   -0.50574E+08         0.39226E+06         0.00000E+00
    0.39226E+06        -0.50001E+08         0.00000E+00
    0.00000E+00         0.00000E+00        -0.50436E+08
 
   -0.50569E+08         0.43206E+06         0.00000E+00
    0.43206E+06        -0.50002E+08         0.00000E+00
    0.00000E+00         0.00000E+00        -0.50436E+08
 
   -0.50565E+08         0.47157E+06         0.00000E+00
    0.47157E+06        -0.50002E+08         0.00000E+00
    0.00000E+00         0.00000E+00        -0.50435E+08
 
   -0.50561E+08         0.51079E+06         0.00000E+00
    0.51079E+06        -0.50002E+08         0.00000E+00
    0.00000E+00         0.00000E+00        -0.50434E+08
 
   -0.50557E+08         0.54973E+06         0.00000E+00
    0.54973E+06        -0.50002E+08         0.00000E+00
    0.00000E+00         0.00000E+00        -0.50433E+08
 
   -0.50553E+08         0.58836E+06         0.00000E+00
    0.58836E+06        -0.50003E+08         0.00000E+00
    0.00000E+00         0.00000E+00        -0.50433E+08
 
   -0.50549E+08         0.62670E+06         0.00000E+00
    0.62670E+06        -0.50003E+08         0.00000E+00
    0.00000E+00         0.00000E+00        -0.50432E+08
 
   -0.50545E+08         0.66474E+06         0.00000E+00
    0.66474E+06        -0.50004E+08         0.00000E+00
    0.00000E+00         0.00000E+00        -0.50431E+08
 
   -0.50541E+08         0.70249E+06         0.00000E+00
    0.70249E+06        -0.50004E+08         0.00000E+00
    0.00000E+00         0.00000E+00        -0.50430E+08
 
   -0.50537E+08         0.73993E+06         0.00000E+00
    0.73993E+06        -0.50005E+08         0.00000E+00
    0.00000E+00         0.00000E+00        -0.50430E+08
 
   -0.50533E+08         0.77706E+06         0.00000E+00
    0.77706E+06        -0.50005E+08         0.00000E+00
    0.00000E+00         0.00000E+00        -0.50429E+08
 
   -0.50529E+08         0.81389E+06         0.00000E+00
    0.81389E+06        -0.50006E+08         0.00000E+00
    0.00000E+00         0.00000E+00        -0.50428E+08
 
   -0.50525E+08         0.85041E+06         0.00000E+00
    0.85041E+06        -0.50006E+08         0.00000E+00
    0.00000E+00         0.00000E+00        -0.50428E+08
 
   -0.50521E+08         0.88662E+06         0.00000E+00
    0.88662E+06        -0.50007E+08         0.00000E+00
    0.00000E+00         0.00000E+00        -0.50427E+08
 
   -0.50517E+08         0.92252E+06         0.00000E+00
    0.92252E+06        -0.50007E+08         0.00000E+00
    0.00000E+00         0.00000E+00        -0.50426E+08
 
   -0.50513E+08         0.95811E+06         0.00000E+00
    0.95811E+06        -0.50008E+08         0.00000E+00
    0.00000E+00         0.00000E+00        -0.50426E+08
 
   -0.50509E+08         0.99337E+06         0.00000E+00
    0.99337E+06        -0.50009E+08         0.00000E+00
    0.00000E+00         0.00000E+00        -0.50425E+08
 
   -0.50505E+08         0.10283E+07         0.00000E+00
    0.10283E+07        -0.50009E+08         0.00000E+00
    0.00000E+00         0.00000E+00        -0.50424E+08
 
   -0.50501E+08         0.10630E+07         0.00000E+00
    0.10630E+07        -0.50010E+08         0.00000E+00
    0.00000E+00         0.00000E+00        -0.50424E+08
 
   -0.50497E+08         0.10973E+07         0.00000E+00
    0.10973E+07        -0.50011E+08         0.00000E+00
    0.00000E+00         0.00000E+00        -0.50423E+08
 
   -0.50493E+08         0.11313E+07         0.00000E+00
    0.11313E+07        -0.50012E+08         0.00000E+00
    0.00000E+00         0.00000E+00        -0.50423E+08
 
   -0.50489E+08         0.11649E+07         0.00000E+00
    0.11649E+07        -0.50013E+08         0.00000E+00
    0.00000E+00         0.00000E+00        -0.50422E+08
 
   -0.50486E+08         0.11982E+07         0.00000E+00
    0.11982E+07        -0.50014E+08         0.00000E+00
    0.00000E+00         0.00000E+00        -0.50422E+08
 
   -0.50482E+08         0.12312E+07         0.00000E+00
    0.12312E+07        -0.50015E+08         0.00000E+00
    0.00000E+00         0.00000E+00        -0.50421E+08
 
   -0.50478E+08         0.12639E+07         0.00000E+00
    0.12639E+07        -0.50015E+08         0.00000E+00
    0.00000E+00         0.00000E+00        -0.50420E+08
 
   -0.50474E+08         0.12963E+07         0.00000E+00
    0.12963E+07        -0.50017E+08         0.00000E+00
    0.00000E+00         0.00000E+00        -0.50420E+08
 
   -0.50470E+08         0.13283E+07         0.00000E+00
    0.13283E+07        -0.50018E+08         0.00000E+00
    0.00000E+00         0.00000E+00        -0.50419E+08
 
   -0.50466E+08         0.13599E+07         0.00000E+00
    0.13599E+07        -0.50019E+08         0.00000E+00
    0.00000E+00         0.00000E+00        -0.50419E+08
 
   -0.50462E+08         0.13912E+07         0.00000E+00
    0.13912E+07        -0.50020E+08         0.00000E+00
    0.00000E+00         0.00000E+00        -0.50418E+08
 
   -0.50458E+08         0.14222E+07         0.00000E+00
    0.14222E+07        -0.50021E+08         0.00000E+00
    0.00000E+00         0.00000E+00        -0.50418E+08
 
   -0.50454E+08         0.14528E+07         0.00000E+00
    0.14528E+07        -0.50022E+08         0.00000E+00
    0.00000E+00         0.00000E+00        -0.50417E+08
 
   -0.50451E+08         0.14831E+07         0.00000E+00
    0.14831E+07        -0.50024E+08         0.00000E+00
    0.00000E+00         0.00000E+00        -0.50417E+08
 
   -0.50447E+08         0.15130E+07         0.00000E+00
    0.15130E+07        -0.50025E+08         0.00000E+00
    0.00000E+00         0.00000E+00        -0.50416E+08
 
   -0.50443E+08         0.15426E+07         0.00000E+00
    0.15426E+07        -0.50026E+08         0.00000E+00
    0.00000E+00         0.00000E+00        -0.50416E+08
 
   -0.50439E+08         0.15718E+07         0.00000E+00
    0.15718E+07        -0.50028E+08         0.00000E+00
    0.00000E+00         0.00000E+00        -0.50415E+08
 
   -0.50435E+08         0.16007E+07         0.00000E+00
    0.16007E+07        -0.50029E+08         0.00000E+00
    0.00000E+00         0.00000E+00        -0.50415E+08
 
   -0.50431E+08         0.16292E+07         0.00000E+00
    0.16292E+07        -0.50031E+08         0.00000E+00
    0.00000E+00         0.00000E+00        -0.50414E+08
 
   -0.50427E+08         0.16574E+07         0.00000E+00
    0.16574E+07        -0.50032E+08         0.00000E+00
    0.00000E+00         0.00000E+00        -0.50414E+08
 
   -0.50422E+08         0.16851E+07         0.00000E+00
    0.16851E+07        -0.50034E+08         0.00000E+00
    0.00000E+00         0.00000E+00        -0.50413E+08
 
   -0.50418E+08         0.17125E+07         0.00000E+00
    0.17125E+07        -0.50036E+08         0.00000E+00
    0.00000E+00         0.00000E+00        -0.50413E+08
 
   -0.50414E+08         0.17396E+07         0.00000E+00
    0.17396E+07        -0.50038E+08         0.00000E+00
    0.00000E+00         0.00000E+00        -0.50412E+08
 
   -0.50400E+08         0.21402E+05         0.00000E+00
    0.21402E+05        -0.50000E+08         0.00000E+00
    0.00000E+00         0.00000E+00        -0.50299E+08
 
   -0.50397E+08         0.63596E+05         0.00000E+00
    0.63596E+05        -0.50000E+08         0.00000E+00
    0.00000E+00         0.00000E+00        -0.50299E+08
 
   -0.50394E+08         0.10553E+06         0.00000E+00
    0.10553E+06        -0.50000E+08         0.00000E+00
    0.00000E+00         0.00000E+00        -0.50298E+08
 
   -0.50391E+08         0.14719E+06         0.00000E+00
    0.14719E+06        -0.50000E+08         0.00000E+00
    0.00000E+00         0.00000E+00        -0.50297E+08
 
   -0.50388E+08         0.18858E+06         0.00000E+00
    0.18858E+06        -0.50000E+08         0.00000E+00
    0.00000E+00         0.00000E+00        -0.50297E+08
 
   -0.50385E+08         0.22970E+06         0.00000E+00
    0.22970E+06        -0.50000E+08         0.00000E+00
    0.00000E+00         0.00000E+00        -0.50296E+08
 
   -0.50383E+08         0.27054E+06         0.00000E+00
    0.27054E+06        -0.50000E+08         0.00000E+00
    0.00000E+00         0.00000E+00        -0.50296E+08
 
   -0.50380E+08         0.31110E+06         0.00000E+00
    0.31110E+06        -0.50000E+08         0.00000E+00
    0.00000E+00         0.00000E+00        -0.50295E+08
 
   -0.50377E+08         0.35139E+06         0.00000E+00
    0.35139E+06        -0.50000E+08         0.00000E+00
    0.00000E+00         0.00000E+00        -0.50295E+08
 
   -0.50374E+08         0.39139E+06         0.00000E+00
    0.39139E+06        -0.50000E+08         0.00000E+00
    0.00000E+00         0.00000E+00        -0.50294E+08
 
   -0.50371E+08         0.43110E+06         0.00000E+00
    0.43110E+06        -0.50001E+08         0.00000E+00
    0.00000E+00         0.00000E+00        -0.50294E+08
 
   -0.50369E+08         0.47052E+06         0.00000E+00
    0.47052E+06        -0.50001E+08         0.00000E+00
    0.00000E+00         0.00000E+00        -0.50293E+08
 
   -0.50366E+08         0.50966E+06         0.00000E+00
    0.50966E+06        -0.50001E+08         0.00000E+00
    0.00000E+00         0.00000E+00        -0.50293E+08
 
   -0.50363E+08         0.54850E+06         0.00000E+00
    0.54850E+06        -0.50001E+08         0.00000E+00
    0.00000E+00         0.00000E+00        -0.50292E+08
 
   -0.50361E+08         0.58704E+06         0.00000E+00
    0.58704E+06        -0.50001E+08         0.00000E+00
    0.00000E+00         0.00000E+00        -0.50292E+08
 
   -0.50358E+08         0.62529E+06         0.00000E+00
    0.62529E+06        -0.50001E+08         0.00000E+00
    0.00000E+00         0.00000E+00        -0.50291E+08
 
   -0.50356E+08         0.66323E+06         0.00000E+00
    0.66323E+06        -0.50001E+08         0.00000E+00
    0.00000E+00         0.00000E+00        -0.50291E+08
 
   -0.50353E+08         0.70088E+06         0.00000E+00
    0.70088E+06        -0.50002E+08         0.00000E+00
    0.00000E+00         0.00000E+00        -0.50290E+08
 
   -0.50351E+08         0.73821E+06         0.00000E+00
    0.73821E+06        -0.50002E+08         0.00000E+00
    0.00000E+00         0.00000E+00        -0.50290E+08
 
   -0.50348E+08         0.77525E+06         0.00000E+00
    0.77525E+06        -0.50002E+08         0.00000E+00
    0.00000E+00         0.00000E+00        -0.50289E+08
 
   -0.50346E+08         0.81197E+06         0.00000E+00
    0.81197E+06        -0.50002E+08         0.00000E+00
    0.00000E+00         0.00000E+00        -0.50289E+08
 
   -0.50343E+08         0.84838E+06         0.00000E+00
    0.84838E+06        -0.50002E+08         0.00000E+00
    0.00000E+00         0.00000E+00        -0.50289E+08
 
   -0.50341E+08         0.88448E+06         0.00000E+00
    0.88448E+06        -0.50003E+08         0.00000E+00
    0.00000E+00         0.00000E+00        -0.50288E+08
 
   -0.50338E+08         0.92026E+06         0.00000E+00
    0.92026E+06        -0.50003E+08         0.00000E+00
    0.00000E+00         0.00000E+00        -0.50288E+08
 
   -0.50336E+08         0.95573E+06         0.00000E+00
    0.95573E+06        -0.50003E+08         0.00000E+00
    0.00000E+00         0.00000E+00        -0.50287E+08
 
   -0.50334E+08         0.99087E+06         0.00000E+00
    0.99087E+06        -0.50003E+08         0.00000E+00
    0.00000E+00         0.00000E+00        -0.50287E+08
 
   -0.50331E+08         0.10257E+07         0.00000E+00
    0.10257E+07        -0.50004E+08         0.00000E+00
    0.00000E+00         0.00000E+00        -0.50287E+08
 
   -0.50329E+08         0.10602E+07         0.00000E+00
    0.10602E+07        -0.50004E+08         0.00000E+00
    0.00000E+00         0.00000E+00        -0.50286E+08
 
   -0.50327E+08         0.10944E+07         0.00000E+00
    0.10944E+07        -0.50004E+08         0.00000E+00
    0.00000E+00         0.00000E+00        -0.50286E+08
 
   -0.50325E+08         0.11282E+07         0.00000E+00
    0.11282E+07        -0.50005E+08         0.00000E+00
    0.00000E+00         0.00000E+00        -0.50285E+08
 
   -0.50322E+08         0.11617E+07         0.00000E+00
    0.11617E+07        -0.50005E+08         0.00000E+00
    0.00000E+00         0.00000E+00        -0.50285E+08
 
   -0.50320E+08         0.11949E+07         0.00000E+00
    0.11949E+07        -0.50006E+08         0.00000E+00
    0.00000E+00         0.00000E+00        -0.50285E+08
 
   -0.50318E+08         0.12278E+07         0.00000E+00
    0.12278E+07        -0.50006E+08         0.00000E+00
    0.00000E+00         0.00000E+00        -0.50284E+08
 
   -0.50316E+08         0.12603E+07         0.00000E+00
    0.12603E+07        -0.50006E+08         0.00000E+00
    0.00000E+00         0.00000E+00        -0.50284E+08
 
   -0.50314E+08         0.12924E+07         0.00000E+00
    0.12924E+07        -0.50007E+08         0.00000E+00
    0.00000E+00         0.00000E+00        -0.50284E+08
 
   -0.50311E+08         0.13243E+07         0.00000E+00
    0.13243E+07        -0.50007E+08         0.00000E+00
    0.00000E+00         0.00000E+00        -0.50284E+08
 
   -0.50309E+08         0.13557E+07         0.00000E+00
    0.13557E+07        -0.50008E+08         0.00000E+00
    0.00000E+00         0.00000E+00        -0.50283E+08
 
   -0.50307E+08         0.13869E+07         0.00000E+00
    0.13869E+07        -0.50008E+08         0.00000E+00
    0.00000E+00         0.00000E+00        -0.50283E+08
 
   -0.50305E+08         0.14177E+07         0.00000E+00
    0.14177E+07        -0.50009E+08         0.00000E+00
    0.00000E+00         0.00000E+00        -0.50283E+08
 
   -0.50303E+08         0.14481E+07         0.00000E+00
    0.14481E+07        -0.50010E+08         0.00000E+00
    0.00000E+00         0.00000E+00        -0.50282E+08
 
   -0.50301E+08         0.14782E+07         0.00000E+00
    0.14782E+07        -0.50010E+08         0.00000E+00
    0.00000E+00         0.00000E+00        -0.50282E+08
 
   -0.50298E+08         0.15079E+07         0.00000E+00
    0.15079E+07        -0.50011E+08         0.00000E+00
    0.00000E+00         0.00000E+00        -0.50282E+08
 
   -0.50296E+08         0.15373E+07         0.00000E+00
    0.15373E+07        -0.50012E+08         0.00000E+00
    0.00000E+00         0.00000E+00        -0.50282E+08
 
   -0.50294E+08         0.15663E+07         0.00000E+00
    0.15663E+07        -0.50012E+08         0.00000E+00
    0.00000E+00         0.00000E+00        -0.50281E+08
 
   -0.50292E+08         0.15949E+07         0.00000E+00
    0.15949E+07        -0.50013E+08         0.00000E+00
    0.00000E+00         0.00000E+00        -0.50281E+08
 
   -0.50290E+08         0.16232E+07         0.00000E+00
    0.16232E+07        -0.50014E+08         0.00000E+00
    0.00000E+00         0.00000E+00        -0.50281E+08
 
   -0.50287E+08         0.16511E+07         0.00000E+00
    0.16511E+07        -0.50015E+08         0.00000E+00
    0.00000E+00         0.00000E+00        -0.50280E+08
 
   -0.50285E+08         0.16786E+07         0.00000E+00
    0.16786E+07        -0.50016E+08         0.00000E+00
    0.00000E+00         0.00000E+00        -0.50280E+08
 
   -0.50283E+08         0.17057E+07         0.00000E+00
    0.17057E+07        -0.50017E+08         0.00000E+00
    0.00000E+00         0.00000E+00        -0.50280E+08
 
   -0.50281E+08         0.17325E+07         0.00000E+00
    0.17325E+07        -0.50018E+08         0.00000E+00
    0.00000E+00         0.00000E+00        -0.50280E+08
 
   -0.50189E+08         0.21395E+05         0.00000E+00
    0.21395E+05        -0.50000E+08         0.00000E+00
    0.00000E+00         0.00000E+00        -0.50156E+08
 
   -0.50187E+08         0.63578E+05         0.00000E+00
    0.63578E+05        -0.50000E+08         0.00000E+00
    0.00000E+00         0.00000E+00        -0.50155E+08
 
   -0.50185E+08         0.10550E+06         0.00000E+00
    0.10550E+06        -0.50000E+08         0.00000E+00
    0.00000E+00         0.00000E+00        -0.50155E+08
 
   -0.50184E+08         0.14715E+06         0.00000E+00
    0.14715E+06        -0.50000E+08         0.00000E+00
    0.00000E+00         0.00000E+00        -0.50155E+08
 
   -0.50182E+08         0.18853E+06         0.00000E+00
    0.18853E+06        -0.50000E+08         0.00000E+00
    0.00000E+00         0.00000E+00        -0.50154E+08
 
   -0.50181E+08         0.22965E+06         0.00000E+00
    0.22965E+06        -0.50000E+08         0.00000E+00
    0.00000E+00         0.00000E+00        -0.50154E+08
 
   -0.50179E+08         0.27048E+06         0.00000E+00
    0.27048E+06        -0.50000E+08         0.00000E+00
    0.00000E+00         0.00000E+00        -0.50154E+08
 
   -0.50178E+08         0.31104E+06         0.00000E+00
    0.31104E+06        -0.50000E+08         0.00000E+00
    0.00000E+00         0.00000E+00        -0.50153E+08
 
   -0.50176E+08         0.35131E+06         0.00000E+00
    0.35131E+06        -0.50000E+08         0.00000E+00
    0.00000E+00         0.00000E+00        -0.50153E+08
 
   -0.50175E+08         0.39131E+06         0.00000E+00
    0.39131E+06        -0.50000E+08         0.00000E+00
    0.00000E+00         0.00000E+00        -0.50153E+08
 
   -0.50174E+08         0.43101E+06         0.00000E+00
    0.43101E+06        -0.50000E+08         0.00000E+00
    0.00000E+00         0.00000E+00        -0.50153E+08
 
   -0.50172E+08         0.47043E+06         0.00000E+00
    0.47043E+06        -0.50000E+08         0.00000E+00
    0.00000E+00         0.00000E+00        -0.50152E+08
 
   -0.50171E+08         0.50955E+06         0.00000E+00
    0.50955E+06        -0.49999E+08         0.00000E+00
    0.00000E+00         0.00000E+00        -0.50152E+08
 
   -0.50170E+08         0.54838E+06         0.00000E+00
    0.54838E+06        -0.49999E+08         0.00000E+00
    0.00000E+00         0.00000E+00        -0.50152E+08
 
   -0.50169E+08         0.58691E+06         0.00000E+00
    0.58691E+06        -0.49999E+08         0.00000E+00
    0.00000E+00         0.00000E+00        -0.50152E+08
 
   -0.50168E+08         0.62514E+06         0.00000E+00
    0.62514E+06        -0.49999E+08         0.00000E+00
    0.00000E+00         0.00000E+00        -0.50151E+08
 
   -0.50167E+08         0.66307E+06         0.00000E+00
    0.66307E+06        -0.49999E+08         0.00000E+00
    0.00000E+00         0.00000E+00        -0.50151E+08
 
   -0.50166E+08         0.70070E+06         0.00000E+00
    0.70070E+06        -0.49999E+08         0.00000E+00
    0.00000E+00         0.00000E+00        -0.50151E+08
 
   -0.50165E+08         0.73801E+06         0.00000E+00
    0.73801E+06        -0.49999E+08         0.00000E+00
    0.00000E+00         0.00000E+00        -0.50151E+08
 
   -0.50164E+08         0.77502E+06         0.00000E+00
    0.77502E+06        -0.49999E+08         0.00000E+00
    0.00000E+00         0.00000E+00        -0.50151E+08
 
   -0.50163E+08         0.81172E+06         0.00000E+00
    0.81172E+06        -0.49999E+08         0.00000E+00
    0.00000E+00         0.00000E+00        -0.50151E+08
 
   -0.50162E+08         0.84810E+06         0.00000E+00
    0.84810E+06        -0.49999E+08         0.00000E+00
    0.00000E+00         0.00000E+00        -0.50150E+08
 
   -0.50161E+08         0.88417E+06         0.00000E+00
    0.88417E+06        -0.49998E+08         0.00000E+00
    0.00000E+00         0.00000E+00        -0.50150E+08
 
   -0.50160E+08         0.91992E+06         0.00000E+00
    0.91992E+06        -0.49998E+08         0.00000E+00
    0.00000E+00         0.00000E+00        -0.50150E+08
 
   -0.50160E+08         0.95534E+06         0.00000E+00
    0.95534E+06        -0.49998E+08         0.00000E+00
    0.00000E+00         0.00000E+00        -0.50150E+08
 
   -0.50159E+08         0.99045E+06         0.00000E+00
    0.99045E+06        -0.49998E+08         0.00000E+00
    0.00000E+00         0.00000E+00        -0.50150E+08
 
   -0.50158E+08         0.10252E+07         0.00000E+00
    0.10252E+07        -0.49998E+08         0.00000E+00
    0.00000E+00         0.00000E+00        -0.50150E+08
 
   -0.50158E+08         0.10597E+07         0.00000E+00
    0.10597E+07        -0.49998E+08         0.00000E+00
    0.00000E+00         0.00000E+00        -0.50150E+08
 
   -0.50157E+08         0.10938E+07         0.00000E+00
    0.10938E+07        -0.49998E+08         0.00000E+00
    0.00000E+00         0.00000E+00        -0.50149E+08
 
   -0.50156E+08         0.11276E+07         0.00000E+00
    0.11276E+07        -0.49998E+08         0.00000E+00
    0.00000E+00         0.00000E+00        -0.50149E+08
 
   -0.50156E+08         0.11610E+07         0.00000E+00
    0.11610E+07        -0.49997E+08         0.00000E+00
    0.00000E+00         0.00000E+00        -0.50149E+08
 
   -0.50155E+08         0.11941E+07         0.00000E+00
    0.11941E+07        -0.49997E+08         0.00000E+00
    0.00000E+00         0.00000E+00        -0.50149E+08
 
   -0.50155E+08         0.12269E+07         0.00000E+00
    0.12269E+07        -0.49997E+08         0.00000E+00
    0.00000E+00         0.00000E+00        -0.50149E+08
 
   -0.50154E+08         0.12593E+07         0.00000E+00
    0.12593E+07        -0.49997E+08         0.00000E+00
    0.00000E+00         0.00000E+00        -0.50149E+08
 
   -0.50154E+08         0.12914E+07         0.00000E+00
    0.12914E+07        -0.49997E+08         0.00000E+00
    0.00000E+00         0.00000E+00        -0.50149E+08
 
   -0.50153E+08         0.13232E+07         0.00000E+00
    0.13232E+07        -0.49997E+08         0.00000E+00
    0.00000E+00         0.00000E+00        -0.50149E+08
 
   -0.50153E+08         0.13546E+07         0.00000E+00
    0.13546E+07        -0.49997E+08         0.00000E+00
    0.00000E+00         0.00000E+00        -0.50149E+08
 
   -0.50152E+08         0.13856E+07         0.00000E+00
    0.13856E+07        -0.49997E+08         0.00000E+00
    0.00000E+00         0.00000E+00        -0.50149E+08
 
   -0.50152E+08         0.14163E+07         0.00000E+00
    0.14163E+07        -0.49997E+08         0.00000E+00
    0.00000E+00         0.00000E+00        -0.50149E+08
 
   -0.50152E+08         0.14466E+07         0.00000E+00
    0.14466E+07        -0.49997E+08         0.00000E+00
    0.00000E+00         0.00000E+00        -0.50149E+08
 
   -0.50151E+08         0.14766E+07         0.00000E+00
    0.14766E+07        -0.49997E+08         0.00000E+00
    0.00000E+00         0.00000E+00        -0.50148E+08
 
   -0.50151E+08         0.15062E+07         0.00000E+00
    0.15062E+07        -0.49997E+08         0.00000E+00
    0.00000E+00         0.00000E+00        -0.50148E+08
 
   -0.50151E+08         0.15354E+07         0.00000E+00
    0.15354E+07        -0.49997E+08         0.00000E+00
    0.00000E+00         0.00000E+00        -0.50148E+08
 
   -0.50150E+08         0.15643E+07         0.00000E+00
    0.15643E+07        -0.49997E+08         0.00000E+00
    0.00000E+00         0.00000E+00        -0.50148E+08
 
   -0.50150E+08         0.15928E+07         0.00000E+00
    0.15928E+07        -0.49997E+08         0.00000E+00
    0.00000E+00         0.00000E+00        -0.50148E+08
 
   -0.50150E+08         0.16209E+07         0.00000E+00
    0.16209E+07        -0.49997E+08         0.00000E+00
    0.00000E+00         0.00000E+00        -0.50148E+08
 
   -0.50149E+08         0.16487E+07         0.00000E+00
    0.16487E+07        -0.49997E+08         0.00000E+00
    0.00000E+00         0.00000E+00        -0.50148E+08
 
   -0.50149E+08         0.16761E+07         0.00000E+00
    0.16761E+07        -0.49997E+08         0.00000E+00
    0.00000E+00         0.00000E+00        -0.50148E+08
 
   -0.50149E+08         0.17031E+07         0.00000E+00
    0.17031E+07        -0.49997E+08         0.00000E+00
    0.00000E+00         0.00000E+00        -0.50148E+08
 
   -0.50148E+08         0.17297E+07         0.00000E+00
    0.17297E+07        -0.49997E+08         0.00000E+00
    0.00000E+00         0.00000E+00        -0.50148E+08
 
   -0.49977E+08         0.21433E+05         0.00000E+00
    0.21433E+05        -0.50000E+08         0.00000E+00
    0.00000E+00         0.00000E+00        -0.50013E+08
 
   -0.49976E+08         0.63694E+05         0.00000E+00
    0.63694E+05        -0.50000E+08         0.00000E+00
    0.00000E+00         0.00000E+00        -0.50012E+08
 
   -0.49976E+08         0.10569E+06         0.00000E+00
    0.10569E+06        -0.50000E+08         0.00000E+00
    0.00000E+00         0.00000E+00        -0.50012E+08
 
   -0.49976E+08         0.14742E+06         0.00000E+00
    0.14742E+06        -0.50000E+08         0.00000E+00
    0.00000E+00         0.00000E+00        -0.50012E+08
 
   -0.49976E+08         0.18889E+06         0.00000E+00
    0.18889E+06        -0.50000E+08         0.00000E+00
    0.00000E+00         0.00000E+00        -0.50012E+08
 
   -0.49976E+08         0.23008E+06         0.00000E+00
    0.23008E+06        -0.50000E+08         0.00000E+00
    0.00000E+00         0.00000E+00        -0.50012E+08
 
   -0.49975E+08         0.27099E+06         0.00000E+00
    0.27099E+06        -0.49999E+08         0.00000E+00
    0.00000E+00         0.00000E+00        -0.50012E+08
 
   -0.49975E+08         0.31162E+06         0.00000E+00
    0.31162E+06        -0.49999E+08         0.00000E+00
    0.00000E+00         0.00000E+00        -0.50012E+08
 
   -0.49975E+08         0.35198E+06         0.00000E+00
    0.35198E+06        -0.49999E+08         0.00000E+00
    0.00000E+00         0.00000E+00        -0.50012E+08
 
   -0.49976E+08         0.39204E+06         0.00000E+00
    0.39204E+06        -0.49999E+08         0.00000E+00
    0.00000E+00         0.00000E+00        -0.50012E+08
 
   -0.49976E+08         0.43182E+06         0.00000E+00
    0.43182E+06        -0.49999E+08         0.00000E+00
    0.00000E+00         0.00000E+00        -0.50012E+08
 
   -0.49976E+08         0.47131E+06         0.00000E+00
    0.47131E+06        -0.49998E+08         0.00000E+00
    0.00000E+00         0.00000E+00        -0.50012E+08
 
   -0.49976E+08         0.51051E+06         0.00000E+00
    0.51051E+06        -0.49998E+08         0.00000E+00
    0.00000E+00         0.00000E+00        -0.50012E+08
 
   -0.49976E+08         0.54941E+06         0.00000E+00
    0.54941E+06        -0.49998E+08         0.00000E+00
    0.00000E+00         0.00000E+00        -0.50012E+08
 
   -0.49977E+08         0.58801E+06         0.00000E+00
    0.58801E+06        -0.49997E+08         0.00000E+00
    0.00000E+00         0.00000E+00        -0.50012E+08
 
   -0.49977E+08         0.62631E+06         0.00000E+00
    0.62631E+06        -0.49997E+08         0.00000E+00
    0.00000E+00         0.00000E+00        -0.50012E+08
 
   -0.49978E+08         0.66430E+06         0.00000E+00
    0.66430E+06        -0.49997E+08         0.00000E+00
    0.00000E+00         0.00000E+00        -0.50012E+08
 
   -0.49978E+08         0.70199E+06         0.00000E+00
    0.70199E+06        -0.49996E+08         0.00000E+00
    0.00000E+00         0.00000E+00        -0.50012E+08
 
   -0.49979E+08         0.73937E+06         0.00000E+00
    0.73937E+06        -0.49996E+08         0.00000E+00
    0.00000E+00         0.00000E+00        -0.50012E+08
 
   -0.49979E+08         0.77644E+06         0.00000E+00
    0.77644E+06        -0.49995E+08         0.00000E+00
    0.00000E+00         0.00000E+00        -0.50013E+08
 
   -0.49980E+08         0.81319E+06         0.00000E+00
    0.81319E+06        -0.49995E+08         0.00000E+00
    0.00000E+00         0.00000E+00        -0.50013E+08
 
   -0.49981E+08         0.84962E+06         0.00000E+00
    0.84962E+06        -0.49995E+08         0.00000E+00
    0.00000E+00         0.00000E+00        -0.50013E+08
 
   -0.49982E+08         0.88574E+06         0.00000E+00
    0.88574E+06        -0.49994E+08         0.00000E+00
    0.00000E+00         0.00000E+00        -0.50013E+08
 
   -0.49982E+08         0.92153E+06         0.00000E+00
    0.92153E+06        -0.49994E+08         0.00000E+00
    0.00000E+00         0.00000E+00        -0.50013E+08
 
   -0.49983E+08         0.95700E+06         0.00000E+00
    0.95700E+06        -0.49993E+08         0.00000E+00
    0.00000E+00         0.00000E+00        -0.50013E+08
 
   -0.49984E+08         0.99215E+06         0.00000E+00
    0.99215E+06        -0.49992E+08         0.00000E+00
    0.00000E+00         0.00000E+00        -0.50013E+08
 
   -0.49985E+08         0.10270E+07         0.00000E+00
    0.10270E+07        -0.49992E+08         0.00000E+00
    0.00000E+00         0.00000E+00        -0.50013E+08
 
   -0.49986E+08         0.10614E+07         0.00000E+00
    0.10614E+07        -0.49991E+08         0.00000E+00
    0.00000E+00         0.00000E+00        -0.50013E+08
 
   -0.49987E+08         0.10956E+07         0.00000E+00
    0.10956E+07        -0.49991E+08         0.00000E+00
    0.00000E+00         0.00000E+00        -0.50014E+08
 
   -0.49988E+08         0.11294E+07         0.00000E+00
    0.11294E+07        -0.49990E+08         0.00000E+00
    0.00000E+00         0.00000E+00        -0.50014E+08
 
   -0.49989E+08         0.11629E+07         0.00000E+00
    0.11629E+07        -0.49989E+08         0.00000E+00
    0.00000E+00         0.00000E+00        -0.50014E+08
 
   -0.49991E+08         0.11960E+07         0.00000E+00
    0.11960E+07        -0.49989E+08         0.00000E+00
    0.00000E+00         0.00000E+00        -0.50014E+08
 
   -0.49992E+08         0.12288E+07         0.00000E+00
    0.12288E+07        -0.49988E+08         0.00000E+00
    0.00000E+00         0.00000E+00        -0.50014E+08
 
   -0.49993E+08         0.12612E+07         0.00000E+00
    0.12612E+07        -0.49988E+08         0.00000E+00
    0.00000E+00         0.00000E+00        -0.50014E+08
 
   -0.49994E+08         0.12933E+07         0.00000E+00
    0.12933E+07        -0.49987E+08         0.00000E+00
    0.00000E+00         0.00000E+00        -0.50014E+08
 
   -0.49996E+08         0.13251E+07         0.00000E+00
    0.13251E+07        -0.49986E+08         0.00000E+00
    0.00000E+00         0.00000E+00        -0.50015E+08
 
   -0.49997E+08         0.13565E+07         0.00000E+00
    0.13565E+07        -0.49986E+08         0.00000E+00
    0.00000E+00         0.00000E+00        -0.50015E+08
 
   -0.49998E+08         0.13875E+07         0.00000E+00
    0.13875E+07        -0.49985E+08         0.00000E+00
    0.00000E+00         0.00000E+00        -0.50015E+08
 
   -0.50000E+08         0.14182E+07         0.00000E+00
    0.14182E+07        -0.49984E+08         0.00000E+00
    0.00000E+00         0.00000E+00        -0.50015E+08
 
   -0.50001E+08         0.14485E+07         0.00000E+00
    0.14485E+07        -0.49983E+08         0.00000E+00
    0.00000E+00         0.00000E+00        -0.50015E+08
 
   -0.50002E+08         0.14784E+07         0.00000E+00
    0.14784E+07        -0.49983E+08         0.00000E+00
    0.00000E+00         0.00000E+00        -0.50015E+08
 
   -0.50004E+08         0.15080E+07         0.00000E+00
    0.15080E+07        -0.49982E+08         0.00000E+00
    0.00000E+00         0.00000E+00        -0.50016E+08
 
   -0.50005E+08         0.15372E+07         0.00000E+00
    0.15372E+07        -0.49981E+08         0.00000E+00
    0.00000E+00         0.00000E+00        -0.50016E+08
 
   -0.50007E+08         0.15661E+07         0.00000E+00
    0.15661E+07        -0.49981E+08         0.00000E+00
    0.00000E+00         0.00000E+00        -0.50016E+08
 
   -0.50008E+08         0.15945E+07         0.00000E+00
    0.15945E+07        -0.49980E+08         0.00000E+00
    0.00000E+00         0.00000E+00        -0.50016E+08
 
   -0.50010E+08         0.16226E+07         0.00000E+00
    0.16226E+07        -0.49979E+08         0.00000E+00
    0.00000E+00         0.00000E+00        -0.50016E+08
 
   -0.50012E+08         0.16503E+07         0.00000E+00
    0.16503E+07        -0.49978E+08         0.00000E+00
    0.00000E+00         0.00000E+00        -0.50016E+08
 
   -0.50013E+08         0.16776E+07         0.00000E+00
    0.16776E+07        -0.49978E+08         0.00000E+00
    0.00000E+00         0.00000E+00        -0.50017E+08
 
   -0.50015E+08         0.17046E+07         0.00000E+00
    0.17046E+07        -0.49977E+08         0.00000E+00
    0.00000E+00         0.00000E+00        -0.50017E+08
 
   -0.50016E+08         0.17311E+07         0.00000E+00
    0.17311E+07        -0.49976E+08         0.00000E+00
    0.00000E+00         0.00000E+00        -0.50017E+08
 
   -0.49764E+08         0.21518E+05         0.00000E+00
    0.21518E+05        -0.50000E+08         0.00000E+00
    0.00000E+00         0.00000E+00        -0.49869E+08
 
   -0.49765E+08         0.63947E+05         0.00000E+00
    0.63947E+05        -0.50000E+08         0.00000E+00
    0.00000E+00         0.00000E+00        -0.49870E+08
 
   -0.49766E+08         0.10611E+06         0.00000E+00
    0.10611E+06        -0.50000E+08         0.00000E+00
    0.00000E+00         0.00000E+00        -0.49870E+08
 
   -0.49767E+08         0.14801E+06         0.00000E+00
    0.14801E+06        -0.50000E+08         0.00000E+00
    0.00000E+00         0.00000E+00        -0.49870E+08
 
   -0.49769E+08         0.18964E+06         0.00000E+00
    0.18964E+06        -0.50000E+08         0.00000E+00
    0.00000E+00         0.00000E+00        -0.49870E+08
 
   -0.49770E+08         0.23100E+06         0.00000E+00
    0.23100E+06        -0.49999E+08         0.00000E+00
    0.00000E+00         0.00000E+00        -0.49870E+08
 
   -0.49771E+08         0.27208E+06         0.00000E+00
    0.27208E+06        -0.49999E+08         0.00000E+00
    0.00000E+00         0.00000E+00        -0.49871E+08
 
   -0.49773E+08         0.31288E+06         0.00000E+00
    0.31288E+06        -0.49999E+08         0.00000E+00
    0.00000E+00         0.00000E+00        -0.49871E+08
 
   -0.49774E+08         0.35339E+06         0.00000E+00
    0.35339E+06        -0.49998E+08         0.00000E+00
    0.00000E+00         0.00000E+00        -0.49871E+08
 
   -0.49775E+08         0.39362E+06         0.00000E+00
    0.39362E+06        -0.49998E+08         0.00000E+00
    0.00000E+00         0.00000E+00        -0.49871E+08
 
   -0.49777E+08         0.43356E+06         0.00000E+00
    0.43356E+06        -0.49998E+08         0.00000E+00
    0.00000E+00         0.00000E+00        -0.49872E+08
 
   -0.49779E+08         0.47321E+06         0.00000E+00
    0.47321E+06        -0.49997E+08         0.00000E+00
    0.00000E+00         0.00000E+00        -0.49872E+08
 
   -0.49780E+08         0.51256E+06         0.00000E+00
    0.51256E+06        -0.49997E+08         0.00000E+00
    0.00000E+00         0.00000E+00        -0.49872E+08
 
   -0.49782E+08         0.55161E+06         0.00000E+00
    0.55161E+06        -0.49996E+08         0.00000E+00
    0.00000E+00         0.00000E+00        -0.49873E+08
 
   -0.49784E+08         0.59037E+06         0.00000E+00
    0.59037E+06        -0.49996E+08         0.00000E+00
    0.00000E+00         0.00000E+00        -0.49873E+08
 
   -0.49786E+08         0.62882E+06         0.00000E+00
    0.62882E+06        -0.49995E+08         0.00000E+00
    0.00000E+00         0.00000E+00        -0.49873E+08
 
   -0.49788E+08         0.66696E+06         0.00000E+00
    0.66696E+06        -0.49994E+08         0.00000E+00
    0.00000E+00         0.00000E+00        -0.49873E+08
 
   -0.49790E+08         0.70479E+06         0.00000E+00
    0.70479E+06        -0.49994E+08         0.00000E+00
    0.00000E+00         0.00000E+00        -0.49874E+08
 
   -0.49792E+08         0.74231E+06         0.00000E+00
    0.74231E+06        -0.49993E+08         0.00000E+00
    0.00000E+00         0.00000E+00        -0.49874E+08
 
   -0.49795E+08         0.77952E+06         0.00000E+00
    0.77952E+06        -0.49992E+08         0.00000E+00
    0.00000E+00         0.00000E+00        -0.49874E+08
 
   -0.49797E+08         0.81641E+06         0.00000E+00
    0.81641E+06        -0.49991E+08         0.00000E+00
    0.00000E+00         0.00000E+00        -0.49875E+08
 
   -0.49799E+08         0.85298E+06         0.00000E+00
    0.85298E+06        -0.49990E+08         0.00000E+00
    0.00000E+00         0.00000E+00        -0.49875E+08
 
   -0.49801E+08         0.88923E+06         0.00000E+00
    0.88923E+06        -0.49990E+08         0.00000E+00
    0.00000E+00         0.00000E+00        -0.49875E+08
 
   -0.49804E+08         0.92516E+06         0.00000E+00
    0.92516E+06        -0.49989E+08         0.00000E+00
    0.00000E+00         0.00000E+00        -0.49876E+08
 
   -0.49806E+08         0.96075E+06         0.00000E+00
    0.96075E+06        -0.49988E+08         0.00000E+00
    0.00000E+00         0.00000E+00        -0.49876E+08
 
   -0.49809E+08         0.99602E+06         0.00000E+00
    0.99602E+06        -0.49987E+08         0.00000E+00
    0.00000E+00         0.00000E+00        -0.49877E+08
 
   -0.49812E+08         0.10310E+07         0.00000E+00
    0.10310E+07        -0.49986E+08         0.00000E+00
    0.00000E+00         0.00000E+00        -0.49877E+08
 
   -0.49814E+08         0.10656E+07         0.00000E+00
    0.10656E+07        -0.49985E+08         0.00000E+00
    0.00000E+00         0.00000E+00        -0.49877E+08
 
   -0.49817E+08         0.10998E+07         0.00000E+00
    0.10998E+07        -0.49984E+08         0.00000E+00
    0.00000E+00         0.00000E+00        -0.49878E+08
 
   -0.49820E+08         0.11337E+07         0.00000E+00
    0.11337E+07        -0.49983E+08         0.00000E+00
    0.00000E+00         0.00000E+00        -0.49878E+08
 
   -0.49823E+08         0.11673E+07         0.00000E+00
    0.11673E+07        -0.49981E+08         0.00000E+00
    0.00000E+00         0.00000E+00        -0.49878E+08
 
   -0.49825E+08         0.12006E+07         0.00000E+00
    0.12006E+07        -0.49980E+08         0.00000E+00
    0.00000E+00         0.00000E+00        -0.49879E+08
 
   -0.49828E+08         0.12334E+07         0.00000E+00
    0.12334E+07        -0.49979E+08         0.00000E+00
    0.00000E+00         0.00000E+00        -0.49879E+08
 
   -0.49831E+08         0.12660E+07         0.00000E+00
    0.12660E+07        -0.49978E+08         0.00000E+00
    0.00000E+00         0.00000E+00        -0.49880E+08
 
   -0.49834E+08         0.12982E+07         0.00000E+00
    0.12982E+07        -0.49977E+08         0.00000E+00
    0.00000E+00         0.00000E+00        -0.49880E+08
 
   -0.49837E+08         0.13300E+07         0.00000E+00
    0.13300E+07        -0.49975E+08         0.00000E+00
    0.00000E+00         0.00000E+00        -0.49880E+08
 
   -0.49841E+08         0.13615E+07         0.00000E+00
    0.13615E+07        -0.49974E+08         0.00000E+00
    0.00000E+00         0.00000E+00        -0.49881E+08
 
   -0.49844E+08         0.13926E+07         0.00000E+00
    0.13926E+07        -0.49973E+08         0.00000E+00
    0.00000E+00         0.00000E+00        -0.49881E+08
 
   -0.49847E+08         0.14233E+07         0.00000E+00
    0.14233E+07        -0.49971E+08         0.00000E+00
    0.00000E+00         0.00000E+00        -0.49882E+08
 
   -0.49850E+08         0.14537E+07         0.00000E+00
    0.14537E+07        -0.49970E+08         0.00000E+00
    0.00000E+00         0.00000E+00        -0.49882E+08
 
   -0.49853E+08         0.14837E+07         0.00000E+00
    0.14837E+07        -0.49968E+08         0.00000E+00
    0.00000E+00         0.00000E+00        -0.49882E+08
 
   -0.49857E+08         0.15134E+07         0.00000E+00
    0.15134E+07        -0.49967E+08         0.00000E+00
    0.00000E+00         0.00000E+00        -0.49883E+08
 
   -0.49860E+08         0.15427E+07         0.00000E+00
    0.15427E+07        -0.49966E+08         0.00000E+00
    0.00000E+00         0.00000E+00        -0.49883E+08
 
   -0.49864E+08         0.15716E+07         0.00000E+00
    0.15716E+07        -0.49964E+08         0.00000E+00
    0.00000E+00         0.00000E+00        -0.49884E+08
 
   -0.49867E+08         0.16001E+07         0.00000E+00
    0.16001E+07        -0.49963E+08         0.00000E+00
    0.00000E+00         0.00000E+00        -0.49884E+08
 
   -0.49870E+08         0.16282E+07         0.00000E+00
    0.16282E+07        -0.49961E+08         0.00000E+00
    0.00000E+00         0.00000E+00        -0.49884E+08
 
   -0.49874E+08         0.16560E+07         0.00000E+00
    0.16560E+07        -0.49960E+08         0.00000E+00
    0.00000E+00         0.00000E+00        -0.49885E+08
 
   -0.49877E+08         0.16833E+07         0.00000E+00
    0.16833E+07        -0.49958E+08         0.00000E+00
    0.00000E+00         0.00000E+00        -0.49885E+08
 
   -0.49881E+08         0.17103E+07         0.00000E+00
    0.17103E+07        -0.49957E+08         0.00000E+00
    0.00000E+00         0.00000E+00        -0.49886E+08
 
   -0.49884E+08         0.17369E+07         0.00000E+00
    0.17369E+07        -0.49955E+08         0.00000E+00
    0.00000E+00         0.00000E+00        -0.49886E+08
 
   -0.49551E+08         0.21650E+05         0.00000E+00
    0.21650E+05        -0.50000E+08         0.00000E+00
    0.00000E+00         0.00000E+00        -0.49726E+08
 
   -0.49553E+08         0.64341E+05         0.00000E+00
    0.64341E+05        -0.50000E+08         0.00000E+00
    0.00000E+00         0.00000E+00        -0.49726E+08
 
   -0.49556E+08         0.10677E+06         0.00000E+00
    0.10677E+06        -0.50000E+08         0.00000E+00
    0.00000E+00         0.00000E+00        -0.49727E+08
 
   -0.49558E+08         0.14893E+06         0.00000E+00
    0.14893E+06        -0.50000E+08         0.00000E+00
    0.00000E+00         0.00000E+00        -0.49727E+08
 
   -0.49561E+08         0.19081E+06         0.00000E+00
    0.19081E+06        -0.49999E+08         0.00000E+00
    0.00000E+00         0.00000E+00        -0.49728E+08
 
   -0.49563E+08         0.23242E+06         0.00000E+00
    0.23242E+06        -0.49999E+08         0.00000E+00
    0.00000E+00         0.00000E+00        -0.49728E+08
 
   -0.49566E+08         0.27376E+06         0.00000E+00
    0.27376E+06        -0.49999E+08         0.00000E+00
    0.00000E+00         0.00000E+00        -0.49729E+08
 
   -0.49569E+08         0.31481E+06         0.00000E+00
    0.31481E+06        -0.49998E+08         0.00000E+00
    0.00000E+00         0.00000E+00        -0.49729E+08
 
   -0.49572E+08         0.35557E+06         0.00000E+00
    0.35557E+06        -0.49998E+08         0.00000E+00
    0.00000E+00         0.00000E+00        -0.49730E+08
 
   -0.49574E+08         0.39605E+06         0.00000E+00
    0.39605E+06        -0.49997E+08         0.00000E+00
    0.00000E+00         0.00000E+00        -0.49730E+08
 
   -0.49578E+08         0.43624E+06         0.00000E+00
    0.43624E+06        -0.49997E+08         0.00000E+00
    0.00000E+00         0.00000E+00        -0.49731E+08
 
   -0.49581E+08         0.47613E+06         0.00000E+00
    0.47613E+06        -0.49996E+08         0.00000E+00
    0.00000E+00         0.00000E+00        -0.49731E+08
 
   -0.49584E+08         0.51572E+06         0.00000E+00
    0.51572E+06        -0.49995E+08         0.00000E+00
    0.00000E+00         0.00000E+00        -0.49732E+08
 
   -0.49587E+08         0.55501E+06         0.00000E+00
    0.55501E+06        -0.49995E+08         0.00000E+00
    0.00000E+00         0.00000E+00        -0.49732E+08
 
   -0.49591E+08         0.59401E+06         0.00000E+00
    0.59401E+06        -0.49994E+08         0.00000E+00
    0.00000E+00         0.00000E+00        -0.49733E+08
 
   -0.49594E+08         0.63269E+06         0.00000E+00
    0.63269E+06        -0.49993E+08         0.00000E+00
    0.00000E+00         0.00000E+00        -0.49734E+08
 
   -0.49598E+08         0.67106E+06         0.00000E+00
    0.67106E+06        -0.49992E+08         0.00000E+00
    0.00000E+00         0.00000E+00        -0.49734E+08
 
   -0.49601E+08         0.70913E+06         0.00000E+00
    0.70913E+06        -0.49991E+08         0.00000E+00
    0.00000E+00         0.00000E+00        -0.49735E+08
 
   -0.49605E+08         0.74688E+06         0.00000E+00
    0.74688E+06        -0.49990E+08         0.00000E+00
    0.00000E+00         0.00000E+00        -0.49735E+08
 
   -0.49609E+08         0.78431E+06         0.00000E+00
    0.78431E+06        -0.49989E+08         0.00000E+00
    0.00000E+00         0.00000E+00        -0.49736E+08
 
   -0.49613E+08         0.82142E+06         0.00000E+00
    0.82142E+06        -0.49988E+08         0.00000E+00
    0.00000E+00         0.00000E+00        -0.49736E+08
 
   -0.49617E+08         0.85821E+06         0.00000E+00
    0.85821E+06        -0.49986E+08         0.00000E+00
    0.00000E+00         0.00000E+00        -0.49737E+08
 
   -0.49621E+08         0.89468E+06         0.00000E+00
    0.89468E+06        -0.49985E+08         0.00000E+00
    0.00000E+00         0.00000E+00        -0.49738E+08
 
   -0.49625E+08         0.93082E+06         0.00000E+00
    0.93082E+06        -0.49984E+08         0.00000E+00
    0.00000E+00         0.00000E+00        -0.49738E+08
 
   -0.49629E+08         0.96663E+06         0.00000E+00
    0.96663E+06        -0.49982E+08         0.00000E+00
    0.00000E+00         0.00000E+00        -0.49739E+08
 
   -0.49633E+08         0.10021E+07         0.00000E+00
    0.10021E+07        -0.49981E+08         0.00000E+00
    0.00000E+00         0.00000E+00        -0.49739E+08
 
   -0.49637E+08         0.10372E+07         0.00000E+00
    0.10372E+07        -0.49980E+08         0.00000E+00
    0.00000E+00         0.00000E+00        -0.49740E+08
 
   -0.49642E+08         0.10720E+07         0.00000E+00
    0.10720E+07        -0.49978E+08         0.00000E+00
    0.00000E+00         0.00000E+00        -0.49741E+08
 
   -0.49646E+08         0.11065E+07         0.00000E+00
    0.11065E+07        -0.49976E+08         0.00000E+00
    0.00000E+00         0.00000E+00        -0.49741E+08
 
   -0.49651E+08         0.11406E+07         0.00000E+00
    0.11406E+07        -0.49975E+08         0.00000E+00
    0.00000E+00         0.00000E+00        -0.49742E+08
 
   -0.49655E+08         0.11744E+07         0.00000E+00
    0.11744E+07        -0.49973E+08         0.00000E+00
    0.00000E+00         0.00000E+00        -0.49743E+08
 
   -0.49660E+08         0.12078E+07         0.00000E+00
    0.12078E+07        -0.49971E+08         0.00000E+00
    0.00000E+00         0.00000E+00        -0.49743E+08
 
   -0.49664E+08         0.12409E+07         0.00000E+00
    0.12409E+07        -0.49970E+08         0.00000E+00
    0.00000E+00         0.00000E+00        -0.49744E+08
 
   -0.49669E+08         0.12736E+07         0.00000E+00
    0.12736E+07        -0.49968E+08         0.00000E+00
    0.00000E+00         0.00000E+00        -0.49745E+08
 
   -0.49674E+08         0.13060E+07         0.00000E+00
    0.13060E+07        -0.49966E+08         0.00000E+00
    0.00000E+00         0.00000E+00        -0.49745E+08
 
   -0.49679E+08         0.13380E+07         0.00000E+00
    0.13380E+07        -0.49964E+08         0.00000E+00
    0.00000E+00         0.00000E+00        -0.49746E+08
 
   -0.49684E+08         0.13696E+07         0.00000E+00
    0.13696E+07        -0.49962E+08         0.00000E+00
    0.00000E+00         0.00000E+00        -0.49746E+08
 
   -0.49689E+08         0.14009E+07         0.00000E+00
    0.14009E+07        -0.49960E+08         0.00000E+00
    0.00000E+00         0.00000E+00        -0.49747E+08
 
   -0.49694E+08         0.14318E+07         0.00000E+00
    0.14318E+07        -0.49958E+08         0.00000E+00
    0.00000E+00         0.00000E+00        -0.49748E+08
 
   -0.49699E+08         0.14624E+07         0.00000E+00
    0.14624E+07        -0.49956E+08         0.00000E+00
    0.00000E+00         0.00000E+00        -0.49748E+08
 
   -0.49704E+08         0.14926E+07         0.00000E+00
    0.14926E+07        -0.49954E+08         0.00000E+00
    0.00000E+00         0.00000E+00        -0.49749E+08
 
   -0.49709E+08         0.15224E+07         0.00000E+00
    0.15224E+07        -0.49952E+08         0.00000E+00
    0.00000E+00         0.00000E+00        -0.49750E+08
 
   -0.49714E+08         0.15518E+07         0.00000E+00
    0.15518E+07        -0.49950E+08         0.00000E+00
    0.00000E+00         0.00000E+00        -0.49750E+08
 
   -0.49720E+08         0.15809E+07         0.00000E+00
    0.15809E+07        -0.49948E+08         0.00000E+00
    0.00000E+00         0.00000E+00        -0.49751E+08
 
   -0.49725E+08         0.16095E+07         0.00000E+00
    0.16095E+07        -0.49945E+08         0.00000E+00
    0.00000E+00         0.00000E+00        -0.49752E+08
 
   -0.49730E+08         0.16378E+07         0.00000E+00
    0.16378E+07        -0.49943E+08         0.00000E+00
    0.00000E+00         0.00000E+00        -0.49752E+08
 
   -0.49736E+08         0.16657E+07         0.00000E+00
    0.16657E+07        -0.49941E+08         0.00000E+00
    0.00000E+00         0.00000E+00        -0.49753E+08
 
   -0.49741E+08         0.16932E+07         0.00000E+00
    0.16932E+07        -0.49938E+08         0.00000E+00
    0.00000E+00         0.00000E+00        -0.49754E+08
 
   -0.49747E+08         0.17203E+07         0.00000E+00
    0.17203E+07        -0.49936E+08         0.00000E+00
    0.00000E+00         0.00000E+00        -0.49754E+08
 
   -0.49752E+08         0.17470E+07         0.00000E+00
    0.17470E+07        -0.49933E+08         0.00000E+00
    0.00000E+00         0.00000E+00        -0.49755E+08
 
   -0.49336E+08         0.21831E+05         0.00000E+00
    0.21831E+05        -0.50000E+08         0.00000E+00
    0.00000E+00         0.00000E+00        -0.49581E+08
 
   -0.49340E+08         0.64878E+05         0.00000E+00
    0.64878E+05        -0.50000E+08         0.00000E+00
    0.00000E+00         0.00000E+00        -0.49582E+08
 
   -0.49343E+08         0.10766E+06         0.00000E+00
    0.10766E+06        -0.50000E+08         0.00000E+00
    0.00000E+00         0.00000E+00        -0.49583E+08
 
   -0.49347E+08         0.15017E+06         0.00000E+00
    0.15017E+06        -0.50000E+08         0.00000E+00
    0.00000E+00         0.00000E+00        -0.49584E+08
 
   -0.49351E+08         0.19240E+06         0.00000E+00
    0.19240E+06        -0.49999E+08         0.00000E+00
    0.00000E+00         0.00000E+00        -0.49584E+08
 
   -0.49355E+08         0.23436E+06         0.00000E+00
    0.23436E+06        -0.49999E+08         0.00000E+00
    0.00000E+00         0.00000E+00        -0.49585E+08
 
   -0.49359E+08         0.27603E+06         0.00000E+00
    0.27603E+06        -0.49998E+08         0.00000E+00
    0.00000E+00         0.00000E+00        -0.49586E+08
 
   -0.49363E+08         0.31743E+06         0.00000E+00
    0.31743E+06        -0.49998E+08         0.00000E+00
    0.00000E+00         0.00000E+00        -0.49587E+08
 
   -0.49368E+08         0.35853E+06         0.00000E+00
    0.35853E+06        -0.49997E+08         0.00000E+00
    0.00000E+00         0.00000E+00        -0.49587E+08
 
   -0.49372E+08         0.39934E+06         0.00000E+00
    0.39934E+06        -0.49996E+08         0.00000E+00
    0.00000E+00         0.00000E+00        -0.49588E+08
 
   -0.49377E+08         0.43986E+06         0.00000E+00
    0.43986E+06        -0.49996E+08         0.00000E+00
    0.00000E+00         0.00000E+00        -0.49589E+08
 
   -0.49381E+08         0.48008E+06         0.00000E+00
    0.48008E+06        -0.49995E+08         0.00000E+00
    0.00000E+00         0.00000E+00        -0.49590E+08
 
   -0.49386E+08         0.52001E+06         0.00000E+00
    0.52001E+06        -0.49994E+08         0.00000E+00
    0.00000E+00         0.00000E+00        -0.49591E+08
 
   -0.49391E+08         0.55963E+06         0.00000E+00
    0.55963E+06        -0.49993E+08         0.00000E+00
    0.00000E+00         0.00000E+00        -0.49591E+08
 
   -0.49396E+08         0.59894E+06         0.00000E+00
    0.59894E+06        -0.49992E+08         0.00000E+00
    0.00000E+00         0.00000E+00        -0.49592E+08
 
   -0.49401E+08         0.63794E+06         0.00000E+00
    0.63794E+06        -0.49991E+08         0.00000E+00
    0.00000E+00         0.00000E+00        -0.49593E+08
 
   -0.49406E+08         0.67664E+06         0.00000E+00
    0.67664E+06        -0.49989E+08         0.00000E+00
    0.00000E+00         0.00000E+00        -0.49594E+08
 
   -0.49411E+08         0.71502E+06         0.00000E+00
    0.71502E+06        -0.49988E+08         0.00000E+00
    0.00000E+00         0.00000E+00        -0.49595E+08
 
   -0.49416E+08         0.75308E+06         0.00000E+00
    0.75308E+06        -0.49987E+08         0.00000E+00
    0.00000E+00         0.00000E+00        -0.49595E+08
 
   -0.49422E+08         0.79082E+06         0.00000E+00
    0.79082E+06        -0.49985E+08         0.00000E+00
    0.00000E+00         0.00000E+00        -0.49596E+08
 
   -0.49427E+08         0.82824E+06         0.00000E+00
    0.82824E+06        -0.49984E+08         0.00000E+00
    0.00000E+00         0.00000E+00        -0.49597E+08
 
   -0.49433E+08         0.86534E+06         0.00000E+00
    0.86534E+06        -0.49982E+08         0.00000E+00
    0.00000E+00         0.00000E+00        -0.49598E+08
 
   -0.49438E+08         0.90210E+06         0.00000E+00
    0.90210E+06        -0.49981E+08         0.00000E+00
    0.00000E+00         0.00000E+00        -0.49599E+08
 
   -0.49444E+08         0.93854E+06         0.00000E+00
    0.93854E+06        -0.49979E+08         0.00000E+00
    0.00000E+00         0.00000E+00        -0.49600E+08
 
   -0.49450E+08         0.97465E+06         0.00000E+00
    0.97465E+06        -0.49977E+08         0.00000E+00
    0.00000E+00         0.00000E+00        -0.49601E+08
 
   -0.49456E+08         0.10104E+07         0.00000E+00
    0.10104E+07        -0.49975E+08         0.00000E+00
    0.00000E+00         0.00000E+00        -0.49602E+08
 
   -0.49462E+08         0.10458E+07         0.00000E+00
    0.10458E+07        -0.49973E+08         0.00000E+00
    0.00000E+00         0.00000E+00        -0.49602E+08
 
   -0.49468E+08         0.10809E+07         0.00000E+00
    0.10809E+07        -0.49971E+08         0.00000E+00
    0.00000E+00         0.00000E+00        -0.49603E+08
 
   -0.49474E+08         0.11157E+07         0.00000E+00
    0.11157E+07        -0.49969E+08         0.00000E+00
    0.00000E+00         0.00000E+00        -0.49604E+08
 
   -0.49480E+08         0.11501E+07         0.00000E+00
    0.11501E+07        -0.49967E+08         0.00000E+00
    0.00000E+00         0.00000E+00        -0.49605E+08
 
   -0.49486E+08         0.11841E+07         0.00000E+00
    0.11841E+07        -0.49965E+08         0.00000E+00
    0.00000E+00         0.00000E+00        -0.49606E+08
 
   -0.49493E+08         0.12178E+07         0.00000E+00
    0.12178E+07        -0.49963E+08         0.00000E+00
    0.00000E+00         0.00000E+00        -0.49607E+08
 
   -0.49499E+08         0.12512E+07         0.00000E+00
    0.12512E+07        -0.49960E+08         0.00000E+00
    0.00000E+00         0.00000E+00        -0.49608E+08
 
   -0.49506E+08         0.12842E+07         0.00000E+00
    0.12842E+07        -0.49958E+08         0.00000E+00
    0.00000E+00         0.00000E+00        -0.49609E+08
 
   -0.49512E+08         0.13168E+07         0.00000E+00
    0.13168E+07        -0.49956E+08         0.00000E+00
    0.00000E+00         0.00000E+00        -0.49609E+08
 
   -0.49519E+08         0.13491E+07         0.00000E+00
    0.13491E+07        -0.49953E+08         0.00000E+00
    0.00000E+00         0.00000E+00        -0.49610E+08
 
   -0.49526E+08         0.13810E+07         0.00000E+00
    0.13810E+07        -0.49950E+08         0.00000E+00
    0.00000E+00         0.00000E+00        -0.49611E+08
 
   -0.49533E+08         0.14126E+07         0.00000E+00
    0.14126E+07        -0.49948E+08         0.00000E+00
    0.00000E+00         0.00000E+00        -0.49612E+08
 
   -0.49539E+08         0.14437E+07         0.00000E+00
    0.14437E+07        -0.49945E+08         0.00000E+00
    0.00000E+00         0.00000E+00        -0.49613E+08
 
   -0.49546E+08         0.14745E+07         0.00000E+00
    0.14745E+07        -0.49942E+08         0.00000E+00
    0.00000E+00         0.00000E+00        -0.49614E+08
 
   -0.49553E+08         0.15050E+07         0.00000E+00
    0.15050E+07        -0.49940E+08         0.00000E+00
    0.00000E+00         0.00000E+00        -0.49615E+08
 
   -0.49560E+08         0.15350E+07         0.00000E+00
    0.15350E+07        -0.49937E+08         0.00000E+00
    0.00000E+00         0.00000E+00        -0.49616E+08
 
   -0.49568E+08         0.15647E+07         0.00000E+00
    0.15647E+07        -0.49934E+08         0.00000E+00
    0.00000E+00         0.00000E+00        -0.49617E+08
 
   -0.49575E+08         0.15940E+07         0.00000E+00
    0.15940E+07        -0.49931E+08         0.00000E+00
    0.00000E+00         0.00000E+00        -0.49617E+08
 
   -0.49582E+08         0.16229E+07         0.00000E+00
    0.16229E+07        -0.49928E+08         0.00000E+00
    0.00000E+00         0.00000E+00        -0.49618E+08
 
   -0.49589E+08         0.16514E+07         0.00000E+00
    0.16514E+07        -0.49925E+08         0.00000E+00
    0.00000E+00         0.00000E+00        -0.49619E+08
 
   -0.49597E+08         0.16795E+07         0.00000E+00
    0.16795E+07        -0.49922E+08         0.00000E+00
    0.00000E+00         0.00000E+00        -0.49620E+08
 
   -0.49604E+08         0.17073E+07         0.00000E+00
    0.17073E+07        -0.49918E+08         0.00000E+00
    0.00000E+00         0.00000E+00        -0.49621E+08
 
   -0.49612E+08         0.17346E+07         0.00000E+00
    0.17346E+07        -0.49915E+08         0.00000E+00
    0.00000E+00         0.00000E+00        -0.49622E+08
 
   -0.49619E+08         0.17615E+07         0.00000E+00
    0.17615E+07        -0.49912E+08         0.00000E+00
    0.00000E+00         0.00000E+00        -0.49623E+08
 
   -0.49119E+08         0.22060E+05         0.00000E+00
    0.22060E+05        -0.50000E+08         0.00000E+00
    0.00000E+00         0.00000E+00        -0.49435E+08
 
   -0.49124E+08         0.65557E+05         0.00000E+00
    0.65557E+05        -0.50000E+08         0.00000E+00
    0.00000E+00         0.00000E+00        -0.49436E+08
 
   -0.49129E+08         0.10878E+06         0.00000E+00
    0.10878E+06        -0.50000E+08         0.00000E+00
    0.00000E+00         0.00000E+00        -0.49437E+08
 
   -0.49134E+08         0.15174E+06         0.00000E+00
    0.15174E+06        -0.49999E+08         0.00000E+00
    0.00000E+00         0.00000E+00        -0.49438E+08
 
   -0.49139E+08         0.19441E+06         0.00000E+00
    0.19441E+06        -0.49999E+08         0.00000E+00
    0.00000E+00         0.00000E+00        -0.49439E+08
 
   -0.49145E+08         0.23681E+06         0.00000E+00
    0.23681E+06        -0.49999E+08         0.00000E+00
    0.00000E+00         0.00000E+00        -0.49440E+08
 
   -0.49150E+08         0.27892E+06         0.00000E+00
    0.27892E+06        -0.49998E+08         0.00000E+00
    0.00000E+00         0.00000E+00        -0.49441E+08
 
   -0.49156E+08         0.32074E+06         0.00000E+00
    0.32074E+06        -0.49997E+08         0.00000E+00
    0.00000E+00         0.00000E+00        -0.49442E+08
 
   -0.49162E+08         0.36227E+06         0.00000E+00
    0.36227E+06        -0.49996E+08         0.00000E+00
    0.00000E+00         0.00000E+00        -0.49443E+08
 
   -0.49168E+08         0.40351E+06         0.00000E+00
    0.40351E+06        -0.49996E+08         0.00000E+00
    0.00000E+00         0.00000E+00        -0.49445E+08
 
   -0.49174E+08         0.44445E+06         0.00000E+00
    0.44445E+06        -0.49995E+08         0.00000E+00
    0.00000E+00         0.00000E+00        -0.49446E+08
 
   -0.49180E+08         0.48509E+06         0.00000E+00
    0.48509E+06        -0.49994E+08         0.00000E+00
    0.00000E+00         0.00000E+00        -0.49447E+08
 
   -0.49186E+08         0.52542E+06         0.00000E+00
    0.52542E+06        -0.49992E+08         0.00000E+00
    0.00000E+00         0.00000E+00        -0.49448E+08
 
   -0.49192E+08         0.56546E+06         0.00000E+00
    0.56546E+06        -0.49991E+08         0.00000E+00
    0.00000E+00         0.00000E+00        -0.49449E+08
 
   -0.49199E+08         0.60518E+06         0.00000E+00
    0.60518E+06        -0.49990E+08         0.00000E+00
    0.00000E+00         0.00000E+00        -0.49450E+08
 
   -0.49205E+08         0.64459E+06         0.00000E+00
    0.64459E+06        -0.49988E+08         0.00000E+00
    0.00000E+00         0.00000E+00        -0.49451E+08
 
   -0.49212E+08         0.68369E+06         0.00000E+00
    0.68369E+06        -0.49987E+08         0.00000E+00
    0.00000E+00         0.00000E+00        -0.49452E+08
 
   -0.49219E+08         0.72247E+06         0.00000E+00
    0.72247E+06        -0.49985E+08         0.00000E+00
    0.00000E+00         0.00000E+00        -0.49453E+08
 
   -0.49226E+08         0.76093E+06         0.00000E+00
    0.76093E+06        -0.49984E+08         0.00000E+00
    0.00000E+00         0.00000E+00        -0.49454E+08
 
   -0.49233E+08         0.79907E+06         0.00000E+00
    0.79907E+06        -0.49982E+08         0.00000E+00
    0.00000E+00         0.00000E+00        -0.49455E+08
 
   -0.49240E+08         0.83688E+06         0.00000E+00
    0.83688E+06        -0.49980E+08         0.00000E+00
    0.00000E+00         0.00000E+00        -0.49457E+08
 
   -0.49247E+08         0.87437E+06         0.00000E+00
    0.87437E+06        -0.49978E+08         0.00000E+00
    0.00000E+00         0.00000E+00        -0.49458E+08
 
   -0.49254E+08         0.91152E+06         0.00000E+00
    0.91152E+06        -0.49976E+08         0.00000E+00
    0.00000E+00         0.00000E+00        -0.49459E+08
 
   -0.49262E+08         0.94834E+06         0.00000E+00
    0.94834E+06        -0.49974E+08         0.00000E+00
    0.00000E+00         0.00000E+00        -0.49460E+08
 
   -0.49269E+08         0.98483E+06         0.00000E+00
    0.98483E+06        -0.49972E+08         0.00000E+00
    0.00000E+00         0.00000E+00        -0.49461E+08
 
   -0.49277E+08         0.10210E+07         0.00000E+00
    0.10210E+07        -0.49969E+08         0.00000E+00
    0.00000E+00         0.00000E+00        -0.49462E+08
 
   -0.49284E+08         0.10568E+07         0.00000E+00
    0.10568E+07        -0.49967E+08         0.00000E+00
    0.00000E+00         0.00000E+00        -0.49463E+08
 
   -0.49292E+08         0.10923E+07         0.00000E+00
    0.10923E+07        -0.49964E+08         0.00000E+00
    0.00000E+00         0.00000E+00        -0.49464E+08
 
   -0.49300E+08         0.11274E+07         0.00000E+00
    0.11274E+07        -0.49962E+08         0.00000E+00
    0.00000E+00         0.00000E+00        -0.49466E+08
 
   -0.49308E+08         0.11622E+07         0.00000E+00
    0.11622E+07        -0.49959E+08         0.00000E+00
    0.00000E+00         0.00000E+00        -0.49467E+08
 
   -0.49316E+08         0.11966E+07         0.00000E+00
    0.11966E+07        -0.49957E+08         0.00000E+00
    0.00000E+00         0.00000E+00        -0.49468E+08
 
   -0.49324E+08         0.12306E+07         0.00000E+00
    0.12306E+07        -0.49954E+08         0.00000E+00
    0.00000E+00         0.00000E+00        -0.49469E+08
 
   -0.49332E+08         0.12644E+07         0.00000E+00
    0.12644E+07        -0.49951E+08         0.00000E+00
    0.00000E+00         0.00000E+00        -0.49470E+08
 
   -0.49341E+08         0.12977E+07         0.00000E+00
    0.12977E+07        -0.49948E+08         0.00000E+00
    0.00000E+00         0.00000E+00        -0.49471E+08
 
   -0.49349E+08         0.13307E+07         0.00000E+00
    0.13307E+07        -0.49945E+08         0.00000E+00
    0.00000E+00         0.00000E+00        -0.49472E+08
 
   -0.49358E+08         0.13633E+07         0.00000E+00
    0.13633E+07        -0.49942E+08         0.00000E+00
    0.00000E+00         0.00000E+00        -0.49474E+08
 
   -0.49366E+08         0.13956E+07         0.00000E+00
    0.13956E+07        -0.49939E+08         0.00000E+00
    0.00000E+00         0.00000E+00        -0.49475E+08
 
   -0.49375E+08         0.14275E+07         0.00000E+00
    0.14275E+07        -0.49935E+08         0.00000E+00
    0.00000E+00         0.00000E+00        -0.49476E+08
 
   -0.49384E+08         0.14590E+07         0.00000E+00
    0.14590E+07        -0.49932E+08         0.00000E+00
    0.00000E+00         0.00000E+00        -0.49477E+08
 
   -0.49392E+08         0.14902E+07         0.00000E+00
    0.14902E+07        -0.49929E+08         0.00000E+00
    0.00000E+00         0.00000E+00        -0.49478E+08
 
   -0.49401E+08         0.15210E+07         0.00000E+00
    0.15210E+07        -0.49925E+08         0.00000E+00
    0.00000E+00         0.00000E+00        -0.49479E+08
 
   -0.49410E+08         0.15514E+07         0.00000E+00
    0.15514E+07        -0.49921E+08         0.00000E+00
    0.00000E+00         0.00000E+00        -0.49480E+08
 
   -0.49419E+08         0.15814E+07         0.00000E+00
    0.15814E+07        -0.49918E+08         0.00000E+00
    0.00000E+00         0.00000E+00        -0.49481E+08
 
   -0.49428E+08         0.16110E+07         0.00000E+00
    0.16110E+07        -0.49914E+08         0.00000E+00
    0.00000E+00         0.00000E+00        -0.49482E+08
 
   -0.49438E+08         0.16402E+07         0.00000E+00
    0.16402E+07        -0.49910E+08         0.00000E+00
    0.00000E+00         0.00000E+00        -0.49484E+08
 
   -0.49447E+08         0.16691E+07         0.00000E+00
    0.16691E+07        -0.49906E+08         0.00000E+00
    0.00000E+00         0.00000E+00        -0.49485E+08
 
   -0.49456E+08         0.16975E+07         0.00000E+00
    0.16975E+07        -0.49902E+08         0.00000E+00
    0.00000E+00         0.00000E+00        -0.49486E+08
 
   -0.49466E+08         0.17256E+07         0.00000E+00
    0.17256E+07        -0.49898E+08         0.00000E+00
    0.00000E+00         0.00000E+00        -0.49487E+08
 
   -0.49475E+08         0.17533E+07         0.00000E+00
    0.17533E+07        -0.49894E+08         0.00000E+00
    0.00000E+00         0.00000E+00        -0.49488E+08
 
   -0.49485E+08         0.17805E+07         0.00000E+00
    0.17805E+07        -0.49890E+08         0.00000E+00
    0.00000E+00         0.00000E+00        -0.49489E+08
 
   -0.48900E+08         0.22338E+05         0.00000E+00
    0.22338E+05        -0.50000E+08         0.00000E+00
    0.00000E+00         0.00000E+00        -0.49288E+08
 
   -0.48906E+08         0.66380E+05         0.00000E+00
    0.66380E+05        -0.50000E+08         0.00000E+00
    0.00000E+00         0.00000E+00        -0.49289E+08
 
   -0.48912E+08         0.11015E+06         0.00000E+00
    0.11015E+06        -0.50000E+08         0.00000E+00
    0.00000E+00         0.00000E+00        -0.49290E+08
 
   -0.48919E+08         0.15364E+06         0.00000E+00
    0.15364E+06        -0.49999E+08         0.00000E+00
    0.00000E+00         0.00000E+00        -0.49291E+08
 
   -0.48925E+08         0.19684E+06         0.00000E+00
    0.19684E+06        -0.49999E+08         0.00000E+00
    0.00000E+00         0.00000E+00        -0.49293E+08
 
   -0.48932E+08         0.23977E+06         0.00000E+00
    0.23977E+06        -0.49998E+08         0.00000E+00
    0.00000E+00         0.00000E+00        -0.49294E+08
 
   -0.48939E+08         0.28240E+06         0.00000E+00
    0.28240E+06        -0.49998E+08         0.00000E+00
    0.00000E+00         0.00000E+00        -0.49295E+08
 
   -0.48946E+08         0.32474E+06         0.00000E+00
    0.32474E+06        -0.49997E+08         0.00000E+00
    0.00000E+00         0.00000E+00        -0.49296E+08
 
   -0.48954E+08         0.36679E+06         0.00000E+00
    0.36679E+06        -0.49996E+08         0.00000E+00
    0.00000E+00         0.00000E+00        -0.49298E+08
 
   -0.48961E+08         0.40854E+06         0.00000E+00
    0.40854E+06        -0.49995E+08         0.00000E+00
    0.00000E+00         0.00000E+00        -0.49299E+08
 
   -0.48968E+08         0.44999E+06         0.00000E+00
    0.44999E+06        -0.49994E+08         0.00000E+00
    0.00000E+00         0.00000E+00        -0.49300E+08
 
   -0.48976E+08         0.49114E+06         0.00000E+00
    0.49114E+06        -0.49992E+08         0.00000E+00
    0.00000E+00         0.00000E+00        -0.49302E+08
 
   -0.48984E+08         0.53198E+06         0.00000E+00
    0.53198E+06        -0.49991E+08         0.00000E+00
    0.00000E+00         0.00000E+00        -0.49303E+08
 
   -0.48992E+08         0.57251E+06         0.00000E+00
    0.57251E+06        -0.49989E+08         0.00000E+00
    0.00000E+00         0.00000E+00        -0.49304E+08
 
   -0.49000E+08         0.61273E+06         0.00000E+00
    0.61273E+06        -0.49988E+08         0.00000E+00
    0.00000E+00         0.00000E+00        -0.49306E+08
 
   -0.49008E+08         0.65263E+06         0.00000E+00
    0.65263E+06        -0.49986E+08         0.00000E+00
    0.00000E+00         0.00000E+00        -0.49307E+08
 
   -0.49016E+08         0.69222E+06         0.00000E+00
    0.69222E+06        -0.49984E+08         0.00000E+00
    0.00000E+00         0.00000E+00        -0.49308E+08
 
   -0.49025E+08         0.73148E+06         0.00000E+00
    0.73148E+06        -0.49982E+08         0.00000E+00
    0.00000E+00         0.00000E+00        -0.49310E+08
 
   -0.49033E+08         0.77043E+06         0.00000E+00
    0.77043E+06        -0.49980E+08         0.00000E+00
    0.00000E+00         0.00000E+00        -0.49311E+08
 
   -0.49042E+08         0.80905E+06         0.00000E+00
    0.80905E+06        -0.49978E+08         0.00000E+00
    0.00000E+00         0.00000E+00        -0.49313E+08
 
   -0.49050E+08         0.84734E+06         0.00000E+00
    0.84734E+06        -0.49976E+08         0.00000E+00
    0.00000E+00         0.00000E+00        -0.49314E+08
 
   -0.49059E+08         0.88530E+06         0.00000E+00
    0.88530E+06        -0.49974E+08         0.00000E+00
    0.00000E+00         0.00000E+00        -0.49315E+08
 
   -0.49068E+08         0.92293E+06         0.00000E+00
    0.92293E+06        -0.49971E+08         0.00000E+00
    0.00000E+00         0.00000E+00        -0.49317E+08
 
   -0.49077E+08         0.96023E+06         0.00000E+00
    0.96023E+06        -0.49969E+08         0.00000E+00
    0.00000E+00         0.00000E+00        -0.49318E+08
 
   -0.49086E+08         0.99718E+06         0.00000E+00
    0.99718E+06        -0.49966E+08         0.00000E+00
    0.00000E+00         0.00000E+00        -0.49320E+08
 
   -0.49096E+08         0.10338E+07         0.00000E+00
    0.10338E+07        -0.49963E+08         0.00000E+00
    0.00000E+00         0.00000E+00        -0.49321E+08
 
   -0.49105E+08         0.10701E+07         0.00000E+00
    0.10701E+07        -0.49961E+08         0.00000E+00
    0.00000E+00         0.00000E+00        -0.49322E+08
 
   -0.49115E+08         0.11060E+07         0.00000E+00
    0.11060E+07        -0.49958E+08         0.00000E+00
    0.00000E+00         0.00000E+00        -0.49324E+08
 
   -0.49124E+08         0.11416E+07         0.00000E+00
    0.11416E+07        -0.49955E+08         0.00000E+00
    0.00000E+00         0.00000E+00        -0.49325E+08
 
   -0.49134E+08         0.11768E+07         0.00000E+00
    0.11768E+07        -0.49952E+08         0.00000E+00
    0.00000E+00         0.00000E+00        -0.49326E+08
 
   -0.49144E+08         0.12117E+07         0.00000E+00
    0.12117E+07        -0.49948E+08         0.00000E+00
    0.00000E+00         0.00000E+00        -0.49328E+08
 
   -0.49154E+08         0.12462E+07         0.00000E+00
    0.12462E+07        -0.49945E+08         0.00000E+00
    0.00000E+00         0.00000E+00        -0.49329E+08
 
   -0.49164E+08         0.12804E+07         0.00000E+00
    0.12804E+07        -0.49941E+08         0.00000E+00
    0.00000E+00         0.00000E+00        -0.49331E+08
 
   -0.49174E+08         0.13142E+07         0.00000E+00
    0.13142E+07        -0.49938E+08         0.00000E+00
    0.00000E+00         0.00000E+00        -0.49332E+08
 
   -0.49184E+08         0.13476E+07         0.00000E+00
    0.13476E+07        -0.49934E+08         0.00000E+00
    0.00000E+00         0.00000E+00        -0.49333E+08
 
   -0.49194E+08         0.13807E+07         0.00000E+00
    0.13807E+07        -0.49931E+08         0.00000E+00
    0.00000E+00         0.00000E+00        -0.49335E+08
 
   -0.49205E+08         0.14134E+07         0.00000E+00
    0.14134E+07        -0.49927E+08         0.00000E+00
    0.00000E+00         0.00000E+00        -0.49336E+08
 
   -0.49215E+08         0.14458E+07         0.00000E+00
    0.14458E+07        -0.49923E+08         0.00000E+00
    0.00000E+00         0.00000E+00        -0.49338E+08
 
   -0.49226E+08         0.14777E+07         0.00000E+00
    0.14777E+07        -0.49919E+08         0.00000E+00
    0.00000E+00         0.00000E+00        -0.49339E+08
 
   -0.49237E+08         0.15093E+07         0.00000E+00
    0.15093E+07        -0.49915E+08         0.00000E+00
    0.00000E+00         0.00000E+00        -0.49340E+08
 
   -0.49247E+08         0.15405E+07         0.00000E+00
    0.15405E+07        -0.49910E+08         0.00000E+00
    0.00000E+00         0.00000E+00        -0.49342E+08
 
   -0.49258E+08         0.15714E+07         0.00000E+00
    0.15714E+07        -0.49906E+08         0.00000E+00
    0.00000E+00         0.00000E+00        -0.49343E+08
 
   -0.49269E+08         0.16018E+07         0.00000E+00
    0.16018E+07        -0.49902E+08         0.00000E+00
    0.00000E+00         0.00000E+00        -0.49344E+08
 
   -0.49280E+08         0.16319E+07         0.00000E+00
    0.16319E+07        -0.49897E+08         0.00000E+00
    0.00000E+00         0.00000E+00        -0.49346E+08
 
   -0.49291E+08         0.16616E+07         0.00000E+00
    0.16616E+07        -0.49892E+08         0.00000E+00
    0.00000E+00         0.00000E+00        -0.49347E+08
 
   -0.49303E+08         0.16909E+07         0.00000E+00
    0.16909E+07        -0.49888E+08         0.00000E+00
    0.00000E+00         0.00000E+00        -0.49348E+08
 
   -0.49314E+08         0.17197E+07         0.00000E+00
    0.17197E+07        -0.49883E+08         0.00000E+00
    0.00000E+00         0.00000E+00        -0.49350E+08
 
   -0.49325E+08         0.17482E+07         0.00000E+00
    0.17482E+07        -0.49878E+08         0.00000E+00
    0.00000E+00         0.00000E+00        -0.49351E+08
 
   -0.49337E+08         0.17763E+07         0.00000E+00
    0.17763E+07        -0.49873E+08         0.00000E+00
    0.00000E+00         0.00000E+00        -0.49352E+08
 
   -0.49348E+08         0.18040E+07         0.00000E+00
    0.18040E+07        -0.49868E+08         0.00000E+00
    0.00000E+00         0.00000E+00        -0.49354E+08
 
   -0.48677E+08         0.22664E+05         0.00000E+00
    0.22664E+05        -0.50000E+08         0.00000E+00
    0.00000E+00         0.00000E+00        -0.49137E+08
 
   -0.48685E+08         0.67346E+05         0.00000E+00
    0.67346E+05        -0.50000E+08         0.00000E+00
    0.00000E+00         0.00000E+00        -0.49139E+08
 
   -0.48692E+08         0.11175E+06         0.00000E+00
    0.11175E+06        -0.50000E+08         0.00000E+00
    0.00000E+00         0.00000E+00        -0.49140E+08
 
   -0.48700E+08         0.15587E+06         0.00000E+00
    0.15587E+06        -0.49999E+08         0.00000E+00
    0.00000E+00         0.00000E+00        -0.49142E+08
 
   -0.48709E+08         0.19970E+06         0.00000E+00
    0.19970E+06        -0.49999E+08         0.00000E+00
    0.00000E+00         0.00000E+00        -0.49143E+08
 
   -0.48717E+08         0.24324E+06         0.00000E+00
    0.24324E+06        -0.49998E+08         0.00000E+00
    0.00000E+00         0.00000E+00        -0.49145E+08
 
   -0.48725E+08         0.28649E+06         0.00000E+00
    0.28649E+06        -0.49997E+08         0.00000E+00
    0.00000E+00         0.00000E+00        -0.49146E+08
 
   -0.48734E+08         0.32944E+06         0.00000E+00
    0.32944E+06        -0.49996E+08         0.00000E+00
    0.00000E+00         0.00000E+00        -0.49148E+08
 
   -0.48743E+08         0.37209E+06         0.00000E+00
    0.37209E+06        -0.49995E+08         0.00000E+00
    0.00000E+00         0.00000E+00        -0.49149E+08
 
   -0.48751E+08         0.41444E+06         0.00000E+00
    0.41444E+06        -0.49994E+08         0.00000E+00
    0.00000E+00         0.00000E+00        -0.49151E+08
 
   -0.48760E+08         0.45649E+06         0.00000E+00
    0.45649E+06        -0.49993E+08         0.00000E+00
    0.00000E+00         0.00000E+00        -0.49153E+08
 
   -0.48770E+08         0.49823E+06         0.00000E+00
    0.49823E+06        -0.49991E+08         0.00000E+00
    0.00000E+00         0.00000E+00        -0.49154E+08
 
   -0.48779E+08         0.53966E+06         0.00000E+00
    0.53966E+06        -0.49990E+08         0.00000E+00
    0.00000E+00         0.00000E+00        -0.49156E+08
 
   -0.48788E+08         0.58078E+06         0.00000E+00
    0.58078E+06        -0.49988E+08         0.00000E+00
    0.00000E+00         0.00000E+00        -0.49158E+08
 
   -0.48798E+08         0.62158E+06         0.00000E+00
    0.62158E+06        -0.49986E+08         0.00000E+00
    0.00000E+00         0.00000E+00        -0.49159E+08
 
   -0.48808E+08         0.66206E+06         0.00000E+00
    0.66206E+06        -0.49984E+08         0.00000E+00
    0.00000E+00         0.00000E+00        -0.49161E+08
 
   -0.48818E+08         0.70222E+06         0.00000E+00
    0.70222E+06        -0.49982E+08         0.00000E+00
    0.00000E+00         0.00000E+00        -0.49162E+08
 
   -0.48828E+08         0.74206E+06         0.00000E+00
    0.74206E+06        -0.49980E+08         0.00000E+00
    0.00000E+00         0.00000E+00        -0.49164E+08
 
   -0.48838E+08         0.78158E+06         0.00000E+00
    0.78158E+06        -0.49977E+08         0.00000E+00
    0.00000E+00         0.00000E+00        -0.49166E+08
 
   -0.48848E+08         0.82077E+06         0.00000E+00
    0.82077E+06        -0.49975E+08         0.00000E+00
    0.00000E+00         0.00000E+00        -0.49167E+08
 
   -0.48858E+08         0.85962E+06         0.00000E+00
    0.85962E+06        -0.49972E+08         0.00000E+00
    0.00000E+00         0.00000E+00        -0.49169E+08
 
   -0.48869E+08         0.89815E+06         0.00000E+00
    0.89815E+06        -0.49970E+08         0.00000E+00
    0.00000E+00         0.00000E+00        -0.49171E+08
 
   -0.48879E+08         0.93634E+06         0.00000E+00
    0.93634E+06        -0.49967E+08         0.00000E+00
    0.00000E+00         0.00000E+00        -0.49172E+08
 
   -0.48890E+08         0.97419E+06         0.00000E+00
    0.97419E+06        -0.49964E+08         0.00000E+00
    0.00000E+00         0.00000E+00        -0.49174E+08
 
   -0.48901E+08         0.10117E+07         0.00000E+00
    0.10117E+07        -0.49961E+08         0.00000E+00
    0.00000E+00         0.00000E+00        -0.49176E+08
 
   -0.48912E+08         0.10489E+07         0.00000E+00
    0.10489E+07        -0.49958E+08         0.00000E+00
    0.00000E+00         0.00000E+00        -0.49177E+08
 
   -0.48923E+08         0.10857E+07         0.00000E+00
    0.10857E+07        -0.49954E+08         0.00000E+00
    0.00000E+00         0.00000E+00        -0.49179E+08
 
   -0.48934E+08         0.11222E+07         0.00000E+00
    0.11222E+07        -0.49951E+08         0.00000E+00
    0.00000E+00         0.00000E+00        -0.49181E+08
 
   -0.48946E+08         0.11583E+07         0.00000E+00
    0.11583E+07        -0.49947E+08         0.00000E+00
    0.00000E+00         0.00000E+00        -0.49182E+08
 
   -0.48957E+08         0.11941E+07         0.00000E+00
    0.11941E+07        -0.49944E+08         0.00000E+00
    0.00000E+00         0.00000E+00        -0.49184E+08
 
   -0.48969E+08         0.12295E+07         0.00000E+00
    0.12295E+07        -0.49940E+08         0.00000E+00
    0.00000E+00         0.00000E+00        -0.49185E+08
 
   -0.48981E+08         0.12646E+07         0.00000E+00
    0.12646E+07        -0.49936E+08         0.00000E+00
    0.00000E+00         0.00000E+00        -0.49187E+08
 
   -0.48992E+08         0.12993E+07         0.00000E+00
    0.12993E+07        -0.49932E+08         0.00000E+00
    0.00000E+00         0.00000E+00        -0.49189E+08
 
   -0.49004E+08         0.13336E+07         0.00000E+00
    0.13336E+07        -0.49928E+08         0.00000E+00
    0.00000E+00         0.00000E+00        -0.49190E+08
 
   -0.49016E+08         0.13676E+07         0.00000E+00
    0.13676E+07        -0.49924E+08         0.00000E+00
    0.00000E+00         0.00000E+00        -0.49192E+08
 
   -0.49029E+08         0.14012E+07         0.00000E+00
    0.14012E+07        -0.49919E+08         0.00000E+00
    0.00000E+00         0.00000E+00        -0.49194E+08
 
   -0.49041E+08         0.14345E+07         0.00000E+00
    0.14345E+07        -0.49915E+08         0.00000E+00
    0.00000E+00         0.00000E+00        -0.49195E+08
 
   -0.49053E+08         0.14674E+07         0.00000E+00
    0.14674E+07        -0.49910E+08         0.00000E+00
    0.00000E+00         0.00000E+00        -0.49197E+08
 
   -0.49066E+08         0.14999E+07         0.00000E+00
    0.14999E+07        -0.49906E+08         0.00000E+00
    0.00000E+00         0.00000E+00        -0.49199E+08
 
   -0.49078E+08         0.15320E+07         0.00000E+00
    0.15320E+07        -0.49901E+08         0.00000E+00
    0.00000E+00         0.00000E+00        -0.49200E+08
 
   -0.49091E+08         0.15637E+07         0.00000E+00
    0.15637E+07        -0.49896E+08         0.00000E+00
    0.00000E+00         0.00000E+00        -0.49202E+08
 
   -0.49104E+08         0.15951E+07         0.00000E+00
    0.15951E+07        -0.49891E+08         0.00000E+00
    0.00000E+00         0.00000E+00        -0.49203E+08
 
   -0.49117E+08         0.16261E+07         0.00000E+00
    0.16261E+07        -0.49886E+08         0.00000E+00
    0.00000E+00         0.00000E+00        -0.49205E+08
 
   -0.49130E+08         0.16567E+07         0.00000E+00
    0.16567E+07        -0.49880E+08         0.00000E+00
    0.00000E+00         0.00000E+00        -0.49206E+08
 
   -0.49143E+08         0.16869E+07         0.00000E+00
    0.16869E+07        -0.49875E+08         0.00000E+00
    0.00000E+00         0.00000E+00        -0.49208E+08
 
   -0.49156E+08         0.17167E+07         0.00000E+00
    0.17167E+07        -0.49869E+08         0.00000E+00
    0.00000E+00         0.00000E+00        -0.49210E+08
 
   -0.49169E+08         0.17461E+07         0.00000E+00
    0.17461E+07        -0.49864E+08         0.00000E+00
    0.00000E+00         0.00000E+00        -0.49211E+08
 
   -0.49183E+08         0.17751E+07         0.00000E+00
    0.17751E+07        -0.49858E+08         0.00000E+00
    0.00000E+00         0.00000E+00        -0.49213E+08
 
   -0.49196E+08         0.18037E+07         0.00000E+00
    0.18037E+07        -0.49852E+08         0.00000E+00
    0.00000E+00         0.00000E+00        -0.49214E+08
 
   -0.49210E+08         0.18320E+07         0.00000E+00
    0.18320E+07        -0.49846E+08         0.00000E+00
    0.00000E+00         0.00000E+00        -0.49216E+08
 
   -0.48451E+08         0.23039E+05         0.00000E+00
    0.23039E+05        -0.50000E+08         0.00000E+00
    0.00000E+00         0.00000E+00        -0.48984E+08
 
   -0.48460E+08         0.68454E+05         0.00000E+00
    0.68454E+05        -0.50000E+08         0.00000E+00
    0.00000E+00         0.00000E+00        -0.48985E+08
 
   -0.48469E+08         0.11358E+06         0.00000E+00
    0.11358E+06        -0.50000E+08         0.00000E+00
    0.00000E+00         0.00000E+00        -0.48987E+08
 
   -0.48479E+08         0.15842E+06         0.00000E+00
    0.15842E+06        -0.49999E+08         0.00000E+00
    0.00000E+00         0.00000E+00        -0.48989E+08
 
   -0.48488E+08         0.20297E+06         0.00000E+00
    0.20297E+06        -0.49998E+08         0.00000E+00
    0.00000E+00         0.00000E+00        -0.48991E+08
 
   -0.48498E+08         0.24722E+06         0.00000E+00
    0.24722E+06        -0.49998E+08         0.00000E+00
    0.00000E+00         0.00000E+00        -0.48993E+08
 
   -0.48508E+08         0.29117E+06         0.00000E+00
    0.29117E+06        -0.49997E+08         0.00000E+00
    0.00000E+00         0.00000E+00        -0.48995E+08
 
   -0.48518E+08         0.33482E+06         0.00000E+00
    0.33482E+06        -0.49996E+08         0.00000E+00
    0.00000E+00         0.00000E+00        -0.48996E+08
 
   -0.48528E+08         0.37817E+06         0.00000E+00
    0.37817E+06        -0.49994E+08         0.00000E+00
    0.00000E+00         0.00000E+00        -0.48998E+08
 
   -0.48539E+08         0.42121E+06         0.00000E+00
    0.42121E+06        -0.49993E+08         0.00000E+00
    0.00000E+00         0.00000E+00        -0.49000E+08
 
   -0.48549E+08         0.46394E+06         0.00000E+00
    0.46394E+06        -0.49992E+08         0.00000E+00
    0.00000E+00         0.00000E+00        -0.49002E+08
 
   -0.48560E+08         0.50636E+06         0.00000E+00
    0.50636E+06        -0.49990E+08         0.00000E+00
    0.00000E+00         0.00000E+00        -0.49004E+08
 
   -0.48571E+08         0.54846E+06         0.00000E+00
    0.54846E+06        -0.49988E+08         0.00000E+00
    0.00000E+00         0.00000E+00        -0.49006E+08
 
   -0.48582E+08         0.59025E+06         0.00000E+00
    0.59025E+06        -0.49986E+08         0.00000E+00
    0.00000E+00         0.00000E+00        -0.49008E+08
 
   -0.48593E+08         0.63172E+06         0.00000E+00
    0.63172E+06        -0.49984E+08         0.00000E+00
    0.00000E+00         0.00000E+00        -0.49010E+08
 
   -0.48604E+08         0.67287E+06         0.00000E+00
    0.67287E+06        -0.49982E+08         0.00000E+00
    0.00000E+00         0.00000E+00        -0.49012E+08
 
   -0.48616E+08         0.71369E+06         0.00000E+00
    0.71369E+06        -0.49979E+08         0.00000E+00
    0.00000E+00         0.00000E+00        -0.49013E+08
 
   -0.48628E+08         0.75419E+06         0.00000E+00
    0.75419E+06        -0.49977E+08         0.00000E+00
    0.00000E+00         0.00000E+00        -0.49015E+08
 
   -0.48639E+08         0.79436E+06         0.00000E+00
    0.79436E+06        -0.49974E+08         0.00000E+00
    0.00000E+00         0.00000E+00        -0.49017E+08
 
   -0.48651E+08         0.83420E+06         0.00000E+00
    0.83420E+06        -0.49972E+08         0.00000E+00
    0.00000E+00         0.00000E+00        -0.49019E+08
 
   -0.48663E+08         0.87371E+06         0.00000E+00
    0.87371E+06        -0.49969E+08         0.00000E+00
    0.00000E+00         0.00000E+00        -0.49021E+08
 
   -0.48675E+08         0.91288E+06         0.00000E+00
    0.91288E+06        -0.49966E+08         0.00000E+00
    0.00000E+00         0.00000E+00        -0.49023E+08
 
   -0.48688E+08         0.95172E+06         0.00000E+00
    0.95172E+06        -0.49962E+08         0.00000E+00
    0.00000E+00         0.00000E+00        -0.49025E+08
 
   -0.48700E+08         0.99021E+06         0.00000E+00
    0.99021E+06        -0.49959E+08         0.00000E+00
    0.00000E+00         0.00000E+00        -0.49027E+08
 
   -0.48713E+08         0.10284E+07         0.00000E+00
    0.10284E+07        -0.49956E+08         0.00000E+00
    0.00000E+00         0.00000E+00        -0.49029E+08
 
   -0.48726E+08         0.10662E+07         0.00000E+00
    0.10662E+07        -0.49952E+08         0.00000E+00
    0.00000E+00         0.00000E+00        -0.49031E+08
 
   -0.48738E+08         0.11036E+07         0.00000E+00
    0.11036E+07        -0.49948E+08         0.00000E+00
    0.00000E+00         0.00000E+00        -0.49033E+08
 
   -0.48751E+08         0.11408E+07         0.00000E+00
    0.11408E+07        -0.49944E+08         0.00000E+00
    0.00000E+00         0.00000E+00        -0.49035E+08
 
   -0.48764E+08         0.11775E+07         0.00000E+00
    0.11775E+07        -0.49940E+08         0.00000E+00
    0.00000E+00         0.00000E+00        -0.49036E+08
 
   -0.48778E+08         0.12139E+07         0.00000E+00
    0.12139E+07        -0.49936E+08         0.00000E+00
    0.00000E+00         0.00000E+00        -0.49038E+08
 
   -0.48791E+08         0.12500E+07         0.00000E+00
    0.12500E+07        -0.49932E+08         0.00000E+00
    0.00000E+00         0.00000E+00        -0.49040E+08
 
   -0.48805E+08         0.12857E+07         0.00000E+00
    0.12857E+07        -0.49927E+08         0.00000E+00
    0.00000E+00         0.00000E+00        -0.49042E+08
 
   -0.48818E+08         0.13210E+07         0.00000E+00
    0.13210E+07        -0.49923E+08         0.00000E+00
    0.00000E+00         0.00000E+00        -0.49044E+08
 
   -0.48832E+08         0.13560E+07         0.00000E+00
    0.13560E+07        -0.49918E+08         0.00000E+00
    0.00000E+00         0.00000E+00        -0.49046E+08
 
   -0.48846E+08         0.13906E+07         0.00000E+00
    0.13906E+07        -0.49913E+08         0.00000E+00
    0.00000E+00         0.00000E+00        -0.49048E+08
 
   -0.48860E+08         0.14249E+07         0.00000E+00
    0.14249E+07        -0.49908E+08         0.00000E+00
    0.00000E+00         0.00000E+00        -0.49050E+08
 
   -0.48874E+08         0.14588E+07         0.00000E+00
    0.14588E+07        -0.49903E+08         0.00000E+00
    0.00000E+00         0.00000E+00        -0.49052E+08
 
   -0.48888E+08         0.14923E+07         0.00000E+00
    0.14923E+07        -0.49898E+08         0.00000E+00
    0.00000E+00         0.00000E+00        -0.49053E+08
 
   -0.48902E+08         0.15254E+07         0.00000E+00
    0.15254E+07        -0.49893E+08         0.00000E+00
    0.00000E+00         0.00000E+00        -0.49055E+08
 
   -0.48917E+08         0.15582E+07         0.00000E+00
    0.15582E+07        -0.49887E+08         0.00000E+00
    0.00000E+00         0.00000E+00        -0.49057E+08
 
   -0.48932E+08         0.15905E+07         0.00000E+00
    0.15905E+07        -0.49881E+08         0.00000E+00
    0.00000E+00         0.00000E+00        -0.49059E+08
 
   -0.48946E+08         0.16225E+07         0.00000E+00
    0.16225E+07        -0.49876E+08         0.00000E+00
    0.00000E+00         0.00000E+00        -0.49061E+08
 
   -0.48961E+08         0.16541E+07         0.00000E+00
    0.16541E+07        -0.49870E+08         0.00000E+00
    0.00000E+00         0.00000E+00        -0.49063E+08
 
   -0.48976E+08         0.16854E+07         0.00000E+00
    0.16854E+07        -0.49864E+08         0.00000E+00
    0.00000E+00         0.00000E+00        -0.49064E+08
 
   -0.48991E+08         0.17162E+07         0.00000E+00
    0.17162E+07        -0.49857E+08         0.00000E+00
    0.00000E+00         0.00000E+00        -0.49066E+08
 
   -0.49006E+08         0.17466E+07         0.00000E+00
    0.17466E+07        -0.49851E+08         0.00000E+00
    0.00000E+00         0.00000E+00        -0.49068E+08
 
   -0.49022E+08         0.17767E+07         0.00000E+00
    0.17767E+07        -0.49845E+08         0.00000E+00
    0.00000E+00         0.00000E+00        -0.49070E+08
 
   -0.49037E+08         0.18063E+07         0.00000E+00
    0.18063E+07        -0.49838E+08         0.00000E+00
    0.00000E+00         0.00000E+00        -0.49072E+08
 
   -0.49053E+08         0.18356E+07         0.00000E+00
    0.18356E+07        -0.49831E+08         0.00000E+00
    0.00000E+00         0.00000E+00        -0.49073E+08
 
   -0.49068E+08         0.18644E+07         0.00000E+00
    0.18644E+07        -0.49824E+08         0.00000E+00
    0.00000E+00         0.00000E+00        -0.49075E+08
 
   -0.48221E+08         0.23460E+05         0.00000E+00
    0.23460E+05        -0.50000E+08         0.00000E+00
    0.00000E+00         0.00000E+00        -0.48827E+08
 
   -0.48232E+08         0.69701E+05         0.00000E+00
    0.69701E+05        -0.50000E+08         0.00000E+00
    0.00000E+00         0.00000E+00        -0.48829E+08
 
   -0.48242E+08         0.11565E+06         0.00000E+00
    0.11565E+06        -0.49999E+08         0.00000E+00
    0.00000E+00         0.00000E+00        -0.48831E+08
 
   -0.48253E+08         0.16130E+06         0.00000E+00
    0.16130E+06        -0.49999E+08         0.00000E+00
    0.00000E+00         0.00000E+00        -0.48833E+08
 
   -0.48264E+08         0.20665E+06         0.00000E+00
    0.20665E+06        -0.49998E+08         0.00000E+00
    0.00000E+00         0.00000E+00        -0.48835E+08
 
   -0.48276E+08         0.25169E+06         0.00000E+00
    0.25169E+06        -0.49997E+08         0.00000E+00
    0.00000E+00         0.00000E+00        -0.48837E+08
 
   -0.48287E+08         0.29644E+06         0.00000E+00
    0.29644E+06        -0.49996E+08         0.00000E+00
    0.00000E+00         0.00000E+00        -0.48839E+08
 
   -0.48299E+08         0.34087E+06         0.00000E+00
    0.34087E+06        -0.49995E+08         0.00000E+00
    0.00000E+00         0.00000E+00        -0.48841E+08
 
   -0.48310E+08         0.38500E+06         0.00000E+00
    0.38500E+06        -0.49994E+08         0.00000E+00
    0.00000E+00         0.00000E+00        -0.48844E+08
 
   -0.48322E+08         0.42881E+06         0.00000E+00
    0.42881E+06        -0.49992E+08         0.00000E+00
    0.00000E+00         0.00000E+00        -0.48846E+08
 
   -0.48335E+08         0.47231E+06         0.00000E+00
    0.47231E+06        -0.49991E+08         0.00000E+00
    0.00000E+00         0.00000E+00        -0.48848E+08
 
   -0.48347E+08         0.51550E+06         0.00000E+00
    0.51550E+06        -0.49989E+08         0.00000E+00
    0.00000E+00         0.00000E+00        -0.48850E+08
 
   -0.48359E+08         0.55836E+06         0.00000E+00
    0.55836E+06        -0.49987E+08         0.00000E+00
    0.00000E+00         0.00000E+00        -0.48852E+08
 
   -0.48372E+08         0.60091E+06         0.00000E+00
    0.60091E+06        -0.49985E+08         0.00000E+00
    0.00000E+00         0.00000E+00        -0.48854E+08
 
   -0.48385E+08         0.64313E+06         0.00000E+00
    0.64313E+06        -0.49982E+08         0.00000E+00
    0.00000E+00         0.00000E+00        -0.48857E+08
 
   -0.48398E+08         0.68503E+06         0.00000E+00
    0.68503E+06        -0.49980E+08         0.00000E+00
    0.00000E+00         0.00000E+00        -0.48859E+08
 
   -0.48411E+08         0.72660E+06         0.00000E+00
    0.72660E+06        -0.49977E+08         0.00000E+00
    0.00000E+00         0.00000E+00        -0.48861E+08
 
   -0.48424E+08         0.76784E+06         0.00000E+00
    0.76784E+06        -0.49974E+08         0.00000E+00
    0.00000E+00         0.00000E+00        -0.48863E+08
 
   -0.48437E+08         0.80875E+06         0.00000E+00
    0.80875E+06        -0.49971E+08         0.00000E+00
    0.00000E+00         0.00000E+00        -0.48865E+08
 
   -0.48451E+08         0.84933E+06         0.00000E+00
    0.84933E+06        -0.49968E+08         0.00000E+00
    0.00000E+00         0.00000E+00        -0.48868E+08
 
   -0.48465E+08         0.88957E+06         0.00000E+00
    0.88957E+06        -0.49965E+08         0.00000E+00
    0.00000E+00         0.00000E+00        -0.48870E+08
 
   -0.48479E+08         0.92948E+06         0.00000E+00
    0.92948E+06        -0.49962E+08         0.00000E+00
    0.00000E+00         0.00000E+00        -0.48872E+08
 
   -0.48493E+08         0.96905E+06         0.00000E+00
    0.96905E+06        -0.49958E+08         0.00000E+00
    0.00000E+00         0.00000E+00        -0.48874E+08
 
   -0.48507E+08         0.10083E+07         0.00000E+00
    0.10083E+07        -0.49954E+08         0.00000E+00
    0.00000E+00         0.00000E+00        -0.48876E+08
 
   -0.48521E+08         0.10472E+07         0.00000E+00
    0.10472E+07        -0.49950E+08         0.00000E+00
    0.00000E+00         0.00000E+00        -0.48879E+08
 
   -0.48536E+08         0.10857E+07         0.00000E+00
    0.10857E+07        -0.49946E+08         0.00000E+00
    0.00000E+00         0.00000E+00        -0.48881E+08
 
   -0.48550E+08         0.11239E+07         0.00000E+00
    0.11239E+07        -0.49942E+08         0.00000E+00
    0.00000E+00         0.00000E+00        -0.48883E+08
 
   -0.48565E+08         0.11617E+07         0.00000E+00
    0.11617E+07        -0.49938E+08         0.00000E+00
    0.00000E+00         0.00000E+00        -0.48885E+08
 
   -0.48580E+08         0.11992E+07         0.00000E+00
    0.11992E+07        -0.49933E+08         0.00000E+00
    0.00000E+00         0.00000E+00        -0.48887E+08
 
   -0.48595E+08         0.12364E+07         0.00000E+00
    0.12364E+07        -0.49929E+08         0.00000E+00
    0.00000E+00         0.00000E+00        -0.48889E+08
 
   -0.48610E+08         0.12731E+07         0.00000E+00
    0.12731E+07        -0.49924E+08         0.00000E+00
    0.00000E+00         0.00000E+00        -0.48892E+08
 
   -0.48625E+08         0.13096E+07         0.00000E+00
    0.13096E+07        -0.49919E+08         0.00000E+00
    0.00000E+00         0.00000E+00        -0.48894E+08
 
   -0.48641E+08         0.13456E+07         0.00000E+00
    0.13456E+07        -0.49914E+08         0.00000E+00
    0.00000E+00         0.00000E+00        -0.48896E+08
 
   -0.48656E+08         0.13813E+07         0.00000E+00
    0.13813E+07        -0.49908E+08         0.00000E+00
    0.00000E+00         0.00000E+00        -0.48898E+08
 
   -0.48672E+08         0.14167E+07         0.00000E+00
    0.14167E+07        -0.49903E+08         0.00000E+00
    0.00000E+00         0.00000E+00        -0.48900E+08
 
   -0.48688E+08         0.14516E+07         0.00000E+00
    0.14516E+07        -0.49897E+08         0.00000E+00
    0.00000E+00         0.00000E+00        -0.48902E+08
 
   -0.48704E+08         0.14862E+07         0.00000E+00
    0.14862E+07        -0.49892E+08         0.00000E+00
    0.00000E+00         0.00000E+00        -0.48904E+08
 
   -0.48720E+08         0.15205E+07         0.00000E+00
    0.15205E+07        -0.49886E+08         0.00000E+00
    0.00000E+00         0.00000E+00        -0.48906E+08
 
   -0.48736E+08         0.15543E+07         0.00000E+00
    0.15543E+07        -0.49880E+08         0.00000E+00
    0.00000E+00         0.00000E+00        -0.48909E+08
 
   -0.48752E+08         0.15878E+07         0.00000E+00
    0.15878E+07        -0.49873E+08         0.00000E+00
    0.00000E+00         0.00000E+00        -0.48911E+08
 
   -0.48769E+08         0.16209E+07         0.00000E+00
    0.16209E+07        -0.49867E+08         0.00000E+00
    0.00000E+00         0.00000E+00        -0.48913E+08
 
   -0.48785E+08         0.16536E+07         0.00000E+00
    0.16536E+07        -0.49861E+08         0.00000E+00
    0.00000E+00         0.00000E+00        -0.48915E+08
 
   -0.48802E+08         0.16860E+07         0.00000E+00
    0.16860E+07        -0.49854E+08         0.00000E+00
    0.00000E+00         0.00000E+00        -0.48917E+08
 
   -0.48819E+08         0.17179E+07         0.00000E+00
    0.17179E+07        -0.49847E+08         0.00000E+00
    0.00000E+00         0.00000E+00        -0.48919E+08
 
   -0.48836E+08         0.17495E+07         0.00000E+00
    0.17495E+07        -0.49840E+08         0.00000E+00
    0.00000E+00         0.00000E+00        -0.48921E+08
 
   -0.48853E+08         0.17807E+07         0.00000E+00
    0.17807E+07        -0.49833E+08         0.00000E+00
    0.00000E+00         0.00000E+00        -0.48923E+08
 
   -0.48871E+08         0.18114E+07         0.00000E+00
    0.18114E+07        -0.49826E+08         0.00000E+00
    0.00000E+00         0.00000E+00        -0.48925E+08
 
   -0.48888E+08         0.18418E+07         0.00000E+00
    0.18418E+07        -0.49818E+08         0.00000E+00
    0.00000E+00         0.00000E+00        -0.48927E+08
 
   -0.48905E+08         0.18718E+07         0.00000E+00
    0.18718E+07        -0.49811E+08         0.00000E+00
    0.00000E+00         0.00000E+00        -0.48929E+08
 
   -0.48923E+08         0.19014E+07         0.00000E+00
    0.19014E+07        -0.49803E+08         0.00000E+00
    0.00000E+00         0.00000E+00        -0.48931E+08
 
   -0.47987E+08         0.23928E+05         0.00000E+00
    0.23928E+05        -0.50000E+08         0.00000E+00
    0.00000E+00         0.00000E+00        -0.48666E+08
 
   -0.47999E+08         0.71083E+05         0.00000E+00
    0.71083E+05        -0.50000E+08         0.00000E+00
    0.00000E+00         0.00000E+00        -0.48668E+08
 
   -0.48011E+08         0.11794E+06         0.00000E+00
    0.11794E+06        -0.49999E+08         0.00000E+00
    0.00000E+00         0.00000E+00        -0.48670E+08
 
   -0.48024E+08         0.16448E+06         0.00000E+00
    0.16448E+06        -0.49999E+08         0.00000E+00
    0.00000E+00         0.00000E+00        -0.48673E+08
 
   -0.48036E+08         0.21072E+06         0.00000E+00
    0.21072E+06        -0.49998E+08         0.00000E+00
    0.00000E+00         0.00000E+00        -0.48675E+08
 
   -0.48049E+08         0.25666E+06         0.00000E+00
    0.25666E+06        -0.49997E+08         0.00000E+00
    0.00000E+00         0.00000E+00        -0.48678E+08
 
   -0.48062E+08         0.30228E+06         0.00000E+00
    0.30228E+06        -0.49996E+08         0.00000E+00
    0.00000E+00         0.00000E+00        -0.48680E+08
 
   -0.48075E+08         0.34758E+06         0.00000E+00
    0.34758E+06        -0.49995E+08         0.00000E+00
    0.00000E+00         0.00000E+00        -0.48683E+08
 
   -0.48088E+08         0.39257E+06         0.00000E+00
    0.39257E+06        -0.49993E+08         0.00000E+00
    0.00000E+00         0.00000E+00        -0.48685E+08
 
   -0.48102E+08         0.43725E+06         0.00000E+00
    0.43725E+06        -0.49991E+08         0.00000E+00
    0.00000E+00         0.00000E+00        -0.48687E+08
 
   -0.48116E+08         0.48160E+06         0.00000E+00
    0.48160E+06        -0.49990E+08         0.00000E+00
    0.00000E+00         0.00000E+00        -0.48690E+08
 
   -0.48130E+08         0.52564E+06         0.00000E+00
    0.52564E+06        -0.49988E+08         0.00000E+00
    0.00000E+00         0.00000E+00        -0.48692E+08
 
   -0.48144E+08         0.56935E+06         0.00000E+00
    0.56935E+06        -0.49985E+08         0.00000E+00
    0.00000E+00         0.00000E+00        -0.48695E+08
 
   -0.48158E+08         0.61273E+06         0.00000E+00
    0.61273E+06        -0.49983E+08         0.00000E+00
    0.00000E+00         0.00000E+00        -0.48697E+08
 
   -0.48172E+08         0.65579E+06         0.00000E+00
    0.65579E+06        -0.49980E+08         0.00000E+00
    0.00000E+00         0.00000E+00        -0.48700E+08
 
   -0.48187E+08         0.69852E+06         0.00000E+00
    0.69852E+06        -0.49978E+08         0.00000E+00
    0.00000E+00         0.00000E+00        -0.48702E+08
 
   -0.48202E+08         0.74092E+06         0.00000E+00
    0.74092E+06        -0.49975E+08         0.00000E+00
    0.00000E+00         0.00000E+00        -0.48705E+08
 
   -0.48217E+08         0.78299E+06         0.00000E+00
    0.78299E+06        -0.49972E+08         0.00000E+00
    0.00000E+00         0.00000E+00        -0.48707E+08
 
   -0.48232E+08         0.82472E+06         0.00000E+00
    0.82472E+06        -0.49968E+08         0.00000E+00
    0.00000E+00         0.00000E+00        -0.48710E+08
 
   -0.48247E+08         0.86612E+06         0.00000E+00
    0.86612E+06        -0.49965E+08         0.00000E+00
    0.00000E+00         0.00000E+00        -0.48712E+08
 
   -0.48262E+08         0.90718E+06         0.00000E+00
    0.90718E+06        -0.49961E+08         0.00000E+00
    0.00000E+00         0.00000E+00        -0.48714E+08
 
   -0.48278E+08         0.94791E+06         0.00000E+00
    0.94791E+06        -0.49958E+08         0.00000E+00
    0.00000E+00         0.00000E+00        -0.48717E+08
 
   -0.48294E+08         0.98829E+06         0.00000E+00
    0.98829E+06        -0.49954E+08         0.00000E+00
    0.00000E+00         0.00000E+00        -0.48719E+08
 
   -0.48310E+08         0.10283E+07         0.00000E+00
    0.10283E+07        -0.49950E+08         0.00000E+00
    0.00000E+00         0.00000E+00        -0.48722E+08
 
   -0.48326E+08         0.10680E+07         0.00000E+00
    0.10680E+07        -0.49945E+08         0.00000E+00
    0.00000E+00         0.00000E+00        -0.48724E+08
 
   -0.48342E+08         0.11074E+07         0.00000E+00
    0.11074E+07        -0.49941E+08         0.00000E+00
    0.00000E+00         0.00000E+00        -0.48727E+08
 
   -0.48358E+08         0.11464E+07         0.00000E+00
    0.11464E+07        -0.49936E+08         0.00000E+00
    0.00000E+00         0.00000E+00        -0.48729E+08
 
   -0.48375E+08         0.11850E+07         0.00000E+00
    0.11850E+07        -0.49931E+08         0.00000E+00
    0.00000E+00         0.00000E+00        -0.48732E+08
 
   -0.48391E+08         0.12233E+07         0.00000E+00
    0.12233E+07        -0.49926E+08         0.00000E+00
    0.00000E+00         0.00000E+00        -0.48734E+08
 
   -0.48408E+08         0.12613E+07         0.00000E+00
    0.12613E+07        -0.49921E+08         0.00000E+00
    0.00000E+00         0.00000E+00        -0.48737E+08
 
   -0.48425E+08         0.12989E+07         0.00000E+00
    0.12989E+07        -0.49916E+08         0.00000E+00
    0.00000E+00         0.00000E+00        -0.48739E+08
 
   -0.48442E+08         0.13361E+07         0.00000E+00
    0.13361E+07        -0.49910E+08         0.00000E+00
    0.00000E+00         0.00000E+00        -0.48741E+08
 
   -0.48459E+08         0.13730E+07         0.00000E+00
    0.13730E+07        -0.49905E+08         0.00000E+00
    0.00000E+00         0.00000E+00        -0.48744E+08
 
   -0.48477E+08         0.14095E+07         0.00000E+00
    0.14095E+07        -0.49899E+08         0.00000E+00
    0.00000E+00         0.00000E+00        -0.48746E+08
 
   -0.48494E+08         0.14457E+07         0.00000E+00
    0.14457E+07        -0.49893E+08         0.00000E+00
    0.00000E+00         0.00000E+00        -0.48749E+08
 
   -0.48512E+08         0.14815E+07         0.00000E+00
    0.14815E+07        -0.49887E+08         0.00000E+00
    0.00000E+00         0.00000E+00        -0.48751E+08
 
   -0.48529E+08         0.15169E+07         0.00000E+00
    0.15169E+07        -0.49880E+08         0.00000E+00
    0.00000E+00         0.00000E+00        -0.48753E+08
 
   -0.48547E+08         0.15519E+07         0.00000E+00
    0.15519E+07        -0.49874E+08         0.00000E+00
    0.00000E+00         0.00000E+00        -0.48756E+08
 
   -0.48566E+08         0.15866E+07         0.00000E+00
    0.15866E+07        -0.49867E+08         0.00000E+00
    0.00000E+00         0.00000E+00        -0.48758E+08
 
   -0.48584E+08         0.16209E+07         0.00000E+00
    0.16209E+07        -0.49860E+08         0.00000E+00
    0.00000E+00         0.00000E+00        -0.48760E+08
 
   -0.48602E+08         0.16549E+07         0.00000E+00
    0.16549E+07        -0.49853E+08         0.00000E+00
    0.00000E+00         0.00000E+00        -0.48763E+08
 
   -0.48621E+08         0.16884E+07         0.00000E+00
    0.16884E+07        -0.49846E+08         0.00000E+00
    0.00000E+00         0.00000E+00        -0.48765E+08
 
   -0.48639E+08         0.17216E+07         0.00000E+00
    0.17216E+07        -0.49839E+08         0.00000E+00
    0.00000E+00         0.00000E+00        -0.48767E+08
 
   -0.48658E+08         0.17544E+07         0.00000E+00
    0.17544E+07        -0.49831E+08         0.00000E+00
    0.00000E+00         0.00000E+00        -0.48770E+08
 
   -0.48677E+08         0.17867E+07         0.00000E+00
    0.17867E+07        -0.49823E+08         0.00000E+00
    0.00000E+00         0.00000E+00        -0.48772E+08
 
   -0.48696E+08         0.18188E+07         0.00000E+00
    0.18188E+07        -0.49815E+08         0.00000E+00
    0.00000E+00         0.00000E+00        -0.48774E+08
 
   -0.48716E+08         0.18504E+07         0.00000E+00
    0.18504E+07        -0.49807E+08         0.00000E+00
    0.00000E+00         0.00000E+00        -0.48776E+08
 
   -0.48735E+08         0.18816E+07         0.00000E+00
    0.18816E+07        -0.49799E+08         0.00000E+00
    0.00000E+00         0.00000E+00        -0.48779E+08
 
   -0.48755E+08         0.19124E+07         0.00000E+00
    0.19124E+07        -0.49790E+08         0.00000E+00
    0.00000E+00         0.00000E+00        -0.48781E+08
 
   -0.48774E+08         0.19428E+07         0.00000E+00
    0.19428E+07        -0.49782E+08         0.00000E+00
    0.00000E+00         0.00000E+00        -0.48783E+08
 
   -0.47748E+08         0.24440E+05         0.00000E+00
    0.24440E+05        -0.50000E+08         0.00000E+00
    0.00000E+00         0.00000E+00        -0.48500E+08
 
   -0.47762E+08         0.72597E+05         0.00000E+00
    0.72597E+05        -0.50000E+08         0.00000E+00
    0.00000E+00         0.00000E+00        -0.48503E+08
 
   -0.47775E+08         0.12044E+06         0.00000E+00
    0.12044E+06        -0.49999E+08         0.00000E+00
    0.00000E+00         0.00000E+00        -0.48505E+08
 
   -0.47789E+08         0.16797E+06         0.00000E+00
    0.16797E+06        -0.49999E+08         0.00000E+00
    0.00000E+00         0.00000E+00        -0.48508E+08
 
   -0.47803E+08         0.21519E+06         0.00000E+00
    0.21519E+06        -0.49998E+08         0.00000E+00
    0.00000E+00         0.00000E+00        -0.48511E+08
 
   -0.47818E+08         0.26209E+06         0.00000E+00
    0.26209E+06        -0.49997E+08         0.00000E+00
    0.00000E+00         0.00000E+00        -0.48514E+08
 
   -0.47832E+08         0.30867E+06         0.00000E+00
    0.30867E+06        -0.49996E+08         0.00000E+00
    0.00000E+00         0.00000E+00        -0.48516E+08
 
   -0.47847E+08         0.35493E+06         0.00000E+00
    0.35493E+06        -0.49994E+08         0.00000E+00
    0.00000E+00         0.00000E+00        -0.48519E+08
 
   -0.47862E+08         0.40087E+06         0.00000E+00
    0.40087E+06        -0.49993E+08         0.00000E+00
    0.00000E+00         0.00000E+00        -0.48522E+08
 
   -0.47877E+08         0.44648E+06         0.00000E+00
    0.44648E+06        -0.49991E+08         0.00000E+00
    0.00000E+00         0.00000E+00        -0.48524E+08
 
   -0.47892E+08         0.49177E+06         0.00000E+00
    0.49177E+06        -0.49989E+08         0.00000E+00
    0.00000E+00         0.00000E+00        -0.48527E+08
 
   -0.47908E+08         0.53673E+06         0.00000E+00
    0.53673E+06        -0.49986E+08         0.00000E+00
    0.00000E+00         0.00000E+00        -0.48530E+08
 
   -0.47924E+08         0.58137E+06         0.00000E+00
    0.58137E+06        -0.49984E+08         0.00000E+00
    0.00000E+00         0.00000E+00        -0.48533E+08
 
   -0.47940E+08         0.62568E+06         0.00000E+00
    0.62568E+06        -0.49981E+08         0.00000E+00
    0.00000E+00         0.00000E+00        -0.48535E+08
 
   -0.47956E+08         0.66965E+06         0.00000E+00
    0.66965E+06        -0.49979E+08         0.00000E+00
    0.00000E+00         0.00000E+00        -0.48538E+08
 
   -0.47972E+08         0.71330E+06         0.00000E+00
    0.71330E+06        -0.49976E+08         0.00000E+00
    0.00000E+00         0.00000E+00        -0.48541E+08
 
   -0.47988E+08         0.75661E+06         0.00000E+00
    0.75661E+06        -0.49973E+08         0.00000E+00
    0.00000E+00         0.00000E+00        -0.48544E+08
 
   -0.48005E+08         0.79959E+06         0.00000E+00
    0.79959E+06        -0.49969E+08         0.00000E+00
    0.00000E+00         0.00000E+00        -0.48546E+08
 
   -0.48022E+08         0.84223E+06         0.00000E+00
    0.84223E+06        -0.49966E+08         0.00000E+00
    0.00000E+00         0.00000E+00        -0.48549E+08
 
   -0.48039E+08         0.88453E+06         0.00000E+00
    0.88453E+06        -0.49962E+08         0.00000E+00
    0.00000E+00         0.00000E+00        -0.48552E+08
 
   -0.48056E+08         0.92649E+06         0.00000E+00
    0.92649E+06        -0.49958E+08         0.00000E+00
    0.00000E+00         0.00000E+00        -0.48555E+08
 
   -0.48073E+08         0.96812E+06         0.00000E+00
    0.96812E+06        -0.49954E+08         0.00000E+00
    0.00000E+00         0.00000E+00        -0.48557E+08
 
   -0.48090E+08         0.10094E+07         0.00000E+00
    0.10094E+07        -0.49949E+08         0.00000E+00
    0.00000E+00         0.00000E+00        -0.48560E+08
 
   -0.48108E+08         0.10503E+07         0.00000E+00
    0.10503E+07        -0.49945E+08         0.00000E+00
    0.00000E+00         0.00000E+00        -0.48563E+08
 
   -0.48126E+08         0.10909E+07         0.00000E+00
    0.10909E+07        -0.49940E+08         0.00000E+00
    0.00000E+00         0.00000E+00        -0.48566E+08
 
   -0.48144E+08         0.11312E+07         0.00000E+00
    0.11312E+07        -0.49935E+08         0.00000E+00
    0.00000E+00         0.00000E+00        -0.48568E+08
 
   -0.48162E+08         0.11711E+07         0.00000E+00
    0.11711E+07        -0.49930E+08         0.00000E+00
    0.00000E+00         0.00000E+00        -0.48571E+08
 
   -0.48180E+08         0.12106E+07         0.00000E+00
    0.12106E+07        -0.49925E+08         0.00000E+00
    0.00000E+00         0.00000E+00        -0.48574E+08
 
   -0.48198E+08         0.12499E+07         0.00000E+00
    0.12499E+07        -0.49920E+08         0.00000E+00
    0.00000E+00         0.00000E+00        -0.48576E+08
 
   -0.48217E+08         0.12887E+07         0.00000E+00
    0.12887E+07        -0.49914E+08         0.00000E+00
    0.00000E+00         0.00000E+00        -0.48579E+08
 
   -0.48236E+08         0.13272E+07         0.00000E+00
    0.13272E+07        -0.49908E+08         0.00000E+00
    0.00000E+00         0.00000E+00        -0.48582E+08
 
   -0.48254E+08         0.13653E+07         0.00000E+00
    0.13653E+07        -0.49902E+08         0.00000E+00
    0.00000E+00         0.00000E+00        -0.48584E+08
 
   -0.48273E+08         0.14031E+07         0.00000E+00
    0.14031E+07        -0.49896E+08         0.00000E+00
    0.00000E+00         0.00000E+00        -0.48587E+08
 
   -0.48293E+08         0.14406E+07         0.00000E+00
    0.14406E+07        -0.49890E+08         0.00000E+00
    0.00000E+00         0.00000E+00        -0.48590E+08
 
   -0.48312E+08         0.14776E+07         0.00000E+00
    0.14776E+07        -0.49883E+08         0.00000E+00
    0.00000E+00         0.00000E+00        -0.48592E+08
 
   -0.48331E+08         0.15143E+07         0.00000E+00
    0.15143E+07        -0.49876E+08         0.00000E+00
    0.00000E+00         0.00000E+00        -0.48595E+08
 
   -0.48351E+08         0.15507E+07         0.00000E+00
    0.15507E+07        -0.49869E+08         0.00000E+00
    0.00000E+00         0.00000E+00        -0.48598E+08
 
   -0.48371E+08         0.15866E+07         0.00000E+00
    0.15866E+07        -0.49862E+08         0.00000E+00
    0.00000E+00         0.00000E+00        -0.48600E+08
 
   -0.48391E+08         0.16222E+07         0.00000E+00
    0.16222E+07        -0.49855E+08         0.00000E+00
    0.00000E+00         0.00000E+00        -0.48603E+08
 
   -0.48411E+08         0.16575E+07         0.00000E+00
    0.16575E+07        -0.49847E+08         0.00000E+00
    0.00000E+00         0.00000E+00        -0.48605E+08
 
   -0.48431E+08         0.16923E+07         0.00000E+00
    0.16923E+07        -0.49840E+08         0.00000E+00
    0.00000E+00         0.00000E+00        -0.48608E+08
 
   -0.48452E+08         0.17268E+07         0.00000E+00
    0.17268E+07        -0.49832E+08         0.00000E+00
    0.00000E+00         0.00000E+00        -0.48611E+08
 
   -0.48472E+08         0.17609E+07         0.00000E+00
    0.17609E+07        -0.49823E+08         0.00000E+00
    0.00000E+00         0.00000E+00        -0.48613E+08
 
   -0.48493E+08         0.17946E+07         0.00000E+00
    0.17946E+07        -0.49815E+08         0.00000E+00
    0.00000E+00         0.00000E+00        -0.48616E+08
 
   -0.48514E+08         0.18279E+07         0.00000E+00
    0.18279E+07        -0.49807E+08         0.00000E+00
    0.00000E+00         0.00000E+00        -0.48618E+08
 
   -0.48535E+08         0.18609E+07         0.00000E+00
    0.18609E+07        -0.49798E+08         0.00000E+00
    0.00000E+00         0.00000E+00        -0.48621E+08
 
   -0.48556E+08         0.18934E+07         0.00000E+00
    0.18934E+07        -0.49789E+08         0.00000E+00
    0.00000E+00         0.00000E+00        -0.48623E+08
 
   -0.48578E+08         0.19256E+07         0.00000E+00
    0.19256E+07        -0.49780E+08         0.00000E+00
    0.00000E+00         0.00000E+00        -0.48626E+08
 
   -0.48599E+08         0.19574E+07         0.00000E+00
    0.19574E+07        -0.49770E+08         0.00000E+00
    0.00000E+00         0.00000E+00        -0.48628E+08
 
   -0.48621E+08         0.19887E+07         0.00000E+00
    0.19887E+07        -0.49761E+08         0.00000E+00
    0.00000E+00         0.00000E+00        -0.48631E+08
 
   -0.47504E+08         0.24995E+05         0.00000E+00
    0.24995E+05        -0.50000E+08         0.00000E+00
    0.00000E+00         0.00000E+00        -0.48329E+08
 
   -0.47519E+08         0.74236E+05         0.00000E+00
    0.74236E+05        -0.50000E+08         0.00000E+00
    0.00000E+00         0.00000E+00        -0.48332E+08
 
   -0.47534E+08         0.12316E+06         0.00000E+00
    0.12316E+06        -0.49999E+08         0.00000E+00
    0.00000E+00         0.00000E+00        -0.48335E+08
 
   -0.47550E+08         0.17175E+06         0.00000E+00
    0.17175E+06        -0.49999E+08         0.00000E+00
    0.00000E+00         0.00000E+00        -0.48338E+08
 
   -0.47565E+08         0.22002E+06         0.00000E+00
    0.22002E+06        -0.49998E+08         0.00000E+00
    0.00000E+00         0.00000E+00        -0.48341E+08
 
   -0.47581E+08         0.26797E+06         0.00000E+00
    0.26797E+06        -0.49997E+08         0.00000E+00
    0.00000E+00         0.00000E+00        -0.48344E+08
 
   -0.47598E+08         0.31559E+06         0.00000E+00
    0.31559E+06        -0.49995E+08         0.00000E+00
    0.00000E+00         0.00000E+00        -0.48347E+08
 
   -0.47614E+08         0.36288E+06         0.00000E+00
    0.36288E+06        -0.49994E+08         0.00000E+00
    0.00000E+00         0.00000E+00        -0.48350E+08
 
   -0.47630E+08         0.40985E+06         0.00000E+00
    0.40985E+06        -0.49992E+08         0.00000E+00
    0.00000E+00         0.00000E+00        -0.48353E+08
 
   -0.47647E+08         0.45648E+06         0.00000E+00
    0.45648E+06        -0.49990E+08         0.00000E+00
    0.00000E+00         0.00000E+00        -0.48356E+08
 
   -0.47664E+08         0.50279E+06         0.00000E+00
    0.50279E+06        -0.49988E+08         0.00000E+00
    0.00000E+00         0.00000E+00        -0.48360E+08
 
   -0.47681E+08         0.54876E+06         0.00000E+00
    0.54876E+06        -0.49985E+08         0.00000E+00
    0.00000E+00         0.00000E+00        -0.48363E+08
 
   -0.47699E+08         0.59440E+06         0.00000E+00
    0.59440E+06        -0.49983E+08         0.00000E+00
    0.00000E+00         0.00000E+00        -0.48366E+08
 
   -0.47716E+08         0.63970E+06         0.00000E+00
    0.63970E+06        -0.49980E+08         0.00000E+00
    0.00000E+00         0.00000E+00        -0.48369E+08
 
   -0.47734E+08         0.68468E+06         0.00000E+00
    0.68468E+06        -0.49977E+08         0.00000E+00
    0.00000E+00         0.00000E+00        -0.48372E+08
 
   -0.47752E+08         0.72931E+06         0.00000E+00
    0.72931E+06        -0.49974E+08         0.00000E+00
    0.00000E+00         0.00000E+00        -0.48375E+08
 
   -0.47770E+08         0.77362E+06         0.00000E+00
    0.77362E+06        -0.49970E+08         0.00000E+00
    0.00000E+00         0.00000E+00        -0.48378E+08
 
   -0.47788E+08         0.81758E+06         0.00000E+00
    0.81758E+06        -0.49967E+08         0.00000E+00
    0.00000E+00         0.00000E+00        -0.48381E+08
 
   -0.47807E+08         0.86121E+06         0.00000E+00
    0.86121E+06        -0.49963E+08         0.00000E+00
    0.00000E+00         0.00000E+00        -0.48384E+08
 
   -0.47825E+08         0.90449E+06         0.00000E+00
    0.90449E+06        -0.49959E+08         0.00000E+00
    0.00000E+00         0.00000E+00        -0.48387E+08
 
   -0.47844E+08         0.94744E+06         0.00000E+00
    0.94744E+06        -0.49955E+08         0.00000E+00
    0.00000E+00         0.00000E+00        -0.48390E+08
 
   -0.47863E+08         0.99005E+06         0.00000E+00
    0.99005E+06        -0.49950E+08         0.00000E+00
    0.00000E+00         0.00000E+00        -0.48393E+08
 
   -0.47882E+08         0.10323E+07         0.00000E+00
    0.10323E+07        -0.49945E+08         0.00000E+00
    0.00000E+00         0.00000E+00        -0.48396E+08
 
   -0.47902E+08         0.10742E+07         0.00000E+00
    0.10742E+07        -0.49941E+08         0.00000E+00
    0.00000E+00         0.00000E+00        -0.48399E+08
 
   -0.47921E+08         0.11158E+07         0.00000E+00
    0.11158E+07        -0.49936E+08         0.00000E+00
    0.00000E+00         0.00000E+00        -0.48402E+08
 
   -0.47941E+08         0.11571E+07         0.00000E+00
    0.11571E+07        -0.49930E+08         0.00000E+00
    0.00000E+00         0.00000E+00        -0.48405E+08
 
   -0.47961E+08         0.11979E+07         0.00000E+00
    0.11979E+07        -0.49925E+08         0.00000E+00
    0.00000E+00         0.00000E+00        -0.48408E+08
 
   -0.47981E+08         0.12385E+07         0.00000E+00
    0.12385E+07        -0.49919E+08         0.00000E+00
    0.00000E+00         0.00000E+00        -0.48411E+08
 
   -0.48001E+08         0.12787E+07         0.00000E+00
    0.12787E+07        -0.49913E+08         0.00000E+00
    0.00000E+00         0.00000E+00        -0.48414E+08
 
   -0.48021E+08         0.13185E+07         0.00000E+00
    0.13185E+07        -0.49907E+08         0.00000E+00
    0.00000E+00         0.00000E+00        -0.48417E+08
 
   -0.48041E+08         0.13580E+07         0.00000E+00
    0.13580E+07        -0.49901E+08         0.00000E+00
    0.00000E+00         0.00000E+00        -0.48420E+08
 
   -0.48062E+08         0.13971E+07         0.00000E+00
    0.13971E+07        -0.49894E+08         0.00000E+00
    0.00000E+00         0.00000E+00        -0.48423E+08
 
   -0.48083E+08         0.14359E+07         0.00000E+00
    0.14359E+07        -0.49888E+08         0.00000E+00
    0.00000E+00         0.00000E+00        -0.48426E+08
 
   -0.48104E+08         0.14743E+07         0.00000E+00
    0.14743E+07        -0.49881E+08         0.00000E+00
    0.00000E+00         0.00000E+00        -0.48428E+08
 
   -0.48125E+08         0.15124E+07         0.00000E+00
    0.15124E+07        -0.49874E+08         0.00000E+00
    0.00000E+00         0.00000E+00        -0.48431E+08
 
   -0.48146E+08         0.15501E+07         0.00000E+00
    0.15501E+07        -0.49866E+08         0.00000E+00
    0.00000E+00         0.00000E+00        -0.48434E+08
 
   -0.48168E+08         0.15875E+07         0.00000E+00
    0.15875E+07        -0.49859E+08         0.00000E+00
    0.00000E+00         0.00000E+00        -0.48437E+08
 
   -0.48189E+08         0.16245E+07         0.00000E+00
    0.16245E+07        -0.49851E+08         0.00000E+00
    0.00000E+00         0.00000E+00        -0.48440E+08
 
   -0.48211E+08         0.16611E+07         0.00000E+00
    0.16611E+07        -0.49843E+08         0.00000E+00
    0.00000E+00         0.00000E+00        -0.48443E+08
 
   -0.48233E+08         0.16973E+07         0.00000E+00
    0.16973E+07        -0.49835E+08         0.00000E+00
    0.00000E+00         0.00000E+00        -0.48446E+08
 
   -0.48255E+08         0.17332E+07         0.00000E+00
    0.17332E+07        -0.49826E+08         0.00000E+00
    0.00000E+00         0.00000E+00        -0.48448E+08
 
   -0.48278E+08         0.17687E+07         0.00000E+00
    0.17687E+07        -0.49818E+08         0.00000E+00
    0.00000E+00         0.00000E+00        -0.48451E+08
 
   -0.48300E+08         0.18038E+07         0.00000E+00
    0.18038E+07        -0.49809E+08         0.00000E+00
    0.00000E+00         0.00000E+00        -0.48454E+08
 
   -0.48323E+08         0.18386E+07         0.00000E+00
    0.18386E+07        -0.49800E+08         0.00000E+00
    0.00000E+00         0.00000E+00        -0.48457E+08
 
   -0.48346E+08         0.18730E+07         0.00000E+00
    0.18730E+07        -0.49791E+08         0.00000E+00
    0.00000E+00         0.00000E+00        -0.48459E+08
 
   -0.48369E+08         0.19070E+07         0.00000E+00
    0.19070E+07        -0.49781E+08         0.00000E+00
    0.00000E+00         0.00000E+00        -0.48462E+08
 
   -0.48392E+08         0.19406E+07         0.00000E+00
    0.19406E+07        -0.49771E+08         0.00000E+00
    0.00000E+00         0.00000E+00        -0.48465E+08
 
   -0.48415E+08         0.19738E+07         0.00000E+00
    0.19738E+07        -0.49761E+08         0.00000E+00
    0.00000E+00         0.00000E+00        -0.48468E+08
 
   -0.48439E+08         0.20066E+07         0.00000E+00
    0.20066E+07        -0.49751E+08         0.00000E+00
    0.00000E+00         0.00000E+00        -0.48470E+08
 
   -0.48462E+08         0.20391E+07         0.00000E+00
    0.20391E+07        -0.49741E+08         0.00000E+00
    0.00000E+00         0.00000E+00        -0.48473E+08
 
   -0.47254E+08         0.25590E+05         0.00000E+00
    0.25590E+05        -0.50000E+08         0.00000E+00
    0.00000E+00         0.00000E+00        -0.48153E+08
 
   -0.47271E+08         0.75994E+05         0.00000E+00
    0.75994E+05        -0.50000E+08         0.00000E+00
    0.00000E+00         0.00000E+00        -0.48156E+08
 
   -0.47287E+08         0.12607E+06         0.00000E+00
    0.12607E+06        -0.49999E+08         0.00000E+00
    0.00000E+00         0.00000E+00        -0.48159E+08
 
   -0.47305E+08         0.17580E+06         0.00000E+00
    0.17580E+06        -0.49998E+08         0.00000E+00
    0.00000E+00         0.00000E+00        -0.48163E+08
 
   -0.47322E+08         0.22521E+06         0.00000E+00
    0.22521E+06        -0.49998E+08         0.00000E+00
    0.00000E+00         0.00000E+00        -0.48166E+08
 
   -0.47340E+08         0.27428E+06         0.00000E+00
    0.27428E+06        -0.49996E+08         0.00000E+00
    0.00000E+00         0.00000E+00        -0.48169E+08
 
   -0.47357E+08         0.32301E+06         0.00000E+00
    0.32301E+06        -0.49995E+08         0.00000E+00
    0.00000E+00         0.00000E+00        -0.48173E+08
 
   -0.47376E+08         0.37141E+06         0.00000E+00
    0.37141E+06        -0.49993E+08         0.00000E+00
    0.00000E+00         0.00000E+00        -0.48176E+08
 
   -0.47394E+08         0.41948E+06         0.00000E+00
    0.41948E+06        -0.49991E+08         0.00000E+00
    0.00000E+00         0.00000E+00        -0.48179E+08
 
   -0.47412E+08         0.46721E+06         0.00000E+00
    0.46721E+06        -0.49989E+08         0.00000E+00
    0.00000E+00         0.00000E+00        -0.48183E+08
 
   -0.47431E+08         0.51460E+06         0.00000E+00
    0.51460E+06        -0.49987E+08         0.00000E+00
    0.00000E+00         0.00000E+00        -0.48186E+08
 
   -0.47450E+08         0.56166E+06         0.00000E+00
    0.56166E+06        -0.49984E+08         0.00000E+00
    0.00000E+00         0.00000E+00        -0.48190E+08
 
   -0.47469E+08         0.60838E+06         0.00000E+00
    0.60838E+06        -0.49982E+08         0.00000E+00
    0.00000E+00         0.00000E+00        -0.48193E+08
 
   -0.47488E+08         0.65476E+06         0.00000E+00
    0.65476E+06        -0.49979E+08         0.00000E+00
    0.00000E+00         0.00000E+00        -0.48196E+08
 
   -0.47507E+08         0.70080E+06         0.00000E+00
    0.70080E+06        -0.49975E+08         0.00000E+00
    0.00000E+00         0.00000E+00        -0.48200E+08
 
   -0.47527E+08         0.74651E+06         0.00000E+00
    0.74651E+06        -0.49972E+08         0.00000E+00
    0.00000E+00         0.00000E+00        -0.48203E+08
 
   -0.47547E+08         0.79188E+06         0.00000E+00
    0.79188E+06        -0.49968E+08         0.00000E+00
    0.00000E+00         0.00000E+00        -0.48206E+08
 
   -0.47567E+08         0.83691E+06         0.00000E+00
    0.83691E+06        -0.49964E+08         0.00000E+00
    0.00000E+00         0.00000E+00        -0.48210E+08
 
   -0.47587E+08         0.88160E+06         0.00000E+00
    0.88160E+06        -0.49960E+08         0.00000E+00
    0.00000E+00         0.00000E+00        -0.48213E+08
 
   -0.47607E+08         0.92595E+06         0.00000E+00
    0.92595E+06        -0.49956E+08         0.00000E+00
    0.00000E+00         0.00000E+00        -0.48216E+08
 
   -0.47628E+08         0.96996E+06         0.00000E+00
    0.96996E+06        -0.49951E+08         0.00000E+00
    0.00000E+00         0.00000E+00        -0.48219E+08
 
   -0.47648E+08         0.10136E+07         0.00000E+00
    0.10136E+07        -0.49947E+08         0.00000E+00
    0.00000E+00         0.00000E+00        -0.48223E+08
 
   -0.47669E+08         0.10570E+07         0.00000E+00
    0.10570E+07        -0.49942E+08         0.00000E+00
    0.00000E+00         0.00000E+00        -0.48226E+08
 
   -0.47690E+08         0.10999E+07         0.00000E+00
    0.10999E+07        -0.49937E+08         0.00000E+00
    0.00000E+00         0.00000E+00        -0.48229E+08
 
   -0.47711E+08         0.11426E+07         0.00000E+00
    0.11426E+07        -0.49931E+08         0.00000E+00
    0.00000E+00         0.00000E+00        -0.48233E+08
 
   -0.47733E+08         0.11849E+07         0.00000E+00
    0.11849E+07        -0.49925E+08         0.00000E+00
    0.00000E+00         0.00000E+00        -0.48236E+08
 
   -0.47754E+08         0.12268E+07         0.00000E+00
    0.12268E+07        -0.49920E+08         0.00000E+00
    0.00000E+00         0.00000E+00        -0.48239E+08
 
   -0.47776E+08         0.12685E+07         0.00000E+00
    0.12685E+07        -0.49913E+08         0.00000E+00
    0.00000E+00         0.00000E+00        -0.48242E+08
 
   -0.47798E+08         0.13097E+07         0.00000E+00
    0.13097E+07        -0.49907E+08         0.00000E+00
    0.00000E+00         0.00000E+00        -0.48246E+08
 
   -0.47820E+08         0.13506E+07         0.00000E+00
    0.13506E+07        -0.49901E+08         0.00000E+00
    0.00000E+00         0.00000E+00        -0.48249E+08
 
   -0.47842E+08         0.13912E+07         0.00000E+00
    0.13912E+07        -0.49894E+08         0.00000E+00
    0.00000E+00         0.00000E+00        -0.48252E+08
 
   -0.47865E+08         0.14314E+07         0.00000E+00
    0.14314E+07        -0.49887E+08         0.00000E+00
    0.00000E+00         0.00000E+00        -0.48255E+08
 
   -0.47887E+08         0.14713E+07         0.00000E+00
    0.14713E+07        -0.49880E+08         0.00000E+00
    0.00000E+00         0.00000E+00        -0.48258E+08
 
   -0.47910E+08         0.15108E+07         0.00000E+00
    0.15108E+07        -0.49872E+08         0.00000E+00
    0.00000E+00         0.00000E+00        -0.48261E+08
 
   -0.47933E+08         0.15500E+07         0.00000E+00
    0.15500E+07        -0.49865E+08         0.00000E+00
    0.00000E+00         0.00000E+00        -0.48265E+08
 
   -0.47956E+08         0.15888E+07         0.00000E+00
    0.15888E+07        -0.49857E+08         0.00000E+00
    0.00000E+00         0.00000E+00        -0.48268E+08
 
   -0.47979E+08         0.16273E+07         0.00000E+00
    0.16273E+07        -0.49849E+08         0.00000E+00
    0.00000E+00         0.00000E+00        -0.48271E+08
 
   -0.48003E+08         0.16653E+07         0.00000E+00
    0.16653E+07        -0.49840E+08         0.00000E+00
    0.00000E+00         0.00000E+00        -0.48274E+08
 
   -0.48026E+08         0.17031E+07         0.00000E+00
    0.17031E+07        -0.49832E+08         0.00000E+00
    0.00000E+00         0.00000E+00        -0.48277E+08
 
   -0.48050E+08         0.17405E+07         0.00000E+00
    0.17405E+07        -0.49823E+08         0.00000E+00
    0.00000E+00         0.00000E+00        -0.48280E+08
 
   -0.48074E+08         0.17775E+07         0.00000E+00
    0.17775E+07        -0.49814E+08         0.00000E+00
    0.00000E+00         0.00000E+00        -0.48283E+08
 
   -0.48098E+08         0.18141E+07         0.00000E+00
    0.18141E+07        -0.49804E+08         0.00000E+00
    0.00000E+00         0.00000E+00        -0.48286E+08
 
   -0.48123E+08         0.18504E+07         0.00000E+00
    0.18504E+07        -0.49795E+08         0.00000E+00
    0.00000E+00         0.00000E+00        -0.48289E+08
 
   -0.48147E+08         0.18863E+07         0.00000E+00
    0.18863E+07        -0.49785E+08         0.00000E+00
    0.00000E+00         0.00000E+00        -0.48292E+08
 
   -0.48172E+08         0.19218E+07         0.00000E+00
    0.19218E+07        -0.49775E+08         0.00000E+00
    0.00000E+00         0.00000E+00        -0.48295E+08
 
   -0.48197E+08         0.19570E+07         0.00000E+00
    0.19570E+07        -0.49765E+08         0.00000E+00
    0.00000E+00         0.00000E+00        -0.48298E+08
 
   -0.48222E+08         0.19917E+07         0.00000E+00
    0.19917E+07        -0.49754E+08         0.00000E+00
    0.00000E+00         0.00000E+00        -0.48301E+08
 
   -0.48247E+08         0.20261E+07         0.00000E+00
    0.20261E+07        -0.49744E+08         0.00000E+00
    0.00000E+00         0.00000E+00        -0.48304E+08
 
   -0.48273E+08         0.20601E+07         0.00000E+00
    0.20601E+07        -0.49733E+08         0.00000E+00
    0.00000E+00         0.00000E+00        -0.48307E+08
 
   -0.48298E+08         0.20938E+07         0.00000E+00
    0.20938E+07        -0.49721E+08         0.00000E+00
    0.00000E+00         0.00000E+00        -0.48310E+08
 
   -0.46998E+08         0.26223E+05         0.00000E+00
    0.26223E+05        -0.50000E+08         0.00000E+00
    0.00000E+00         0.00000E+00        -0.47970E+08
 
   -0.47016E+08         0.77862E+05         0.00000E+00
    0.77862E+05        -0.50000E+08         0.00000E+00
    0.00000E+00         0.00000E+00        -0.47974E+08
 
   -0.47035E+08         0.12916E+06         0.00000E+00
    0.12916E+06        -0.49999E+08         0.00000E+00
    0.00000E+00         0.00000E+00        -0.47977E+08
 
   -0.47054E+08         0.18011E+06         0.00000E+00
    0.18011E+06        -0.49998E+08         0.00000E+00
    0.00000E+00         0.00000E+00        -0.47981E+08
 
   -0.47073E+08         0.23072E+06         0.00000E+00
    0.23072E+06        -0.49997E+08         0.00000E+00
    0.00000E+00         0.00000E+00        -0.47985E+08
 
   -0.47092E+08         0.28098E+06         0.00000E+00
    0.28098E+06        -0.49996E+08         0.00000E+00
    0.00000E+00         0.00000E+00        -0.47988E+08
 
   -0.47112E+08         0.33090E+06         0.00000E+00
    0.33090E+06        -0.49995E+08         0.00000E+00
    0.00000E+00         0.00000E+00        -0.47992E+08
 
   -0.47131E+08         0.38048E+06         0.00000E+00
    0.38048E+06        -0.49993E+08         0.00000E+00
    0.00000E+00         0.00000E+00        -0.47996E+08
 
   -0.47151E+08         0.42972E+06         0.00000E+00
    0.42972E+06        -0.49991E+08         0.00000E+00
    0.00000E+00         0.00000E+00        -0.47999E+08
 
   -0.47171E+08         0.47861E+06         0.00000E+00
    0.47861E+06        -0.49989E+08         0.00000E+00
    0.00000E+00         0.00000E+00        -0.48003E+08
 
   -0.47192E+08         0.52716E+06         0.00000E+00
    0.52716E+06        -0.49986E+08         0.00000E+00
    0.00000E+00         0.00000E+00        -0.48007E+08
 
   -0.47212E+08         0.57537E+06         0.00000E+00
    0.57537E+06        -0.49984E+08         0.00000E+00
    0.00000E+00         0.00000E+00        -0.48010E+08
 
   -0.47233E+08         0.62324E+06         0.00000E+00
    0.62324E+06        -0.49981E+08         0.00000E+00
    0.00000E+00         0.00000E+00        -0.48014E+08
 
   -0.47254E+08         0.67077E+06         0.00000E+00
    0.67077E+06        -0.49977E+08         0.00000E+00
    0.00000E+00         0.00000E+00        -0.48018E+08
 
   -0.47275E+08         0.71796E+06         0.00000E+00
    0.71796E+06        -0.49974E+08         0.00000E+00
    0.00000E+00         0.00000E+00        -0.48021E+08
 
   -0.47296E+08         0.76481E+06         0.00000E+00
    0.76481E+06        -0.49970E+08         0.00000E+00
    0.00000E+00         0.00000E+00        -0.48025E+08
 
   -0.47318E+08         0.81131E+06         0.00000E+00
    0.81131E+06        -0.49966E+08         0.00000E+00
    0.00000E+00         0.00000E+00        -0.48028E+08
 
   -0.47340E+08         0.85748E+06         0.00000E+00
    0.85748E+06        -0.49962E+08         0.00000E+00
    0.00000E+00         0.00000E+00        -0.48032E+08
 
   -0.47361E+08         0.90331E+06         0.00000E+00
    0.90331E+06        -0.49958E+08         0.00000E+00
    0.00000E+00         0.00000E+00        -0.48036E+08
 
   -0.47383E+08         0.94880E+06         0.00000E+00
    0.94880E+06        -0.49953E+08         0.00000E+00
    0.00000E+00         0.00000E+00        -0.48039E+08
 
   -0.47406E+08         0.99395E+06         0.00000E+00
    0.99395E+06        -0.49949E+08         0.00000E+00
    0.00000E+00         0.00000E+00        -0.48043E+08
 
   -0.47428E+08         0.10388E+07         0.00000E+00
    0.10388E+07        -0.49944E+08         0.00000E+00
    0.00000E+00         0.00000E+00        -0.48046E+08
 
   -0.47451E+08         0.10832E+07         0.00000E+00
    0.10832E+07        -0.49938E+08         0.00000E+00
    0.00000E+00         0.00000E+00        -0.48050E+08
 
   -0.47473E+08         0.11274E+07         0.00000E+00
    0.11274E+07        -0.49933E+08         0.00000E+00
    0.00000E+00         0.00000E+00        -0.48054E+08
 
   -0.47496E+08         0.11711E+07         0.00000E+00
    0.11711E+07        -0.49927E+08         0.00000E+00
    0.00000E+00         0.00000E+00        -0.48057E+08
 
   -0.47519E+08         0.12146E+07         0.00000E+00
    0.12146E+07        -0.49921E+08         0.00000E+00
    0.00000E+00         0.00000E+00        -0.48061E+08
 
   -0.47543E+08         0.12577E+07         0.00000E+00
    0.12577E+07        -0.49915E+08         0.00000E+00
    0.00000E+00         0.00000E+00        -0.48064E+08
 
   -0.47566E+08         0.13005E+07         0.00000E+00
    0.13005E+07        -0.49908E+08         0.00000E+00
    0.00000E+00         0.00000E+00        -0.48068E+08
 
   -0.47590E+08         0.13429E+07         0.00000E+00
    0.13429E+07        -0.49902E+08         0.00000E+00
    0.00000E+00         0.00000E+00        -0.48071E+08
 
   -0.47613E+08         0.13850E+07         0.00000E+00
    0.13850E+07        -0.49895E+08         0.00000E+00
    0.00000E+00         0.00000E+00        -0.48075E+08
 
   -0.47637E+08         0.14267E+07         0.00000E+00
    0.14267E+07        -0.49887E+08         0.00000E+00
    0.00000E+00         0.00000E+00        -0.48078E+08
 
   -0.47661E+08         0.14681E+07         0.00000E+00
    0.14681E+07        -0.49880E+08         0.00000E+00
    0.00000E+00         0.00000E+00        -0.48081E+08
 
   -0.47686E+08         0.15092E+07         0.00000E+00
    0.15092E+07        -0.49872E+08         0.00000E+00
    0.00000E+00         0.00000E+00        -0.48085E+08
 
   -0.47710E+08         0.15499E+07         0.00000E+00
    0.15499E+07        -0.49864E+08         0.00000E+00
    0.00000E+00         0.00000E+00        -0.48088E+08
 
   -0.47735E+08         0.15902E+07         0.00000E+00
    0.15902E+07        -0.49856E+08         0.00000E+00
    0.00000E+00         0.00000E+00        -0.48092E+08
 
   -0.47760E+08         0.16302E+07         0.00000E+00
    0.16302E+07        -0.49848E+08         0.00000E+00
    0.00000E+00         0.00000E+00        -0.48095E+08
 
   -0.47785E+08         0.16699E+07         0.00000E+00
    0.16699E+07        -0.49839E+08         0.00000E+00
    0.00000E+00         0.00000E+00        -0.48098E+08
 
   -0.47810E+08         0.17092E+07         0.00000E+00
    0.17092E+07        -0.49830E+08         0.00000E+00
    0.00000E+00         0.00000E+00        -0.48102E+08
 
   -0.47835E+08         0.17482E+07         0.00000E+00
    0.17482E+07        -0.49821E+08         0.00000E+00
    0.00000E+00         0.00000E+00        -0.48105E+08
 
   -0.47861E+08         0.17868E+07         0.00000E+00
    0.17868E+07        -0.49811E+08         0.00000E+00
    0.00000E+00         0.00000E+00        -0.48108E+08
 
   -0.47887E+08         0.18250E+07         0.00000E+00
    0.18250E+07        -0.49802E+08         0.00000E+00
    0.00000E+00         0.00000E+00        -0.48111E+08
 
   -0.47913E+08         0.18629E+07         0.00000E+00
    0.18629E+07        -0.49792E+08         0.00000E+00
    0.00000E+00         0.00000E+00        -0.48115E+08
 
   -0.47939E+08         0.19004E+07         0.00000E+00
    0.19004E+07        -0.49782E+08         0.00000E+00
    0.00000E+00         0.00000E+00        -0.48118E+08
 
   -0.47965E+08         0.19376E+07         0.00000E+00
    0.19376E+07        -0.49771E+08         0.00000E+00
    0.00000E+00         0.00000E+00        -0.48121E+08
 
   -0.47992E+08         0.19744E+07         0.00000E+00
    0.19744E+07        -0.49760E+08         0.00000E+00
    0.00000E+00         0.00000E+00        -0.48124E+08
 
   -0.48019E+08         0.20108E+07         0.00000E+00
    0.20108E+07        -0.49749E+08         0.00000E+00
    0.00000E+00         0.00000E+00        -0.48128E+08
 
   -0.48046E+08         0.20469E+07         0.00000E+00
    0.20469E+07        -0.49738E+08         0.00000E+00
    0.00000E+00         0.00000E+00        -0.48131E+08
 
   -0.48073E+08         0.20825E+07         0.00000E+00
    0.20825E+07        -0.49727E+08         0.00000E+00
    0.00000E+00         0.00000E+00        -0.48134E+08
 
   -0.48100E+08         0.21178E+07         0.00000E+00
    0.21178E+07        -0.49715E+08         0.00000E+00
    0.00000E+00         0.00000E+00        -0.48137E+08
 
   -0.48128E+08         0.21528E+07         0.00000E+00
    0.21528E+07        -0.49703E+08         0.00000E+00
    0.00000E+00         0.00000E+00        -0.48140E+08
 
   -0.46736E+08         0.26889E+05         0.00000E+00
    0.26889E+05        -0.50000E+08         0.00000E+00
    0.00000E+00         0.00000E+00        -0.47780E+08
 
   -0.46756E+08         0.79830E+05         0.00000E+00
    0.79830E+05        -0.50000E+08         0.00000E+00
    0.00000E+00         0.00000E+00        -0.47784E+08
 
   -0.46776E+08         0.13242E+06         0.00000E+00
    0.13242E+06        -0.49999E+08         0.00000E+00
    0.00000E+00         0.00000E+00        -0.47788E+08
 
   -0.46797E+08         0.18465E+06         0.00000E+00
    0.18465E+06        -0.49998E+08         0.00000E+00
    0.00000E+00         0.00000E+00        -0.47792E+08
 
   -0.46818E+08         0.23652E+06         0.00000E+00
    0.23652E+06        -0.49997E+08         0.00000E+00
    0.00000E+00         0.00000E+00        -0.47796E+08
 
   -0.46839E+08         0.28804E+06         0.00000E+00
    0.28804E+06        -0.49996E+08         0.00000E+00
    0.00000E+00         0.00000E+00        -0.47800E+08
 
   -0.46860E+08         0.33922E+06         0.00000E+00
    0.33922E+06        -0.49994E+08         0.00000E+00
    0.00000E+00         0.00000E+00        -0.47804E+08
 
   -0.46881E+08         0.39004E+06         0.00000E+00
    0.39004E+06        -0.49993E+08         0.00000E+00
    0.00000E+00         0.00000E+00        -0.47808E+08
 
   -0.46903E+08         0.44051E+06         0.00000E+00
    0.44051E+06        -0.49990E+08         0.00000E+00
    0.00000E+00         0.00000E+00        -0.47812E+08
 
   -0.46925E+08         0.49063E+06         0.00000E+00
    0.49063E+06        -0.49988E+08         0.00000E+00
    0.00000E+00         0.00000E+00        -0.47816E+08
 
   -0.46947E+08         0.54041E+06         0.00000E+00
    0.54041E+06        -0.49986E+08         0.00000E+00
    0.00000E+00         0.00000E+00        -0.47820E+08
 
   -0.46969E+08         0.58984E+06         0.00000E+00
    0.58984E+06        -0.49983E+08         0.00000E+00
    0.00000E+00         0.00000E+00        -0.47824E+08
 
   -0.46992E+08         0.63892E+06         0.00000E+00
    0.63892E+06        -0.49980E+08         0.00000E+00
    0.00000E+00         0.00000E+00        -0.47828E+08
 
   -0.47014E+08         0.68767E+06         0.00000E+00
    0.68767E+06        -0.49976E+08         0.00000E+00
    0.00000E+00         0.00000E+00        -0.47832E+08
 
   -0.47037E+08         0.73606E+06         0.00000E+00
    0.73606E+06        -0.49973E+08         0.00000E+00
    0.00000E+00         0.00000E+00        -0.47836E+08
 
   -0.47060E+08         0.78412E+06         0.00000E+00
    0.78412E+06        -0.49969E+08         0.00000E+00
    0.00000E+00         0.00000E+00        -0.47840E+08
 
   -0.47083E+08         0.83184E+06         0.00000E+00
    0.83184E+06        -0.49965E+08         0.00000E+00
    0.00000E+00         0.00000E+00        -0.47844E+08
 
   -0.47107E+08         0.87921E+06         0.00000E+00
    0.87921E+06        -0.49960E+08         0.00000E+00
    0.00000E+00         0.00000E+00        -0.47848E+08
 
   -0.47130E+08         0.92625E+06         0.00000E+00
    0.92625E+06        -0.49956E+08         0.00000E+00
    0.00000E+00         0.00000E+00        -0.47852E+08
 
   -0.47154E+08         0.97294E+06         0.00000E+00
    0.97294E+06        -0.49951E+08         0.00000E+00
    0.00000E+00         0.00000E+00        -0.47856E+08
 
   -0.47178E+08         0.10193E+07         0.00000E+00
    0.10193E+07        -0.49946E+08         0.00000E+00
    0.00000E+00         0.00000E+00        -0.47859E+08
 
   -0.47202E+08         0.10653E+07         0.00000E+00
    0.10653E+07        -0.49941E+08         0.00000E+00
    0.00000E+00         0.00000E+00        -0.47863E+08
 
   -0.47226E+08         0.11110E+07         0.00000E+00
    0.11110E+07        -0.49935E+08         0.00000E+00
    0.00000E+00         0.00000E+00        -0.47867E+08
 
   -0.47250E+08         0.11564E+07         0.00000E+00
    0.11564E+07        -0.49929E+08         0.00000E+00
    0.00000E+00         0.00000E+00        -0.47871E+08
 
   -0.47275E+08         0.12014E+07         0.00000E+00
    0.12014E+07        -0.49923E+08         0.00000E+00
    0.00000E+00         0.00000E+00        -0.47875E+08
 
   -0.47300E+08         0.12460E+07         0.00000E+00
    0.12460E+07        -0.49917E+08         0.00000E+00
    0.00000E+00         0.00000E+00        -0.47879E+08
 
   -0.47325E+08         0.12904E+07         0.00000E+00
    0.12904E+07        -0.49910E+08         0.00000E+00
    0.00000E+00         0.00000E+00        -0.47882E+08
 
   -0.47350E+08         0.13344E+07         0.00000E+00
    0.13344E+07        -0.49903E+08         0.00000E+00
    0.00000E+00         0.00000E+00        -0.47886E+08
 
   -0.47375E+08         0.13781E+07         0.00000E+00
    0.13781E+07        -0.49896E+08         0.00000E+00
    0.00000E+00         0.00000E+00        -0.47890E+08
 
   -0.47401E+08         0.14214E+07         0.00000E+00
    0.14214E+07        -0.49889E+08         0.00000E+00
    0.00000E+00         0.00000E+00        -0.47893E+08
 
   -0.47426E+08         0.14644E+07         0.00000E+00
    0.14644E+07        -0.49881E+08         0.00000E+00
    0.00000E+00         0.00000E+00        -0.47897E+08
 
   -0.47452E+08         0.15070E+07         0.00000E+00
    0.15070E+07        -0.49873E+08         0.00000E+00
    0.00000E+00         0.00000E+00        -0.47901E+08
 
   -0.47478E+08         0.15494E+07         0.00000E+00
    0.15494E+07        -0.49865E+08         0.00000E+00
    0.00000E+00         0.00000E+00        -0.47905E+08
 
   -0.47504E+08         0.15914E+07         0.00000E+00
    0.15914E+07        -0.49857E+08         0.00000E+00
    0.00000E+00         0.00000E+00        -0.47908E+08
 
   -0.47531E+08         0.16330E+07         0.00000E+00
    0.16330E+07        -0.49848E+08         0.00000E+00
    0.00000E+00         0.00000E+00        -0.47912E+08
 
   -0.47557E+08         0.16743E+07         0.00000E+00
    0.16743E+07        -0.49839E+08         0.00000E+00
    0.00000E+00         0.00000E+00        -0.47915E+08
 
   -0.47584E+08         0.17153E+07         0.00000E+00
    0.17153E+07        -0.49830E+08         0.00000E+00
    0.00000E+00         0.00000E+00        -0.47919E+08
 
   -0.47611E+08         0.17559E+07         0.00000E+00
    0.17559E+07        -0.49821E+08         0.00000E+00
    0.00000E+00         0.00000E+00        -0.47923E+08
 
   -0.47638E+08         0.17962E+07         0.00000E+00
    0.17962E+07        -0.49811E+08         0.00000E+00
    0.00000E+00         0.00000E+00        -0.47926E+08
 
   -0.47666E+08         0.18361E+07         0.00000E+00
    0.18361E+07        -0.49801E+08         0.00000E+00
    0.00000E+00         0.00000E+00        -0.47930E+08
 
   -0.47693E+08         0.18757E+07         0.00000E+00
    0.18757E+07        -0.49791E+08         0.00000E+00
    0.00000E+00         0.00000E+00        -0.47933E+08
 
   -0.47721E+08         0.19149E+07         0.00000E+00
    0.19149E+07        -0.49780E+08         0.00000E+00
    0.00000E+00         0.00000E+00        -0.47937E+08
 
   -0.47749E+08         0.19538E+07         0.00000E+00
    0.19538E+07        -0.49769E+08         0.00000E+00
    0.00000E+00         0.00000E+00        -0.47940E+08
 
   -0.47777E+08         0.19923E+07         0.00000E+00
    0.19923E+07        -0.49758E+08         0.00000E+00
    0.00000E+00         0.00000E+00        -0.47943E+08
 
   -0.47805E+08         0.20305E+07         0.00000E+00
    0.20305E+07        -0.49747E+08         0.00000E+00
    0.00000E+00         0.00000E+00        -0.47947E+08
 
   -0.47834E+08         0.20683E+07         0.00000E+00
    0.20683E+07        -0.49735E+08         0.00000E+00
    0.00000E+00         0.00000E+00        -0.47950E+08
 
   -0.47863E+08         0.21058E+07         0.00000E+00
    0.21058E+07        -0.49723E+08         0.00000E+00
    0.00000E+00         0.00000E+00        -0.47954E+08
 
   -0.47892E+08         0.21429E+07         0.00000E+00
    0.21429E+07        -0.49711E+08         0.00000E+00
    0.00000E+00         0.00000E+00        -0.47957E+08
 
   -0.47921E+08         0.21796E+07         0.00000E+00
    0.21796E+07        -0.49698E+08         0.00000E+00
    0.00000E+00         0.00000E+00        -0.47960E+08
 
   -0.47951E+08         0.22160E+07         0.00000E+00
    0.22160E+07        -0.49685E+08         0.00000E+00
    0.00000E+00         0.00000E+00        -0.47964E+08
 
   -0.46467E+08         0.27586E+05         0.00000E+00
    0.27586E+05        -0.50000E+08         0.00000E+00
    0.00000E+00         0.00000E+00        -0.47583E+08
 
   -0.46489E+08         0.81887E+05         0.00000E+00
    0.81887E+05        -0.50000E+08         0.00000E+00
    0.00000E+00         0.00000E+00        -0.47587E+08
 
   -0.46511E+08         0.13582E+06         0.00000E+00
    0.13582E+06        -0.49999E+08         0.00000E+00
    0.00000E+00         0.00000E+00        -0.47592E+08
 
   -0.46533E+08         0.18939E+06         0.00000E+00
    0.18939E+06        -0.49998E+08         0.00000E+00
    0.00000E+00         0.00000E+00        -0.47596E+08
 
   -0.46556E+08         0.24259E+06         0.00000E+00
    0.24259E+06        -0.49997E+08         0.00000E+00
    0.00000E+00         0.00000E+00        -0.47600E+08
 
   -0.46579E+08         0.29543E+06         0.00000E+00
    0.29543E+06        -0.49996E+08         0.00000E+00
    0.00000E+00         0.00000E+00        -0.47605E+08
 
   -0.46602E+08         0.34791E+06         0.00000E+00
    0.34791E+06        -0.49994E+08         0.00000E+00
    0.00000E+00         0.00000E+00        -0.47609E+08
 
   -0.46625E+08         0.40003E+06         0.00000E+00
    0.40003E+06        -0.49992E+08         0.00000E+00
    0.00000E+00         0.00000E+00        -0.47613E+08
 
   -0.46648E+08         0.45179E+06         0.00000E+00
    0.45179E+06        -0.49990E+08         0.00000E+00
    0.00000E+00         0.00000E+00        -0.47618E+08
 
   -0.46672E+08         0.50320E+06         0.00000E+00
    0.50320E+06        -0.49988E+08         0.00000E+00
    0.00000E+00         0.00000E+00        -0.47622E+08
 
   -0.46696E+08         0.55426E+06         0.00000E+00
    0.55426E+06        -0.49985E+08         0.00000E+00
    0.00000E+00         0.00000E+00        -0.47626E+08
 
   -0.46720E+08         0.60497E+06         0.00000E+00
    0.60497E+06        -0.49982E+08         0.00000E+00
    0.00000E+00         0.00000E+00        -0.47631E+08
 
   -0.46744E+08         0.65533E+06         0.00000E+00
    0.65533E+06        -0.49979E+08         0.00000E+00
    0.00000E+00         0.00000E+00        -0.47635E+08
 
   -0.46768E+08         0.70535E+06         0.00000E+00
    0.70535E+06        -0.49975E+08         0.00000E+00
    0.00000E+00         0.00000E+00        -0.47639E+08
 
   -0.46793E+08         0.75502E+06         0.00000E+00
    0.75502E+06        -0.49972E+08         0.00000E+00
    0.00000E+00         0.00000E+00        -0.47643E+08
 
   -0.46817E+08         0.80435E+06         0.00000E+00
    0.80435E+06        -0.49968E+08         0.00000E+00
    0.00000E+00         0.00000E+00        -0.47648E+08
 
   -0.46842E+08         0.85333E+06         0.00000E+00
    0.85333E+06        -0.49963E+08         0.00000E+00
    0.00000E+00         0.00000E+00        -0.47652E+08
 
   -0.46867E+08         0.90198E+06         0.00000E+00
    0.90198E+06        -0.49959E+08         0.00000E+00
    0.00000E+00         0.00000E+00        -0.47656E+08
 
   -0.46893E+08         0.95029E+06         0.00000E+00
    0.95029E+06        -0.49954E+08         0.00000E+00
    0.00000E+00         0.00000E+00        -0.47660E+08
 
   -0.46918E+08         0.99826E+06         0.00000E+00
    0.99826E+06        -0.49949E+08         0.00000E+00
    0.00000E+00         0.00000E+00        -0.47664E+08
 
   -0.46944E+08         0.10459E+07         0.00000E+00
    0.10459E+07        -0.49944E+08         0.00000E+00
    0.00000E+00         0.00000E+00        -0.47669E+08
 
   -0.46969E+08         0.10932E+07         0.00000E+00
    0.10932E+07        -0.49938E+08         0.00000E+00
    0.00000E+00         0.00000E+00        -0.47673E+08
 
   -0.46995E+08         0.11402E+07         0.00000E+00
    0.11402E+07        -0.49932E+08         0.00000E+00
    0.00000E+00         0.00000E+00        -0.47677E+08
 
   -0.47021E+08         0.11868E+07         0.00000E+00
    0.11868E+07        -0.49926E+08         0.00000E+00
    0.00000E+00         0.00000E+00        -0.47681E+08
 
   -0.47048E+08         0.12331E+07         0.00000E+00
    0.12331E+07        -0.49920E+08         0.00000E+00
    0.00000E+00         0.00000E+00        -0.47685E+08
 
   -0.47074E+08         0.12791E+07         0.00000E+00
    0.12791E+07        -0.49913E+08         0.00000E+00
    0.00000E+00         0.00000E+00        -0.47689E+08
 
   -0.47101E+08         0.13248E+07         0.00000E+00
    0.13248E+07        -0.49906E+08         0.00000E+00
    0.00000E+00         0.00000E+00        -0.47693E+08
 
   -0.47127E+08         0.13701E+07         0.00000E+00
    0.13701E+07        -0.49899E+08         0.00000E+00
    0.00000E+00         0.00000E+00        -0.47697E+08
 
   -0.47154E+08         0.14151E+07         0.00000E+00
    0.14151E+07        -0.49892E+08         0.00000E+00
    0.00000E+00         0.00000E+00        -0.47701E+08
 
   -0.47181E+08         0.14597E+07         0.00000E+00
    0.14597E+07        -0.49884E+08         0.00000E+00
    0.00000E+00         0.00000E+00        -0.47705E+08
 
   -0.47209E+08         0.15041E+07         0.00000E+00
    0.15041E+07        -0.49876E+08         0.00000E+00
    0.00000E+00         0.00000E+00        -0.47709E+08
 
   -0.47236E+08         0.15481E+07         0.00000E+00
    0.15481E+07        -0.49868E+08         0.00000E+00
    0.00000E+00         0.00000E+00        -0.47713E+08
 
   -0.47264E+08         0.15918E+07         0.00000E+00
    0.15918E+07        -0.49859E+08         0.00000E+00
    0.00000E+00         0.00000E+00        -0.47717E+08
 
   -0.47292E+08         0.16351E+07         0.00000E+00
    0.16351E+07        -0.49850E+08         0.00000E+00
    0.00000E+00         0.00000E+00        -0.47721E+08
 
   -0.47320E+08         0.16782E+07         0.00000E+00
    0.16782E+07        -0.49841E+08         0.00000E+00
    0.00000E+00         0.00000E+00        -0.47725E+08
 
   -0.47348E+08         0.17209E+07         0.00000E+00
    0.17209E+07        -0.49832E+08         0.00000E+00
    0.00000E+00         0.00000E+00        -0.47728E+08
 
   -0.47377E+08         0.17632E+07         0.00000E+00
    0.17632E+07        -0.49822E+08         0.00000E+00
    0.00000E+00         0.00000E+00        -0.47732E+08
 
   -0.47405E+08         0.18053E+07         0.00000E+00
    0.18053E+07        -0.49812E+08         0.00000E+00
    0.00000E+00         0.00000E+00        -0.47736E+08
 
   -0.47434E+08         0.18470E+07         0.00000E+00
    0.18470E+07        -0.49802E+08         0.00000E+00
    0.00000E+00         0.00000E+00        -0.47740E+08
 
   -0.47463E+08         0.18883E+07         0.00000E+00
    0.18883E+07        -0.49791E+08         0.00000E+00
    0.00000E+00         0.00000E+00        -0.47743E+08
 
   -0.47492E+08         0.19294E+07         0.00000E+00
    0.19294E+07        -0.49780E+08         0.00000E+00
    0.00000E+00         0.00000E+00        -0.47747E+08
 
   -0.47522E+08         0.19701E+07         0.00000E+00
    0.19701E+07        -0.49769E+08         0.00000E+00
    0.00000E+00         0.00000E+00        -0.47751E+08
 
   -0.47552E+08         0.20104E+07         0.00000E+00
    0.20104E+07        -0.49758E+08         0.00000E+00
    0.00000E+00         0.00000E+00        -0.47755E+08
 
   -0.47581E+08         0.20504E+07         0.00000E+00
    0.20504E+07        -0.49746E+08         0.00000E+00
    0.00000E+00         0.00000E+00        -0.47758E+08
 
   -0.47612E+08         0.20901E+07         0.00000E+00
    0.20901E+07        -0.49734E+08         0.00000E+00
    0.00000E+00         0.00000E+00        -0.47762E+08
 
   -0.47642E+08         0.21295E+07         0.00000E+00
    0.21295E+07        -0.49721E+08         0.00000E+00
    0.00000E+00         0.00000E+00        -0.47765E+08
 
   -0.47673E+08         0.21684E+07         0.00000E+00
    0.21684E+07        -0.49709E+08         0.00000E+00
    0.00000E+00         0.00000E+00        -0.47769E+08
 
   -0.47703E+08         0.22071E+07         0.00000E+00
    0.22071E+07        -0.49696E+08         0.00000E+00
    0.00000E+00         0.00000E+00        -0.47773E+08
 
   -0.47734E+08         0.22454E+07         0.00000E+00
    0.22454E+07        -0.49682E+08         0.00000E+00
    0.00000E+00         0.00000E+00        -0.47776E+08
 
   -0.47766E+08         0.22833E+07         0.00000E+00
    0.22833E+07        -0.49669E+08         0.00000E+00
    0.00000E+00         0.00000E+00        -0.47780E+08
 
   -0.46191E+08         0.28307E+05         0.00000E+00
    0.28307E+05        -0.50000E+08         0.00000E+00
    0.00000E+00         0.00000E+00        -0.47378E+08
 
   -0.46214E+08         0.84017E+05         0.00000E+00
    0.84017E+05        -0.50000E+08         0.00000E+00
    0.00000E+00         0.00000E+00        -0.47382E+08
 
   -0.46238E+08         0.13935E+06         0.00000E+00
    0.13935E+06        -0.49999E+08         0.00000E+00
    0.00000E+00         0.00000E+00        -0.47387E+08
 
   -0.46263E+08         0.19430E+06         0.00000E+00
    0.19430E+06        -0.49998E+08         0.00000E+00
    0.00000E+00         0.00000E+00        -0.47392E+08
 
   -0.46287E+08         0.24887E+06         0.00000E+00
    0.24887E+06        -0.49997E+08         0.00000E+00
    0.00000E+00         0.00000E+00        -0.47396E+08
 
   -0.46312E+08         0.30308E+06         0.00000E+00
    0.30308E+06        -0.49996E+08         0.00000E+00
    0.00000E+00         0.00000E+00        -0.47401E+08
 
   -0.46337E+08         0.35692E+06         0.00000E+00
    0.35692E+06        -0.49994E+08         0.00000E+00
    0.00000E+00         0.00000E+00        -0.47406E+08
 
   -0.46362E+08         0.41039E+06         0.00000E+00
    0.41039E+06        -0.49992E+08         0.00000E+00
    0.00000E+00         0.00000E+00        -0.47410E+08
 
   -0.46387E+08         0.46350E+06         0.00000E+00
    0.46350E+06        -0.49990E+08         0.00000E+00
    0.00000E+00         0.00000E+00        -0.47415E+08
 
   -0.46412E+08         0.51624E+06         0.00000E+00
    0.51624E+06        -0.49987E+08         0.00000E+00
    0.00000E+00         0.00000E+00        -0.47420E+08
 
   -0.46438E+08         0.56864E+06         0.00000E+00
    0.56864E+06        -0.49984E+08         0.00000E+00
    0.00000E+00         0.00000E+00        -0.47424E+08
 
   -0.46464E+08         0.62068E+06         0.00000E+00
    0.62068E+06        -0.49981E+08         0.00000E+00
    0.00000E+00         0.00000E+00        -0.47429E+08
 
   -0.46490E+08         0.67237E+06         0.00000E+00
    0.67237E+06        -0.49978E+08         0.00000E+00
    0.00000E+00         0.00000E+00        -0.47434E+08
 
   -0.46516E+08         0.72371E+06         0.00000E+00
    0.72371E+06        -0.49974E+08         0.00000E+00
    0.00000E+00         0.00000E+00        -0.47438E+08
 
   -0.46542E+08         0.77471E+06         0.00000E+00
    0.77471E+06        -0.49971E+08         0.00000E+00
    0.00000E+00         0.00000E+00        -0.47443E+08
 
   -0.46568E+08         0.82537E+06         0.00000E+00
    0.82537E+06        -0.49966E+08         0.00000E+00
    0.00000E+00         0.00000E+00        -0.47447E+08
 
   -0.46595E+08         0.87568E+06         0.00000E+00
    0.87568E+06        -0.49962E+08         0.00000E+00
    0.00000E+00         0.00000E+00        -0.47452E+08
 
   -0.46622E+08         0.92566E+06         0.00000E+00
    0.92566E+06        -0.49957E+08         0.00000E+00
    0.00000E+00         0.00000E+00        -0.47456E+08
 
   -0.46649E+08         0.97531E+06         0.00000E+00
    0.97531E+06        -0.49952E+08         0.00000E+00
    0.00000E+00         0.00000E+00        -0.47461E+08
 
   -0.46676E+08         0.10246E+07         0.00000E+00
    0.10246E+07        -0.49947E+08         0.00000E+00
    0.00000E+00         0.00000E+00        -0.47465E+08
 
   -0.46703E+08         0.10736E+07         0.00000E+00
    0.10736E+07        -0.49942E+08         0.00000E+00
    0.00000E+00         0.00000E+00        -0.47470E+08
 
   -0.46730E+08         0.11223E+07         0.00000E+00
    0.11223E+07        -0.49936E+08         0.00000E+00
    0.00000E+00         0.00000E+00        -0.47474E+08
 
   -0.46758E+08         0.11706E+07         0.00000E+00
    0.11706E+07        -0.49930E+08         0.00000E+00
    0.00000E+00         0.00000E+00        -0.47478E+08
 
   -0.46786E+08         0.12186E+07         0.00000E+00
    0.12186E+07        -0.49924E+08         0.00000E+00
    0.00000E+00         0.00000E+00        -0.47483E+08
 
   -0.46813E+08         0.12663E+07         0.00000E+00
    0.12663E+07        -0.49917E+08         0.00000E+00
    0.00000E+00         0.00000E+00        -0.47487E+08
 
   -0.46841E+08         0.13136E+07         0.00000E+00
    0.13136E+07        -0.49910E+08         0.00000E+00
    0.00000E+00         0.00000E+00        -0.47491E+08
 
   -0.46870E+08         0.13607E+07         0.00000E+00
    0.13607E+07        -0.49903E+08         0.00000E+00
    0.00000E+00         0.00000E+00        -0.47496E+08
 
   -0.46898E+08         0.14074E+07         0.00000E+00
    0.14074E+07        -0.49895E+08         0.00000E+00
    0.00000E+00         0.00000E+00        -0.47500E+08
 
   -0.46927E+08         0.14538E+07         0.00000E+00
    0.14538E+07        -0.49888E+08         0.00000E+00
    0.00000E+00         0.00000E+00        -0.47504E+08
 
   -0.46955E+08         0.14999E+07         0.00000E+00
    0.14999E+07        -0.49880E+08         0.00000E+00
    0.00000E+00         0.00000E+00        -0.47508E+08
 
   -0.46984E+08         0.15456E+07         0.00000E+00
    0.15456E+07        -0.49871E+08         0.00000E+00
    0.00000E+00         0.00000E+00        -0.47513E+08
 
   -0.47013E+08         0.15911E+07         0.00000E+00
    0.15911E+07        -0.49863E+08         0.00000E+00
    0.00000E+00         0.00000E+00        -0.47517E+08
 
   -0.47043E+08         0.16362E+07         0.00000E+00
    0.16362E+07        -0.49854E+08         0.00000E+00
    0.00000E+00         0.00000E+00        -0.47521E+08
 
   -0.47072E+08         0.16810E+07         0.00000E+00
    0.16810E+07        -0.49844E+08         0.00000E+00
    0.00000E+00         0.00000E+00        -0.47525E+08
 
   -0.47102E+08         0.17255E+07         0.00000E+00
    0.17255E+07        -0.49835E+08         0.00000E+00
    0.00000E+00         0.00000E+00        -0.47529E+08
 
   -0.47132E+08         0.17697E+07         0.00000E+00
    0.17697E+07        -0.49825E+08         0.00000E+00
    0.00000E+00         0.00000E+00        -0.47533E+08
 
   -0.47162E+08         0.18136E+07         0.00000E+00
    0.18136E+07        -0.49815E+08         0.00000E+00
    0.00000E+00         0.00000E+00        -0.47537E+08
 
   -0.47192E+08         0.18571E+07         0.00000E+00
    0.18571E+07        -0.49805E+08         0.00000E+00
    0.00000E+00         0.00000E+00        -0.47541E+08
 
   -0.47223E+08         0.19004E+07         0.00000E+00
    0.19004E+07        -0.49794E+08         0.00000E+00
    0.00000E+00         0.00000E+00        -0.47545E+08
 
   -0.47253E+08         0.19433E+07         0.00000E+00
    0.19433E+07        -0.49783E+08         0.00000E+00
    0.00000E+00         0.00000E+00        -0.47549E+08
 
   -0.47284E+08         0.19859E+07         0.00000E+00
    0.19859E+07        -0.49771E+08         0.00000E+00
    0.00000E+00         0.00000E+00        -0.47553E+08
 
   -0.47315E+08         0.20281E+07         0.00000E+00
    0.20281E+07        -0.49760E+08         0.00000E+00
    0.00000E+00         0.00000E+00        -0.47557E+08
 
   -0.47347E+08         0.20701E+07         0.00000E+00
    0.20701E+07        -0.49748E+08         0.00000E+00
    0.00000E+00         0.00000E+00        -0.47561E+08
 
   -0.47378E+08         0.21117E+07         0.00000E+00
    0.21117E+07        -0.49735E+08         0.00000E+00
    0.00000E+00         0.00000E+00        -0.47565E+08
 
   -0.47410E+08         0.21530E+07         0.00000E+00
    0.21530E+07        -0.49722E+08         0.00000E+00
    0.00000E+00         0.00000E+00        -0.47569E+08
 
   -0.47442E+08         0.21940E+07         0.00000E+00
    0.21940E+07        -0.49709E+08         0.00000E+00
    0.00000E+00         0.00000E+00        -0.47572E+08
 
   -0.47474E+08         0.22346E+07         0.00000E+00
    0.22346E+07        -0.49696E+08         0.00000E+00
    0.00000E+00         0.00000E+00        -0.47576E+08
 
   -0.47507E+08         0.22749E+07         0.00000E+00
    0.22749E+07        -0.49682E+08         0.00000E+00
    0.00000E+00         0.00000E+00        -0.47580E+08
 
   -0.47540E+08         0.23149E+07         0.00000E+00
    0.23149E+07        -0.49668E+08         0.00000E+00
    0.00000E+00         0.00000E+00        -0.47584E+08
 
   -0.47573E+08         0.23545E+07         0.00000E+00
    0.23545E+07        -0.49654E+08         0.00000E+00
    0.00000E+00         0.00000E+00        -0.47588E+08
 
   -0.45907E+08         0.29048E+05         0.00000E+00
    0.29048E+05        -0.50000E+08         0.00000E+00
    0.00000E+00         0.00000E+00        -0.47163E+08
 
   -0.45933E+08         0.86207E+05         0.00000E+00
    0.86207E+05        -0.50000E+08         0.00000E+00
    0.00000E+00         0.00000E+00        -0.47168E+08
 
   -0.45959E+08         0.14297E+06         0.00000E+00
    0.14297E+06        -0.49999E+08         0.00000E+00
    0.00000E+00         0.00000E+00        -0.47174E+08
 
   -0.45985E+08         0.19935E+06         0.00000E+00
    0.19935E+06        -0.49998E+08         0.00000E+00
    0.00000E+00         0.00000E+00        -0.47179E+08
 
   -0.46012E+08         0.25534E+06         0.00000E+00
    0.25534E+06        -0.49997E+08         0.00000E+00
    0.00000E+00         0.00000E+00        -0.47184E+08
 
   -0.46038E+08         0.31095E+06         0.00000E+00
    0.31095E+06        -0.49996E+08         0.00000E+00
    0.00000E+00         0.00000E+00        -0.47189E+08
 
   -0.46065E+08         0.36618E+06         0.00000E+00
    0.36618E+06        -0.49994E+08         0.00000E+00
    0.00000E+00         0.00000E+00        -0.47194E+08
 
   -0.46092E+08         0.42104E+06         0.00000E+00
    0.42104E+06        -0.49992E+08         0.00000E+00
    0.00000E+00         0.00000E+00        -0.47199E+08
 
   -0.46119E+08         0.47553E+06         0.00000E+00
    0.47553E+06        -0.49989E+08         0.00000E+00
    0.00000E+00         0.00000E+00        -0.47204E+08
 
   -0.46146E+08         0.52966E+06         0.00000E+00
    0.52966E+06        -0.49987E+08         0.00000E+00
    0.00000E+00         0.00000E+00        -0.47209E+08
 
   -0.46173E+08         0.58343E+06         0.00000E+00
    0.58343E+06        -0.49984E+08         0.00000E+00
    0.00000E+00         0.00000E+00        -0.47214E+08
 
   -0.46201E+08         0.63685E+06         0.00000E+00
    0.63685E+06        -0.49981E+08         0.00000E+00
    0.00000E+00         0.00000E+00        -0.47219E+08
 
   -0.46229E+08         0.68991E+06         0.00000E+00
    0.68991E+06        -0.49977E+08         0.00000E+00
    0.00000E+00         0.00000E+00        -0.47224E+08
 
   -0.46256E+08         0.74263E+06         0.00000E+00
    0.74263E+06        -0.49974E+08         0.00000E+00
    0.00000E+00         0.00000E+00        -0.47228E+08
 
   -0.46284E+08         0.79500E+06         0.00000E+00
    0.79500E+06        -0.49970E+08         0.00000E+00
    0.00000E+00         0.00000E+00        -0.47233E+08
 
   -0.46312E+08         0.84704E+06         0.00000E+00
    0.84704E+06        -0.49966E+08         0.00000E+00
    0.00000E+00         0.00000E+00        -0.47238E+08
 
   -0.46341E+08         0.89873E+06         0.00000E+00
    0.89873E+06        -0.49961E+08         0.00000E+00
    0.00000E+00         0.00000E+00        -0.47243E+08
 
   -0.46369E+08         0.95010E+06         0.00000E+00
    0.95010E+06        -0.49956E+08         0.00000E+00
    0.00000E+00         0.00000E+00        -0.47248E+08
 
   -0.46398E+08         0.10011E+07         0.00000E+00
    0.10011E+07        -0.49951E+08         0.00000E+00
    0.00000E+00         0.00000E+00        -0.47253E+08
 
   -0.46426E+08         0.10518E+07         0.00000E+00
    0.10518E+07        -0.49946E+08         0.00000E+00
    0.00000E+00         0.00000E+00        -0.47257E+08
 
   -0.46455E+08         0.11022E+07         0.00000E+00
    0.11022E+07        -0.49940E+08         0.00000E+00
    0.00000E+00         0.00000E+00        -0.47262E+08
 
   -0.46484E+08         0.11523E+07         0.00000E+00
    0.11523E+07        -0.49934E+08         0.00000E+00
    0.00000E+00         0.00000E+00        -0.47267E+08
 
   -0.46513E+08         0.12020E+07         0.00000E+00
    0.12020E+07        -0.49928E+08         0.00000E+00
    0.00000E+00         0.00000E+00        -0.47271E+08
 
   -0.46543E+08         0.12515E+07         0.00000E+00
    0.12515E+07        -0.49921E+08         0.00000E+00
    0.00000E+00         0.00000E+00        -0.47276E+08
 
   -0.46572E+08         0.13006E+07         0.00000E+00
    0.13006E+07        -0.49915E+08         0.00000E+00
    0.00000E+00         0.00000E+00        -0.47281E+08
 
   -0.46602E+08         0.13494E+07         0.00000E+00
    0.13494E+07        -0.49907E+08         0.00000E+00
    0.00000E+00         0.00000E+00        -0.47285E+08
 
   -0.46632E+08         0.13979E+07         0.00000E+00
    0.13979E+07        -0.49900E+08         0.00000E+00
    0.00000E+00         0.00000E+00        -0.47290E+08
 
   -0.46662E+08         0.14461E+07         0.00000E+00
    0.14461E+07        -0.49892E+08         0.00000E+00
    0.00000E+00         0.00000E+00        -0.47294E+08
 
   -0.46692E+08         0.14939E+07         0.00000E+00
    0.14939E+07        -0.49884E+08         0.00000E+00
    0.00000E+00         0.00000E+00        -0.47299E+08
 
   -0.46722E+08         0.15415E+07         0.00000E+00
    0.15415E+07        -0.49876E+08         0.00000E+00
    0.00000E+00         0.00000E+00        -0.47303E+08
 
   -0.46753E+08         0.15888E+07         0.00000E+00
    0.15888E+07        -0.49867E+08         0.00000E+00
    0.00000E+00         0.00000E+00        -0.47308E+08
 
   -0.46783E+08         0.16358E+07         0.00000E+00
    0.16358E+07        -0.49858E+08         0.00000E+00
    0.00000E+00         0.00000E+00        -0.47312E+08
 
   -0.46814E+08         0.16824E+07         0.00000E+00
    0.16824E+07        -0.49849E+08         0.00000E+00
    0.00000E+00         0.00000E+00        -0.47316E+08
 
   -0.46845E+08         0.17288E+07         0.00000E+00
    0.17288E+07        -0.49840E+08         0.00000E+00
    0.00000E+00         0.00000E+00        -0.47321E+08
 
   -0.46876E+08         0.17749E+07         0.00000E+00
    0.17749E+07        -0.49830E+08         0.00000E+00
    0.00000E+00         0.00000E+00        -0.47325E+08
 
   -0.46908E+08         0.18206E+07         0.00000E+00
    0.18206E+07        -0.49820E+08         0.00000E+00
    0.00000E+00         0.00000E+00        -0.47329E+08
 
   -0.46939E+08         0.18661E+07         0.00000E+00
    0.18661E+07        -0.49809E+08         0.00000E+00
    0.00000E+00         0.00000E+00        -0.47334E+08
 
   -0.46971E+08         0.19113E+07         0.00000E+00
    0.19113E+07        -0.49798E+08         0.00000E+00
    0.00000E+00         0.00000E+00        -0.47338E+08
 
   -0.47003E+08         0.19561E+07         0.00000E+00
    0.19561E+07        -0.49787E+08         0.00000E+00
    0.00000E+00         0.00000E+00        -0.47342E+08
 
   -0.47035E+08         0.20007E+07         0.00000E+00
    0.20007E+07        -0.49775E+08         0.00000E+00
    0.00000E+00         0.00000E+00        -0.47346E+08
 
   -0.47068E+08         0.20450E+07         0.00000E+00
    0.20450E+07        -0.49763E+08         0.00000E+00
    0.00000E+00         0.00000E+00        -0.47350E+08
 
   -0.47101E+08         0.20889E+07         0.00000E+00
    0.20889E+07        -0.49751E+08         0.00000E+00
    0.00000E+00         0.00000E+00        -0.47354E+08
 
   -0.47133E+08         0.21326E+07         0.00000E+00
    0.21326E+07        -0.49739E+08         0.00000E+00
    0.00000E+00         0.00000E+00        -0.47358E+08
 
   -0.47167E+08         0.21759E+07         0.00000E+00
    0.21759E+07        -0.49726E+08         0.00000E+00
    0.00000E+00         0.00000E+00        -0.47363E+08
 
   -0.47200E+08         0.22190E+07         0.00000E+00
    0.22190E+07        -0.49712E+08         0.00000E+00
    0.00000E+00         0.00000E+00        -0.47367E+08
 
   -0.47234E+08         0.22617E+07         0.00000E+00
    0.22617E+07        -0.49699E+08         0.00000E+00
    0.00000E+00         0.00000E+00        -0.47371E+08
 
   -0.47268E+08         0.23041E+07         0.00000E+00
    0.23041E+07        -0.49685E+08         0.00000E+00
    0.00000E+00         0.00000E+00        -0.47375E+08
 
   -0.47302E+08         0.23462E+07         0.00000E+00
    0.23462E+07        -0.49670E+08         0.00000E+00
    0.00000E+00         0.00000E+00        -0.47379E+08
 
   -0.47336E+08         0.23880E+07         0.00000E+00
    0.23880E+07        -0.49655E+08         0.00000E+00
    0.00000E+00         0.00000E+00        -0.47382E+08
 
   -0.47371E+08         0.24295E+07         0.00000E+00
    0.24295E+07        -0.49640E+08         0.00000E+00
    0.00000E+00         0.00000E+00        -0.47386E+08
 
   -0.45617E+08         0.29802E+05         0.00000E+00
    0.29802E+05        -0.50000E+08         0.00000E+00
    0.00000E+00         0.00000E+00        -0.46940E+08
 
   -0.45645E+08         0.88436E+05         0.00000E+00
    0.88436E+05        -0.50000E+08         0.00000E+00
    0.00000E+00         0.00000E+00        -0.46945E+08
 
   -0.45673E+08         0.14666E+06         0.00000E+00
    0.14666E+06        -0.49999E+08         0.00000E+00
    0.00000E+00         0.00000E+00        -0.46951E+08
 
   -0.45701E+08         0.20449E+06         0.00000E+00
    0.20449E+06        -0.49998E+08         0.00000E+00
    0.00000E+00         0.00000E+00        -0.46956E+08
 
   -0.45729E+08         0.26192E+06         0.00000E+00
    0.26192E+06        -0.49997E+08         0.00000E+00
    0.00000E+00         0.00000E+00        -0.46962E+08
 
   -0.45758E+08         0.31896E+06         0.00000E+00
    0.31896E+06        -0.49995E+08         0.00000E+00
    0.00000E+00         0.00000E+00        -0.46967E+08
 
   -0.45786E+08         0.37562E+06         0.00000E+00
    0.37562E+06        -0.49994E+08         0.00000E+00
    0.00000E+00         0.00000E+00        -0.46972E+08
 
   -0.45815E+08         0.43190E+06         0.00000E+00
    0.43190E+06        -0.49992E+08         0.00000E+00
    0.00000E+00         0.00000E+00        -0.46978E+08
 
   -0.45844E+08         0.48781E+06         0.00000E+00
    0.48781E+06        -0.49989E+08         0.00000E+00
    0.00000E+00         0.00000E+00        -0.46983E+08
 
   -0.45873E+08         0.54335E+06         0.00000E+00
    0.54335E+06        -0.49987E+08         0.00000E+00
    0.00000E+00         0.00000E+00        -0.46988E+08
 
   -0.45902E+08         0.59853E+06         0.00000E+00
    0.59853E+06        -0.49984E+08         0.00000E+00
    0.00000E+00         0.00000E+00        -0.46994E+08
 
   -0.45931E+08         0.65336E+06         0.00000E+00
    0.65336E+06        -0.49981E+08         0.00000E+00
    0.00000E+00         0.00000E+00        -0.46999E+08
 
   -0.45961E+08         0.70783E+06         0.00000E+00
    0.70783E+06        -0.49977E+08         0.00000E+00
    0.00000E+00         0.00000E+00        -0.47004E+08
 
   -0.45990E+08         0.76196E+06         0.00000E+00
    0.76196E+06        -0.49973E+08         0.00000E+00
    0.00000E+00         0.00000E+00        -0.47009E+08
 
   -0.46020E+08         0.81575E+06         0.00000E+00
    0.81575E+06        -0.49969E+08         0.00000E+00
    0.00000E+00         0.00000E+00        -0.47015E+08
 
   -0.46050E+08         0.86920E+06         0.00000E+00
    0.86920E+06        -0.49965E+08         0.00000E+00
    0.00000E+00         0.00000E+00        -0.47020E+08
 
   -0.46079E+08         0.92232E+06         0.00000E+00
    0.92232E+06        -0.49960E+08         0.00000E+00
    0.00000E+00         0.00000E+00        -0.47025E+08
 
   -0.46110E+08         0.97512E+06         0.00000E+00
    0.97512E+06        -0.49955E+08         0.00000E+00
    0.00000E+00         0.00000E+00        -0.47030E+08
 
   -0.46140E+08         0.10276E+07         0.00000E+00
    0.10276E+07        -0.49950E+08         0.00000E+00
    0.00000E+00         0.00000E+00        -0.47035E+08
 
   -0.46170E+08         0.10797E+07         0.00000E+00
    0.10797E+07        -0.49945E+08         0.00000E+00
    0.00000E+00         0.00000E+00        -0.47040E+08
 
   -0.46200E+08         0.11316E+07         0.00000E+00
    0.11316E+07        -0.49939E+08         0.00000E+00
    0.00000E+00         0.00000E+00        -0.47045E+08
 
   -0.46231E+08         0.11831E+07         0.00000E+00
    0.11831E+07        -0.49933E+08         0.00000E+00
    0.00000E+00         0.00000E+00        -0.47050E+08
 
   -0.46262E+08         0.12343E+07         0.00000E+00
    0.12343E+07        -0.49927E+08         0.00000E+00
    0.00000E+00         0.00000E+00        -0.47055E+08
 
   -0.46293E+08         0.12852E+07         0.00000E+00
    0.12852E+07        -0.49920E+08         0.00000E+00
    0.00000E+00         0.00000E+00        -0.47060E+08
 
   -0.46324E+08         0.13358E+07         0.00000E+00
    0.13358E+07        -0.49913E+08         0.00000E+00
    0.00000E+00         0.00000E+00        -0.47065E+08
 
   -0.46355E+08         0.13862E+07         0.00000E+00
    0.13862E+07        -0.49906E+08         0.00000E+00
    0.00000E+00         0.00000E+00        -0.47069E+08
 
   -0.46386E+08         0.14362E+07         0.00000E+00
    0.14362E+07        -0.49898E+08         0.00000E+00
    0.00000E+00         0.00000E+00        -0.47074E+08
 
   -0.46418E+08         0.14859E+07         0.00000E+00
    0.14859E+07        -0.49890E+08         0.00000E+00
    0.00000E+00         0.00000E+00        -0.47079E+08
 
   -0.46449E+08         0.15353E+07         0.00000E+00
    0.15353E+07        -0.49882E+08         0.00000E+00
    0.00000E+00         0.00000E+00        -0.47084E+08
 
   -0.46481E+08         0.15845E+07         0.00000E+00
    0.15845E+07        -0.49873E+08         0.00000E+00
    0.00000E+00         0.00000E+00        -0.47088E+08
 
   -0.46513E+08         0.16334E+07         0.00000E+00
    0.16334E+07        -0.49864E+08         0.00000E+00
    0.00000E+00         0.00000E+00        -0.47093E+08
 
   -0.46545E+08         0.16819E+07         0.00000E+00
    0.16819E+07        -0.49855E+08         0.00000E+00
    0.00000E+00         0.00000E+00        -0.47098E+08
 
   -0.46577E+08         0.17302E+07         0.00000E+00
    0.17302E+07        -0.49846E+08         0.00000E+00
    0.00000E+00         0.00000E+00        -0.47102E+08
 
   -0.46610E+08         0.17782E+07         0.00000E+00
    0.17782E+07        -0.49836E+08         0.00000E+00
    0.00000E+00         0.00000E+00        -0.47107E+08
 
   -0.46643E+08         0.18260E+07         0.00000E+00
    0.18260E+07        -0.49826E+08         0.00000E+00
    0.00000E+00         0.00000E+00        -0.47111E+08
 
   -0.46675E+08         0.18734E+07         0.00000E+00
    0.18734E+07        -0.49815E+08         0.00000E+00
    0.00000E+00         0.00000E+00        -0.47116E+08
 
   -0.46708E+08         0.19206E+07         0.00000E+00
    0.19206E+07        -0.49804E+08         0.00000E+00
    0.00000E+00         0.00000E+00        -0.47120E+08
 
   -0.46742E+08         0.19675E+07         0.00000E+00
    0.19675E+07        -0.49793E+08         0.00000E+00
    0.00000E+00         0.00000E+00        -0.47125E+08
 
   -0.46775E+08         0.20141E+07         0.00000E+00
    0.20141E+07        -0.49781E+08         0.00000E+00
    0.00000E+00         0.00000E+00        -0.47129E+08
 
   -0.46809E+08         0.20604E+07         0.00000E+00
    0.20604E+07        -0.49769E+08         0.00000E+00
    0.00000E+00         0.00000E+00        -0.47133E+08
 
   -0.46843E+08         0.21065E+07         0.00000E+00
    0.21065E+07        -0.49757E+08         0.00000E+00
    0.00000E+00         0.00000E+00        -0.47138E+08
 
   -0.46877E+08         0.21522E+07         0.00000E+00
    0.21522E+07        -0.49744E+08         0.00000E+00
    0.00000E+00         0.00000E+00        -0.47142E+08
 
   -0.46911E+08         0.21977E+07         0.00000E+00
    0.21977E+07        -0.49731E+08         0.00000E+00
    0.00000E+00         0.00000E+00        -0.47146E+08
 
   -0.46946E+08         0.22429E+07         0.00000E+00
    0.22429E+07        -0.49718E+08         0.00000E+00
    0.00000E+00         0.00000E+00        -0.47151E+08
 
   -0.46981E+08         0.22878E+07         0.00000E+00
    0.22878E+07        -0.49704E+08         0.00000E+00
    0.00000E+00         0.00000E+00        -0.47155E+08
 
   -0.47016E+08         0.23324E+07         0.00000E+00
    0.23324E+07        -0.49690E+08         0.00000E+00
    0.00000E+00         0.00000E+00        -0.47159E+08
 
   -0.47051E+08         0.23768E+07         0.00000E+00
    0.23768E+07        -0.49675E+08         0.00000E+00
    0.00000E+00         0.00000E+00        -0.47163E+08
 
   -0.47087E+08         0.24208E+07         0.00000E+00
    0.24208E+07        -0.49660E+08         0.00000E+00
    0.00000E+00         0.00000E+00        -0.47167E+08
 
   -0.47123E+08         0.24646E+07         0.00000E+00
    0.24646E+07        -0.49645E+08         0.00000E+00
    0.00000E+00         0.00000E+00        -0.47171E+08
 
   -0.47159E+08         0.25080E+07         0.00000E+00
    0.25080E+07        -0.49629E+08         0.00000E+00
    0.00000E+00         0.00000E+00        -0.47176E+08
 
   -0.45319E+08         0.30563E+05         0.00000E+00
    0.30563E+05        -0.50000E+08         0.00000E+00
    0.00000E+00         0.00000E+00        -0.46706E+08
 
   -0.45349E+08         0.90683E+05         0.00000E+00
    0.90683E+05        -0.50000E+08         0.00000E+00
    0.00000E+00         0.00000E+00        -0.46712E+08
 
   -0.45379E+08         0.15039E+06         0.00000E+00
    0.15039E+06        -0.49999E+08         0.00000E+00
    0.00000E+00         0.00000E+00        -0.46718E+08
 
   -0.45409E+08         0.20968E+06         0.00000E+00
    0.20968E+06        -0.49998E+08         0.00000E+00
    0.00000E+00         0.00000E+00        -0.46724E+08
 
   -0.45439E+08         0.26856E+06         0.00000E+00
    0.26856E+06        -0.49997E+08         0.00000E+00
    0.00000E+00         0.00000E+00        -0.46729E+08
 
   -0.45470E+08         0.32705E+06         0.00000E+00
    0.32705E+06        -0.49995E+08         0.00000E+00
    0.00000E+00         0.00000E+00        -0.46735E+08
 
   -0.45500E+08         0.38515E+06         0.00000E+00
    0.38515E+06        -0.49994E+08         0.00000E+00
    0.00000E+00         0.00000E+00        -0.46741E+08
 
   -0.45531E+08         0.44287E+06         0.00000E+00
    0.44287E+06        -0.49992E+08         0.00000E+00
    0.00000E+00         0.00000E+00        -0.46747E+08
 
   -0.45561E+08         0.50022E+06         0.00000E+00
    0.50022E+06        -0.49989E+08         0.00000E+00
    0.00000E+00         0.00000E+00        -0.46752E+08
 
   -0.45592E+08         0.55719E+06         0.00000E+00
    0.55719E+06        -0.49987E+08         0.00000E+00
    0.00000E+00         0.00000E+00        -0.46758E+08
 
   -0.45623E+08         0.61381E+06         0.00000E+00
    0.61381E+06        -0.49984E+08         0.00000E+00
    0.00000E+00         0.00000E+00        -0.46764E+08
 
   -0.45654E+08         0.67007E+06         0.00000E+00
    0.67007E+06        -0.49980E+08         0.00000E+00
    0.00000E+00         0.00000E+00        -0.46769E+08
 
   -0.45685E+08         0.72598E+06         0.00000E+00
    0.72598E+06        -0.49977E+08         0.00000E+00
    0.00000E+00         0.00000E+00        -0.46775E+08
 
   -0.45717E+08         0.78154E+06         0.00000E+00
    0.78154E+06        -0.49973E+08         0.00000E+00
    0.00000E+00         0.00000E+00        -0.46780E+08
 
   -0.45748E+08         0.83678E+06         0.00000E+00
    0.83678E+06        -0.49969E+08         0.00000E+00
    0.00000E+00         0.00000E+00        -0.46786E+08
 
   -0.45779E+08         0.89168E+06         0.00000E+00
    0.89168E+06        -0.49965E+08         0.00000E+00
    0.00000E+00         0.00000E+00        -0.46791E+08
 
   -0.45811E+08         0.94626E+06         0.00000E+00
    0.94626E+06        -0.49960E+08         0.00000E+00
    0.00000E+00         0.00000E+00        -0.46797E+08
 
   -0.45843E+08         0.10005E+07         0.00000E+00
    0.10005E+07        -0.49955E+08         0.00000E+00
    0.00000E+00         0.00000E+00        -0.46802E+08
 
   -0.45874E+08         0.10545E+07         0.00000E+00
    0.10545E+07        -0.49950E+08         0.00000E+00
    0.00000E+00         0.00000E+00        -0.46807E+08
 
   -0.45906E+08         0.11081E+07         0.00000E+00
    0.11081E+07        -0.49944E+08         0.00000E+00
    0.00000E+00         0.00000E+00        -0.46813E+08
 
   -0.45938E+08         0.11614E+07         0.00000E+00
    0.11614E+07        -0.49938E+08         0.00000E+00
    0.00000E+00         0.00000E+00        -0.46818E+08
 
   -0.45970E+08         0.12145E+07         0.00000E+00
    0.12145E+07        -0.49932E+08         0.00000E+00
    0.00000E+00         0.00000E+00        -0.46823E+08
 
   -0.46003E+08         0.12672E+07         0.00000E+00
    0.12672E+07        -0.49926E+08         0.00000E+00
    0.00000E+00         0.00000E+00        -0.46828E+08
 
   -0.46035E+08         0.13197E+07         0.00000E+00
    0.13197E+07        -0.49919E+08         0.00000E+00
    0.00000E+00         0.00000E+00        -0.46834E+08
 
   -0.46067E+08         0.13718E+07         0.00000E+00
    0.13718E+07        -0.49912E+08         0.00000E+00
    0.00000E+00         0.00000E+00        -0.46839E+08
 
   -0.46100E+08         0.14237E+07         0.00000E+00
    0.14237E+07        -0.49905E+08         0.00000E+00
    0.00000E+00         0.00000E+00        -0.46844E+08
 
   -0.46133E+08         0.14753E+07         0.00000E+00
    0.14753E+07        -0.49897E+08         0.00000E+00
    0.00000E+00         0.00000E+00        -0.46849E+08
 
   -0.46166E+08         0.15267E+07         0.00000E+00
    0.15267E+07        -0.49889E+08         0.00000E+00
    0.00000E+00         0.00000E+00        -0.46854E+08
 
   -0.46199E+08         0.15777E+07         0.00000E+00
    0.15777E+07        -0.49880E+08         0.00000E+00
    0.00000E+00         0.00000E+00        -0.46859E+08
 
   -0.46232E+08         0.16285E+07         0.00000E+00
    0.16285E+07        -0.49872E+08         0.00000E+00
    0.00000E+00         0.00000E+00        -0.46864E+08
 
   -0.46265E+08         0.16790E+07         0.00000E+00
    0.16790E+07        -0.49863E+08         0.00000E+00
    0.00000E+00         0.00000E+00        -0.46868E+08
 
   -0.46299E+08         0.17293E+07         0.00000E+00
    0.17293E+07        -0.49853E+08         0.00000E+00
    0.00000E+00         0.00000E+00        -0.46873E+08
 
   -0.46332E+08         0.17793E+07         0.00000E+00
    0.17793E+07        -0.49844E+08         0.00000E+00
    0.00000E+00         0.00000E+00        -0.46878E+08
 
   -0.46366E+08         0.18290E+07         0.00000E+00
    0.18290E+07        -0.49833E+08         0.00000E+00
    0.00000E+00         0.00000E+00        -0.46883E+08
 
   -0.46400E+08         0.18785E+07         0.00000E+00
    0.18785E+07        -0.49823E+08         0.00000E+00
    0.00000E+00         0.00000E+00        -0.46888E+08
 
   -0.46434E+08         0.19277E+07         0.00000E+00
    0.19277E+07        -0.49812E+08         0.00000E+00
    0.00000E+00         0.00000E+00        -0.46892E+08
 
   -0.46469E+08         0.19767E+07         0.00000E+00
    0.19767E+07        -0.49801E+08         0.00000E+00
    0.00000E+00         0.00000E+00        -0.46897E+08
 
   -0.46503E+08         0.20254E+07         0.00000E+00
    0.20254E+07        -0.49789E+08         0.00000E+00
    0.00000E+00         0.00000E+00        -0.46901E+08
 
   -0.46538E+08         0.20739E+07         0.00000E+00
    0.20739E+07        -0.49777E+08         0.00000E+00
    0.00000E+00         0.00000E+00        -0.46906E+08
 
   -0.46573E+08         0.21221E+07         0.00000E+00
    0.21221E+07        -0.49765E+08         0.00000E+00
    0.00000E+00         0.00000E+00        -0.46911E+08
 
   -0.46608E+08         0.21700E+07         0.00000E+00
    0.21700E+07        -0.49752E+08         0.00000E+00
    0.00000E+00         0.00000E+00        -0.46915E+08
 
   -0.46644E+08         0.22177E+07         0.00000E+00
    0.22177E+07        -0.49739E+08         0.00000E+00
    0.00000E+00         0.00000E+00        -0.46920E+08
 
   -0.46680E+08         0.22651E+07         0.00000E+00
    0.22651E+07        -0.49726E+08         0.00000E+00
    0.00000E+00         0.00000E+00        -0.46924E+08
 
   -0.46716E+08         0.23123E+07         0.00000E+00
    0.23123E+07        -0.49712E+08         0.00000E+00
    0.00000E+00         0.00000E+00        -0.46928E+08
 
   -0.46752E+08         0.23592E+07         0.00000E+00
    0.23592E+07        -0.49698E+08         0.00000E+00
    0.00000E+00         0.00000E+00        -0.46933E+08
 
   -0.46789E+08         0.24059E+07         0.00000E+00
    0.24059E+07        -0.49683E+08         0.00000E+00
    0.00000E+00         0.00000E+00        -0.46937E+08
 
   -0.46825E+08         0.24522E+07         0.00000E+00
    0.24522E+07        -0.49668E+08         0.00000E+00
    0.00000E+00         0.00000E+00        -0.46942E+08
 
   -0.46862E+08         0.24984E+07         0.00000E+00
    0.24984E+07        -0.49652E+08         0.00000E+00
    0.00000E+00         0.00000E+00        -0.46946E+08
 
   -0.46900E+08         0.25442E+07         0.00000E+00
    0.25442E+07        -0.49636E+08         0.00000E+00
    0.00000E+00         0.00000E+00        -0.46950E+08
 
   -0.46938E+08         0.25898E+07         0.00000E+00
    0.25898E+07        -0.49620E+08         0.00000E+00
    0.00000E+00         0.00000E+00        -0.46954E+08
 
   -0.45014E+08         0.31321E+05         0.00000E+00
    0.31321E+05        -0.50000E+08         0.00000E+00
    0.00000E+00         0.00000E+00        -0.46461E+08
 
   -0.45046E+08         0.92926E+05         0.00000E+00
    0.92926E+05        -0.50000E+08         0.00000E+00
    0.00000E+00         0.00000E+00        -0.46468E+08
 
   -0.45078E+08         0.15410E+06         0.00000E+00
    0.15410E+06        -0.49999E+08         0.00000E+00
    0.00000E+00         0.00000E+00        -0.46474E+08
 
   -0.45110E+08         0.21486E+06         0.00000E+00
    0.21486E+06        -0.49998E+08         0.00000E+00
    0.00000E+00         0.00000E+00        -0.46480E+08
 
   -0.45142E+08         0.27520E+06         0.00000E+00
    0.27520E+06        -0.49997E+08         0.00000E+00
    0.00000E+00         0.00000E+00        -0.46486E+08
 
   -0.45175E+08         0.33514E+06         0.00000E+00
    0.33514E+06        -0.49995E+08         0.00000E+00
    0.00000E+00         0.00000E+00        -0.46493E+08
 
   -0.45207E+08         0.39468E+06         0.00000E+00
    0.39468E+06        -0.49994E+08         0.00000E+00
    0.00000E+00         0.00000E+00        -0.46499E+08
 
   -0.45239E+08         0.45384E+06         0.00000E+00
    0.45384E+06        -0.49992E+08         0.00000E+00
    0.00000E+00         0.00000E+00        -0.46505E+08
 
   -0.45272E+08         0.51263E+06         0.00000E+00
    0.51263E+06        -0.49989E+08         0.00000E+00
    0.00000E+00         0.00000E+00        -0.46511E+08
 
   -0.45305E+08         0.57104E+06         0.00000E+00
    0.57104E+06        -0.49987E+08         0.00000E+00
    0.00000E+00         0.00000E+00        -0.46517E+08
 
   -0.45337E+08         0.62910E+06         0.00000E+00
    0.62910E+06        -0.49984E+08         0.00000E+00
    0.00000E+00         0.00000E+00        -0.46523E+08
 
   -0.45370E+08         0.68680E+06         0.00000E+00
    0.68680E+06        -0.49981E+08         0.00000E+00
    0.00000E+00         0.00000E+00        -0.46529E+08
 
   -0.45403E+08         0.74417E+06         0.00000E+00
    0.74417E+06        -0.49977E+08         0.00000E+00
    0.00000E+00         0.00000E+00        -0.46535E+08
 
   -0.45436E+08         0.80119E+06         0.00000E+00
    0.80119E+06        -0.49973E+08         0.00000E+00
    0.00000E+00         0.00000E+00        -0.46541E+08
 
   -0.45469E+08         0.85789E+06         0.00000E+00
    0.85789E+06        -0.49969E+08         0.00000E+00
    0.00000E+00         0.00000E+00        -0.46546E+08
 
   -0.45502E+08         0.91426E+06         0.00000E+00
    0.91426E+06        -0.49965E+08         0.00000E+00
    0.00000E+00         0.00000E+00        -0.46552E+08
 
   -0.45535E+08         0.97032E+06         0.00000E+00
    0.97032E+06        -0.49960E+08         0.00000E+00
    0.00000E+00         0.00000E+00        -0.46558E+08
 
   -0.45568E+08         0.10261E+07         0.00000E+00
    0.10261E+07        -0.49955E+08         0.00000E+00
    0.00000E+00         0.00000E+00        -0.46563E+08
 
   -0.45602E+08         0.10815E+07         0.00000E+00
    0.10815E+07        -0.49950E+08         0.00000E+00
    0.00000E+00         0.00000E+00        -0.46569E+08
 
   -0.45635E+08         0.11367E+07         0.00000E+00
    0.11367E+07        -0.49944E+08         0.00000E+00
    0.00000E+00         0.00000E+00        -0.46575E+08
 
   -0.45668E+08         0.11916E+07         0.00000E+00
    0.11916E+07        -0.49939E+08         0.00000E+00
    0.00000E+00         0.00000E+00        -0.46580E+08
 
   -0.45702E+08         0.12461E+07         0.00000E+00
    0.12461E+07        -0.49932E+08         0.00000E+00
    0.00000E+00         0.00000E+00        -0.46586E+08
 
   -0.45736E+08         0.13004E+07         0.00000E+00
    0.13004E+07        -0.49926E+08         0.00000E+00
    0.00000E+00         0.00000E+00        -0.46591E+08
 
   -0.45769E+08         0.13545E+07         0.00000E+00
    0.13545E+07        -0.49919E+08         0.00000E+00
    0.00000E+00         0.00000E+00        -0.46596E+08
 
   -0.45803E+08         0.14083E+07         0.00000E+00
    0.14083E+07        -0.49912E+08         0.00000E+00
    0.00000E+00         0.00000E+00        -0.46602E+08
 
   -0.45837E+08         0.14618E+07         0.00000E+00
    0.14618E+07        -0.49904E+08         0.00000E+00
    0.00000E+00         0.00000E+00        -0.46607E+08
 
   -0.45871E+08         0.15150E+07         0.00000E+00
    0.15150E+07        -0.49897E+08         0.00000E+00
    0.00000E+00         0.00000E+00        -0.46612E+08
 
   -0.45905E+08         0.15680E+07         0.00000E+00
    0.15680E+07        -0.49889E+08         0.00000E+00
    0.00000E+00         0.00000E+00        -0.46617E+08
 
   -0.45940E+08         0.16208E+07         0.00000E+00
    0.16208E+07        -0.49880E+08         0.00000E+00
    0.00000E+00         0.00000E+00        -0.46623E+08
 
   -0.45974E+08         0.16733E+07         0.00000E+00
    0.16733E+07        -0.49871E+08         0.00000E+00
    0.00000E+00         0.00000E+00        -0.46628E+08
 
   -0.46009E+08         0.17255E+07         0.00000E+00
    0.17255E+07        -0.49862E+08         0.00000E+00
    0.00000E+00         0.00000E+00        -0.46633E+08
 
   -0.46044E+08         0.17775E+07         0.00000E+00
    0.17775E+07        -0.49853E+08         0.00000E+00
    0.00000E+00         0.00000E+00        -0.46638E+08
 
   -0.46078E+08         0.18293E+07         0.00000E+00
    0.18293E+07        -0.49843E+08         0.00000E+00
    0.00000E+00         0.00000E+00        -0.46643E+08
 
   -0.46114E+08         0.18809E+07         0.00000E+00
    0.18809E+07        -0.49832E+08         0.00000E+00
    0.00000E+00         0.00000E+00        -0.46648E+08
 
   -0.46149E+08         0.19322E+07         0.00000E+00
    0.19322E+07        -0.49822E+08         0.00000E+00
    0.00000E+00         0.00000E+00        -0.46653E+08
 
   -0.46184E+08         0.19833E+07         0.00000E+00
    0.19833E+07        -0.49811E+08         0.00000E+00
    0.00000E+00         0.00000E+00        -0.46658E+08
 
   -0.46220E+08         0.20341E+07         0.00000E+00
    0.20341E+07        -0.49799E+08         0.00000E+00
    0.00000E+00         0.00000E+00        -0.46662E+08
 
   -0.46256E+08         0.20848E+07         0.00000E+00
    0.20848E+07        -0.49788E+08         0.00000E+00
    0.00000E+00         0.00000E+00        -0.46667E+08
 
   -0.46292E+08         0.21352E+07         0.00000E+00
    0.21352E+07        -0.49775E+08         0.00000E+00
    0.00000E+00         0.00000E+00        -0.46672E+08
 
   -0.46328E+08         0.21854E+07         0.00000E+00
    0.21854E+07        -0.49763E+08         0.00000E+00
    0.00000E+00         0.00000E+00        -0.46677E+08
 
   -0.46364E+08         0.22353E+07         0.00000E+00
    0.22353E+07        -0.49750E+08         0.00000E+00
    0.00000E+00         0.00000E+00        -0.46681E+08
 
   -0.46401E+08         0.22850E+07         0.00000E+00
    0.22850E+07        -0.49736E+08         0.00000E+00
    0.00000E+00         0.00000E+00        -0.46686E+08
 
   -0.46438E+08         0.23345E+07         0.00000E+00
    0.23345E+07        -0.49722E+08         0.00000E+00
    0.00000E+00         0.00000E+00        -0.46691E+08
 
   -0.46475E+08         0.23838E+07         0.00000E+00
    0.23838E+07        -0.49708E+08         0.00000E+00
    0.00000E+00         0.00000E+00        -0.46695E+08
 
   -0.46513E+08         0.24328E+07         0.00000E+00
    0.24328E+07        -0.49694E+08         0.00000E+00
    0.00000E+00         0.00000E+00        -0.46700E+08
 
   -0.46550E+08         0.24817E+07         0.00000E+00
    0.24817E+07        -0.49678E+08         0.00000E+00
    0.00000E+00         0.00000E+00        -0.46704E+08
 
   -0.46589E+08         0.25302E+07         0.00000E+00
    0.25302E+07        -0.49663E+08         0.00000E+00
    0.00000E+00         0.00000E+00        -0.46709E+08
 
   -0.46627E+08         0.25786E+07         0.00000E+00
    0.25786E+07        -0.49647E+08         0.00000E+00
    0.00000E+00         0.00000E+00        -0.46713E+08
 
   -0.46666E+08         0.26267E+07         0.00000E+00
    0.26267E+07        -0.49630E+08         0.00000E+00
    0.00000E+00         0.00000E+00        -0.46718E+08
 
   -0.46705E+08         0.26746E+07         0.00000E+00
    0.26746E+07        -0.49613E+08         0.00000E+00
    0.00000E+00         0.00000E+00        -0.46722E+08
 
   -0.44701E+08         0.32068E+05         0.00000E+00
    0.32068E+05        -0.50000E+08         0.00000E+00
    0.00000E+00         0.00000E+00        -0.46205E+08
 
   -0.44735E+08         0.95137E+05         0.00000E+00
    0.95137E+05        -0.50000E+08         0.00000E+00
    0.00000E+00         0.00000E+00        -0.46212E+08
 
   -0.44769E+08         0.15776E+06         0.00000E+00
    0.15776E+06        -0.49999E+08         0.00000E+00
    0.00000E+00         0.00000E+00        -0.46219E+08
 
   -0.44804E+08         0.21996E+06         0.00000E+00
    0.21996E+06        -0.49998E+08         0.00000E+00
    0.00000E+00         0.00000E+00        -0.46225E+08
 
   -0.44838E+08         0.28174E+06         0.00000E+00
    0.28174E+06        -0.49997E+08         0.00000E+00
    0.00000E+00         0.00000E+00        -0.46232E+08
 
   -0.44872E+08         0.34312E+06         0.00000E+00
    0.34312E+06        -0.49995E+08         0.00000E+00
    0.00000E+00         0.00000E+00        -0.46238E+08
 
   -0.44907E+08         0.40410E+06         0.00000E+00
    0.40410E+06        -0.49994E+08         0.00000E+00
    0.00000E+00         0.00000E+00        -0.46245E+08
 
   -0.44941E+08         0.46469E+06         0.00000E+00
    0.46469E+06        -0.49992E+08         0.00000E+00
    0.00000E+00         0.00000E+00        -0.46251E+08
 
   -0.44975E+08         0.52490E+06         0.00000E+00
    0.52490E+06        -0.49989E+08         0.00000E+00
    0.00000E+00         0.00000E+00        -0.46258E+08
 
   -0.45010E+08         0.58475E+06         0.00000E+00
    0.58475E+06        -0.49987E+08         0.00000E+00
    0.00000E+00         0.00000E+00        -0.46264E+08
 
   -0.45044E+08         0.64425E+06         0.00000E+00
    0.64425E+06        -0.49984E+08         0.00000E+00
    0.00000E+00         0.00000E+00        -0.46271E+08
 
   -0.45079E+08         0.70339E+06         0.00000E+00
    0.70339E+06        -0.49981E+08         0.00000E+00
    0.00000E+00         0.00000E+00        -0.46277E+08
 
   -0.45113E+08         0.76221E+06         0.00000E+00
    0.76221E+06        -0.49977E+08         0.00000E+00
    0.00000E+00         0.00000E+00        -0.46283E+08
 
   -0.45148E+08         0.82069E+06         0.00000E+00
    0.82069E+06        -0.49974E+08         0.00000E+00
    0.00000E+00         0.00000E+00        -0.46289E+08
 
   -0.45183E+08         0.87886E+06         0.00000E+00
    0.87886E+06        -0.49970E+08         0.00000E+00
    0.00000E+00         0.00000E+00        -0.46295E+08
 
   -0.45217E+08         0.93671E+06         0.00000E+00
    0.93671E+06        -0.49965E+08         0.00000E+00
    0.00000E+00         0.00000E+00        -0.46301E+08
 
   -0.45252E+08         0.99427E+06         0.00000E+00
    0.99427E+06        -0.49961E+08         0.00000E+00
    0.00000E+00         0.00000E+00        -0.46307E+08
 
   -0.45287E+08         0.10515E+07         0.00000E+00
    0.10515E+07        -0.49956E+08         0.00000E+00
    0.00000E+00         0.00000E+00        -0.46313E+08
 
   -0.45321E+08         0.11085E+07         0.00000E+00
    0.11085E+07        -0.49951E+08         0.00000E+00
    0.00000E+00         0.00000E+00        -0.46319E+08
 
   -0.45356E+08         0.11652E+07         0.00000E+00
    0.11652E+07        -0.49945E+08         0.00000E+00
    0.00000E+00         0.00000E+00        -0.46325E+08
 
   -0.45391E+08         0.12216E+07         0.00000E+00
    0.12216E+07        -0.49939E+08         0.00000E+00
    0.00000E+00         0.00000E+00        -0.46331E+08
 
   -0.45426E+08         0.12778E+07         0.00000E+00
    0.12778E+07        -0.49933E+08         0.00000E+00
    0.00000E+00         0.00000E+00        -0.46336E+08
 
   -0.45461E+08         0.13337E+07         0.00000E+00
    0.13337E+07        -0.49927E+08         0.00000E+00
    0.00000E+00         0.00000E+00        -0.46342E+08
 
   -0.45496E+08         0.13894E+07         0.00000E+00
    0.13894E+07        -0.49920E+08         0.00000E+00
    0.00000E+00         0.00000E+00        -0.46348E+08
 
   -0.45531E+08         0.14448E+07         0.00000E+00
    0.14448E+07        -0.49913E+08         0.00000E+00
    0.00000E+00         0.00000E+00        -0.46353E+08
 
   -0.45566E+08         0.15000E+07         0.00000E+00
    0.15000E+07        -0.49905E+08         0.00000E+00
    0.00000E+00         0.00000E+00        -0.46359E+08
 
   -0.45601E+08         0.15549E+07         0.00000E+00
    0.15549E+07        -0.49898E+08         0.00000E+00
    0.00000E+00         0.00000E+00        -0.46364E+08
 
   -0.45637E+08         0.16096E+07         0.00000E+00
    0.16096E+07        -0.49889E+08         0.00000E+00
    0.00000E+00         0.00000E+00        -0.46370E+08
 
   -0.45672E+08         0.16641E+07         0.00000E+00
    0.16641E+07        -0.49881E+08         0.00000E+00
    0.00000E+00         0.00000E+00        -0.46375E+08
 
   -0.45708E+08         0.17184E+07         0.00000E+00
    0.17184E+07        -0.49872E+08         0.00000E+00
    0.00000E+00         0.00000E+00        -0.46380E+08
 
   -0.45744E+08         0.17725E+07         0.00000E+00
    0.17725E+07        -0.49863E+08         0.00000E+00
    0.00000E+00         0.00000E+00        -0.46386E+08
 
   -0.45779E+08         0.18263E+07         0.00000E+00
    0.18263E+07        -0.49853E+08         0.00000E+00
    0.00000E+00         0.00000E+00        -0.46391E+08
 
   -0.45815E+08         0.18800E+07         0.00000E+00
    0.18800E+07        -0.49843E+08         0.00000E+00
    0.00000E+00         0.00000E+00        -0.46396E+08
 
   -0.45852E+08         0.19334E+07         0.00000E+00
    0.19334E+07        -0.49833E+08         0.00000E+00
    0.00000E+00         0.00000E+00        -0.46401E+08
 
   -0.45888E+08         0.19866E+07         0.00000E+00
    0.19866E+07        -0.49822E+08         0.00000E+00
    0.00000E+00         0.00000E+00        -0.46406E+08
 
   -0.45924E+08         0.20397E+07         0.00000E+00
    0.20397E+07        -0.49811E+08         0.00000E+00
    0.00000E+00         0.00000E+00        -0.46411E+08
 
   -0.45961E+08         0.20925E+07         0.00000E+00
    0.20925E+07        -0.49800E+08         0.00000E+00
    0.00000E+00         0.00000E+00        -0.46416E+08
 
   -0.45998E+08         0.21452E+07         0.00000E+00
    0.21452E+07        -0.49788E+08         0.00000E+00
    0.00000E+00         0.00000E+00        -0.46421E+08
 
   -0.46035E+08         0.21976E+07         0.00000E+00
    0.21976E+07        -0.49775E+08         0.00000E+00
    0.00000E+00         0.00000E+00        -0.46426E+08
 
   -0.46072E+08         0.22499E+07         0.00000E+00
    0.22499E+07        -0.49762E+08         0.00000E+00
    0.00000E+00         0.00000E+00        -0.46431E+08
 
   -0.46110E+08         0.23020E+07         0.00000E+00
    0.23020E+07        -0.49749E+08         0.00000E+00
    0.00000E+00         0.00000E+00        -0.46436E+08
 
   -0.46148E+08         0.23539E+07         0.00000E+00
    0.23539E+07        -0.49736E+08         0.00000E+00
    0.00000E+00         0.00000E+00        -0.46440E+08
 
   -0.46186E+08         0.24056E+07         0.00000E+00
    0.24056E+07        -0.49721E+08         0.00000E+00
    0.00000E+00         0.00000E+00        -0.46445E+08
 
   -0.46224E+08         0.24571E+07         0.00000E+00
    0.24571E+07        -0.49707E+08         0.00000E+00
    0.00000E+00         0.00000E+00        -0.46450E+08
 
   -0.46262E+08         0.25084E+07         0.00000E+00
    0.25084E+07        -0.49692E+08         0.00000E+00
    0.00000E+00         0.00000E+00        -0.46455E+08
 
   -0.46301E+08         0.25595E+07         0.00000E+00
    0.25595E+07        -0.49676E+08         0.00000E+00
    0.00000E+00         0.00000E+00        -0.46459E+08
 
   -0.46340E+08         0.26104E+07         0.00000E+00
    0.26104E+07        -0.49660E+08         0.00000E+00
    0.00000E+00         0.00000E+00        -0.46464E+08
 
   -0.46380E+08         0.26611E+07         0.00000E+00
    0.26611E+07        -0.49644E+08         0.00000E+00
    0.00000E+00         0.00000E+00        -0.46468E+08
 
   -0.46420E+08         0.27116E+07         0.00000E+00
    0.27116E+07        -0.49627E+08         0.00000E+00
    0.00000E+00         0.00000E+00        -0.46473E+08
 
   -0.46460E+08         0.27620E+07         0.00000E+00
    0.27620E+07        -0.49610E+08         0.00000E+00
    0.00000E+00         0.00000E+00        -0.46478E+08
 
   -0.44381E+08         0.32793E+05         0.00000E+00
    0.32793E+05        -0.50000E+08         0.00000E+00
    0.00000E+00         0.00000E+00        -0.45937E+08
 
   -0.44417E+08         0.97284E+05         0.00000E+00
    0.97284E+05        -0.50000E+08         0.00000E+00
    0.00000E+00         0.00000E+00        -0.45944E+08
 
   -0.44454E+08         0.16133E+06         0.00000E+00
    0.16133E+06        -0.49999E+08         0.00000E+00
    0.00000E+00         0.00000E+00        -0.45951E+08
 
   -0.44490E+08         0.22493E+06         0.00000E+00
    0.22493E+06        -0.49998E+08         0.00000E+00
    0.00000E+00         0.00000E+00        -0.45958E+08
 
   -0.44526E+08         0.28812E+06         0.00000E+00
    0.28812E+06        -0.49997E+08         0.00000E+00
    0.00000E+00         0.00000E+00        -0.45965E+08
 
   -0.44563E+08         0.35089E+06         0.00000E+00
    0.35089E+06        -0.49996E+08         0.00000E+00
    0.00000E+00         0.00000E+00        -0.45972E+08
 
   -0.44599E+08         0.41327E+06         0.00000E+00
    0.41327E+06        -0.49994E+08         0.00000E+00
    0.00000E+00         0.00000E+00        -0.45979E+08
 
   -0.44635E+08         0.47526E+06         0.00000E+00
    0.47526E+06        -0.49992E+08         0.00000E+00
    0.00000E+00         0.00000E+00        -0.45986E+08
 
   -0.44672E+08         0.53688E+06         0.00000E+00
    0.53688E+06        -0.49990E+08         0.00000E+00
    0.00000E+00         0.00000E+00        -0.45993E+08
 
   -0.44708E+08         0.59814E+06         0.00000E+00
    0.59814E+06        -0.49987E+08         0.00000E+00
    0.00000E+00         0.00000E+00        -0.46000E+08
 
   -0.44744E+08         0.65905E+06         0.00000E+00
    0.65905E+06        -0.49985E+08         0.00000E+00
    0.00000E+00         0.00000E+00        -0.46006E+08
 
   -0.44780E+08         0.71963E+06         0.00000E+00
    0.71963E+06        -0.49981E+08         0.00000E+00
    0.00000E+00         0.00000E+00        -0.46013E+08
 
   -0.44817E+08         0.77987E+06         0.00000E+00
    0.77987E+06        -0.49978E+08         0.00000E+00
    0.00000E+00         0.00000E+00        -0.46019E+08
 
   -0.44853E+08         0.83981E+06         0.00000E+00
    0.83981E+06        -0.49975E+08         0.00000E+00
    0.00000E+00         0.00000E+00        -0.46026E+08
 
   -0.44889E+08         0.89944E+06         0.00000E+00
    0.89944E+06        -0.49971E+08         0.00000E+00
    0.00000E+00         0.00000E+00        -0.46032E+08
 
   -0.44925E+08         0.95877E+06         0.00000E+00
    0.95877E+06        -0.49966E+08         0.00000E+00
    0.00000E+00         0.00000E+00        -0.46038E+08
 
   -0.44961E+08         0.10178E+07         0.00000E+00
    0.10178E+07        -0.49962E+08         0.00000E+00
    0.00000E+00         0.00000E+00        -0.46045E+08
 
   -0.44997E+08         0.10766E+07         0.00000E+00
    0.10766E+07        -0.49957E+08         0.00000E+00
    0.00000E+00         0.00000E+00        -0.46051E+08
 
   -0.45033E+08         0.11351E+07         0.00000E+00
    0.11351E+07        -0.49952E+08         0.00000E+00
    0.00000E+00         0.00000E+00        -0.46057E+08
 
   -0.45069E+08         0.11934E+07         0.00000E+00
    0.11934E+07        -0.49947E+08         0.00000E+00
    0.00000E+00         0.00000E+00        -0.46063E+08
 
   -0.45105E+08         0.12514E+07         0.00000E+00
    0.12514E+07        -0.49941E+08         0.00000E+00
    0.00000E+00         0.00000E+00        -0.46069E+08
 
   -0.45142E+08         0.13091E+07         0.00000E+00
    0.13091E+07        -0.49935E+08         0.00000E+00
    0.00000E+00         0.00000E+00        -0.46075E+08
 
   -0.45178E+08         0.13667E+07         0.00000E+00
    0.13667E+07        -0.49928E+08         0.00000E+00
    0.00000E+00         0.00000E+00        -0.46081E+08
 
   -0.45214E+08         0.14240E+07         0.00000E+00
    0.14240E+07        -0.49922E+08         0.00000E+00
    0.00000E+00         0.00000E+00        -0.46087E+08
 
   -0.45250E+08         0.14811E+07         0.00000E+00
    0.14811E+07        -0.49915E+08         0.00000E+00
    0.00000E+00         0.00000E+00        -0.46093E+08
 
   -0.45286E+08         0.15380E+07         0.00000E+00
    0.15380E+07        -0.49907E+08         0.00000E+00
    0.00000E+00         0.00000E+00        -0.46098E+08
 
   -0.45323E+08         0.15946E+07         0.00000E+00
    0.15946E+07        -0.49900E+08         0.00000E+00
    0.00000E+00         0.00000E+00        -0.46104E+08
 
   -0.45359E+08         0.16511E+07         0.00000E+00
    0.16511E+07        -0.49892E+08         0.00000E+00
    0.00000E+00         0.00000E+00        -0.46110E+08
 
   -0.45396E+08         0.17074E+07         0.00000E+00
    0.17074E+07        -0.49883E+08         0.00000E+00
    0.00000E+00         0.00000E+00        -0.46115E+08
 
   -0.45432E+08         0.17635E+07         0.00000E+00
    0.17635E+07        -0.49874E+08         0.00000E+00
    0.00000E+00         0.00000E+00        -0.46121E+08
 
   -0.45469E+08         0.18194E+07         0.00000E+00
    0.18194E+07        -0.49865E+08         0.00000E+00
    0.00000E+00         0.00000E+00        -0.46126E+08
 
   -0.45506E+08         0.18752E+07         0.00000E+00
    0.18752E+07        -0.49856E+08         0.00000E+00
    0.00000E+00         0.00000E+00        -0.46131E+08
 
   -0.45543E+08         0.19308E+07         0.00000E+00
    0.19308E+07        -0.49846E+08         0.00000E+00
    0.00000E+00         0.00000E+00        -0.46137E+08
 
   -0.45580E+08         0.19862E+07         0.00000E+00
    0.19862E+07        -0.49835E+08         0.00000E+00
    0.00000E+00         0.00000E+00        -0.46142E+08
 
   -0.45617E+08         0.20414E+07         0.00000E+00
    0.20414E+07        -0.49825E+08         0.00000E+00
    0.00000E+00         0.00000E+00        -0.46147E+08
 
   -0.45655E+08         0.20965E+07         0.00000E+00
    0.20965E+07        -0.49813E+08         0.00000E+00
    0.00000E+00         0.00000E+00        -0.46152E+08
 
   -0.45692E+08         0.21514E+07         0.00000E+00
    0.21514E+07        -0.49802E+08         0.00000E+00
    0.00000E+00         0.00000E+00        -0.46157E+08
 
   -0.45730E+08         0.22062E+07         0.00000E+00
    0.22062E+07        -0.49790E+08         0.00000E+00
    0.00000E+00         0.00000E+00        -0.46162E+08
 
   -0.45768E+08         0.22608E+07         0.00000E+00
    0.22608E+07        -0.49777E+08         0.00000E+00
    0.00000E+00         0.00000E+00        -0.46168E+08
 
   -0.45806E+08         0.23153E+07         0.00000E+00
    0.23153E+07        -0.49764E+08         0.00000E+00
    0.00000E+00         0.00000E+00        -0.46173E+08
 
   -0.45844E+08         0.23696E+07         0.00000E+00
    0.23696E+07        -0.49751E+08         0.00000E+00
    0.00000E+00         0.00000E+00        -0.46177E+08
 
   -0.45883E+08         0.24237E+07         0.00000E+00
    0.24237E+07        -0.49737E+08         0.00000E+00
    0.00000E+00         0.00000E+00        -0.46182E+08
 
   -0.45922E+08         0.24777E+07         0.00000E+00
    0.24777E+07        -0.49723E+08         0.00000E+00
    0.00000E+00         0.00000E+00        -0.46187E+08
 
   -0.45961E+08         0.25316E+07         0.00000E+00
    0.25316E+07        -0.49708E+08         0.00000E+00
    0.00000E+00         0.00000E+00        -0.46192E+08
 
   -0.46000E+08         0.25853E+07         0.00000E+00
    0.25853E+07        -0.49693E+08         0.00000E+00
    0.00000E+00         0.00000E+00        -0.46197E+08
 
   -0.46040E+08         0.26389E+07         0.00000E+00
    0.26389E+07        -0.49677E+08         0.00000E+00
    0.00000E+00         0.00000E+00        -0.46202E+08
 
   -0.46080E+08         0.26923E+07         0.00000E+00
    0.26923E+07        -0.49661E+08         0.00000E+00
    0.00000E+00         0.00000E+00        -0.46206E+08
 
   -0.46120E+08         0.27455E+07         0.00000E+00
    0.27455E+07        -0.49644E+08         0.00000E+00
    0.00000E+00         0.00000E+00        -0.46211E+08
 
   -0.46161E+08         0.27986E+07         0.00000E+00
    0.27986E+07        -0.49627E+08         0.00000E+00
    0.00000E+00         0.00000E+00        -0.46216E+08
 
   -0.46202E+08         0.28515E+07         0.00000E+00
    0.28515E+07        -0.49609E+08         0.00000E+00
    0.00000E+00         0.00000E+00        -0.46220E+08
 
   -0.44054E+08         0.33484E+05         0.00000E+00
    0.33484E+05        -0.50000E+08         0.00000E+00
    0.00000E+00         0.00000E+00        -0.45655E+08
 
   -0.44092E+08         0.99335E+05         0.00000E+00
    0.99335E+05        -0.49999E+08         0.00000E+00
    0.00000E+00         0.00000E+00        -0.45663E+08
 
   -0.44131E+08         0.16473E+06         0.00000E+00
    0.16473E+06        -0.49999E+08         0.00000E+00
    0.00000E+00         0.00000E+00        -0.45671E+08
 
   -0.44170E+08         0.22968E+06         0.00000E+00
    0.22968E+06        -0.49998E+08         0.00000E+00
    0.00000E+00         0.00000E+00        -0.45678E+08
 
   -0.44208E+08         0.29421E+06         0.00000E+00
    0.29421E+06        -0.49997E+08         0.00000E+00
    0.00000E+00         0.00000E+00        -0.45686E+08
 
   -0.44246E+08         0.35833E+06         0.00000E+00
    0.35833E+06        -0.49996E+08         0.00000E+00
    0.00000E+00         0.00000E+00        -0.45693E+08
 
   -0.44285E+08         0.42206E+06         0.00000E+00
    0.42206E+06        -0.49994E+08         0.00000E+00
    0.00000E+00         0.00000E+00        -0.45700E+08
 
   -0.44323E+08         0.48540E+06         0.00000E+00
    0.48540E+06        -0.49992E+08         0.00000E+00
    0.00000E+00         0.00000E+00        -0.45708E+08
 
   -0.44361E+08         0.54838E+06         0.00000E+00
    0.54838E+06        -0.49990E+08         0.00000E+00
    0.00000E+00         0.00000E+00        -0.45715E+08
 
   -0.44399E+08         0.61101E+06         0.00000E+00
    0.61101E+06        -0.49988E+08         0.00000E+00
    0.00000E+00         0.00000E+00        -0.45722E+08
 
   -0.44437E+08         0.67330E+06         0.00000E+00
    0.67330E+06        -0.49985E+08         0.00000E+00
    0.00000E+00         0.00000E+00        -0.45729E+08
 
   -0.44475E+08         0.73527E+06         0.00000E+00
    0.73527E+06        -0.49982E+08         0.00000E+00
    0.00000E+00         0.00000E+00        -0.45736E+08
 
   -0.44513E+08         0.79692E+06         0.00000E+00
    0.79692E+06        -0.49979E+08         0.00000E+00
    0.00000E+00         0.00000E+00        -0.45743E+08
 
   -0.44550E+08         0.85828E+06         0.00000E+00
    0.85828E+06        -0.49976E+08         0.00000E+00
    0.00000E+00         0.00000E+00        -0.45749E+08
 
   -0.44588E+08         0.91934E+06         0.00000E+00
    0.91934E+06        -0.49972E+08         0.00000E+00
    0.00000E+00         0.00000E+00        -0.45756E+08
 
   -0.44625E+08         0.98014E+06         0.00000E+00
    0.98014E+06        -0.49968E+08         0.00000E+00
    0.00000E+00         0.00000E+00        -0.45763E+08
 
   -0.44663E+08         0.10407E+07         0.00000E+00
    0.10407E+07        -0.49964E+08         0.00000E+00
    0.00000E+00         0.00000E+00        -0.45769E+08
 
   -0.44700E+08         0.11009E+07         0.00000E+00
    0.11009E+07        -0.49959E+08         0.00000E+00
    0.00000E+00         0.00000E+00        -0.45776E+08
 
   -0.44737E+08         0.11610E+07         0.00000E+00
    0.11610E+07        -0.49954E+08         0.00000E+00
    0.00000E+00         0.00000E+00        -0.45782E+08
 
   -0.44775E+08         0.12208E+07         0.00000E+00
    0.12208E+07        -0.49949E+08         0.00000E+00
    0.00000E+00         0.00000E+00        -0.45788E+08
 
   -0.44812E+08         0.12804E+07         0.00000E+00
    0.12804E+07        -0.49943E+08         0.00000E+00
    0.00000E+00         0.00000E+00        -0.45795E+08
 
   -0.44849E+08         0.13397E+07         0.00000E+00
    0.13397E+07        -0.49937E+08         0.00000E+00
    0.00000E+00         0.00000E+00        -0.45801E+08
 
   -0.44886E+08         0.13989E+07         0.00000E+00
    0.13989E+07        -0.49931E+08         0.00000E+00
    0.00000E+00         0.00000E+00        -0.45807E+08
 
   -0.44924E+08         0.14579E+07         0.00000E+00
    0.14579E+07        -0.49925E+08         0.00000E+00
    0.00000E+00         0.00000E+00        -0.45813E+08
 
   -0.44961E+08         0.15167E+07         0.00000E+00
    0.15167E+07        -0.49918E+08         0.00000E+00
    0.00000E+00         0.00000E+00        -0.45819E+08
 
   -0.44998E+08         0.15753E+07         0.00000E+00
    0.15753E+07        -0.49911E+08         0.00000E+00
    0.00000E+00         0.00000E+00        -0.45825E+08
 
   -0.45035E+08         0.16338E+07         0.00000E+00
    0.16338E+07        -0.49903E+08         0.00000E+00
    0.00000E+00         0.00000E+00        -0.45830E+08
 
   -0.45073E+08         0.16921E+07         0.00000E+00
    0.16921E+07        -0.49895E+08         0.00000E+00
    0.00000E+00         0.00000E+00        -0.45836E+08
 
   -0.45110E+08         0.17502E+07         0.00000E+00
    0.17502E+07        -0.49887E+08         0.00000E+00
    0.00000E+00         0.00000E+00        -0.45842E+08
 
   -0.45148E+08         0.18082E+07         0.00000E+00
    0.18082E+07        -0.49878E+08         0.00000E+00
    0.00000E+00         0.00000E+00        -0.45848E+08
 
   -0.45185E+08         0.18660E+07         0.00000E+00
    0.18660E+07        -0.49869E+08         0.00000E+00
    0.00000E+00         0.00000E+00        -0.45853E+08
 
   -0.45223E+08         0.19237E+07         0.00000E+00
    0.19237E+07        -0.49860E+08         0.00000E+00
    0.00000E+00         0.00000E+00        -0.45859E+08
 
   -0.45260E+08         0.19813E+07         0.00000E+00
    0.19813E+07        -0.49850E+08         0.00000E+00
    0.00000E+00         0.00000E+00        -0.45864E+08
 
   -0.45298E+08         0.20387E+07         0.00000E+00
    0.20387E+07        -0.49840E+08         0.00000E+00
    0.00000E+00         0.00000E+00        -0.45869E+08
 
   -0.45336E+08         0.20961E+07         0.00000E+00
    0.20961E+07        -0.49829E+08         0.00000E+00
    0.00000E+00         0.00000E+00        -0.45875E+08
 
   -0.45374E+08         0.21533E+07         0.00000E+00
    0.21533E+07        -0.49818E+08         0.00000E+00
    0.00000E+00         0.00000E+00        -0.45880E+08
 
   -0.45412E+08         0.22104E+07         0.00000E+00
    0.22104E+07        -0.49806E+08         0.00000E+00
    0.00000E+00         0.00000E+00        -0.45885E+08
 
   -0.45451E+08         0.22674E+07         0.00000E+00
    0.22674E+07        -0.49794E+08         0.00000E+00
    0.00000E+00         0.00000E+00        -0.45891E+08
 
   -0.45489E+08         0.23242E+07         0.00000E+00
    0.23242E+07        -0.49782E+08         0.00000E+00
    0.00000E+00         0.00000E+00        -0.45896E+08
 
   -0.45528E+08         0.23810E+07         0.00000E+00
    0.23810E+07        -0.49769E+08         0.00000E+00
    0.00000E+00         0.00000E+00        -0.45901E+08
 
   -0.45567E+08         0.24376E+07         0.00000E+00
    0.24376E+07        -0.49756E+08         0.00000E+00
    0.00000E+00         0.00000E+00        -0.45906E+08
 
   -0.45606E+08         0.24942E+07         0.00000E+00
    0.24942E+07        -0.49742E+08         0.00000E+00
    0.00000E+00         0.00000E+00        -0.45911E+08
 
   -0.45646E+08         0.25506E+07         0.00000E+00
    0.25506E+07        -0.49728E+08         0.00000E+00
    0.00000E+00         0.00000E+00        -0.45916E+08
 
   -0.45686E+08         0.26070E+07         0.00000E+00
    0.26070E+07        -0.49713E+08         0.00000E+00
    0.00000E+00         0.00000E+00        -0.45921E+08
 
   -0.45726E+08         0.26632E+07         0.00000E+00
    0.26632E+07        -0.49697E+08         0.00000E+00
    0.00000E+00         0.00000E+00        -0.45925E+08
 
   -0.45766E+08         0.27194E+07         0.00000E+00
    0.27194E+07        -0.49681E+08         0.00000E+00
    0.00000E+00         0.00000E+00        -0.45930E+08
 
   -0.45807E+08         0.27754E+07         0.00000E+00
    0.27754E+07        -0.49665E+08         0.00000E+00
    0.00000E+00         0.00000E+00        -0.45935E+08
 
   -0.45848E+08         0.28313E+07         0.00000E+00
    0.28313E+07        -0.49648E+08         0.00000E+00
    0.00000E+00         0.00000E+00        -0.45940E+08
 
   -0.45889E+08         0.28871E+07         0.00000E+00
    0.28871E+07        -0.49630E+08         0.00000E+00
    0.00000E+00         0.00000E+00        -0.45945E+08
 
   -0.45931E+08         0.29428E+07         0.00000E+00
    0.29428E+07        -0.49612E+08         0.00000E+00
    0.00000E+00         0.00000E+00        -0.45949E+08
 
   -0.43720E+08         0.34128E+05         0.00000E+00
    0.34128E+05        -0.50000E+08         0.00000E+00
    0.00000E+00         0.00000E+00        -0.45361E+08
 
   -0.43761E+08         0.10125E+06         0.00000E+00
    0.10125E+06        -0.49999E+08         0.00000E+00
    0.00000E+00         0.00000E+00        -0.45369E+08
 
   -0.43802E+08         0.16791E+06         0.00000E+00
    0.16791E+06        -0.49999E+08         0.00000E+00
    0.00000E+00         0.00000E+00        -0.45377E+08
 
   -0.43843E+08         0.23413E+06         0.00000E+00
    0.23413E+06        -0.49998E+08         0.00000E+00
    0.00000E+00         0.00000E+00        -0.45385E+08
 
   -0.43883E+08         0.29992E+06         0.00000E+00
    0.29992E+06        -0.49997E+08         0.00000E+00
    0.00000E+00         0.00000E+00        -0.45393E+08
 
   -0.43924E+08         0.36531E+06         0.00000E+00
    0.36531E+06        -0.49996E+08         0.00000E+00
    0.00000E+00         0.00000E+00        -0.45400E+08
 
   -0.43964E+08         0.43031E+06         0.00000E+00
    0.43031E+06        -0.49995E+08         0.00000E+00
    0.00000E+00         0.00000E+00        -0.45408E+08
 
   -0.44004E+08         0.49494E+06         0.00000E+00
    0.49494E+06        -0.49993E+08         0.00000E+00
    0.00000E+00         0.00000E+00        -0.45416E+08
 
   -0.44044E+08         0.55921E+06         0.00000E+00
    0.55921E+06        -0.49991E+08         0.00000E+00
    0.00000E+00         0.00000E+00        -0.45423E+08
 
   -0.44083E+08         0.62315E+06         0.00000E+00
    0.62315E+06        -0.49989E+08         0.00000E+00
    0.00000E+00         0.00000E+00        -0.45431E+08
 
   -0.44123E+08         0.68676E+06         0.00000E+00
    0.68676E+06        -0.49986E+08         0.00000E+00
    0.00000E+00         0.00000E+00        -0.45438E+08
 
   -0.44162E+08         0.75006E+06         0.00000E+00
    0.75006E+06        -0.49984E+08         0.00000E+00
    0.00000E+00         0.00000E+00        -0.45445E+08
 
   -0.44202E+08         0.81307E+06         0.00000E+00
    0.81307E+06        -0.49981E+08         0.00000E+00
    0.00000E+00         0.00000E+00        -0.45452E+08
 
   -0.44241E+08         0.87580E+06         0.00000E+00
    0.87580E+06        -0.49977E+08         0.00000E+00
    0.00000E+00         0.00000E+00        -0.45459E+08
 
   -0.44280E+08         0.93827E+06         0.00000E+00
    0.93827E+06        -0.49974E+08         0.00000E+00
    0.00000E+00         0.00000E+00        -0.45466E+08
 
   -0.44318E+08         0.10005E+07         0.00000E+00
    0.10005E+07        -0.49970E+08         0.00000E+00
    0.00000E+00         0.00000E+00        -0.45473E+08
 
   -0.44357E+08         0.10625E+07         0.00000E+00
    0.10625E+07        -0.49966E+08         0.00000E+00
    0.00000E+00         0.00000E+00        -0.45480E+08
 
   -0.44396E+08         0.11242E+07         0.00000E+00
    0.11242E+07        -0.49962E+08         0.00000E+00
    0.00000E+00         0.00000E+00        -0.45487E+08
 
   -0.44434E+08         0.11858E+07         0.00000E+00
    0.11858E+07        -0.49957E+08         0.00000E+00
    0.00000E+00         0.00000E+00        -0.45493E+08
 
   -0.44472E+08         0.12471E+07         0.00000E+00
    0.12471E+07        -0.49952E+08         0.00000E+00
    0.00000E+00         0.00000E+00        -0.45500E+08
 
   -0.44511E+08         0.13083E+07         0.00000E+00
    0.13083E+07        -0.49947E+08         0.00000E+00
    0.00000E+00         0.00000E+00        -0.45506E+08
 
   -0.44549E+08         0.13692E+07         0.00000E+00
    0.13692E+07        -0.49941E+08         0.00000E+00
    0.00000E+00         0.00000E+00        -0.45513E+08
 
   -0.44587E+08         0.14300E+07         0.00000E+00
    0.14300E+07        -0.49935E+08         0.00000E+00
    0.00000E+00         0.00000E+00        -0.45519E+08
 
   -0.44625E+08         0.14907E+07         0.00000E+00
    0.14907E+07        -0.49929E+08         0.00000E+00
    0.00000E+00         0.00000E+00        -0.45525E+08
 
   -0.44663E+08         0.15512E+07         0.00000E+00
    0.15512E+07        -0.49922E+08         0.00000E+00
    0.00000E+00         0.00000E+00        -0.45531E+08
 
   -0.44701E+08         0.16116E+07         0.00000E+00
    0.16116E+07        -0.49915E+08         0.00000E+00
    0.00000E+00         0.00000E+00        -0.45537E+08
 
   -0.44739E+08         0.16718E+07         0.00000E+00
    0.16718E+07        -0.49908E+08         0.00000E+00
    0.00000E+00         0.00000E+00        -0.45543E+08
 
   -0.44777E+08         0.17319E+07         0.00000E+00
    0.17319E+07        -0.49900E+08         0.00000E+00
    0.00000E+00         0.00000E+00        -0.45549E+08
 
   -0.44815E+08         0.17920E+07         0.00000E+00
    0.17920E+07        -0.49892E+08         0.00000E+00
    0.00000E+00         0.00000E+00        -0.45555E+08
 
   -0.44853E+08         0.18519E+07         0.00000E+00
    0.18519E+07        -0.49884E+08         0.00000E+00
    0.00000E+00         0.00000E+00        -0.45561E+08
 
   -0.44891E+08         0.19117E+07         0.00000E+00
    0.19117E+07        -0.49875E+08         0.00000E+00
    0.00000E+00         0.00000E+00        -0.45566E+08
 
   -0.44929E+08         0.19714E+07         0.00000E+00
    0.19714E+07        -0.49866E+08         0.00000E+00
    0.00000E+00         0.00000E+00        -0.45572E+08
 
   -0.44968E+08         0.20310E+07         0.00000E+00
    0.20310E+07        -0.49856E+08         0.00000E+00
    0.00000E+00         0.00000E+00        -0.45577E+08
 
   -0.45006E+08         0.20906E+07         0.00000E+00
    0.20906E+07        -0.49846E+08         0.00000E+00
    0.00000E+00         0.00000E+00        -0.45583E+08
 
   -0.45044E+08         0.21501E+07         0.00000E+00
    0.21501E+07        -0.49836E+08         0.00000E+00
    0.00000E+00         0.00000E+00        -0.45588E+08
 
   -0.45083E+08         0.22095E+07         0.00000E+00
    0.22095E+07        -0.49825E+08         0.00000E+00
    0.00000E+00         0.00000E+00        -0.45594E+08
 
   -0.45121E+08         0.22688E+07         0.00000E+00
    0.22688E+07        -0.49814E+08         0.00000E+00
    0.00000E+00         0.00000E+00        -0.45599E+08
 
   -0.45160E+08         0.23281E+07         0.00000E+00
    0.23281E+07        -0.49802E+08         0.00000E+00
    0.00000E+00         0.00000E+00        -0.45604E+08
 
   -0.45199E+08         0.23873E+07         0.00000E+00
    0.23873E+07        -0.49790E+08         0.00000E+00
    0.00000E+00         0.00000E+00        -0.45610E+08
 
   -0.45239E+08         0.24465E+07         0.00000E+00
    0.24465E+07        -0.49777E+08         0.00000E+00
    0.00000E+00         0.00000E+00        -0.45615E+08
 
   -0.45278E+08         0.25056E+07         0.00000E+00
    0.25056E+07        -0.49763E+08         0.00000E+00
    0.00000E+00         0.00000E+00        -0.45620E+08
 
   -0.45318E+08         0.25647E+07         0.00000E+00
    0.25647E+07        -0.49750E+08         0.00000E+00
    0.00000E+00         0.00000E+00        -0.45625E+08
 
   -0.45358E+08         0.26237E+07         0.00000E+00
    0.26237E+07        -0.49735E+08         0.00000E+00
    0.00000E+00         0.00000E+00        -0.45630E+08
 
   -0.45398E+08         0.26826E+07         0.00000E+00
    0.26826E+07        -0.49721E+08         0.00000E+00
    0.00000E+00         0.00000E+00        -0.45635E+08
 
   -0.45438E+08         0.27415E+07         0.00000E+00
    0.27415E+07        -0.49705E+08         0.00000E+00
    0.00000E+00         0.00000E+00        -0.45640E+08
 
   -0.45479E+08         0.28004E+07         0.00000E+00
    0.28004E+07        -0.49689E+08         0.00000E+00
    0.00000E+00         0.00000E+00        -0.45645E+08
 
   -0.45520E+08         0.28592E+07         0.00000E+00
    0.28592E+07        -0.49673E+08         0.00000E+00
    0.00000E+00         0.00000E+00        -0.45650E+08
 
   -0.45561E+08         0.29179E+07         0.00000E+00
    0.29179E+07        -0.49656E+08         0.00000E+00
    0.00000E+00         0.00000E+00        -0.45654E+08
 
   -0.45603E+08         0.29767E+07         0.00000E+00
    0.29767E+07        -0.49638E+08         0.00000E+00
    0.00000E+00         0.00000E+00        -0.45659E+08
 
   -0.45645E+08         0.30353E+07         0.00000E+00
    0.30353E+07        -0.49620E+08         0.00000E+00
    0.00000E+00         0.00000E+00        -0.45664E+08
 
   -0.43380E+08         0.34709E+05         0.00000E+00
    0.34709E+05        -0.50000E+08         0.00000E+00
    0.00000E+00         0.00000E+00        -0.45051E+08
 
   -0.43424E+08         0.10298E+06         0.00000E+00
    0.10298E+06        -0.49999E+08         0.00000E+00
    0.00000E+00         0.00000E+00        -0.45060E+08
 
   -0.43467E+08         0.17079E+06         0.00000E+00
    0.17079E+06        -0.49999E+08         0.00000E+00
    0.00000E+00         0.00000E+00        -0.45069E+08
 
   -0.43510E+08         0.23817E+06         0.00000E+00
    0.23817E+06        -0.49998E+08         0.00000E+00
    0.00000E+00         0.00000E+00        -0.45077E+08
 
   -0.43552E+08         0.30512E+06         0.00000E+00
    0.30512E+06        -0.49998E+08         0.00000E+00
    0.00000E+00         0.00000E+00        -0.45085E+08
 
   -0.43595E+08         0.37168E+06         0.00000E+00
    0.37168E+06        -0.49996E+08         0.00000E+00
    0.00000E+00         0.00000E+00        -0.45093E+08
 
   -0.43637E+08         0.43785E+06         0.00000E+00
    0.43785E+06        -0.49995E+08         0.00000E+00
    0.00000E+00         0.00000E+00        -0.45101E+08
 
   -0.43679E+08         0.50367E+06         0.00000E+00
    0.50367E+06        -0.49994E+08         0.00000E+00
    0.00000E+00         0.00000E+00        -0.45109E+08
 
   -0.43720E+08         0.56914E+06         0.00000E+00
    0.56914E+06        -0.49992E+08         0.00000E+00
    0.00000E+00         0.00000E+00        -0.45117E+08
 
   -0.43761E+08         0.63430E+06         0.00000E+00
    0.63430E+06        -0.49990E+08         0.00000E+00
    0.00000E+00         0.00000E+00        -0.45125E+08
 
   -0.43802E+08         0.69915E+06         0.00000E+00
    0.69915E+06        -0.49988E+08         0.00000E+00
    0.00000E+00         0.00000E+00        -0.45133E+08
 
   -0.43843E+08         0.76371E+06         0.00000E+00
    0.76371E+06        -0.49985E+08         0.00000E+00
    0.00000E+00         0.00000E+00        -0.45140E+08
 
   -0.43884E+08         0.82800E+06         0.00000E+00
    0.82800E+06        -0.49982E+08         0.00000E+00
    0.00000E+00         0.00000E+00        -0.45148E+08
 
   -0.43924E+08         0.89204E+06         0.00000E+00
    0.89204E+06        -0.49979E+08         0.00000E+00
    0.00000E+00         0.00000E+00        -0.45155E+08
 
   -0.43964E+08         0.95585E+06         0.00000E+00
    0.95585E+06        -0.49976E+08         0.00000E+00
    0.00000E+00         0.00000E+00        -0.45162E+08
 
   -0.44004E+08         0.10194E+07         0.00000E+00
    0.10194E+07        -0.49973E+08         0.00000E+00
    0.00000E+00         0.00000E+00        -0.45169E+08
 
   -0.44044E+08         0.10828E+07         0.00000E+00
    0.10828E+07        -0.49969E+08         0.00000E+00
    0.00000E+00         0.00000E+00        -0.45176E+08
 
   -0.44084E+08         0.11460E+07         0.00000E+00
    0.11460E+07        -0.49965E+08         0.00000E+00
    0.00000E+00         0.00000E+00        -0.45183E+08
 
   -0.44123E+08         0.12090E+07         0.00000E+00
    0.12090E+07        -0.49961E+08         0.00000E+00
    0.00000E+00         0.00000E+00        -0.45190E+08
 
   -0.44162E+08         0.12719E+07         0.00000E+00
    0.12719E+07        -0.49956E+08         0.00000E+00
    0.00000E+00         0.00000E+00        -0.45197E+08
 
   -0.44201E+08         0.13346E+07         0.00000E+00
    0.13346E+07        -0.49951E+08         0.00000E+00
    0.00000E+00         0.00000E+00        -0.45203E+08
 
   -0.44240E+08         0.13971E+07         0.00000E+00
    0.13971E+07        -0.49946E+08         0.00000E+00
    0.00000E+00         0.00000E+00        -0.45210E+08
 
   -0.44279E+08         0.14596E+07         0.00000E+00
    0.14596E+07        -0.49940E+08         0.00000E+00
    0.00000E+00         0.00000E+00        -0.45216E+08
 
   -0.44318E+08         0.15219E+07         0.00000E+00
    0.15219E+07        -0.49934E+08         0.00000E+00
    0.00000E+00         0.00000E+00        -0.45223E+08
 
   -0.44356E+08         0.15841E+07         0.00000E+00
    0.15841E+07        -0.49928E+08         0.00000E+00
    0.00000E+00         0.00000E+00        -0.45229E+08
 
   -0.44395E+08         0.16462E+07         0.00000E+00
    0.16462E+07        -0.49922E+08         0.00000E+00
    0.00000E+00         0.00000E+00        -0.45235E+08
 
   -0.44433E+08         0.17083E+07         0.00000E+00
    0.17083E+07        -0.49915E+08         0.00000E+00
    0.00000E+00         0.00000E+00        -0.45241E+08
 
   -0.44472E+08         0.17703E+07         0.00000E+00
    0.17703E+07        -0.49908E+08         0.00000E+00
    0.00000E+00         0.00000E+00        -0.45247E+08
 
   -0.44510E+08         0.18322E+07         0.00000E+00
    0.18322E+07        -0.49900E+08         0.00000E+00
    0.00000E+00         0.00000E+00        -0.45253E+08
 
   -0.44549E+08         0.18940E+07         0.00000E+00
    0.18940E+07        -0.49892E+08         0.00000E+00
    0.00000E+00         0.00000E+00        -0.45259E+08
 
   -0.44587E+08         0.19559E+07         0.00000E+00
    0.19559E+07        -0.49883E+08         0.00000E+00
    0.00000E+00         0.00000E+00        -0.45265E+08
 
   -0.44626E+08         0.20176E+07         0.00000E+00
    0.20176E+07        -0.49875E+08         0.00000E+00
    0.00000E+00         0.00000E+00        -0.45270E+08
 
   -0.44664E+08         0.20794E+07         0.00000E+00
    0.20794E+07        -0.49865E+08         0.00000E+00
    0.00000E+00         0.00000E+00        -0.45276E+08
 
   -0.44703E+08         0.21411E+07         0.00000E+00
    0.21411E+07        -0.49856E+08         0.00000E+00
    0.00000E+00         0.00000E+00        -0.45282E+08
 
   -0.44741E+08         0.22028E+07         0.00000E+00
    0.22028E+07        -0.49845E+08         0.00000E+00
    0.00000E+00         0.00000E+00        -0.45287E+08
 
   -0.44780E+08         0.22645E+07         0.00000E+00
    0.22645E+07        -0.49835E+08         0.00000E+00
    0.00000E+00         0.00000E+00        -0.45292E+08
 
   -0.44819E+08         0.23261E+07         0.00000E+00
    0.23261E+07        -0.49824E+08         0.00000E+00
    0.00000E+00         0.00000E+00        -0.45298E+08
 
   -0.44858E+08         0.23878E+07         0.00000E+00
    0.23878E+07        -0.49812E+08         0.00000E+00
    0.00000E+00         0.00000E+00        -0.45303E+08
 
   -0.44897E+08         0.24495E+07         0.00000E+00
    0.24495E+07        -0.49800E+08         0.00000E+00
    0.00000E+00         0.00000E+00        -0.45308E+08
 
   -0.44937E+08         0.25112E+07         0.00000E+00
    0.25112E+07        -0.49788E+08         0.00000E+00
    0.00000E+00         0.00000E+00        -0.45314E+08
 
   -0.44976E+08         0.25728E+07         0.00000E+00
    0.25728E+07        -0.49775E+08         0.00000E+00
    0.00000E+00         0.00000E+00        -0.45319E+08
 
   -0.45016E+08         0.26345E+07         0.00000E+00
    0.26345E+07        -0.49761E+08         0.00000E+00
    0.00000E+00         0.00000E+00        -0.45324E+08
 
   -0.45056E+08         0.26962E+07         0.00000E+00
    0.26962E+07        -0.49747E+08         0.00000E+00
    0.00000E+00         0.00000E+00        -0.45329E+08
 
   -0.45096E+08         0.27579E+07         0.00000E+00
    0.27579E+07        -0.49732E+08         0.00000E+00
    0.00000E+00         0.00000E+00        -0.45334E+08
 
   -0.45137E+08         0.28196E+07         0.00000E+00
    0.28196E+07        -0.49717E+08         0.00000E+00
    0.00000E+00         0.00000E+00        -0.45339E+08
 
   -0.45177E+08         0.28813E+07         0.00000E+00
    0.28813E+07        -0.49701E+08         0.00000E+00
    0.00000E+00         0.00000E+00        -0.45344E+08
 
   -0.45219E+08         0.29431E+07         0.00000E+00
    0.29431E+07        -0.49685E+08         0.00000E+00
    0.00000E+00         0.00000E+00        -0.45349E+08
 
   -0.45260E+08         0.30048E+07         0.00000E+00
    0.30048E+07        -0.49668E+08         0.00000E+00
    0.00000E+00         0.00000E+00        -0.45353E+08
 
   -0.45302E+08         0.30666E+07         0.00000E+00
    0.30666E+07        -0.49650E+08         0.00000E+00
    0.00000E+00         0.00000E+00        -0.45358E+08
 
   -0.45344E+08         0.31283E+07         0.00000E+00
    0.31283E+07        -0.49632E+08         0.00000E+00
    0.00000E+00         0.00000E+00        -0.45363E+08
 
   -0.43035E+08         0.35212E+05         0.00000E+00
    0.35212E+05        -0.50000E+08         0.00000E+00
    0.00000E+00         0.00000E+00        -0.44727E+08
 
   -0.43081E+08         0.10449E+06         0.00000E+00
    0.10449E+06        -0.49999E+08         0.00000E+00
    0.00000E+00         0.00000E+00        -0.44736E+08
 
   -0.43126E+08         0.17331E+06         0.00000E+00
    0.17331E+06        -0.49999E+08         0.00000E+00
    0.00000E+00         0.00000E+00        -0.44745E+08
 
   -0.43171E+08         0.24169E+06         0.00000E+00
    0.24169E+06        -0.49999E+08         0.00000E+00
    0.00000E+00         0.00000E+00        -0.44754E+08
 
   -0.43216E+08         0.30967E+06         0.00000E+00
    0.30967E+06        -0.49998E+08         0.00000E+00
    0.00000E+00         0.00000E+00        -0.44763E+08
 
   -0.43260E+08         0.37725E+06         0.00000E+00
    0.37725E+06        -0.49997E+08         0.00000E+00
    0.00000E+00         0.00000E+00        -0.44771E+08
 
   -0.43304E+08         0.44448E+06         0.00000E+00
    0.44448E+06        -0.49996E+08         0.00000E+00
    0.00000E+00         0.00000E+00        -0.44780E+08
 
   -0.43348E+08         0.51136E+06         0.00000E+00
    0.51136E+06        -0.49994E+08         0.00000E+00
    0.00000E+00         0.00000E+00        -0.44788E+08
 
   -0.43391E+08         0.57792E+06         0.00000E+00
    0.57792E+06        -0.49993E+08         0.00000E+00
    0.00000E+00         0.00000E+00        -0.44796E+08
 
   -0.43434E+08         0.64418E+06         0.00000E+00
    0.64418E+06        -0.49991E+08         0.00000E+00
    0.00000E+00         0.00000E+00        -0.44804E+08
 
   -0.43476E+08         0.71017E+06         0.00000E+00
    0.71017E+06        -0.49989E+08         0.00000E+00
    0.00000E+00         0.00000E+00        -0.44812E+08
 
   -0.43518E+08         0.77589E+06         0.00000E+00
    0.77589E+06        -0.49987E+08         0.00000E+00
    0.00000E+00         0.00000E+00        -0.44820E+08
 
   -0.43560E+08         0.84138E+06         0.00000E+00
    0.84138E+06        -0.49985E+08         0.00000E+00
    0.00000E+00         0.00000E+00        -0.44828E+08
 
   -0.43601E+08         0.90664E+06         0.00000E+00
    0.90664E+06        -0.49982E+08         0.00000E+00
    0.00000E+00         0.00000E+00        -0.44835E+08
 
   -0.43643E+08         0.97170E+06         0.00000E+00
    0.97170E+06        -0.49979E+08         0.00000E+00
    0.00000E+00         0.00000E+00        -0.44843E+08
 
   -0.43684E+08         0.10366E+07         0.00000E+00
    0.10366E+07        -0.49976E+08         0.00000E+00
    0.00000E+00         0.00000E+00        -0.44850E+08
 
   -0.43724E+08         0.11013E+07         0.00000E+00
    0.11013E+07        -0.49973E+08         0.00000E+00
    0.00000E+00         0.00000E+00        -0.44857E+08
 
   -0.43765E+08         0.11659E+07         0.00000E+00
    0.11659E+07        -0.49969E+08         0.00000E+00
    0.00000E+00         0.00000E+00        -0.44864E+08
 
   -0.43805E+08         0.12303E+07         0.00000E+00
    0.12303E+07        -0.49965E+08         0.00000E+00
    0.00000E+00         0.00000E+00        -0.44871E+08
 
   -0.43845E+08         0.12946E+07         0.00000E+00
    0.12946E+07        -0.49961E+08         0.00000E+00
    0.00000E+00         0.00000E+00        -0.44878E+08
 
   -0.43884E+08         0.13588E+07         0.00000E+00
    0.13588E+07        -0.49957E+08         0.00000E+00
    0.00000E+00         0.00000E+00        -0.44885E+08
 
   -0.43924E+08         0.14229E+07         0.00000E+00
    0.14229E+07        -0.49952E+08         0.00000E+00
    0.00000E+00         0.00000E+00        -0.44892E+08
 
   -0.43963E+08         0.14869E+07         0.00000E+00
    0.14869E+07        -0.49947E+08         0.00000E+00
    0.00000E+00         0.00000E+00        -0.44898E+08
 
   -0.44002E+08         0.15509E+07         0.00000E+00
    0.15509E+07        -0.49942E+08         0.00000E+00
    0.00000E+00         0.00000E+00        -0.44905E+08
 
   -0.44041E+08         0.16148E+07         0.00000E+00
    0.16148E+07        -0.49936E+08         0.00000E+00
    0.00000E+00         0.00000E+00        -0.44911E+08
 
   -0.44080E+08         0.16787E+07         0.00000E+00
    0.16787E+07        -0.49930E+08         0.00000E+00
    0.00000E+00         0.00000E+00        -0.44917E+08
 
   -0.44119E+08         0.17426E+07         0.00000E+00
    0.17426E+07        -0.49923E+08         0.00000E+00
    0.00000E+00         0.00000E+00        -0.44924E+08
 
   -0.44157E+08         0.18064E+07         0.00000E+00
    0.18064E+07        -0.49917E+08         0.00000E+00
    0.00000E+00         0.00000E+00        -0.44930E+08
 
   -0.44196E+08         0.18702E+07         0.00000E+00
    0.18702E+07        -0.49910E+08         0.00000E+00
    0.00000E+00         0.00000E+00        -0.44936E+08
 
   -0.44235E+08         0.19341E+07         0.00000E+00
    0.19341E+07        -0.49902E+08         0.00000E+00
    0.00000E+00         0.00000E+00        -0.44942E+08
 
   -0.44273E+08         0.19979E+07         0.00000E+00
    0.19979E+07        -0.49894E+08         0.00000E+00
    0.00000E+00         0.00000E+00        -0.44947E+08
 
   -0.44312E+08         0.20618E+07         0.00000E+00
    0.20618E+07        -0.49886E+08         0.00000E+00
    0.00000E+00         0.00000E+00        -0.44953E+08
 
   -0.44350E+08         0.21257E+07         0.00000E+00
    0.21257E+07        -0.49877E+08         0.00000E+00
    0.00000E+00         0.00000E+00        -0.44959E+08
 
   -0.44389E+08         0.21896E+07         0.00000E+00
    0.21896E+07        -0.49868E+08         0.00000E+00
    0.00000E+00         0.00000E+00        -0.44964E+08
 
   -0.44427E+08         0.22536E+07         0.00000E+00
    0.22536E+07        -0.49858E+08         0.00000E+00
    0.00000E+00         0.00000E+00        -0.44970E+08
 
   -0.44466E+08         0.23176E+07         0.00000E+00
    0.23176E+07        -0.49848E+08         0.00000E+00
    0.00000E+00         0.00000E+00        -0.44975E+08
 
   -0.44505E+08         0.23817E+07         0.00000E+00
    0.23817E+07        -0.49837E+08         0.00000E+00
    0.00000E+00         0.00000E+00        -0.44981E+08
 
   -0.44543E+08         0.24458E+07         0.00000E+00
    0.24458E+07        -0.49826E+08         0.00000E+00
    0.00000E+00         0.00000E+00        -0.44986E+08
 
   -0.44582E+08         0.25100E+07         0.00000E+00
    0.25100E+07        -0.49814E+08         0.00000E+00
    0.00000E+00         0.00000E+00        -0.44991E+08
 
   -0.44622E+08         0.25743E+07         0.00000E+00
    0.25743E+07        -0.49802E+08         0.00000E+00
    0.00000E+00         0.00000E+00        -0.44997E+08
 
   -0.44661E+08         0.26387E+07         0.00000E+00
    0.26387E+07        -0.49790E+08         0.00000E+00
    0.00000E+00         0.00000E+00        -0.45002E+08
 
   -0.44700E+08         0.27031E+07         0.00000E+00
    0.27031E+07        -0.49776E+08         0.00000E+00
    0.00000E+00         0.00000E+00        -0.45007E+08
 
   -0.44740E+08         0.27676E+07         0.00000E+00
    0.27676E+07        -0.49762E+08         0.00000E+00
    0.00000E+00         0.00000E+00        -0.45012E+08
 
   -0.44780E+08         0.28321E+07         0.00000E+00
    0.28321E+07        -0.49748E+08         0.00000E+00
    0.00000E+00         0.00000E+00        -0.45017E+08
 
   -0.44821E+08         0.28968E+07         0.00000E+00
    0.28968E+07        -0.49733E+08         0.00000E+00
    0.00000E+00         0.00000E+00        -0.45022E+08
 
   -0.44861E+08         0.29615E+07         0.00000E+00
    0.29615E+07        -0.49718E+08         0.00000E+00
    0.00000E+00         0.00000E+00        -0.45027E+08
 
   -0.44902E+08         0.30263E+07         0.00000E+00
    0.30263E+07        -0.49701E+08         0.00000E+00
    0.00000E+00         0.00000E+00        -0.45031E+08
 
   -0.44943E+08         0.30912E+07         0.00000E+00
    0.30912E+07        -0.49684E+08         0.00000E+00
    0.00000E+00         0.00000E+00        -0.45036E+08
 
   -0.44985E+08         0.31562E+07         0.00000E+00
    0.31562E+07        -0.49667E+08         0.00000E+00
    0.00000E+00         0.00000E+00        -0.45041E+08
 
   -0.45027E+08         0.32212E+07         0.00000E+00
    0.32212E+07        -0.49649E+08         0.00000E+00
    0.00000E+00         0.00000E+00        -0.45046E+08
 
   -0.42685E+08         0.35616E+05         0.00000E+00
    0.35616E+05        -0.50000E+08         0.00000E+00
    0.00000E+00         0.00000E+00        -0.44387E+08
 
   -0.42733E+08         0.10571E+06         0.00000E+00
    0.10571E+06        -0.49999E+08         0.00000E+00
    0.00000E+00         0.00000E+00        -0.44397E+08
 
   -0.42781E+08         0.17535E+06         0.00000E+00
    0.17535E+06        -0.49999E+08         0.00000E+00
    0.00000E+00         0.00000E+00        -0.44406E+08
 
   -0.42828E+08         0.24457E+06         0.00000E+00
    0.24457E+06        -0.49999E+08         0.00000E+00
    0.00000E+00         0.00000E+00        -0.44416E+08
 
   -0.42875E+08         0.31340E+06         0.00000E+00
    0.31340E+06        -0.49998E+08         0.00000E+00
    0.00000E+00         0.00000E+00        -0.44425E+08
 
   -0.42921E+08         0.38186E+06         0.00000E+00
    0.38186E+06        -0.49997E+08         0.00000E+00
    0.00000E+00         0.00000E+00        -0.44434E+08
 
   -0.42966E+08         0.44997E+06         0.00000E+00
    0.44997E+06        -0.49997E+08         0.00000E+00
    0.00000E+00         0.00000E+00        -0.44443E+08
 
   -0.43012E+08         0.51777E+06         0.00000E+00
    0.51777E+06        -0.49996E+08         0.00000E+00
    0.00000E+00         0.00000E+00        -0.44451E+08
 
   -0.43056E+08         0.58527E+06         0.00000E+00
    0.58527E+06        -0.49994E+08         0.00000E+00
    0.00000E+00         0.00000E+00        -0.44460E+08
 
   -0.43100E+08         0.65250E+06         0.00000E+00
    0.65250E+06        -0.49993E+08         0.00000E+00
    0.00000E+00         0.00000E+00        -0.44468E+08
 
   -0.43144E+08         0.71948E+06         0.00000E+00
    0.71948E+06        -0.49991E+08         0.00000E+00
    0.00000E+00         0.00000E+00        -0.44476E+08
 
   -0.43187E+08         0.78624E+06         0.00000E+00
    0.78624E+06        -0.49990E+08         0.00000E+00
    0.00000E+00         0.00000E+00        -0.44484E+08
 
   -0.43230E+08         0.85280E+06         0.00000E+00
    0.85280E+06        -0.49988E+08         0.00000E+00
    0.00000E+00         0.00000E+00        -0.44492E+08
 
   -0.43273E+08         0.91918E+06         0.00000E+00
    0.91918E+06        -0.49985E+08         0.00000E+00
    0.00000E+00         0.00000E+00        -0.44500E+08
 
   -0.43315E+08         0.98539E+06         0.00000E+00
    0.98539E+06        -0.49983E+08         0.00000E+00
    0.00000E+00         0.00000E+00        -0.44508E+08
 
   -0.43356E+08         0.10515E+07         0.00000E+00
    0.10515E+07        -0.49981E+08         0.00000E+00
    0.00000E+00         0.00000E+00        -0.44515E+08
 
   -0.43398E+08         0.11174E+07         0.00000E+00
    0.11174E+07        -0.49978E+08         0.00000E+00
    0.00000E+00         0.00000E+00        -0.44523E+08
 
   -0.43439E+08         0.11833E+07         0.00000E+00
    0.11833E+07        -0.49975E+08         0.00000E+00
    0.00000E+00         0.00000E+00        -0.44530E+08
 
   -0.43479E+08         0.12490E+07         0.00000E+00
    0.12490E+07        -0.49971E+08         0.00000E+00
    0.00000E+00         0.00000E+00        -0.44537E+08
 
   -0.43520E+08         0.13147E+07         0.00000E+00
    0.13147E+07        -0.49968E+08         0.00000E+00
    0.00000E+00         0.00000E+00        -0.44544E+08
 
   -0.43560E+08         0.13804E+07         0.00000E+00
    0.13804E+07        -0.49964E+08         0.00000E+00
    0.00000E+00         0.00000E+00        -0.44551E+08
 
   -0.43600E+08         0.14460E+07         0.00000E+00
    0.14460E+07        -0.49960E+08         0.00000E+00
    0.00000E+00         0.00000E+00        -0.44558E+08
 
   -0.43639E+08         0.15116E+07         0.00000E+00
    0.15116E+07        -0.49955E+08         0.00000E+00
    0.00000E+00         0.00000E+00        -0.44564E+08
 
   -0.43678E+08         0.15772E+07         0.00000E+00
    0.15772E+07        -0.49950E+08         0.00000E+00
    0.00000E+00         0.00000E+00        -0.44571E+08
 
   -0.43717E+08         0.16428E+07         0.00000E+00
    0.16428E+07        -0.49945E+08         0.00000E+00
    0.00000E+00         0.00000E+00        -0.44577E+08
 
   -0.43756E+08         0.17084E+07         0.00000E+00
    0.17084E+07        -0.49940E+08         0.00000E+00
    0.00000E+00         0.00000E+00        -0.44584E+08
 
   -0.43795E+08         0.17740E+07         0.00000E+00
    0.17740E+07        -0.49934E+08         0.00000E+00
    0.00000E+00         0.00000E+00        -0.44590E+08
 
   -0.43834E+08         0.18397E+07         0.00000E+00
    0.18397E+07        -0.49928E+08         0.00000E+00
    0.00000E+00         0.00000E+00        -0.44596E+08
 
   -0.43872E+08         0.19055E+07         0.00000E+00
    0.19055E+07        -0.49922E+08         0.00000E+00
    0.00000E+00         0.00000E+00        -0.44602E+08
 
   -0.43910E+08         0.19713E+07         0.00000E+00
    0.19713E+07        -0.49915E+08         0.00000E+00
    0.00000E+00         0.00000E+00        -0.44608E+08
 
   -0.43949E+08         0.20372E+07         0.00000E+00
    0.20372E+07        -0.49907E+08         0.00000E+00
    0.00000E+00         0.00000E+00        -0.44614E+08
 
   -0.43987E+08         0.21032E+07         0.00000E+00
    0.21032E+07        -0.49900E+08         0.00000E+00
    0.00000E+00         0.00000E+00        -0.44620E+08
 
   -0.44025E+08         0.21693E+07         0.00000E+00
    0.21693E+07        -0.49891E+08         0.00000E+00
    0.00000E+00         0.00000E+00        -0.44625E+08
 
   -0.44063E+08         0.22355E+07         0.00000E+00
    0.22355E+07        -0.49883E+08         0.00000E+00
    0.00000E+00         0.00000E+00        -0.44631E+08
 
   -0.44101E+08         0.23018E+07         0.00000E+00
    0.23018E+07        -0.49874E+08         0.00000E+00
    0.00000E+00         0.00000E+00        -0.44636E+08
 
   -0.44139E+08         0.23682E+07         0.00000E+00
    0.23682E+07        -0.49864E+08         0.00000E+00
    0.00000E+00         0.00000E+00        -0.44642E+08
 
   -0.44178E+08         0.24348E+07         0.00000E+00
    0.24348E+07        -0.49854E+08         0.00000E+00
    0.00000E+00         0.00000E+00        -0.44647E+08
 
   -0.44216E+08         0.25014E+07         0.00000E+00
    0.25014E+07        -0.49844E+08         0.00000E+00
    0.00000E+00         0.00000E+00        -0.44652E+08
 
   -0.44255E+08         0.25683E+07         0.00000E+00
    0.25683E+07        -0.49832E+08         0.00000E+00
    0.00000E+00         0.00000E+00        -0.44658E+08
 
   -0.44293E+08         0.26352E+07         0.00000E+00
    0.26352E+07        -0.49821E+08         0.00000E+00
    0.00000E+00         0.00000E+00        -0.44663E+08
 
   -0.44332E+08         0.27023E+07         0.00000E+00
    0.27023E+07        -0.49809E+08         0.00000E+00
    0.00000E+00         0.00000E+00        -0.44668E+08
 
   -0.44371E+08         0.27696E+07         0.00000E+00
    0.27696E+07        -0.49796E+08         0.00000E+00
    0.00000E+00         0.00000E+00        -0.44673E+08
 
   -0.44410E+08         0.28370E+07         0.00000E+00
    0.28370E+07        -0.49783E+08         0.00000E+00
    0.00000E+00         0.00000E+00        -0.44678E+08
 
   -0.44450E+08         0.29045E+07         0.00000E+00
    0.29045E+07        -0.49769E+08         0.00000E+00
    0.00000E+00         0.00000E+00        -0.44683E+08
 
   -0.44489E+08         0.29723E+07         0.00000E+00
    0.29723E+07        -0.49754E+08         0.00000E+00
    0.00000E+00         0.00000E+00        -0.44688E+08
 
   -0.44529E+08         0.30401E+07         0.00000E+00
    0.30401E+07        -0.49739E+08         0.00000E+00
    0.00000E+00         0.00000E+00        -0.44693E+08
 
   -0.44570E+08         0.31081E+07         0.00000E+00
    0.31081E+07        -0.49723E+08         0.00000E+00
    0.00000E+00         0.00000E+00        -0.44697E+08
 
   -0.44610E+08         0.31763E+07         0.00000E+00
    0.31763E+07        -0.49707E+08         0.00000E+00
    0.00000E+00         0.00000E+00        -0.44702E+08
 
   -0.44652E+08         0.32447E+07         0.00000E+00
    0.32447E+07        -0.49689E+08         0.00000E+00
    0.00000E+00         0.00000E+00        -0.44707E+08
 
   -0.44693E+08         0.33131E+07         0.00000E+00
    0.33131E+07        -0.49672E+08         0.00000E+00
    0.00000E+00         0.00000E+00        -0.44711E+08
 
   -0.42332E+08         0.35901E+05         0.00000E+00
    0.35901E+05        -0.50000E+08         0.00000E+00
    0.00000E+00         0.00000E+00        -0.44031E+08
 
   -0.42382E+08         0.10659E+06         0.00000E+00
    0.10659E+06        -0.50000E+08         0.00000E+00
    0.00000E+00         0.00000E+00        -0.44041E+08
 
   -0.42432E+08         0.17684E+06         0.00000E+00
    0.17684E+06        -0.49999E+08         0.00000E+00
    0.00000E+00         0.00000E+00        -0.44051E+08
 
   -0.42481E+08         0.24668E+06         0.00000E+00
    0.24668E+06        -0.49999E+08         0.00000E+00
    0.00000E+00         0.00000E+00        -0.44061E+08
 
   -0.42530E+08         0.31615E+06         0.00000E+00
    0.31615E+06        -0.49999E+08         0.00000E+00
    0.00000E+00         0.00000E+00        -0.44070E+08
 
   -0.42578E+08         0.38528E+06         0.00000E+00
    0.38528E+06        -0.49998E+08         0.00000E+00
    0.00000E+00         0.00000E+00        -0.44080E+08
 
   -0.42625E+08         0.45409E+06         0.00000E+00
    0.45409E+06        -0.49998E+08         0.00000E+00
    0.00000E+00         0.00000E+00        -0.44089E+08
 
   -0.42671E+08         0.52261E+06         0.00000E+00
    0.52261E+06        -0.49997E+08         0.00000E+00
    0.00000E+00         0.00000E+00        -0.44098E+08
 
   -0.42717E+08         0.59087E+06         0.00000E+00
    0.59087E+06        -0.49996E+08         0.00000E+00
    0.00000E+00         0.00000E+00        -0.44107E+08
 
   -0.42763E+08         0.65890E+06         0.00000E+00
    0.65890E+06        -0.49995E+08         0.00000E+00
    0.00000E+00         0.00000E+00        -0.44115E+08
 
   -0.42808E+08         0.72672E+06         0.00000E+00
    0.72672E+06        -0.49994E+08         0.00000E+00
    0.00000E+00         0.00000E+00        -0.44124E+08
 
   -0.42852E+08         0.79436E+06         0.00000E+00
    0.79436E+06        -0.49993E+08         0.00000E+00
    0.00000E+00         0.00000E+00        -0.44132E+08
 
   -0.42896E+08         0.86184E+06         0.00000E+00
    0.86184E+06        -0.49991E+08         0.00000E+00
    0.00000E+00         0.00000E+00        -0.44140E+08
 
   -0.42939E+08         0.92919E+06         0.00000E+00
    0.92919E+06        -0.49990E+08         0.00000E+00
    0.00000E+00         0.00000E+00        -0.44148E+08
 
   -0.42981E+08         0.99643E+06         0.00000E+00
    0.99643E+06        -0.49988E+08         0.00000E+00
    0.00000E+00         0.00000E+00        -0.44156E+08
 
   -0.43024E+08         0.10636E+07         0.00000E+00
    0.10636E+07        -0.49986E+08         0.00000E+00
    0.00000E+00         0.00000E+00        -0.44164E+08
 
   -0.43065E+08         0.11307E+07         0.00000E+00
    0.11307E+07        -0.49984E+08         0.00000E+00
    0.00000E+00         0.00000E+00        -0.44171E+08
 
   -0.43107E+08         0.11977E+07         0.00000E+00
    0.11977E+07        -0.49981E+08         0.00000E+00
    0.00000E+00         0.00000E+00        -0.44179E+08
 
   -0.43148E+08         0.12647E+07         0.00000E+00
    0.12647E+07        -0.49978E+08         0.00000E+00
    0.00000E+00         0.00000E+00        -0.44186E+08
 
   -0.43188E+08         0.13317E+07         0.00000E+00
    0.13317E+07        -0.49976E+08         0.00000E+00
    0.00000E+00         0.00000E+00        -0.44193E+08
 
   -0.43228E+08         0.13987E+07         0.00000E+00
    0.13987E+07        -0.49972E+08         0.00000E+00
    0.00000E+00         0.00000E+00        -0.44200E+08
 
   -0.43268E+08         0.14657E+07         0.00000E+00
    0.14657E+07        -0.49969E+08         0.00000E+00
    0.00000E+00         0.00000E+00        -0.44207E+08
 
   -0.43307E+08         0.15328E+07         0.00000E+00
    0.15328E+07        -0.49965E+08         0.00000E+00
    0.00000E+00         0.00000E+00        -0.44213E+08
 
   -0.43346E+08         0.16000E+07         0.00000E+00
    0.16000E+07        -0.49961E+08         0.00000E+00
    0.00000E+00         0.00000E+00        -0.44220E+08
 
   -0.43385E+08         0.16672E+07         0.00000E+00
    0.16672E+07        -0.49957E+08         0.00000E+00
    0.00000E+00         0.00000E+00        -0.44226E+08
 
   -0.43424E+08         0.17345E+07         0.00000E+00
    0.17345E+07        -0.49952E+08         0.00000E+00
    0.00000E+00         0.00000E+00        -0.44233E+08
 
   -0.43462E+08         0.18019E+07         0.00000E+00
    0.18019E+07        -0.49947E+08         0.00000E+00
    0.00000E+00         0.00000E+00        -0.44239E+08
 
   -0.43500E+08         0.18695E+07         0.00000E+00
    0.18695E+07        -0.49942E+08         0.00000E+00
    0.00000E+00         0.00000E+00        -0.44245E+08
 
   -0.43538E+08         0.19371E+07         0.00000E+00
    0.19371E+07        -0.49936E+08         0.00000E+00
    0.00000E+00         0.00000E+00        -0.44251E+08
 
   -0.43576E+08         0.20050E+07         0.00000E+00
    0.20050E+07        -0.49930E+08         0.00000E+00
    0.00000E+00         0.00000E+00        -0.44257E+08
 
   -0.43614E+08         0.20729E+07         0.00000E+00
    0.20729E+07        -0.49924E+08         0.00000E+00
    0.00000E+00         0.00000E+00        -0.44263E+08
 
   -0.43651E+08         0.21411E+07         0.00000E+00
    0.21411E+07        -0.49917E+08         0.00000E+00
    0.00000E+00         0.00000E+00        -0.44269E+08
 
   -0.43689E+08         0.22094E+07         0.00000E+00
    0.22094E+07        -0.49909E+08         0.00000E+00
    0.00000E+00         0.00000E+00        -0.44274E+08
 
   -0.43726E+08         0.22779E+07         0.00000E+00
    0.22779E+07        -0.49901E+08         0.00000E+00
    0.00000E+00         0.00000E+00        -0.44280E+08
 
   -0.43763E+08         0.23465E+07         0.00000E+00
    0.23465E+07        -0.49893E+08         0.00000E+00
    0.00000E+00         0.00000E+00        -0.44285E+08
 
   -0.43801E+08         0.24154E+07         0.00000E+00
    0.24154E+07        -0.49884E+08         0.00000E+00
    0.00000E+00         0.00000E+00        -0.44291E+08
 
   -0.43838E+08         0.24845E+07         0.00000E+00
    0.24845E+07        -0.49875E+08         0.00000E+00
    0.00000E+00         0.00000E+00        -0.44296E+08
 
   -0.43876E+08         0.25538E+07         0.00000E+00
    0.25538E+07        -0.49865E+08         0.00000E+00
    0.00000E+00         0.00000E+00        -0.44301E+08
 
   -0.43913E+08         0.26233E+07         0.00000E+00
    0.26233E+07        -0.49855E+08         0.00000E+00
    0.00000E+00         0.00000E+00        -0.44306E+08
 
   -0.43951E+08         0.26930E+07         0.00000E+00
    0.26930E+07        -0.49844E+08         0.00000E+00
    0.00000E+00         0.00000E+00        -0.44311E+08
 
   -0.43989E+08         0.27630E+07         0.00000E+00
    0.27630E+07        -0.49833E+08         0.00000E+00
    0.00000E+00         0.00000E+00        -0.44316E+08
 
   -0.44027E+08         0.28332E+07         0.00000E+00
    0.28332E+07        -0.49820E+08         0.00000E+00
    0.00000E+00         0.00000E+00        -0.44321E+08
 
   -0.44065E+08         0.29036E+07         0.00000E+00
    0.29036E+07        -0.49808E+08         0.00000E+00
    0.00000E+00         0.00000E+00        -0.44326E+08
 
   -0.44104E+08         0.29743E+07         0.00000E+00
    0.29743E+07        -0.49794E+08         0.00000E+00
    0.00000E+00         0.00000E+00        -0.44331E+08
 
   -0.44142E+08         0.30452E+07         0.00000E+00
    0.30452E+07        -0.49781E+08         0.00000E+00
    0.00000E+00         0.00000E+00        -0.44336E+08
 
   -0.44181E+08         0.31163E+07         0.00000E+00
    0.31163E+07        -0.49766E+08         0.00000E+00
    0.00000E+00         0.00000E+00        -0.44341E+08
 
   -0.44221E+08         0.31877E+07         0.00000E+00
    0.31877E+07        -0.49751E+08         0.00000E+00
    0.00000E+00         0.00000E+00        -0.44345E+08
 
   -0.44260E+08         0.32593E+07         0.00000E+00
    0.32593E+07        -0.49735E+08         0.00000E+00
    0.00000E+00         0.00000E+00        -0.44350E+08
 
   -0.44301E+08         0.33312E+07         0.00000E+00
    0.33312E+07        -0.49718E+08         0.00000E+00
    0.00000E+00         0.00000E+00        -0.44354E+08
 
   -0.44341E+08         0.34033E+07         0.00000E+00
    0.34033E+07        -0.49701E+08         0.00000E+00
    0.00000E+00         0.00000E+00        -0.44359E+08
 
   -0.41977E+08         0.36043E+05         0.00000E+00
    0.36043E+05        -0.50000E+08         0.00000E+00
    0.00000E+00         0.00000E+00        -0.43659E+08
 
   -0.42029E+08         0.10705E+06         0.00000E+00
    0.10705E+06        -0.50000E+08         0.00000E+00
    0.00000E+00         0.00000E+00        -0.43669E+08
 
   -0.42081E+08         0.17764E+06         0.00000E+00
    0.17764E+06        -0.49999E+08         0.00000E+00
    0.00000E+00         0.00000E+00        -0.43679E+08
 
   -0.42132E+08         0.24785E+06         0.00000E+00
    0.24785E+06        -0.49999E+08         0.00000E+00
    0.00000E+00         0.00000E+00        -0.43689E+08
 
   -0.42182E+08         0.31772E+06         0.00000E+00
    0.31772E+06        -0.49999E+08         0.00000E+00
    0.00000E+00         0.00000E+00        -0.43699E+08
 
   -0.42232E+08         0.38727E+06         0.00000E+00
    0.38727E+06        -0.49999E+08         0.00000E+00
    0.00000E+00         0.00000E+00        -0.43709E+08
 
   -0.42280E+08         0.45655E+06         0.00000E+00
    0.45655E+06        -0.49999E+08         0.00000E+00
    0.00000E+00         0.00000E+00        -0.43718E+08
 
   -0.42328E+08         0.52557E+06         0.00000E+00
    0.52557E+06        -0.49998E+08         0.00000E+00
    0.00000E+00         0.00000E+00        -0.43728E+08
 
   -0.42375E+08         0.59438E+06         0.00000E+00
    0.59438E+06        -0.49998E+08         0.00000E+00
    0.00000E+00         0.00000E+00        -0.43737E+08
 
   -0.42421E+08         0.66300E+06         0.00000E+00
    0.66300E+06        -0.49997E+08         0.00000E+00
    0.00000E+00         0.00000E+00        -0.43745E+08
 
   -0.42467E+08         0.73147E+06         0.00000E+00
    0.73147E+06        -0.49997E+08         0.00000E+00
    0.00000E+00         0.00000E+00        -0.43754E+08
 
   -0.42512E+08         0.79980E+06         0.00000E+00
    0.79980E+06        -0.49996E+08         0.00000E+00
    0.00000E+00         0.00000E+00        -0.43763E+08
 
   -0.42556E+08         0.86803E+06         0.00000E+00
    0.86803E+06        -0.49995E+08         0.00000E+00
    0.00000E+00         0.00000E+00        -0.43771E+08
 
   -0.42600E+08         0.93618E+06         0.00000E+00
    0.93618E+06        -0.49994E+08         0.00000E+00
    0.00000E+00         0.00000E+00        -0.43779E+08
 
   -0.42643E+08         0.10043E+07         0.00000E+00
    0.10043E+07        -0.49993E+08         0.00000E+00
    0.00000E+00         0.00000E+00        -0.43787E+08
 
   -0.42686E+08         0.10723E+07         0.00000E+00
    0.10723E+07        -0.49992E+08         0.00000E+00
    0.00000E+00         0.00000E+00        -0.43795E+08
 
   -0.42727E+08         0.11404E+07         0.00000E+00
    0.11404E+07        -0.49990E+08         0.00000E+00
    0.00000E+00         0.00000E+00        -0.43802E+08
 
   -0.42769E+08         0.12085E+07         0.00000E+00
    0.12085E+07        -0.49989E+08         0.00000E+00
    0.00000E+00         0.00000E+00        -0.43810E+08
 
   -0.42810E+08         0.12766E+07         0.00000E+00
    0.12766E+07        -0.49987E+08         0.00000E+00
    0.00000E+00         0.00000E+00        -0.43817E+08
 
   -0.42850E+08         0.13448E+07         0.00000E+00
    0.13448E+07        -0.49985E+08         0.00000E+00
    0.00000E+00         0.00000E+00        -0.43824E+08
 
   -0.42890E+08         0.14131E+07         0.00000E+00
    0.14131E+07        -0.49983E+08         0.00000E+00
    0.00000E+00         0.00000E+00        -0.43831E+08
 
   -0.42929E+08         0.14815E+07         0.00000E+00
    0.14815E+07        -0.49980E+08         0.00000E+00
    0.00000E+00         0.00000E+00        -0.43838E+08
 
   -0.42968E+08         0.15500E+07         0.00000E+00
    0.15500E+07        -0.49977E+08         0.00000E+00
    0.00000E+00         0.00000E+00        -0.43845E+08
 
   -0.43007E+08         0.16186E+07         0.00000E+00
    0.16186E+07        -0.49974E+08         0.00000E+00
    0.00000E+00         0.00000E+00        -0.43852E+08
 
   -0.43045E+08         0.16874E+07         0.00000E+00
    0.16874E+07        -0.49971E+08         0.00000E+00
    0.00000E+00         0.00000E+00        -0.43858E+08
 
   -0.43083E+08         0.17564E+07         0.00000E+00
    0.17564E+07        -0.49967E+08         0.00000E+00
    0.00000E+00         0.00000E+00        -0.43864E+08
 
   -0.43120E+08         0.18255E+07         0.00000E+00
    0.18255E+07        -0.49963E+08         0.00000E+00
    0.00000E+00         0.00000E+00        -0.43871E+08
 
   -0.43157E+08         0.18949E+07         0.00000E+00
    0.18949E+07        -0.49959E+08         0.00000E+00
    0.00000E+00         0.00000E+00        -0.43877E+08
 
   -0.43194E+08         0.19644E+07         0.00000E+00
    0.19644E+07        -0.49954E+08         0.00000E+00
    0.00000E+00         0.00000E+00        -0.43883E+08
 
   -0.43231E+08         0.20342E+07         0.00000E+00
    0.20342E+07        -0.49949E+08         0.00000E+00
    0.00000E+00         0.00000E+00        -0.43888E+08
 
   -0.43268E+08         0.21043E+07         0.00000E+00
    0.21043E+07        -0.49943E+08         0.00000E+00
    0.00000E+00         0.00000E+00        -0.43894E+08
 
   -0.43304E+08         0.21745E+07         0.00000E+00
    0.21745E+07        -0.49937E+08         0.00000E+00
    0.00000E+00         0.00000E+00        -0.43900E+08
 
   -0.43341E+08         0.22451E+07         0.00000E+00
    0.22451E+07        -0.49931E+08         0.00000E+00
    0.00000E+00         0.00000E+00        -0.43905E+08
 
   -0.43377E+08         0.23159E+07         0.00000E+00
    0.23159E+07        -0.49924E+08         0.00000E+00
    0.00000E+00         0.00000E+00        -0.43911E+08
 
   -0.43413E+08         0.23870E+07         0.00000E+00
    0.23870E+07        -0.49916E+08         0.00000E+00
    0.00000E+00         0.00000E+00        -0.43916E+08
 
   -0.43449E+08         0.24583E+07         0.00000E+00
    0.24583E+07        -0.49909E+08         0.00000E+00
    0.00000E+00         0.00000E+00        -0.43921E+08
 
   -0.43486E+08         0.25300E+07         0.00000E+00
    0.25300E+07        -0.49900E+08         0.00000E+00
    0.00000E+00         0.00000E+00        -0.43927E+08
 
   -0.43522E+08         0.26020E+07         0.00000E+00
    0.26020E+07        -0.49891E+08         0.00000E+00
    0.00000E+00         0.00000E+00        -0.43932E+08
 
   -0.43558E+08         0.26743E+07         0.00000E+00
    0.26743E+07        -0.49882E+08         0.00000E+00
    0.00000E+00         0.00000E+00        -0.43937E+08
 
   -0.43594E+08         0.27469E+07         0.00000E+00
    0.27469E+07        -0.49872E+08         0.00000E+00
    0.00000E+00         0.00000E+00        -0.43942E+08
 
   -0.43631E+08         0.28198E+07         0.00000E+00
    0.28198E+07        -0.49861E+08         0.00000E+00
    0.00000E+00         0.00000E+00        -0.43946E+08
 
   -0.43668E+08         0.28930E+07         0.00000E+00
    0.28930E+07        -0.49850E+08         0.00000E+00
    0.00000E+00         0.00000E+00        -0.43951E+08
 
   -0.43704E+08         0.29665E+07         0.00000E+00
    0.29665E+07        -0.49838E+08         0.00000E+00
    0.00000E+00         0.00000E+00        -0.43956E+08
 
   -0.43742E+08         0.30404E+07         0.00000E+00
    0.30404E+07        -0.49826E+08         0.00000E+00
    0.00000E+00         0.00000E+00        -0.43961E+08
 
   -0.43779E+08         0.31146E+07         0.00000E+00
    0.31146E+07        -0.49813E+08         0.00000E+00
    0.00000E+00         0.00000E+00        -0.43965E+08
 
   -0.43816E+08         0.31892E+07         0.00000E+00
    0.31892E+07        -0.49799E+08         0.00000E+00
    0.00000E+00         0.00000E+00        -0.43970E+08
 
   -0.43854E+08         0.32641E+07         0.00000E+00
    0.32641E+07        -0.49784E+08         0.00000E+00
    0.00000E+00         0.00000E+00        -0.43974E+08
 
   -0.43893E+08         0.33393E+07         0.00000E+00
    0.33393E+07        -0.49769E+08         0.00000E+00
    0.00000E+00         0.00000E+00        -0.43979E+08
 
   -0.43931E+08         0.34148E+07         0.00000E+00
    0.34148E+07        -0.49753E+08         0.00000E+00
    0.00000E+00         0.00000E+00        -0.43983E+08
 
   -0.43970E+08         0.34907E+07         0.00000E+00
    0.34907E+07        -0.49736E+08         0.00000E+00
    0.00000E+00         0.00000E+00        -0.43988E+08
 
   -0.41620E+08         0.36014E+05         0.00000E+00
    0.36014E+05        -0.50000E+08         0.00000E+00
    0.00000E+00         0.00000E+00        -0.43268E+08
 
   -0.41675E+08         0.10702E+06         0.00000E+00
    0.10702E+06        -0.50000E+08         0.00000E+00
    0.00000E+00         0.00000E+00        -0.43279E+08
 
   -0.41729E+08         0.17764E+06         0.00000E+00
    0.17764E+06        -0.50000E+08         0.00000E+00
    0.00000E+00         0.00000E+00        -0.43290E+08
 
   -0.41781E+08         0.24792E+06         0.00000E+00
    0.24792E+06        -0.50000E+08         0.00000E+00
    0.00000E+00         0.00000E+00        -0.43300E+08
 
   -0.41833E+08         0.31788E+06         0.00000E+00
    0.31788E+06        -0.50000E+08         0.00000E+00
    0.00000E+00         0.00000E+00        -0.43311E+08
 
   -0.41884E+08         0.38758E+06         0.00000E+00
    0.38758E+06        -0.50000E+08         0.00000E+00
    0.00000E+00         0.00000E+00        -0.43320E+08
 
   -0.41934E+08         0.45705E+06         0.00000E+00
    0.45705E+06        -0.50000E+08         0.00000E+00
    0.00000E+00         0.00000E+00        -0.43330E+08
 
   -0.41983E+08         0.52631E+06         0.00000E+00
    0.52631E+06        -0.50000E+08         0.00000E+00
    0.00000E+00         0.00000E+00        -0.43340E+08
 
   -0.42031E+08         0.59541E+06         0.00000E+00
    0.59541E+06        -0.50000E+08         0.00000E+00
    0.00000E+00         0.00000E+00        -0.43349E+08
 
   -0.42078E+08         0.66438E+06         0.00000E+00
    0.66438E+06        -0.50000E+08         0.00000E+00
    0.00000E+00         0.00000E+00        -0.43358E+08
 
   -0.42124E+08         0.73325E+06         0.00000E+00
    0.73325E+06        -0.50000E+08         0.00000E+00
    0.00000E+00         0.00000E+00        -0.43367E+08
 
   -0.42169E+08         0.80205E+06         0.00000E+00
    0.80205E+06        -0.50000E+08         0.00000E+00
    0.00000E+00         0.00000E+00        -0.43376E+08
 
   -0.42214E+08         0.87082E+06         0.00000E+00
    0.87082E+06        -0.50000E+08         0.00000E+00
    0.00000E+00         0.00000E+00        -0.43384E+08
 
   -0.42258E+08         0.93957E+06         0.00000E+00
    0.93957E+06        -0.50000E+08         0.00000E+00
    0.00000E+00         0.00000E+00        -0.43392E+08
 
   -0.42301E+08         0.10083E+07         0.00000E+00
    0.10083E+07        -0.50000E+08         0.00000E+00
    0.00000E+00         0.00000E+00        -0.43400E+08
 
   -0.42343E+08         0.10772E+07         0.00000E+00
    0.10772E+07        -0.49999E+08         0.00000E+00
    0.00000E+00         0.00000E+00        -0.43408E+08
 
   -0.42385E+08         0.11461E+07         0.00000E+00
    0.11461E+07        -0.49999E+08         0.00000E+00
    0.00000E+00         0.00000E+00        -0.43416E+08
 
   -0.42426E+08         0.12150E+07         0.00000E+00
    0.12150E+07        -0.49998E+08         0.00000E+00
    0.00000E+00         0.00000E+00        -0.43423E+08
 
   -0.42466E+08         0.12842E+07         0.00000E+00
    0.12842E+07        -0.49997E+08         0.00000E+00
    0.00000E+00         0.00000E+00        -0.43431E+08
 
   -0.42506E+08         0.13534E+07         0.00000E+00
    0.13534E+07        -0.49996E+08         0.00000E+00
    0.00000E+00         0.00000E+00        -0.43438E+08
 
   -0.42545E+08         0.14228E+07         0.00000E+00
    0.14228E+07        -0.49995E+08         0.00000E+00
    0.00000E+00         0.00000E+00        -0.43445E+08
 
   -0.42584E+08         0.14924E+07         0.00000E+00
    0.14924E+07        -0.49993E+08         0.00000E+00
    0.00000E+00         0.00000E+00        -0.43452E+08
 
   -0.42622E+08         0.15622E+07         0.00000E+00
    0.15622E+07        -0.49991E+08         0.00000E+00
    0.00000E+00         0.00000E+00        -0.43458E+08
 
   -0.42659E+08         0.16323E+07         0.00000E+00
    0.16323E+07        -0.49989E+08         0.00000E+00
    0.00000E+00         0.00000E+00        -0.43465E+08
 
   -0.42696E+08         0.17026E+07         0.00000E+00
    0.17026E+07        -0.49987E+08         0.00000E+00
    0.00000E+00         0.00000E+00        -0.43471E+08
 
   -0.42733E+08         0.17731E+07         0.00000E+00
    0.17731E+07        -0.49984E+08         0.00000E+00
    0.00000E+00         0.00000E+00        -0.43477E+08
 
   -0.42770E+08         0.18439E+07         0.00000E+00
    0.18439E+07        -0.49981E+08         0.00000E+00
    0.00000E+00         0.00000E+00        -0.43484E+08
 
   -0.42806E+08         0.19151E+07         0.00000E+00
    0.19151E+07        -0.49978E+08         0.00000E+00
    0.00000E+00         0.00000E+00        -0.43490E+08
 
   -0.42841E+08         0.19865E+07         0.00000E+00
    0.19865E+07        -0.49975E+08         0.00000E+00
    0.00000E+00         0.00000E+00        -0.43495E+08
 
   -0.42877E+08         0.20582E+07         0.00000E+00
    0.20582E+07        -0.49971E+08         0.00000E+00
    0.00000E+00         0.00000E+00        -0.43501E+08
 
   -0.42912E+08         0.21303E+07         0.00000E+00
    0.21303E+07        -0.49966E+08         0.00000E+00
    0.00000E+00         0.00000E+00        -0.43507E+08
 
   -0.42947E+08         0.22027E+07         0.00000E+00
    0.22027E+07        -0.49961E+08         0.00000E+00
    0.00000E+00         0.00000E+00        -0.43512E+08
 
   -0.42982E+08         0.22755E+07         0.00000E+00
    0.22755E+07        -0.49956E+08         0.00000E+00
    0.00000E+00         0.00000E+00        -0.43518E+08
 
   -0.43016E+08         0.23486E+07         0.00000E+00
    0.23486E+07        -0.49950E+08         0.00000E+00
    0.00000E+00         0.00000E+00        -0.43523E+08
 
   -0.43051E+08         0.24222E+07         0.00000E+00
    0.24222E+07        -0.49944E+08         0.00000E+00
    0.00000E+00         0.00000E+00        -0.43528E+08
 
   -0.43085E+08         0.24961E+07         0.00000E+00
    0.24961E+07        -0.49937E+08         0.00000E+00
    0.00000E+00         0.00000E+00        -0.43533E+08
 
   -0.43120E+08         0.25704E+07         0.00000E+00
    0.25704E+07        -0.49930E+08         0.00000E+00
    0.00000E+00         0.00000E+00        -0.43538E+08
 
   -0.43154E+08         0.26451E+07         0.00000E+00
    0.26451E+07        -0.49923E+08         0.00000E+00
    0.00000E+00         0.00000E+00        -0.43543E+08
 
   -0.43189E+08         0.27202E+07         0.00000E+00
    0.27202E+07        -0.49914E+08         0.00000E+00
    0.00000E+00         0.00000E+00        -0.43548E+08
 
   -0.43223E+08         0.27957E+07         0.00000E+00
    0.27957E+07        -0.49905E+08         0.00000E+00
    0.00000E+00         0.00000E+00        -0.43553E+08
 
   -0.43258E+08         0.28716E+07         0.00000E+00
    0.28716E+07        -0.49896E+08         0.00000E+00
    0.00000E+00         0.00000E+00        -0.43557E+08
 
   -0.43293E+08         0.29480E+07         0.00000E+00
    0.29480E+07        -0.49886E+08         0.00000E+00
    0.00000E+00         0.00000E+00        -0.43562E+08
 
   -0.43328E+08         0.30248E+07         0.00000E+00
    0.30248E+07        -0.49875E+08         0.00000E+00
    0.00000E+00         0.00000E+00        -0.43566E+08
 
   -0.43363E+08         0.31020E+07         0.00000E+00
    0.31020E+07        -0.49864E+08         0.00000E+00
    0.00000E+00         0.00000E+00        -0.43571E+08
 
   -0.43398E+08         0.31796E+07         0.00000E+00
    0.31796E+07        -0.49851E+08         0.00000E+00
    0.00000E+00         0.00000E+00        -0.43575E+08
 
   -0.43434E+08         0.32577E+07         0.00000E+00
    0.32577E+07        -0.49839E+08         0.00000E+00
    0.00000E+00         0.00000E+00        -0.43580E+08
 
   -0.43470E+08         0.33362E+07         0.00000E+00
    0.33362E+07        -0.49825E+08         0.00000E+00
    0.00000E+00         0.00000E+00        -0.43584E+08
 
   -0.43506E+08         0.34151E+07         0.00000E+00
    0.34151E+07        -0.49811E+08         0.00000E+00
    0.00000E+00         0.00000E+00        -0.43588E+08
 
   -0.43543E+08         0.34945E+07         0.00000E+00
    0.34945E+07        -0.49796E+08         0.00000E+00
    0.00000E+00         0.00000E+00        -0.43592E+08
 
   -0.43580E+08         0.35743E+07         0.00000E+00
    0.35743E+07        -0.49780E+08         0.00000E+00
    0.00000E+00         0.00000E+00        -0.43597E+08
 
   -0.41265E+08         0.35785E+05         0.00000E+00
    0.35785E+05        -0.49999E+08         0.00000E+00
    0.00000E+00         0.00000E+00        -0.42860E+08
 
   -0.41322E+08         0.10641E+06         0.00000E+00
    0.10641E+06        -0.50000E+08         0.00000E+00
    0.00000E+00         0.00000E+00        -0.42872E+08
 
   -0.41377E+08         0.17670E+06         0.00000E+00
    0.17670E+06        -0.50000E+08         0.00000E+00
    0.00000E+00         0.00000E+00        -0.42883E+08
 
   -0.41431E+08         0.24668E+06         0.00000E+00
    0.24668E+06        -0.50000E+08         0.00000E+00
    0.00000E+00         0.00000E+00        -0.42893E+08
 
   -0.41484E+08         0.31640E+06         0.00000E+00
    0.31640E+06        -0.50001E+08         0.00000E+00
    0.00000E+00         0.00000E+00        -0.42904E+08
 
   -0.41536E+08         0.38591E+06         0.00000E+00
    0.38591E+06        -0.50001E+08         0.00000E+00
    0.00000E+00         0.00000E+00        -0.42914E+08
 
   -0.41587E+08         0.45524E+06         0.00000E+00
    0.45524E+06        -0.50002E+08         0.00000E+00
    0.00000E+00         0.00000E+00        -0.42924E+08
 
   -0.41637E+08         0.52444E+06         0.00000E+00
    0.52444E+06        -0.50002E+08         0.00000E+00
    0.00000E+00         0.00000E+00        -0.42934E+08
 
   -0.41685E+08         0.59353E+06         0.00000E+00
    0.59353E+06        -0.50003E+08         0.00000E+00
    0.00000E+00         0.00000E+00        -0.42943E+08
 
   -0.41733E+08         0.66257E+06         0.00000E+00
    0.66257E+06        -0.50004E+08         0.00000E+00
    0.00000E+00         0.00000E+00        -0.42952E+08
 
   -0.41779E+08         0.73157E+06         0.00000E+00
    0.73157E+06        -0.50005E+08         0.00000E+00
    0.00000E+00         0.00000E+00        -0.42961E+08
 
   -0.41825E+08         0.80058E+06         0.00000E+00
    0.80058E+06        -0.50005E+08         0.00000E+00
    0.00000E+00         0.00000E+00        -0.42970E+08
 
   -0.41869E+08         0.86963E+06         0.00000E+00
    0.86963E+06        -0.50006E+08         0.00000E+00
    0.00000E+00         0.00000E+00        -0.42979E+08
 
   -0.41913E+08         0.93876E+06         0.00000E+00
    0.93876E+06        -0.50007E+08         0.00000E+00
    0.00000E+00         0.00000E+00        -0.42987E+08
 
   -0.41955E+08         0.10080E+07         0.00000E+00
    0.10080E+07        -0.50007E+08         0.00000E+00
    0.00000E+00         0.00000E+00        -0.42995E+08
 
   -0.41997E+08         0.10773E+07         0.00000E+00
    0.10773E+07        -0.50008E+08         0.00000E+00
    0.00000E+00         0.00000E+00        -0.43003E+08
 
   -0.42038E+08         0.11469E+07         0.00000E+00
    0.11469E+07        -0.50008E+08         0.00000E+00
    0.00000E+00         0.00000E+00        -0.43011E+08
 
   -0.42079E+08         0.12166E+07         0.00000E+00
    0.12166E+07        -0.50009E+08         0.00000E+00
    0.00000E+00         0.00000E+00        -0.43018E+08
 
   -0.42118E+08         0.12865E+07         0.00000E+00
    0.12865E+07        -0.50009E+08         0.00000E+00
    0.00000E+00         0.00000E+00        -0.43025E+08
 
   -0.42157E+08         0.13566E+07         0.00000E+00
    0.13566E+07        -0.50009E+08         0.00000E+00
    0.00000E+00         0.00000E+00        -0.43033E+08
 
   -0.42195E+08         0.14271E+07         0.00000E+00
    0.14271E+07        -0.50009E+08         0.00000E+00
    0.00000E+00         0.00000E+00        -0.43039E+08
 
   -0.42232E+08         0.14978E+07         0.00000E+00
    0.14978E+07        -0.50008E+08         0.00000E+00
    0.00000E+00         0.00000E+00        -0.43046E+08
 
   -0.42269E+08         0.15688E+07         0.00000E+00
    0.15688E+07        -0.50008E+08         0.00000E+00
    0.00000E+00         0.00000E+00        -0.43053E+08
 
   -0.42305E+08         0.16401E+07         0.00000E+00
    0.16401E+07        -0.50007E+08         0.00000E+00
    0.00000E+00         0.00000E+00        -0.43059E+08
 
   -0.42341E+08         0.17118E+07         0.00000E+00
    0.17118E+07        -0.50006E+08         0.00000E+00
    0.00000E+00         0.00000E+00        -0.43065E+08
 
   -0.42376E+08         0.17838E+07         0.00000E+00
    0.17838E+07        -0.50005E+08         0.00000E+00
    0.00000E+00         0.00000E+00        -0.43072E+08
 
   -0.42411E+08         0.18562E+07         0.00000E+00
    0.18562E+07        -0.50003E+08         0.00000E+00
    0.00000E+00         0.00000E+00        -0.43077E+08
 
   -0.42445E+08         0.19291E+07         0.00000E+00
    0.19291E+07        -0.50001E+08         0.00000E+00
    0.00000E+00         0.00000E+00        -0.43083E+08
 
   -0.42479E+08         0.20023E+07         0.00000E+00
    0.20023E+07        -0.49999E+08         0.00000E+00
    0.00000E+00         0.00000E+00        -0.43089E+08
 
   -0.42512E+08         0.20760E+07         0.00000E+00
    0.20760E+07        -0.49996E+08         0.00000E+00
    0.00000E+00         0.00000E+00        -0.43094E+08
 
   -0.42545E+08         0.21501E+07         0.00000E+00
    0.21501E+07        -0.49993E+08         0.00000E+00
    0.00000E+00         0.00000E+00        -0.43100E+08
 
   -0.42578E+08         0.22246E+07         0.00000E+00
    0.22246E+07        -0.49990E+08         0.00000E+00
    0.00000E+00         0.00000E+00        -0.43105E+08
 
   -0.42611E+08         0.22996E+07         0.00000E+00
    0.22996E+07        -0.49986E+08         0.00000E+00
    0.00000E+00         0.00000E+00        -0.43110E+08
 
   -0.42644E+08         0.23751E+07         0.00000E+00
    0.23751E+07        -0.49981E+08         0.00000E+00
    0.00000E+00         0.00000E+00        -0.43115E+08
 
   -0.42676E+08         0.24511E+07         0.00000E+00
    0.24511E+07        -0.49977E+08         0.00000E+00
    0.00000E+00         0.00000E+00        -0.43120E+08
 
   -0.42708E+08         0.25275E+07         0.00000E+00
    0.25275E+07        -0.49971E+08         0.00000E+00
    0.00000E+00         0.00000E+00        -0.43125E+08
 
   -0.42741E+08         0.26045E+07         0.00000E+00
    0.26045E+07        -0.49965E+08         0.00000E+00
    0.00000E+00         0.00000E+00        -0.43130E+08
 
   -0.42773E+08         0.26820E+07         0.00000E+00
    0.26820E+07        -0.49959E+08         0.00000E+00
    0.00000E+00         0.00000E+00        -0.43135E+08
 
   -0.42805E+08         0.27600E+07         0.00000E+00
    0.27600E+07        -0.49952E+08         0.00000E+00
    0.00000E+00         0.00000E+00        -0.43139E+08
 
   -0.42837E+08         0.28385E+07         0.00000E+00
    0.28385E+07        -0.49944E+08         0.00000E+00
    0.00000E+00         0.00000E+00        -0.43144E+08
 
   -0.42869E+08         0.29175E+07         0.00000E+00
    0.29175E+07        -0.49936E+08         0.00000E+00
    0.00000E+00         0.00000E+00        -0.43148E+08
 
   -0.42902E+08         0.29971E+07         0.00000E+00
    0.29971E+07        -0.49927E+08         0.00000E+00
    0.00000E+00         0.00000E+00        -0.43152E+08
 
   -0.42934E+08         0.30772E+07         0.00000E+00
    0.30772E+07        -0.49918E+08         0.00000E+00
    0.00000E+00         0.00000E+00        -0.43157E+08
 
   -0.42967E+08         0.31578E+07         0.00000E+00
    0.31578E+07        -0.49908E+08         0.00000E+00
    0.00000E+00         0.00000E+00        -0.43161E+08
 
   -0.43000E+08         0.32390E+07         0.00000E+00
    0.32390E+07        -0.49897E+08         0.00000E+00
    0.00000E+00         0.00000E+00        -0.43165E+08
 
   -0.43033E+08         0.33207E+07         0.00000E+00
    0.33207E+07        -0.49885E+08         0.00000E+00
    0.00000E+00         0.00000E+00        -0.43169E+08
 
   -0.43067E+08         0.34030E+07         0.00000E+00
    0.34030E+07        -0.49873E+08         0.00000E+00
    0.00000E+00         0.00000E+00        -0.43173E+08
 
   -0.43101E+08         0.34858E+07         0.00000E+00
    0.34858E+07        -0.49860E+08         0.00000E+00
    0.00000E+00         0.00000E+00        -0.43177E+08
 
   -0.43135E+08         0.35692E+07         0.00000E+00
    0.35692E+07        -0.49846E+08         0.00000E+00
    0.00000E+00         0.00000E+00        -0.43181E+08
 
   -0.43170E+08         0.36531E+07         0.00000E+00
    0.36531E+07        -0.49831E+08         0.00000E+00
    0.00000E+00         0.00000E+00        -0.43185E+08
 
   -0.40913E+08         0.35321E+05         0.00000E+00
    0.35321E+05        -0.49999E+08         0.00000E+00
    0.00000E+00         0.00000E+00        -0.42434E+08
 
   -0.40971E+08         0.10513E+06         0.00000E+00
    0.10513E+06        -0.50000E+08         0.00000E+00
    0.00000E+00         0.00000E+00        -0.42446E+08
 
   -0.41028E+08         0.17465E+06         0.00000E+00
    0.17465E+06        -0.50000E+08         0.00000E+00
    0.00000E+00         0.00000E+00        -0.42457E+08
 
   -0.41084E+08         0.24392E+06         0.00000E+00
    0.24392E+06        -0.50001E+08         0.00000E+00
    0.00000E+00         0.00000E+00        -0.42468E+08
 
   -0.41138E+08         0.31300E+06         0.00000E+00
    0.31300E+06        -0.50002E+08         0.00000E+00
    0.00000E+00         0.00000E+00        -0.42479E+08
 
   -0.41190E+08         0.38193E+06         0.00000E+00
    0.38193E+06        -0.50003E+08         0.00000E+00
    0.00000E+00         0.00000E+00        -0.42489E+08
 
   -0.41242E+08         0.45076E+06         0.00000E+00
    0.45076E+06        -0.50004E+08         0.00000E+00
    0.00000E+00         0.00000E+00        -0.42499E+08
 
   -0.41292E+08         0.51952E+06         0.00000E+00
    0.51952E+06        -0.50005E+08         0.00000E+00
    0.00000E+00         0.00000E+00        -0.42509E+08
 
   -0.41341E+08         0.58826E+06         0.00000E+00
    0.58826E+06        -0.50006E+08         0.00000E+00
    0.00000E+00         0.00000E+00        -0.42519E+08
 
   -0.41388E+08         0.65703E+06         0.00000E+00
    0.65703E+06        -0.50008E+08         0.00000E+00
    0.00000E+00         0.00000E+00        -0.42528E+08
 
   -0.41434E+08         0.72585E+06         0.00000E+00
    0.72585E+06        -0.50009E+08         0.00000E+00
    0.00000E+00         0.00000E+00        -0.42537E+08
 
   -0.41480E+08         0.79477E+06         0.00000E+00
    0.79477E+06        -0.50011E+08         0.00000E+00
    0.00000E+00         0.00000E+00        -0.42546E+08
 
   -0.41524E+08         0.86382E+06         0.00000E+00
    0.86382E+06        -0.50013E+08         0.00000E+00
    0.00000E+00         0.00000E+00        -0.42555E+08
 
   -0.41566E+08         0.93304E+06         0.00000E+00
    0.93304E+06        -0.50014E+08         0.00000E+00
    0.00000E+00         0.00000E+00        -0.42563E+08
 
   -0.41608E+08         0.10025E+07         0.00000E+00
    0.10025E+07        -0.50016E+08         0.00000E+00
    0.00000E+00         0.00000E+00        -0.42571E+08
 
   -0.41649E+08         0.10721E+07         0.00000E+00
    0.10721E+07        -0.50018E+08         0.00000E+00
    0.00000E+00         0.00000E+00        -0.42579E+08
 
   -0.41689E+08         0.11420E+07         0.00000E+00
    0.11420E+07        -0.50019E+08         0.00000E+00
    0.00000E+00         0.00000E+00        -0.42586E+08
 
   -0.41728E+08         0.12122E+07         0.00000E+00
    0.12122E+07        -0.50021E+08         0.00000E+00
    0.00000E+00         0.00000E+00        -0.42594E+08
 
   -0.41766E+08         0.12828E+07         0.00000E+00
    0.12828E+07        -0.50022E+08         0.00000E+00
    0.00000E+00         0.00000E+00        -0.42601E+08
 
   -0.41803E+08         0.13536E+07         0.00000E+00
    0.13536E+07        -0.50024E+08         0.00000E+00
    0.00000E+00         0.00000E+00        -0.42608E+08
 
   -0.41840E+08         0.14249E+07         0.00000E+00
    0.14249E+07        -0.50025E+08         0.00000E+00
    0.00000E+00         0.00000E+00        -0.42615E+08
 
   -0.41875E+08         0.14965E+07         0.00000E+00
    0.14965E+07        -0.50026E+08         0.00000E+00
    0.00000E+00         0.00000E+00        -0.42621E+08
 
   -0.41910E+08         0.15686E+07         0.00000E+00
    0.15686E+07        -0.50027E+08         0.00000E+00
    0.00000E+00         0.00000E+00        -0.42628E+08
 
   -0.41944E+08         0.16411E+07         0.00000E+00
    0.16411E+07        -0.50028E+08         0.00000E+00
    0.00000E+00         0.00000E+00        -0.42634E+08
 
   -0.41978E+08         0.17141E+07         0.00000E+00
    0.17141E+07        -0.50028E+08         0.00000E+00
    0.00000E+00         0.00000E+00        -0.42640E+08
 
   -0.42011E+08         0.17875E+07         0.00000E+00
    0.17875E+07        -0.50028E+08         0.00000E+00
    0.00000E+00         0.00000E+00        -0.42646E+08
 
   -0.42043E+08         0.18614E+07         0.00000E+00
    0.18614E+07        -0.50028E+08         0.00000E+00
    0.00000E+00         0.00000E+00        -0.42652E+08
 
   -0.42075E+08         0.19359E+07         0.00000E+00
    0.19359E+07        -0.50028E+08         0.00000E+00
    0.00000E+00         0.00000E+00        -0.42657E+08
 
   -0.42107E+08         0.20109E+07         0.00000E+00
    0.20109E+07        -0.50027E+08         0.00000E+00
    0.00000E+00         0.00000E+00        -0.42663E+08
 
   -0.42138E+08         0.20864E+07         0.00000E+00
    0.20864E+07        -0.50026E+08         0.00000E+00
    0.00000E+00         0.00000E+00        -0.42668E+08
 
   -0.42169E+08         0.21625E+07         0.00000E+00
    0.21625E+07        -0.50024E+08         0.00000E+00
    0.00000E+00         0.00000E+00        -0.42673E+08
 
   -0.42199E+08         0.22391E+07         0.00000E+00
    0.22391E+07        -0.50022E+08         0.00000E+00
    0.00000E+00         0.00000E+00        -0.42678E+08
 
   -0.42229E+08         0.23164E+07         0.00000E+00
    0.23164E+07        -0.50020E+08         0.00000E+00
    0.00000E+00         0.00000E+00        -0.42683E+08
 
   -0.42259E+08         0.23942E+07         0.00000E+00
    0.23942E+07        -0.50017E+08         0.00000E+00
    0.00000E+00         0.00000E+00        -0.42688E+08
 
   -0.42289E+08         0.24726E+07         0.00000E+00
    0.24726E+07        -0.50014E+08         0.00000E+00
    0.00000E+00         0.00000E+00        -0.42692E+08
 
   -0.42318E+08         0.25517E+07         0.00000E+00
    0.25517E+07        -0.50010E+08         0.00000E+00
    0.00000E+00         0.00000E+00        -0.42697E+08
 
   -0.42347E+08         0.26314E+07         0.00000E+00
    0.26314E+07        -0.50006E+08         0.00000E+00
    0.00000E+00         0.00000E+00        -0.42701E+08
 
   -0.42377E+08         0.27116E+07         0.00000E+00
    0.27116E+07        -0.50001E+08         0.00000E+00
    0.00000E+00         0.00000E+00        -0.42706E+08
 
   -0.42406E+08         0.27926E+07         0.00000E+00
    0.27926E+07        -0.49996E+08         0.00000E+00
    0.00000E+00         0.00000E+00        -0.42710E+08
 
   -0.42435E+08         0.28741E+07         0.00000E+00
    0.28741E+07        -0.49990E+08         0.00000E+00
    0.00000E+00         0.00000E+00        -0.42714E+08
 
   -0.42465E+08         0.29563E+07         0.00000E+00
    0.29563E+07        -0.49983E+08         0.00000E+00
    0.00000E+00         0.00000E+00        -0.42718E+08
 
   -0.42494E+08         0.30392E+07         0.00000E+00
    0.30392E+07        -0.49976E+08         0.00000E+00
    0.00000E+00         0.00000E+00        -0.42722E+08
 
   -0.42524E+08         0.31227E+07         0.00000E+00
    0.31227E+07        -0.49968E+08         0.00000E+00
    0.00000E+00         0.00000E+00        -0.42726E+08
 
   -0.42553E+08         0.32068E+07         0.00000E+00
    0.32068E+07        -0.49959E+08         0.00000E+00
    0.00000E+00         0.00000E+00        -0.42730E+08
 
   -0.42583E+08         0.32917E+07         0.00000E+00
    0.32917E+07        -0.49950E+08         0.00000E+00
    0.00000E+00         0.00000E+00        -0.42734E+08
 
   -0.42614E+08         0.33771E+07         0.00000E+00
    0.33771E+07        -0.49940E+08         0.00000E+00
    0.00000E+00         0.00000E+00        -0.42738E+08
 
   -0.42644E+08         0.34633E+07         0.00000E+00
    0.34633E+07        -0.49929E+08         0.00000E+00
    0.00000E+00         0.00000E+00        -0.42741E+08
 
   -0.42675E+08         0.35501E+07         0.00000E+00
    0.35501E+07        -0.49917E+08         0.00000E+00
    0.00000E+00         0.00000E+00        -0.42745E+08
 
   -0.42706E+08         0.36375E+07         0.00000E+00
    0.36375E+07        -0.49905E+08         0.00000E+00
    0.00000E+00         0.00000E+00        -0.42749E+08
 
   -0.42738E+08         0.37256E+07         0.00000E+00
    0.37256E+07        -0.49891E+08         0.00000E+00
    0.00000E+00         0.00000E+00        -0.42752E+08
 
   -0.40566E+08         0.34584E+05         0.00000E+00
    0.34584E+05        -0.49999E+08         0.00000E+00
    0.00000E+00         0.00000E+00        -0.41989E+08
 
   -0.40626E+08         0.10306E+06         0.00000E+00
    0.10306E+06        -0.50000E+08         0.00000E+00
    0.00000E+00         0.00000E+00        -0.42001E+08
 
   -0.40684E+08         0.17132E+06         0.00000E+00
    0.17132E+06        -0.50000E+08         0.00000E+00
    0.00000E+00         0.00000E+00        -0.42013E+08
 
   -0.40740E+08         0.23940E+06         0.00000E+00
    0.23940E+06        -0.50001E+08         0.00000E+00
    0.00000E+00         0.00000E+00        -0.42024E+08
 
   -0.40795E+08         0.30737E+06         0.00000E+00
    0.30737E+06        -0.50003E+08         0.00000E+00
    0.00000E+00         0.00000E+00        -0.42035E+08
 
   -0.40848E+08         0.37527E+06         0.00000E+00
    0.37527E+06        -0.50004E+08         0.00000E+00
    0.00000E+00         0.00000E+00        -0.42046E+08
 
   -0.40900E+08         0.44316E+06         0.00000E+00
    0.44316E+06        -0.50006E+08         0.00000E+00
    0.00000E+00         0.00000E+00        -0.42056E+08
 
   -0.40950E+08         0.51108E+06         0.00000E+00
    0.51108E+06        -0.50008E+08         0.00000E+00
    0.00000E+00         0.00000E+00        -0.42066E+08
 
   -0.40998E+08         0.57908E+06         0.00000E+00
    0.57908E+06        -0.50010E+08         0.00000E+00
    0.00000E+00         0.00000E+00        -0.42076E+08
 
   -0.41045E+08         0.64719E+06         0.00000E+00
    0.64719E+06        -0.50012E+08         0.00000E+00
    0.00000E+00         0.00000E+00        -0.42085E+08
 
   -0.41091E+08         0.71547E+06         0.00000E+00
    0.71547E+06        -0.50015E+08         0.00000E+00
    0.00000E+00         0.00000E+00        -0.42094E+08
 
   -0.41135E+08         0.78396E+06         0.00000E+00
    0.78396E+06        -0.50018E+08         0.00000E+00
    0.00000E+00         0.00000E+00        -0.42103E+08
 
   -0.41178E+08         0.85268E+06         0.00000E+00
    0.85268E+06        -0.50020E+08         0.00000E+00
    0.00000E+00         0.00000E+00        -0.42111E+08
 
   -0.41220E+08         0.92169E+06         0.00000E+00
    0.92169E+06        -0.50023E+08         0.00000E+00
    0.00000E+00         0.00000E+00        -0.42120E+08
 
   -0.41261E+08         0.99101E+06         0.00000E+00
    0.99101E+06        -0.50026E+08         0.00000E+00
    0.00000E+00         0.00000E+00        -0.42128E+08
 
   -0.41300E+08         0.10607E+07         0.00000E+00
    0.10607E+07        -0.50029E+08         0.00000E+00
    0.00000E+00         0.00000E+00        -0.42135E+08
 
   -0.41338E+08         0.11307E+07         0.00000E+00
    0.11307E+07        -0.50032E+08         0.00000E+00
    0.00000E+00         0.00000E+00        -0.42143E+08
 
   -0.41375E+08         0.12012E+07         0.00000E+00
    0.12012E+07        -0.50035E+08         0.00000E+00
    0.00000E+00         0.00000E+00        -0.42150E+08
 
   -0.41411E+08         0.12721E+07         0.00000E+00
    0.12721E+07        -0.50038E+08         0.00000E+00
    0.00000E+00         0.00000E+00        -0.42157E+08
 
   -0.41446E+08         0.13435E+07         0.00000E+00
    0.13435E+07        -0.50041E+08         0.00000E+00
    0.00000E+00         0.00000E+00        -0.42164E+08
 
   -0.41481E+08         0.14154E+07         0.00000E+00
    0.14154E+07        -0.50044E+08         0.00000E+00
    0.00000E+00         0.00000E+00        -0.42170E+08
 
   -0.41514E+08         0.14878E+07         0.00000E+00
    0.14878E+07        -0.50046E+08         0.00000E+00
    0.00000E+00         0.00000E+00        -0.42177E+08
 
   -0.41546E+08         0.15608E+07         0.00000E+00
    0.15608E+07        -0.50049E+08         0.00000E+00
    0.00000E+00         0.00000E+00        -0.42183E+08
 
   -0.41578E+08         0.16343E+07         0.00000E+00
    0.16343E+07        -0.50051E+08         0.00000E+00
    0.00000E+00         0.00000E+00        -0.42189E+08
 
   -0.41609E+08         0.17084E+07         0.00000E+00
    0.17084E+07        -0.50053E+08         0.00000E+00
    0.00000E+00         0.00000E+00        -0.42195E+08
 
   -0.41639E+08         0.17831E+07         0.00000E+00
    0.17831E+07        -0.50055E+08         0.00000E+00
    0.00000E+00         0.00000E+00        -0.42200E+08
 
   -0.41669E+08         0.18585E+07         0.00000E+00
    0.18585E+07        -0.50057E+08         0.00000E+00
    0.00000E+00         0.00000E+00        -0.42206E+08
 
   -0.41698E+08         0.19345E+07         0.00000E+00
    0.19345E+07        -0.50058E+08         0.00000E+00
    0.00000E+00         0.00000E+00        -0.42211E+08
 
   -0.41726E+08         0.20111E+07         0.00000E+00
    0.20111E+07        -0.50059E+08         0.00000E+00
    0.00000E+00         0.00000E+00        -0.42216E+08
 
   -0.41754E+08         0.20885E+07         0.00000E+00
    0.20885E+07        -0.50060E+08         0.00000E+00
    0.00000E+00         0.00000E+00        -0.42221E+08
 
   -0.41782E+08         0.21665E+07         0.00000E+00
    0.21665E+07        -0.50060E+08         0.00000E+00
    0.00000E+00         0.00000E+00        -0.42226E+08
 
   -0.41809E+08         0.22452E+07         0.00000E+00
    0.22452E+07        -0.50060E+08         0.00000E+00
    0.00000E+00         0.00000E+00        -0.42230E+08
 
   -0.41836E+08         0.23246E+07         0.00000E+00
    0.23246E+07        -0.50060E+08         0.00000E+00
    0.00000E+00         0.00000E+00        -0.42235E+08
 
   -0.41862E+08         0.24048E+07         0.00000E+00
    0.24048E+07        -0.50059E+08         0.00000E+00
    0.00000E+00         0.00000E+00        -0.42239E+08
 
   -0.41889E+08         0.24857E+07         0.00000E+00
    0.24857E+07        -0.50057E+08         0.00000E+00
    0.00000E+00         0.00000E+00        -0.42243E+08
 
   -0.41915E+08         0.25673E+07         0.00000E+00
    0.25673E+07        -0.50055E+08         0.00000E+00
    0.00000E+00         0.00000E+00        -0.42248E+08
 
   -0.41941E+08         0.26497E+07         0.00000E+00
    0.26497E+07        -0.50053E+08         0.00000E+00
    0.00000E+00         0.00000E+00        -0.42252E+08
 
   -0.41966E+08         0.27329E+07         0.00000E+00
    0.27329E+07        -0.50050E+08         0.00000E+00
    0.00000E+00         0.00000E+00        -0.42256E+08
 
   -0.41992E+08         0.28168E+07         0.00000E+00
    0.28168E+07        -0.50046E+08         0.00000E+00
    0.00000E+00         0.00000E+00        -0.42259E+08
 
   -0.42018E+08         0.29014E+07         0.00000E+00
    0.29014E+07        -0.50042E+08         0.00000E+00
    0.00000E+00         0.00000E+00        -0.42263E+08
 
   -0.42044E+08         0.29868E+07         0.00000E+00
    0.29868E+07        -0.50037E+08         0.00000E+00
    0.00000E+00         0.00000E+00        -0.42267E+08
 
   -0.42070E+08         0.30731E+07         0.00000E+00
    0.30731E+07        -0.50032E+08         0.00000E+00
    0.00000E+00         0.00000E+00        -0.42271E+08
 
   -0.42096E+08         0.31600E+07         0.00000E+00
    0.31600E+07        -0.50026E+08         0.00000E+00
    0.00000E+00         0.00000E+00        -0.42274E+08
 
   -0.42122E+08         0.32478E+07         0.00000E+00
    0.32478E+07        -0.50019E+08         0.00000E+00
    0.00000E+00         0.00000E+00        -0.42278E+08
 
   -0.42148E+08         0.33363E+07         0.00000E+00
    0.33363E+07        -0.50011E+08         0.00000E+00
    0.00000E+00         0.00000E+00        -0.42281E+08
 
   -0.42175E+08         0.34257E+07         0.00000E+00
    0.34257E+07        -0.50003E+08         0.00000E+00
    0.00000E+00         0.00000E+00        -0.42284E+08
 
   -0.42202E+08         0.35158E+07         0.00000E+00
    0.35158E+07        -0.49993E+08         0.00000E+00
    0.00000E+00         0.00000E+00        -0.42288E+08
 
   -0.42229E+08         0.36067E+07         0.00000E+00
    0.36067E+07        -0.49983E+08         0.00000E+00
    0.00000E+00         0.00000E+00        -0.42291E+08
 
   -0.42257E+08         0.36983E+07         0.00000E+00
    0.36983E+07        -0.49972E+08         0.00000E+00
    0.00000E+00         0.00000E+00        -0.42294E+08
 
   -0.42285E+08         0.37908E+07         0.00000E+00
    0.37908E+07        -0.49961E+08         0.00000E+00
    0.00000E+00         0.00000E+00        -0.42297E+08
 
   -0.40228E+08         0.33530E+05         0.00000E+00
    0.33530E+05        -0.49999E+08         0.00000E+00
    0.00000E+00         0.00000E+00        -0.41526E+08
 
   -0.40289E+08         0.10009E+06         0.00000E+00
    0.10009E+06        -0.50000E+08         0.00000E+00
    0.00000E+00         0.00000E+00        -0.41539E+08
 
   -0.40347E+08         0.16651E+06         0.00000E+00
    0.16651E+06        -0.50001E+08         0.00000E+00
    0.00000E+00         0.00000E+00        -0.41550E+08
 
   -0.40404E+08         0.23285E+06         0.00000E+00
    0.23285E+06        -0.50002E+08         0.00000E+00
    0.00000E+00         0.00000E+00        -0.41562E+08
 
   -0.40459E+08         0.29918E+06         0.00000E+00
    0.29918E+06        -0.50004E+08         0.00000E+00
    0.00000E+00         0.00000E+00        -0.41573E+08
 
   -0.40512E+08         0.36554E+06         0.00000E+00
    0.36554E+06        -0.50006E+08         0.00000E+00
    0.00000E+00         0.00000E+00        -0.41583E+08
 
   -0.40564E+08         0.43200E+06         0.00000E+00
    0.43200E+06        -0.50008E+08         0.00000E+00
    0.00000E+00         0.00000E+00        -0.41594E+08
 
   -0.40613E+08         0.49860E+06         0.00000E+00
    0.49860E+06        -0.50011E+08         0.00000E+00
    0.00000E+00         0.00000E+00        -0.41604E+08
 
   -0.40661E+08         0.56539E+06         0.00000E+00
    0.56539E+06        -0.50014E+08         0.00000E+00
    0.00000E+00         0.00000E+00        -0.41613E+08
 
   -0.40707E+08         0.63243E+06         0.00000E+00
    0.63243E+06        -0.50018E+08         0.00000E+00
    0.00000E+00         0.00000E+00        -0.41623E+08
 
   -0.40751E+08         0.69975E+06         0.00000E+00
    0.69975E+06        -0.50021E+08         0.00000E+00
    0.00000E+00         0.00000E+00        -0.41632E+08
 
   -0.40794E+08         0.76741E+06         0.00000E+00
    0.76741E+06        -0.50025E+08         0.00000E+00
    0.00000E+00         0.00000E+00        -0.41640E+08
 
   -0.40836E+08         0.83543E+06         0.00000E+00
    0.83543E+06        -0.50029E+08         0.00000E+00
    0.00000E+00         0.00000E+00        -0.41649E+08
 
   -0.40875E+08         0.90387E+06         0.00000E+00
    0.90387E+06        -0.50033E+08         0.00000E+00
    0.00000E+00         0.00000E+00        -0.41657E+08
 
   -0.40914E+08         0.97277E+06         0.00000E+00
    0.97277E+06        -0.50038E+08         0.00000E+00
    0.00000E+00         0.00000E+00        -0.41664E+08
 
   -0.40951E+08         0.10421E+07         0.00000E+00
    0.10421E+07        -0.50042E+08         0.00000E+00
    0.00000E+00         0.00000E+00        -0.41672E+08
 
   -0.40987E+08         0.11121E+07         0.00000E+00
    0.11121E+07        -0.50047E+08         0.00000E+00
    0.00000E+00         0.00000E+00        -0.41679E+08
 
   -0.41021E+08         0.11825E+07         0.00000E+00
    0.11825E+07        -0.50051E+08         0.00000E+00
    0.00000E+00         0.00000E+00        -0.41686E+08
 
   -0.41055E+08         0.12536E+07         0.00000E+00
    0.12536E+07        -0.50056E+08         0.00000E+00
    0.00000E+00         0.00000E+00        -0.41693E+08
 
   -0.41087E+08         0.13252E+07         0.00000E+00
    0.13252E+07        -0.50060E+08         0.00000E+00
    0.00000E+00         0.00000E+00        -0.41699E+08
 
   -0.41118E+08         0.13975E+07         0.00000E+00
    0.13975E+07        -0.50065E+08         0.00000E+00
    0.00000E+00         0.00000E+00        -0.41706E+08
 
   -0.41149E+08         0.14705E+07         0.00000E+00
    0.14705E+07        -0.50069E+08         0.00000E+00
    0.00000E+00         0.00000E+00        -0.41712E+08
 
   -0.41178E+08         0.15442E+07         0.00000E+00
    0.15442E+07        -0.50074E+08         0.00000E+00
    0.00000E+00         0.00000E+00        -0.41717E+08
 
   -0.41206E+08         0.16185E+07         0.00000E+00
    0.16185E+07        -0.50078E+08         0.00000E+00
    0.00000E+00         0.00000E+00        -0.41723E+08
 
   -0.41234E+08         0.16937E+07         0.00000E+00
    0.16937E+07        -0.50082E+08         0.00000E+00
    0.00000E+00         0.00000E+00        -0.41728E+08
 
   -0.41261E+08         0.17695E+07         0.00000E+00
    0.17695E+07        -0.50086E+08         0.00000E+00
    0.00000E+00         0.00000E+00        -0.41734E+08
 
   -0.41287E+08         0.18462E+07         0.00000E+00
    0.18462E+07        -0.50090E+08         0.00000E+00
    0.00000E+00         0.00000E+00        -0.41739E+08
 
   -0.41312E+08         0.19236E+07         0.00000E+00
    0.19236E+07        -0.50093E+08         0.00000E+00
    0.00000E+00         0.00000E+00        -0.41743E+08
 
   -0.41337E+08         0.20019E+07         0.00000E+00
    0.20019E+07        -0.50096E+08         0.00000E+00
    0.00000E+00         0.00000E+00        -0.41748E+08
 
   -0.41361E+08         0.20809E+07         0.00000E+00
    0.20809E+07        -0.50099E+08         0.00000E+00
    0.00000E+00         0.00000E+00        -0.41753E+08
 
   -0.41385E+08         0.21609E+07         0.00000E+00
    0.21609E+07        -0.50101E+08         0.00000E+00
    0.00000E+00         0.00000E+00        -0.41757E+08
 
   -0.41408E+08         0.22416E+07         0.00000E+00
    0.22416E+07        -0.50103E+08         0.00000E+00
    0.00000E+00         0.00000E+00        -0.41761E+08
 
   -0.41431E+08         0.23232E+07         0.00000E+00
    0.23232E+07        -0.50105E+08         0.00000E+00
    0.00000E+00         0.00000E+00        -0.41765E+08
 
   -0.41454E+08         0.24057E+07         0.00000E+00
    0.24057E+07        -0.50106E+08         0.00000E+00
    0.00000E+00         0.00000E+00        -0.41769E+08
 
   -0.41476E+08         0.24890E+07         0.00000E+00
    0.24890E+07        -0.50106E+08         0.00000E+00
    0.00000E+00         0.00000E+00        -0.41773E+08
 
   -0.41498E+08         0.25733E+07         0.00000E+00
    0.25733E+07        -0.50106E+08         0.00000E+00
    0.00000E+00         0.00000E+00        -0.41777E+08
 
   -0.41520E+08         0.26584E+07         0.00000E+00
    0.26584E+07        -0.50106E+08         0.00000E+00
    0.00000E+00         0.00000E+00        -0.41780E+08
 
   -0.41542E+08         0.27444E+07         0.00000E+00
    0.27444E+07        -0.50105E+08         0.00000E+00
    0.00000E+00         0.00000E+00        -0.41784E+08
 
   -0.41563E+08         0.28313E+07         0.00000E+00
    0.28313E+07        -0.50104E+08         0.00000E+00
    0.00000E+00         0.00000E+00        -0.41787E+08
 
   -0.41585E+08         0.29191E+07         0.00000E+00
    0.29191E+07        -0.50101E+08         0.00000E+00
    0.00000E+00         0.00000E+00        -0.41791E+08
 
   -0.41606E+08         0.30078E+07         0.00000E+00
    0.30078E+07        -0.50099E+08         0.00000E+00
    0.00000E+00         0.00000E+00        -0.41794E+08
 
   -0.41628E+08         0.30974E+07         0.00000E+00
    0.30974E+07        -0.50095E+08         0.00000E+00
    0.00000E+00         0.00000E+00        -0.41797E+08
 
   -0.41650E+08         0.31880E+07         0.00000E+00
    0.31880E+07        -0.50091E+08         0.00000E+00
    0.00000E+00         0.00000E+00        -0.41800E+08
 
   -0.41672E+08         0.32794E+07         0.00000E+00
    0.32794E+07        -0.50086E+08         0.00000E+00
    0.00000E+00         0.00000E+00        -0.41803E+08
 
   -0.41694E+08         0.33718E+07         0.00000E+00
    0.33718E+07        -0.50080E+08         0.00000E+00
    0.00000E+00         0.00000E+00        -0.41806E+08
 
   -0.41716E+08         0.34650E+07         0.00000E+00
    0.34650E+07        -0.50074E+08         0.00000E+00
    0.00000E+00         0.00000E+00        -0.41809E+08
 
   -0.41739E+08         0.35592E+07         0.00000E+00
    0.35592E+07        -0.50067E+08         0.00000E+00
    0.00000E+00         0.00000E+00        -0.41812E+08
 
   -0.41762E+08         0.36543E+07         0.00000E+00
    0.36543E+07        -0.50059E+08         0.00000E+00
    0.00000E+00         0.00000E+00        -0.41814E+08
 
   -0.41785E+08         0.37503E+07         0.00000E+00
    0.37503E+07        -0.50050E+08         0.00000E+00
    0.00000E+00         0.00000E+00        -0.41817E+08
 
   -0.41809E+08         0.38472E+07         0.00000E+00
    0.38472E+07        -0.50040E+08         0.00000E+00
    0.00000E+00         0.00000E+00        -0.41820E+08
 
   -0.39901E+08         0.32111E+05         0.00000E+00
    0.32111E+05        -0.49999E+08         0.00000E+00
    0.00000E+00         0.00000E+00        -0.41045E+08
 
   -0.39962E+08         0.96067E+05         0.00000E+00
    0.96067E+05        -0.50000E+08         0.00000E+00
    0.00000E+00         0.00000E+00        -0.41057E+08
 
   -0.40021E+08         0.16000E+06         0.00000E+00
    0.16000E+06        -0.50001E+08         0.00000E+00
    0.00000E+00         0.00000E+00        -0.41069E+08
 
   -0.40078E+08         0.22397E+06         0.00000E+00
    0.22397E+06        -0.50003E+08         0.00000E+00
    0.00000E+00         0.00000E+00        -0.41080E+08
 
   -0.40133E+08         0.28805E+06         0.00000E+00
    0.28805E+06        -0.50005E+08         0.00000E+00
    0.00000E+00         0.00000E+00        -0.41091E+08
 
   -0.40185E+08         0.35229E+06         0.00000E+00
    0.35229E+06        -0.50008E+08         0.00000E+00
    0.00000E+00         0.00000E+00        -0.41102E+08
 
   -0.40236E+08         0.41676E+06         0.00000E+00
    0.41676E+06        -0.50011E+08         0.00000E+00
    0.00000E+00         0.00000E+00        -0.41112E+08
 
   -0.40284E+08         0.48150E+06         0.00000E+00
    0.48150E+06        -0.50015E+08         0.00000E+00
    0.00000E+00         0.00000E+00        -0.41122E+08
 
   -0.40330E+08         0.54658E+06         0.00000E+00
    0.54658E+06        -0.50019E+08         0.00000E+00
    0.00000E+00         0.00000E+00        -0.41132E+08
 
   -0.40375E+08         0.61205E+06         0.00000E+00
    0.61205E+06        -0.50024E+08         0.00000E+00
    0.00000E+00         0.00000E+00        -0.41141E+08
 
   -0.40417E+08         0.67795E+06         0.00000E+00
    0.67795E+06        -0.50029E+08         0.00000E+00
    0.00000E+00         0.00000E+00        -0.41150E+08
 
   -0.40458E+08         0.74434E+06         0.00000E+00
    0.74434E+06        -0.50034E+08         0.00000E+00
    0.00000E+00         0.00000E+00        -0.41158E+08
 
   -0.40497E+08         0.81125E+06         0.00000E+00
    0.81125E+06        -0.50039E+08         0.00000E+00
    0.00000E+00         0.00000E+00        -0.41166E+08
 
   -0.40534E+08         0.87873E+06         0.00000E+00
    0.87873E+06        -0.50045E+08         0.00000E+00
    0.00000E+00         0.00000E+00        -0.41174E+08
 
   -0.40570E+08         0.94682E+06         0.00000E+00
    0.94682E+06        -0.50051E+08         0.00000E+00
    0.00000E+00         0.00000E+00        -0.41181E+08
 
   -0.40604E+08         0.10156E+07         0.00000E+00
    0.10156E+07        -0.50057E+08         0.00000E+00
    0.00000E+00         0.00000E+00        -0.41189E+08
 
   -0.40637E+08         0.10850E+07         0.00000E+00
    0.10850E+07        -0.50063E+08         0.00000E+00
    0.00000E+00         0.00000E+00        -0.41195E+08
 
   -0.40668E+08         0.11551E+07         0.00000E+00
    0.11551E+07        -0.50070E+08         0.00000E+00
    0.00000E+00         0.00000E+00        -0.41202E+08
 
   -0.40698E+08         0.12260E+07         0.00000E+00
    0.12260E+07        -0.50076E+08         0.00000E+00
    0.00000E+00         0.00000E+00        -0.41208E+08
 
   -0.40727E+08         0.12977E+07         0.00000E+00
    0.12977E+07        -0.50083E+08         0.00000E+00
    0.00000E+00         0.00000E+00        -0.41215E+08
 
   -0.40755E+08         0.13702E+07         0.00000E+00
    0.13702E+07        -0.50089E+08         0.00000E+00
    0.00000E+00         0.00000E+00        -0.41220E+08
 
   -0.40781E+08         0.14435E+07         0.00000E+00
    0.14435E+07        -0.50096E+08         0.00000E+00
    0.00000E+00         0.00000E+00        -0.41226E+08
 
   -0.40806E+08         0.15177E+07         0.00000E+00
    0.15177E+07        -0.50102E+08         0.00000E+00
    0.00000E+00         0.00000E+00        -0.41231E+08
 
   -0.40831E+08         0.15927E+07         0.00000E+00
    0.15927E+07        -0.50108E+08         0.00000E+00
    0.00000E+00         0.00000E+00        -0.41236E+08
 
   -0.40854E+08         0.16687E+07         0.00000E+00
    0.16687E+07        -0.50115E+08         0.00000E+00
    0.00000E+00         0.00000E+00        -0.41241E+08
 
   -0.40877E+08         0.17456E+07         0.00000E+00
    0.17456E+07        -0.50121E+08         0.00000E+00
    0.00000E+00         0.00000E+00        -0.41246E+08
 
   -0.40898E+08         0.18234E+07         0.00000E+00
    0.18234E+07        -0.50126E+08         0.00000E+00
    0.00000E+00         0.00000E+00        -0.41251E+08
 
   -0.40919E+08         0.19022E+07         0.00000E+00
    0.19022E+07        -0.50132E+08         0.00000E+00
    0.00000E+00         0.00000E+00        -0.41255E+08
 
   -0.40940E+08         0.19819E+07         0.00000E+00
    0.19819E+07        -0.50137E+08         0.00000E+00
    0.00000E+00         0.00000E+00        -0.41259E+08
 
   -0.40959E+08         0.20626E+07         0.00000E+00
    0.20626E+07        -0.50142E+08         0.00000E+00
    0.00000E+00         0.00000E+00        -0.41263E+08
 
   -0.40979E+08         0.21444E+07         0.00000E+00
    0.21444E+07        -0.50147E+08         0.00000E+00
    0.00000E+00         0.00000E+00        -0.41267E+08
 
   -0.40997E+08         0.22271E+07         0.00000E+00
    0.22271E+07        -0.50151E+08         0.00000E+00
    0.00000E+00         0.00000E+00        -0.41271E+08
 
   -0.41015E+08         0.23108E+07         0.00000E+00
    0.23108E+07        -0.50155E+08         0.00000E+00
    0.00000E+00         0.00000E+00        -0.41274E+08
 
   -0.41033E+08         0.23956E+07         0.00000E+00
    0.23956E+07        -0.50159E+08         0.00000E+00
    0.00000E+00         0.00000E+00        -0.41278E+08
 
   -0.41051E+08         0.24814E+07         0.00000E+00
    0.24814E+07        -0.50162E+08         0.00000E+00
    0.00000E+00         0.00000E+00        -0.41281E+08
 
   -0.41068E+08         0.25682E+07         0.00000E+00
    0.25682E+07        -0.50164E+08         0.00000E+00
    0.00000E+00         0.00000E+00        -0.41284E+08
 
   -0.41085E+08         0.26561E+07         0.00000E+00
    0.26561E+07        -0.50166E+08         0.00000E+00
    0.00000E+00         0.00000E+00        -0.41287E+08
 
   -0.41102E+08         0.27450E+07         0.00000E+00
    0.27450E+07        -0.50167E+08         0.00000E+00
    0.00000E+00         0.00000E+00        -0.41290E+08
 
   -0.41119E+08         0.28349E+07         0.00000E+00
    0.28349E+07        -0.50168E+08         0.00000E+00
    0.00000E+00         0.00000E+00        -0.41293E+08
 
   -0.41135E+08         0.29259E+07         0.00000E+00
    0.29259E+07        -0.50168E+08         0.00000E+00
    0.00000E+00         0.00000E+00        -0.41296E+08
 
   -0.41152E+08         0.30180E+07         0.00000E+00
    0.30180E+07        -0.50168E+08         0.00000E+00
    0.00000E+00         0.00000E+00        -0.41298E+08
 
   -0.41169E+08         0.31111E+07         0.00000E+00
    0.31111E+07        -0.50167E+08         0.00000E+00
    0.00000E+00         0.00000E+00        -0.41301E+08
 
   -0.41186E+08         0.32052E+07         0.00000E+00
    0.32052E+07        -0.50165E+08         0.00000E+00
    0.00000E+00         0.00000E+00        -0.41303E+08
 
   -0.41203E+08         0.33004E+07         0.00000E+00
    0.33004E+07        -0.50162E+08         0.00000E+00
    0.00000E+00         0.00000E+00        -0.41306E+08
 
   -0.41220E+08         0.33967E+07         0.00000E+00
    0.33967E+07        -0.50159E+08         0.00000E+00
    0.00000E+00         0.00000E+00        -0.41308E+08
 
   -0.41237E+08         0.34939E+07         0.00000E+00
    0.34939E+07        -0.50154E+08         0.00000E+00
    0.00000E+00         0.00000E+00        -0.41311E+08
 
   -0.41255E+08         0.35923E+07         0.00000E+00
    0.35923E+07        -0.50149E+08         0.00000E+00
    0.00000E+00         0.00000E+00        -0.41313E+08
 
   -0.41273E+08         0.36916E+07         0.00000E+00
    0.36916E+07        -0.50143E+08         0.00000E+00
    0.00000E+00         0.00000E+00        -0.41315E+08
 
   -0.41292E+08         0.37921E+07         0.00000E+00
    0.37921E+07        -0.50137E+08         0.00000E+00
    0.00000E+00         0.00000E+00        -0.41317E+08
 
   -0.41311E+08         0.38935E+07         0.00000E+00
    0.38935E+07        -0.50129E+08         0.00000E+00
    0.00000E+00         0.00000E+00        -0.41320E+08
 
   -0.39589E+08         0.30274E+05         0.00000E+00
    0.30274E+05        -0.49999E+08         0.00000E+00
    0.00000E+00         0.00000E+00        -0.40545E+08
 
   -0.39651E+08         0.90858E+05         0.00000E+00
    0.90858E+05        -0.50000E+08         0.00000E+00
    0.00000E+00         0.00000E+00        -0.40557E+08
 
   -0.39709E+08         0.15156E+06         0.00000E+00
    0.15156E+06        -0.50002E+08         0.00000E+00
    0.00000E+00         0.00000E+00        -0.40569E+08
 
   -0.39765E+08         0.21244E+06         0.00000E+00
    0.21244E+06        -0.50004E+08         0.00000E+00
    0.00000E+00         0.00000E+00        -0.40580E+08
 
   -0.39819E+08         0.27358E+06         0.00000E+00
    0.27358E+06        -0.50007E+08         0.00000E+00
    0.00000E+00         0.00000E+00        -0.40591E+08
 
   -0.39870E+08         0.33504E+06         0.00000E+00
    0.33504E+06        -0.50010E+08         0.00000E+00
    0.00000E+00         0.00000E+00        -0.40602E+08
 
   -0.39919E+08         0.39688E+06         0.00000E+00
    0.39688E+06        -0.50015E+08         0.00000E+00
    0.00000E+00         0.00000E+00        -0.40612E+08
 
   -0.39965E+08         0.45917E+06         0.00000E+00
    0.45917E+06        -0.50019E+08         0.00000E+00
    0.00000E+00         0.00000E+00        -0.40622E+08
 
   -0.40009E+08         0.52196E+06         0.00000E+00
    0.52196E+06        -0.50025E+08         0.00000E+00
    0.00000E+00         0.00000E+00        -0.40631E+08
 
   -0.40051E+08         0.58532E+06         0.00000E+00
    0.58532E+06        -0.50030E+08         0.00000E+00
    0.00000E+00         0.00000E+00        -0.40640E+08
 
   -0.40091E+08         0.64928E+06         0.00000E+00
    0.64928E+06        -0.50037E+08         0.00000E+00
    0.00000E+00         0.00000E+00        -0.40648E+08
 
   -0.40129E+08         0.71391E+06         0.00000E+00
    0.71391E+06        -0.50043E+08         0.00000E+00
    0.00000E+00         0.00000E+00        -0.40656E+08
 
   -0.40164E+08         0.77924E+06         0.00000E+00
    0.77924E+06        -0.50051E+08         0.00000E+00
    0.00000E+00         0.00000E+00        -0.40664E+08
 
   -0.40198E+08         0.84532E+06         0.00000E+00
    0.84532E+06        -0.50058E+08         0.00000E+00
    0.00000E+00         0.00000E+00        -0.40671E+08
 
   -0.40230E+08         0.91221E+06         0.00000E+00
    0.91221E+06        -0.50066E+08         0.00000E+00
    0.00000E+00         0.00000E+00        -0.40678E+08
 
   -0.40261E+08         0.97992E+06         0.00000E+00
    0.97992E+06        -0.50074E+08         0.00000E+00
    0.00000E+00         0.00000E+00        -0.40685E+08
 
   -0.40290E+08         0.10485E+07         0.00000E+00
    0.10485E+07        -0.50082E+08         0.00000E+00
    0.00000E+00         0.00000E+00        -0.40692E+08
 
   -0.40317E+08         0.11180E+07         0.00000E+00
    0.11180E+07        -0.50090E+08         0.00000E+00
    0.00000E+00         0.00000E+00        -0.40698E+08
 
   -0.40343E+08         0.11884E+07         0.00000E+00
    0.11884E+07        -0.50099E+08         0.00000E+00
    0.00000E+00         0.00000E+00        -0.40704E+08
 
   -0.40367E+08         0.12598E+07         0.00000E+00
    0.12598E+07        -0.50108E+08         0.00000E+00
    0.00000E+00         0.00000E+00        -0.40709E+08
 
   -0.40390E+08         0.13322E+07         0.00000E+00
    0.13322E+07        -0.50116E+08         0.00000E+00
    0.00000E+00         0.00000E+00        -0.40714E+08
 
   -0.40412E+08         0.14057E+07         0.00000E+00
    0.14057E+07        -0.50125E+08         0.00000E+00
    0.00000E+00         0.00000E+00        -0.40720E+08
 
   -0.40432E+08         0.14801E+07         0.00000E+00
    0.14801E+07        -0.50134E+08         0.00000E+00
    0.00000E+00         0.00000E+00        -0.40724E+08
 
   -0.40452E+08         0.15557E+07         0.00000E+00
    0.15557E+07        -0.50142E+08         0.00000E+00
    0.00000E+00         0.00000E+00        -0.40729E+08
 
   -0.40470E+08         0.16323E+07         0.00000E+00
    0.16323E+07        -0.50151E+08         0.00000E+00
    0.00000E+00         0.00000E+00        -0.40733E+08
 
   -0.40487E+08         0.17100E+07         0.00000E+00
    0.17100E+07        -0.50160E+08         0.00000E+00
    0.00000E+00         0.00000E+00        -0.40737E+08
 
   -0.40504E+08         0.17889E+07         0.00000E+00
    0.17889E+07        -0.50168E+08         0.00000E+00
    0.00000E+00         0.00000E+00        -0.40741E+08
 
   -0.40520E+08         0.18689E+07         0.00000E+00
    0.18689E+07        -0.50176E+08         0.00000E+00
    0.00000E+00         0.00000E+00        -0.40745E+08
 
   -0.40535E+08         0.19500E+07         0.00000E+00
    0.19500E+07        -0.50184E+08         0.00000E+00
    0.00000E+00         0.00000E+00        -0.40749E+08
 
   -0.40549E+08         0.20323E+07         0.00000E+00
    0.20323E+07        -0.50191E+08         0.00000E+00
    0.00000E+00         0.00000E+00        -0.40752E+08
 
   -0.40563E+08         0.21158E+07         0.00000E+00
    0.21158E+07        -0.50198E+08         0.00000E+00
    0.00000E+00         0.00000E+00        -0.40755E+08
 
   -0.40576E+08         0.22004E+07         0.00000E+00
    0.22004E+07        -0.50205E+08         0.00000E+00
    0.00000E+00         0.00000E+00        -0.40758E+08
 
   -0.40589E+08         0.22862E+07         0.00000E+00
    0.22862E+07        -0.50212E+08         0.00000E+00
    0.00000E+00         0.00000E+00        -0.40761E+08
 
   -0.40601E+08         0.23733E+07         0.00000E+00
    0.23733E+07        -0.50218E+08         0.00000E+00
    0.00000E+00         0.00000E+00        -0.40764E+08
 
   -0.40613E+08         0.24615E+07         0.00000E+00
    0.24615E+07        -0.50223E+08         0.00000E+00
    0.00000E+00         0.00000E+00        -0.40766E+08
 
   -0.40624E+08         0.25509E+07         0.00000E+00
    0.25509E+07        -0.50228E+08         0.00000E+00
    0.00000E+00         0.00000E+00        -0.40769E+08
 
   -0.40636E+08         0.26415E+07         0.00000E+00
    0.26415E+07        -0.50233E+08         0.00000E+00
    0.00000E+00         0.00000E+00        -0.40771E+08
 
   -0.40647E+08         0.27333E+07         0.00000E+00
    0.27333E+07        -0.50237E+08         0.00000E+00
    0.00000E+00         0.00000E+00        -0.40774E+08
 
   -0.40658E+08         0.28264E+07         0.00000E+00
    0.28264E+07        -0.50240E+08         0.00000E+00
    0.00000E+00         0.00000E+00        -0.40776E+08
 
   -0.40669E+08         0.29206E+07         0.00000E+00
    0.29206E+07        -0.50243E+08         0.00000E+00
    0.00000E+00         0.00000E+00        -0.40778E+08
 
   -0.40681E+08         0.30160E+07         0.00000E+00
    0.30160E+07        -0.50245E+08         0.00000E+00
    0.00000E+00         0.00000E+00        -0.40780E+08
 
   -0.40692E+08         0.31126E+07         0.00000E+00
    0.31126E+07        -0.50246E+08         0.00000E+00
    0.00000E+00         0.00000E+00        -0.40782E+08
 
   -0.40703E+08         0.32104E+07         0.00000E+00
    0.32104E+07        -0.50247E+08         0.00000E+00
    0.00000E+00         0.00000E+00        -0.40784E+08
 
   -0.40714E+08         0.33094E+07         0.00000E+00
    0.33094E+07        -0.50247E+08         0.00000E+00
    0.00000E+00         0.00000E+00        -0.40786E+08
 
   -0.40726E+08         0.34096E+07         0.00000E+00
    0.34096E+07        -0.50246E+08         0.00000E+00
    0.00000E+00         0.00000E+00        -0.40787E+08
 
   -0.40738E+08         0.35110E+07         0.00000E+00
    0.35110E+07        -0.50244E+08         0.00000E+00
    0.00000E+00         0.00000E+00        -0.40789E+08
 
   -0.40750E+08         0.36136E+07         0.00000E+00
    0.36136E+07        -0.50242E+08         0.00000E+00
    0.00000E+00         0.00000E+00        -0.40791E+08
 
   -0.40763E+08         0.37173E+07         0.00000E+00
    0.37173E+07        -0.50238E+08         0.00000E+00
    0.00000E+00         0.00000E+00        -0.40792E+08
 
   -0.40776E+08         0.38222E+07         0.00000E+00
    0.38222E+07        -0.50234E+08         0.00000E+00
    0.00000E+00         0.00000E+00        -0.40794E+08
 
   -0.40789E+08         0.39283E+07         0.00000E+00
    0.39283E+07        -0.50229E+08         0.00000E+00
    0.00000E+00         0.00000E+00        -0.40796E+08
 
   -0.39297E+08         0.27959E+05         0.00000E+00
    0.27959E+05        -0.49999E+08         0.00000E+00
    0.00000E+00         0.00000E+00        -0.40027E+08
 
   -0.39357E+08         0.84295E+05         0.00000E+00
    0.84295E+05        -0.50000E+08         0.00000E+00
    0.00000E+00         0.00000E+00        -0.40040E+08
 
   -0.39415E+08         0.14092E+06         0.00000E+00
    0.14092E+06        -0.50002E+08         0.00000E+00
    0.00000E+00         0.00000E+00        -0.40051E+08
 
   -0.39470E+08         0.19791E+06         0.00000E+00
    0.19791E+06        -0.50005E+08         0.00000E+00
    0.00000E+00         0.00000E+00        -0.40062E+08
 
   -0.39521E+08         0.25533E+06         0.00000E+00
    0.25533E+06        -0.50009E+08         0.00000E+00
    0.00000E+00         0.00000E+00        -0.40073E+08
 
   -0.39570E+08         0.31327E+06         0.00000E+00
    0.31327E+06        -0.50013E+08         0.00000E+00
    0.00000E+00         0.00000E+00        -0.40083E+08
 
   -0.39616E+08         0.37179E+06         0.00000E+00
    0.37179E+06        -0.50018E+08         0.00000E+00
    0.00000E+00         0.00000E+00        -0.40093E+08
 
   -0.39660E+08         0.43095E+06         0.00000E+00
    0.43095E+06        -0.50024E+08         0.00000E+00
    0.00000E+00         0.00000E+00        -0.40102E+08
 
   -0.39701E+08         0.49082E+06         0.00000E+00
    0.49082E+06        -0.50031E+08         0.00000E+00
    0.00000E+00         0.00000E+00        -0.40111E+08
 
   -0.39739E+08         0.55146E+06         0.00000E+00
    0.55146E+06        -0.50038E+08         0.00000E+00
    0.00000E+00         0.00000E+00        -0.40119E+08
 
   -0.39775E+08         0.61291E+06         0.00000E+00
    0.61291E+06        -0.50046E+08         0.00000E+00
    0.00000E+00         0.00000E+00        -0.40127E+08
 
   -0.39809E+08         0.67524E+06         0.00000E+00
    0.67524E+06        -0.50054E+08         0.00000E+00
    0.00000E+00         0.00000E+00        -0.40135E+08
 
   -0.39841E+08         0.73848E+06         0.00000E+00
    0.73848E+06        -0.50063E+08         0.00000E+00
    0.00000E+00         0.00000E+00        -0.40142E+08
 
   -0.39870E+08         0.80270E+06         0.00000E+00
    0.80270E+06        -0.50073E+08         0.00000E+00
    0.00000E+00         0.00000E+00        -0.40149E+08
 
   -0.39898E+08         0.86792E+06         0.00000E+00
    0.86792E+06        -0.50082E+08         0.00000E+00
    0.00000E+00         0.00000E+00        -0.40156E+08
 
   -0.39923E+08         0.93419E+06         0.00000E+00
    0.93419E+06        -0.50092E+08         0.00000E+00
    0.00000E+00         0.00000E+00        -0.40162E+08
 
   -0.39947E+08         0.10016E+07         0.00000E+00
    0.10016E+07        -0.50103E+08         0.00000E+00
    0.00000E+00         0.00000E+00        -0.40168E+08
 
   -0.39969E+08         0.10700E+07         0.00000E+00
    0.10700E+07        -0.50113E+08         0.00000E+00
    0.00000E+00         0.00000E+00        -0.40173E+08
 
   -0.39990E+08         0.11397E+07         0.00000E+00
    0.11397E+07        -0.50124E+08         0.00000E+00
    0.00000E+00         0.00000E+00        -0.40178E+08
 
   -0.40009E+08         0.12105E+07         0.00000E+00
    0.12105E+07        -0.50135E+08         0.00000E+00
    0.00000E+00         0.00000E+00        -0.40183E+08
 
   -0.40026E+08         0.12825E+07         0.00000E+00
    0.12825E+07        -0.50147E+08         0.00000E+00
    0.00000E+00         0.00000E+00        -0.40188E+08
 
   -0.40042E+08         0.13558E+07         0.00000E+00
    0.13558E+07        -0.50158E+08         0.00000E+00
    0.00000E+00         0.00000E+00        -0.40192E+08
 
   -0.40057E+08         0.14303E+07         0.00000E+00
    0.14303E+07        -0.50169E+08         0.00000E+00
    0.00000E+00         0.00000E+00        -0.40196E+08
 
   -0.40070E+08         0.15061E+07         0.00000E+00
    0.15061E+07        -0.50180E+08         0.00000E+00
    0.00000E+00         0.00000E+00        -0.40200E+08
 
   -0.40083E+08         0.15832E+07         0.00000E+00
    0.15832E+07        -0.50192E+08         0.00000E+00
    0.00000E+00         0.00000E+00        -0.40204E+08
 
   -0.40094E+08         0.16616E+07         0.00000E+00
    0.16616E+07        -0.50203E+08         0.00000E+00
    0.00000E+00         0.00000E+00        -0.40207E+08
 
   -0.40104E+08         0.17414E+07         0.00000E+00
    0.17414E+07        -0.50214E+08         0.00000E+00
    0.00000E+00         0.00000E+00        -0.40210E+08
 
   -0.40114E+08         0.18224E+07         0.00000E+00
    0.18224E+07        -0.50224E+08         0.00000E+00
    0.00000E+00         0.00000E+00        -0.40213E+08
 
   -0.40123E+08         0.19049E+07         0.00000E+00
    0.19049E+07        -0.50235E+08         0.00000E+00
    0.00000E+00         0.00000E+00        -0.40216E+08
 
   -0.40131E+08         0.19886E+07         0.00000E+00
    0.19886E+07        -0.50245E+08         0.00000E+00
    0.00000E+00         0.00000E+00        -0.40219E+08
 
   -0.40138E+08         0.20738E+07         0.00000E+00
    0.20738E+07        -0.50255E+08         0.00000E+00
    0.00000E+00         0.00000E+00        -0.40221E+08
 
   -0.40145E+08         0.21603E+07         0.00000E+00
    0.21603E+07        -0.50265E+08         0.00000E+00
    0.00000E+00         0.00000E+00        -0.40223E+08
 
   -0.40151E+08         0.22482E+07         0.00000E+00
    0.22482E+07        -0.50274E+08         0.00000E+00
    0.00000E+00         0.00000E+00        -0.40226E+08
 
   -0.40157E+08         0.23374E+07         0.00000E+00
    0.23374E+07        -0.50283E+08         0.00000E+00
    0.00000E+00         0.00000E+00        -0.40228E+08
 
   -0.40162E+08         0.24280E+07         0.00000E+00
    0.24280E+07        -0.50292E+08         0.00000E+00
    0.00000E+00         0.00000E+00        -0.40230E+08
 
   -0.40168E+08         0.25200E+07         0.00000E+00
    0.25200E+07        -0.50299E+08         0.00000E+00
    0.00000E+00         0.00000E+00        -0.40231E+08
 
   -0.40173E+08         0.26134E+07         0.00000E+00
    0.26134E+07        -0.50307E+08         0.00000E+00
    0.00000E+00         0.00000E+00        -0.40233E+08
 
   -0.40178E+08         0.27082E+07         0.00000E+00
    0.27082E+07        -0.50314E+08         0.00000E+00
    0.00000E+00         0.00000E+00        -0.40234E+08
 
   -0.40182E+08         0.28043E+07         0.00000E+00
    0.28043E+07        -0.50320E+08         0.00000E+00
    0.00000E+00         0.00000E+00        -0.40236E+08
 
   -0.40187E+08         0.29018E+07         0.00000E+00
    0.29018E+07        -0.50325E+08         0.00000E+00
    0.00000E+00         0.00000E+00        -0.40237E+08
 
   -0.40192E+08         0.30006E+07         0.00000E+00
    0.30006E+07        -0.50330E+08         0.00000E+00
    0.00000E+00         0.00000E+00        -0.40239E+08
 
   -0.40197E+08         0.31008E+07         0.00000E+00
    0.31008E+07        -0.50334E+08         0.00000E+00
    0.00000E+00         0.00000E+00        -0.40240E+08
 
   -0.40201E+08         0.32023E+07         0.00000E+00
    0.32023E+07        -0.50338E+08         0.00000E+00
    0.00000E+00         0.00000E+00        -0.40241E+08
 
   -0.40207E+08         0.33052E+07         0.00000E+00
    0.33052E+07        -0.50340E+08         0.00000E+00
    0.00000E+00         0.00000E+00        -0.40242E+08
 
   -0.40212E+08         0.34094E+07         0.00000E+00
    0.34094E+07        -0.50342E+08         0.00000E+00
    0.00000E+00         0.00000E+00        -0.40243E+08
 
   -0.40218E+08         0.35149E+07         0.00000E+00
    0.35149E+07        -0.50343E+08         0.00000E+00
    0.00000E+00         0.00000E+00        -0.40244E+08
 
   -0.40224E+08         0.36218E+07         0.00000E+00
    0.36218E+07        -0.50344E+08         0.00000E+00
    0.00000E+00         0.00000E+00        -0.40245E+08
 
   -0.40230E+08         0.37299E+07         0.00000E+00
    0.37299E+07        -0.50343E+08         0.00000E+00
    0.00000E+00         0.00000E+00        -0.40246E+08
 
   -0.40237E+08         0.38394E+07         0.00000E+00
    0.38394E+07        -0.50341E+08         0.00000E+00
    0.00000E+00         0.00000E+00        -0.40247E+08
 
   -0.40244E+08         0.39502E+07         0.00000E+00
    0.39502E+07        -0.50339E+08         0.00000E+00
    0.00000E+00         0.00000E+00        -0.40248E+08
 
   -0.39029E+08         0.25102E+05         0.00000E+00
    0.25102E+05        -0.49999E+08         0.00000E+00
    0.00000E+00         0.00000E+00        -0.39493E+08
 
   -0.39088E+08         0.76207E+05         0.00000E+00
    0.76207E+05        -0.50000E+08         0.00000E+00
    0.00000E+00         0.00000E+00        -0.39505E+08
 
   -0.39143E+08         0.12781E+06         0.00000E+00
    0.12781E+06        -0.50003E+08         0.00000E+00
    0.00000E+00         0.00000E+00        -0.39516E+08
 
   -0.39195E+08         0.18001E+06         0.00000E+00
    0.18001E+06        -0.50006E+08         0.00000E+00
    0.00000E+00         0.00000E+00        -0.39527E+08
 
   -0.39244E+08         0.23286E+06         0.00000E+00
    0.23286E+06        -0.50011E+08         0.00000E+00
    0.00000E+00         0.00000E+00        -0.39537E+08
 
   -0.39289E+08         0.28646E+06         0.00000E+00
    0.28646E+06        -0.50016E+08         0.00000E+00
    0.00000E+00         0.00000E+00        -0.39547E+08
 
   -0.39332E+08         0.34088E+06         0.00000E+00
    0.34088E+06        -0.50022E+08         0.00000E+00
    0.00000E+00         0.00000E+00        -0.39556E+08
 
   -0.39371E+08         0.39618E+06         0.00000E+00
    0.39618E+06        -0.50030E+08         0.00000E+00
    0.00000E+00         0.00000E+00        -0.39564E+08
 
   -0.39408E+08         0.45242E+06         0.00000E+00
    0.45242E+06        -0.50038E+08         0.00000E+00
    0.00000E+00         0.00000E+00        -0.39573E+08
 
   -0.39442E+08         0.50968E+06         0.00000E+00
    0.50968E+06        -0.50047E+08         0.00000E+00
    0.00000E+00         0.00000E+00        -0.39581E+08
 
   -0.39473E+08         0.56800E+06         0.00000E+00
    0.56800E+06        -0.50056E+08         0.00000E+00
    0.00000E+00         0.00000E+00        -0.39588E+08
 
   -0.39502E+08         0.62744E+06         0.00000E+00
    0.62744E+06        -0.50066E+08         0.00000E+00
    0.00000E+00         0.00000E+00        -0.39595E+08
 
   -0.39528E+08         0.68805E+06         0.00000E+00
    0.68805E+06        -0.50077E+08         0.00000E+00
    0.00000E+00         0.00000E+00        -0.39601E+08
 
   -0.39552E+08         0.74987E+06         0.00000E+00
    0.74987E+06        -0.50089E+08         0.00000E+00
    0.00000E+00         0.00000E+00        -0.39607E+08
 
   -0.39574E+08         0.81296E+06         0.00000E+00
    0.81296E+06        -0.50101E+08         0.00000E+00
    0.00000E+00         0.00000E+00        -0.39613E+08
 
   -0.39593E+08         0.87734E+06         0.00000E+00
    0.87734E+06        -0.50113E+08         0.00000E+00
    0.00000E+00         0.00000E+00        -0.39619E+08
 
   -0.39611E+08         0.94305E+06         0.00000E+00
    0.94305E+06        -0.50126E+08         0.00000E+00
    0.00000E+00         0.00000E+00        -0.39624E+08
 
   -0.39627E+08         0.10101E+07         0.00000E+00
    0.10101E+07        -0.50139E+08         0.00000E+00
    0.00000E+00         0.00000E+00        -0.39628E+08
 
   -0.39641E+08         0.10786E+07         0.00000E+00
    0.10786E+07        -0.50152E+08         0.00000E+00
    0.00000E+00         0.00000E+00        -0.39633E+08
 
   -0.39653E+08         0.11485E+07         0.00000E+00
    0.11485E+07        -0.50166E+08         0.00000E+00
    0.00000E+00         0.00000E+00        -0.39637E+08
 
   -0.39664E+08         0.12199E+07         0.00000E+00
    0.12199E+07        -0.50180E+08         0.00000E+00
    0.00000E+00         0.00000E+00        -0.39640E+08
 
   -0.39673E+08         0.12927E+07         0.00000E+00
    0.12927E+07        -0.50194E+08         0.00000E+00
    0.00000E+00         0.00000E+00        -0.39644E+08
 
   -0.39681E+08         0.13671E+07         0.00000E+00
    0.13671E+07        -0.50208E+08         0.00000E+00
    0.00000E+00         0.00000E+00        -0.39647E+08
 
   -0.39688E+08         0.14429E+07         0.00000E+00
    0.14429E+07        -0.50222E+08         0.00000E+00
    0.00000E+00         0.00000E+00        -0.39650E+08
 
   -0.39693E+08         0.15203E+07         0.00000E+00
    0.15203E+07        -0.50236E+08         0.00000E+00
    0.00000E+00         0.00000E+00        -0.39653E+08
 
   -0.39697E+08         0.15992E+07         0.00000E+00
    0.15992E+07        -0.50250E+08         0.00000E+00
    0.00000E+00         0.00000E+00        -0.39655E+08
 
   -0.39700E+08         0.16797E+07         0.00000E+00
    0.16797E+07        -0.50264E+08         0.00000E+00
    0.00000E+00         0.00000E+00        -0.39658E+08
 
   -0.39703E+08         0.17617E+07         0.00000E+00
    0.17617E+07        -0.50278E+08         0.00000E+00
    0.00000E+00         0.00000E+00        -0.39660E+08
 
   -0.39704E+08         0.18453E+07         0.00000E+00
    0.18453E+07        -0.50291E+08         0.00000E+00
    0.00000E+00         0.00000E+00        -0.39662E+08
 
   -0.39705E+08         0.19304E+07         0.00000E+00
    0.19304E+07        -0.50305E+08         0.00000E+00
    0.00000E+00         0.00000E+00        -0.39664E+08
 
   -0.39705E+08         0.20172E+07         0.00000E+00
    0.20172E+07        -0.50318E+08         0.00000E+00
    0.00000E+00         0.00000E+00        -0.39665E+08
 
   -0.39704E+08         0.21055E+07         0.00000E+00
    0.21055E+07        -0.50330E+08         0.00000E+00
    0.00000E+00         0.00000E+00        -0.39666E+08
 
   -0.39703E+08         0.21954E+07         0.00000E+00
    0.21954E+07        -0.50343E+08         0.00000E+00
    0.00000E+00         0.00000E+00        -0.39668E+08
 
   -0.39702E+08         0.22868E+07         0.00000E+00
    0.22868E+07        -0.50355E+08         0.00000E+00
    0.00000E+00         0.00000E+00        -0.39669E+08
 
   -0.39700E+08         0.23798E+07         0.00000E+00
    0.23798E+07        -0.50366E+08         0.00000E+00
    0.00000E+00         0.00000E+00        -0.39670E+08
 
   -0.39698E+08         0.24744E+07         0.00000E+00
    0.24744E+07        -0.50377E+08         0.00000E+00
    0.00000E+00         0.00000E+00        -0.39671E+08
 
   -0.39695E+08         0.25705E+07         0.00000E+00
    0.25705E+07        -0.50388E+08         0.00000E+00
    0.00000E+00         0.00000E+00        -0.39672E+08
 
   -0.39693E+08         0.26682E+07         0.00000E+00
    0.26682E+07        -0.50397E+08         0.00000E+00
    0.00000E+00         0.00000E+00        -0.39672E+08
 
   -0.39690E+08         0.27674E+07         0.00000E+00
    0.27674E+07        -0.50407E+08         0.00000E+00
    0.00000E+00         0.00000E+00        -0.39673E+08
 
   -0.39688E+08         0.28682E+07         0.00000E+00
    0.28682E+07        -0.50415E+08         0.00000E+00
    0.00000E+00         0.00000E+00        -0.39673E+08
 
   -0.39685E+08         0.29705E+07         0.00000E+00
    0.29705E+07        -0.50423E+08         0.00000E+00
    0.00000E+00         0.00000E+00        -0.39674E+08
 
   -0.39683E+08         0.30743E+07         0.00000E+00
    0.30743E+07        -0.50430E+08         0.00000E+00
    0.00000E+00         0.00000E+00        -0.39674E+08
 
   -0.39681E+08         0.31796E+07         0.00000E+00
    0.31796E+07        -0.50437E+08         0.00000E+00
    0.00000E+00         0.00000E+00        -0.39674E+08
 
   -0.39679E+08         0.32864E+07         0.00000E+00
    0.32864E+07        -0.50443E+08         0.00000E+00
    0.00000E+00         0.00000E+00        -0.39675E+08
 
   -0.39677E+08         0.33947E+07         0.00000E+00
    0.33947E+07        -0.50448E+08         0.00000E+00
    0.00000E+00         0.00000E+00        -0.39675E+08
 
   -0.39676E+08         0.35044E+07         0.00000E+00
    0.35044E+07        -0.50452E+08         0.00000E+00
    0.00000E+00         0.00000E+00        -0.39675E+08
 
   -0.39675E+08         0.36156E+07         0.00000E+00
    0.36156E+07        -0.50455E+08         0.00000E+00
    0.00000E+00         0.00000E+00        -0.39675E+08
 
   -0.39675E+08         0.37282E+07         0.00000E+00
    0.37282E+07        -0.50457E+08         0.00000E+00
    0.00000E+00         0.00000E+00        -0.39676E+08
 
   -0.39675E+08         0.38423E+07         0.00000E+00
    0.38423E+07        -0.50459E+08         0.00000E+00
    0.00000E+00         0.00000E+00        -0.39676E+08
 
   -0.39675E+08         0.39578E+07         0.00000E+00
    0.39578E+07        -0.50459E+08         0.00000E+00
    0.00000E+00         0.00000E+00        -0.39676E+08
 
   -0.38790E+08         0.21638E+05         0.00000E+00
    0.21638E+05        -0.49999E+08         0.00000E+00
    0.00000E+00         0.00000E+00        -0.38942E+08
 
   -0.38846E+08         0.66417E+05         0.00000E+00
    0.66417E+05        -0.50000E+08         0.00000E+00
    0.00000E+00         0.00000E+00        -0.38953E+08
 
   -0.38898E+08         0.11196E+06         0.00000E+00
    0.11196E+06        -0.50003E+08         0.00000E+00
    0.00000E+00         0.00000E+00        -0.38964E+08
 
   -0.38946E+08         0.15836E+06         0.00000E+00
    0.15836E+06        -0.50007E+08         0.00000E+00
    0.00000E+00         0.00000E+00        -0.38974E+08
 
   -0.38991E+08         0.20571E+06         0.00000E+00
    0.20571E+06        -0.50013E+08         0.00000E+00
    0.00000E+00         0.00000E+00        -0.38984E+08
 
   -0.39032E+08         0.25407E+06         0.00000E+00
    0.25407E+06        -0.50019E+08         0.00000E+00
    0.00000E+00         0.00000E+00        -0.38993E+08
 
   -0.39069E+08         0.30354E+06         0.00000E+00
    0.30354E+06        -0.50027E+08         0.00000E+00
    0.00000E+00         0.00000E+00        -0.39001E+08
 
   -0.39103E+08         0.35417E+06         0.00000E+00
    0.35417E+06        -0.50036E+08         0.00000E+00
    0.00000E+00         0.00000E+00        -0.39009E+08
 
   -0.39134E+08         0.40604E+06         0.00000E+00
    0.40604E+06        -0.50045E+08         0.00000E+00
    0.00000E+00         0.00000E+00        -0.39016E+08
 
   -0.39162E+08         0.45920E+06         0.00000E+00
    0.45920E+06        -0.50056E+08         0.00000E+00
    0.00000E+00         0.00000E+00        -0.39023E+08
 
   -0.39188E+08         0.51372E+06         0.00000E+00
    0.51372E+06        -0.50067E+08         0.00000E+00
    0.00000E+00         0.00000E+00        -0.39030E+08
 
   -0.39210E+08         0.56965E+06         0.00000E+00
    0.56965E+06        -0.50080E+08         0.00000E+00
    0.00000E+00         0.00000E+00        -0.39036E+08
 
   -0.39229E+08         0.62703E+06         0.00000E+00
    0.62703E+06        -0.50093E+08         0.00000E+00
    0.00000E+00         0.00000E+00        -0.39041E+08
 
   -0.39247E+08         0.68592E+06         0.00000E+00
    0.68592E+06        -0.50106E+08         0.00000E+00
    0.00000E+00         0.00000E+00        -0.39047E+08
 
   -0.39261E+08         0.74636E+06         0.00000E+00
    0.74636E+06        -0.50121E+08         0.00000E+00
    0.00000E+00         0.00000E+00        -0.39051E+08
 
   -0.39274E+08         0.80837E+06         0.00000E+00
    0.80837E+06        -0.50136E+08         0.00000E+00
    0.00000E+00         0.00000E+00        -0.39056E+08
 
   -0.39284E+08         0.87201E+06         0.00000E+00
    0.87201E+06        -0.50151E+08         0.00000E+00
    0.00000E+00         0.00000E+00        -0.39060E+08
 
   -0.39292E+08         0.93729E+06         0.00000E+00
    0.93729E+06        -0.50167E+08         0.00000E+00
    0.00000E+00         0.00000E+00        -0.39064E+08
 
   -0.39298E+08         0.10043E+07         0.00000E+00
    0.10043E+07        -0.50183E+08         0.00000E+00
    0.00000E+00         0.00000E+00        -0.39067E+08
 
   -0.39303E+08         0.10729E+07         0.00000E+00
    0.10729E+07        -0.50199E+08         0.00000E+00
    0.00000E+00         0.00000E+00        -0.39070E+08
 
   -0.39305E+08         0.11433E+07         0.00000E+00
    0.11433E+07        -0.50216E+08         0.00000E+00
    0.00000E+00         0.00000E+00        -0.39073E+08
 
   -0.39307E+08         0.12154E+07         0.00000E+00
    0.12154E+07        -0.50233E+08         0.00000E+00
    0.00000E+00         0.00000E+00        -0.39075E+08
 
   -0.39306E+08         0.12893E+07         0.00000E+00
    0.12893E+07        -0.50250E+08         0.00000E+00
    0.00000E+00         0.00000E+00        -0.39077E+08
 
   -0.39305E+08         0.13650E+07         0.00000E+00
    0.13650E+07        -0.50267E+08         0.00000E+00
    0.00000E+00         0.00000E+00        -0.39079E+08
 
   -0.39302E+08         0.14424E+07         0.00000E+00
    0.14424E+07        -0.50284E+08         0.00000E+00
    0.00000E+00         0.00000E+00        -0.39081E+08
 
   -0.39297E+08         0.15217E+07         0.00000E+00
    0.15217E+07        -0.50301E+08         0.00000E+00
    0.00000E+00         0.00000E+00        -0.39082E+08
 
   -0.39292E+08         0.16027E+07         0.00000E+00
    0.16027E+07        -0.50318E+08         0.00000E+00
    0.00000E+00         0.00000E+00        -0.39084E+08
 
   -0.39286E+08         0.16855E+07         0.00000E+00
    0.16855E+07        -0.50335E+08         0.00000E+00
    0.00000E+00         0.00000E+00        -0.39085E+08
 
   -0.39279E+08         0.17701E+07         0.00000E+00
    0.17701E+07        -0.50352E+08         0.00000E+00
    0.00000E+00         0.00000E+00        -0.39086E+08
 
   -0.39271E+08         0.18566E+07         0.00000E+00
    0.18566E+07        -0.50369E+08         0.00000E+00
    0.00000E+00         0.00000E+00        -0.39086E+08
 
   -0.39263E+08         0.19448E+07         0.00000E+00
    0.19448E+07        -0.50385E+08         0.00000E+00
    0.00000E+00         0.00000E+00        -0.39087E+08
 
   -0.39254E+08         0.20348E+07         0.00000E+00
    0.20348E+07        -0.50401E+08         0.00000E+00
    0.00000E+00         0.00000E+00        -0.39087E+08
 
   -0.39245E+08         0.21267E+07         0.00000E+00
    0.21267E+07        -0.50417E+08         0.00000E+00
    0.00000E+00         0.00000E+00        -0.39087E+08
 
   -0.39235E+08         0.22203E+07         0.00000E+00
    0.22203E+07        -0.50432E+08         0.00000E+00
    0.00000E+00         0.00000E+00        -0.39088E+08
 
   -0.39225E+08         0.23156E+07         0.00000E+00
    0.23156E+07        -0.50447E+08         0.00000E+00
    0.00000E+00         0.00000E+00        -0.39088E+08
 
   -0.39214E+08         0.24128E+07         0.00000E+00
    0.24128E+07        -0.50461E+08         0.00000E+00
    0.00000E+00         0.00000E+00        -0.39087E+08
 
   -0.39204E+08         0.25117E+07         0.00000E+00
    0.25117E+07        -0.50475E+08         0.00000E+00
    0.00000E+00         0.00000E+00        -0.39087E+08
 
   -0.39193E+08         0.26123E+07         0.00000E+00
    0.26123E+07        -0.50488E+08         0.00000E+00
    0.00000E+00         0.00000E+00        -0.39087E+08
 
   -0.39182E+08         0.27147E+07         0.00000E+00
    0.27147E+07        -0.50500E+08         0.00000E+00
    0.00000E+00         0.00000E+00        -0.39087E+08
 
   -0.39172E+08         0.28187E+07         0.00000E+00
    0.28187E+07        -0.50512E+08         0.00000E+00
    0.00000E+00         0.00000E+00        -0.39086E+08
 
   -0.39161E+08         0.29245E+07         0.00000E+00
    0.29245E+07        -0.50523E+08         0.00000E+00
    0.00000E+00         0.00000E+00        -0.39086E+08
 
   -0.39151E+08         0.30319E+07         0.00000E+00
    0.30319E+07        -0.50534E+08         0.00000E+00
    0.00000E+00         0.00000E+00        -0.39085E+08
 
   -0.39141E+08         0.31411E+07         0.00000E+00
    0.31411E+07        -0.50544E+08         0.00000E+00
    0.00000E+00         0.00000E+00        -0.39084E+08
 
   -0.39131E+08         0.32518E+07         0.00000E+00
    0.32518E+07        -0.50553E+08         0.00000E+00
    0.00000E+00         0.00000E+00        -0.39084E+08
 
   -0.39122E+08         0.33642E+07         0.00000E+00
    0.33642E+07        -0.50561E+08         0.00000E+00
    0.00000E+00         0.00000E+00        -0.39083E+08
 
   -0.39113E+08         0.34782E+07         0.00000E+00
    0.34782E+07        -0.50568E+08         0.00000E+00
    0.00000E+00         0.00000E+00        -0.39082E+08
 
   -0.39105E+08         0.35937E+07         0.00000E+00
    0.35937E+07        -0.50575E+08         0.00000E+00
    0.00000E+00         0.00000E+00        -0.39082E+08
 
   -0.39097E+08         0.37109E+07         0.00000E+00
    0.37109E+07        -0.50580E+08         0.00000E+00
    0.00000E+00         0.00000E+00        -0.39081E+08
 
   -0.39089E+08         0.38296E+07         0.00000E+00
    0.38296E+07        -0.50585E+08         0.00000E+00
    0.00000E+00         0.00000E+00        -0.39080E+08
 
   -0.39083E+08         0.39498E+07         0.00000E+00
    0.39498E+07        -0.50589E+08         0.00000E+00
    0.00000E+00         0.00000E+00        -0.39080E+08
 
   -0.38587E+08         0.17499E+05         0.00000E+00
    0.17499E+05        -0.49999E+08         0.00000E+00
    0.00000E+00         0.00000E+00        -0.38376E+08
 
   -0.38638E+08         0.54748E+05         0.00000E+00
    0.54748E+05        -0.50001E+08         0.00000E+00
    0.00000E+00         0.00000E+00        -0.38387E+08
 
   -0.38685E+08         0.93092E+05         0.00000E+00
    0.93092E+05        -0.50004E+08         0.00000E+00
    0.00000E+00         0.00000E+00        -0.38397E+08
 
   -0.38728E+08         0.13262E+06         0.00000E+00
    0.13262E+06        -0.50009E+08         0.00000E+00
    0.00000E+00         0.00000E+00        -0.38406E+08
 
   -0.38767E+08         0.17343E+06         0.00000E+00
    0.17343E+06        -0.50015E+08         0.00000E+00
    0.00000E+00         0.00000E+00        -0.38414E+08
 
   -0.38802E+08         0.21560E+06         0.00000E+00
    0.21560E+06        -0.50023E+08         0.00000E+00
    0.00000E+00         0.00000E+00        -0.38422E+08
 
   -0.38833E+08         0.25920E+06         0.00000E+00
    0.25920E+06        -0.50032E+08         0.00000E+00
    0.00000E+00         0.00000E+00        -0.38430E+08
 
   -0.38860E+08         0.30431E+06         0.00000E+00
    0.30431E+06        -0.50042E+08         0.00000E+00
    0.00000E+00         0.00000E+00        -0.38437E+08
 
   -0.38884E+08         0.35100E+06         0.00000E+00
    0.35100E+06        -0.50054E+08         0.00000E+00
    0.00000E+00         0.00000E+00        -0.38443E+08
 
   -0.38905E+08         0.39932E+06         0.00000E+00
    0.39932E+06        -0.50066E+08         0.00000E+00
    0.00000E+00         0.00000E+00        -0.38449E+08
 
   -0.38922E+08         0.44933E+06         0.00000E+00
    0.44933E+06        -0.50080E+08         0.00000E+00
    0.00000E+00         0.00000E+00        -0.38454E+08
 
   -0.38936E+08         0.50109E+06         0.00000E+00
    0.50109E+06        -0.50094E+08         0.00000E+00
    0.00000E+00         0.00000E+00        -0.38459E+08
 
   -0.38948E+08         0.55464E+06         0.00000E+00
    0.55464E+06        -0.50109E+08         0.00000E+00
    0.00000E+00         0.00000E+00        -0.38463E+08
 
   -0.38956E+08         0.61002E+06         0.00000E+00
    0.61002E+06        -0.50125E+08         0.00000E+00
    0.00000E+00         0.00000E+00        -0.38467E+08
 
   -0.38963E+08         0.66728E+06         0.00000E+00
    0.66728E+06        -0.50142E+08         0.00000E+00
    0.00000E+00         0.00000E+00        -0.38471E+08
 
   -0.38966E+08         0.72644E+06         0.00000E+00
    0.72644E+06        -0.50160E+08         0.00000E+00
    0.00000E+00         0.00000E+00        -0.38474E+08
 
   -0.38967E+08         0.78755E+06         0.00000E+00
    0.78755E+06        -0.50178E+08         0.00000E+00
    0.00000E+00         0.00000E+00        -0.38477E+08
 
   -0.38967E+08         0.85061E+06         0.00000E+00
    0.85061E+06        -0.50196E+08         0.00000E+00
    0.00000E+00         0.00000E+00        -0.38479E+08
 
   -0.38964E+08         0.91567E+06         0.00000E+00
    0.91567E+06        -0.50215E+08         0.00000E+00
    0.00000E+00         0.00000E+00        -0.38482E+08
 
   -0.38959E+08         0.98273E+06         0.00000E+00
    0.98273E+06        -0.50235E+08         0.00000E+00
    0.00000E+00         0.00000E+00        -0.38483E+08
 
   -0.38952E+08         0.10518E+07         0.00000E+00
    0.10518E+07        -0.50254E+08         0.00000E+00
    0.00000E+00         0.00000E+00        -0.38485E+08
 
   -0.38944E+08         0.11229E+07         0.00000E+00
    0.11229E+07        -0.50274E+08         0.00000E+00
    0.00000E+00         0.00000E+00        -0.38486E+08
 
   -0.38934E+08         0.11961E+07         0.00000E+00
    0.11961E+07        -0.50295E+08         0.00000E+00
    0.00000E+00         0.00000E+00        -0.38487E+08
 
   -0.38923E+08         0.12713E+07         0.00000E+00
    0.12713E+07        -0.50315E+08         0.00000E+00
    0.00000E+00         0.00000E+00        -0.38488E+08
 
   -0.38910E+08         0.13486E+07         0.00000E+00
    0.13486E+07        -0.50335E+08         0.00000E+00
    0.00000E+00         0.00000E+00        -0.38488E+08
 
   -0.38896E+08         0.14280E+07         0.00000E+00
    0.14280E+07        -0.50356E+08         0.00000E+00
    0.00000E+00         0.00000E+00        -0.38488E+08
 
   -0.38881E+08         0.15094E+07         0.00000E+00
    0.15094E+07        -0.50376E+08         0.00000E+00
    0.00000E+00         0.00000E+00        -0.38488E+08
 
   -0.38866E+08         0.15929E+07         0.00000E+00
    0.15929E+07        -0.50396E+08         0.00000E+00
    0.00000E+00         0.00000E+00        -0.38488E+08
 
   -0.38849E+08         0.16785E+07         0.00000E+00
    0.16785E+07        -0.50417E+08         0.00000E+00
    0.00000E+00         0.00000E+00        -0.38488E+08
 
   -0.38832E+08         0.17661E+07         0.00000E+00
    0.17661E+07        -0.50437E+08         0.00000E+00
    0.00000E+00         0.00000E+00        -0.38487E+08
 
   -0.38814E+08         0.18557E+07         0.00000E+00
    0.18557E+07        -0.50456E+08         0.00000E+00
    0.00000E+00         0.00000E+00        -0.38486E+08
 
   -0.38795E+08         0.19474E+07         0.00000E+00
    0.19474E+07        -0.50476E+08         0.00000E+00
    0.00000E+00         0.00000E+00        -0.38486E+08
 
   -0.38776E+08         0.20411E+07         0.00000E+00
    0.20411E+07        -0.50495E+08         0.00000E+00
    0.00000E+00         0.00000E+00        -0.38485E+08
 
   -0.38757E+08         0.21368E+07         0.00000E+00
    0.21368E+07        -0.50513E+08         0.00000E+00
    0.00000E+00         0.00000E+00        -0.38484E+08
 
   -0.38737E+08         0.22345E+07         0.00000E+00
    0.22345E+07        -0.50532E+08         0.00000E+00
    0.00000E+00         0.00000E+00        -0.38482E+08
 
   -0.38718E+08         0.23342E+07         0.00000E+00
    0.23342E+07        -0.50549E+08         0.00000E+00
    0.00000E+00         0.00000E+00        -0.38481E+08
 
   -0.38698E+08         0.24358E+07         0.00000E+00
    0.24358E+07        -0.50567E+08         0.00000E+00
    0.00000E+00         0.00000E+00        -0.38480E+08
 
   -0.38678E+08         0.25394E+07         0.00000E+00
    0.25394E+07        -0.50583E+08         0.00000E+00
    0.00000E+00         0.00000E+00        -0.38478E+08
 
   -0.38658E+08         0.26449E+07         0.00000E+00
    0.26449E+07        -0.50599E+08         0.00000E+00
    0.00000E+00         0.00000E+00        -0.38477E+08
 
   -0.38639E+08         0.27523E+07         0.00000E+00
    0.27523E+07        -0.50615E+08         0.00000E+00
    0.00000E+00         0.00000E+00        -0.38475E+08
 
   -0.38619E+08         0.28615E+07         0.00000E+00
    0.28615E+07        -0.50630E+08         0.00000E+00
    0.00000E+00         0.00000E+00        -0.38474E+08
 
   -0.38600E+08         0.29726E+07         0.00000E+00
    0.29726E+07        -0.50644E+08         0.00000E+00
    0.00000E+00         0.00000E+00        -0.38472E+08
 
   -0.38582E+08         0.30856E+07         0.00000E+00
    0.30856E+07        -0.50657E+08         0.00000E+00
    0.00000E+00         0.00000E+00        -0.38471E+08
 
   -0.38563E+08         0.32003E+07         0.00000E+00
    0.32003E+07        -0.50669E+08         0.00000E+00
    0.00000E+00         0.00000E+00        -0.38469E+08
 
   -0.38546E+08         0.33168E+07         0.00000E+00
    0.33168E+07        -0.50681E+08         0.00000E+00
    0.00000E+00         0.00000E+00        -0.38467E+08
 
   -0.38528E+08         0.34351E+07         0.00000E+00
    0.34351E+07        -0.50692E+08         0.00000E+00
    0.00000E+00         0.00000E+00        -0.38466E+08
 
   -0.38512E+08         0.35551E+07         0.00000E+00
    0.35551E+07        -0.50702E+08         0.00000E+00
    0.00000E+00         0.00000E+00        -0.38464E+08
 
   -0.38496E+08         0.36768E+07         0.00000E+00
    0.36768E+07        -0.50711E+08         0.00000E+00
    0.00000E+00         0.00000E+00        -0.38462E+08
 
   -0.38480E+08         0.38001E+07         0.00000E+00
    0.38001E+07        -0.50719E+08         0.00000E+00
    0.00000E+00         0.00000E+00        -0.38461E+08
 
   -0.38466E+08         0.39251E+07         0.00000E+00
    0.39251E+07        -0.50726E+08         0.00000E+00
    0.00000E+00         0.00000E+00        -0.38459E+08
 
   -0.38425E+08         0.12620E+05         0.00000E+00
    0.12620E+05        -0.49999E+08         0.00000E+00
    0.00000E+00         0.00000E+00        -0.37797E+08
 
   -0.38470E+08         0.41041E+05         0.00000E+00
    0.41041E+05        -0.50001E+08         0.00000E+00
    0.00000E+00         0.00000E+00        -0.37807E+08
 
   -0.38511E+08         0.70957E+05         0.00000E+00
    0.70957E+05        -0.50005E+08         0.00000E+00
    0.00000E+00         0.00000E+00        -0.37815E+08
 
   -0.38547E+08         0.10246E+06         0.00000E+00
    0.10246E+06        -0.50011E+08         0.00000E+00
    0.00000E+00         0.00000E+00        -0.37823E+08
 
   -0.38578E+08         0.13565E+06         0.00000E+00
    0.13565E+06        -0.50018E+08         0.00000E+00
    0.00000E+00         0.00000E+00        -0.37831E+08
 
   -0.38605E+08         0.17060E+06         0.00000E+00
    0.17060E+06        -0.50027E+08         0.00000E+00
    0.00000E+00         0.00000E+00        -0.37837E+08
 
   -0.38627E+08         0.20739E+06         0.00000E+00
    0.20739E+06        -0.50037E+08         0.00000E+00
    0.00000E+00         0.00000E+00        -0.37843E+08
 
   -0.38646E+08         0.24609E+06         0.00000E+00
    0.24609E+06        -0.50049E+08         0.00000E+00
    0.00000E+00         0.00000E+00        -0.37849E+08
 
   -0.38661E+08         0.28676E+06         0.00000E+00
    0.28676E+06        -0.50062E+08         0.00000E+00
    0.00000E+00         0.00000E+00        -0.37854E+08
 
   -0.38672E+08         0.32946E+06         0.00000E+00
    0.32946E+06        -0.50077E+08         0.00000E+00
    0.00000E+00         0.00000E+00        -0.37858E+08
 
   -0.38680E+08         0.37425E+06         0.00000E+00
    0.37425E+06        -0.50092E+08         0.00000E+00
    0.00000E+00         0.00000E+00        -0.37862E+08
 
   -0.38685E+08         0.42117E+06         0.00000E+00
    0.42117E+06        -0.50109E+08         0.00000E+00
    0.00000E+00         0.00000E+00        -0.37865E+08
 
   -0.38686E+08         0.47026E+06         0.00000E+00
    0.47026E+06        -0.50127E+08         0.00000E+00
    0.00000E+00         0.00000E+00        -0.37868E+08
 
   -0.38684E+08         0.52156E+06         0.00000E+00
    0.52156E+06        -0.50145E+08         0.00000E+00
    0.00000E+00         0.00000E+00        -0.37871E+08
 
   -0.38680E+08         0.57511E+06         0.00000E+00
    0.57511E+06        -0.50165E+08         0.00000E+00
    0.00000E+00         0.00000E+00        -0.37873E+08
 
   -0.38673E+08         0.63093E+06         0.00000E+00
    0.63093E+06        -0.50185E+08         0.00000E+00
    0.00000E+00         0.00000E+00        -0.37874E+08
 
   -0.38664E+08         0.68904E+06         0.00000E+00
    0.68904E+06        -0.50206E+08         0.00000E+00
    0.00000E+00         0.00000E+00        -0.37876E+08
 
   -0.38652E+08         0.74947E+06         0.00000E+00
    0.74947E+06        -0.50227E+08         0.00000E+00
    0.00000E+00         0.00000E+00        -0.37877E+08
 
   -0.38638E+08         0.81223E+06         0.00000E+00
    0.81223E+06        -0.50249E+08         0.00000E+00
    0.00000E+00         0.00000E+00        -0.37877E+08
 
   -0.38623E+08         0.87734E+06         0.00000E+00
    0.87734E+06        -0.50272E+08         0.00000E+00
    0.00000E+00         0.00000E+00        -0.37877E+08
 
   -0.38605E+08         0.94481E+06         0.00000E+00
    0.94481E+06        -0.50295E+08         0.00000E+00
    0.00000E+00         0.00000E+00        -0.37877E+08
 
   -0.38586E+08         0.10146E+07         0.00000E+00
    0.10146E+07        -0.50318E+08         0.00000E+00
    0.00000E+00         0.00000E+00        -0.37877E+08
 
   -0.38565E+08         0.10868E+07         0.00000E+00
    0.10868E+07        -0.50341E+08         0.00000E+00
    0.00000E+00         0.00000E+00        -0.37876E+08
 
   -0.38542E+08         0.11614E+07         0.00000E+00
    0.11614E+07        -0.50365E+08         0.00000E+00
    0.00000E+00         0.00000E+00        -0.37876E+08
 
   -0.38519E+08         0.12383E+07         0.00000E+00
    0.12383E+07        -0.50388E+08         0.00000E+00
    0.00000E+00         0.00000E+00        -0.37875E+08
 
   -0.38494E+08         0.13176E+07         0.00000E+00
    0.13176E+07        -0.50412E+08         0.00000E+00
    0.00000E+00         0.00000E+00        -0.37873E+08
 
   -0.38468E+08         0.13992E+07         0.00000E+00
    0.13992E+07        -0.50436E+08         0.00000E+00
    0.00000E+00         0.00000E+00        -0.37872E+08
 
   -0.38441E+08         0.14832E+07         0.00000E+00
    0.14832E+07        -0.50460E+08         0.00000E+00
    0.00000E+00         0.00000E+00        -0.37870E+08
 
   -0.38414E+08         0.15695E+07         0.00000E+00
    0.15695E+07        -0.50483E+08         0.00000E+00
    0.00000E+00         0.00000E+00        -0.37868E+08
 
   -0.38386E+08         0.16582E+07         0.00000E+00
    0.16582E+07        -0.50507E+08         0.00000E+00
    0.00000E+00         0.00000E+00        -0.37866E+08
 
   -0.38357E+08         0.17491E+07         0.00000E+00
    0.17491E+07        -0.50530E+08         0.00000E+00
    0.00000E+00         0.00000E+00        -0.37864E+08
 
   -0.38328E+08         0.18423E+07         0.00000E+00
    0.18423E+07        -0.50553E+08         0.00000E+00
    0.00000E+00         0.00000E+00        -0.37862E+08
 
   -0.38298E+08         0.19378E+07         0.00000E+00
    0.19378E+07        -0.50576E+08         0.00000E+00
    0.00000E+00         0.00000E+00        -0.37860E+08
 
   -0.38268E+08         0.20356E+07         0.00000E+00
    0.20356E+07        -0.50598E+08         0.00000E+00
    0.00000E+00         0.00000E+00        -0.37857E+08
 
   -0.38238E+08         0.21355E+07         0.00000E+00
    0.21355E+07        -0.50620E+08         0.00000E+00
    0.00000E+00         0.00000E+00        -0.37855E+08
 
   -0.38208E+08         0.22377E+07         0.00000E+00
    0.22377E+07        -0.50641E+08         0.00000E+00
    0.00000E+00         0.00000E+00        -0.37852E+08
 
   -0.38178E+08         0.23420E+07         0.00000E+00
    0.23420E+07        -0.50662E+08         0.00000E+00
    0.00000E+00         0.00000E+00        -0.37850E+08
 
   -0.38148E+08         0.24485E+07         0.00000E+00
    0.24485E+07        -0.50682E+08         0.00000E+00
    0.00000E+00         0.00000E+00        -0.37847E+08
 
   -0.38118E+08         0.25571E+07         0.00000E+00
    0.25571E+07        -0.50702E+08         0.00000E+00
    0.00000E+00         0.00000E+00        -0.37844E+08
 
   -0.38089E+08         0.26678E+07         0.00000E+00
    0.26678E+07        -0.50721E+08         0.00000E+00
    0.00000E+00         0.00000E+00        -0.37841E+08
 
   -0.38060E+08         0.27806E+07         0.00000E+00
    0.27806E+07        -0.50740E+08         0.00000E+00
    0.00000E+00         0.00000E+00        -0.37839E+08
 
   -0.38031E+08         0.28954E+07         0.00000E+00
    0.28954E+07        -0.50757E+08         0.00000E+00
    0.00000E+00         0.00000E+00        -0.37836E+08
 
   -0.38003E+08         0.30122E+07         0.00000E+00
    0.30122E+07        -0.50774E+08         0.00000E+00
    0.00000E+00         0.00000E+00        -0.37833E+08
 
   -0.37975E+08         0.31309E+07         0.00000E+00
    0.31309E+07        -0.50791E+08         0.00000E+00
    0.00000E+00         0.00000E+00        -0.37830E+08
 
   -0.37948E+08         0.32516E+07         0.00000E+00
    0.32516E+07        -0.50806E+08         0.00000E+00
    0.00000E+00         0.00000E+00        -0.37828E+08
 
   -0.37922E+08         0.33742E+07         0.00000E+00
    0.33742E+07        -0.50820E+08         0.00000E+00
    0.00000E+00         0.00000E+00        -0.37825E+08
 
   -0.37896E+08         0.34986E+07         0.00000E+00
    0.34986E+07        -0.50834E+08         0.00000E+00
    0.00000E+00         0.00000E+00        -0.37822E+08
 
   -0.37872E+08         0.36248E+07         0.00000E+00
    0.36248E+07        -0.50847E+08         0.00000E+00
    0.00000E+00         0.00000E+00        -0.37820E+08
 
   -0.37848E+08         0.37529E+07         0.00000E+00
    0.37529E+07        -0.50858E+08         0.00000E+00
    0.00000E+00         0.00000E+00        -0.37817E+08
 
   -0.37825E+08         0.38827E+07         0.00000E+00
    0.38827E+07        -0.50869E+08         0.00000E+00
    0.00000E+00         0.00000E+00        -0.37815E+08
 
   -0.38312E+08         0.69456E+04         0.00000E+00
    0.69456E+04        -0.49999E+08         0.00000E+00
    0.00000E+00         0.00000E+00        -0.37207E+08
 
   -0.38349E+08         0.25164E+05         0.00000E+00
    0.25164E+05        -0.50001E+08         0.00000E+00
    0.00000E+00         0.00000E+00        -0.37215E+08
 
   -0.38381E+08         0.45365E+05         0.00000E+00
    0.45365E+05        -0.50006E+08         0.00000E+00
    0.00000E+00         0.00000E+00        -0.37222E+08
 
   -0.38407E+08         0.67645E+05         0.00000E+00
    0.67645E+05        -0.50012E+08         0.00000E+00
    0.00000E+00         0.00000E+00        -0.37228E+08
 
   -0.38428E+08         0.92091E+05         0.00000E+00
    0.92091E+05        -0.50021E+08         0.00000E+00
    0.00000E+00         0.00000E+00        -0.37234E+08
 
   -0.38445E+08         0.11878E+06         0.00000E+00
    0.11878E+06        -0.50031E+08         0.00000E+00
    0.00000E+00         0.00000E+00        -0.37238E+08
 
   -0.38457E+08         0.14779E+06         0.00000E+00
    0.14779E+06        -0.50043E+08         0.00000E+00
    0.00000E+00         0.00000E+00        -0.37243E+08
 
   -0.38465E+08         0.17917E+06         0.00000E+00
    0.17917E+06        -0.50056E+08         0.00000E+00
    0.00000E+00         0.00000E+00        -0.37246E+08
 
   -0.38469E+08         0.21300E+06         0.00000E+00
    0.21300E+06        -0.50071E+08         0.00000E+00
    0.00000E+00         0.00000E+00        -0.37250E+08
 
   -0.38469E+08         0.24931E+06         0.00000E+00
    0.24931E+06        -0.50088E+08         0.00000E+00
    0.00000E+00         0.00000E+00        -0.37252E+08
 
   -0.38465E+08         0.28816E+06         0.00000E+00
    0.28816E+06        -0.50106E+08         0.00000E+00
    0.00000E+00         0.00000E+00        -0.37254E+08
 
   -0.38458E+08         0.32958E+06         0.00000E+00
    0.32958E+06        -0.50125E+08         0.00000E+00
    0.00000E+00         0.00000E+00        -0.37256E+08
 
   -0.38447E+08         0.37360E+06         0.00000E+00
    0.37360E+06        -0.50145E+08         0.00000E+00
    0.00000E+00         0.00000E+00        -0.37257E+08
 
   -0.38433E+08         0.42027E+06         0.00000E+00
    0.42027E+06        -0.50166E+08         0.00000E+00
    0.00000E+00         0.00000E+00        -0.37257E+08
 
   -0.38417E+08         0.46959E+06         0.00000E+00
    0.46959E+06        -0.50188E+08         0.00000E+00
    0.00000E+00         0.00000E+00        -0.37257E+08
 
   -0.38397E+08         0.52159E+06         0.00000E+00
    0.52159E+06        -0.50211E+08         0.00000E+00
    0.00000E+00         0.00000E+00        -0.37257E+08
 
   -0.38376E+08         0.57628E+06         0.00000E+00
    0.57628E+06        -0.50234E+08         0.00000E+00
    0.00000E+00         0.00000E+00        -0.37257E+08
 
   -0.38351E+08         0.63367E+06         0.00000E+00
    0.63367E+06        -0.50259E+08         0.00000E+00
    0.00000E+00         0.00000E+00        -0.37256E+08
 
   -0.38325E+08         0.69377E+06         0.00000E+00
    0.69377E+06        -0.50284E+08         0.00000E+00
    0.00000E+00         0.00000E+00        -0.37254E+08
 
   -0.38297E+08         0.75659E+06         0.00000E+00
    0.75659E+06        -0.50309E+08         0.00000E+00
    0.00000E+00         0.00000E+00        -0.37253E+08
 
   -0.38266E+08         0.82211E+06         0.00000E+00
    0.82211E+06        -0.50335E+08         0.00000E+00
    0.00000E+00         0.00000E+00        -0.37251E+08
 
   -0.38234E+08         0.89035E+06         0.00000E+00
    0.89035E+06        -0.50361E+08         0.00000E+00
    0.00000E+00         0.00000E+00        -0.37249E+08
 
   -0.38201E+08         0.96129E+06         0.00000E+00
    0.96129E+06        -0.50388E+08         0.00000E+00
    0.00000E+00         0.00000E+00        -0.37246E+08
 
   -0.38166E+08         0.10349E+07         0.00000E+00
    0.10349E+07        -0.50415E+08         0.00000E+00
    0.00000E+00         0.00000E+00        -0.37244E+08
 
   -0.38129E+08         0.11113E+07         0.00000E+00
    0.11113E+07        -0.50442E+08         0.00000E+00
    0.00000E+00         0.00000E+00        -0.37241E+08
 
   -0.38092E+08         0.11902E+07         0.00000E+00
    0.11902E+07        -0.50469E+08         0.00000E+00
    0.00000E+00         0.00000E+00        -0.37238E+08
 
   -0.38054E+08         0.12719E+07         0.00000E+00
    0.12719E+07        -0.50496E+08         0.00000E+00
    0.00000E+00         0.00000E+00        -0.37235E+08
 
   -0.38015E+08         0.13562E+07         0.00000E+00
    0.13562E+07        -0.50523E+08         0.00000E+00
    0.00000E+00         0.00000E+00        -0.37231E+08
 
   -0.37975E+08         0.14431E+07         0.00000E+00
    0.14431E+07        -0.50550E+08         0.00000E+00
    0.00000E+00         0.00000E+00        -0.37228E+08
 
   -0.37934E+08         0.15326E+07         0.00000E+00
    0.15326E+07        -0.50577E+08         0.00000E+00
    0.00000E+00         0.00000E+00        -0.37224E+08
 
   -0.37893E+08         0.16247E+07         0.00000E+00
    0.16247E+07        -0.50604E+08         0.00000E+00
    0.00000E+00         0.00000E+00        -0.37220E+08
 
   -0.37852E+08         0.17193E+07         0.00000E+00
    0.17193E+07        -0.50631E+08         0.00000E+00
    0.00000E+00         0.00000E+00        -0.37216E+08
 
   -0.37810E+08         0.18165E+07         0.00000E+00
    0.18165E+07        -0.50657E+08         0.00000E+00
    0.00000E+00         0.00000E+00        -0.37213E+08
 
   -0.37769E+08         0.19161E+07         0.00000E+00
    0.19161E+07        -0.50683E+08         0.00000E+00
    0.00000E+00         0.00000E+00        -0.37209E+08
 
   -0.37727E+08         0.20182E+07         0.00000E+00
    0.20182E+07        -0.50708E+08         0.00000E+00
    0.00000E+00         0.00000E+00        -0.37205E+08
 
   -0.37685E+08         0.21228E+07         0.00000E+00
    0.21228E+07        -0.50734E+08         0.00000E+00
    0.00000E+00         0.00000E+00        -0.37200E+08
 
   -0.37644E+08         0.22297E+07         0.00000E+00
    0.22297E+07        -0.50758E+08         0.00000E+00
    0.00000E+00         0.00000E+00        -0.37196E+08
 
   -0.37603E+08         0.23391E+07         0.00000E+00
    0.23391E+07        -0.50782E+08         0.00000E+00
    0.00000E+00         0.00000E+00        -0.37192E+08
 
   -0.37562E+08         0.24507E+07         0.00000E+00
    0.24507E+07        -0.50806E+08         0.00000E+00
    0.00000E+00         0.00000E+00        -0.37188E+08
 
   -0.37522E+08         0.25647E+07         0.00000E+00
    0.25647E+07        -0.50829E+08         0.00000E+00
    0.00000E+00         0.00000E+00        -0.37184E+08
 
   -0.37482E+08         0.26809E+07         0.00000E+00
    0.26809E+07        -0.50851E+08         0.00000E+00
    0.00000E+00         0.00000E+00        -0.37180E+08
 
   -0.37443E+08         0.27993E+07         0.00000E+00
    0.27993E+07        -0.50872E+08         0.00000E+00
    0.00000E+00         0.00000E+00        -0.37176E+08
 
   -0.37404E+08         0.29199E+07         0.00000E+00
    0.29199E+07        -0.50893E+08         0.00000E+00
    0.00000E+00         0.00000E+00        -0.37172E+08
 
   -0.37366E+08         0.30427E+07         0.00000E+00
    0.30427E+07        -0.50913E+08         0.00000E+00
    0.00000E+00         0.00000E+00        -0.37168E+08
 
   -0.37330E+08         0.31675E+07         0.00000E+00
    0.31675E+07        -0.50932E+08         0.00000E+00
    0.00000E+00         0.00000E+00        -0.37164E+08
 
   -0.37294E+08         0.32944E+07         0.00000E+00
    0.32944E+07        -0.50951E+08         0.00000E+00
    0.00000E+00         0.00000E+00        -0.37160E+08
 
   -0.37258E+08         0.34233E+07         0.00000E+00
    0.34233E+07        -0.50968E+08         0.00000E+00
    0.00000E+00         0.00000E+00        -0.37156E+08
 
   -0.37224E+08         0.35541E+07         0.00000E+00
    0.35541E+07        -0.50985E+08         0.00000E+00
    0.00000E+00         0.00000E+00        -0.37153E+08
 
   -0.37191E+08         0.36868E+07         0.00000E+00
    0.36868E+07        -0.51000E+08         0.00000E+00
    0.00000E+00         0.00000E+00        -0.37149E+08
 
   -0.37159E+08         0.38214E+07         0.00000E+00
    0.38214E+07        -0.51015E+08         0.00000E+00
    0.00000E+00         0.00000E+00        -0.37146E+08
 
   -0.38255E+08         0.43729E+03         0.00000E+00
    0.43729E+03        -0.49999E+08         0.00000E+00
    0.00000E+00         0.00000E+00        -0.36607E+08
 
   -0.38281E+08         0.70403E+04         0.00000E+00
    0.70403E+04        -0.50001E+08         0.00000E+00
    0.00000E+00         0.00000E+00        -0.36613E+08
 
   -0.38301E+08         0.16220E+05         0.00000E+00
    0.16220E+05        -0.50007E+08         0.00000E+00
    0.00000E+00         0.00000E+00        -0.36618E+08
 
   -0.38315E+08         0.28064E+05         0.00000E+00
    0.28064E+05        -0.50014E+08         0.00000E+00
    0.00000E+00         0.00000E+00        -0.36622E+08
 
   -0.38324E+08         0.42652E+05         0.00000E+00
    0.42652E+05        -0.50023E+08         0.00000E+00
    0.00000E+00         0.00000E+00        -0.36625E+08
 
   -0.38328E+08         0.60054E+05         0.00000E+00
    0.60054E+05        -0.50035E+08         0.00000E+00
    0.00000E+00         0.00000E+00        -0.36628E+08
 
   -0.38327E+08         0.80332E+05         0.00000E+00
    0.80332E+05        -0.50048E+08         0.00000E+00
    0.00000E+00         0.00000E+00        -0.36630E+08
 
   -0.38322E+08         0.10354E+06         0.00000E+00
    0.10354E+06        -0.50064E+08         0.00000E+00
    0.00000E+00         0.00000E+00        -0.36631E+08
 
   -0.38312E+08         0.12972E+06         0.00000E+00
    0.12972E+06        -0.50080E+08         0.00000E+00
    0.00000E+00         0.00000E+00        -0.36632E+08
 
   -0.38298E+08         0.15892E+06         0.00000E+00
    0.15892E+06        -0.50099E+08         0.00000E+00
    0.00000E+00         0.00000E+00        -0.36632E+08
 
   -0.38280E+08         0.19117E+06         0.00000E+00
    0.19117E+06        -0.50119E+08         0.00000E+00
    0.00000E+00         0.00000E+00        -0.36632E+08
 
   -0.38259E+08         0.22648E+06         0.00000E+00
    0.22648E+06        -0.50140E+08         0.00000E+00
    0.00000E+00         0.00000E+00        -0.36631E+08
 
   -0.38234E+08         0.26489E+06         0.00000E+00
    0.26489E+06        -0.50162E+08         0.00000E+00
    0.00000E+00         0.00000E+00        -0.36630E+08
 
   -0.38206E+08         0.30641E+06         0.00000E+00
    0.30641E+06        -0.50186E+08         0.00000E+00
    0.00000E+00         0.00000E+00        -0.36628E+08
 
   -0.38175E+08         0.35104E+06         0.00000E+00
    0.35104E+06        -0.50210E+08         0.00000E+00
    0.00000E+00         0.00000E+00        -0.36626E+08
 
   -0.38141E+08         0.39879E+06         0.00000E+00
    0.39879E+06        -0.50236E+08         0.00000E+00
    0.00000E+00         0.00000E+00        -0.36624E+08
 
   -0.38104E+08         0.44967E+06         0.00000E+00
    0.44967E+06        -0.50262E+08         0.00000E+00
    0.00000E+00         0.00000E+00        -0.36621E+08
 
   -0.38066E+08         0.50366E+06         0.00000E+00
    0.50366E+06        -0.50289E+08         0.00000E+00
    0.00000E+00         0.00000E+00        -0.36618E+08
 
   -0.38025E+08         0.56076E+06         0.00000E+00
    0.56076E+06        -0.50317E+08         0.00000E+00
    0.00000E+00         0.00000E+00        -0.36614E+08
 
   -0.37982E+08         0.62096E+06         0.00000E+00
    0.62096E+06        -0.50345E+08         0.00000E+00
    0.00000E+00         0.00000E+00        -0.36610E+08
 
   -0.37937E+08         0.68425E+06         0.00000E+00
    0.68425E+06        -0.50374E+08         0.00000E+00
    0.00000E+00         0.00000E+00        -0.36606E+08
 
   -0.37891E+08         0.75061E+06         0.00000E+00
    0.75061E+06        -0.50403E+08         0.00000E+00
    0.00000E+00         0.00000E+00        -0.36602E+08
 
   -0.37843E+08         0.82003E+06         0.00000E+00
    0.82003E+06        -0.50433E+08         0.00000E+00
    0.00000E+00         0.00000E+00        -0.36597E+08
 
   -0.37793E+08         0.89248E+06         0.00000E+00
    0.89248E+06        -0.50462E+08         0.00000E+00
    0.00000E+00         0.00000E+00        -0.36593E+08
 
   -0.37743E+08         0.96795E+06         0.00000E+00
    0.96795E+06        -0.50493E+08         0.00000E+00
    0.00000E+00         0.00000E+00        -0.36588E+08
 
   -0.37692E+08         0.10464E+07         0.00000E+00
    0.10464E+07        -0.50523E+08         0.00000E+00
    0.00000E+00         0.00000E+00        -0.36582E+08
 
   -0.37639E+08         0.11278E+07         0.00000E+00
    0.11278E+07        -0.50553E+08         0.00000E+00
    0.00000E+00         0.00000E+00        -0.36577E+08
 
   -0.37586E+08         0.12122E+07         0.00000E+00
    0.12122E+07        -0.50584E+08         0.00000E+00
    0.00000E+00         0.00000E+00        -0.36572E+08
 
   -0.37533E+08         0.12994E+07         0.00000E+00
    0.12994E+07        -0.50614E+08         0.00000E+00
    0.00000E+00         0.00000E+00        -0.36566E+08
 
   -0.37478E+08         0.13896E+07         0.00000E+00
    0.13896E+07        -0.50645E+08         0.00000E+00
    0.00000E+00         0.00000E+00        -0.36561E+08
 
   -0.37424E+08         0.14826E+07         0.00000E+00
    0.14826E+07        -0.50675E+08         0.00000E+00
    0.00000E+00         0.00000E+00        -0.36555E+08
 
   -0.37369E+08         0.15784E+07         0.00000E+00
    0.15784E+07        -0.50705E+08         0.00000E+00
    0.00000E+00         0.00000E+00        -0.36549E+08
 
   -0.37315E+08         0.16770E+07         0.00000E+00
    0.16770E+07        -0.50735E+08         0.00000E+00
    0.00000E+00         0.00000E+00        -0.36544E+08
 
   -0.37260E+08         0.17784E+07         0.00000E+00
    0.17784E+07        -0.50764E+08         0.00000E+00
    0.00000E+00         0.00000E+00        -0.36538E+08
 
   -0.37205E+08         0.18825E+07         0.00000E+00
    0.18825E+07        -0.50793E+08         0.00000E+00
    0.00000E+00         0.00000E+00        -0.36532E+08
 
   -0.37151E+08         0.19892E+07         0.00000E+00
    0.19892E+07        -0.50822E+08         0.00000E+00
    0.00000E+00         0.00000E+00        -0.36526E+08
 
   -0.37097E+08         0.20986E+07         0.00000E+00
    0.20986E+07        -0.50851E+08         0.00000E+00
    0.00000E+00         0.00000E+00        -0.36521E+08
 
   -0.37044E+08         0.22106E+07         0.00000E+00
    0.22106E+07        -0.50878E+08         0.00000E+00
    0.00000E+00         0.00000E+00        -0.36515E+08
 
   -0.36991E+08         0.23252E+07         0.00000E+00
    0.23252E+07        -0.50906E+08         0.00000E+00
    0.00000E+00         0.00000E+00        -0.36509E+08
 
   -0.36938E+08         0.24423E+07         0.00000E+00
    0.24423E+07        -0.50933E+08         0.00000E+00
    0.00000E+00         0.00000E+00        -0.36503E+08
 
   -0.36887E+08         0.25618E+07         0.00000E+00
    0.25618E+07        -0.50959E+08         0.00000E+00
    0.00000E+00         0.00000E+00        -0.36498E+08
 
   -0.36836E+08         0.26838E+07         0.00000E+00
    0.26838E+07        -0.50984E+08         0.00000E+00
    0.00000E+00         0.00000E+00        -0.36492E+08
 
   -0.36786E+08         0.28081E+07         0.00000E+00
    0.28081E+07        -0.51009E+08         0.00000E+00
    0.00000E+00         0.00000E+00        -0.36487E+08
 
   -0.36738E+08         0.29348E+07         0.00000E+00
    0.29348E+07        -0.51033E+08         0.00000E+00
    0.00000E+00         0.00000E+00        -0.36482E+08
 
   -0.36690E+08         0.30637E+07         0.00000E+00
    0.30637E+07        -0.51056E+08         0.00000E+00
    0.00000E+00         0.00000E+00        -0.36476E+08
 
   -0.36644E+08         0.31949E+07         0.00000E+00
    0.31949E+07        -0.51078E+08         0.00000E+00
    0.00000E+00         0.00000E+00        -0.36471E+08
 
   -0.36598E+08         0.33282E+07         0.00000E+00
    0.33282E+07        -0.51100E+08         0.00000E+00
    0.00000E+00         0.00000E+00        -0.36466E+08
 
   -0.36554E+08         0.34635E+07         0.00000E+00
    0.34635E+07        -0.51121E+08         0.00000E+00
    0.00000E+00         0.00000E+00        -0.36461E+08
 
   -0.36512E+08         0.36009E+07         0.00000E+00
    0.36009E+07        -0.51140E+08         0.00000E+00
    0.00000E+00         0.00000E+00        -0.36457E+08
 
   -0.36470E+08         0.37403E+07         0.00000E+00
    0.37403E+07        -0.51159E+08         0.00000E+00
    0.00000E+00         0.00000E+00        -0.36452E+08
 
   -0.38261E+08        -0.69193E+04         0.00000E+00
   -0.69193E+04        -0.49999E+08         0.00000E+00
    0.00000E+00         0.00000E+00        -0.36001E+08
 
   -0.38273E+08        -0.13324E+05         0.00000E+00
   -0.13324E+05        -0.50002E+08         0.00000E+00
    0.00000E+00         0.00000E+00        -0.36004E+08
 
   -0.38278E+08        -0.16439E+05         0.00000E+00
   -0.16439E+05        -0.50007E+08         0.00000E+00
    0.00000E+00         0.00000E+00        -0.36006E+08
 
   -0.38277E+08        -0.16189E+05         0.00000E+00
   -0.16189E+05        -0.50016E+08         0.00000E+00
    0.00000E+00         0.00000E+00        -0.36007E+08
 
   -0.38270E+08        -0.12508E+05         0.00000E+00
   -0.12508E+05        -0.50026E+08         0.00000E+00
    0.00000E+00         0.00000E+00        -0.36008E+08
 
   -0.38258E+08        -0.53413E+04         0.00000E+00
   -0.53413E+04        -0.50039E+08         0.00000E+00
    0.00000E+00         0.00000E+00        -0.36008E+08
 
   -0.38241E+08         0.53548E+04         0.00000E+00
    0.53548E+04        -0.50054E+08         0.00000E+00
    0.00000E+00         0.00000E+00        -0.36007E+08
 
   -0.38220E+08         0.19616E+05         0.00000E+00
    0.19616E+05        -0.50070E+08         0.00000E+00
    0.00000E+00         0.00000E+00        -0.36005E+08
 
   -0.38193E+08         0.37471E+05         0.00000E+00
    0.37471E+05        -0.50089E+08         0.00000E+00
    0.00000E+00         0.00000E+00        -0.36003E+08
 
   -0.38163E+08         0.58937E+05         0.00000E+00
    0.58937E+05        -0.50109E+08         0.00000E+00
    0.00000E+00         0.00000E+00        -0.36001E+08
 
   -0.38128E+08         0.84026E+05         0.00000E+00
    0.84026E+05        -0.50131E+08         0.00000E+00
    0.00000E+00         0.00000E+00        -0.35997E+08
 
   -0.38090E+08         0.11274E+06         0.00000E+00
    0.11274E+06        -0.50154E+08         0.00000E+00
    0.00000E+00         0.00000E+00        -0.35994E+08
 
   -0.38048E+08         0.14509E+06         0.00000E+00
    0.14509E+06        -0.50178E+08         0.00000E+00
    0.00000E+00         0.00000E+00        -0.35990E+08
 
   -0.38003E+08         0.18106E+06         0.00000E+00
    0.18106E+06        -0.50204E+08         0.00000E+00
    0.00000E+00         0.00000E+00        -0.35985E+08
 
   -0.37956E+08         0.22063E+06         0.00000E+00
    0.22063E+06        -0.50230E+08         0.00000E+00
    0.00000E+00         0.00000E+00        -0.35980E+08
 
   -0.37905E+08         0.26380E+06         0.00000E+00
    0.26380E+06        -0.50258E+08         0.00000E+00
    0.00000E+00         0.00000E+00        -0.35975E+08
 
   -0.37852E+08         0.31054E+06         0.00000E+00
    0.31054E+06        -0.50287E+08         0.00000E+00
    0.00000E+00         0.00000E+00        -0.35969E+08
 
   -0.37797E+08         0.36084E+06         0.00000E+00
    0.36084E+06        -0.50316E+08         0.00000E+00
    0.00000E+00         0.00000E+00        -0.35963E+08
 
   -0.37739E+08         0.41465E+06         0.00000E+00
    0.41465E+06        -0.50346E+08         0.00000E+00
    0.00000E+00         0.00000E+00        -0.35957E+08
 
   -0.37680E+08         0.47197E+06         0.00000E+00
    0.47197E+06        -0.50377E+08         0.00000E+00
    0.00000E+00         0.00000E+00        -0.35951E+08
 
   -0.37619E+08         0.53275E+06         0.00000E+00
    0.53275E+06        -0.50408E+08         0.00000E+00
    0.00000E+00         0.00000E+00        -0.35944E+08
 
   -0.37556E+08         0.59696E+06         0.00000E+00
    0.59696E+06        -0.50440E+08         0.00000E+00
    0.00000E+00         0.00000E+00        -0.35937E+08
 
   -0.37492E+08         0.66458E+06         0.00000E+00
    0.66458E+06        -0.50472E+08         0.00000E+00
    0.00000E+00         0.00000E+00        -0.35930E+08
 
   -0.37427E+08         0.73557E+06         0.00000E+00
    0.73557E+06        -0.50504E+08         0.00000E+00
    0.00000E+00         0.00000E+00        -0.35923E+08
 
   -0.37361E+08         0.80989E+06         0.00000E+00
    0.80989E+06        -0.50537E+08         0.00000E+00
    0.00000E+00         0.00000E+00        -0.35915E+08
 
   -0.37294E+08         0.88751E+06         0.00000E+00
    0.88751E+06        -0.50570E+08         0.00000E+00
    0.00000E+00         0.00000E+00        -0.35908E+08
 
   -0.37226E+08         0.96839E+06         0.00000E+00
    0.96839E+06        -0.50604E+08         0.00000E+00
    0.00000E+00         0.00000E+00        -0.35900E+08
 
   -0.37157E+08         0.10525E+07         0.00000E+00
    0.10525E+07        -0.50637E+08         0.00000E+00
    0.00000E+00         0.00000E+00        -0.35892E+08
 
   -0.37089E+08         0.11398E+07         0.00000E+00
    0.11398E+07        -0.50670E+08         0.00000E+00
    0.00000E+00         0.00000E+00        -0.35885E+08
 
   -0.37020E+08         0.12303E+07         0.00000E+00
    0.12303E+07        -0.50704E+08         0.00000E+00
    0.00000E+00         0.00000E+00        -0.35877E+08
 
   -0.36950E+08         0.13239E+07         0.00000E+00
    0.13239E+07        -0.50737E+08         0.00000E+00
    0.00000E+00         0.00000E+00        -0.35869E+08
 
   -0.36881E+08         0.14205E+07         0.00000E+00
    0.14205E+07        -0.50770E+08         0.00000E+00
    0.00000E+00         0.00000E+00        -0.35861E+08
 
   -0.36812E+08         0.15203E+07         0.00000E+00
    0.15203E+07        -0.50803E+08         0.00000E+00
    0.00000E+00         0.00000E+00        -0.35853E+08
 
   -0.36743E+08         0.16230E+07         0.00000E+00
    0.16230E+07        -0.50836E+08         0.00000E+00
    0.00000E+00         0.00000E+00        -0.35845E+08
 
   -0.36674E+08         0.17287E+07         0.00000E+00
    0.17287E+07        -0.50869E+08         0.00000E+00
    0.00000E+00         0.00000E+00        -0.35838E+08
 
   -0.36606E+08         0.18373E+07         0.00000E+00
    0.18373E+07        -0.50901E+08         0.00000E+00
    0.00000E+00         0.00000E+00        -0.35830E+08
 
   -0.36538E+08         0.19488E+07         0.00000E+00
    0.19488E+07        -0.50933E+08         0.00000E+00
    0.00000E+00         0.00000E+00        -0.35822E+08
 
   -0.36471E+08         0.20632E+07         0.00000E+00
    0.20632E+07        -0.50965E+08         0.00000E+00
    0.00000E+00         0.00000E+00        -0.35815E+08
 
   -0.36405E+08         0.21804E+07         0.00000E+00
    0.21804E+07        -0.50996E+08         0.00000E+00
    0.00000E+00         0.00000E+00        -0.35807E+08
 
   -0.36340E+08         0.23003E+07         0.00000E+00
    0.23003E+07        -0.51027E+08         0.00000E+00
    0.00000E+00         0.00000E+00        -0.35800E+08
 
   -0.36275E+08         0.24229E+07         0.00000E+00
    0.24229E+07        -0.51057E+08         0.00000E+00
    0.00000E+00         0.00000E+00        -0.35792E+08
 
   -0.36212E+08         0.25482E+07         0.00000E+00
    0.25482E+07        -0.51086E+08         0.00000E+00
    0.00000E+00         0.00000E+00        -0.35785E+08
 
   -0.36150E+08         0.26761E+07         0.00000E+00
    0.26761E+07        -0.51115E+08         0.00000E+00
    0.00000E+00         0.00000E+00        -0.35778E+08
 
   -0.36089E+08         0.28065E+07         0.00000E+00
    0.28065E+07        -0.51143E+08         0.00000E+00
    0.00000E+00         0.00000E+00        -0.35771E+08
 
   -0.36030E+08         0.29394E+07         0.00000E+00
    0.29394E+07        -0.51171E+08         0.00000E+00
    0.00000E+00         0.00000E+00        -0.35765E+08
 
   -0.35972E+08         0.30746E+07         0.00000E+00
    0.30746E+07        -0.51197E+08         0.00000E+00
    0.00000E+00         0.00000E+00        -0.35758E+08
 
   -0.35916E+08         0.32123E+07         0.00000E+00
    0.32123E+07        -0.51223E+08         0.00000E+00
    0.00000E+00         0.00000E+00        -0.35752E+08
 
   -0.35861E+08         0.33522E+07         0.00000E+00
    0.33522E+07        -0.51248E+08         0.00000E+00
    0.00000E+00         0.00000E+00        -0.35746E+08
 
   -0.35808E+08         0.34943E+07         0.00000E+00
    0.34943E+07        -0.51272E+08         0.00000E+00
    0.00000E+00         0.00000E+00        -0.35740E+08
 
   -0.35757E+08         0.36385E+07         0.00000E+00
    0.36385E+07        -0.51295E+08         0.00000E+00
    0.00000E+00         0.00000E+00        -0.35734E+08
 
   -0.38338E+08        -0.15103E+05         0.00000E+00
   -0.15103E+05        -0.49999E+08         0.00000E+00
    0.00000E+00         0.00000E+00        -0.35391E+08
 
   -0.38331E+08        -0.35814E+05         0.00000E+00
   -0.35814E+05        -0.50002E+08         0.00000E+00
    0.00000E+00         0.00000E+00        -0.35391E+08
 
   -0.38317E+08        -0.52379E+05         0.00000E+00
   -0.52379E+05        -0.50008E+08         0.00000E+00
    0.00000E+00         0.00000E+00        -0.35389E+08
 
   -0.38297E+08        -0.64743E+05         0.00000E+00
   -0.64743E+05        -0.50017E+08         0.00000E+00
    0.00000E+00         0.00000E+00        -0.35387E+08
 
   -0.38272E+08        -0.72866E+05         0.00000E+00
   -0.72866E+05        -0.50029E+08         0.00000E+00
    0.00000E+00         0.00000E+00        -0.35383E+08
 
   -0.38240E+08        -0.76718E+05         0.00000E+00
   -0.76718E+05        -0.50042E+08         0.00000E+00
    0.00000E+00         0.00000E+00        -0.35380E+08
 
   -0.38204E+08        -0.76280E+05         0.00000E+00
   -0.76280E+05        -0.50058E+08         0.00000E+00
    0.00000E+00         0.00000E+00        -0.35375E+08
 
   -0.38162E+08        -0.71545E+05         0.00000E+00
   -0.71545E+05        -0.50076E+08         0.00000E+00
    0.00000E+00         0.00000E+00        -0.35370E+08
 
   -0.38116E+08        -0.62515E+05         0.00000E+00
   -0.62515E+05        -0.50096E+08         0.00000E+00
    0.00000E+00         0.00000E+00        -0.35364E+08
 
   -0.38066E+08        -0.49201E+05         0.00000E+00
   -0.49201E+05        -0.50118E+08         0.00000E+00
    0.00000E+00         0.00000E+00        -0.35358E+08
 
   -0.38012E+08        -0.31622E+05         0.00000E+00
   -0.31622E+05        -0.50141E+08         0.00000E+00
    0.00000E+00         0.00000E+00        -0.35352E+08
 
   -0.37954E+08        -0.98045E+04         0.00000E+00
   -0.98045E+04        -0.50165E+08         0.00000E+00
    0.00000E+00         0.00000E+00        -0.35345E+08
 
   -0.37893E+08         0.16220E+05         0.00000E+00
    0.16220E+05        -0.50191E+08         0.00000E+00
    0.00000E+00         0.00000E+00        -0.35337E+08
 
   -0.37828E+08         0.46414E+05         0.00000E+00
    0.46414E+05        -0.50218E+08         0.00000E+00
    0.00000E+00         0.00000E+00        -0.35329E+08
 
   -0.37761E+08         0.80734E+05         0.00000E+00
    0.80734E+05        -0.50246E+08         0.00000E+00
    0.00000E+00         0.00000E+00        -0.35321E+08
 
   -0.37692E+08         0.11914E+06         0.00000E+00
    0.11914E+06        -0.50276E+08         0.00000E+00
    0.00000E+00         0.00000E+00        -0.35312E+08
 
   -0.37620E+08         0.16157E+06         0.00000E+00
    0.16157E+06        -0.50306E+08         0.00000E+00
    0.00000E+00         0.00000E+00        -0.35303E+08
 
   -0.37546E+08         0.20799E+06         0.00000E+00
    0.20799E+06        -0.50337E+08         0.00000E+00
    0.00000E+00         0.00000E+00        -0.35294E+08
 
   -0.37470E+08         0.25833E+06         0.00000E+00
    0.25833E+06        -0.50368E+08         0.00000E+00
    0.00000E+00         0.00000E+00        -0.35285E+08
 
   -0.37392E+08         0.31255E+06         0.00000E+00
    0.31255E+06        -0.50401E+08         0.00000E+00
    0.00000E+00         0.00000E+00        -0.35275E+08
 
   -0.37313E+08         0.37060E+06         0.00000E+00
    0.37060E+06        -0.50434E+08         0.00000E+00
    0.00000E+00         0.00000E+00        -0.35265E+08
 
   -0.37232E+08         0.43242E+06         0.00000E+00
    0.43242E+06        -0.50467E+08         0.00000E+00
    0.00000E+00         0.00000E+00        -0.35255E+08
 
   -0.37151E+08         0.49796E+06         0.00000E+00
    0.49796E+06        -0.50501E+08         0.00000E+00
    0.00000E+00         0.00000E+00        -0.35245E+08
 
   -0.37068E+08         0.56717E+06         0.00000E+00
    0.56717E+06        -0.50536E+08         0.00000E+00
    0.00000E+00         0.00000E+00        -0.35235E+08
 
   -0.36984E+08         0.64000E+06         0.00000E+00
    0.64000E+06        -0.50570E+08         0.00000E+00
    0.00000E+00         0.00000E+00        -0.35225E+08
 
   -0.36900E+08         0.71640E+06         0.00000E+00
    0.71640E+06        -0.50605E+08         0.00000E+00
    0.00000E+00         0.00000E+00        -0.35214E+08
 
   -0.36816E+08         0.79633E+06         0.00000E+00
    0.79633E+06        -0.50641E+08         0.00000E+00
    0.00000E+00         0.00000E+00        -0.35204E+08
 
   -0.36730E+08         0.87975E+06         0.00000E+00
    0.87975E+06        -0.50676E+08         0.00000E+00
    0.00000E+00         0.00000E+00        -0.35193E+08
 
   -0.36645E+08         0.96662E+06         0.00000E+00
    0.96662E+06        -0.50712E+08         0.00000E+00
    0.00000E+00         0.00000E+00        -0.35183E+08
 
   -0.36560E+08         0.10569E+07         0.00000E+00
    0.10569E+07        -0.50748E+08         0.00000E+00
    0.00000E+00         0.00000E+00        -0.35172E+08
 
   -0.36474E+08         0.11505E+07         0.00000E+00
    0.11505E+07        -0.50784E+08         0.00000E+00
    0.00000E+00         0.00000E+00        -0.35162E+08
 
   -0.36389E+08         0.12475E+07         0.00000E+00
    0.12475E+07        -0.50820E+08         0.00000E+00
    0.00000E+00         0.00000E+00        -0.35152E+08
 
   -0.36304E+08         0.13477E+07         0.00000E+00
    0.13477E+07        -0.50856E+08         0.00000E+00
    0.00000E+00         0.00000E+00        -0.35141E+08
 
   -0.36219E+08         0.14512E+07         0.00000E+00
    0.14512E+07        -0.50891E+08         0.00000E+00
    0.00000E+00         0.00000E+00        -0.35131E+08
 
   -0.36135E+08         0.15580E+07         0.00000E+00
    0.15580E+07        -0.50927E+08         0.00000E+00
    0.00000E+00         0.00000E+00        -0.35121E+08
 
   -0.36052E+08         0.16679E+07         0.00000E+00
    0.16679E+07        -0.50963E+08         0.00000E+00
    0.00000E+00         0.00000E+00        -0.35111E+08
 
   -0.35969E+08         0.17809E+07         0.00000E+00
    0.17809E+07        -0.50998E+08         0.00000E+00
    0.00000E+00         0.00000E+00        -0.35101E+08
 
   -0.35888E+08         0.18971E+07         0.00000E+00
    0.18971E+07        -0.51034E+08         0.00000E+00
    0.00000E+00         0.00000E+00        -0.35092E+08
 
   -0.35807E+08         0.20163E+07         0.00000E+00
    0.20163E+07        -0.51068E+08         0.00000E+00
    0.00000E+00         0.00000E+00        -0.35082E+08
 
   -0.35727E+08         0.21386E+07         0.00000E+00
    0.21386E+07        -0.51103E+08         0.00000E+00
    0.00000E+00         0.00000E+00        -0.35073E+08
 
   -0.35649E+08         0.22638E+07         0.00000E+00
    0.22638E+07        -0.51137E+08         0.00000E+00
    0.00000E+00         0.00000E+00        -0.35063E+08
 
   -0.35572E+08         0.23919E+07         0.00000E+00
    0.23919E+07        -0.51171E+08         0.00000E+00
    0.00000E+00         0.00000E+00        -0.35054E+08
 
   -0.35496E+08         0.25229E+07         0.00000E+00
    0.25229E+07        -0.51204E+08         0.00000E+00
    0.00000E+00         0.00000E+00        -0.35046E+08
 
   -0.35422E+08         0.26567E+07         0.00000E+00
    0.26567E+07        -0.51236E+08         0.00000E+00
    0.00000E+00         0.00000E+00        -0.35037E+08
 
   -0.35350E+08         0.27933E+07         0.00000E+00
    0.27933E+07        -0.51268E+08         0.00000E+00
    0.00000E+00         0.00000E+00        -0.35029E+08
 
   -0.35280E+08         0.29325E+07         0.00000E+00
    0.29325E+07        -0.51299E+08         0.00000E+00
    0.00000E+00         0.00000E+00        -0.35021E+08
 
   -0.35211E+08         0.30743E+07         0.00000E+00
    0.30743E+07        -0.51330E+08         0.00000E+00
    0.00000E+00         0.00000E+00        -0.35013E+08
 
   -0.35145E+08         0.32187E+07         0.00000E+00
    0.32187E+07        -0.51359E+08         0.00000E+00
    0.00000E+00         0.00000E+00        -0.35006E+08
 
   -0.35081E+08         0.33654E+07         0.00000E+00
    0.33654E+07        -0.51388E+08         0.00000E+00
    0.00000E+00         0.00000E+00        -0.34998E+08
 
   -0.35019E+08         0.35145E+07         0.00000E+00
    0.35145E+07        -0.51416E+08         0.00000E+00
    0.00000E+00         0.00000E+00        -0.34991E+08
 
   -0.38491E+08        -0.24052E+05         0.00000E+00
   -0.24052E+05        -0.49999E+08         0.00000E+00
    0.00000E+00         0.00000E+00        -0.34780E+08
 
   -0.38461E+08        -0.60172E+05         0.00000E+00
   -0.60172E+05        -0.50002E+08         0.00000E+00
    0.00000E+00         0.00000E+00        -0.34775E+08
 
   -0.38424E+08        -0.91119E+05         0.00000E+00
   -0.91119E+05        -0.50009E+08         0.00000E+00
    0.00000E+00         0.00000E+00        -0.34769E+08
 
   -0.38381E+08        -0.11687E+06         0.00000E+00
   -0.11687E+06        -0.50018E+08         0.00000E+00
    0.00000E+00         0.00000E+00        -0.34762E+08
 
   -0.38331E+08        -0.13743E+06         0.00000E+00
   -0.13743E+06        -0.50030E+08         0.00000E+00
    0.00000E+00         0.00000E+00        -0.34754E+08
 
   -0.38276E+08        -0.15279E+06         0.00000E+00
   -0.15279E+06        -0.50045E+08         0.00000E+00
    0.00000E+00         0.00000E+00        -0.34746E+08
 
   -0.38216E+08        -0.16298E+06         0.00000E+00
   -0.16298E+06        -0.50062E+08         0.00000E+00
    0.00000E+00         0.00000E+00        -0.34737E+08
 
   -0.38151E+08        -0.16803E+06         0.00000E+00
   -0.16803E+06        -0.50080E+08         0.00000E+00
    0.00000E+00         0.00000E+00        -0.34728E+08
 
   -0.38082E+08        -0.16800E+06         0.00000E+00
   -0.16800E+06        -0.50101E+08         0.00000E+00
    0.00000E+00         0.00000E+00        -0.34718E+08
 
   -0.38009E+08        -0.16293E+06         0.00000E+00
   -0.16293E+06        -0.50123E+08         0.00000E+00
    0.00000E+00         0.00000E+00        -0.34707E+08
 
   -0.37931E+08        -0.15289E+06         0.00000E+00
   -0.15289E+06        -0.50147E+08         0.00000E+00
    0.00000E+00         0.00000E+00        -0.34696E+08
 
   -0.37851E+08        -0.13796E+06         0.00000E+00
   -0.13796E+06        -0.50173E+08         0.00000E+00
    0.00000E+00         0.00000E+00        -0.34685E+08
 
   -0.37767E+08        -0.11820E+06         0.00000E+00
   -0.11820E+06        -0.50199E+08         0.00000E+00
    0.00000E+00         0.00000E+00        -0.34673E+08
 
   -0.37681E+08        -0.93717E+05         0.00000E+00
   -0.93717E+05        -0.50227E+08         0.00000E+00
    0.00000E+00         0.00000E+00        -0.34661E+08
 
   -0.37592E+08        -0.64582E+05         0.00000E+00
   -0.64582E+05        -0.50256E+08         0.00000E+00
    0.00000E+00         0.00000E+00        -0.34649E+08
 
   -0.37501E+08        -0.30890E+05         0.00000E+00
   -0.30890E+05        -0.50285E+08         0.00000E+00
    0.00000E+00         0.00000E+00        -0.34636E+08
 
   -0.37408E+08         0.72709E+04         0.00000E+00
    0.72709E+04        -0.50316E+08         0.00000E+00
    0.00000E+00         0.00000E+00        -0.34623E+08
 
   -0.37313E+08         0.49810E+05         0.00000E+00
    0.49810E+05        -0.50347E+08         0.00000E+00
    0.00000E+00         0.00000E+00        -0.34610E+08
 
   -0.37217E+08         0.96640E+05         0.00000E+00
    0.96640E+05        -0.50379E+08         0.00000E+00
    0.00000E+00         0.00000E+00        -0.34597E+08
 
   -0.37119E+08         0.14767E+06         0.00000E+00
    0.14767E+06        -0.50412E+08         0.00000E+00
    0.00000E+00         0.00000E+00        -0.34584E+08
 
   -0.37020E+08         0.20283E+06         0.00000E+00
    0.20283E+06        -0.50446E+08         0.00000E+00
    0.00000E+00         0.00000E+00        -0.34570E+08
 
   -0.36920E+08         0.26202E+06         0.00000E+00
    0.26202E+06        -0.50479E+08         0.00000E+00
    0.00000E+00         0.00000E+00        -0.34557E+08
 
   -0.36820E+08         0.32519E+06         0.00000E+00
    0.32519E+06        -0.50514E+08         0.00000E+00
    0.00000E+00         0.00000E+00        -0.34543E+08
 
   -0.36718E+08         0.39225E+06         0.00000E+00
    0.39225E+06        -0.50549E+08         0.00000E+00
    0.00000E+00         0.00000E+00        -0.34529E+08
 
   -0.36616E+08         0.46314E+06         0.00000E+00
    0.46314E+06        -0.50584E+08         0.00000E+00
    0.00000E+00         0.00000E+00        -0.34516E+08
 
   -0.36514E+08         0.53780E+06         0.00000E+00
    0.53780E+06        -0.50620E+08         0.00000E+00
    0.00000E+00         0.00000E+00        -0.34502E+08
 
   -0.36411E+08         0.61619E+06         0.00000E+00
    0.61619E+06        -0.50656E+08         0.00000E+00
    0.00000E+00         0.00000E+00        -0.34489E+08
 
   -0.36308E+08         0.69824E+06         0.00000E+00
    0.69824E+06        -0.50693E+08         0.00000E+00
    0.00000E+00         0.00000E+00        -0.34475E+08
 
   -0.36205E+08         0.78392E+06         0.00000E+00
    0.78392E+06        -0.50730E+08         0.00000E+00
    0.00000E+00         0.00000E+00        -0.34461E+08
 
   -0.36102E+08         0.87319E+06         0.00000E+00
    0.87319E+06        -0.50767E+08         0.00000E+00
    0.00000E+00         0.00000E+00        -0.34448E+08
 
   -0.36000E+08         0.96601E+06         0.00000E+00
    0.96601E+06        -0.50805E+08         0.00000E+00
    0.00000E+00         0.00000E+00        -0.34435E+08
 
   -0.35897E+08         0.10624E+07         0.00000E+00
    0.10624E+07        -0.50843E+08         0.00000E+00
    0.00000E+00         0.00000E+00        -0.34421E+08
 
   -0.35795E+08         0.11622E+07         0.00000E+00
    0.11622E+07        -0.50881E+08         0.00000E+00
    0.00000E+00         0.00000E+00        -0.34408E+08
 
   -0.35694E+08         0.12655E+07         0.00000E+00
    0.12655E+07        -0.50919E+08         0.00000E+00
    0.00000E+00         0.00000E+00        -0.34395E+08
 
   -0.35593E+08         0.13723E+07         0.00000E+00
    0.13723E+07        -0.50957E+08         0.00000E+00
    0.00000E+00         0.00000E+00        -0.34383E+08
 
   -0.35494E+08         0.14825E+07         0.00000E+00
    0.14825E+07        -0.50996E+08         0.00000E+00
    0.00000E+00         0.00000E+00        -0.34370E+08
 
   -0.35395E+08         0.15961E+07         0.00000E+00
    0.15961E+07        -0.51034E+08         0.00000E+00
    0.00000E+00         0.00000E+00        -0.34358E+08
 
   -0.35297E+08         0.17131E+07         0.00000E+00
    0.17131E+07        -0.51073E+08         0.00000E+00
    0.00000E+00         0.00000E+00        -0.34346E+08
 
   -0.35200E+08         0.18334E+07         0.00000E+00
    0.18334E+07        -0.51111E+08         0.00000E+00
    0.00000E+00         0.00000E+00        -0.34334E+08
 
   -0.35105E+08         0.19571E+07         0.00000E+00
    0.19571E+07        -0.51150E+08         0.00000E+00
    0.00000E+00         0.00000E+00        -0.34322E+08
 
   -0.35011E+08         0.20840E+07         0.00000E+00
    0.20840E+07        -0.51188E+08         0.00000E+00
    0.00000E+00         0.00000E+00        -0.34311E+08
 
   -0.34918E+08         0.22142E+07         0.00000E+00
    0.22142E+07        -0.51226E+08         0.00000E+00
    0.00000E+00         0.00000E+00        -0.34300E+08
 
   -0.34828E+08         0.23477E+07         0.00000E+00
    0.23477E+07        -0.51264E+08         0.00000E+00
    0.00000E+00         0.00000E+00        -0.34289E+08
 
   -0.34739E+08         0.24843E+07         0.00000E+00
    0.24843E+07        -0.51301E+08         0.00000E+00
    0.00000E+00         0.00000E+00        -0.34279E+08
 
   -0.34653E+08         0.26240E+07         0.00000E+00
    0.26240E+07        -0.51337E+08         0.00000E+00
    0.00000E+00         0.00000E+00        -0.34268E+08
 
   -0.34568E+08         0.27667E+07         0.00000E+00
    0.27667E+07        -0.51374E+08         0.00000E+00
    0.00000E+00         0.00000E+00        -0.34259E+08
 
   -0.34486E+08         0.29124E+07         0.00000E+00
    0.29124E+07        -0.51409E+08         0.00000E+00
    0.00000E+00         0.00000E+00        -0.34249E+08
 
   -0.34407E+08         0.30609E+07         0.00000E+00
    0.30609E+07        -0.51444E+08         0.00000E+00
    0.00000E+00         0.00000E+00        -0.34240E+08
 
   -0.34330E+08         0.32122E+07         0.00000E+00
    0.32122E+07        -0.51477E+08         0.00000E+00
    0.00000E+00         0.00000E+00        -0.34232E+08
 
   -0.34256E+08         0.33662E+07         0.00000E+00
    0.33662E+07        -0.51510E+08         0.00000E+00
    0.00000E+00         0.00000E+00        -0.34223E+08
 
   -0.38726E+08        -0.33659E+05         0.00000E+00
   -0.33659E+05        -0.49999E+08         0.00000E+00
    0.00000E+00         0.00000E+00        -0.34171E+08
 
   -0.38668E+08        -0.85977E+05         0.00000E+00
   -0.85977E+05        -0.50003E+08         0.00000E+00
    0.00000E+00         0.00000E+00        -0.34160E+08
 
   -0.38602E+08        -0.13189E+06         0.00000E+00
   -0.13189E+06        -0.50009E+08         0.00000E+00
    0.00000E+00         0.00000E+00        -0.34149E+08
 
   -0.38530E+08        -0.17141E+06         0.00000E+00
   -0.17141E+06        -0.50019E+08         0.00000E+00
    0.00000E+00         0.00000E+00        -0.34136E+08
 
   -0.38452E+08        -0.20459E+06         0.00000E+00
   -0.20459E+06        -0.50032E+08         0.00000E+00
    0.00000E+00         0.00000E+00        -0.34123E+08
 
   -0.38368E+08        -0.23148E+06         0.00000E+00
   -0.23148E+06        -0.50046E+08         0.00000E+00
    0.00000E+00         0.00000E+00        -0.34109E+08
 
   -0.38280E+08        -0.25219E+06         0.00000E+00
   -0.25219E+06        -0.50063E+08         0.00000E+00
    0.00000E+00         0.00000E+00        -0.34095E+08
 
   -0.38187E+08        -0.26679E+06         0.00000E+00
   -0.26679E+06        -0.50082E+08         0.00000E+00
    0.00000E+00         0.00000E+00        -0.34080E+08
 
   -0.38090E+08        -0.27540E+06         0.00000E+00
   -0.27540E+06        -0.50103E+08         0.00000E+00
    0.00000E+00         0.00000E+00        -0.34064E+08
 
   -0.37990E+08        -0.27814E+06         0.00000E+00
   -0.27814E+06        -0.50125E+08         0.00000E+00
    0.00000E+00         0.00000E+00        -0.34049E+08
 
   -0.37886E+08        -0.27516E+06         0.00000E+00
   -0.27516E+06        -0.50149E+08         0.00000E+00
    0.00000E+00         0.00000E+00        -0.34033E+08
 
   -0.37780E+08        -0.26659E+06         0.00000E+00
   -0.26659E+06        -0.50173E+08         0.00000E+00
    0.00000E+00         0.00000E+00        -0.34016E+08
 
   -0.37671E+08        -0.25259E+06         0.00000E+00
   -0.25259E+06        -0.50199E+08         0.00000E+00
    0.00000E+00         0.00000E+00        -0.33999E+08
 
   -0.37560E+08        -0.23330E+06         0.00000E+00
   -0.23330E+06        -0.50226E+08         0.00000E+00
    0.00000E+00         0.00000E+00        -0.33982E+08
 
   -0.37447E+08        -0.20887E+06         0.00000E+00
   -0.20887E+06        -0.50254E+08         0.00000E+00
    0.00000E+00         0.00000E+00        -0.33965E+08
 
   -0.37332E+08        -0.17947E+06         0.00000E+00
   -0.17947E+06        -0.50283E+08         0.00000E+00
    0.00000E+00         0.00000E+00        -0.33948E+08
 
   -0.37216E+08        -0.14523E+06         0.00000E+00
   -0.14523E+06        -0.50312E+08         0.00000E+00
    0.00000E+00         0.00000E+00        -0.33931E+08
 
   -0.37099E+08        -0.10630E+06         0.00000E+00
   -0.10630E+06        -0.50342E+08         0.00000E+00
    0.00000E+00         0.00000E+00        -0.33913E+08
 
   -0.36981E+08        -0.62830E+05         0.00000E+00
   -0.62830E+05        -0.50373E+08         0.00000E+00
    0.00000E+00         0.00000E+00        -0.33895E+08
 
   -0.36862E+08        -0.14940E+05         0.00000E+00
   -0.14940E+05        -0.50404E+08         0.00000E+00
    0.00000E+00         0.00000E+00        -0.33878E+08
 
   -0.36742E+08         0.37243E+05         0.00000E+00
    0.37243E+05        -0.50436E+08         0.00000E+00
    0.00000E+00         0.00000E+00        -0.33860E+08
 
   -0.36622E+08         0.93608E+05         0.00000E+00
    0.93608E+05        -0.50468E+08         0.00000E+00
    0.00000E+00         0.00000E+00        -0.33842E+08
 
   -0.36501E+08         0.15405E+06         0.00000E+00
    0.15405E+06        -0.50501E+08         0.00000E+00
    0.00000E+00         0.00000E+00        -0.33825E+08
 
   -0.36380E+08         0.21848E+06         0.00000E+00
    0.21848E+06        -0.50535E+08         0.00000E+00
    0.00000E+00         0.00000E+00        -0.33807E+08
 
   -0.36259E+08         0.28681E+06         0.00000E+00
    0.28681E+06        -0.50569E+08         0.00000E+00
    0.00000E+00         0.00000E+00        -0.33790E+08
 
   -0.36137E+08         0.35898E+06         0.00000E+00
    0.35898E+06        -0.50604E+08         0.00000E+00
    0.00000E+00         0.00000E+00        -0.33772E+08
 
   -0.36016E+08         0.43492E+06         0.00000E+00
    0.43492E+06        -0.50640E+08         0.00000E+00
    0.00000E+00         0.00000E+00        -0.33755E+08
 
   -0.35895E+08         0.51459E+06         0.00000E+00
    0.51459E+06        -0.50676E+08         0.00000E+00
    0.00000E+00         0.00000E+00        -0.33738E+08
 
   -0.35773E+08         0.59796E+06         0.00000E+00
    0.59796E+06        -0.50712E+08         0.00000E+00
    0.00000E+00         0.00000E+00        -0.33721E+08
 
   -0.35653E+08         0.68498E+06         0.00000E+00
    0.68498E+06        -0.50749E+08         0.00000E+00
    0.00000E+00         0.00000E+00        -0.33704E+08
 
   -0.35532E+08         0.77565E+06         0.00000E+00
    0.77565E+06        -0.50787E+08         0.00000E+00
    0.00000E+00         0.00000E+00        -0.33687E+08
 
   -0.35412E+08         0.86995E+06         0.00000E+00
    0.86995E+06        -0.50826E+08         0.00000E+00
    0.00000E+00         0.00000E+00        -0.33671E+08
 
   -0.35292E+08         0.96789E+06         0.00000E+00
    0.96789E+06        -0.50865E+08         0.00000E+00
    0.00000E+00         0.00000E+00        -0.33654E+08
 
   -0.35173E+08         0.10695E+07         0.00000E+00
    0.10695E+07        -0.50905E+08         0.00000E+00
    0.00000E+00         0.00000E+00        -0.33638E+08
 
   -0.35055E+08         0.11747E+07         0.00000E+00
    0.11747E+07        -0.50945E+08         0.00000E+00
    0.00000E+00         0.00000E+00        -0.33623E+08
 
   -0.34937E+08         0.12835E+07         0.00000E+00
    0.12835E+07        -0.50986E+08         0.00000E+00
    0.00000E+00         0.00000E+00        -0.33607E+08
 
   -0.34820E+08         0.13960E+07         0.00000E+00
    0.13960E+07        -0.51027E+08         0.00000E+00
    0.00000E+00         0.00000E+00        -0.33592E+08
 
   -0.34705E+08         0.15122E+07         0.00000E+00
    0.15122E+07        -0.51068E+08         0.00000E+00
    0.00000E+00         0.00000E+00        -0.33577E+08
 
   -0.34591E+08         0.16321E+07         0.00000E+00
    0.16321E+07        -0.51110E+08         0.00000E+00
    0.00000E+00         0.00000E+00        -0.33563E+08
 
   -0.34478E+08         0.17557E+07         0.00000E+00
    0.17557E+07        -0.51153E+08         0.00000E+00
    0.00000E+00         0.00000E+00        -0.33548E+08
 
   -0.34366E+08         0.18829E+07         0.00000E+00
    0.18829E+07        -0.51195E+08         0.00000E+00
    0.00000E+00         0.00000E+00        -0.33535E+08
 
   -0.34257E+08         0.20139E+07         0.00000E+00
    0.20139E+07        -0.51237E+08         0.00000E+00
    0.00000E+00         0.00000E+00        -0.33521E+08
 
   -0.34149E+08         0.21485E+07         0.00000E+00
    0.21485E+07        -0.51280E+08         0.00000E+00
    0.00000E+00         0.00000E+00        -0.33508E+08
 
   -0.34044E+08         0.22868E+07         0.00000E+00
    0.22868E+07        -0.51322E+08         0.00000E+00
    0.00000E+00         0.00000E+00        -0.33495E+08
 
   -0.33941E+08         0.24287E+07         0.00000E+00
    0.24287E+07        -0.51364E+08         0.00000E+00
    0.00000E+00         0.00000E+00        -0.33483E+08
 
   -0.33840E+08         0.25742E+07         0.00000E+00
    0.25742E+07        -0.51406E+08         0.00000E+00
    0.00000E+00         0.00000E+00        -0.33471E+08
 
   -0.33742E+08         0.27231E+07         0.00000E+00
    0.27231E+07        -0.51447E+08         0.00000E+00
    0.00000E+00         0.00000E+00        -0.33460E+08
 
   -0.33647E+08         0.28755E+07         0.00000E+00
    0.28755E+07        -0.51488E+08         0.00000E+00
    0.00000E+00         0.00000E+00        -0.33449E+08
 
   -0.33555E+08         0.30312E+07         0.00000E+00
    0.30312E+07        -0.51528E+08         0.00000E+00
    0.00000E+00         0.00000E+00        -0.33439E+08
 
   -0.33467E+08         0.31900E+07         0.00000E+00
    0.31900E+07        -0.51567E+08         0.00000E+00
    0.00000E+00         0.00000E+00        -0.33429E+08
 
   -0.39047E+08        -0.43794E+05         0.00000E+00
   -0.43794E+05        -0.49999E+08         0.00000E+00
    0.00000E+00         0.00000E+00        -0.33567E+08
 
   -0.38953E+08        -0.11266E+06         0.00000E+00
   -0.11266E+06        -0.50003E+08         0.00000E+00
    0.00000E+00         0.00000E+00        -0.33549E+08
 
   -0.38851E+08        -0.17356E+06         0.00000E+00
   -0.17356E+06        -0.50010E+08         0.00000E+00
    0.00000E+00         0.00000E+00        -0.33530E+08
 
   -0.38744E+08        -0.22663E+06         0.00000E+00
   -0.22663E+06        -0.50020E+08         0.00000E+00
    0.00000E+00         0.00000E+00        -0.33511E+08
 
   -0.38631E+08        -0.27197E+06         0.00000E+00
   -0.27197E+06        -0.50032E+08         0.00000E+00
    0.00000E+00         0.00000E+00        -0.33491E+08
 
   -0.38513E+08        -0.30971E+06         0.00000E+00
   -0.30971E+06        -0.50046E+08         0.00000E+00
    0.00000E+00         0.00000E+00        -0.33470E+08
 
   -0.38391E+08        -0.34003E+06         0.00000E+00
   -0.34003E+06        -0.50063E+08         0.00000E+00
    0.00000E+00         0.00000E+00        -0.33449E+08
 
   -0.38266E+08        -0.36313E+06         0.00000E+00
   -0.36313E+06        -0.50081E+08         0.00000E+00
    0.00000E+00         0.00000E+00        -0.33428E+08
 
   -0.38137E+08        -0.37922E+06         0.00000E+00
   -0.37922E+06        -0.50100E+08         0.00000E+00
    0.00000E+00         0.00000E+00        -0.33406E+08
 
   -0.38005E+08        -0.38855E+06         0.00000E+00
   -0.38855E+06        -0.50121E+08         0.00000E+00
    0.00000E+00         0.00000E+00        -0.33384E+08
 
   -0.37872E+08        -0.39135E+06         0.00000E+00
   -0.39135E+06        -0.50142E+08         0.00000E+00
    0.00000E+00         0.00000E+00        -0.33361E+08
 
   -0.37736E+08        -0.38787E+06         0.00000E+00
   -0.38787E+06        -0.50165E+08         0.00000E+00
    0.00000E+00         0.00000E+00        -0.33339E+08
 
   -0.37599E+08        -0.37838E+06         0.00000E+00
   -0.37838E+06        -0.50188E+08         0.00000E+00
    0.00000E+00         0.00000E+00        -0.33316E+08
 
   -0.37461E+08        -0.36312E+06         0.00000E+00
   -0.36312E+06        -0.50212E+08         0.00000E+00
    0.00000E+00         0.00000E+00        -0.33293E+08
 
   -0.37322E+08        -0.34234E+06         0.00000E+00
   -0.34234E+06        -0.50236E+08         0.00000E+00
    0.00000E+00         0.00000E+00        -0.33271E+08
 
   -0.37182E+08        -0.31629E+06         0.00000E+00
   -0.31629E+06        -0.50261E+08         0.00000E+00
    0.00000E+00         0.00000E+00        -0.33248E+08
 
   -0.37042E+08        -0.28521E+06         0.00000E+00
   -0.28521E+06        -0.50287E+08         0.00000E+00
    0.00000E+00         0.00000E+00        -0.33225E+08
 
   -0.36901E+08        -0.24931E+06         0.00000E+00
   -0.24931E+06        -0.50313E+08         0.00000E+00
    0.00000E+00         0.00000E+00        -0.33202E+08
 
   -0.36760E+08        -0.20881E+06         0.00000E+00
   -0.20881E+06        -0.50339E+08         0.00000E+00
    0.00000E+00         0.00000E+00        -0.33179E+08
 
   -0.36619E+08        -0.16388E+06         0.00000E+00
   -0.16388E+06        -0.50366E+08         0.00000E+00
    0.00000E+00         0.00000E+00        -0.33157E+08
 
   -0.36479E+08        -0.11470E+06         0.00000E+00
   -0.11470E+06        -0.50394E+08         0.00000E+00
    0.00000E+00         0.00000E+00        -0.33134E+08
 
   -0.36338E+08        -0.61417E+05         0.00000E+00
   -0.61417E+05        -0.50422E+08         0.00000E+00
    0.00000E+00         0.00000E+00        -0.33112E+08
 
   -0.36197E+08        -0.41727E+04         0.00000E+00
   -0.41727E+04        -0.50451E+08         0.00000E+00
    0.00000E+00         0.00000E+00        -0.33090E+08
 
   -0.36057E+08         0.56925E+05         0.00000E+00
    0.56925E+05        -0.50481E+08         0.00000E+00
    0.00000E+00         0.00000E+00        -0.33068E+08
 
   -0.35916E+08         0.12178E+06         0.00000E+00
    0.12178E+06        -0.50512E+08         0.00000E+00
    0.00000E+00         0.00000E+00        -0.33046E+08
 
   -0.35776E+08         0.19032E+06         0.00000E+00
    0.19032E+06        -0.50543E+08         0.00000E+00
    0.00000E+00         0.00000E+00        -0.33024E+08
 
   -0.35637E+08         0.26249E+06         0.00000E+00
    0.26249E+06        -0.50575E+08         0.00000E+00
    0.00000E+00         0.00000E+00        -0.33003E+08
 
   -0.35497E+08         0.33825E+06         0.00000E+00
    0.33825E+06        -0.50608E+08         0.00000E+00
    0.00000E+00         0.00000E+00        -0.32982E+08
 
   -0.35358E+08         0.41757E+06         0.00000E+00
    0.41757E+06        -0.50643E+08         0.00000E+00
    0.00000E+00         0.00000E+00        -0.32961E+08
 
   -0.35219E+08         0.50046E+06         0.00000E+00
    0.50046E+06        -0.50678E+08         0.00000E+00
    0.00000E+00         0.00000E+00        -0.32940E+08
 
   -0.35080E+08         0.58693E+06         0.00000E+00
    0.58693E+06        -0.50714E+08         0.00000E+00
    0.00000E+00         0.00000E+00        -0.32920E+08
 
   -0.34942E+08         0.67700E+06         0.00000E+00
    0.67700E+06        -0.50752E+08         0.00000E+00
    0.00000E+00         0.00000E+00        -0.32900E+08
 
   -0.34804E+08         0.77071E+06         0.00000E+00
    0.77071E+06        -0.50790E+08         0.00000E+00
    0.00000E+00         0.00000E+00        -0.32880E+08
 
   -0.34666E+08         0.86812E+06         0.00000E+00
    0.86812E+06        -0.50830E+08         0.00000E+00
    0.00000E+00         0.00000E+00        -0.32860E+08
 
   -0.34529E+08         0.96927E+06         0.00000E+00
    0.96927E+06        -0.50871E+08         0.00000E+00
    0.00000E+00         0.00000E+00        -0.32841E+08
 
   -0.34393E+08         0.10743E+07         0.00000E+00
    0.10743E+07        -0.50913E+08         0.00000E+00
    0.00000E+00         0.00000E+00        -0.32822E+08
 
   -0.34257E+08         0.11831E+07         0.00000E+00
    0.11831E+07        -0.50956E+08         0.00000E+00
    0.00000E+00         0.00000E+00        -0.32804E+08
 
   -0.34122E+08         0.12960E+07         0.00000E+00
    0.12960E+07        -0.51001E+08         0.00000E+00
    0.00000E+00         0.00000E+00        -0.32786E+08
 
   -0.33989E+08         0.14129E+07         0.00000E+00
    0.14129E+07        -0.51046E+08         0.00000E+00
    0.00000E+00         0.00000E+00        -0.32768E+08
 
   -0.33856E+08         0.15339E+07         0.00000E+00
    0.15339E+07        -0.51092E+08         0.00000E+00
    0.00000E+00         0.00000E+00        -0.32751E+08
 
   -0.33725E+08         0.16592E+07         0.00000E+00
    0.16592E+07        -0.51139E+08         0.00000E+00
    0.00000E+00         0.00000E+00        -0.32734E+08
 
   -0.33596E+08         0.17887E+07         0.00000E+00
    0.17887E+07        -0.51186E+08         0.00000E+00
    0.00000E+00         0.00000E+00        -0.32718E+08
 
   -0.33468E+08         0.19225E+07         0.00000E+00
    0.19225E+07        -0.51234E+08         0.00000E+00
    0.00000E+00         0.00000E+00        -0.32702E+08
 
   -0.33343E+08         0.20606E+07         0.00000E+00
    0.20606E+07        -0.51283E+08         0.00000E+00
    0.00000E+00         0.00000E+00        -0.32687E+08
 
   -0.33220E+08         0.22031E+07         0.00000E+00
    0.22031E+07        -0.51332E+08         0.00000E+00
    0.00000E+00         0.00000E+00        -0.32672E+08
 
   -0.33100E+08         0.23500E+07         0.00000E+00
    0.23500E+07        -0.51380E+08         0.00000E+00
    0.00000E+00         0.00000E+00        -0.32658E+08
 
   -0.32982E+08         0.25012E+07         0.00000E+00
    0.25012E+07        -0.51429E+08         0.00000E+00
    0.00000E+00         0.00000E+00        -0.32644E+08
 
   -0.32869E+08         0.26566E+07         0.00000E+00
    0.26566E+07        -0.51477E+08         0.00000E+00
    0.00000E+00         0.00000E+00        -0.32631E+08
 
   -0.32759E+08         0.28163E+07         0.00000E+00
    0.28163E+07        -0.51524E+08         0.00000E+00
    0.00000E+00         0.00000E+00        -0.32618E+08
 
   -0.32653E+08         0.29800E+07         0.00000E+00
    0.29800E+07        -0.51571E+08         0.00000E+00
    0.00000E+00         0.00000E+00        -0.32606E+08
 
   -0.39455E+08        -0.54336E+05         0.00000E+00
   -0.54336E+05        -0.49999E+08         0.00000E+00
    0.00000E+00         0.00000E+00        -0.32971E+08
 
   -0.39316E+08        -0.13943E+06         0.00000E+00
   -0.13943E+06        -0.50003E+08         0.00000E+00
    0.00000E+00         0.00000E+00        -0.32944E+08
 
   -0.39170E+08        -0.21471E+06         0.00000E+00
   -0.21471E+06        -0.50010E+08         0.00000E+00
    0.00000E+00         0.00000E+00        -0.32917E+08
 
   -0.39019E+08        -0.28016E+06         0.00000E+00
   -0.28016E+06        -0.50019E+08         0.00000E+00
    0.00000E+00         0.00000E+00        -0.32888E+08
 
   -0.38864E+08        -0.33607E+06         0.00000E+00
   -0.33607E+06        -0.50031E+08         0.00000E+00
    0.00000E+00         0.00000E+00        -0.32860E+08
 
   -0.38705E+08        -0.38277E+06         0.00000E+00
   -0.38277E+06        -0.50044E+08         0.00000E+00
    0.00000E+00         0.00000E+00        -0.32831E+08
 
   -0.38543E+08        -0.42058E+06         0.00000E+00
   -0.42058E+06        -0.50058E+08         0.00000E+00
    0.00000E+00         0.00000E+00        -0.32801E+08
 
   -0.38379E+08        -0.44988E+06         0.00000E+00
   -0.44988E+06        -0.50074E+08         0.00000E+00
    0.00000E+00         0.00000E+00        -0.32772E+08
 
   -0.38213E+08        -0.47103E+06         0.00000E+00
   -0.47103E+06        -0.50090E+08         0.00000E+00
    0.00000E+00         0.00000E+00        -0.32742E+08
 
   -0.38046E+08        -0.48444E+06         0.00000E+00
   -0.48444E+06        -0.50107E+08         0.00000E+00
    0.00000E+00         0.00000E+00        -0.32712E+08
 
   -0.37879E+08        -0.49054E+06         0.00000E+00
   -0.49054E+06        -0.50124E+08         0.00000E+00
    0.00000E+00         0.00000E+00        -0.32683E+08
 
   -0.37711E+08        -0.48977E+06         0.00000E+00
   -0.48977E+06        -0.50141E+08         0.00000E+00
    0.00000E+00         0.00000E+00        -0.32653E+08
 
   -0.37544E+08        -0.48254E+06         0.00000E+00
   -0.48254E+06        -0.50158E+08         0.00000E+00
    0.00000E+00         0.00000E+00        -0.32623E+08
 
   -0.37377E+08        -0.46927E+06         0.00000E+00
   -0.46927E+06        -0.50176E+08         0.00000E+00
    0.00000E+00         0.00000E+00        -0.32594E+08
 
   -0.37210E+08        -0.45037E+06         0.00000E+00
   -0.45037E+06        -0.50193E+08         0.00000E+00
    0.00000E+00         0.00000E+00        -0.32564E+08
 
   -0.37045E+08        -0.42619E+06         0.00000E+00
   -0.42619E+06        -0.50211E+08         0.00000E+00
    0.00000E+00         0.00000E+00        -0.32535E+08
 
   -0.36880E+08        -0.39709E+06         0.00000E+00
   -0.39709E+06        -0.50229E+08         0.00000E+00
    0.00000E+00         0.00000E+00        -0.32506E+08
 
   -0.36717E+08        -0.36338E+06         0.00000E+00
   -0.36338E+06        -0.50247E+08         0.00000E+00
    0.00000E+00         0.00000E+00        -0.32477E+08
 
   -0.36554E+08        -0.32533E+06         0.00000E+00
   -0.32533E+06        -0.50266E+08         0.00000E+00
    0.00000E+00         0.00000E+00        -0.32449E+08
 
   -0.36392E+08        -0.28319E+06         0.00000E+00
   -0.28319E+06        -0.50285E+08         0.00000E+00
    0.00000E+00         0.00000E+00        -0.32421E+08
 
   -0.36231E+08        -0.23718E+06         0.00000E+00
   -0.23718E+06        -0.50305E+08         0.00000E+00
    0.00000E+00         0.00000E+00        -0.32393E+08
 
   -0.36071E+08        -0.18749E+06         0.00000E+00
   -0.18749E+06        -0.50326E+08         0.00000E+00
    0.00000E+00         0.00000E+00        -0.32365E+08
 
   -0.35912E+08        -0.13426E+06         0.00000E+00
   -0.13426E+06        -0.50347E+08         0.00000E+00
    0.00000E+00         0.00000E+00        -0.32338E+08
 
   -0.35754E+08        -0.77614E+05         0.00000E+00
   -0.77614E+05        -0.50370E+08         0.00000E+00
    0.00000E+00         0.00000E+00        -0.32311E+08
 
   -0.35596E+08        -0.17656E+05         0.00000E+00
   -0.17656E+05        -0.50393E+08         0.00000E+00
    0.00000E+00         0.00000E+00        -0.32285E+08
 
   -0.35439E+08         0.45549E+05         0.00000E+00
    0.45549E+05        -0.50418E+08         0.00000E+00
    0.00000E+00         0.00000E+00        -0.32258E+08
 
   -0.35282E+08         0.11196E+06         0.00000E+00
    0.11196E+06        -0.50444E+08         0.00000E+00
    0.00000E+00         0.00000E+00        -0.32233E+08
 
   -0.35125E+08         0.18156E+06         0.00000E+00
    0.18156E+06        -0.50472E+08         0.00000E+00
    0.00000E+00         0.00000E+00        -0.32207E+08
 
   -0.34969E+08         0.25436E+06         0.00000E+00
    0.25436E+06        -0.50501E+08         0.00000E+00
    0.00000E+00         0.00000E+00        -0.32182E+08
 
   -0.34812E+08         0.33039E+06         0.00000E+00
    0.33039E+06        -0.50532E+08         0.00000E+00
    0.00000E+00         0.00000E+00        -0.32157E+08
 
   -0.34656E+08         0.40970E+06         0.00000E+00
    0.40970E+06        -0.50564E+08         0.00000E+00
    0.00000E+00         0.00000E+00        -0.32133E+08
 
   -0.34500E+08         0.49238E+06         0.00000E+00
    0.49238E+06        -0.50599E+08         0.00000E+00
    0.00000E+00         0.00000E+00        -0.32109E+08
 
   -0.34344E+08         0.57852E+06         0.00000E+00
    0.57852E+06        -0.50635E+08         0.00000E+00
    0.00000E+00         0.00000E+00        -0.32085E+08
 
   -0.34188E+08         0.66825E+06         0.00000E+00
    0.66825E+06        -0.50673E+08         0.00000E+00
    0.00000E+00         0.00000E+00        -0.32062E+08
 
   -0.34032E+08         0.76170E+06         0.00000E+00
    0.76170E+06        -0.50714E+08         0.00000E+00
    0.00000E+00         0.00000E+00        -0.32039E+08
 
   -0.33876E+08         0.85902E+06         0.00000E+00
    0.85902E+06        -0.50756E+08         0.00000E+00
    0.00000E+00         0.00000E+00        -0.32016E+08
 
   -0.33721E+08         0.96040E+06         0.00000E+00
    0.96040E+06        -0.50800E+08         0.00000E+00
    0.00000E+00         0.00000E+00        -0.31994E+08
 
   -0.33565E+08         0.10660E+07         0.00000E+00
    0.10660E+07        -0.50846E+08         0.00000E+00
    0.00000E+00         0.00000E+00        -0.31972E+08
 
   -0.33410E+08         0.11761E+07         0.00000E+00
    0.11761E+07        -0.50895E+08         0.00000E+00
    0.00000E+00         0.00000E+00        -0.31951E+08
 
   -0.33255E+08         0.12907E+07         0.00000E+00
    0.12907E+07        -0.50945E+08         0.00000E+00
    0.00000E+00         0.00000E+00        -0.31931E+08
 
   -0.33101E+08         0.14102E+07         0.00000E+00
    0.14102E+07        -0.50996E+08         0.00000E+00
    0.00000E+00         0.00000E+00        -0.31910E+08
 
   -0.32948E+08         0.15347E+07         0.00000E+00
    0.15347E+07        -0.51050E+08         0.00000E+00
    0.00000E+00         0.00000E+00        -0.31891E+08
 
   -0.32797E+08         0.16644E+07         0.00000E+00
    0.16644E+07        -0.51105E+08         0.00000E+00
    0.00000E+00         0.00000E+00        -0.31871E+08
 
   -0.32647E+08         0.17994E+07         0.00000E+00
    0.17994E+07        -0.51161E+08         0.00000E+00
    0.00000E+00         0.00000E+00        -0.31853E+08
 
   -0.32500E+08         0.19398E+07         0.00000E+00
    0.19398E+07        -0.51217E+08         0.00000E+00
    0.00000E+00         0.00000E+00        -0.31835E+08
 
   -0.32355E+08         0.20858E+07         0.00000E+00
    0.20858E+07        -0.51275E+08         0.00000E+00
    0.00000E+00         0.00000E+00        -0.31817E+08
 
   -0.32213E+08         0.22374E+07         0.00000E+00
    0.22374E+07        -0.51333E+08         0.00000E+00
    0.00000E+00         0.00000E+00        -0.31801E+08
 
   -0.32075E+08         0.23947E+07         0.00000E+00
    0.23947E+07        -0.51391E+08         0.00000E+00
    0.00000E+00         0.00000E+00        -0.31785E+08
 
   -0.31941E+08         0.25576E+07         0.00000E+00
    0.25576E+07        -0.51449E+08         0.00000E+00
    0.00000E+00         0.00000E+00        -0.31769E+08
 
   -0.31811E+08         0.27259E+07         0.00000E+00
    0.27259E+07        -0.51505E+08         0.00000E+00
    0.00000E+00         0.00000E+00        -0.31755E+08
 
   -0.39948E+08        -0.65338E+05         0.00000E+00
   -0.65338E+05        -0.49999E+08         0.00000E+00
    0.00000E+00         0.00000E+00        -0.32386E+08
 
   -0.39752E+08        -0.16578E+06         0.00000E+00
   -0.16578E+06        -0.50004E+08         0.00000E+00
    0.00000E+00         0.00000E+00        -0.32347E+08
 
   -0.39550E+08        -0.25299E+06         0.00000E+00
   -0.25299E+06        -0.50010E+08         0.00000E+00
    0.00000E+00         0.00000E+00        -0.32308E+08
 
   -0.39345E+08        -0.32803E+06         0.00000E+00
   -0.32803E+06        -0.50018E+08         0.00000E+00
    0.00000E+00         0.00000E+00        -0.32269E+08
 
   -0.39138E+08        -0.39131E+06         0.00000E+00
   -0.39131E+06        -0.50027E+08         0.00000E+00
    0.00000E+00         0.00000E+00        -0.32230E+08
 
   -0.38929E+08        -0.44323E+06         0.00000E+00
   -0.44323E+06        -0.50038E+08         0.00000E+00
    0.00000E+00         0.00000E+00        -0.32190E+08
 
   -0.38719E+08        -0.48434E+06         0.00000E+00
   -0.48434E+06        -0.50048E+08         0.00000E+00
    0.00000E+00         0.00000E+00        -0.32151E+08
 
   -0.38510E+08        -0.51530E+06         0.00000E+00
   -0.51530E+06        -0.50058E+08         0.00000E+00
    0.00000E+00         0.00000E+00        -0.32111E+08
 
   -0.38302E+08        -0.53687E+06         0.00000E+00
   -0.53687E+06        -0.50068E+08         0.00000E+00
    0.00000E+00         0.00000E+00        -0.32072E+08
 
   -0.38095E+08        -0.54983E+06         0.00000E+00
   -0.54983E+06        -0.50076E+08         0.00000E+00
    0.00000E+00         0.00000E+00        -0.32033E+08
 
   -0.37891E+08        -0.55498E+06         0.00000E+00
   -0.55498E+06        -0.50084E+08         0.00000E+00
    0.00000E+00         0.00000E+00        -0.31994E+08
 
   -0.37690E+08        -0.55305E+06         0.00000E+00
   -0.55305E+06        -0.50092E+08         0.00000E+00
    0.00000E+00         0.00000E+00        -0.31956E+08
 
   -0.37492E+08        -0.54473E+06         0.00000E+00
   -0.54473E+06        -0.50098E+08         0.00000E+00
    0.00000E+00         0.00000E+00        -0.31918E+08
 
   -0.37296E+08        -0.53066E+06         0.00000E+00
   -0.53066E+06        -0.50104E+08         0.00000E+00
    0.00000E+00         0.00000E+00        -0.31881E+08
 
   -0.37104E+08        -0.51140E+06         0.00000E+00
   -0.51140E+06        -0.50110E+08         0.00000E+00
    0.00000E+00         0.00000E+00        -0.31844E+08
 
   -0.36914E+08        -0.48744E+06         0.00000E+00
   -0.48744E+06        -0.50115E+08         0.00000E+00
    0.00000E+00         0.00000E+00        -0.31807E+08
 
   -0.36727E+08        -0.45922E+06         0.00000E+00
   -0.45922E+06        -0.50121E+08         0.00000E+00
    0.00000E+00         0.00000E+00        -0.31772E+08
 
   -0.36543E+08        -0.42711E+06         0.00000E+00
   -0.42711E+06        -0.50126E+08         0.00000E+00
    0.00000E+00         0.00000E+00        -0.31736E+08
 
   -0.36361E+08        -0.39144E+06         0.00000E+00
   -0.39144E+06        -0.50132E+08         0.00000E+00
    0.00000E+00         0.00000E+00        -0.31702E+08
 
   -0.36181E+08        -0.35248E+06         0.00000E+00
   -0.35248E+06        -0.50139E+08         0.00000E+00
    0.00000E+00         0.00000E+00        -0.31668E+08
 
   -0.36004E+08        -0.31045E+06         0.00000E+00
   -0.31045E+06        -0.50147E+08         0.00000E+00
    0.00000E+00         0.00000E+00        -0.31634E+08
 
   -0.35827E+08        -0.26553E+06         0.00000E+00
   -0.26553E+06        -0.50156E+08         0.00000E+00
    0.00000E+00         0.00000E+00        -0.31601E+08
 
   -0.35653E+08        -0.21788E+06         0.00000E+00
   -0.21788E+06        -0.50166E+08         0.00000E+00
    0.00000E+00         0.00000E+00        -0.31569E+08
 
   -0.35479E+08        -0.16759E+06         0.00000E+00
   -0.16759E+06        -0.50177E+08         0.00000E+00
    0.00000E+00         0.00000E+00        -0.31537E+08
 
   -0.35307E+08        -0.11474E+06         0.00000E+00
   -0.11474E+06        -0.50190E+08         0.00000E+00
    0.00000E+00         0.00000E+00        -0.31505E+08
 
   -0.35135E+08        -0.59379E+05         0.00000E+00
   -0.59379E+05        -0.50205E+08         0.00000E+00
    0.00000E+00         0.00000E+00        -0.31474E+08
 
   -0.34964E+08        -0.15176E+04         0.00000E+00
   -0.15176E+04        -0.50222E+08         0.00000E+00
    0.00000E+00         0.00000E+00        -0.31444E+08
 
   -0.34793E+08         0.58860E+05         0.00000E+00
    0.58860E+05        -0.50241E+08         0.00000E+00
    0.00000E+00         0.00000E+00        -0.31414E+08
 
   -0.34622E+08         0.12180E+06         0.00000E+00
    0.12180E+06        -0.50262E+08         0.00000E+00
    0.00000E+00         0.00000E+00        -0.31385E+08
 
   -0.34450E+08         0.18736E+06         0.00000E+00
    0.18736E+06        -0.50286E+08         0.00000E+00
    0.00000E+00         0.00000E+00        -0.31356E+08
 
   -0.34279E+08         0.25566E+06         0.00000E+00
    0.25566E+06        -0.50312E+08         0.00000E+00
    0.00000E+00         0.00000E+00        -0.31327E+08
 
   -0.34107E+08         0.32682E+06         0.00000E+00
    0.32682E+06        -0.50341E+08         0.00000E+00
    0.00000E+00         0.00000E+00        -0.31299E+08
 
   -0.33934E+08         0.40099E+06         0.00000E+00
    0.40099E+06        -0.50373E+08         0.00000E+00
    0.00000E+00         0.00000E+00        -0.31271E+08
 
   -0.33761E+08         0.47838E+06         0.00000E+00
    0.47838E+06        -0.50408E+08         0.00000E+00
    0.00000E+00         0.00000E+00        -0.31243E+08
 
   -0.33586E+08         0.55919E+06         0.00000E+00
    0.55919E+06        -0.50446E+08         0.00000E+00
    0.00000E+00         0.00000E+00        -0.31217E+08
 
   -0.33411E+08         0.64368E+06         0.00000E+00
    0.64368E+06        -0.50486E+08         0.00000E+00
    0.00000E+00         0.00000E+00        -0.31190E+08
 
   -0.33234E+08         0.73214E+06         0.00000E+00
    0.73214E+06        -0.50531E+08         0.00000E+00
    0.00000E+00         0.00000E+00        -0.31164E+08
 
   -0.33056E+08         0.82490E+06         0.00000E+00
    0.82490E+06        -0.50578E+08         0.00000E+00
    0.00000E+00         0.00000E+00        -0.31138E+08
 
   -0.32878E+08         0.92230E+06         0.00000E+00
    0.92230E+06        -0.50629E+08         0.00000E+00
    0.00000E+00         0.00000E+00        -0.31113E+08
 
   -0.32698E+08         0.10247E+07         0.00000E+00
    0.10247E+07        -0.50683E+08         0.00000E+00
    0.00000E+00         0.00000E+00        -0.31088E+08
 
   -0.32518E+08         0.11326E+07         0.00000E+00
    0.11326E+07        -0.50740E+08         0.00000E+00
    0.00000E+00         0.00000E+00        -0.31063E+08
 
   -0.32337E+08         0.12464E+07         0.00000E+00
    0.12464E+07        -0.50800E+08         0.00000E+00
    0.00000E+00         0.00000E+00        -0.31040E+08
 
   -0.32156E+08         0.13665E+07         0.00000E+00
    0.13665E+07        -0.50863E+08         0.00000E+00
    0.00000E+00         0.00000E+00        -0.31016E+08
 
   -0.31976E+08         0.14933E+07         0.00000E+00
    0.14933E+07        -0.50929E+08         0.00000E+00
    0.00000E+00         0.00000E+00        -0.30994E+08
 
   -0.31797E+08         0.16271E+07         0.00000E+00
    0.16271E+07        -0.50997E+08         0.00000E+00
    0.00000E+00         0.00000E+00        -0.30972E+08
 
   -0.31620E+08         0.17684E+07         0.00000E+00
    0.17684E+07        -0.51066E+08         0.00000E+00
    0.00000E+00         0.00000E+00        -0.30950E+08
 
   -0.31445E+08         0.19172E+07         0.00000E+00
    0.19172E+07        -0.51137E+08         0.00000E+00
    0.00000E+00         0.00000E+00        -0.30929E+08
 
   -0.31273E+08         0.20736E+07         0.00000E+00
    0.20736E+07        -0.51209E+08         0.00000E+00
    0.00000E+00         0.00000E+00        -0.30910E+08
 
   -0.31106E+08         0.22379E+07         0.00000E+00
    0.22379E+07        -0.51280E+08         0.00000E+00
    0.00000E+00         0.00000E+00        -0.30890E+08
 
   -0.30943E+08         0.24106E+07         0.00000E+00
    0.24106E+07        -0.51353E+08         0.00000E+00
    0.00000E+00         0.00000E+00        -0.30872E+08
 
   -0.40519E+08        -0.77125E+05         0.00000E+00
   -0.77125E+05        -0.50000E+08         0.00000E+00
    0.00000E+00         0.00000E+00        -0.31813E+08
 
   -0.40248E+08        -0.18883E+06         0.00000E+00
   -0.18883E+06        -0.50002E+08         0.00000E+00
    0.00000E+00         0.00000E+00        -0.31759E+08
 
   -0.39975E+08        -0.28541E+06         0.00000E+00
   -0.28541E+06        -0.50009E+08         0.00000E+00
    0.00000E+00         0.00000E+00        -0.31706E+08
 
   -0.39700E+08        -0.36507E+06         0.00000E+00
   -0.36507E+06        -0.50016E+08         0.00000E+00
    0.00000E+00         0.00000E+00        -0.31652E+08
 
   -0.39425E+08        -0.42829E+06         0.00000E+00
   -0.42829E+06        -0.50022E+08         0.00000E+00
    0.00000E+00         0.00000E+00        -0.31599E+08
 
   -0.39153E+08        -0.47653E+06         0.00000E+00
   -0.47653E+06        -0.50025E+08         0.00000E+00
    0.00000E+00         0.00000E+00        -0.31546E+08
 
   -0.38887E+08        -0.51160E+06         0.00000E+00
   -0.51160E+06        -0.50026E+08         0.00000E+00
    0.00000E+00         0.00000E+00        -0.31493E+08
 
   -0.38627E+08        -0.53528E+06         0.00000E+00
   -0.53528E+06        -0.50023E+08         0.00000E+00
    0.00000E+00         0.00000E+00        -0.31441E+08
 
   -0.38373E+08        -0.54921E+06         0.00000E+00
   -0.54921E+06        -0.50018E+08         0.00000E+00
    0.00000E+00         0.00000E+00        -0.31390E+08
 
   -0.38127E+08        -0.55486E+06         0.00000E+00
   -0.55486E+06        -0.50011E+08         0.00000E+00
    0.00000E+00         0.00000E+00        -0.31339E+08
 
   -0.37888E+08        -0.55346E+06         0.00000E+00
   -0.55346E+06        -0.50001E+08         0.00000E+00
    0.00000E+00         0.00000E+00        -0.31290E+08
 
   -0.37655E+08        -0.54606E+06         0.00000E+00
   -0.54606E+06        -0.49990E+08         0.00000E+00
    0.00000E+00         0.00000E+00        -0.31242E+08
 
   -0.37429E+08        -0.53354E+06         0.00000E+00
   -0.53354E+06        -0.49978E+08         0.00000E+00
    0.00000E+00         0.00000E+00        -0.31195E+08
 
   -0.37210E+08        -0.51663E+06         0.00000E+00
   -0.51663E+06        -0.49965E+08         0.00000E+00
    0.00000E+00         0.00000E+00        -0.31149E+08
 
   -0.36996E+08        -0.49592E+06         0.00000E+00
   -0.49592E+06        -0.49952E+08         0.00000E+00
    0.00000E+00         0.00000E+00        -0.31104E+08
 
   -0.36787E+08        -0.47192E+06         0.00000E+00
   -0.47192E+06        -0.49939E+08         0.00000E+00
    0.00000E+00         0.00000E+00        -0.31060E+08
 
   -0.36583E+08        -0.44503E+06         0.00000E+00
   -0.44503E+06        -0.49926E+08         0.00000E+00
    0.00000E+00         0.00000E+00        -0.31018E+08
 
   -0.36383E+08        -0.41557E+06         0.00000E+00
   -0.41557E+06        -0.49914E+08         0.00000E+00
    0.00000E+00         0.00000E+00        -0.30976E+08
 
   -0.36187E+08        -0.38382E+06         0.00000E+00
   -0.38382E+06        -0.49903E+08         0.00000E+00
    0.00000E+00         0.00000E+00        -0.30935E+08
 
   -0.35994E+08        -0.34999E+06         0.00000E+00
   -0.34999E+06        -0.49894E+08         0.00000E+00
    0.00000E+00         0.00000E+00        -0.30895E+08
 
   -0.35804E+08        -0.31423E+06         0.00000E+00
   -0.31423E+06        -0.49885E+08         0.00000E+00
    0.00000E+00         0.00000E+00        -0.30856E+08
 
   -0.35616E+08        -0.27669E+06         0.00000E+00
   -0.27669E+06        -0.49879E+08         0.00000E+00
    0.00000E+00         0.00000E+00        -0.30818E+08
 
   -0.35430E+08        -0.23745E+06         0.00000E+00
   -0.23745E+06        -0.49874E+08         0.00000E+00
    0.00000E+00         0.00000E+00        -0.30780E+08
 
   -0.35246E+08        -0.19656E+06         0.00000E+00
   -0.19656E+06        -0.49872E+08         0.00000E+00
    0.00000E+00         0.00000E+00        -0.30743E+08
 
   -0.35063E+08        -0.15406E+06         0.00000E+00
   -0.15406E+06        -0.49872E+08         0.00000E+00
    0.00000E+00         0.00000E+00        -0.30707E+08
 
   -0.34881E+08        -0.10996E+06         0.00000E+00
   -0.10996E+06        -0.49875E+08         0.00000E+00
    0.00000E+00         0.00000E+00        -0.30672E+08
 
   -0.34699E+08        -0.64239E+05         0.00000E+00
   -0.64239E+05        -0.49880E+08         0.00000E+00
    0.00000E+00         0.00000E+00        -0.30637E+08
 
   -0.34517E+08        -0.16846E+05         0.00000E+00
   -0.16846E+05        -0.49888E+08         0.00000E+00
    0.00000E+00         0.00000E+00        -0.30603E+08
 
   -0.34335E+08         0.32284E+05         0.00000E+00
    0.32284E+05        -0.49900E+08         0.00000E+00
    0.00000E+00         0.00000E+00        -0.30569E+08
 
   -0.34153E+08         0.83245E+05         0.00000E+00
    0.83245E+05        -0.49914E+08         0.00000E+00
    0.00000E+00         0.00000E+00        -0.30536E+08
 
   -0.33969E+08         0.13616E+06         0.00000E+00
    0.13616E+06        -0.49932E+08         0.00000E+00
    0.00000E+00         0.00000E+00        -0.30504E+08
 
   -0.33784E+08         0.19117E+06         0.00000E+00
    0.19117E+06        -0.49954E+08         0.00000E+00
    0.00000E+00         0.00000E+00        -0.30471E+08
 
   -0.33597E+08         0.24847E+06         0.00000E+00
    0.24847E+06        -0.49979E+08         0.00000E+00
    0.00000E+00         0.00000E+00        -0.30439E+08
 
   -0.33409E+08         0.30826E+06         0.00000E+00
    0.30826E+06        -0.50008E+08         0.00000E+00
    0.00000E+00         0.00000E+00        -0.30408E+08
 
   -0.33218E+08         0.37081E+06         0.00000E+00
    0.37081E+06        -0.50042E+08         0.00000E+00
    0.00000E+00         0.00000E+00        -0.30377E+08
 
   -0.33025E+08         0.43642E+06         0.00000E+00
    0.43642E+06        -0.50080E+08         0.00000E+00
    0.00000E+00         0.00000E+00        -0.30346E+08
 
   -0.32829E+08         0.50543E+06         0.00000E+00
    0.50543E+06        -0.50122E+08         0.00000E+00
    0.00000E+00         0.00000E+00        -0.30316E+08
 
   -0.32629E+08         0.57827E+06         0.00000E+00
    0.57827E+06        -0.50168E+08         0.00000E+00
    0.00000E+00         0.00000E+00        -0.30286E+08
 
   -0.32427E+08         0.65543E+06         0.00000E+00
    0.65543E+06        -0.50220E+08         0.00000E+00
    0.00000E+00         0.00000E+00        -0.30256E+08
 
   -0.32221E+08         0.73745E+06         0.00000E+00
    0.73745E+06        -0.50277E+08         0.00000E+00
    0.00000E+00         0.00000E+00        -0.30226E+08
 
   -0.32011E+08         0.82501E+06         0.00000E+00
    0.82501E+06        -0.50338E+08         0.00000E+00
    0.00000E+00         0.00000E+00        -0.30197E+08
 
   -0.31798E+08         0.91885E+06         0.00000E+00
    0.91885E+06        -0.50405E+08         0.00000E+00
    0.00000E+00         0.00000E+00        -0.30168E+08
 
   -0.31582E+08         0.10198E+07         0.00000E+00
    0.10198E+07        -0.50477E+08         0.00000E+00
    0.00000E+00         0.00000E+00        -0.30139E+08
 
   -0.31363E+08         0.11289E+07         0.00000E+00
    0.11289E+07        -0.50554E+08         0.00000E+00
    0.00000E+00         0.00000E+00        -0.30111E+08
 
   -0.31142E+08         0.12472E+07         0.00000E+00
    0.12472E+07        -0.50636E+08         0.00000E+00
    0.00000E+00         0.00000E+00        -0.30084E+08
 
   -0.30920E+08         0.13757E+07         0.00000E+00
    0.13757E+07        -0.50723E+08         0.00000E+00
    0.00000E+00         0.00000E+00        -0.30057E+08
 
   -0.30698E+08         0.15155E+07         0.00000E+00
    0.15155E+07        -0.50813E+08         0.00000E+00
    0.00000E+00         0.00000E+00        -0.30031E+08
 
   -0.30479E+08         0.16672E+07         0.00000E+00
    0.16672E+07        -0.50906E+08         0.00000E+00
    0.00000E+00         0.00000E+00        -0.30005E+08
 
   -0.30263E+08         0.18306E+07         0.00000E+00
    0.18306E+07        -0.51000E+08         0.00000E+00
    0.00000E+00         0.00000E+00        -0.29981E+08
 
   -0.30051E+08         0.20037E+07         0.00000E+00
    0.20037E+07        -0.51091E+08         0.00000E+00
    0.00000E+00         0.00000E+00        -0.29957E+08
 
   -0.41161E+08        -0.91978E+05         0.00000E+00
   -0.91978E+05        -0.49999E+08         0.00000E+00
    0.00000E+00         0.00000E+00        -0.31254E+08
 
   -0.40779E+08        -0.21759E+06         0.00000E+00
   -0.21759E+06        -0.50016E+08         0.00000E+00
    0.00000E+00         0.00000E+00        -0.31181E+08
 
   -0.40393E+08        -0.30600E+06         0.00000E+00
   -0.30600E+06        -0.50021E+08         0.00000E+00
    0.00000E+00         0.00000E+00        -0.31105E+08
 
   -0.40017E+08        -0.36689E+06         0.00000E+00
   -0.36689E+06        -0.50015E+08         0.00000E+00
    0.00000E+00         0.00000E+00        -0.31029E+08
 
   -0.39658E+08        -0.40749E+06         0.00000E+00
   -0.40749E+06        -0.50000E+08         0.00000E+00
    0.00000E+00         0.00000E+00        -0.30954E+08
 
   -0.39317E+08        -0.43305E+06         0.00000E+00
   -0.43305E+06        -0.49978E+08         0.00000E+00
    0.00000E+00         0.00000E+00        -0.30882E+08
 
   -0.38993E+08        -0.44740E+06         0.00000E+00
   -0.44740E+06        -0.49951E+08         0.00000E+00
    0.00000E+00         0.00000E+00        -0.30812E+08
 
   -0.38686E+08        -0.45326E+06         0.00000E+00
   -0.45326E+06        -0.49919E+08         0.00000E+00
    0.00000E+00         0.00000E+00        -0.30745E+08
 
   -0.38394E+08        -0.45266E+06         0.00000E+00
   -0.45266E+06        -0.49884E+08         0.00000E+00
    0.00000E+00         0.00000E+00        -0.30680E+08
 
   -0.38117E+08        -0.44706E+06         0.00000E+00
   -0.44706E+06        -0.49847E+08         0.00000E+00
    0.00000E+00         0.00000E+00        -0.30618E+08
 
   -0.37852E+08        -0.43755E+06         0.00000E+00
   -0.43755E+06        -0.49809E+08         0.00000E+00
    0.00000E+00         0.00000E+00        -0.30558E+08
 
   -0.37598E+08        -0.42493E+06         0.00000E+00
   -0.42493E+06        -0.49771E+08         0.00000E+00
    0.00000E+00         0.00000E+00        -0.30500E+08
 
   -0.37354E+08        -0.40983E+06         0.00000E+00
   -0.40983E+06        -0.49732E+08         0.00000E+00
    0.00000E+00         0.00000E+00        -0.30444E+08
 
   -0.37119E+08        -0.39269E+06         0.00000E+00
   -0.39269E+06        -0.49694E+08         0.00000E+00
    0.00000E+00         0.00000E+00        -0.30389E+08
 
   -0.36892E+08        -0.37388E+06         0.00000E+00
   -0.37388E+06        -0.49657E+08         0.00000E+00
    0.00000E+00         0.00000E+00        -0.30337E+08
 
   -0.36672E+08        -0.35364E+06         0.00000E+00
   -0.35364E+06        -0.49621E+08         0.00000E+00
    0.00000E+00         0.00000E+00        -0.30287E+08
 
   -0.36458E+08        -0.33220E+06         0.00000E+00
   -0.33220E+06        -0.49588E+08         0.00000E+00
    0.00000E+00         0.00000E+00        -0.30237E+08
 
   -0.36249E+08        -0.30970E+06         0.00000E+00
   -0.30970E+06        -0.49556E+08         0.00000E+00
    0.00000E+00         0.00000E+00        -0.30190E+08
 
   -0.36045E+08        -0.28626E+06         0.00000E+00
   -0.28626E+06        -0.49526E+08         0.00000E+00
    0.00000E+00         0.00000E+00        -0.30144E+08
 
   -0.35845E+08        -0.26196E+06         0.00000E+00
   -0.26196E+06        -0.49498E+08         0.00000E+00
    0.00000E+00         0.00000E+00        -0.30099E+08
 
   -0.35648E+08        -0.23686E+06         0.00000E+00
   -0.23686E+06        -0.49474E+08         0.00000E+00
    0.00000E+00         0.00000E+00        -0.30055E+08
 
   -0.35454E+08        -0.21100E+06         0.00000E+00
   -0.21100E+06        -0.49451E+08         0.00000E+00
    0.00000E+00         0.00000E+00        -0.30012E+08
 
   -0.35262E+08        -0.18441E+06         0.00000E+00
   -0.18441E+06        -0.49432E+08         0.00000E+00
    0.00000E+00         0.00000E+00        -0.29970E+08
 
   -0.35072E+08        -0.15707E+06         0.00000E+00
   -0.15707E+06        -0.49416E+08         0.00000E+00
    0.00000E+00         0.00000E+00        -0.29929E+08
 
   -0.34883E+08        -0.12899E+06         0.00000E+00
   -0.12899E+06        -0.49404E+08         0.00000E+00
    0.00000E+00         0.00000E+00        -0.29890E+08
 
   -0.34695E+08        -0.10014E+06         0.00000E+00
   -0.10014E+06        -0.49394E+08         0.00000E+00
    0.00000E+00         0.00000E+00        -0.29850E+08
 
   -0.34507E+08        -0.70490E+05         0.00000E+00
   -0.70490E+05        -0.49388E+08         0.00000E+00
    0.00000E+00         0.00000E+00        -0.29812E+08
 
   -0.34319E+08        -0.39977E+05         0.00000E+00
   -0.39977E+05        -0.49386E+08         0.00000E+00
    0.00000E+00         0.00000E+00        -0.29774E+08
 
   -0.34130E+08        -0.85421E+04         0.00000E+00
   -0.85421E+04        -0.49388E+08         0.00000E+00
    0.00000E+00         0.00000E+00        -0.29737E+08
 
   -0.33940E+08         0.23897E+05         0.00000E+00
    0.23897E+05        -0.49393E+08         0.00000E+00
    0.00000E+00         0.00000E+00        -0.29701E+08
 
   -0.33748E+08         0.57437E+05         0.00000E+00
    0.57437E+05        -0.49403E+08         0.00000E+00
    0.00000E+00         0.00000E+00        -0.29665E+08
 
   -0.33554E+08         0.92198E+05         0.00000E+00
    0.92198E+05        -0.49416E+08         0.00000E+00
    0.00000E+00         0.00000E+00        -0.29629E+08
 
   -0.33358E+08         0.12832E+06         0.00000E+00
    0.12832E+06        -0.49435E+08         0.00000E+00
    0.00000E+00         0.00000E+00        -0.29594E+08
 
   -0.33159E+08         0.16597E+06         0.00000E+00
    0.16597E+06        -0.49458E+08         0.00000E+00
    0.00000E+00         0.00000E+00        -0.29559E+08
 
   -0.32956E+08         0.20536E+06         0.00000E+00
    0.20536E+06        -0.49486E+08         0.00000E+00
    0.00000E+00         0.00000E+00        -0.29524E+08
 
   -0.32749E+08         0.24672E+06         0.00000E+00
    0.24672E+06        -0.49519E+08         0.00000E+00
    0.00000E+00         0.00000E+00        -0.29490E+08
 
   -0.32537E+08         0.29034E+06         0.00000E+00
    0.29034E+06        -0.49557E+08         0.00000E+00
    0.00000E+00         0.00000E+00        -0.29456E+08
 
   -0.32320E+08         0.33658E+06         0.00000E+00
    0.33658E+06        -0.49601E+08         0.00000E+00
    0.00000E+00         0.00000E+00        -0.29421E+08
 
   -0.32098E+08         0.38587E+06         0.00000E+00
    0.38587E+06        -0.49651E+08         0.00000E+00
    0.00000E+00         0.00000E+00        -0.29387E+08
 
   -0.31869E+08         0.43874E+06         0.00000E+00
    0.43874E+06        -0.49707E+08         0.00000E+00
    0.00000E+00         0.00000E+00        -0.29353E+08
 
   -0.31632E+08         0.49584E+06         0.00000E+00
    0.49584E+06        -0.49770E+08         0.00000E+00
    0.00000E+00         0.00000E+00        -0.29318E+08
 
   -0.31388E+08         0.55799E+06         0.00000E+00
    0.55799E+06        -0.49840E+08         0.00000E+00
    0.00000E+00         0.00000E+00        -0.29284E+08
 
   -0.31135E+08         0.62624E+06         0.00000E+00
    0.62624E+06        -0.49918E+08         0.00000E+00
    0.00000E+00         0.00000E+00        -0.29249E+08
 
   -0.30872E+08         0.70192E+06         0.00000E+00
    0.70192E+06        -0.50003E+08         0.00000E+00
    0.00000E+00         0.00000E+00        -0.29214E+08
 
   -0.30600E+08         0.78673E+06         0.00000E+00
    0.78673E+06        -0.50098E+08         0.00000E+00
    0.00000E+00         0.00000E+00        -0.29178E+08
 
   -0.30318E+08         0.88291E+06         0.00000E+00
    0.88291E+06        -0.50202E+08         0.00000E+00
    0.00000E+00         0.00000E+00        -0.29143E+08
 
   -0.30027E+08         0.99343E+06         0.00000E+00
    0.99343E+06        -0.50315E+08         0.00000E+00
    0.00000E+00         0.00000E+00        -0.29107E+08
 
   -0.29728E+08         0.11221E+07         0.00000E+00
    0.11221E+07        -0.50439E+08         0.00000E+00
    0.00000E+00         0.00000E+00        -0.29073E+08
 
   -0.29427E+08         0.12742E+07         0.00000E+00
    0.12742E+07        -0.50572E+08         0.00000E+00
    0.00000E+00         0.00000E+00        -0.29039E+08
 
   -0.29137E+08         0.14559E+07         0.00000E+00
    0.14559E+07        -0.50715E+08         0.00000E+00
    0.00000E+00         0.00000E+00        -0.29010E+08
 
   -0.41788E+08        -0.13186E+06         0.00000E+00
   -0.13186E+06        -0.50025E+08         0.00000E+00
    0.00000E+00         0.00000E+00        -0.30702E+08
 
   -0.41177E+08        -0.17139E+06         0.00000E+00
   -0.17139E+06        -0.49979E+08         0.00000E+00
    0.00000E+00         0.00000E+00        -0.30571E+08
 
   -0.40647E+08        -0.19086E+06         0.00000E+00
   -0.19086E+06        -0.49922E+08         0.00000E+00
    0.00000E+00         0.00000E+00        -0.30453E+08
 
   -0.40177E+08        -0.19951E+06         0.00000E+00
   -0.19951E+06        -0.49857E+08         0.00000E+00
    0.00000E+00         0.00000E+00        -0.30347E+08
 
   -0.39754E+08        -0.20202E+06         0.00000E+00
   -0.20202E+06        -0.49788E+08         0.00000E+00
    0.00000E+00         0.00000E+00        -0.30248E+08
 
   -0.39368E+08        -0.20090E+06         0.00000E+00
   -0.20090E+06        -0.49717E+08         0.00000E+00
    0.00000E+00         0.00000E+00        -0.30157E+08
 
   -0.39013E+08        -0.19753E+06         0.00000E+00
   -0.19753E+06        -0.49645E+08         0.00000E+00
    0.00000E+00         0.00000E+00        -0.30072E+08
 
   -0.38682E+08        -0.19269E+06         0.00000E+00
   -0.19269E+06        -0.49574E+08         0.00000E+00
    0.00000E+00         0.00000E+00        -0.29992E+08
 
   -0.38373E+08        -0.18686E+06         0.00000E+00
   -0.18686E+06        -0.49504E+08         0.00000E+00
    0.00000E+00         0.00000E+00        -0.29916E+08
 
   -0.38082E+08        -0.18033E+06         0.00000E+00
   -0.18033E+06        -0.49435E+08         0.00000E+00
    0.00000E+00         0.00000E+00        -0.29844E+08
 
   -0.37807E+08        -0.17328E+06         0.00000E+00
   -0.17328E+06        -0.49368E+08         0.00000E+00
    0.00000E+00         0.00000E+00        -0.29776E+08
 
   -0.37545E+08        -0.16584E+06         0.00000E+00
   -0.16584E+06        -0.49304E+08         0.00000E+00
    0.00000E+00         0.00000E+00        -0.29711E+08
 
   -0.37294E+08        -0.15809E+06         0.00000E+00
   -0.15809E+06        -0.49242E+08         0.00000E+00
    0.00000E+00         0.00000E+00        -0.29649E+08
 
   -0.37054E+08        -0.15007E+06         0.00000E+00
   -0.15007E+06        -0.49183E+08         0.00000E+00
    0.00000E+00         0.00000E+00        -0.29589E+08
 
   -0.36822E+08        -0.14184E+06         0.00000E+00
   -0.14184E+06        -0.49127E+08         0.00000E+00
    0.00000E+00         0.00000E+00        -0.29532E+08
 
   -0.36598E+08        -0.13342E+06         0.00000E+00
   -0.13342E+06        -0.49074E+08         0.00000E+00
    0.00000E+00         0.00000E+00        -0.29477E+08
 
   -0.36381E+08        -0.12482E+06         0.00000E+00
   -0.12482E+06        -0.49024E+08         0.00000E+00
    0.00000E+00         0.00000E+00        -0.29423E+08
 
   -0.36169E+08        -0.11606E+06         0.00000E+00
   -0.11606E+06        -0.48978E+08         0.00000E+00
    0.00000E+00         0.00000E+00        -0.29372E+08
 
   -0.35963E+08        -0.10715E+06         0.00000E+00
   -0.10715E+06        -0.48934E+08         0.00000E+00
    0.00000E+00         0.00000E+00        -0.29322E+08
 
   -0.35760E+08        -0.98083E+05         0.00000E+00
   -0.98083E+05        -0.48895E+08         0.00000E+00
    0.00000E+00         0.00000E+00        -0.29274E+08
 
   -0.35561E+08        -0.88867E+05         0.00000E+00
   -0.88867E+05        -0.48859E+08         0.00000E+00
    0.00000E+00         0.00000E+00        -0.29227E+08
 
   -0.35365E+08        -0.79493E+05         0.00000E+00
   -0.79493E+05        -0.48826E+08         0.00000E+00
    0.00000E+00         0.00000E+00        -0.29182E+08
 
   -0.35171E+08        -0.69956E+05         0.00000E+00
   -0.69956E+05        -0.48797E+08         0.00000E+00
    0.00000E+00         0.00000E+00        -0.29137E+08
 
   -0.34978E+08        -0.60245E+05         0.00000E+00
   -0.60245E+05        -0.48772E+08         0.00000E+00
    0.00000E+00         0.00000E+00        -0.29094E+08
 
   -0.34787E+08        -0.50346E+05         0.00000E+00
   -0.50346E+05        -0.48751E+08         0.00000E+00
    0.00000E+00         0.00000E+00        -0.29051E+08
 
   -0.34596E+08        -0.40245E+05         0.00000E+00
   -0.40245E+05        -0.48734E+08         0.00000E+00
    0.00000E+00         0.00000E+00        -0.29010E+08
 
   -0.34405E+08        -0.29921E+05         0.00000E+00
   -0.29921E+05        -0.48720E+08         0.00000E+00
    0.00000E+00         0.00000E+00        -0.28969E+08
 
   -0.34214E+08        -0.19351E+05         0.00000E+00
   -0.19351E+05        -0.48711E+08         0.00000E+00
    0.00000E+00         0.00000E+00        -0.28930E+08
 
   -0.34022E+08        -0.85079E+04         0.00000E+00
   -0.85079E+04        -0.48706E+08         0.00000E+00
    0.00000E+00         0.00000E+00        -0.28890E+08
 
   -0.33829E+08         0.26396E+04         0.00000E+00
    0.26396E+04        -0.48706E+08         0.00000E+00
    0.00000E+00         0.00000E+00        -0.28852E+08
 
   -0.33633E+08         0.14130E+05         0.00000E+00
    0.14130E+05        -0.48710E+08         0.00000E+00
    0.00000E+00         0.00000E+00        -0.28813E+08
 
   -0.33435E+08         0.26007E+05         0.00000E+00
    0.26007E+05        -0.48718E+08         0.00000E+00
    0.00000E+00         0.00000E+00        -0.28776E+08
 
   -0.33234E+08         0.38323E+05         0.00000E+00
    0.38323E+05        -0.48732E+08         0.00000E+00
    0.00000E+00         0.00000E+00        -0.28738E+08
 
   -0.33029E+08         0.51140E+05         0.00000E+00
    0.51140E+05        -0.48750E+08         0.00000E+00
    0.00000E+00         0.00000E+00        -0.28701E+08
 
   -0.32820E+08         0.64534E+05         0.00000E+00
    0.64534E+05        -0.48773E+08         0.00000E+00
    0.00000E+00         0.00000E+00        -0.28664E+08
 
   -0.32606E+08         0.78593E+05         0.00000E+00
    0.78593E+05        -0.48802E+08         0.00000E+00
    0.00000E+00         0.00000E+00        -0.28627E+08
 
   -0.32386E+08         0.93429E+05         0.00000E+00
    0.93429E+05        -0.48837E+08         0.00000E+00
    0.00000E+00         0.00000E+00        -0.28590E+08
 
   -0.32159E+08         0.10918E+06         0.00000E+00
    0.10918E+06        -0.48878E+08         0.00000E+00
    0.00000E+00         0.00000E+00        -0.28553E+08
 
   -0.31925E+08         0.12601E+06         0.00000E+00
    0.12601E+06        -0.48925E+08         0.00000E+00
    0.00000E+00         0.00000E+00        -0.28516E+08
 
   -0.31682E+08         0.14413E+06         0.00000E+00
    0.14413E+06        -0.48979E+08         0.00000E+00
    0.00000E+00         0.00000E+00        -0.28478E+08
 
   -0.31429E+08         0.16383E+06         0.00000E+00
    0.16383E+06        -0.49041E+08         0.00000E+00
    0.00000E+00         0.00000E+00        -0.28440E+08
 
   -0.31164E+08         0.18545E+06         0.00000E+00
    0.18545E+06        -0.49110E+08         0.00000E+00
    0.00000E+00         0.00000E+00        -0.28401E+08
 
   -0.30886E+08         0.20950E+06         0.00000E+00
    0.20950E+06        -0.49189E+08         0.00000E+00
    0.00000E+00         0.00000E+00        -0.28361E+08
 
   -0.30593E+08         0.23662E+06         0.00000E+00
    0.23662E+06        -0.49277E+08         0.00000E+00
    0.00000E+00         0.00000E+00        -0.28320E+08
 
   -0.30280E+08         0.26776E+06         0.00000E+00
    0.26776E+06        -0.49377E+08         0.00000E+00
    0.00000E+00         0.00000E+00        -0.28278E+08
 
   -0.29946E+08         0.30427E+06         0.00000E+00
    0.30427E+06        -0.49489E+08         0.00000E+00
    0.00000E+00         0.00000E+00        -0.28234E+08
 
   -0.29585E+08         0.34821E+06         0.00000E+00
    0.34821E+06        -0.49616E+08         0.00000E+00
    0.00000E+00         0.00000E+00        -0.28187E+08
 
   -0.29190E+08         0.40283E+06         0.00000E+00
    0.40283E+06        -0.49761E+08         0.00000E+00
    0.00000E+00         0.00000E+00        -0.28137E+08
 
   -0.28751E+08         0.47351E+06         0.00000E+00
    0.47351E+06        -0.49926E+08         0.00000E+00
    0.00000E+00         0.00000E+00        -0.28082E+08
 
   -0.28254E+08         0.56974E+06         0.00000E+00
    0.56974E+06        -0.50118E+08         0.00000E+00
    0.00000E+00         0.00000E+00        -0.28021E+08
 
SCALARS stresss double 
LOOKUP_TABLE default
  -56055830.0741846     
  -56232554.4443675     
  -56390624.9761406     
  -56534440.0851845     
  -56666854.5932246     
  -56789847.8648285     
  -56904867.0435025     
  -57013015.1964181     
  -57115161.0453145     
  -57212006.6904274     
  -57304131.5411760     
  -57392022.0561198     
  -57476092.6181641     
  -57556700.6427624     
  -57634157.8006807     
  -57708738.5434027     
  -57780686.7075887     
  -57850220.7215762     
  -57917537.7757733     
  -57982817.2133681     
  -58046223.3270771     
  -58107907.6992188     
  -58168011.1886407     
  -58226665.6441778     
  -58283995.4073529     
  -58340118.6549428     
  -58395148.6235687     
  -58449194.7527464     
  -58502363.7793753     
  -58554760.8151367     
  -58606490.4386617     
  -58657657.8367393     
  -58708370.0336041     
  -58758737.2551596     
  -58808874.4869280     
  -58858903.3023758     
  -58908954.0649192     
  -58959168.6471099     
  -59009703.8722151     
  -59060735.9803784     
  -59112466.5782983     
  -59165130.7930596     
  -59219008.8038225     
  -59274442.7413834     
  -59331862.4808058     
  -59391826.8725505     
  -59455093.1794180     
  -59522740.9041164     
  -59596406.4309910     
  -59678755.9244727     
  -56078347.6440098     
  -56176567.1979919     
  -56279112.9054035     
  -56381672.5922213     
  -56482251.9258851     
  -56579949.6678164     
  -56674399.9922611     
  -56765507.1998353     
  -56853314.0742655     
  -56937933.9985954     
  -57019514.8039085     
  -57098219.0559803     
  -57174213.1716330     
  -57247661.4289760     
  -57318722.7600730     
  -57387549.1556439     
  -57454285.0143606     
  -57519067.0470101     
  -57582024.5037137     
  -57643279.5845294     
  -57702947.9487462     
  -57761139.2715947     
  -57817957.8177250     
  -57873503.0136612     
  -57927870.0095205     
  -57981150.2253373     
  -58033431.8804512     
  -58084800.5062379     
  -58135339.4433695     
  -58185130.3249564     
  -58234253.5463966     
  -58282788.7214066     
  -58330815.1212340     
  -58378412.0898683     
  -58425659.4211477     
  -58472637.6722105     
  -58519428.3686094     
  -58566114.0239677     
  -58612777.8409992     
  -58659502.8616978     
  -58706370.1551596     
  -58753455.2973779     
  -58800821.7552542     
  -58848508.5110316     
  -58896506.6359065     
  -58944713.9093857     
  -58992844.1423464     
  -59040239.2752394     
  -59085464.3051067     
  -59125397.9196421     
  -56096124.1582245     
  -56168573.0335062     
  -56240349.7852554     
  -56312433.4655100     
  -56384716.5420997     
  -56456816.4614677     
  -56528347.0532067     
  -56598995.4241312     
  -56668531.7443106     
  -56736798.4621929     
  -56803695.4089521     
  -56869166.1277523     
  -56933186.7482389     
  -56995757.3700066     
  -57056895.5384109     
  -57116631.3561527     
  -57175003.8377422     
  -57232058.1964830     
  -57287843.8276803     
  -57342412.8109937     
  -57395818.7999211     
  -57448116.1999021     
  -57499359.5611490     
  -57549603.1302711     
  -57598900.5177665     
  -57647304.4477678     
  -57694866.5629218     
  -57741637.2615741     
  -57787665.5468902     
  -57832998.8683920     
  -57877682.9356535     
  -57921761.4814805     
  -57965275.9475045     
  -58008265.0582669     
  -58050764.2398217     
  -58092804.8246036     
  -58134412.9644404     
  -58175608.1465498     
  -58216401.1717946     
  -58256791.4107398     
  -58296763.1073375     
  -58336280.4753471     
  -58375281.3973686     
  -58413669.8792085     
  -58451308.5367094     
  -58488015.6295915     
  -58523580.0334103     
  -58557831.4645213     
  -58590867.6120114     
  -58623713.8146434     
  -56095405.6250901     
  -56146959.9217225     
  -56199499.3489404     
  -56252489.6979338     
  -56305794.0156965     
  -56359319.5972120     
  -56412950.0168033     
  -56466550.1158847     
  -56519982.0346568     
  -56573117.2680826     
  -56625843.1526411     
  -56678065.2548205     
  -56729707.2934710     
  -56780709.7731475     
  -56831028.0596743     
  -56880630.3135084     
  -56929495.4982840     
  -56977611.5654046     
  -57024973.8503281     
  -57071583.6815402     
  -57117447.1860949     
  -57162574.2682365     
  -57206977.7354525     
  -57250672.5467353     
  -57293675.1593996     
  -57336002.9527118     
  -57377673.7084036     
  -57418705.1296552     
  -57459114.3812508     
  -57498917.6343018     
  -57538129.5992353     
  -57576763.0307475     
  -57614828.1882905     
  -57652332.2357261     
  -57689278.5646046     
  -57725666.0281576     
  -57761488.0793191     
  -57796731.8190717     
  -57831376.9864781     
  -57865394.9677150     
  -57898747.9820377     
  -57931388.7370803     
  -57963261.0538193     
  -57994302.2366869     
  -58024448.1794627     
  -58053641.7947755     
  -58081842.3895931     
  -58109021.8704705     
  -58135094.1085708     
  -58159599.1910574     
  -56073807.9711748     
  -56110290.2440987     
  -56147597.1405298     
  -56185709.9426837     
  -56224489.8133391     
  -56263807.7436487     
  -56303554.5446818     
  -56343632.4593922     
  -56383949.4224836     
  -56424417.3655869     
  -56464952.6902138     
  -56505477.3941470     
  -56545920.0817725     
  -56586216.5853138     
  -56626310.1727885     
  -56666151.4166125     
  -56705697.8195297     
  -56744913.2855605     
  -56783767.5046673     
  -56822235.3004386     
  -56860295.9737465     
  -56897932.6627837     
  -56935131.7307790     
  -56971882.1863384     
  -57008175.1370831     
  -57044003.2745003     
  -57079360.3862442     
  -57114240.8912398     
  -57148639.3926514     
  -57182550.2439936     
  -57215967.1243656     
  -57248882.6200624     
  -57281287.8117892     
  -57313171.8696433     
  -57344521.6622125     
  -57375321.3919706     
  -57405552.2769127     
  -57435192.3080781     
  -57464216.1233394     
  -57492595.0465307     
  -57520297.3400096     
  -57547288.6915894     
  -57573532.8717709     
  -57598992.3027623     
  -57623627.9213879     
  -57647397.2460692     
  -57670249.6054876     
  -57692120.9703615     
  -57712948.7040309     
  -57732796.4808376     
  -56030599.1594409     
  -56055080.3719901     
  -56080562.0522346     
  -56106927.2511533     
  -56134097.1792976     
  -56161989.0947119     
  -56190518.2883237     
  -56219602.4992377     
  -56249163.6157849     
  -56279127.8122039     
  -56309425.2774456     
  -56339990.0180465     
  -56370759.8191170     
  -56401676.3036346     
  -56432685.0108397     
  -56463735.4372474     
  -56494781.0118037     
  -56525778.9978817     
  -56556690.3275331     
  -56587479.3795028     
  -56618113.7143111     
  -56648563.7790849     
  -56678802.5930715     
  -56708805.4226666     
  -56738549.4527644     
  -56768013.4595188     
  -56797177.4882632     
  -56826022.5394108     
  -56854530.2646228     
  -56882682.6753867     
  -56910461.8663460     
  -56937849.7562495     
  -56964827.8501772     
  -56991377.0276608     
  -57017477.3622611     
  -57043107.9787640     
  -57068246.9538618     
  -57092871.2641285     
  -57116956.7800926     
  -57140478.2959441     
  -57163409.5703342     
  -57185723.3374187     
  -57207391.2399709     
  -57228383.6681930     
  -57248669.6207981     
  -57268217.0231251     
  -57286994.3907470     
  -57304974.3413873     
  -57322133.1352391     
  -57338407.2384141     
  -55965937.3044648     
  -55980860.9990398     
  -55996819.0390908     
  -56013743.1868102     
  -56031556.9042257     
  -56050188.4651834     
  -56069569.2130320     
  -56089632.3465274     
  -56110312.8903331     
  -56131548.0088548     
  -56153277.2598516     
  -56175442.7199849     
  -56197989.0240586     
  -56220863.3644332     
  -56244015.4756831     
  -56267397.6113862     
  -56290964.5106019     
  -56314673.3489822     
  -56338483.6703911     
  -56362357.2970826     
  -56386258.2186725     
  -56410152.4618160     
  -56434007.9435708     
  -56457794.3119791     
  -56481482.7775734     
  -56505045.9394507     
  -56528457.6093774     
  -56551692.6371671     
  -56574726.7403546     
  -56597536.3410068     
  -56620098.4123413     
  -56642390.3376550     
  -56664389.7838318     
  -56686074.5913411     
  -56707422.6820673     
  -56728411.9854528     
  -56749020.3822918     
  -56769225.6642002     
  -56789005.5057804     
  -56808337.4467358     
  -56827198.8842818     
  -56845567.0840620     
  -56863419.2307794     
  -56880732.5511292     
  -56897484.5250912     
  -56913653.0947606     
  -56929216.5052668     
  -56944152.1633314     
  -56958435.6553504     
  -56972055.0425833     
  -55880734.8223934     
  -55887995.0390366     
  -55896309.8062695     
  -55905614.3875125     
  -55915848.0736068     
  -55926950.4574221     
  -55938862.4051977     
  -55951526.4519935     
  -55964886.7988337     
  -55978889.2699218     
  -55993481.3201503     
  -56008612.0736820     
  -56024232.3639095     
  -56040294.7596871     
  -56056753.5746802     
  -56073564.8618110     
  -56090686.3955798     
  -56108077.6442043     
  -56125699.7325335     
  -56143515.3961116     
  -56161488.9266229     
  -56179586.1091170     
  -56197774.1517151     
  -56216021.6088355     
  -56234298.2992599     
  -56252575.2205778     
  -56270824.4616735     
  -56289019.1149717     
  -56307133.1901404     
  -56325141.5308715     
  -56343019.7362270     
  -56360744.0878563     
  -56378291.4841664     
  -56395639.3822730     
  -56412765.7483133     
  -56429649.0165043     
  -56446268.0572814     
  -56462602.1550259     
  -56478630.9963549     
  -56494334.6705747     
  -56509693.6841819     
  -56524688.9900219     
  -56539302.0270515     
  -56553514.7575904     
  -56567309.6810497     
  -56580669.8218291     
  -56593578.7928574     
  -56606021.2431512     
  -56617983.6618717     
  -56629450.1233112     
  -55776443.3263281     
  -55777598.4164469     
  -55779795.3029123     
  -55782980.6482828     
  -55787101.4081497     
  -55792105.9411462     
  -55797943.6957304     
  -55804565.1815706     
  -55811922.0426856     
  -55819967.1115370     
  -55828654.4352375     
  -55837939.2895054     
  -55847778.1895524     
  -55858128.8994386     
  -55868950.4383365     
  -55880203.0820096     
  -55891848.3586189     
  -55903849.0387144     
  -55916169.1196946     
  -55928773.8051868     
  -55941629.4798359     
  -55954703.6799951     
  -55967965.0608317     
  -55981383.3603975     
  -55994929.3612776     
  -56008574.8504921     
  -56022292.5783790     
  -56036056.2172246     
  -56049840.3204185     
  -56063620.2828998     
  -56077372.3036287     
  -56091073.3507702     
  -56104701.1302194     
  -56118234.0580524     
  -56131651.2374409     
  -56144932.4405476     
  -56158058.0958908     
  -56171009.2816012     
  -56183767.7248183     
  -56196315.8071164     
  -56208636.5753174     
  -56220713.7566296     
  -56232531.7776101     
  -56244075.7894254     
  -56255331.7077678     
  -56266286.2778660     
  -56276927.1467661     
  -56287242.8265293     
  -56297222.4340206     
  -56306857.0344338     
  -55654912.6796792     
  -55651250.6398610     
  -55648598.4773433     
  -55646910.2708890     
  -55646141.0233770     
  -55646246.3983944     
  -55647182.8698202     
  -55648907.7539486     
  -55651379.2173446     
  -55654556.2936887     
  -55658398.9049988     
  -55662867.8805277     
  -55667924.9712975     
  -55673532.8606995     
  -55679655.1719234     
  -55686256.4726257     
  -55693302.2769168     
  -55700759.0446324     
  -55708594.1778860     
  -55716776.0149875     
  -55725273.8218983     
  -55734057.7814646     
  -55743098.9807136     
  -55752369.3965297     
  -55761841.8800508     
  -55771490.1401417     
  -55781288.7263147     
  -55791213.0114797     
  -55801239.1749096     
  -55811344.1858099     
  -55821505.7878751     
  -55831702.4852078     
  -55841913.5299597     
  -55852118.9120340     
  -55862299.3511598     
  -55872436.2916022     
  -55882511.8997200     
  -55892509.0645077     
  -55902411.4012042     
  -55912203.2580456     
  -55921869.7263478     
  -55931396.6543405     
  -55940770.6653318     
  -55949979.1802049     
  -55959010.4419638     
  -55967853.5367389     
  -55976498.4104241     
  -55984935.9169592     
  -55993157.9727366     
  -56001157.2281999     
  -55518233.7505797     
  -55510822.7287575     
  -55504375.1787087     
  -55498852.1947345     
  -55494215.3428591     
  -55490426.7682377     
  -55487449.1826550     
  -55485245.8912612     
  -55483780.8200688     
  -55483018.5367120     
  -55482924.2677928     
  -55483463.9147866     
  -55484604.0685994     
  -55486312.0223900     
  -55488555.7824355     
  -55491304.0770346     
  -55494526.3635488     
  -55498192.8337018     
  -55502274.4172464     
  -55506742.7841081     
  -55511570.3451156     
  -55516730.2514511     
  -55522196.3929659     
  -55527943.3955305     
  -55533946.6176006     
  -55540182.1461914     
  -55546626.7924631     
  -55553258.0871240     
  -55560054.2758589     
  -55566994.3149923     
  -55574057.8675914     
  -55581225.3002067     
  -55588477.6804401     
  -55595796.7755139     
  -55603165.0520014     
  -55610565.6768586     
  -55617982.5198838     
  -55625400.1577192     
  -55632803.8795070     
  -55640179.6943000     
  -55647514.3402881     
  -55654795.2957921     
  -55662010.7917991     
  -55669149.8257498     
  -55676202.1768491     
  -55683158.4247476     
  -55690009.9737017     
  -55696749.0726140     
  -55703368.7963809     
  -55709863.1711161     
  -55368603.1255131     
  -55358324.8185217     
  -55348954.5999597     
  -55340459.5393040     
  -55332807.0646186     
  -55325964.9679764     
  -55319901.4420818     
  -55314585.1016483     
  -55309985.0036897     
  -55306070.6678685     
  -55302812.0954867     
  -55300179.7867061     
  -55298144.7561687     
  -55296678.5472039     
  -55295753.2447146     
  -55295341.4867725     
  -55295416.4749547     
  -55295951.9834722     
  -55296922.3671585     
  -55298302.5683975     
  -55300068.1230783     
  -55302195.1656668     
  -55304660.4334904     
  -55307441.2703371     
  -55310515.6294730     
  -55313862.0761878     
  -55317459.7899816     
  -55321288.5665062     
  -55325328.8193762     
  -55329561.5819618     
  -55333968.5092750     
  -55338531.8800547     
  -55343234.5991503     
  -55348060.2002985     
  -55352992.8493795     
  -55358017.3482301     
  -55363119.1390832     
  -55368284.3096887     
  -55373499.5991561     
  -55378752.4045352     
  -55384030.7881331     
  -55389323.4855635     
  -55394619.9145684     
  -55399910.1847065     
  -55405185.1079096     
  -55410436.2093238     
  -55415655.7371644     
  -55420836.6734545     
  -55425972.7591523     
  -55431058.4785091     
  -55208211.3276440     
  -55195789.2968203     
  -55184214.9180819     
  -55173460.4767661     
  -55163498.4693692     
  -55154301.6341187     
  -55145842.9711986     
  -55138095.7659429     
  -55131033.6102052     
  -55124630.4220117     
  -55118860.4640364     
  -55113698.3609930     
  -55109119.1159048     
  -55105098.1252526     
  -55101611.1930438     
  -55098634.5438571     
  -55096144.8349179     
  -55094119.1672531     
  -55092535.0959762     
  -55091370.6397554     
  -55090604.2895215     
  -55090215.0164738     
  -55090182.2794471     
  -55090486.0317016     
  -55091106.7272009     
  -55092025.3264443     
  -55093223.3019162     
  -55094682.6432199     
  -55096385.8619588     
  -55098315.9964273     
  -55100456.6161719     
  -55102791.8264786     
  -55105306.2728410     
  -55107985.1454567     
  -55110814.1837962     
  -55113779.6812806     
  -55116868.4900989     
  -55120068.0261864     
  -55123366.2743794     
  -55126751.7937559     
  -55130213.7231652     
  -55133741.7869472     
  -55137326.3008118     
  -55140958.1778120     
  -55144628.9343169     
  -55148330.6960389     
  -55152056.2045303     
  -55155798.8238574     
  -55159552.5424692     
  -55163311.9863360     
  -55039159.8445222     
  -55025184.1018573     
  -55011993.5324459     
  -54999564.8994315     
  -54987875.0828826     
  -54976901.1013916     
  -54966620.1350206     
  -54957009.5458930     
  -54948046.8980172     
  -54939709.9762187     
  -54931976.8040598     
  -54924825.6607797     
  -54918235.0973182     
  -54912183.9514567     
  -54906651.3621078     
  -54901616.7827803     
  -54897059.9942544     
  -54892961.1165026     
  -54889300.6198932     
  -54886059.3357141     
  -54883218.4660554     
  -54880759.5930879     
  -54878664.6877787     
  -54876916.1180805     
  -54875496.6566364     
  -54874389.4880373     
  -54873578.2156709     
  -54873046.8682001     
  -54872779.9057064     
  -54872762.2255327     
  -54872979.1678577     
  -54873416.5210330     
  -54874060.5267080     
  -54874897.8847686     
  -54875915.7581076     
  -54877101.7772456     
  -54878444.0448119     
  -54879931.1398950     
  -54881552.1222652     
  -54883296.5364656     
  -54885154.4157644     
  -54887116.2859485     
  -54889173.1689396     
  -54891316.5862154     
  -54893538.5620297     
  -54895831.6263864     
  -54898188.8175670     
  -54900603.6841018     
  -54903070.2877926     
  -54905583.2030782     
  -54863404.9775885     
  -54848353.8300979     
  -54834025.4502114     
  -54820400.4259273     
  -54807459.3901004     
  -54795183.0415109     
  -54783552.1644581     
  -54772547.6479171     
  -54762150.5037877     
  -54752341.8843310     
  -54743103.0988480     
  -54734415.6296099     
  -54726261.1470481     
  -54718621.5242252     
  -54711478.8506085     
  -54704815.4451681     
  -54698613.8688239     
  -54692856.9362606     
  -54687527.7271373     
  -54682609.5967121     
  -54678086.1859087     
  -54673941.4308464     
  -54670159.5718596     
  -54666725.1620285     
  -54663623.0752465     
  -54660838.5138445     
  -54658357.0157969     
  -54656164.4615273     
  -54654247.0803365     
  -54652591.4564693     
  -54651184.5348378     
  -54650013.6264160     
  -54649066.4133189     
  -54648330.9535768     
  -54647795.6856122     
  -54647449.4324273     
  -54647281.4055022     
  -54647281.2084060     
  -54647438.8401157     
  -54647744.6980374     
  -54648189.5807188     
  -54648764.6902423     
  -54649461.6342814     
  -54650272.4278002     
  -54651189.4943632     
  -54652205.6670223     
  -54653314.1887976     
  -54654508.7127740     
  -54655783.3012419     
  -54657132.4251523     
  -54682724.5720425     
  -54666983.7736542     
  -54651904.8457184     
  -54637471.6223416     
  -54623667.9322203     
  -54610477.6167414     
  -54597884.5476305     
  -54585872.6438691     
  -54574425.8880331     
  -54563528.3420214     
  -54553164.1621743     
  -54543317.6137940     
  -54533973.0850783     
  -54525115.1004772     
  -54516728.3334832     
  -54508797.6188653     
  -54501307.9643620     
  -54494244.5618426     
  -54487592.7979538     
  -54481338.2642620     
  -54475466.7669069     
  -54469964.3357781     
  -54464817.2332309     
  -54460011.9623516     
  -54455535.2747870     
  -54451374.1781507     
  -54447515.9430165     
  -54443948.1095113     
  -54440658.4935175     
  -54437635.1924933     
  -54434866.5909199     
  -54432341.3653815     
  -54430048.4892844     
  -54427977.2372186     
  -54426117.1889635     
  -54424458.2331410     
  -54422990.5705103     
  -54421704.7169060     
  -54420591.5058120     
  -54419642.0905634     
  -54418847.9461709     
  -54418200.8707524     
  -54417692.9865610     
  -54417316.7405927     
  -54417064.9047584     
  -54416930.5756064     
  -54416907.1735604     
  -54416988.4416229     
  -54417168.4436847     
  -54417441.5620512     
  -54498702.5672358     
  -54482581.8285178     
  -54467064.4886060     
  -54452137.1271550     
  -54437786.2830227     
  -54423998.4700390     
  -54410760.1922697     
  -54398057.9588447     
  -54385878.2983082     
  -54374207.7724980     
  -54363032.9899593     
  -54352340.6188892     
  -54342117.3996163     
  -54332350.1566156     
  -54323025.8100667     
  -54314131.3869558     
  -54305654.0317295     
  -54297581.0165044     
  -54289899.7508394     
  -54282597.7910759     
  -54275662.8492534     
  -54269082.8016065     
  -54262845.6966495     
  -54256939.7628556     
  -54251353.4159363     
  -54246075.2657274     
  -54241094.1226862     
  -54236399.0040058     
  -54231979.1393510     
  -54227823.9762176     
  -54223923.1849222     
  -54220266.6632196     
  -54216844.5405539     
  -54213647.1819408     
  -54210665.1914819     
  -54207889.4155088     
  -54205310.9453549     
  -54202921.1197508     
  -54200711.5268386     
  -54198674.0057982     
  -54196800.6480803     
  -54195083.7982342     
  -54193516.0543252     
  -54192090.2679277     
  -54190799.5436822     
  -54189637.2384040     
  -54188596.9597286     
  -54187672.5642937     
  -54186858.1553900     
  -54186148.0801652     
  -54312726.4983727     
  -54296473.4543808     
  -54280768.3088676     
  -54265599.9597952     
  -54250957.2399596     
  -54236828.9304608     
  -54223203.7738464     
  -54210070.4869009     
  -54197417.7730856     
  -54185234.3346207     
  -54173508.8842039     
  -54162230.1563646     
  -54151386.9184498     
  -54140967.9812404     
  -54130962.2091977     
  -54121358.5303389     
  -54112145.9457428     
  -54103313.5386852     
  -54094850.4834072     
  -54086746.0535160     
  -54078989.6300203     
  -54071570.7090033     
  -54064478.9089332     
  -54057703.9776157     
  -54051235.7987882     
  -54045064.3983582     
  -54039179.9502882     
  -54033572.7821280     
  -54028233.3801946     
  -54023152.3944021     
  -54018320.6427405     
  -54013729.1154044     
  -54009368.9785697     
  -54005231.5778186     
  -54001308.4412104     
  -53997591.2819955     
  -53994072.0009711     
  -53990742.6884732     
  -53987595.6260027     
  -53984623.2874796     
  -53981818.3401201     
  -53979173.6449316     
  -53976682.2568172     
  -53974337.4242844     
  -53972132.5887491     
  -53970061.3834273     
  -53968117.6318070     
  -53966295.3456844     
  -53964588.7227728     
  -53962992.1438449     
  -54125993.7528160     
  -54109805.5873405     
  -54094113.0802985     
  -54078907.0873653     
  -54064178.3824077     
  -54049917.6689528     
  -54036115.5914046     
  -54022762.7460051     
  -54009849.6915278     
  -53997366.9596974     
  -53985305.0653302     
  -53973654.5161882     
  -53962405.8225432     
  -53951549.5064459     
  -53941076.1106964     
  -53930976.2075137     
  -53921240.4069012     
  -53911859.3647057     
  -53902823.7903691     
  -53894124.4543706     
  -53885752.1953583     
  -53877697.9269702     
  -53869952.6443419     
  -53862507.4303025     
  -53855353.4612567     
  -53848482.0127529     
  -53841884.4647368     
  -53835552.3064897     
  -53829477.1412507     
  -53823650.6905223     
  -53818064.7980573     
  -53812711.4335274     
  -53807582.6958698     
  -53802670.8163131     
  -53797968.1610764     
  -53793467.2337442     
  -53789160.6773101     
  -53785041.2758890     
  -53781101.9560950     
  -53777335.7880794     
  -53773735.9862274     
  -53770295.9095081     
  -53767009.0614746     
  -53763869.0899092     
  -53760869.7861092     
  -53758005.0838092     
  -53755269.0577336     
  -53752655.9217773     
  -53750160.0268046     
  -53747775.8580680     
  -53939523.2542540     
  -53923556.2423871     
  -53908036.0275474     
  -53892955.1206942     
  -53878305.9397800     
  -53864080.8194915     
  -53850272.0208054     
  -53836871.7403501     
  -53823872.1195636     
  -53811265.2536407     
  -53799043.2002631     
  -53787197.9881037     
  -53775721.6251014     
  -53764606.1064997     
  -53753843.4226445     
  -53743425.5665365     
  -53733344.5411356     
  -53723592.3664102     
  -53714161.0861332     
  -53705042.7744166     
  -53696229.5419862     
  -53687713.5421906     
  -53679486.9767449     
  -53671542.1012056     
  -53663871.2301750     
  -53656466.7422333     
  -53649321.0845968     
  -53642426.7775007     
  -53635776.4183040     
  -53629362.6853160     
  -53623178.3413414     
  -53617216.2369440     
  -53611469.3134255     
  -53605930.6055183     
  -53600593.2437915     
  -53595450.4567663     
  -53590495.5727399     
  -53585722.0213157     
  -53581123.3346376     
  -53576693.1483264     
  -53572425.2021148     
  -53568313.3401809     
  -53564351.5111757     
  -53560533.7679439     
  -53556854.2669342     
  -53553307.2672982     
  -53549887.1296746     
  -53546588.3146574     
  -53543405.3809452     
  -53540332.9831709     
  -53754170.0927448     
  -53738547.3533055     
  -53723325.9374858     
  -53708499.7585090     
  -53694062.6292184     
  -53680008.2703687     
  -53666330.3187759     
  -53653022.3353189     
  -53640077.8127825     
  -53627490.1835371     
  -53615252.8270452     
  -53603359.0771911     
  -53591802.2294249     
  -53580575.5477180     
  -53569672.2713223     
  -53559085.6213303     
  -53548808.8070301     
  -53538835.0320522     
  -53529157.5003037     
  -53519769.4216860     
  -53510664.0175944     
  -53501834.5261932     
  -53493274.2074679     
  -53484976.3480475     
  -53476934.2657973     
  -53469141.3141787     
  -53461590.8863741     
  -53454276.4191742     
  -53447191.3966273     
  -53440329.3534467     
  -53433683.8781756     
  -53427248.6161081     
  -53421017.2719635     
  -53414983.6123128     
  -53409141.4677568     
  -53403484.7348524     
  -53398007.3777872     
  -53392703.4298009     
  -53387566.9943506     
  -53382592.2460211     
  -53377773.4311774     
  -53373104.8683581     
  -53368580.9484103     
  -53364196.1343629     
  -53359944.9610398     
  -53355822.0344106     
  -53351822.0306786     
  -53347939.6951076     
  -53344169.8405842     
  -53340507.3459197     
  -53570641.3483651     
  -53555459.0972358     
  -53540636.0269709     
  -53526167.2411172     
  -53512047.7381996     
  -53498272.4188115     
  -53484836.0925963     
  -53471733.4851102     
  -53458959.2445609     
  -53446507.9484156     
  -53434374.1098709     
  -53422552.1841801     
  -53411036.5748308     
  -53399821.6395688     
  -53388901.6962622     
  -53378271.0286027     
  -53367923.8916373     
  -53357854.5171284     
  -53348057.1187378     
  -53338525.8970305     
  -53329255.0442951     
  -53320238.7491783     
  -53311471.2011299     
  -53302946.5946559     
  -53294659.1333768     
  -53286603.0338886     
  -53278772.5294253     
  -53271161.8733195     
  -53263765.3422597     
  -53256577.2393432     
  -53249591.8969215     
  -53242803.6792378     
  -53236206.9848549     
  -53229796.2488721     
  -53223565.9449298     
  -53217510.5870011     
  -53211624.7309691     
  -53205902.9759895     
  -53200339.9656371     
  -53194930.3888370     
  -53189668.9805779     
  -53184550.5224100     
  -53179569.8427246     
  -53174721.8168181     
  -53170001.3667381     
  -53165403.4609146     
  -53160923.1135744     
  -53156555.3839423     
  -53152295.3752273     
  -53148138.2333981     
  -53389511.9393592     
  -53374844.5144575     
  -53360497.3620522     
  -53346466.5977217     
  -53332748.2293850     
  -53319338.1634072     
  -53306232.2106154     
  -53293426.0922205     
  -53280915.4456367     
  -53268695.8301970     
  -53256762.7327533     
  -53245111.5731630     
  -53233737.7096514     
  -53222636.4440481     
  -53211803.0268932     
  -53201232.6624072     
  -53190920.5133227     
  -53180861.7055727     
  -53171051.3328332     
  -53161484.4609156     
  -53152156.1320063     
  -53143061.3687515     
  -53134195.1781823     
  -53125552.5554802     
  -53117128.4875782     
  -53108917.9565973     
  -53100915.9431148     
  -53093117.4292639     
  -53085517.4016612     
  -53078110.8541630     
  -53070892.7904460     
  -53063858.2264139     
  -53057002.1924270     
  -53050319.7353545     
  -53043805.9204489     
  -53037455.8330411     
  -53031264.5800566     
  -53025227.2913520     
  -53019339.1208713     
  -53013595.2476223     
  -53007990.8764740     
  -53002521.2387734     
  -52997181.5927842     
  -52991967.2239471     
  -52986873.4449629     
  -52981895.5956986     
  -52977029.0429200     
  -52972269.1798498     
  -52967611.4255549     
  -52963051.2241640     
  -53211239.7666709     
  -53197143.6638350     
  -53183332.0417693     
  -53169801.8770981     
  -53156550.0376802     
  -53143573.2879050     
  -53130868.2939165     
  -53118431.6287570     
  -53106259.7774279     
  -53094349.1418623     
  -53082696.0458050     
  -53071296.7395946     
  -53060147.4048462     
  -53049244.1590282     
  -53038583.0599304     
  -53028160.1100206     
  -53017971.2606850     
  -53008012.4163503     
  -52998279.4384841     
  -52988768.1494701     
  -52979474.3363566     
  -52970393.7544751     
  -52961522.1309265     
  -52952855.1679331     
  -52944388.5460539     
  -52936117.9272624     
  -52928038.9578836     
  -52920147.2713897     
  -52912438.4910530     
  -52904908.2324550     
  -52897552.1058487     
  -52890365.7183767     
  -52883344.6761407     
  -52876484.5861240     
  -52869781.0579656     
  -52863229.7055861     
  -52856826.1486645     
  -52850566.0139669     
  -52844444.9365261     
  -52838458.5606736     
  -52832602.5409238     
  -52826872.5427108     
  -52821264.2429800     
  -52815773.3306339     
  -52810395.5068348     
  -52805126.4851648     
  -52799961.9916453     
  -52794897.7646186     
  -52789929.5544917     
  -52785053.1233473     
  -53036179.7448610     
  -53022696.8681124     
  -53009465.6681991     
  -52996483.8538829     
  -52983749.0252740     
  -52971258.6784620     
  -52959010.2100852     
  -52947000.9218318     
  -52935228.0248720     
  -52923688.6442140     
  -52912379.8229840     
  -52901298.5266233     
  -52890441.6470025     
  -52879806.0064462     
  -52869388.3616689     
  -52859185.4076150     
  -52849193.7812049     
  -52839410.0649799     
  -52829830.7906465     
  -52820452.4425172     
  -52811271.4608441     
  -52802284.2450451     
  -52793487.1568201     
  -52784876.5231541     
  -52776448.6392087     
  -52768199.7710961     
  -52760126.1585389     
  -52752224.0174103     
  -52744489.5421569     
  -52736918.9081012     
  -52729508.2736232     
  -52722253.7822212     
  -52715151.5644511     
  -52708197.7397429     
  -52701388.4180958     
  -52694719.7016498     
  -52688187.6861361     
  -52681788.4622049     
  -52675518.1166315     
  -52669372.7334019     
  -52663348.3946772     
  -52657441.1816393     
  -52651647.1752182     
  -52645962.4567020     
  -52640383.1082308     
  -52634905.2131780     
  -52629524.8564179     
  -52624238.1244841     
  -52619041.1056193     
  -52613929.8897208     
  -52864596.5287653     
  -52851756.8227307     
  -52839138.8432148     
  -52826740.9200876     
  -52814561.2756940     
  -52802598.0289328     
  -52790849.1992797     
  -52779312.7107552     
  -52767986.3958294     
  -52756867.9992658     
  -52745955.1818979     
  -52735245.5243373     
  -52724736.5306107     
  -52714425.6317227     
  -52704310.1891428     
  -52694387.4982136     
  -52684654.7914781     
  -52675109.2419245     
  -52665747.9661457     
  -52656568.0274126     
  -52647566.4386585     
  -52638740.1653732     
  -52630086.1284062     
  -52621601.2066758     
  -52613282.2397844     
  -52605126.0305382     
  -52597129.3473697     
  -52589288.9266639     
  -52581601.4749844     
  -52574063.6712021     
  -52566672.1685232     
  -52559423.5964177     
  -52552314.5624477     
  -52545341.6539948     
  -52538501.4398879     
  -52531790.4719295     
  -52525205.2863228     
  -52518742.4049994     
  -52512398.3368470     
  -52506169.5788394     
  -52500052.6170686     
  -52494043.9276807     
  -52488139.9777161     
  -52482337.2258559     
  -52476632.1230756     
  -52471021.1132076     
  -52465500.6334153     
  -52460067.1145792     
  -52454716.9815988     
  -52449446.6536108     
  -52696675.8891779     
  -52684499.4885853     
  -52672517.5812825     
  -52660729.0217991     
  -52649132.5591316     
  -52637726.8403555     
  -52626510.4141897     
  -52615481.7345118     
  -52604639.1638208     
  -52593980.9766464     
  -52583505.3629015     
  -52573210.4311762     
  -52563094.2119719     
  -52553154.6608728     
  -52543389.6616530     
  -52533797.0293180     
  -52524374.5130777     
  -52515119.7992508     
  -52506030.5140977     
  -52497104.2265813     
  -52488338.4510534     
  -52479730.6498669     
  -52471278.2359111     
  -52462978.5750695     
  -52454828.9886001     
  -52446826.7554356     
  -52438969.1144041     
  -52431253.2663689     
  -52423676.3762875     
  -52416235.5751882     
  -52408927.9620656     
  -52401750.6056929     
  -52394700.5463530     
  -52387774.7974861     
  -52380970.3472564     
  -52374284.1600353     
  -52367713.1778045     
  -52361254.3214775     
  -52354904.4921401     
  -52348660.5722123     
  -52342519.4265305     
  -52336477.9033522     
  -52330532.8352846     
  -52324681.0401366     
  -52318919.3216984     
  -52313244.4704477     
  -52307653.2641854     
  -52302142.4686027     
  -52296708.8377815     
  -52291349.1146297     
  -52532534.7795308     
  -52521033.7820069     
  -52509702.6241072     
  -52498540.6006040     
  -52487546.9034768     
  -52476720.6251246     
  -52466060.7615371     
  -52455566.2154229     
  -52445235.7992931     
  -52435068.2384985     
  -52425062.1742194     
  -52415216.1664047     
  -52405528.6966609     
  -52395998.1710883     
  -52386622.9230623     
  -52377401.2159599     
  -52368331.2458294     
  -52359411.1440015     
  -52350638.9796414     
  -52342012.7622401     
  -52333530.4440453     
  -52325189.9224280     
  -52316989.0421877     
  -52308925.5977916     
  -52300997.3355509     
  -52293201.9557295     
  -52285537.1145881     
  -52278000.4263612     
  -52270589.4651674     
  -52263301.7668519     
  -52256134.8307626     
  -52249086.1214581     
  -52242153.0703484     
  -52235333.0772682     
  -52228623.5119835     
  -52222021.7156311     
  -52215525.0020917     
  -52209130.6592974     
  -52202835.9504741     
  -52196638.1153191     
  -52190534.3711157     
  -52184521.9137847     
  -52178597.9188748     
  -52172759.5424923     
  -52167003.9221725     
  -52161328.1776924     
  -52155729.4118290     
  -52150204.7110614     
  -52144751.1462220     
  -52139365.7730956     
  -52372230.1853358     
  -52361410.1296665     
  -52350737.7015634     
  -52340212.5617036     
  -52329834.2713602     
  -52319602.2952656     
  -52309516.0044398     
  -52299574.6789822     
  -52289777.5108247     
  -52280123.6064460     
  -52270611.9895453     
  -52261241.6036732     
  -52252011.3148208     
  -52242919.9139634     
  -52233966.1195590     
  -52225148.5800009     
  -52216465.8760220     
  -52207916.5230506     
  -52199498.9735176     
  -52191211.6191122     
  -52183052.7929874     
  -52175020.7719135     
  -52167113.7783784     
  -52159329.9826359     
  -52151667.5046994     
  -52144124.4162821     
  -52136698.7426826     
  -52129388.4646152     
  -52122191.5199864     
  -52115105.8056145     
  -52108129.1788957     
  -52101259.4594140     
  -52094494.4304958     
  -52087831.8407105     
  -52081269.4053155     
  -52074804.8076472     
  -52068435.7004583     
  -52062159.7072015     
  -52055974.4232603     
  -52049877.4171283     
  -52043866.2315367     
  -52037938.3845318     
  -52032091.3705028     
  -52026322.6611619     
  -52020629.7064768     
  -52015009.9355570     
  -52009460.7574968     
  -52003979.5621739     
  -51998563.7210076     
  -51993210.5876760     
  -52215766.8716278     
  -52205627.9841142     
  -52195616.8155734     
  -52185733.3268407     
  -52175977.3832907     
  -52166348.7573911     
  -52156847.1312280     
  -52147472.0989993     
  -52138223.1694765     
  -52129099.7684333     
  -52120101.2410398     
  -52111226.8542226     
  -52102475.7989872     
  -52093847.1927051     
  -52085340.0813618     
  -52076953.4417663     
  -52068686.1837218     
  -52060537.1521550     
  -52052505.1292051     
  -52044588.8362708     
  -52036786.9360155     
  -52029098.0343287     
  -52021520.6822449     
  -52014053.3778186     
  -52006694.5679542     
  -51999442.6501930     
  -51992295.9744537     
  -51985252.8447291     
  -51978311.5207373     
  -51971470.2195273     
  -51964727.1170403     
  -51958080.3496249     
  -51951528.0155079     
  -51945068.1762203     
  -51938698.8579781     
  -51932418.0530202     
  -51926223.7209010     
  -51920113.7897410     
  -51914086.1574343     
  -51908138.6928132     
  -51902269.2367732     
  -51896475.6033557     
  -51890755.5807921     
  -51885106.9325088     
  -51879527.3980944     
  -51874014.6942304     
  -51868566.5155861     
  -51863180.5356798     
  -51857854.4077065     
  -51852585.7653345     
  -52063104.1501726     
  -52053642.4062869     
  -52044290.6381156     
  -52035049.0483576     
  -52025917.7486571     
  -52016896.7618810     
  -52007986.0243706     
  -51999185.3881689     
  -51990494.6232206     
  -51981913.4195454     
  -51973441.3893818     
  -51965078.0693042     
  -51956822.9223074     
  -51948675.3398630     
  -51940634.6439432     
  -51932700.0890126     
  -51924870.8639883     
  -51917146.0941659     
  -51909524.8431123     
  -51902006.1145235     
  -51894588.8540485     
  -51887271.9510779     
  -51880054.2404952     
  -51872934.5043950     
  -51865911.4737624     
  -51858983.8301172     
  -51852150.2071213     
  -51845409.1921489     
  -51838759.3278201     
  -51832199.1134974     
  -51825727.0067456     
  -51819341.4247544     
  -51813040.7457246     
  -51806823.3102181     
  -51800687.4224708     
  -51794631.3516711     
  -51788653.3332009     
  -51782751.5698436     
  -51776924.2329559     
  -51771169.4636062     
  -51765485.3736801     
  -51759870.0469518     
  -51754321.5401251     
  -51748837.8838423     
  -51743417.0836626     
  -51738057.1210117     
  -51732755.9541027     
  -51727511.5188292     
  -51722321.7296329     
  -51717184.4803450     
  -51914161.7844650     
  -51905369.8211239     
  -51896672.1177474     
  -51888069.0671685     
  -51879560.9759464     
  -51871148.0663921     
  -51862830.4785734     
  -51854608.2723006     
  -51846481.4290890     
  -51838449.8541015     
  -51830513.3780660     
  -51822671.7591716     
  -51814924.6849387     
  -51807271.7740655     
  -51799712.5782483     
  -51792246.5839763     
  -51784873.2142999     
  -51777591.8305711     
  -51770401.7341575     
  -51763302.1681277     
  -51756292.3189081     
  -51749371.3179119     
  -51742538.2431378     
  -51735792.1207406     
  -51729131.9265712     
  -51722556.5876879     
  -51716064.9838368     
  -51709655.9489025     
  -51703328.2723297     
  -51697080.7005130     
  -51690911.9381582     
  -51684820.6496128     
  -51678805.4601668     
  -51672864.9573242     
  -51666997.6920449     
  -51661202.1799571     
  -51655476.9025417     
  -51649820.3082872     
  -51644230.8138175     
  -51638706.8049915     
  -51633246.6379764     
  -51627848.6402933     
  -51622511.1118384     
  -51617232.3258782     
  -51612010.5300195     
  -51606843.9471576     
  -51601730.7763998     
  -51596669.1939674     
  -51591657.3540765     
  -51586693.3897989     
  -51768825.1411902     
  -51760693.0460222     
  -51752641.3854658     
  -51744670.6966196     
  -51736781.4353772     
  -51728973.9782238     
  -51721248.6240151     
  -51713605.5957431     
  -51706045.0422828     
  -51698567.0401226     
  -51691171.5950770     
  -51683858.6439798     
  -51676628.0563587     
  -51669479.6360903     
  -51662413.1230339     
  -51655428.1946456     
  -51648524.4675704     
  -51641701.4992126     
  -51634958.7892845     
  -51628295.7813321     
  -51621711.8642384     
  -51615206.3737026     
  -51608778.5936975     
  -51602427.7579012     
  -51596153.0511065     
  -51589953.6106056     
  -51583828.5275502     
  -51577776.8482881     
  -51571797.5756753     
  -51565889.6703628     
  -51560052.0520606     
  -51554283.6007759     
  -51548583.1580284     
  -51542949.5280406     
  -51537381.4789050     
  -51531877.7437273     
  -51526437.0217458     
  -51521057.9794290     
  -51515739.2515490     
  -51510479.4422338     
  -51505277.1259969     
  -51500130.8487452     
  -51495039.1287675     
  -51490000.4577009     
  -51485013.3014773     
  -51480076.1012524     
  -51475187.2743143     
  -51470345.2149748     
  -51465548.2954438     
  -51460794.8666864     
  -51626949.6849649     
  -51619465.6823521     
  -51612050.0435233     
  -51604703.4092548     
  -51597426.3443935     
  -51590219.3394425     
  -51583082.8121351     
  -51576017.1089978     
  -51569022.5068997     
  -51562099.2145896     
  -51555247.3742190     
  -51548467.0628515     
  -51541758.2939561     
  -51535121.0188866     
  -51528555.1283445     
  -51522060.4538252     
  -51515636.7690484     
  -51509283.7913711     
  -51503001.1831821     
  -51496788.5532804     
  -51490645.4582341     
  -51484571.4037213     
  -51478565.8458520     
  -51472628.1924719     
  -51466757.8044460     
  -51460953.9969234     
  -51455216.0405830     
  -51449543.1628590     
  -51443934.5491474     
  -51438389.3439925     
  -51432906.6522541     
  -51427485.5402545     
  -51422125.0369073     
  -51416824.1348252     
  -51411581.7914094     
  -51406396.9299202     
  -51401268.4405277     
  -51396195.1813447     
  -51391175.9794408     
  -51386209.6318384     
  -51381294.9064912     
  -51376430.5432447     
  -51371615.2547801     
  -51366847.7275419     
  -51362126.6226483     
  -51357450.5767867     
  -51352818.2030940     
  -51348228.0920221     
  -51343678.8121886     
  -51339168.9112155     
  -51488364.9007623     
  -51481515.9496861     
  -51474724.9120569     
  -51467992.4965263     
  -51461319.3412229     
  -51454706.0151448     
  -51448153.0195458     
  -51441660.7893129     
  -51435229.6943348     
  -51428860.0408617     
  -51422552.0728547     
  -51416305.9733251     
  -51410121.8656622     
  -51403999.8149501     
  -51397939.8292725     
  -51391941.8610050     
  -51386005.8080945     
  -51380131.5153258     
  -51374318.7755745     
  -51368567.3310457     
  -51362876.8744991     
  -51357247.0504594     
  -51351677.4564117     
  -51346167.6439826     
  -51340717.1201057     
  -51335325.3481718     
  -51329991.7491641     
  -51324715.7027775     
  -51319496.5485227     
  -51314333.5868136     
  -51309226.0800406     
  -51304173.2536270     
  -51299174.2970696     
  -51294228.3649654     
  -51289334.5780202     
  -51284492.0240441     
  -51279699.7589307     
  -51274956.8076210     
  -51270262.1650529     
  -51265614.7970958     
  -51261013.6414711     
  -51256457.6086578     
  -51251945.5827848     
  -51247476.4225096     
  -51243048.9618836     
  -51238662.0112048     
  -51234314.3578577     
  -51230004.7671412     
  -51225731.9830852     
  -51221494.7292556     
  -51352877.7166406     
  -51346650.0319964     
  -51340471.2993718     
  -51334342.2638391     
  -51328263.6054162     
  -51322235.9402836     
  -51316259.8219990     
  -51310335.7427049     
  -51304464.1343324     
  -51298645.3697981     
  -51292879.7641942     
  -51287167.5759720     
  -51281509.0081167     
  -51275904.2093150     
  -51270353.2751142     
  -51264856.2490709     
  -51259413.1238919     
  -51254023.8425639     
  -51248688.2994744     
  -51243406.3415207     
  -51238177.7692091     
  -51233002.3377429     
  -51227879.7580984     
  -51222809.6980901     
  -51217791.7834240     
  -51212825.5987386     
  -51207910.6886340     
  -51203046.5586892     
  -51198232.6764667     
  -51193468.4725041     
  -51188753.3412950     
  -51184086.6422554     
  -51179467.7006786     
  -51174895.8086785     
  -51170370.2261183     
  -51165890.1815290     
  -51161454.8730143     
  -51157063.4691438     
  -51152715.1098342     
  -51148408.9072185     
  -51144143.9465034     
  -51139919.2868156     
  -51135733.9620359     
  -51131586.9816234     
  -51127477.3314282     
  -51123403.9744933     
  -51119365.8518466     
  -51115361.8832833     
  -51111390.9681379     
  -51107451.9860471     
  -51220275.4888447     
  -51214654.9955519     
  -51209075.8532251     
  -51203538.8158493     
  -51198044.5778275     
  -51192593.7750391     
  -51187186.9858971     
  -51181824.7324027     
  -51176507.4811980     
  -51171235.6446140     
  -51166009.5817155     
  -51160829.5993413     
  -51155695.9531394     
  -51150608.8485967     
  -51145568.4420635     
  -51140574.8417708     
  -51135628.1088414     
  -51130728.2582943     
  -51125875.2600413     
  -51121069.0398759     
  -51116309.4804544     
  -51111596.4222688     
  -51106929.6646112     
  -51102308.9665287     
  -51097734.0477708     
  -51093204.5897261     
  -51088720.2363506     
  -51084280.5950865     
  -51079885.2377711     
  -51075533.7015360     
  -51071225.4896967     
  -51066960.0726326     
  -51062736.8886565     
  -51058555.3448747     
  -51054414.8180372     
  -51050314.6553779     
  -51046254.1754446     
  -51042232.6689202     
  -51038249.3994330     
  -51034303.6043586     
  -51030394.4956112     
  -51026521.2604264     
  -51022683.0621343     
  -51018879.0409238     
  -51015108.3145976     
  -51011369.9793190     
  -51007663.1103504     
  -51003986.7627822     
  -51000339.9722557     
  -50996721.7556761     
  -51090328.6023123     
  -51085301.3299391     
  -51080309.0428794     
  -51075352.4800975     
  -51070432.3264031     
  -51065549.2133661     
  -51060703.7202331     
  -51055896.3748426     
  -51051127.6545402     
  -51046397.9870916     
  -51041707.7515957     
  -51037057.2793932     
  -51032446.8549747     
  -51027876.7168836     
  -51023347.0586172     
  -51018858.0295225     
  -51014409.7356886     
  -51010002.2408335     
  -51005635.5671866     
  -51001309.6963654     
  -50997024.5702464     
  -50992780.0918305     
  -50988576.1261018     
  -50984412.5008800     
  -50980289.0076662     
  -50976205.4024817     
  -50972161.4066998     
  -50968156.7078707     
  -50964190.9605384     
  -50960263.7870506     
  -50956374.7783608     
  -50952523.4948228     
  -50948709.4669778     
  -50944932.1963328     
  -50941191.1561322     
  -50937485.7921210     
  -50933815.5233003     
  -50930179.7426747     
  -50926577.8179929     
  -50923009.0924789     
  -50919472.8855574     
  -50915968.4935697     
  -50912495.1904841     
  -50909052.2285969     
  -50905638.8392276     
  -50902254.2334064     
  -50898897.6025542     
  -50895568.1191566     
  -50892264.9374305     
  -50888987.1939846     
  -50962792.7320985     
  -50958345.1566135     
  -50953927.3151987     
  -50949539.9110862     
  -50945183.5986978     
  -50940858.9844319     
  -50936566.6274527     
  -50932307.0404798     
  -50928080.6905796     
  -50923887.9999572     
  -50919729.3467481     
  -50915605.0658092     
  -50911515.4495091     
  -50907460.7485173     
  -50903441.1725907     
  -50899456.8913589     
  -50895508.0351066     
  -50891594.6955527     
  -50887716.9266268     
  -50883874.7452418     
  -50880068.1320623     
  -50876297.0322700     
  -50872561.3563232     
  -50868860.9807130     
  -50865195.7487136     
  -50861565.4711288     
  -50857969.9270315     
  -50854408.8644998     
  -50850882.0013458     
  -50847389.0258398     
  -50843929.5974283     
  -50840503.3474458     
  -50837109.8798214     
  -50833748.7717782     
  -50830419.5745278     
  -50827121.8139572     
  -50823854.9913111     
  -50820618.5838662     
  -50817412.0456011     
  -50814234.8078581     
  -50811086.2800008     
  -50807965.8500634     
  -50804872.8853958     
  -50801806.7333011     
  -50798766.7216686     
  -50795752.1595991     
  -50792762.3380263     
  -50789796.5303305     
  -50786853.9929485     
  -50783933.9659769     
  -50837410.8051587     
  -50833530.1436509     
  -50829674.9626558     
  -50825845.9118516     
  -50822043.5973403     
  -50818268.5823202     
  -50814521.3877611     
  -50810802.4930825     
  -50807112.3368339     
  -50803451.3173767     
  -50799819.7935672     
  -50796218.0854411     
  -50792646.4748976     
  -50789105.2063837     
  -50785594.4875777     
  -50782114.4900729     
  -50778665.3500589     
  -50775247.1690023     
  -50771860.0143247     
  -50768503.9200795     
  -50765178.8876256     
  -50761884.8862982     
  -50758621.8540779     
  -50755389.6982550     
  -50752188.2960911     
  -50749017.4954780     
  -50745877.1155907     
  -50742766.9475383     
  -50739686.7550102     
  -50736636.2749172     
  -50733615.2180294     
  -50730623.2696091     
  -50727660.0900385     
  -50724725.3154434     
  -50721818.5583120     
  -50718939.4081084     
  -50716087.4318816     
  -50713262.1748693     
  -50710463.1610968     
  -50707689.8939709     
  -50704941.8568690     
  -50702218.5137224     
  -50699519.3095960     
  -50696843.6712611     
  -50694191.0077654     
  -50691560.7109964     
  -50688952.1562408     
  -50686364.7027390     
  -50683797.6942346     
  -50681250.4595193     
  -50713914.6971198     
  -50710589.1607586     
  -50707285.7367323     
  -50704005.0059202     
  -50700747.5107314     
  -50697513.7556757     
  -50694304.2079387     
  -50691119.2979598     
  -50687959.4200142     
  -50684824.9327956     
  -50681716.1600031     
  -50678633.3909281     
  -50675576.8810433     
  -50672546.8525918     
  -50669543.4951778     
  -50666566.9663564     
  -50663617.3922236     
  -50660694.8680057     
  -50657799.4586479     
  -50654931.1994021     
  -50652090.0964124     
  -50649276.1273000     
  -50646489.2417460     
  -50643729.3620709     
  -50640996.3838134     
  -50638290.1763060     
  -50635610.5832474     
  -50632957.4232729     
  -50630330.4905206     
  -50627729.5551957     
  -50625154.3641307     
  -50622604.6413420     
  -50620080.0885832     
  -50617580.3858951     
  -50615105.1921511     
  -50612654.1455997     
  -50610226.8644017     
  -50607822.9471654     
  -50605441.9734763     
  -50603083.5044229     
  -50600747.0831194     
  -50598432.2352230     
  -50596138.4694482     
  -50593865.2780762     
  -50591612.1374612     
  -50589378.5085312     
  -50587163.8372862     
  -50584967.5552913     
  -50582789.0801667     
  -50580627.8160727     
  -50592026.6949410     
  -50589245.7049958     
  -50586484.2367010     
  -50583742.7891758     
  -50581021.8280389     
  -50578321.7858905     
  -50575643.0627989     
  -50572986.0267903     
  -50570351.0143426     
  -50567738.3308812     
  -50565148.2512788     
  -50562581.0203548     
  -50560036.8533791     
  -50557515.9365757     
  -50555018.4276277     
  -50552544.4561830     
  -50550094.1243607     
  -50547667.5072571     
  -50545264.6534522     
  -50542885.5855146     
  -50540530.3005076     
  -50538198.7704921     
  -50535890.9430305     
  -50533606.7416872     
  -50531346.0665296     
  -50529108.7946253     
  -50526894.7805392     
  -50524703.8568269     
  -50522535.8345270     
  -50520390.5036502     
  -50518267.6336667     
  -50516166.9739899     
  -50514088.2544584     
  -50512031.1858140     
  -50509995.4601780     
  -50507980.7515230     
  -50505986.7161431     
  -50504012.9931198     
  -50502059.2047851     
  -50500124.9571810     
  -50498209.8405164     
  -50496313.4296198     
  -50494435.2843892     
  -50492574.9502381     
  -50490731.9585386     
  -50488905.8270611     
  -50487096.0604098     
  -50485302.1504556     
  -50483523.5767660     
  -50481759.8070298     
  -50471460.7535194     
  -50469215.1248611     
  -50466987.1010530     
  -50464777.0885064     
  -50462585.4649666     
  -50460412.5799179     
  -50458258.7549917     
  -50456124.2843793     
  -50454009.4352475     
  -50451914.4481569     
  -50449839.5374831     
  -50447784.8918403     
  -50445750.6745060     
  -50443737.0238483     
  -50441744.0537535     
  -50439771.8540555     
  -50437820.4909653     
  -50435890.0075014     
  -50433980.4239200     
  -50432091.7381453     
  -50430223.9261996     
  -50428376.9426328     
  -50426550.7209511     
  -50424745.1740452     
  -50422960.1946167     
  -50421195.6556038     
  -50419451.4106057     
  -50417727.2943046     
  -50416023.1228870     
  -50414338.6944624     
  -50412673.7894803     
  -50411028.1711451     
  -50409401.5858288     
  -50407793.7634811     
  -50406204.4180378     
  -50404633.2478261     
  -50403079.9359675     
  -50401544.1507782     
  -50400025.5461666     
  -50398523.7620287     
  -50397038.4246399     
  -50395569.1470445     
  -50394115.5294424     
  -50392677.1595727     
  -50391253.6130944     
  -50389844.4539647     
  -50388449.2348140     
  -50387067.4973177     
  -50385698.7725660     
  -50384342.5814297     
  -50351923.5721725     
  -50350205.6682977     
  -50348504.0267432     
  -50346818.9520332     
  -50345150.7247353     
  -50343499.6017973     
  -50341865.8168877     
  -50340249.5807398     
  -50338651.0814984     
  -50337070.4850689     
  -50335507.9354695     
  -50333963.5551849     
  -50332437.4455217     
  -50330929.6869653     
  -50329440.3395388     
  -50327969.4431611     
  -50326517.0180079     
  -50325083.0648713     
  -50323667.5655210     
  -50322270.4830644     
  -50320891.7623080     
  -50319531.3301169     
  -50318189.0957748     
  -50316864.9513432     
  -50315558.7720194     
  -50314270.4164938     
  -50312999.7273058     
  -50311746.5311988     
  -50310510.6394736     
  -50309291.8483400     
  -50308089.9392673     
  -50306904.6793323     
  -50305735.8215668     
  -50304583.1053014     
  -50303446.2565091     
  -50302324.9881452     
  -50301219.0004865     
  -50300127.9814667     
  -50299051.6070116     
  -50297989.5413699     
  -50296941.4374431     
  -50295906.9371124     
  -50294885.6715633     
  -50293877.2616075     
  -50292881.3180031     
  -50291897.4417714     
  -50290925.2245115     
  -50289964.2487130     
  -50289014.0880654     
  -50288074.3077652     
  -50233115.5153724     
  -50231919.3785951     
  -50230738.6398488     
  -50229573.4941442     
  -50228424.1171352     
  -50227290.6653970     
  -50226173.2767065     
  -50225072.0703259     
  -50223987.1472884     
  -50222918.5906855     
  -50221866.4659574     
  -50220830.8211833     
  -50219811.6873746     
  -50218809.0787683     
  -50217822.9931215     
  -50216853.4120068     
  -50215900.3011080     
  -50214963.6105160     
  -50214043.2750250     
  -50213139.2144291     
  -50212251.3338171     
  -50211379.5238692     
  -50210523.6611512     
  -50209683.6084092     
  -50208859.2148628     
  -50208050.3164982     
  -50207256.7363590     
  -50206478.2848371     
  -50205714.7599618     
  -50204965.9476871     
  -50204231.6221786     
  -50203511.5460975     
  -50202805.4708845     
  -50202113.1370403     
  -50201434.2744061     
  -50200768.6024408     
  -50200115.8304971     
  -50199475.6580957     
  -50198847.7751968     
  -50198231.8624706     
  -50197627.5915647     
  -50197034.6253701     
  -50196452.6182854     
  -50195881.2164772     
  -50195320.0581405     
  -50194768.7737554     
  -50194226.9863421     
  -50193694.3117139     
  -50193170.3587276     
  -50192654.7295317     
  -50114731.4009843     
  -50114052.8610252     
  -50113389.2400767     
  -50112740.6173753     
  -50112107.0573142     
  -50111488.6096699     
  -50110885.3098287     
  -50110297.1790166     
  -50109724.2245309     
  -50109166.4399713     
  -50108623.8054741     
  -50108096.2879462     
  -50107583.8413002     
  -50107086.4066900     
  -50106603.9127462     
  -50106136.2758131     
  -50105683.4001845     
  -50105245.1783398     
  -50104821.4911800     
  -50104412.2082637     
  -50104017.1880417     
  -50103636.2780912     
  -50103269.3153507     
  -50102916.1263521     
  -50102576.5274527     
  -50102250.3250668     
  -50101937.3158949     
  -50101637.2871529     
  -50101350.0167990     
  -50101075.2737605     
  -50100812.8181574     
  -50100562.4015263     
  -50100323.7670417     
  -50100096.6497359     
  -50099880.7767169     
  -50099675.8673859     
  -50099481.6336509     
  -50099297.7801411     
  -50099124.0044167     
  -50098959.9971794     
  -50098805.4424789     
  -50098660.0179191     
  -50098523.3948616     
  -50098395.2386273     
  -50098275.2086959     
  -50098162.9589042     
  -50098058.1376415     
  -50097960.3880435     
  -50097869.3481840     
  -50097784.6512650     
  -49996461.1784974     
  -49996297.9422545     
  -49996149.4407264     
  -49996015.6323274     
  -49995896.4650836     
  -49995791.8768125     
  -49995701.7953023     
  -49995626.1384932     
  -49995564.8146582     
  -49995517.7225848     
  -49995484.7517565     
  -49995465.7825346     
  -49995460.6863401     
  -49995469.3258351     
  -49995491.5551037     
  -49995527.2198335     
  -49995576.1574951     
  -49995638.1975229     
  -49995713.1614927     
  -49995800.8633010     
  -49995901.1093419     
  -49996013.6986830     
  -49996138.4232416     
  -49996275.0679579     
  -49996423.4109686     
  -49996583.2237781     
  -49996754.2714294     
  -49996936.3126727     
  -49997129.1001332     
  -49997332.3804773     
  -49997545.8945769     
  -49997769.3776727     
  -49998002.5595357     
  -49998245.1646269     
  -49998496.9122552     
  -49998757.5167346     
  -49999026.6875384     
  -49999304.1294524     
  -49999589.5427263     
  -49999882.6232228     
  -50000183.0625662     
  -50000490.5482872     
  -50000804.7639681     
  -50001125.3893846     
  -50001452.1006464     
  -50001784.5703359     
  -50002122.4676454     
  -50002465.4585116     
  -50002813.2057496     
  -50003165.3691838     
  -49877990.5192361     
  -49878342.2440393     
  -49878708.7251529     
  -49879089.7962138     
  -49879485.2848994     
  -49879895.0130640     
  -49880318.7968750     
  -49880756.4469483     
  -49881207.7684832     
  -49881672.5613959     
  -49882150.6204533     
  -49882641.7354049     
  -49883145.6911140     
  -49883662.2676882     
  -49884191.2406086     
  -49884732.3808574     
  -49885285.4550450     
  -49885850.2255355     
  -49886426.4505705     
  -49887013.8843925     
  -49887612.2773658     
  -49888221.3760967     
  -49888840.9235518     
  -49889470.6591753     
  -49890110.3190042     
  -49890759.6357820     
  -49891418.3390712     
  -49892086.1553638     
  -49892762.8081902     
  -49893448.0182265     
  -49894141.5034003     
  -49894842.9789946     
  -49895552.1577495     
  -49896268.7499638     
  -49896992.4635923     
  -49897723.0043442     
  -49898460.0757776     
  -49899203.3793934     
  -49899952.6147267     
  -49900707.4794377     
  -49901467.6693991     
  -49902232.8787835     
  -49903002.8001476     
  -49903777.1245160     
  -49904555.5414621     
  -49905337.7391883     
  -49906123.4046037     
  -49906912.2234008     
  -49907703.8801297     
  -49908498.0582717     
  -49759001.3402478     
  -49759869.6923938     
  -49760752.9404245     
  -49761650.7902539     
  -49762562.9462739     
  -49763489.1114507     
  -49764428.9874189     
  -49765382.2745731     
  -49766348.6721590     
  -49767327.8783606     
  -49768319.5903874     
  -49769323.5045583     
  -49770339.3163840     
  -49771366.7206473     
  -49772405.4114818     
  -49773455.0824478     
  -49774515.4266071     
  -49775586.1365952     
  -49776666.9046913     
  -49777757.4228876     
  -49778857.3829546     
  -49779966.4765065     
  -49781084.3950626     
  -49782210.8301087     
  -49783345.4731552     
  -49784488.0157931     
  -49785638.1497494     
  -49786795.5669394     
  -49787959.9595170     
  -49789131.0199241     
  -49790308.4409372     
  -49791491.9157124     
  -49792681.1378285     
  -49793875.8013285     
  -49795075.6007588     
  -49796280.2312070     
  -49797489.3883377     
  -49798702.7684264     
  -49799920.0683917     
  -49801140.9858264     
  -49802365.2190256     
  -49803592.4670142     
  -49804822.4295722     
  -49806054.8072584     
  -49807289.3014327     
  -49808525.6142762     
  -49809763.4488104     
  -49811002.5089144     
  -49812242.4993407     
  -49813483.1257289     
  -49639172.2834558     
  -49640560.9832795     
  -49641964.7487020     
  -49643383.1559328     
  -49644815.7841435     
  -49646262.2155243     
  -49647722.0353362     
  -49649194.8319604     
  -49650680.1969438     
  -49652177.7250419     
  -49653687.0142583     
  -49655207.6658811     
  -49656739.2845166     
  -49658281.4781194     
  -49659833.8580203     
  -49661396.0389504     
  -49662967.6390638     
  -49664548.2799560     
  -49666137.5866803     
  -49667735.1877619     
  -49669340.7152088     
  -49670953.8045200     
  -49672574.0946921     
  -49674201.2282224     
  -49675834.8511103     
  -49677474.6128558     
  -49679120.1664564     
  -49680771.1684007     
  -49682427.2786610     
  -49684088.1606824     
  -49685753.4813710     
  -49687422.9110793     
  -49689096.1235895     
  -49690772.7960951     
  -49692452.6091806     
  -49694135.2467990     
  -49695820.3962476     
  -49697507.7481416     
  -49699196.9963865     
  -49700887.8381483     
  -49702579.9738225     
  -49704273.1070001     
  -49705966.9444338     
  -49707661.1960012     
  -49709355.5746670     
  -49711049.7964433     
  -49712743.5803486     
  -49714436.6483660     
  -49716128.7253984     
  -49717819.5392236     
  -49518179.1716918     
  -49520094.0258691     
  -49522024.0568471     
  -49523968.7101048     
  -49525927.4386540     
  -49527899.7030538     
  -49529884.9714195     
  -49531882.7194275     
  -49533892.4303154     
  -49535913.5948776     
  -49537945.7114565     
  -49539988.2859297     
  -49542040.8316935     
  -49544102.8696411     
  -49546173.9281386     
  -49548253.5429963     
  -49550341.2574363     
  -49552436.6220571     
  -49554539.1947942     
  -49556648.5408784     
  -49558764.2327892     
  -49560885.8502065     
  -49563012.9799590     
  -49565145.2159691     
  -49567282.1591955     
  -49569423.4175727     
  -49571568.6059482     
  -49573717.3460167     
  -49575869.2662517     
  -49578024.0018357     
  -49580181.1945864     
  -49582340.4928820     
  -49584501.5515835     
  -49586664.0319555     
  -49588827.6015840     
  -49590991.9342933     
  -49593156.7100601     
  -49595321.6149260     
  -49597486.3409082     
  -49599650.5859087     
  -49601814.0536212     
  -49603976.4534366     
  -49606137.5003476     
  -49608296.9148502     
  -49610454.4228455     
  -49612609.7555384     
  -49614762.6493362     
  -49616912.8457451     
  -49619060.0912655     
  -49621204.1372862     
  -49395695.4633748     
  -49398144.3845712     
  -49400608.4448770     
  -49403086.9590045     
  -49405579.2538940     
  -49408084.6686834     
  -49410602.5546711     
  -49413132.2752730     
  -49415673.2059733     
  -49418224.7342708     
  -49420786.2596179     
  -49423357.1933563     
  -49425936.9586459     
  -49428524.9903903     
  -49431120.7351561     
  -49433723.6510888     
  -49436333.2078240     
  -49438948.8863937     
  -49441570.1791294     
  -49444196.5895608     
  -49446827.6323110     
  -49449462.8329873     
  -49452101.7280697     
  -49454743.8647949     
  -49457388.8010381     
  -49460036.1051903     
  -49462685.3560344     
  -49465336.1426167     
  -49467988.0641168     
  -49470640.7297143     
  -49473293.7584535     
  -49475946.7791047     
  -49478599.4300243     
  -49481251.3590121     
  -49483902.2231660     
  -49486551.6887358     
  -49489199.4309741     
  -49491845.1339854     
  -49494488.4905740     
  -49497129.2020894     
  -49499766.9782707     
  -49502401.5370892     
  -49505032.6045892     
  -49507659.9147275     
  -49510283.2092122     
  -49512902.2373389     
  -49515516.7558267     
  -49518126.5286526     
  -49520731.3268846     
  -49523330.9285139     
  -49271392.7278689     
  -49274385.7412453     
  -49277393.6141165     
  -49280415.5314522     
  -49283450.6953096     
  -49286498.3247518     
  -49289557.6557605     
  -49292627.9411395     
  -49295708.4504120     
  -49298798.4697117     
  -49301897.3016662     
  -49305004.2652751     
  -49308118.6957815     
  -49311239.9445386     
  -49314367.3788693     
  -49317500.3819221     
  -49320638.3525209     
  -49323780.7050101     
  -49326926.8690955     
  -49330076.2896801     
  -49333228.4266962     
  -49336382.7549328     
  -49339538.7638600     
  -49342695.9574488     
  -49345853.8539877     
  -49349011.9858962     
  -49352169.8995347     
  -49355327.1550114     
  -49358483.3259865     
  -49361637.9994733     
  -49364790.7756371     
  -49367941.2675912     
  -49371089.1011907     
  -49374233.9148239     
  -49377375.3592019     
  -49380513.0971461     
  -49383646.8033732     
  -49386776.1642793     
  -49389900.8777215     
  -49393020.6527986     
  -49396135.2096297     
  -49399244.2791314     
  -49402347.6027941     
  -49405444.9324567     
  -49408536.0300798     
  -49411620.6675186     
  -49414698.6262938     
  -49417769.6973621     
  -49420833.6808857     
  -49423890.3860005     
  -49144941.1639200     
  -49148490.3994006     
  -49152053.8762411     
  -49155630.6518682     
  -49159219.8058552     
  -49162820.4397841     
  -49166431.6770992     
  -49170052.6629511     
  -49173682.5640347     
  -49177320.5684171     
  -49180965.8853600     
  -49184617.7451340     
  -49188275.3988263     
  -49191938.1181423     
  -49195605.1952007     
  -49199275.9423219     
  -49202949.6918132     
  -49206625.7957455     
  -49210303.6257276     
  -49213982.5726737     
  -49217662.0465676     
  -49221341.4762219     
  -49225020.3090331     
  -49228698.0107331     
  -49232374.0651366     
  -49236047.9738848     
  -49239719.2561868     
  -49243387.4485566     
  -49247052.1045479     
  -49250712.7944861     
  -49254369.1051973     
  -49258020.6397350     
  -49261667.0171049     
  -49265307.8719871     
  -49268942.8544558     
  -49272571.6296988     
  -49276193.8777332     
  -49279809.2931208     
  -49283417.5846816     
  -49287018.4752057     
  -49290611.7011642     
  -49294197.0124189     
  -49297774.1719302     
  -49301342.9554652     
  -49304903.1513037     
  -49308454.5599440     
  -49311996.9938078     
  -49315530.2769438     
  -49319054.2447322     
  -49322568.7435862     
  -49016010.1840421     
  -49020129.8526265     
  -49024262.7048629     
  -49028407.6741641     
  -49032563.7213829     
  -49036729.8346088     
  -49040905.0289533     
  -49045088.3463275     
  -49049278.8552096     
  -49053475.6504046     
  -49057677.8527953     
  -49061884.6090863     
  -49066095.0915398     
  -49070308.4977049     
  -49074524.0501406     
  -49078740.9961313     
  -49082958.6073980     
  -49087176.1798022     
  -49091393.0330456     
  -49095608.5103643     
  -49099821.9782179     
  -49104032.8259748     
  -49108240.4655930     
  -49112444.3312966     
  -49116643.8792489     
  -49120838.5872221     
  -49125027.9542634     
  -49129211.5003581     
  -49133388.7660904     
  -49137559.3123011     
  -49141722.7197422     
  -49145878.5887309     
  -49150026.5388000     
  -49154166.2083471     
  -49158297.2542818     
  -49162419.3516715     
  -49166532.1933851     
  -49170635.4897365     
  -49174728.9681259     
  -49178812.3726804     
  -49182885.4638934     
  -49186948.0182635     
  -49190999.8279326     
  -49195040.7003226     
  -49199070.4577730     
  -49203088.9371764     
  -49207095.9896144     
  -49211091.4799935     
  -49215075.2866799     
  -49219047.3011346     
  -48884269.0882960     
  -48888975.4400799     
  -48893693.3718797     
  -48898421.6981495     
  -48903159.2663409     
  -48907904.9566225     
  -48912657.6815881     
  -48917416.3859552     
  -48922180.0462539     
  -48926947.6705076     
  -48931718.2979032     
  -48936490.9984555     
  -48941264.8726618     
  -48946039.0511510     
  -48950812.6943246     
  -48955584.9919919     
  -48960355.1629985     
  -48965122.4548500     
  -48969886.1433290     
  -48974645.5321086     
  -48979399.9523598     
  -48984148.7623556     
  -48988891.3470699     
  -48993627.1177739     
  -48998355.5116277     
  -49003075.9912695     
  -49007788.0444014     
  -49012491.1833727     
  -49017184.9447605     
  -49021868.8889477     
  -49026542.5996998     
  -49031205.6837389     
  -49035857.7703162     
  -49040498.5107835     
  -49045127.5781628     
  -49049744.6667151     
  -49054349.4915076     
  -49058941.7879809     
  -49063521.3115147     
  -49068087.8369932     
  -49072641.1583701     
  -49077181.0882329     
  -49081707.4573674     
  -49086220.1143216     
  -49090718.9249695     
  -49095203.7720756     
  -49099674.5548585     
  -49104131.1885555     
  -49108573.6039866     
  -49113001.7471198     
  -48749387.8515881     
  -48754699.1125391     
  -48760019.6915011     
  -48765348.2907885     
  -48770683.6515589     
  -48776024.5534424     
  -48781369.8141596     
  -48786718.2891305     
  -48792068.8710722     
  -48797420.4895882     
  -48802772.1107485     
  -48808122.7366624     
  -48813471.4050423     
  -48818817.1887610     
  -48824159.1954023     
  -48829496.5668048     
  -48834828.4786002     
  -48840154.1397455     
  -48845472.7920509     
  -48850783.7097024     
  -48856086.1987797     
  -48861379.5967714     
  -48866663.2720844     
  -48871936.6235523     
  -48877199.0799386     
  -48882450.0994389     
  -48887689.1691789     
  -48892915.8047119     
  -48898129.5495129     
  -48903329.9744719     
  -48908516.6773848     
  -48913689.2824443     
  -48918847.4397283     
  -48923990.8246883     
  -48929119.1376369     
  -48934232.1032349     
  -48939329.4699772     
  -48944411.0096798     
  -48949476.5169656     
  -48954525.8087509     
  -48959558.7237316     
  -48964575.1218701     
  -48969574.8838824     
  -48974557.9107255     
  -48979524.1230856     
  -48984473.4608670     
  -48989405.8826816     
  -48994321.3653390     
  -48999219.9033378     
  -49004101.5083576     
  -48611038.0494353     
  -48616974.3333631     
  -48622916.8957039     
  -48628864.3354938     
  -48634815.2967624     
  -48640768.4680577     
  -48646722.5819611     
  -48652676.4145906     
  -48658628.7850956     
  -48664578.5551422     
  -48670524.6283896     
  -48676465.9499588     
  -48682401.5058948     
  -48688330.3226202     
  -48694251.4663839     
  -48700164.0427034     
  -48706067.1958012     
  -48711960.1080372     
  -48717841.9993360     
  -48723712.1266097     
  -48729569.7831779     
  -48735414.2981840     
  -48741245.0360076     
  -48747061.3956758     
  -48752862.8102712     
  -48758648.7463378     
  -48764418.7032861     
  -48770172.2127958     
  -48775908.8382180     
  -48781628.1739761     
  -48787329.8449663     
  -48793013.5059577     
  -48798678.8409917     
  -48804325.5627823     
  -48809953.4121153     
  -48815562.1572493     
  -48821151.5933159     
  -48826721.5417213     
  -48832271.8495485     
  -48837802.3889601     
  -48843313.0566027     
  -48848803.7730121     
  -48854274.4820197     
  -48859725.1501599     
  -48865155.7660799     
  -48870566.3399498     
  -48875956.9028750     
  -48881327.5063096     
  -48886678.2214721     
  -48892009.1387619     
  -48468893.9481103     
  -48475477.1396792     
  -48482062.6658709     
  -48488649.0336633     
  -48495234.8014918     
  -48501818.5786548     
  -48508399.0247079     
  -48514974.8488485     
  -48521544.8092912     
  -48528107.7126353     
  -48534662.4132232     
  -48541207.8124927     
  -48547742.8583224     
  -48554266.5443707     
  -48560777.9094092     
  -48567276.0366521     
  -48573760.0530795     
  -48580229.1287582     
  -48586682.4761579     
  -48593119.3494649     
  -48599539.0438924     
  -48605940.8949896     
  -48612324.2779475     
  -48618688.6069048     
  -48625033.3342509     
  -48631357.9499293     
  -48637661.9807397     
  -48643944.9896403     
  -48650206.5750498     
  -48656446.3701496     
  -48662664.0421872     
  -48668859.2917790     
  -48675031.8522154     
  -48681181.4887666     
  -48687307.9979891     
  -48693411.2070344     
  -48699490.9729594     
  -48705547.1820377     
  -48711579.7490738     
  -48717588.6167190     
  -48723573.7547889     
  -48729535.1595839     
  -48735472.8532114     
  -48741386.8829105     
  -48747277.3203794     
  -48753144.2611049     
  -48758987.8236942     
  -48764808.1492099     
  -48770605.4005071     
  -48776379.7615727     
  -48322633.7862428     
  -48329887.3903079     
  -48337138.3465751     
  -48344385.0838971     
  -48351626.0893623     
  -48358859.9075615     
  -48366085.1398453     
  -48373300.4435730     
  -48380504.5313522     
  -48387696.1702724     
  -48394874.1811311     
  -48402037.4376544     
  -48409184.8657115     
  -48416315.4425250     
  -48423428.1958764     
  -48430522.2033091     
  -48437596.5913264     
  -48444650.5345887     
  -48451683.2551076     
  -48458694.0214382     
  -48465682.1478709     
  -48472646.9936216     
  -48479587.9620218     
  -48486504.4997093     
  -48493396.0958178     
  -48500262.2811687     
  -48507102.6274622     
  -48513916.7464714     
  -48520704.2892368     
  -48527464.9452627     
  -48534198.4417161     
  -48540904.5426272     
  -48547583.0480932     
  -48554233.7934837     
  -48560856.6486497     
  -48567451.5171352     
  -48574018.3353920     
  -48580557.0719976     
  -48587067.7268764     
  -48593550.3305245     
  -48600004.9432376     
  -48606431.6543428     
  -48612830.5814340     
  -48619201.8696103     
  -48625545.6907190     
  -48631862.2426017     
  -48638151.7483434     
  -48644414.4555275     
  -48650650.6354914     
  -48656860.5825881     
  -48171941.2763840     
  -48179890.2283869     
  -48187830.3689481     
  -48195760.0658318     
  -48203677.7521171     
  -48211581.9253077     
  -48219471.1464333     
  -48227344.0391444     
  -48235199.2887994     
  -48243035.6415476     
  -48250851.9034055     
  -48258646.9393306     
  -48266419.6722899     
  -48274169.0823264     
  -48281894.2056230     
  -48289594.1335646     
  -48297268.0117987     
  -48304915.0392955     
  -48312534.4674080     
  -48320125.5989317     
  -48327687.7871658     
  -48335220.4349748     
  -48342722.9938523     
  -48350194.9629864     
  -48357635.8883271     
  -48365045.3616571     
  -48372423.0196644     
  -48379768.5430195     
  -48387081.6554551     
  -48394362.1228495     
  -48401609.7523144     
  -48408824.3912867     
  -48416005.9266250     
  -48423154.2837096     
  -48430269.4255480     
  -48437351.3518853     
  -48444400.0983185     
  -48451415.7354170     
  -48458398.3678472     
  -48465348.1335027     
  -48472265.2026393     
  -48479149.7770152     
  -48486002.0890373     
  -48492822.4009108     
  -48499611.0037959     
  -48506368.2169681     
  -48513094.3869846     
  -48519789.8868555     
  -48526455.1152193     
  -48533090.4955242     
  -48016507.3567934     
  -48025177.7884359     
  -48033831.9128786     
  -48042468.0573584     
  -48051084.6217840     
  -48059680.0776670     
  -48068252.9670490     
  -48076801.9014216     
  -48085325.5606438     
  -48093822.6918548     
  -48102292.1083851     
  -48110732.6886652     
  -48119143.3751330     
  -48127523.1731406     
  -48135871.1498614     
  -48144186.4331973     
  -48152468.2106880     
  -48160715.7284210     
  -48168928.2899446     
  -48177105.2551832     
  -48185246.0393563     
  -48193350.1119004     
  -48201416.9953959     
  -48209446.2644973     
  -48217437.5448697     
  -48225390.5121281     
  -48233304.8907847     
  -48241180.4531999     
  -48249017.0185403     
  -48256814.4517426     
  -48264572.6624832     
  -48272291.6041553     
  -48279971.2728523     
  -48287611.7063576     
  -48295212.9831420     
  -48302775.2213680     
  -48310298.5779002     
  -48317783.2473246     
  -48325229.4609733     
  -48332637.4859577     
  -48340007.6242080     
  -48347340.2115200     
  -48354635.6166097     
  -48361894.2401737     
  -48369116.5139577     
  -48376302.8998312     
  -48383453.8888687     
  -48390570.0004392     
  -48397651.7812994     
  -48404699.8046961     
  -47856032.2259221     
  -47865451.1798378     
  -47874844.8395306     
  -47884211.5162481     
  -47893549.6015052     
  -47902857.5658172     
  -47912133.9574288     
  -47921377.4010419     
  -47930586.5965416     
  -47939760.3177220     
  -47948897.4110122     
  -47957996.7942034     
  -47967057.4551780     
  -47976078.4506404     
  -47985058.9048520     
  -47993998.0083687     
  -48002895.0167839     
  -48011749.2494754     
  -48020560.0883580     
  -48029326.9766420     
  -48038049.4175981     
  -48046726.9733286     
  -48055359.2635460     
  -48063945.9643596     
  -48072486.8070688     
  -48080981.5769658     
  -48089430.1121455     
  -48097832.3023253     
  -48106188.0876731     
  -48114497.4576442     
  -48122760.4498282     
  -48130977.1488047     
  -48139147.6850092     
  -48147272.2336074     
  -48155351.0133810     
  -48163384.2856216     
  -48171372.3530351     
  -48179315.5586560     
  -48187214.2847710     
  -48195068.9518525     
  -48202880.0175017     
  -48210647.9754012     
  -48218373.3542767     
  -48226056.7168685     
  -48233698.6589120     
  -48241299.8081262     
  -48248860.8232128     
  -48256382.3928617     
  -48263865.2347668     
  -48271310.0946487     
  -47690227.6948799     
  -47700422.7815219     
  -47710581.9284807     
  -47720703.4600065     
  -47730785.7884002     
  -47740827.4125240     
  -47750826.9163131     
  -47760782.9672877     
  -47770694.3150696     
  -47780559.7898993     
  -47790378.3011596     
  -47800148.8359021     
  -47809870.4573803     
  -47819542.3035886     
  -47829163.5858079     
  -47838733.5871589     
  -47848251.6611637     
  -47857717.2303152     
  -47867129.7846568     
  -47876488.8803706     
  -47885794.1383763     
  -47895045.2429408     
  -47904241.9402978     
  -47913384.0372798     
  -47922471.3999604     
  -47931503.9523098     
  -47940481.6748613     
  -47949404.6033908     
  -47958272.8276083     
  -47967086.4898627     
  -47975845.7838591     
  -47984550.9533888     
  -47993202.2910730     
  -48001800.1371184     
  -48010344.8780876     
  -48018836.9456802     
  -48027276.8155292     
  -48035665.0060087     
  -48044002.0770552     
  -48052288.6290013     
  -48060525.3014221     
  -48068712.7719938     
  -48076851.7553645     
  -48084943.0020370     
  -48092987.2972635     
  -48100985.4599508     
  -48108938.3415783     
  -48116846.8251249     
  -48124711.8240080     
  -48132534.2810317     
  -47518819.8967584     
  -47529818.8861910     
  -47540769.4572858     
  -47551669.9812458     
  -47562518.9252274     
  -47573314.8506068     
  -47584056.4112493     
  -47594742.3517866     
  -47605371.5059002     
  -47615942.7946116     
  -47626455.2245820     
  -47636907.8864211     
  -47647299.9530048     
  -47657630.6778055     
  -47667899.3932318     
  -47678105.5089814     
  -47688248.5104061     
  -47698327.9568901     
  -47708343.4802416     
  -47718294.7830994     
  -47728181.6373528     
  -47738003.8825780     
  -47747761.4244882     
  -47757454.2334014     
  -47767082.3427221     
  -47776645.8474414     
  -47786144.9026517     
  -47795579.7220797     
  -47804950.5766349     
  -47814257.7929763     
  -47823501.7520957     
  -47832682.8879179     
  -47841801.6859182     
  -47850858.6817573     
  -47859854.4599333     
  -47868789.6524500     
  -47877664.9375026     
  -47886481.0381807     
  -47895238.7211865     
  -47903938.7955704     
  -47912582.1114823     
  -47921169.5589386     
  -47929702.0666050     
  -47938180.6005938     
  -47946606.1632772     
  -47954979.7921133     
  -47963302.5584882     
  -47971575.5665694     
  -47979799.9521738     
  -47987976.8816487     
  -47341552.3962862     
  -47353382.7369420     
  -47365150.1657020     
  -47376853.1401587     
  -47388490.2217990     
  -47400060.0740004     
  -47411561.4600369     
  -47422993.2410968     
  -47434354.3743118     
  -47445643.9107994     
  -47456860.9937181     
  -47468004.8563381     
  -47479074.8201267     
  -47490070.2928495     
  -47500990.7666886     
  -47511835.8163779     
  -47522605.0973560     
  -47533298.3439383     
  -47543915.3675071     
  -47554456.0547222     
  -47564920.3657508     
  -47575308.3325178     
  -47585620.0569769     
  -47595855.7094029     
  -47606015.5267051     
  -47616099.8107623     
  -47626108.9267798     
  -47636043.3016686     
  -47645903.4224447     
  -47655689.8346540     
  -47665403.1408166     
  -47675043.9988941     
  -47684613.1207793     
  -47694111.2708080     
  -47703539.2642918     
  -47712897.9660743     
  -47722188.2891071     
  -47731411.1930485     
  -47740567.6828822     
  -47749658.8075577     
  -47758685.6586498     
  -47767649.3690395     
  -47776551.1116133     
  -47785392.0979816     
  -47794173.5772170     
  -47802896.8346084     
  -47811563.1904346     
  -47820173.9987535     
  -47828730.6462082     
  -47837234.5508488     
  -47158189.7491407     
  -47170878.0048040     
  -47183486.6522577     
  -47196014.2809662     
  -47208459.5921698     
  -47220821.3965859     
  -47233098.6121271     
  -47245290.2616352     
  -47257395.4706344     
  -47269413.4651018     
  -47281343.5692582     
  -47293185.2033798     
  -47304937.8816304     
  -47316601.2099158     
  -47328174.8837616     
  -47339658.6862135     
  -47351052.4857622     
  -47362356.2342932     
  -47373569.9650607     
  -47384693.7906890     
  -47395727.9011986     
  -47406672.5620590     
  -47417528.1122699     
  -47428294.9624676     
  -47438973.5930613     
  -47449564.5523951     
  -47460068.4549390     
  -47470485.9795089     
  -47480817.8675126     
  -47491064.9212267     
  -47501228.0020997     
  -47511308.0290845     
  -47521305.9769984     
  -47531222.8749114     
  -47541059.8045621     
  -47550817.8988013     
  -47560498.3400624     
  -47570102.3588593     
  -47579631.2323097     
  -47589086.2826861     
  -47598468.8759903     
  -47607780.4205547     
  -47617022.3656669     
  -47626196.2002183     
  -47635303.4513768     
  -47644345.6832801     
  -47653324.4957528     
  -47662241.5230424     
  -47671098.4325771     
  -47679896.9237423     
  -46968521.5676576     
  -46982092.7628205     
  -46995565.2576639     
  -47008937.8256476     
  -47022209.3597195     
  -47035378.8696959     
  -47048445.4796645     
  -47061408.4254108     
  -47074267.0518692     
  -47087020.8105999     
  -47099669.2572906     
  -47112212.0492876     
  -47124648.9431535     
  -47136979.7922546     
  -47149204.5443780     
  -47161323.2393789     
  -47173336.0068591     
  -47185243.0638782     
  -47197044.7126953     
  -47208741.3385464     
  -47220333.4074526     
  -47231821.4640638     
  -47243206.1295369     
  -47254488.0994470     
  -47265668.1417361     
  -47276747.0946943     
  -47287725.8649782     
  -47298605.4256647     
  -47309386.8143395     
  -47320071.1312214     
  -47330659.5373237     
  -47341153.2526481     
  -47351553.5544166     
  -47361861.7753371     
  -47372079.3019040     
  -47382207.5727338     
  -47392248.0769330     
  -47402202.3525027     
  -47412071.9847729     
  -47421858.6048718     
  -47431563.8882250     
  -47441189.5530880     
  -47450737.3591074     
  -47460209.1059123     
  -47469606.6317353     
  -47478931.8120598     
  -47488186.5582963     
  -47497372.8164823     
  -47506492.5660091     
  -47515547.8183719     
  -46772367.1589075     
  -46786844.0210410     
  -46801200.4977721     
  -46815435.6059721     
  -46829548.4894222     
  -46843538.4158432     
  -46857404.7739562     
  -46871147.0705728     
  -46884764.9277183     
  -46898258.0797873     
  -46911626.3707327     
  -46924869.7512902     
  -46937988.2762385     
  -46950982.1016966     
  -46963851.4824585     
  -46976596.7693664     
  -46989218.4067237     
  -47001716.9297476     
  -47014092.9620624     
  -47026347.2132347     
  -47038480.4763501     
  -47050493.6256326     
  -47062387.6141067     
  -47074163.4713028     
  -47085822.3010070     
  -47097365.2790533     
  -47108793.6511612     
  -47120108.7308172     
  -47131311.8972005     
  -47142404.5931529     
  -47153388.3231933     
  -47164264.6515758     
  -47175035.2003924     
  -47185701.6477185     
  -47196265.7258023     
  -47206729.2192969     
  -47217093.9635345     
  -47227361.8428426     
  -47237534.7889018     
  -47247614.7791430     
  -47257603.8351848     
  -47267504.0213105     
  -47277317.4429816     
  -47287046.2453890     
  -47296692.6120402     
  -47306258.7633809     
  -47315746.9554501     
  -47325159.4785674     
  -47334498.6560517     
  -47343766.8429698     
  -46569580.8124304     
  -46584982.8973575     
  -46600240.1186026     
  -46615351.8038909     
  -46630317.4148567     
  -46645136.5436920     
  -46659808.9098318     
  -46674334.3566783     
  -46688712.8483642     
  -46702944.4665576     
  -46717029.4073090     
  -46730967.9779416     
  -46744760.5939862     
  -46758407.7761619     
  -46771910.1474033     
  -46785268.4299356     
  -46798483.4423982     
  -46811556.0970178     
  -46824487.3968323     
  -46837278.4329647     
  -46849930.3819499     
  -46862444.5031135     
  -46874822.1360033     
  -46887064.6978746     
  -46899173.6812290     
  -46911150.6514079     
  -46922997.2442400     
  -46934715.1637434     
  -46946306.1798826     
  -46957772.1263805     
  -46969114.8985845     
  -46980336.4513873     
  -46991438.7972024     
  -47002424.0039932     
  -47013294.1933555     
  -47024051.5386535     
  -47034698.2632082     
  -47045236.6385372     
  -47055668.9826465     
  -47065997.6583711     
  -47076225.0717668     
  -47086353.6705482     
  -47096385.9425755     
  -47106324.4143867     
  -47116171.6497738     
  -47125930.2484037     
  -47135602.8444798     
  -47145192.1054444     
  -47154700.7307199     
  -47164131.4504863     
  -46360057.8284685     
  -46376400.5115896     
  -46392570.8573398     
  -46408568.5806203     
  -46424393.5366830     
  -46440045.7173594     
  -46455525.2473329     
  -46470832.3804595     
  -46485967.4961361     
  -46500931.0957190     
  -46515723.7989936     
  -46530346.3406973     
  -46544799.5670961     
  -46559084.4326170     
  -46573201.9965378     
  -46587153.4197340     
  -46600939.9614862     
  -46614562.9763462     
  -46628023.9110664     
  -46641324.3015897     
  -46654465.7701045     
  -46667450.0221616     
  -46680278.8438576     
  -46692954.0990830     
  -46705477.7268357     
  -46717851.7386018     
  -46730078.2158021     
  -46742159.3073067     
  -46754097.2270156     
  -46765894.2515075     
  -46777552.7177551     
  -46789075.0209081     
  -46800463.6121423     
  -46811720.9965759     
  -46822849.7312517     
  -46833852.4231848     
  -46844731.7274749     
  -46855490.3454835     
  -46866131.0230736     
  -46876656.5489124     
  -46887069.7528344     
  -46897373.5042656     
  -46907570.7107056     
  -46917664.3162669     
  -46927657.3002715     
  -46937552.6758993     
  -46947353.4888914     
  -46957062.8163019     
  -46966683.7652997     
  -46976219.4720163     
  -46143741.3932709     
  -46161034.7044429     
  -46178125.0058909     
  -46195012.4859348     
  -46211697.4789876     
  -46228180.4613168     
  -46244462.0468596     
  -46260542.9830947     
  -46276424.1469706     
  -46292106.5408945     
  -46307591.2887820     
  -46322879.6321703     
  -46337972.9263968     
  -46352872.6368439     
  -46367580.3352527     
  -46382097.6961064     
  -46396426.4930853     
  -46410568.5955945     
  -46424525.9653659     
  -46438300.6531354     
  -46451894.7953973     
  -46465310.6112354     
  -46478550.3992335     
  -46491616.5344643     
  -46504511.4655601     
  -46517237.7118622     
  -46529797.8606534     
  -46542194.5644714     
  -46554430.5385040     
  -46566508.5580674     
  -46578431.4561660     
  -46590202.1211348     
  -46601823.4943639     
  -46613298.5681046     
  -46624630.3833569     
  -46635822.0278379     
  -46646876.6340299     
  -46657797.3773087     
  -46668587.4741490     
  -46679250.1804085     
  -46689788.7896861     
  -46700206.6317574     
  -46710507.0710808     
  -46720693.5053773     
  -46730769.3642785     
  -46740738.1080440     
  -46750603.2263436     
  -46760368.2371039     
  -46770036.6854158     
  -46779612.1425020     
  -45920630.4255910     
  -45938877.6984434     
  -45956887.8870452     
  -45974661.7506013     
  -45992200.1993065     
  -46009504.2895838     
  -46026575.2193839     
  -46043414.3235510     
  -46060023.0692552     
  -46076403.0514968     
  -46092555.9886816     
  -46108483.7182725     
  -46124188.1925177     
  -46139671.4742588     
  -46154935.7328204     
  -46169983.2399835     
  -46184816.3660436     
  -46199437.5759575     
  -46213849.4255787     
  -46228054.5579827     
  -46242055.6998858     
  -46255855.6581569     
  -46269457.3164245     
  -46282863.6317790     
  -46296077.6315731     
  -46309102.4103195     
  -46321941.1266879     
  -46334597.0006006     
  -46347073.3104290     
  -46359373.3902892     
  -46371500.6274394     
  -46383458.4597765     
  -46395250.3734343     
  -46406879.9004811     
  -46418350.6167181     
  -46429666.1395762     
  -46440830.1261124     
  -46451846.2711031     
  -46462718.3052357     
  -46473449.9933943     
  -46484045.1330412     
  -46494507.5526906     
  -46504841.1104740     
  -46515049.6927947     
  -46525137.2130702     
  -46535107.6105606     
  -46544964.8492780     
  -46554712.9169795     
  -46564355.8242357     
  -46573897.6035750     
  -45690788.5369188     
  -45709984.8336650     
  -45728906.3662994     
  -45747554.5752752     
  -45765931.0559415     
  -45784037.5531809     
  -45801875.9561204     
  -45819448.2929174     
  -45836756.7256248     
  -45853803.5451391     
  -45870591.1662327     
  -45887122.1226759     
  -45903399.0624495     
  -45919424.7430518     
  -45935202.0269026     
  -45950733.8768469     
  -45966023.3517606     
  -45981073.6022602     
  -45995887.8665203     
  -46010469.4661984     
  -46024821.8024717     
  -46038948.3521860     
  -46052852.6641187     
  -46066538.3553584     
  -46080009.1078006     
  -46093268.6647631     
  -46106320.8277202     
  -46119169.4531575     
  -46131818.4495485     
  -46144271.7744524     
  -46156533.4317346     
  -46168607.4689102     
  -46180497.9746089     
  -46192209.0761646     
  -46203744.9373258     
  -46215109.7560884     
  -46226307.7626503     
  -46237343.2174863     
  -46248220.4095423     
  -46258943.6545491     
  -46269517.2934522     
  -46279945.6909579     
  -46290233.2341928     
  -46300384.3314754     
  -46310403.4111979     
  -46320294.9208149     
  -46330063.3259365     
  -46339713.1095254     
  -46349248.7711908     
  -46358674.8265799     
  -45454354.2655888     
  -45474484.5251695     
  -45494298.5331038     
  -45513798.5365450     
  -45532986.9402965     
  -45551866.3007519     
  -45570439.3199203     
  -45588708.8395383     
  -45606677.8352744     
  -45624349.4110291     
  -45641726.7933360     
  -45658813.3258664     
  -45675612.4640427     
  -45692127.7697616     
  -45708362.9062351     
  -45724321.6329466     
  -45740007.8007324     
  -45755425.3469843     
  -45770578.2909823     
  -45785470.7293565     
  -45800106.8316813     
  -45814490.8362063     
  -45828627.0457233     
  -45842519.8235730     
  -45856173.5897938     
  -45869592.8174117     
  -45882782.0288774     
  -45895745.7926462     
  -45908488.7199068     
  -45921015.4614573     
  -45933330.7047297     
  -45945439.1709634     
  -45957345.6125284     
  -45969054.8103982     
  -45980571.5717720     
  -45991900.7278466     
  -46003047.1317372     
  -46014015.6565458     
  -46024811.1935778     
  -46035438.6507049     
  -46045902.9508723     
  -46056209.0307506     
  -46066361.8395271     
  -46076366.3378397     
  -46086227.4968469     
  -46095950.2974321     
  -46105539.7295411     
  -46115000.7916498     
  -46124338.4903557     
  -46133557.8400944     
  -45211552.7587394     
  -45232589.5985606     
  -45253264.6905580     
  -45273581.2319941     
  -45293542.5792020     
  -45313152.2407010     
  -45332413.8704117     
  -45351331.2609705     
  -45369908.3371536     
  -45388149.1494123     
  -45406057.8675285     
  -45423638.7743912     
  -45440896.2599025     
  -45457834.8150150     
  -45474459.0259064     
  -45490773.5682961     
  -45506783.2019057     
  -45522492.7650691     
  -45537907.1694952     
  -45553031.3951860     
  -45567870.4855149     
  -45582429.5424663     
  -45596713.7220399     
  -45610728.2298239     
  -45624478.3167367     
  -45637969.2749409     
  -45651206.4339325     
  -45664195.1568042     
  -45676940.8366870     
  -45689448.8933706     
  -45701724.7701027     
  -45713773.9305702     
  -45725601.8560603     
  -45737214.0428048     
  -45748615.9995058     
  -45759813.2450436     
  -45770811.3063666     
  -45781615.7165631     
  -45792232.0131129     
  -45802665.7363203     
  -45812922.4279248     
  -45823007.6298900     
  -45832926.8833676     
  -45842685.7278352     
  -45852289.7004075     
  -45861744.3353140     
  -45871055.1635456     
  -45880227.7126628     
  -45889267.5067657     
  -45898180.0666192     
  -44962709.0815789     
  -44984610.1602918     
  -45006099.7877764     
  -45027182.2765229     
  -45047862.0979486     
  -45068143.8745262     
  -45088032.3720259     
  -45107532.4918773     
  -45126649.2636585     
  -45145387.8377199     
  -45163753.4779483     
  -45181751.5546770     
  -45199387.5377495     
  -45216666.9897409     
  -45233595.5593427     
  -45250178.9749179     
  -45266423.0382282     
  -45282333.6183402     
  -45297916.6457147     
  -45313178.1064825     
  -45328124.0369112     
  -45342760.5180661     
  -45357093.6706692     
  -45371129.6501588     
  -45384874.6419536     
  -45398334.8569226     
  -45411516.5270641     
  -45424425.9013968     
  -45437069.2420628     
  -45449452.8206464     
  -45461582.9147094     
  -45473465.8045440     
  -45485107.7701447     
  -45496515.0884004     
  -45507694.0305062     
  -45518650.8595969     
  -45529391.8286010     
  -45539923.1783162     
  -45550251.1357048     
  -45560381.9124101     
  -45570321.7034916     
  -45580076.6863786     
  -45589653.0200405     
  -45599056.8443724     
  -45608294.2797945     
  -45617371.4270617     
  -45626294.3672821     
  -45635069.1621414     
  -45643701.8543298     
  -45652198.4681666     
  -44708263.3236684     
  -44730968.1435289     
  -44753207.4075409     
  -44774986.7351042     
  -44796311.9025212     
  -44817188.8339272     
  -44837623.5923576     
  -44857622.3709587     
  -44877191.4843526     
  -44896337.3601632     
  -44915066.5307117     
  -44933385.6248891     
  -44951301.3602127     
  -44968820.5350729     
  -44985950.0211773     
  -45002696.7561984     
  -45019067.7366300     
  -45035070.0108572     
  -45050710.6724470     
  -45065996.8536622     
  -45080935.7192042     
  -45095534.4601891     
  -45109800.2883598     
  -45123740.4305392     
  -45137362.1233268     
  -45150672.6080427     
  -45163679.1259212     
  -45176388.9135569     
  -45188809.1986060     
  -45200947.1957446     
  -45212810.1028861     
  -45224405.0976602     
  -45235739.3341532     
  -45246819.9399134     
  -45257654.0132203     
  -45268248.6206207     
  -45278610.7947304     
  -45288747.5323035     
  -45298665.7925683     
  -45308372.4958312     
  -45317874.5223465     
  -45327178.7114530     
  -45336291.8609762     
  -45345220.7268954     
  -45353972.0232721     
  -45362552.4224419     
  -45370968.5554645     
  -45379227.0128309     
  -45387334.3454250     
  -45395297.0657358     
  -44448787.6369865     
  -44472213.6287118     
  -44495115.3739445     
  -44517500.0234201     
  -44539374.8804015     
  -44560747.3901507     
  -44581625.1295695     
  -44602015.7970179     
  -44621927.2023215     
  -44641367.2569774     
  -44660343.9645675     
  -44678865.4113884     
  -44696939.7573049     
  -44714575.2268364     
  -44731780.1004823     
  -44748562.7062930     
  -44764931.4116936     
  -44780894.6155664     
  -44796460.7405964     
  -44811638.2258866     
  -44826435.5198467     
  -44840861.0733609     
  -44854923.3332380     
  -44868630.7359478     
  -44881991.7016490     
  -44895014.6285096     
  -44907707.8873250     
  -44920079.8164358     
  -44932138.7169480     
  -44943892.8482588     
  -44955350.4238898     
  -44966519.6076301     
  -44977408.5099906     
  -44988025.1849724     
  -44998377.6271505     
  -45008473.7690739     
  -45018321.4789833     
  -45027928.5588491     
  -45037302.7427282     
  -45046451.6954425     
  -45055383.0115785     
  -45064104.2148081     
  -45072622.7575322     
  -45080946.0208449     
  -45089081.3148196     
  -45097035.8791149     
  -45104816.8839008     
  -45112431.4311022     
  -45119886.5559589     
  -45127189.2289005     
  -44185005.2665303     
  -44209042.9570878     
  -44232492.9576183     
  -44255364.2150677     
  -44277665.8214692     
  -44299407.0016425     
  -44320597.1011073     
  -44341245.5742220     
  -44361361.9725602     
  -44380955.9335367     
  -44400037.1692916     
  -44418615.4558427     
  -44436700.6225147     
  -44454302.5416540     
  -44471431.1186363     
  -44488096.2821729     
  -44504307.9749245     
  -44520076.1444266     
  -44535410.7343324     
  -44550321.6759789     
  -44564818.8802804     
  -44578912.2299546     
  -44592611.5720836     
  -44605926.7110163     
  -44618867.4016129     
  -44631443.3428367     
  -44643664.1716961     
  -44655539.4575391     
  -44667078.6967031     
  -44678291.3075234     
  -44689186.6257026     
  -44699773.9000433     
  -44710062.2885454     
  -44720060.8548731     
  -44729778.5651902     
  -44739224.2853690     
  -44748406.7785723     
  -44757334.7032130     
  -44766016.6112902     
  -44774460.9471069     
  -44782676.0463684     
  -44790670.1356639     
  -44798451.3323337     
  -44806027.6447214     
  -44813406.9728136     
  -44820597.1092680     
  -44827605.7408295     
  -44834440.4501356     
  -44841108.7179108     
  -44847617.9255500     
  -43917811.5024397     
  -43942318.5175256     
  -43966169.5128092     
  -43989375.5461114     
  -44011947.8087508     
  -44033897.6111033     
  -44055236.3684422     
  -44075975.5870717     
  -44096126.8507650     
  -44115701.8075226     
  -44134712.1566545     
  -44153169.6362039     
  -44171086.0107115     
  -44188473.0593377     
  -44205342.5643429     
  -44221706.2999353     
  -44237576.0214913     
  -44252963.4551534     
  -44267880.2878108     
  -44282338.1574667     
  -44296348.6439948     
  -44309923.2602915     
  -44323073.4438236     
  -44335810.5485763     
  -44348145.8374040     
  -44360090.4747852     
  -44371655.5199870     
  -44382851.9206367     
  -44393690.5067082     
  -44404181.9849210     
  -44414336.9335575     
  -44424165.7976989     
  -44433678.8848819     
  -44442886.3611820     
  -44451798.2477213     
  -44460424.4176074     
  -44468774.5933047     
  -44476858.3444405     
  -44484685.0860507     
  -44492264.0772667     
  -44499604.4204484     
  -44506715.0607636     
  -44513604.7862225     
  -44520282.2281644     
  -44526755.8622058     
  -44533034.0096484     
  -44539124.8393541     
  -44545036.3700880     
  -44550776.4733320     
  -44556352.8765739     
  -43648296.2688405     
  -43673089.8689572     
  -43697154.1594624     
  -43720502.6844564     
  -43743149.1041657     
  -43765107.1779560     
  -43786390.7477244     
  -43807013.7216777     
  -43826990.0585102     
  -43846333.7519947     
  -43865058.8159901     
  -43883179.2698801     
  -43900709.1244435     
  -43917662.3681684     
  -43934052.9540108     
  -43949894.7866029     
  -43965201.7099173     
  -43979987.4953850     
  -43994265.8304754     
  -44008050.3077347     
  -44021354.4142885     
  -44034191.5218069     
  -44046574.8769351     
  -44058517.5921883     
  -44070032.6373133     
  -44081132.8311171     
  -44091830.8337620     
  -44102139.1395300     
  -44112070.0700558     
  -44121635.7680302     
  -44130848.1913763     
  -44139719.1078979     
  -44148260.0904045     
  -44156482.5123146     
  -44164397.5437391     
  -44172016.1480493     
  -44179349.0789331     
  -44186406.8779425     
  -44193199.8725379     
  -44199738.1746336     
  -44206031.6796504     
  -44212090.0660794     
  -44217922.7955668     
  -44223539.1135216     
  -44228948.0502555     
  -44234158.4226627     
  -44239178.8364441     
  -44244017.6888849     
  -44248683.1721950     
  -44253183.2774124     
  -43377767.7388056     
  -43402615.5348023     
  -43426655.7984977     
  -43449905.0086838     
  -43472379.7347165     
  -43494096.6165816     
  -43515072.3454511     
  -43535323.6447718     
  -43554867.2518754     
  -43573719.9001258     
  -43591898.3016089     
  -43609419.1303684     
  -43626299.0061905     
  -43642554.4789416     
  -43658202.0134571     
  -43673257.9749836     
  -43687738.6151730     
  -43701660.0586266     
  -43715038.2899885     
  -43727889.1415839     
  -43740228.2816019     
  -43752071.2028176     
  -43763433.2118518     
  -43774329.4189644     
  -43784774.7283794     
  -43794783.8291371     
  -43804371.1864726     
  -43813551.0337174     
  -43822337.3647220     
  -43830743.9267992     
  -43838784.2141874     
  -43846471.4620328     
  -43853818.6408922     
  -43860838.4517579     
  -43867543.3216073     
  -43873945.3994783     
  -43880056.5530789     
  -43885888.3659314     
  -43891452.1350607     
  -43896758.8692309     
  -43901819.2877414     
  -43906643.8197873     
  -43911242.6043978     
  -43915625.4909598     
  -43919802.0403404     
  -43923781.5266191     
  -43927572.9394411     
  -43931184.9870150     
  -43934626.0997429     
  -43937904.4345397     
  -43107775.8923495     
  -43132384.3397431     
  -43156102.2902579     
  -43178949.6916832     
  -43200946.5452277     
  -43222112.8822030     
  -43242468.7414648     
  -43262034.1475042     
  -43280829.0892556     
  -43298873.4996043     
  -43316187.2355933     
  -43332790.0593269     
  -43348701.6195697     
  -43363941.4340364     
  -43378528.8723650     
  -43392483.1397657     
  -43405823.2613400     
  -43418568.0670589     
  -43430736.1773929     
  -43442345.9895828     
  -43453415.6645433     
  -43463963.1143867     
  -43474005.9905601     
  -43483561.6725838     
  -43492647.2573834     
  -43501279.5492043     
  -43509475.0501043     
  -43517249.9510116     
  -43524620.1233460     
  -43531601.1111945     
  -43538208.1240377     
  -43544456.0300240     
  -43550359.3497886     
  -43555932.2508150     
  -43561188.5423451     
  -43566141.6708317     
  -43570804.7159451     
  -43575190.3871345     
  -43579311.0207534     
  -43583178.5777566     
  -43586804.6419821     
  -43590200.4190270     
  -43593376.7357344     
  -43596344.0403045     
  -43599112.4030502     
  -43601691.5178184     
  -43604090.7040914     
  -43606318.9097767     
  -43608384.7147820     
  -43610296.3352491     
  -42840134.2793767     
  -42864134.5207416     
  -42887157.0051336     
  -42909225.7820027     
  -42930364.9006034     
  -42950598.3832588     
  -42969950.1992994     
  -42988444.2400938     
  -43006104.2949421     
  -43022954.0278785     
  -43039016.9553837     
  -43054316.4249885     
  -43068875.5947489     
  -43082717.4135825     
  -43095864.6024480     
  -43108339.6363477     
  -43120164.7271403     
  -43131361.8071377     
  -43141952.5134724     
  -43151958.1732081     
  -43161399.7891799     
  -43170298.0265394     
  -43178673.1999847     
  -43186545.2616576     
  -43193933.7896865     
  -43200857.9773565     
  -43207336.6228908     
  -43213388.1198236     
  -43219030.4479527     
  -43224281.1648557     
  -43229157.3979575     
  -43233675.8371419     
  -43237852.7278942     
  -43241703.8649732     
  -43245244.5866076     
  -43248489.7692150     
  -43251453.8226453     
  -43254150.6859546     
  -43256593.8237154     
  -43258796.2228724     
  -43260770.3901601     
  -43262528.3500966     
  -43264081.6435738     
  -43265441.3270684     
  -43266617.9724943     
  -43267621.6677215     
  -43268462.0178066     
  -43269148.1470174     
  -43269688.7014338     
  -43270091.8527119     
  -42576937.3832786     
  -42599868.0074525     
  -42621730.1488655     
  -42642552.6994048     
  -42662364.4749491     
  -42681194.1842748     
  -42699070.4001566     
  -42716021.5311206     
  -42732075.7945488     
  -42747261.1909954     
  -42761605.4796263     
  -42775136.1547768     
  -42787880.4236066     
  -42799865.1848248     
  -42811117.0084524     
  -42821662.1165849     
  -42831526.3651249     
  -42840735.2264506     
  -42849313.7729838     
  -42857286.6616230     
  -42864678.1190073     
  -42871511.9275714     
  -42877811.4123597     
  -42883599.4285617     
  -42888898.3497348     
  -42893730.0566797     
  -42898115.9269373     
  -42902076.8248729     
  -42905633.0923219     
  -42908804.5397655     
  -42911610.4380138     
  -42914069.5103731     
  -42916199.9252778     
  -42918019.2893714     
  -42919544.6410230     
  -42920792.4442720     
  -42921778.5831958     
  -42922518.3567010     
  -42923026.4737423     
  -42923317.0489807     
  -42923403.5988937     
  -42923299.0383568     
  -42923015.6777187     
  -42922565.2204026     
  -42921958.7610809     
  -42921206.7844728     
  -42920319.1647408     
  -42919305.1654512     
  -42918173.4409519     
  -42916932.0372743     
  -42320569.8968295     
  -42341856.2278945     
  -42361981.2677322     
  -42380979.6066108     
  -42398885.6505104     
  -42415733.5893006     
  -42431557.3629261     
  -42446390.6310870     
  -42460266.7440651     
  -42473218.7148727     
  -42485279.1929105     
  -42496480.4390759     
  -42506854.3022362     
  -42516432.1970100     
  -42525245.0828134     
  -42533323.4441281     
  -42540697.2719422     
  -42547396.0463081     
  -42553448.7199635     
  -42558883.7029589     
  -42563728.8482347     
  -42568011.4380906     
  -42571758.1714892     
  -42574995.1521358     
  -42577747.8772741     
  -42580041.2271418     
  -42581899.4550281     
  -42583346.1778770     
  -42584404.3673839     
  -42585096.3415321     
  -42585443.7565239     
  -42585467.5990590     
  -42585188.1789223     
  -42584625.1218431     
  -42583797.3625987     
  -42582723.1383345     
  -42581419.9820871     
  -42579904.7164940     
  -42578193.4476894     
  -42576301.5593883     
  -42574243.7071725     
  -42572033.8130041     
  -42569685.0599989     
  -42567209.8874832     
  -42564619.9863419     
  -42561926.2947277     
  -42559138.9944269     
  -42556267.5080452     
  -42553320.4946248     
  -42550305.8506911     
  -42073702.9668859     
  -42092632.5907163     
  -42110308.1867213     
  -42126771.0085482     
  -42142061.9842816     
  -42156221.6713754     
  -42169290.2269451     
  -42181307.3736603     
  -42192312.3683424     
  -42202343.9731140     
  -42211440.4282950     
  -42219639.4269074     
  -42226978.0908447     
  -42233492.9487038     
  -42239219.9152182     
  -42244194.2722064     
  -42248450.6509591     
  -42252023.0159868     
  -42254944.6500557     
  -42257248.1404313     
  -42258965.3662459     
  -42260127.4869031     
  -42260764.9314259     
  -42260907.3886546     
  -42260583.7981995     
  -42259822.3420498     
  -42258650.4367434     
  -42257094.7259997     
  -42255181.0737203     
  -42252934.5572665     
  -42250379.4609225     
  -42247539.2694603     
  -42244436.6617281     
  -42241093.5041885     
  -42237530.8443440     
  -42233768.9039915     
  -42229827.0722658     
  -42225723.8984343     
  -42221477.0844254     
  -42217103.4770732     
  -42212619.0600733     
  -42208038.9456535     
  -42203377.3659968     
  -42198647.6645206     
  -42193862.2871483     
  -42189032.7734939     
  -42184169.7473426     
  -42179282.9068593     
  -42174381.0219343     
  -42169471.9147675     
  -41839271.1714251     
  -41854965.5536236     
  -41869316.4097867     
  -41882372.7469282     
  -41894183.0261886     
  -41904795.1551942     
  -41914256.4340935     
  -41922613.5242314     
  -41929912.4184296     
  -41936198.4111857     
  -41941516.0708829     
  -41945909.2146240     
  -41949420.8854413     
  -41952093.3315937     
  -41953967.9878263     
  -41955085.4585364     
  -41955485.5028037     
  -41955207.0212080     
  -41954288.0443309     
  -41952765.7228258     
  -41950676.3189240     
  -41948055.1992465     
  -41944936.8287712     
  -41941354.7658144     
  -41937341.6578653     
  -41932929.2381108     
  -41928148.3224873     
  -41923028.8070861     
  -41917599.6657443     
  -41911888.9476531     
  -41905923.7748196     
  -41899730.3392246     
  -41893333.8995283     
  -41886758.7771829     
  -41880028.3518273     
  -41873165.0558439     
  -41866190.3679794     
  -41859124.8059447     
  -41851987.9179355     
  -41844798.2730490     
  -41837573.4506001     
  -41830330.0283415     
  -41823083.5695322     
  -41815848.6087064     
  -41808638.6361501     
  -41801466.0819460     
  -41794342.3014773     
  -41787277.5596125     
  -41780280.9934922     
  -41773360.6359149     
  -41620422.9922375     
  -41631805.1162978     
  -41641761.9512046     
  -41650351.3772384     
  -41657630.5593700     
  -41663655.7883227     
  -41668482.4996436     
  -41672165.2345240     
  -41674757.5994826     
  -41676312.2360519     
  -41676880.7955210     
  -41676513.9158145     
  -41675261.2003631     
  -41673171.1995433     
  -41670291.3950137     
  -41666668.1869536     
  -41662346.8840570     
  -41657371.6961030     
  -41651785.7289363     
  -41645630.9817023     
  -41638948.3461633     
  -41631777.6079091     
  -41624157.4492357     
  -41616125.4534490     
  -41607718.1103186     
  -41598970.8223989     
  -41589917.9119143     
  -41580592.6279063     
  -41571027.1533279     
  -41561252.6117796     
  -41551299.0735820     
  -41541195.5608888     
  -41530970.0515622     
  -41520649.4815505     
  -41510259.7455316     
  -41499825.6956153     
  -41489371.1379144     
  -41478918.8268191     
  -41468490.4568044     
  -41458106.6516238     
  -41447786.9507989     
  -41437549.7934750     
  -41427412.4999835     
  -41417391.2515326     
  -41407501.0676345     
  -41397755.7785122     
  -41388167.9893589     
  -41378749.0507155     
  -41369509.0863599     
  -41360456.8073139     
  -41420437.2615614     
  -41426195.2189108     
  -41430459.7145378     
  -41433299.0370882     
  -41434780.0868291     
  -41434968.7673375     
  -41433929.7640721     
  -41431726.4973212     
  -41428421.1111669     
  -41424074.4490952     
  -41418746.0230980     
  -41412493.9862152     
  -41405375.1115415     
  -41397444.7770617     
  -41388756.9551775     
  -41379364.2063214     
  -41369317.6765335     
  -41358667.0990558     
  -41347460.7999458     
  -41335745.7075863     
  -41323567.3658327     
  -41310969.9504445     
  -41297996.2883759     
  -41284687.8794542     
  -41271084.9199408     
  -41257226.3274487     
  -41243149.7666616     
  -41228891.6752932     
  -41214487.2897089     
  -41199970.6696385     
  -41185374.7214063     
  -41170731.2191272     
  -41156070.8233306     
  -41141423.0965120     
  -41126816.5151517     
  -41112278.4778070     
  -41097835.3089664     
  -41083512.2584630     
  -41069333.4963241     
  -41055322.1029442     
  -41041500.0543064     
  -41027888.2016217     
  -41014506.2445325     
  -41001372.6978718     
  -40988504.8553759     
  -40975918.7586564     
  -40963629.1726671     
  -40951649.5141215     
  -40939991.6221562     
  -40928666.2466981     
  -41242599.7194241     
  -41241144.7918855     
  -41238150.0282709     
  -41233694.7085242     
  -41227857.6596818     
  -41220715.6088173     
  -41212343.6488316     
  -41202815.2817152     
  -41192202.3107408     
  -41180574.7609145     
  -41168000.8408092     
  -41154546.9225707     
  -41140277.5264576     
  -41125255.3076350     
  -41109541.0475374     
  -41093193.6523130     
  -41076270.1596672     
  -41058825.7543157     
  -41040913.7916258     
  -41022585.8287775     
  -41003891.6627158     
  -40984879.3741631     
  -40965595.3769327     
  -40946084.4717240     
  -40926389.9034914     
  -40906553.4213838     
  -40886615.3401763     
  -40866614.6020564     
  -40846588.8376091     
  -40826574.4248688     
  -40806606.5453432     
  -40786719.2359961     
  -40766945.4362496     
  -40747317.0291460     
  -40727864.8758658     
  -40708618.8428396     
  -40689607.8207249     
  -40670859.7346255     
  -40652401.5451827     
  -40634259.2407054     
  -40616457.8212951     
  -40599021.2765424     
  -40581972.5575456     
  -40565333.5395679     
  -40549124.9629146     
  -40533366.3365100     
  -40518075.8306727     
  -40503270.3320495     
  -40488965.8306584     
  -40475175.4229157     
  -41090036.7180908     
  -41079453.9543583     
  -41067313.7536091     
  -41053712.2848664     
  -41038739.7191384     
  -41022485.7609729     
  -41005038.2074140     
  -40986482.3619115     
  -40966901.0395196     
  -40946374.6313409     
  -40924981.0942781     
  -40902795.8946275     
  -40879891.9496020     
  -40856339.5891977     
  -40832206.5430956     
  -40807557.9496558     
  -40782456.3828775     
  -40756961.8944411     
  -40731132.0694120     
  -40705022.0950538     
  -40678684.8423989     
  -40652170.9599941     
  -40625528.9787753     
  -40598805.4265329     
  -40572044.9500086     
  -40545290.4423370     
  -40518583.1733698     
  -40491962.9203282     
  -40465468.0962669     
  -40439135.8739458     
  -40413002.3028985     
  -40387102.4177631     
  -40361470.3362705     
  -40336139.3456606     
  -40311141.9766707     
  -40286510.0645218     
  -40262274.7964131     
  -40238466.7447682     
  -40215115.8847885     
  -40192251.5939337     
  -40169902.6305334     
  -40148097.0906205     
  -40126862.3490163     
  -40106225.0041626     
  -40086210.8579338     
  -40066844.9338651     
  -40048151.3829438     
  -40030152.8185582     
  -40012869.1215232     
  -39996323.7656136     
  -40965513.9357584     
  -40943487.3812537     
  -40919935.0698395     
  -40894958.3157573     
  -40868670.7351836     
  -40841178.7820233     
  -40812584.3358122     
  -40782986.5053317     
  -40752481.6735617     
  -40721163.0329047     
  -40689120.2097845     
  -40656439.0793203     
  -40623201.7080839     
  -40589486.3559313     
  -40555367.4996925     
  -40520915.8684896     
  -40486198.4943163     
  -40451278.7853786     
  -40416216.6283272     
  -40381068.5222727     
  -40345887.7442377     
  -40310724.5432108     
  -40275626.3583772     
  -40240638.0562852     
  -40205802.1814507     
  -40171159.2149898     
  -40136747.8361426     
  -40102605.1818757     
  -40068767.1000776     
  -40035268.3921310     
  -40002143.0408947     
  -39969424.4203861     
  -39937145.4837888     
  -39905338.9269548     
  -39874037.3254081     
  -39843273.2441371     
  -39813079.3211664     
  -39783488.3278418     
  -39754533.2102661     
  -39726247.1159675     
  -39698663.4052858     
  -39671815.6352763     
  -39645737.4846024     
  -39620462.5709776     
  -39596024.1372905     
  -39572454.7414201     
  -39549786.4929990     
  -39528052.7505131     
  -39507289.5812587     
  -39487514.5113660     
  -40871202.3815274     
  -40834918.3663449     
  -40797160.9506782     
  -40758103.6856411     
  -40717863.4518413     
  -40676562.9789848     
  -40634327.8997423     
  -40591280.1964574     
  -40547535.6773667     
  -40503203.7751561     
  -40458387.9509427     
  -40413185.9882021     
  -40367690.0518835     
  -40321986.6015040     
  -40276156.2758118     
  -40230273.8328724     
  -40184408.1878455     
  -40138622.5593015     
  -40092974.7160323     
  -40047517.3072834     
  -40002298.2566563     
  -39957361.2008608     
  -39912745.9570909     
  -39868489.0059229     
  -39824623.9796293     
  -39781182.1483644     
  -39738192.8986603     
  -39695684.2000502     
  -39653683.0564250     
  -39612215.9389469     
  -39571309.1970410     
  -39530989.4432124     
  -39491283.9062474     
  -39452220.7459445     
  -39413829.3211071     
  -39376140.4016411     
  -39339186.3160423     
  -39303001.0286120     
  -39267620.1481870     
  -39233080.8839376     
  -39199421.9847216     
  -39166683.7227171     
  -39134907.9929480     
  -39104138.5530363     
  -39074421.2298902     
  -39045803.4470387     
  -39018331.7518990     
  -38992046.5955604     
  -38966983.0166193     
  -38943235.2116161     
  -40808468.4680908     
  -40754298.5723335     
  -40698918.7888503     
  -40642356.7301830     
  -40584818.3128295     
  -40526494.8432254     
  -40467548.1876728     
  -40408123.2273542     
  -40348356.3818804     
  -40288378.1270740     
  -40228312.2944397     
  -40168274.4004923     
  -40108370.1482905     
  -40048694.5065012     
  -39989331.4018727     
  -39930353.9153589     
  -39871824.8383671     
  -39813797.4589589     
  -39756316.4760169     
  -39699418.9682062     
  -39643135.3688225     
  -39587490.4162436     
  -39532504.0632280     
  -39478192.3377305     
  -39424568.1542487     
  -39371642.0788095     
  -39319423.0531913     
  -39267919.0852913     
  -39217137.9129775     
  -39167087.6484463     
  -39117777.4090535     
  -39069217.9387059     
  -39021422.2209541     
  -38974406.0805767     
  -38928188.7642098     
  -38882793.4819214     
  -38838247.8800845     
  -38794584.4014810     
  -38751840.4726170     
  -38710058.4453097     
  -38669285.2210597     
  -38629571.5270983     
  -38590970.9393624     
  -38553539.0366952     
  -38517333.6047965     
  -38482417.5099536     
  -38448865.7920518     
  -38416773.3475081     
  -38386233.0021568     
  -38357149.8164504     
  -40777553.8250360     
  -40700939.7341349     
  -40622880.3622918     
  -40544168.4404690     
  -40465006.9285375     
  -40385533.0851537     
  -40305919.3728627     
  -40226366.0546822     
  -40147077.3959946     
  -40068243.7691007     
  -39990032.0256766     
  -39912581.9531549     
  -39836006.3919107     
  -39760393.2657007     
  -39685808.4398053     
  -39612298.7899697     
  -39539895.1594684     
  -39468615.0546023     
  -39398465.0257497     
  -39329442.7325367     
  -39261538.7170904     
  -39194737.9202661     
  -39129020.9789588     
  -39064365.3419571     
  -39000746.2394736     
  -38938137.5386495     
  -38876512.5146322     
  -38815844.5645759     
  -38756107.8902644     
  -38697278.1740186     
  -38639333.2721126     
  -38582253.9499145     
  -38526024.6831679     
  -38470634.5497375     
  -38416078.2349091     
  -38362357.1694383     
  -38309480.8102748     
  -38257468.0546058     
  -38206348.7405983     
  -38156165.1199110     
  -38106973.0672198     
  -38058842.5921080     
  -38011856.9095919     
  -37966108.9165484     
  -37921693.6015057     
  -37878695.5140648     
  -37837174.8284639     
  -37797172.9855562     
  -37758817.6950524     
  -37722792.3056154     
  -40777372.4458105     
  -40669673.3649959     
  -40562992.5912445     
  -40455876.1021731     
  -40348482.9769144     
  -40241380.5641410     
  -40135141.5688113     
  -40030229.9062258     
  -39926986.1815602     
  -39825643.7063815     
  -39726350.6160559     
  -39629190.1672282     
  -39534197.2556575     
  -39441371.2085419     
  -39350685.4700845     
  -39262094.8582900     
  -39175540.9763856     
  -39090956.2397098     
  -39008266.8689225     
  -38927395.1124690     
  -38848260.8943095     
  -38770783.0331796     
  -38694880.1430967     
  -38620471.2981591     
  -38547476.5253715     
  -38475817.1754071     
  -38405416.2115719     
  -38336198.4508744     
  -38268090.7874456     
  -38201022.4273053     
  -38134925.1645676     
  -38069733.7327731     
  -38005386.2715733     
  -37941824.9591839     
  -37878996.8759571     
  -37816855.1856554     
  -37755360.7505448     
  -37694484.3366151     
  -37634209.6181081     
  -37574537.2555388     
  -37515490.3893516     
  -37457121.9281026     
  -37399523.9137758     
  -37342838.7372031     
  -37287270.3051041     
  -37233088.4478040     
  -37180606.6615303     
  -37130077.7160946     
  -37081356.0175741     
  -37032916.9850456     
  -40804377.7981972     
  -40658361.7432085     
  -40505947.5498859     
  -40353536.0277926     
  -40204086.9197153     
  -40058937.1977853     
  -39918629.0113302     
  -39783303.5352144     
  -39652896.4065896     
  -39527238.5021258     
  -39406109.6042701     
  -39289267.6635375     
  -39176464.9523281     
  -39067456.9535321     
  -38962007.1186437     
  -38859889.2329621     
  -38760888.3787414     
  -38664801.0748551     
  -38571434.9370938     
  -38480608.0664240     
  -38392148.2909149     
  -38305892.3374265     
  -38221684.9785452     
  -38139378.1811487     
  -38058830.2710051     
  -37979905.1203044     
  -37902471.3603958     
  -37826401.6192978     
  -37751571.7822145     
  -37677860.2730317     
  -37605147.3555628     
  -37533314.4553182     
  -37462243.5062493     
  -37391816.3331406     
  -37321914.0906012     
  -37252416.7966332     
  -37183203.0271792     
  -37114149.8862796     
  -37045133.4497895     
  -36976030.0277928     
  -36906718.8574364     
  -36837087.3345746     
  -36767040.8470968     
  -36696521.1696255     
  -36625541.2850058     
  -36554252.8405677     
  -36483080.9372918     
  -36413003.4442683     
  -36346153.1403205     
  -36287169.4937786     
  -40838132.3439212     
  -40575528.1263595     
  -40340644.9020435     
  -40126950.9278271     
  -39930206.3568519     
  -39747471.2527506     
  -39576595.9743031     
  -39415941.8228339     
  -39264218.1118147     
  -39120381.6060541     
  -38983571.2884944     
  -38853064.1975157     
  -38728244.4269986     
  -38608580.6896749     
  -38493609.6500138     
  -38382923.2625373     
  -38276158.9627026     
  -38172991.9337668     
  -38073128.9123165     
  -37976303.1516768     
  -37882270.2674127     
  -37790804.7610419     
  -37701697.0682136     
  -37614751.0130201     
  -37529781.5753069     
  -37446612.8957859     
  -37365076.4563375     
  -37285009.3813678     
  -37206252.8112336     
  -37128650.3009729     
  -37052046.1969944     
  -36976283.9408021     
  -36901204.2417277     
  -36826643.0490282     
  -36752429.2359603     
  -36678381.8818973     
  -36604306.9989236     
  -36529993.4895952     
  -36455208.0308073     
  -36379688.4345635     
  -36303134.8034181     
  -36225197.4093498     
  -36145459.5513144     
  -36063412.4332674     
  -35978416.8223490     
  -35889641.7572958     
  -35795961.3281689     
  -35695770.6031132     
  -35586636.8274151     
  -35464596.4490115     
SCALARS 2waySource double 
LOOKUP_TABLE default
  5.015388980819585E-005
  4.700157901050361E-005
  4.426098942789352E-005
  4.182165417808582E-005
  3.961699732958636E-005
  3.760353549751231E-005
  3.575080602194847E-005
  3.403620717612482E-005
  3.244219695586623E-005
  3.095468143370277E-005
  2.956203379943531E-005
  2.825446484746970E-005
  2.702359908135646E-005
  2.586217686942260E-005
  2.476383733610340E-005
  2.372295508224538E-005
  2.273451410460099E-005
  2.179400823689157E-005
  2.089736100707161E-005
  2.004086002228414E-005
  1.922110241379776E-005
  1.843494881080543E-005
  1.767948394617691E-005
  1.695198243465756E-005
  1.624987857046853E-005
  1.557073920673008E-005
  1.491223892849275E-005
  1.427213683032620E-005
  1.364825426697066E-005
  1.303845296689650E-005
  1.244061288231786E-005
  1.185260909289407E-005
  1.127228697391579E-005
  1.069743466741165E-005
  1.012575162928956E-005
  9.554811624081018E-006
  8.982017928397502E-006
  8.404547565040676E-006
  7.819279915567134E-006
  7.222702687979997E-006
  6.610784290999655E-006
  5.978794955232805E-006
  5.321047051097351E-006
  4.630503155715239E-006
  3.898158398429530E-006
  3.112019428413885E-006
  2.255326143932453E-006
  1.303277159765046E-006
  2.166420914830778E-007
 -1.071437311461246E-006
  4.922294122783108E-005
  4.758798092156666E-005
  4.590355667027041E-005
  4.425022982199690E-005
  4.266025140683845E-005
  4.114493357472611E-005
  3.970638062032297E-005
  3.834266107014802E-005
  3.705014559928901E-005
  3.582458364486066E-005
  3.466160287561112E-005
  3.355693795798417E-005
  3.250652978384666E-005
  3.150656190210657E-005
  3.055346644486931E-005
  2.964391547310609E-005
  2.877480570482982E-005
  2.794324063274070E-005
  2.714651203586612E-005
  2.638208186048938E-005
  2.564756491073016E-005
  2.494071250845860E-005
  2.425939713549525E-005
  2.360159799317394E-005
  2.296538737509261E-005
  2.234891772737111E-005
  2.175040926004794E-005
  2.116813796642418E-005
  2.060042390166641E-005
  2.004561956712696E-005
  1.950209824005193E-005
  1.896824208234896E-005
  1.844242985592556E-005
  1.792302407137973E-005
  1.740835740718221E-005
  1.689671827439866E-005
  1.638633549592645E-005
  1.587536227938946E-005
  1.536186010802124E-005
  1.484378409809889E-005
  1.431897328127833E-005
  1.378515324279050E-005
  1.323996692570282E-005
  1.268106743515967E-005
  1.210634636459325E-005
  1.151446087513525E-005
  1.090603121745198E-005
  1.028637858406986E-005
  9.671897192175858E-006
  9.105242260531977E-006
  4.810062817411933E-005
  4.708753810489623E-005
  4.608119036396075E-005
  4.507002676026114E-005
  4.406034951674012E-005
  4.306130031442143E-005
  4.208055997086340E-005
  4.112357724799486E-005
  4.019383190196770E-005
  3.929330241196148E-005
  3.842289033107261E-005
  3.758274833692474E-005
  3.677251843120195E-005
  3.599150016187359E-005
  3.523876797065445E-005
  3.451325263469838E-005
  3.381379766729502E-005
  3.313919830540074E-005
  3.248822836430471E-005
  3.185965860120915E-005
  3.125226910449231E-005
  3.066485745812390E-005
  3.009624390805712E-005
  2.954527440055094E-005
  2.901082211915715E-005
  2.849178798094059E-005
  2.798710044129109E-005
  2.749571488500699E-005
  2.701661283932649E-005
  2.654880122873707E-005
  2.609131189884332E-005
  2.564320167055960E-005
  2.520355325109122E-005
  2.477147743630691E-005
  2.434611720608351E-005
  2.392665456822862E-005
  2.351232138754660E-005
  2.310241600490611E-005
  2.269632829231830E-005
  2.229357701415545E-005
  2.189386508589555E-005
  2.149716056300647E-005
  2.110381357654793E-005
  2.071472026200463E-005
  2.033153835606686E-005
  1.995692856973103E-005
  1.959469206463168E-005
  1.924935838654259E-005
  1.892385806683049E-005
  1.861128270729299E-005
  4.707178013004170E-005
  4.653167833461697E-005
  4.596957599123848E-005
  4.539456911086914E-005
  4.480974064151124E-005
  4.421788143683827E-005
  4.362222428574977E-005
  4.302612469083234E-005
  4.243271228055451E-005
  4.184469594404241E-005
  4.126429860318884E-005
  4.069326901486504E-005
  4.013293053828057E-005
  3.958424274065144E-005
  3.904786314501884E-005
  3.852420331430884E-005
  3.801347723262534E-005
  3.751574183636890E-005
  3.703093039645668E-005
  3.655887975527065E-005
  3.609935245645323E-005
  3.565205472204238E-005
  3.521665110832408E-005
  3.479277654332673E-005
  3.438004633604346E-005
  3.397806465203179E-005
  3.358643187717513E-005
  3.320475123713641E-005
  3.283263500529609E-005
  3.246971061378269E-005
  3.211562698119600E-005
  3.177006138489861E-005
  3.143272723605829E-005
  3.110338316024637E-005
  3.078184384250361E-005
  3.046799315597791E-005
  3.016180013942828E-005
  2.986333838489975E-005
  2.957280926908418E-005
  2.929056907168460E-005
  2.901715911881513E-005
  2.875333623899033E-005
  2.850009736400445E-005
  2.825868627938066E-005
  2.803056230416671E-005
  2.781730424413854E-005
  2.762043875089431E-005
  2.744129594809278E-005
  2.728146012197232E-005
  2.714600625381440E-005
  4.617239851891163E-005
  4.599069592258345E-005
  4.578198463033211E-005
  4.554843410446900E-005
  4.529374186840411E-005
  4.502119038413411E-005
  4.473362804167439E-005
  4.443364811551862E-005
  4.412367496457151E-005
  4.380597402886445E-005
  4.348263265750623E-005
  4.315553977498437E-005
  4.282637506675786E-005
  4.249660912303388E-005
  4.216751233883485E-005
  4.184016957301108E-005
  4.151549792941699E-005
  4.119426570735018E-005
  4.087711122672926E-005
  4.056456075499425E-005
  4.025704513605097E-005
  3.995491497203104E-005
  3.965845436708231E-005
  3.936789333684715E-005
  3.908341904044784E-005
  3.880518601718291E-005
  3.853332562082053E-005
  3.826795484484802E-005
  3.800918472811671E-005
  3.775712852345228E-005
  3.751190980195857E-005
  3.727367065304810E-005
  3.704258012034037E-005
  3.681884298298836E-005
  3.660270894242396E-005
  3.639448219546814E-005
  3.619453125218671E-005
  3.600329867425007E-005
  3.582131015302622E-005
  3.564918201991111E-005
  3.548762593724815E-005
  3.533744933111145E-005
  3.519955052272508E-005
  3.507490936683976E-005
  3.496457895204251E-005
  3.486969282323584E-005
  3.479151160790226E-005
  3.473151431174994E-005
  3.469136591222485E-005
  3.467178614635525E-005
  4.543149344598408E-005
  4.553231895314090E-005
  4.559961997744735E-005
  4.563660932172733E-005
  4.564591307940077E-005
  4.563015953834401E-005
  4.559190732961203E-005
  4.553357463694151E-005
  4.545742256932836E-005
  4.536556166912292E-005
  4.525996116488177E-005
  4.514245486859273E-005
  4.501474414145694E-005
  4.487839990635009E-005
  4.473486529709030E-005
  4.458545974942840E-005
  4.443138470942226E-005
  4.427373076522521E-005
  4.411348584914892E-005
  4.395154412954315E-005
  4.378871525464927E-005
  4.362573368044303E-005
  4.346326788901741E-005
  4.330192937062350E-005
  4.314228129724098E-005
  4.298484685739854E-005
  4.283011725151885E-005
  4.267855936676256E-005
  4.253062316042139E-005
  4.238674878357663E-005
  4.224737347154861E-005
  4.211293821594317E-005
  4.198389421333349E-005
  4.186070905942281E-005
  4.174387262373955E-005
  4.163390250242154E-005
  4.153134890971510E-005
  4.143679884513174E-005
  4.135087938207787E-005
  4.127425999743588E-005
  4.120765403837076E-005
  4.115181972732358E-005
  4.110756148383681E-005
  4.107573250093027E-005
  4.105723864271342E-005
  4.105304024288285E-005
  4.106414091618622E-005
  4.109154776574638E-005
  4.113623700236011E-005
  4.119950560692035E-005
  4.485911785369067E-005
  4.517954480674854E-005
  4.546322017702216E-005
  4.571268937463042E-005
  4.593051174890235E-005
  4.611908870505872E-005
  4.628070266758174E-005
  4.641753578063290E-005
  4.653166946574232E-005
  4.662508079360023E-005
  4.669964133181008E-005
  4.675711852621541E-005
  4.679917843160500E-005
  4.682738894222694E-005
  4.684322319497513E-005
  4.684806313488996E-005
  4.684320334306108E-005
  4.682985521877440E-005
  4.680915155591943E-005
  4.678215149882500E-005
  4.674984582314872E-005
  4.671316246570128E-005
  4.667297222026341E-005
  4.663009451982032E-005
  4.658530323452216E-005
  4.653933242632263E-005
  4.649288201147816E-005
  4.644662329201480E-005
  4.640120432356973E-005
  4.635725509101728E-005
  4.631539246448952E-005
  4.627622490747842E-005
  4.624035690607420E-005
  4.620839308610895E-005
  4.618094198413704E-005
  4.615861944147370E-005
  4.614205160036398E-005
  4.613187749930232E-005
  4.612875128885761E-005
  4.613334411191113E-005
  4.614634569138763E-005
  4.616846560767193E-005
  4.620043408248761E-005
  4.624300182248561E-005
  4.629693832878199E-005
  4.636302879543451E-005
  4.644207275811765E-005
  4.653489294653790E-005
  4.664235301054883E-005
  4.676524843604981E-005
  4.445163885937553E-005
  4.493824328726061E-005
  4.538664069316774E-005
  4.579919857194929E-005
  4.617816230608208E-005
  4.652570448538689E-005
  4.684391049562556E-005
  4.713477604562613E-005
  4.740021026678723E-005
  4.764203864370765E-005
  4.786200493424890E-005
  4.806177271384532E-005
  4.824292707703912E-005
  4.840697668580670E-005
  4.855535615310173E-005
  4.868942869255369E-005
  4.881048897461696E-005
  4.891976615542451E-005
  4.901842706235386E-005
  4.910757952763934E-005
  4.918827585916363E-005
  4.926151643237708E-005
  4.932825338045679E-005
  4.938939435468370E-005
  4.944580632365237E-005
  4.949831937840776E-005
  4.954773051037423E-005
  4.959480733017348E-005
  4.964029169660765E-005
  4.968490322732505E-005
  4.972934266435305E-005
  4.977429507041399E-005
  4.982043283419184E-005
  4.986841846616275E-005
  4.991890717020015E-005
  4.997254917984911E-005
  5.002999185133439E-005
  5.009188150609424E-005
  5.015886501176521E-005
  5.023159108119862E-005
  5.031071125613842E-005
  5.039688053813944E-005
  5.049075766086443E-005
  5.059300510271969E-005
  5.070428911125231E-005
  5.082528003522643E-005
  5.095665241375523E-005
  5.109908163296905E-005
  5.125323421484492E-005
  5.141979709255992E-005
  4.419394071954320E-005
  4.480041894372585E-005
  4.536892328983246E-005
  4.590153060305391E-005
  4.640025262837355E-005
  4.686702407364626E-005
  4.730370925575129E-005
  4.771210378584861E-005
  4.809393508468923E-005
  4.845086343345523E-005
  4.878448348303843E-005
  4.909632591880835E-005
  4.938785915823656E-005
  4.966049108726220E-005
  4.991557087504672E-005
  5.015439089420366E-005
  5.037818875412305E-005
  5.058814944171691E-005
  5.078540755801415E-005
  5.097104963772106E-005
  5.114611653902905E-005
  5.131160589091140E-005
  5.146847458482890E-005
  5.161764129654162E-005
  5.175998902261998E-005
  5.189636761504058E-005
  5.202759629635440E-005
  5.215446613767034E-005
  5.227774248139817E-005
  5.239816729154646E-005
  5.251646141481321E-005
  5.263332673717830E-005
  5.274944822180974E-005
  5.286549581544191E-005
  5.298212621163401E-005
  5.309998446003574E-005
  5.321970541132762E-005
  5.334191498787020E-005
  5.346723127116407E-005
  5.359626540058194E-005
  5.372962228472756E-005
  5.386790113674274E-005
  5.401169585007050E-005
  5.416159521203368E-005
  5.431818288418234E-005
  5.448203699052825E-005
  5.465372930358130E-005
  5.483382501481990E-005
  5.502288504981348E-005
  5.522145650374132E-005
  4.406217916717734E-005
  4.474869942181718E-005
  4.539875867212840E-005
  4.601416252982549E-005
  4.659665802310720E-005
  4.714793777706366E-005
  4.766963902523395E-005
  4.816334451477626E-005
  4.863058366396482E-005
  4.907283356698156E-005
  4.949151997760757E-005
  4.988801837548793E-005
  5.026365513067184E-005
  5.061970874942183E-005
  5.095741118567335E-005
  5.127794921138872E-005
  5.158246584373706E-005
  5.187206182783958E-005
  5.214779717188127E-005
  5.241069272953982E-005
  5.266173182285196E-005
  5.290186189744969E-005
  5.313199620151285E-005
  5.335301547904105E-005
  5.356576966791606E-005
  5.377107959265030E-005
  5.396973864167071E-005
  5.416251441876895E-005
  5.435015035827757E-005
  5.453336729372761E-005
  5.471286496992753E-005
  5.488932348868069E-005
  5.506340467899754E-005
  5.523575338294758E-005
  5.540699864906445E-005
  5.557775482585530E-005
  5.574862254905144E-005
  5.592018961735006E-005
  5.609303175283271E-005
  5.626771324349104E-005
  5.644478746510300E-005
  5.662479727769800E-005
  5.680827528781268E-005
  5.699574396829358E-005
  5.718771564639383E-005
  5.738469241759017E-005
  5.758716604876890E-005
  5.779561762265208E-005
  5.801051603312352E-005
  5.823231975703028E-005
  4.402678104657180E-005
  4.475956910561256E-005
  4.545837096136309E-005
  4.612471317280981E-005
  4.676008141672741E-005
  4.736591976593431E-005
  4.794363149496637E-005
  4.849457935412519E-005
  4.902008592583994E-005
  4.952143413026321E-005
  4.999986781227407E-005
  5.045659238106984E-005
  5.089277550284259E-005
  5.130954785076398E-005
  5.170800391206498E-005
  5.208920284826384E-005
  5.245416940332681E-005
  5.280389485488524E-005
  5.313933800342670E-005
  5.346142619490204E-005
  5.377105637151582E-005
  5.406909614531801E-005
  5.435638488873801E-005
  5.463373483592101E-005
  5.490193218840804E-005
  5.516173821859522E-005
  5.541389036431862E-005
  5.565910330774179E-005
  5.589807003202832E-005
  5.613146284900525E-005
  5.635993439154402E-005
  5.658411856422457E-005
  5.680463144645236E-005
  5.702207214225328E-005
  5.723702357165091E-005
  5.745005319871175E-005
  5.766171369210581E-005
  5.787254351424886E-005
  5.808306743557833E-005
  5.829379697067105E-005
  5.850523073333975E-005
  5.871785470895967E-005
  5.893214244458848E-005
  5.914855516014734E-005
  5.936754178183099E-005
  5.958953888322547E-005
  5.981497050169103E-005
  6.004424788095961E-005
  6.027776949013663E-005
  6.051592000647428E-005
  4.405525407988902E-005
  4.480624786919342E-005
  4.552638952770477E-005
  4.621693526930778E-005
  4.687911307615179E-005
  4.751412268165180E-005
  4.812313525281103E-005
  4.870729334984124E-005
  4.926771094493422E-005
  4.980547349286195E-005
  5.032163807261113E-005
  5.081723359958110E-005
  5.129326110093976E-005
  5.175069404721087E-005
  5.219047873593289E-005
  5.261353472340434E-005
  5.302075530070749E-005
  5.341300801000692E-005
  5.379113519644116E-005
  5.415595459133415E-005
  5.450825992206471E-005
  5.484882154400389E-005
  5.517838708994017E-005
  5.549768213227662E-005
  5.580741085329335E-005
  5.610825671875776E-005
  5.640088315003596E-005
  5.668593419011985E-005
  5.696403515879664E-005
  5.723579329245183E-005
  5.750179836409366E-005
  5.776262327923101E-005
  5.801882464365668E-005
  5.827094329915176E-005
  5.851950482357041E-005
  5.876501999190670E-005
  5.900798519527808E-005
  5.924888281501018E-005
  5.948818154943593E-005
  5.972633669135903E-005
  5.996379035474744E-005
  6.020097164950991E-005
  6.043829680325199E-005
  6.067616922811949E-005
  6.091497953105146E-005
  6.115510547034744E-005
  6.139691187217387E-005
  6.164075050327280E-005
  6.188695977763840E-005
  6.213586468074310E-005
  4.411458292860713E-005
  4.486102293107287E-005
  4.558014741070526E-005
  4.627295672959435E-005
  4.694043440469040E-005
  4.758354645369972E-005
  4.820324093535683E-005
  4.880044751632786E-005
  4.937607712883616E-005
  4.993102170885992E-005
  5.046615400261729E-005
  5.098232743700930E-005
  5.148037605080105E-005
  5.196111448269913E-005
  5.242533801200168E-005
  5.287382264749259E-005
  5.330732526021016E-005
  5.372658375642462E-005
  5.413231728652547E-005
  5.452522648612842E-005
  5.490599374538068E-005
  5.527528350270822E-005
  5.563374255891190E-005
  5.598200040811965E-005
  5.632066958154189E-005
  5.665034600052749E-005
  5.697160933511983E-005
  5.728502336467468E-005
  5.759113633692763E-005
  5.789048132224012E-005
  5.818357655968003E-005
  5.847092579183085E-005
  5.875301858536831E-005
  5.903033063452507E-005
  5.930332404486529E-005
  5.957244759485667E-005
  5.983813697308393E-005
  6.010081498898922E-005
  6.036089175547325E-005
  6.061876484173475E-005
  6.087481939507631E-005
  6.112942823043756E-005
  6.138295188690879E-005
  6.163573865092781E-005
  6.188812454666663E-005
  6.214043329347605E-005
  6.239297622643931E-005
  6.264605217868062E-005
  6.289994736740385E-005
  6.315493517612626E-005
  4.417308695714980E-005
  4.489704131585651E-005
  4.559740642858911E-005
  4.627494752563090E-005
  4.693042213619803E-005
  4.756457927694136E-005
  4.817815869755282E-005
  4.877189022346312E-005
  4.934649316958606E-005
  4.990267582410672E-005
  5.044113500000452E-005
  5.096255564998176E-005
  5.146761054019556E-005
  5.195695997887020E-005
  5.243125159610585E-005
  5.289112017120954E-005
  5.333718750384713E-005
  5.377006232543012E-005
  5.419034024735650E-005
  5.459860374243661E-005
  5.499542215635345E-005
  5.538135174576425E-005
  5.575693573984469E-005
  5.612270442205712E-005
  5.647917522919885E-005
  5.682685286451926E-005
  5.716622942217690E-005
  5.749778452007008E-005
  5.782198543828103E-005
  5.813928726062895E-005
  5.845013301657803E-005
  5.875495382127485E-005
  5.905416901130270E-005
  5.934818627397032E-005
  5.963740176821920E-005
  5.992220023509893E-005
  6.020295509624517E-005
  6.048002853870575E-005
  6.075377158467597E-005
  6.102452414501778E-005
  6.129261505541394E-005
  6.155836209437003E-005
  6.182207198241954E-005
  6.208404036201485E-005
  6.234455175751363E-005
  6.260387951507928E-005
  6.286228572363683E-005
  6.312002111891180E-005
  6.337732495776645E-005
  6.363442489398788E-005
  4.420173928606976E-005
  4.488958226996312E-005
  4.555758287135566E-005
  4.620629545647727E-005
  4.683627396943431E-005
  4.744807096106166E-005
  4.804223670161348E-005
  4.861931836139517E-005
  4.917985926234847E-005
  4.972439819543575E-005
  5.025346879986880E-005
  5.076759900100728E-005
  5.126731050362202E-005
  5.175311833714810E-005
  5.222553044977700E-005
  5.268504734808989E-005
  5.313216177917492E-005
  5.356735845225239E-005
  5.399111379674429E-005
  5.440389575397228E-005
  5.480616359955203E-005
  5.519836779389951E-005
  5.558094985790126E-005
  5.595434227135498E-005
  5.631896839151459E-005
  5.667524238927750E-005
  5.702356920066588E-005
  5.736434449122716E-005
  5.769795463120856E-005
  5.802477667927408E-005
  5.834517837280860E-005
  5.865951812280401E-005
  5.896814501152325E-005
  5.927139879117723E-005
  5.956960988200711E-005
  5.986309936823457E-005
  6.015217899053574E-005
  6.043715113369048E-005
  6.071830880832122E-005
  6.099593562569377E-005
  6.127030576466108E-005
  6.154168393001898E-005
  6.181032530162905E-005
  6.207647547380644E-005
  6.234037038468503E-005
  6.260223623545650E-005
  6.286228939910972E-005
  6.312073631792965E-005
  6.337777339400955E-005
  6.363358686463257E-005
  4.417500626142872E-005
  4.481687771857180E-005
  4.544254486272145E-005
  4.605237731441291E-005
  4.664674982040475E-005
  4.722604122251953E-005
  4.779063349188443E-005
  4.834091082887633E-005
  4.887725882409874E-005
  4.940006367808840E-005
  4.990971147698298E-005
  5.040658752144263E-005
  5.089107570597969E-005
  5.136355794609551E-005
  5.182441365054242E-005
  5.227401923616504E-005
  5.271274768278022E-005
  5.314096812559144E-005
  5.355904548266369E-005
  5.396734011514586E-005
  5.436620751784412E-005
  5.475599803793346E-005
  5.513705661950663E-005
  5.550972257192399E-005
  5.587432935976554E-005
  5.623120441241469E-005
  5.658066895132226E-005
  5.692303783302931E-005
  5.725861940614720E-005
  5.758771538057292E-005
  5.791062070722938E-005
  5.822762346678838E-005
  5.853900476585810E-005
  5.884503863917936E-005
  5.914599195657396E-005
  5.944212433331191E-005
  5.973368804280225E-005
  6.002092793053659E-005
  6.030408132828761E-005
  6.058337796773820E-005
  6.085903989270639E-005
  6.113128136935417E-005
  6.140030879373922E-005
  6.166632059630226E-005
  6.192950714283108E-005
  6.219005063161564E-005
  6.244812498664084E-005
  6.270389574703706E-005
  6.295751995158718E-005
  6.320914602064243E-005
  4.407129432401794E-005
  4.466056394819807E-005
  4.523706397577908E-005
  4.580100575520794E-005
  4.635260981654978E-005
  4.689210483178655E-005
  4.741972663325656E-005
  4.793571728717149E-005
  4.844032422081171E-005
  4.893379940082735E-005
  4.941639856071888E-005
  4.988838047528532E-005
  5.035000627993927E-005
  5.080153883287016E-005
  5.124324211787727E-005
  5.167538068593632E-005
  5.209821913338981E-005
  5.251202161483644E-005
  5.291705138879550E-005
  5.331357039413590E-005
  5.370183885547889E-005
  5.408211491576141E-005
  5.445465429408884E-005
  5.481970996719201E-005
  5.517753187281865E-005
  5.552836663336022E-005
  5.587245729816863E-005
  5.621004310302564E-005
  5.654135924525589E-005
  5.686663667311858E-005
  5.718610188805609E-005
  5.749997675856736E-005
  5.780847834442739E-005
  5.811181873009358E-005
  5.841020486621348E-005
  5.870383841818373E-005
  5.899291562081051E-005
  5.927762713815941E-005
  5.955815792778483E-005
  5.983468710859318E-005
  6.010738783163809E-005
  6.037642715326351E-005
  6.064196591004695E-005
  6.090415859509867E-005
  6.116315323528081E-005
  6.141909126911271E-005
  6.167210742503843E-005
  6.192232959981392E-005
  6.216987873722561E-005
  6.241486870649026E-005
  4.387309437075562E-005
  4.440584893349631E-005
  4.492900023404898E-005
  4.544262709845512E-005
  4.594682031933798E-005
  4.644168165125131E-005
  4.692732285431644E-005
  4.740386478477335E-005
  4.787143653080957E-005
  4.833017459208460E-005
  4.878022210151939E-005
  4.922172808757746E-005
  4.965484677562757E-005
  5.007973692672760E-005
  5.049656121226659E-005
  5.090548562290986E-005
  5.130667891028059E-005
  5.170031205993693E-005
  5.208655779393108E-005
  5.246559010169017E-005
  5.283758379759503E-005
  5.320271410387489E-005
  5.356115625739789E-005
  5.391308513899966E-005
  5.425867492397129E-005
  5.459809875241785E-005
  5.493152841824906E-005
  5.525913407551024E-005
  5.558108396092179E-005
  5.589754413146857E-005
  5.620867821593052E-005
  5.651464717930165E-005
  5.681560909912886E-005
  5.711171895275936E-005
  5.740312841464751E-005
  5.768998566283496E-005
  5.797243519379407E-005
  5.825061764494160E-005
  5.852466962402305E-005
  5.879472354485772E-005
  5.906090746873686E-005
  5.932334495100068E-005
  5.958215489232215E-005
  5.983745139421297E-005
  6.008934361843632E-005
  6.033793564997691E-005
  6.058332636327756E-005
  6.082560929158500E-005
  6.106487249911764E-005
  6.130119845610508E-005
  4.356690509978719E-005
  4.404147094868438E-005
  4.450929087766193E-005
  4.497033545083390E-005
  4.542458893077062E-005
  4.587204833777494E-005
  4.631272254890406E-005
  4.674663143565804E-005
  4.717380503931413E-005
  4.759428278280231E-005
  4.800811271800623E-005
  4.841535080741964E-005
  4.881606023891953E-005
  4.921031077266015E-005
  4.959817811874806E-005
  4.997974334474318E-005
  5.035509231164490E-005
  5.072431513739696E-005
  5.108750568660661E-005
  5.144476108544702E-005
  5.179618126061992E-005
  5.214186850123175E-005
  5.248192704251688E-005
  5.281646267037650E-005
  5.314558234566062E-005
  5.346939384714149E-005
  5.378800543229052E-005
  5.410152551475623E-005
  5.441006235773564E-005
  5.471372378224898E-005
  5.501261688948240E-005
  5.530684779634050E-005
  5.559652138343217E-005
  5.588174105469167E-005
  5.616260850791416E-005
  5.643922351550926E-005
  5.671168371481219E-005
  5.698008440735473E-005
  5.724451836646193E-005
  5.750507565271671E-005
  5.776184343670130E-005
  5.801490582863215E-005
  5.826434371440493E-005
  5.851023459771719E-005
  5.875265244788945E-005
  5.899166755308881E-005
  5.922734637871065E-005
  5.945975143063930E-005
  5.968894112325101E-005
  5.991496965194579E-005
  4.314300340272469E-005
  4.355951169587500E-005
  4.397180151573834E-005
  4.437975743769068E-005
  4.478327861365428E-005
  4.518227791419369E-005
  4.557668110247908E-005
  4.596642603951984E-005
  4.635146191995933E-005
  4.673174853774954E-005
  4.710725558095855E-005
  4.747796195498200E-005
  4.784385513335247E-005
  4.820493053532425E-005
  4.856119092956590E-005
  4.891264586295181E-005
  4.925931111378004E-005
  4.960120816852155E-005
  4.993836372131717E-005
  5.027080919532205E-005
  5.059858028516492E-005
  5.092171651965536E-005
  5.124026084389648E-005
  5.155425922012471E-005
  5.186376024634514E-005
  5.216881479208841E-005
  5.246947565049247E-005
  5.276579720600311E-005
  5.305783511692192E-005
  5.334564601215051E-005
  5.362928720142713E-005
  5.390881639842446E-005
  5.418429145602280E-005
  5.445577011323874E-005
  5.472330975313134E-005
  5.498696717121269E-005
  5.524679835379291E-005
  5.550285826574789E-005
  5.575520064728735E-005
  5.600387781922852E-005
  5.624894049638594E-005
  5.649043760868397E-005
  5.672841612964141E-005
  5.696292091188645E-005
  5.719399452940282E-005
  5.742167712625121E-005
  5.764600627149028E-005
  5.786701682011194E-005
  5.808474077975685E-005
  5.829920718310261E-005
  4.259511587677787E-005
  4.295511430324167E-005
  4.331308641321522E-005
  4.366885078909583E-005
  4.402224079309853E-005
  4.437310380281087E-005
  4.472130047167938E-005
  4.506670401415269E-005
  4.540919951502451E-005
  4.574868326264509E-005
  4.608506210552692E-005
  4.641825283184335E-005
  4.674818157146897E-005
  4.707478321984178E-005
  4.739800088335980E-005
  4.771778534554819E-005
  4.803409455363752E-005
  4.834689312482871E-005
  4.865615187181522E-005
  4.896184734683232E-005
  4.926396140386287E-005
  4.956248077817923E-005
  4.985739668283268E-005
  5.014870442144416E-005
  5.043640301669393E-005
  5.072049485399998E-005
  5.100098533982512E-005
  5.127788257401143E-005
  5.155119703566614E-005
  5.182094128205503E-005
  5.208712965997198E-005
  5.234977802913147E-005
  5.260890349703404E-005
  5.286452416493509E-005
  5.311665888436670E-005
  5.336532702385967E-005
  5.361054824541704E-005
  5.385234229035114E-005
  5.409072877411741E-005
  5.432572698977566E-005
  5.455735571977053E-005
  5.478563305569532E-005
  5.501057622573296E-005
  5.523220142955870E-005
  5.545052368037027E-005
  5.566555665387802E-005
  5.587731254400696E-005
  5.608580192512351E-005
  5.629103362062075E-005
  5.649301457767703E-005
  4.192003290888688E-005
  4.222614492643489E-005
  4.253209395585394E-005
  4.283765017478328E-005
  4.314259822623002E-005
  4.344673655198140E-005
  4.374987674497169E-005
  4.405184292042324E-005
  4.435247110567892E-005
  4.465160864852037E-005
  4.494911364378501E-005
  4.524485437800754E-005
  4.553870879184318E-005
  4.583056396003573E-005
  4.612031558852780E-005
  4.640786752848433E-005
  4.669313130684747E-005
  4.697602567306469E-005
  4.725647616166299E-005
  4.753441467025085E-005
  4.780977905262519E-005
  4.808251272652398E-005
  4.835256429570943E-005
  4.861988718595600E-005
  4.888443929451037E-005
  4.914618265274401E-005
  4.940508310144327E-005
  4.966110997854396E-005
  4.991423581874020E-005
  5.016443606472012E-005
  5.041168878962278E-005
  5.065597443032830E-005
  5.089727553124709E-005
  5.113557649829483E-005
  5.137086336264923E-005
  5.160312355403631E-005
  5.183234568320832E-005
  5.205851933329837E-005
  5.228163485979807E-005
  5.250168319885083E-005
  5.271865568364459E-005
  5.293254386861451E-005
  5.314333936124128E-005
  5.335103366124775E-005
  5.355561800694728E-005
  5.375708322857934E-005
  5.395541960846110E-005
  5.415061674775939E-005
  5.434266343976518E-005
  5.453154754951266E-005
  4.111719624057584E-005
  4.137282694079420E-005
  4.162984434852947E-005
  4.188798540701488E-005
  4.214700082812293E-005
  4.240665452335674E-005
  4.266672304863677E-005
  4.292699506286242E-005
  4.318727080039694E-005
  4.344736155734512E-005
  4.370708919168251E-005
  4.396628563711880E-005
  4.422479243061084E-005
  4.448246025343575E-005
  4.473914848571481E-005
  4.499472477413010E-005
  4.524906461280729E-005
  4.550205093706172E-005
  4.575357372990464E-005
  4.600352964099247E-005
  4.625182161790517E-005
  4.649835854945726E-005
  4.674305492081893E-005
  4.698583048021114E-005
  4.722660991691457E-005
  4.746532255036129E-005
  4.770190203001349E-005
  4.793628604583705E-005
  4.816841604904717E-005
  4.839823698292829E-005
  4.862569702343049E-005
  4.885074732933747E-005
  4.907334180172228E-005
  4.929343685247915E-005
  4.951099118166565E-005
  4.972596556347306E-005
  4.993832264055106E-005
  5.014802672649918E-005
  5.035504361630550E-005
  5.055934040455235E-005
  5.076088531116935E-005
  5.095964751456311E-005
  5.115559699194363E-005
  5.134870436669001E-005
  5.153894076258372E-005
  5.172627766477098E-005
  5.191068678730523E-005
  5.209213994714165E-005
  5.227060894445726E-005
  5.244606544917880E-005
  4.018828249737745E-005
  4.039736889568800E-005
  4.060909937281597E-005
  4.082319046705640E-005
  4.103937152101360E-005
  4.125738420645557E-005
  4.147698205860130E-005
  4.169793002004542E-005
  4.192000399443134E-005
  4.214299041004485E-005
  4.236668579335571E-005
  4.259089635263415E-005
  4.281543757162677E-005
  4.304013381333895E-005
  4.326481793394028E-005
  4.348933090670656E-005
  4.371352145604244E-005
  4.393724570143409E-005
  4.416036681136538E-005
  4.438275466699455E-005
  4.460428553560870E-005
  4.482484175365973E-005
  4.504431141931422E-005
  4.526258809435981E-005
  4.547957051536858E-005
  4.569516231394881E-005
  4.590927174594000E-005
  4.612181142941861E-005
  4.633269809137541E-005
  4.654185232285719E-005
  4.674919834246891E-005
  4.695466376806716E-005
  4.715817939646526E-005
  4.735967899104370E-005
  4.755909907704511E-005
  4.775637874446765E-005
  4.795145945836610E-005
  4.814428487644654E-005
  4.833480067375324E-005
  4.852295437440548E-005
  4.870869519015010E-005
  4.889197386565931E-005
  4.907274253044345E-005
  4.925095455722908E-005
  4.942656442671352E-005
  4.959952759858384E-005
  4.976980038866789E-005
  4.993733985215837E-005
  5.010210367276607E-005
  5.026405005775185E-005
  3.913679861509118E-005
  3.930360130567142E-005
  3.947403837814125E-005
  3.964781659251482E-005
  3.982465437654080E-005
  4.000428143828414E-005
  4.018643838460566E-005
  4.037087634577459E-005
  4.055735660644237E-005
  4.074565024321740E-005
  4.093553776895653E-005
  4.112680878399860E-005
  4.131926163441344E-005
  4.151270307743484E-005
  4.170694795409799E-005
  4.190181886923470E-005
  4.209714587880327E-005
  4.229276618466441E-005
  4.248852383674981E-005
  4.268426944271009E-005
  4.287985988497755E-005
  4.307515804526968E-005
  4.327003253647182E-005
  4.346435744189479E-005
  4.365801206185592E-005
  4.385088066751196E-005
  4.404285226189732E-005
  4.423382034812204E-005
  4.442368270462360E-005
  4.461234116742166E-005
  4.479970141928629E-005
  4.498567278575888E-005
  4.517016803789419E-005
  4.535310320170540E-005
  4.553439737415723E-005
  4.571397254567083E-005
  4.589175342903009E-005
  4.606766729458891E-005
  4.624164381172912E-005
  4.641361489644200E-005
  4.658351456498124E-005
  4.675127879347108E-005
  4.691684538342595E-005
  4.708015383306067E-005
  4.724114521434909E-005
  4.739976205571752E-005
  4.755594823033826E-005
  4.770964884991195E-005
  4.786081016390341E-005
  4.800937946411977E-005
  3.796770008374726E-005
  3.809663267910054E-005
  3.822995033993898E-005
  3.836735865024089E-005
  3.850857363054571E-005
  3.865332143067187E-005
  3.880133802538580E-005
  3.895236891339600E-005
  3.910616881996117E-005
  3.926250140331061E-005
  3.942113896520841E-005
  3.958186216578558E-005
  3.974445974288641E-005
  3.990872823611136E-005
  4.007447171566772E-005
  4.024150151622288E-005
  4.040963597583757E-005
  4.057870018009095E-005
  4.074852571154489E-005
  4.091895040454957E-005
  4.108981810549010E-005
  4.126097843854563E-005
  4.143228657698024E-005
  4.160360301998800E-005
  4.177479337515833E-005
  4.194572814652762E-005
  4.211628252825173E-005
  4.228633620389226E-005
  4.245577315130913E-005
  4.262448145313745E-005
  4.279235311285268E-005
  4.295928387637493E-005
  4.312517305920063E-005
  4.328992337902147E-005
  4.345344079381851E-005
  4.361563434535018E-005
  4.377641600805009E-005
  4.393570054324249E-005
  4.409340535868080E-005
  4.424945037331850E-005
  4.440375788729599E-005
  4.455625245709982E-005
  4.470686077583307E-005
  4.485551155854738E-005
  4.500213543261503E-005
  4.514666483305744E-005
  4.528903390281914E-005
  4.542917839790881E-005
  4.556703559737203E-005
  4.570254421805464E-005
  3.668703913287168E-005
  3.678253163769010E-005
  3.688294852067752E-005
  3.698800096969179E-005
  3.709740934533411E-005
  3.721090294521640E-005
  3.732821976891267E-005
  3.744910628401528E-005
  3.757331719355235E-005
  3.770061520508332E-005
  3.783077080172363E-005
  3.796356201539951E-005
  3.809877420250342E-005
  3.823619982218558E-005
  3.837563821754252E-005
  3.851689539977998E-005
  3.865978383559124E-005
  3.880412223790369E-005
  3.894973536009582E-005
  3.909645379382792E-005
  3.924411377061349E-005
  3.939255696723293E-005
  3.954163031503590E-005
  3.969118581329758E-005
  3.984108034661715E-005
  3.999117550647868E-005
  4.014133741699795E-005
  4.029143656490811E-005
  4.044134763384093E-005
  4.059094934291880E-005
  4.074012428967772E-005
  4.088875879736785E-005
  4.103674276662692E-005
  4.118396953154685E-005
  4.133033572012425E-005
  4.147574111913753E-005
  4.162008854338967E-005
  4.176328370936803E-005
  4.190523511328352E-005
  4.204585391348076E-005
  4.218505381721797E-005
  4.232275097179577E-005
  4.245886386000604E-005
  4.259331319989877E-005
  4.272602184883685E-005
  4.285691471181807E-005
  4.298591865402580E-005
  4.311296241760879E-005
  4.323797654262283E-005
  4.336089329215108E-005
  3.530164712037848E-005
  3.536803930511197E-005
  3.543971178089753E-005
  3.551638651010827E-005
  3.559779337935613E-005
  3.568367002638570E-005
  3.577376166596674E-005
  3.586782091514779E-005
  3.596560761814369E-005
  3.606688867120172E-005
  3.617143784771618E-005
  3.627903562387164E-005
  3.638946900505271E-005
  3.650253135326712E-005
  3.661802221582892E-005
  3.673574715545184E-005
  3.685551758201467E-005
  3.697715058613644E-005
  3.710046877475577E-005
  3.722530010884646E-005
  3.735147774343149E-005
  3.747883987005853E-005
  3.760722956177978E-005
  3.773649462085021E-005
  3.786648742917332E-005
  3.799706480163726E-005
  3.812808784240019E-005
  3.825942180423487E-005
  3.839093595096231E-005
  3.852250342309316E-005
  3.865400110669851E-005
  3.878530950556812E-005
  3.891631261672819E-005
  3.904689780932314E-005
  3.917695570693261E-005
  3.930638007334096E-005
  3.943506770176880E-005
  3.956291830763524E-005
  3.968983442482111E-005
  3.981572130548250E-005
  3.994048682340312E-005
  4.006404138092023E-005
  4.018629781939753E-005
  4.030717133326930E-005
  4.042657938764785E-005
  4.054444163948912E-005
  4.066067986230610E-005
  4.077521787442614E-005
  4.088798147077204E-005
  4.099889835815150E-005
  3.381885324086144E-005
  3.386031413331363E-005
  3.390725471744561E-005
  3.395941150552966E-005
  3.401652773677804E-005
  3.407835325802573E-005
  3.414464440217779E-005
  3.421516386466574E-005
  3.428968057831983E-005
  3.436796958687555E-005
  3.444981191745953E-005
  3.453499445229449E-005
  3.462330979991860E-005
  3.471455616612446E-005
  3.480853722487736E-005
  3.490506198942608E-005
  3.500394468381162E-005
  3.510500461497765E-005
  3.520806604566113E-005
  3.531295806823704E-005
  3.541951447969173E-005
  3.552757365785868E-005
  3.563697843909529E-005
  3.574757599749144E-005
  3.585921772577754E-005
  3.597175911801958E-005
  3.608505965424170E-005
  3.619898268703944E-005
  3.631339533032273E-005
  3.642816835024080E-005
  3.654317605839541E-005
  3.665829620740320E-005
  3.677340988888018E-005
  3.688840143392063E-005
  3.700315831611034E-005
  3.711757105715635E-005
  3.723153313513703E-005
  3.734494089546899E-005
  3.745769346458172E-005
  3.756969266636814E-005
  3.768084294141620E-005
  3.779105126906424E-005
  3.790022709230000E-005
  3.800828224550150E-005
  3.811513088506714E-005
  3.822068942290930E-005
  3.832487646284796E-005
  3.842761273988843E-005
  3.852882106237948E-005
  3.862842625706596E-005
  3.224624006792559E-005
  3.226670983428273E-005
  3.229272740800320E-005
  3.232404643899733E-005
  3.236042618369478E-005
  3.240163143103971E-005
  3.244743242530990E-005
  3.249760478607055E-005
  3.255192942557903E-005
  3.261019246391654E-005
  3.267218514214002E-005
  3.273770373368860E-005
  3.280654945435201E-005
  3.287852837099669E-005
  3.295345130929280E-005
  3.303113376068174E-005
  3.311139578877231E-005
  3.319406193537834E-005
  3.327896112638768E-005
  3.336592657762800E-005
  3.345479570093386E-005
  3.354541001053765E-005
  3.363761502997143E-005
  3.373126019961032E-005
  3.382619878499491E-005
  3.392228778606510E-005
  3.401938784743050E-005
  3.411736316979355E-005
  3.421608142262098E-005
  3.431541365820291E-005
  3.441523422711336E-005
  3.451542069528987E-005
  3.461585376267331E-005
  3.471641718359860E-005
  3.481699768894410E-005
  3.491748491013736E-005
  3.501777130505281E-005
  3.511775208588868E-005
  3.521732514905032E-005
  3.531639100710029E-005
  3.541485272280268E-005
  3.551261584532882E-005
  3.560958834861798E-005
  3.570568057195837E-005
  3.580080516278834E-005
  3.589487702174915E-005
  3.598781325000901E-005
  3.607953309886286E-005
  3.616995792160486E-005
  3.625901112771884E-005
  3.059143526341565E-005
  3.059458597418229E-005
  3.060324450434990E-005
  3.061718323749384E-005
  3.063617913733416E-005
  3.066001371103360E-005
  3.068847296874919E-005
  3.072134737970807E-005
  3.075843182512384E-005
  3.079952554819081E-005
  3.084443210142542E-005
  3.089295929163059E-005
  3.094491912268210E-005
  3.100012773640606E-005
  3.105840535174791E-005
  3.111957620244692E-005
  3.118346847345128E-005
  3.124991423622192E-005
  3.131874938314098E-005
  3.138981356121028E-005
  3.146295010519288E-005
  3.153800597037399E-005
  3.161483166508202E-005
  3.169328118313374E-005
  3.177321193635824E-005
  3.185448468726931E-005
  3.193696348211463E-005
  3.202051558432750E-005
  3.210501140854976E-005
  3.219032445532893E-005
  3.227633124656646E-005
  3.236291126184748E-005
  3.244994687571452E-005
  3.253732329599271E-005
  3.262492850322287E-005
  3.271265319130707E-005
  3.280039070940413E-005
  3.288803700516942E-005
  3.297549056937321E-005
  3.306265238197180E-005
  3.314942585967111E-005
  3.323571680503260E-005
  3.332143335715870E-005
  3.340648594399803E-005
  3.349078723630534E-005
  3.357425210327428E-005
  3.365679756986978E-005
  3.373834277588742E-005
  3.381880893674841E-005
  3.389811930601872E-005
  2.886193793055480E-005
  2.885114997861843E-005
  2.884574265987547E-005
  2.884550787664681E-005
  2.885024118917607E-005
  2.885974180893594E-005
  2.887381258786078E-005
  2.889226000375412E-005
  2.891489414217171E-005
  2.894152867497113E-005
  2.897198083580729E-005
  2.900607139278346E-005
  2.904362461849483E-005
  2.908446825766511E-005
  2.912843349260829E-005
  2.917535490666671E-005
  2.922507044590031E-005
  2.927742137911608E-005
  2.933225225650052E-005
  2.938941086697357E-005
  2.944874819444658E-005
  2.951011837315490E-005
  2.957337864218845E-005
  2.963838929939207E-005
  2.970501365475899E-005
  2.977311798345877E-005
  2.984257147862741E-005
  2.991324620401358E-005
  2.998501704665315E-005
  3.005776166961966E-005
  3.013136046498969E-005
  3.020569650712327E-005
  3.028065550633253E-005
  3.035612576303918E-005
  3.043199812251325E-005
  3.050816593024561E-005
  3.058452498805530E-005
  3.066097351098077E-005
  3.073741208502817E-005
  3.081374362583316E-005
  3.088987333829069E-005
  3.096570867720017E-005
  3.104115930898265E-005
  3.111613707448358E-005
  3.119055595294134E-005
  3.126433202711021E-005
  3.133738344958303E-005
  3.140963041034832E-005
  3.148099510557675E-005
  3.155140170766971E-005
  2.706497748894594E-005
  2.704332872742346E-005
  2.702686473894461E-005
  2.701539708204477E-005
  2.700874015964619E-005
  2.700671123584604E-005
  2.700913044845673E-005
  2.701582081762769E-005
  2.702660825071440E-005
  2.704132154366712E-005
  2.705979237908153E-005
  2.708185532121313E-005
  2.710734780807002E-005
  2.713611014081850E-005
  2.716798547072094E-005
  2.720281978371332E-005
  2.724046188288027E-005
  2.728076336894088E-005
  2.732357861894869E-005
  2.736876476334517E-005
  2.741618166152873E-005
  2.746569187608162E-005
  2.751716064581673E-005
  2.757045585774823E-005
  2.762544801816296E-005
  2.768201022287441E-005
  2.774001812681363E-005
  2.779934991305994E-005
  2.785988626142668E-005
  2.792151031670239E-005
  2.798410765666116E-005
  2.804756625992909E-005
  2.811177647379819E-005
  2.817663098208628E-005
  2.824202477310642E-005
  2.830785510785645E-005
  2.837402148845122E-005
  2.844042562692750E-005
  2.850697141442854E-005
  2.857356489087651E-005
  2.864011421515182E-005
  2.870652963585655E-005
  2.877272346268511E-005
  2.883861003847716E-005
  2.890410571195212E-005
  2.896912881119501E-005
  2.903359961789555E-005
  2.909744034238005E-005
  2.916057509946576E-005
  2.922292988511948E-005
  2.520740255435411E-005
  2.517766753600324E-005
  2.515286889158363E-005
  2.513283747065046E-005
  2.511740626252765E-005
  2.510641043074404E-005
  2.509968734332326E-005
  2.509707659912499E-005
  2.509842005043856E-005
  2.510356182201055E-005
  2.511234832672634E-005
  2.512462827807221E-005
  2.514025269962692E-005
  2.515907493169057E-005
  2.518095063528098E-005
  2.520573779360657E-005
  2.523329671121634E-005
  2.526349001096741E-005
  2.529618262895534E-005
  2.533124180757442E-005
  2.536853708680537E-005
  2.540794029393228E-005
  2.544932553176433E-005
  2.549256916550685E-005
  2.553754980841995E-005
  2.558414830636945E-005
  2.563224772138476E-005
  2.568173331432798E-005
  2.573249252680084E-005
  2.578441496236552E-005
  2.583739236718396E-005
  2.589131861018155E-005
  2.594608966280186E-005
  2.600160357845053E-005
  2.605776047170057E-005
  2.611446249733664E-005
  2.617161382931258E-005
  2.622912063969267E-005
  2.628689107761736E-005
  2.634483524838001E-005
  2.640286519266387E-005
  2.646089486596680E-005
  2.651884011829440E-005
  2.657661867413427E-005
  2.663415011277622E-005
  2.669135584898775E-005
  2.674815911409056E-005
  2.680448493746361E-005
  2.686026012848789E-005
  2.691541325894655E-005
  2.329559707497801E-005
  2.326025409023574E-005
  2.322956035190444E-005
  2.320336525919980E-005
  2.318151975225873E-005
  2.316387635928394E-005
  2.315028923966622E-005
  2.314061422332082E-005
  2.313470884633203E-005
  2.313243238313827E-005
  2.313364587537856E-005
  2.313821215756858E-005
  2.314599587978415E-005
  2.315686352747071E-005
  2.317068343854498E-005
  2.318732581794328E-005
  2.320666274974128E-005
  2.322856820698740E-005
  2.325291805938979E-005
  2.327959007898573E-005
  2.330846394391118E-005
  2.333942124041212E-005
  2.337234546320159E-005
  2.340712201427082E-005
  2.344363820030558E-005
  2.348178322875283E-005
  2.352144820271371E-005
  2.356252611469387E-005
  2.360491183937138E-005
  2.364850212542061E-005
  2.369319558652540E-005
  2.373889269163383E-005
  2.378549575456404E-005
  2.383290892300857E-005
  2.388103816705198E-005
  2.392979126722731E-005
  2.397907780222328E-005
  2.402880913626001E-005
  2.407889840623961E-005
  2.412926050868289E-005
  2.417981208654445E-005
  2.423047151592787E-005
  2.428115889275257E-005
  2.433179601941416E-005
  2.438230639148779E-005
  2.443261518447743E-005
  2.448264924068097E-005
  2.453233705615514E-005
  2.458160876783362E-005
  2.463039614080314E-005
  2.133542087565689E-005
  2.129666479340116E-005
  2.126224370547772E-005
  2.123202455168369E-005
  2.120587531425395E-005
  2.118366507344007E-005
  2.116526405934865E-005
  2.115054370013687E-005
  2.113937666675908E-005
  2.113163691436890E-005
  2.112719972052616E-005
  2.112594172034230E-005
  2.112774093870504E-005
  2.113247681970777E-005
  2.114003025339766E-005
  2.115028360001754E-005
  2.116312071177683E-005
  2.117842695237648E-005
  2.119608921432762E-005
  2.121599593420306E-005
  2.123803710594728E-005
  2.126210429233393E-005
  2.128809063468621E-005
  2.131589086096107E-005
  2.134540129230491E-005
  2.137651984815287E-005
  2.140914605000324E-005
  2.144318102392219E-005
  2.147852750188322E-005
  2.151508982203613E-005
  2.155277392795322E-005
  2.159148736697034E-005
  2.163113928767277E-005
  2.167164043659672E-005
  2.171290315422821E-005
  2.175484137036536E-005
  2.179737059888298E-005
  2.184040793198293E-005
  2.188387203397799E-005
  2.192768313465669E-005
  2.197176302227915E-005
  2.201603503624936E-005
  2.206042405951850E-005
  2.210485651073144E-005
  2.214926033617631E-005
  2.219356500155787E-005
  2.223770148361908E-005
  2.228160226164287E-005
  2.232520130885786E-005
  2.236843408374454E-005
  1.933217176554981E-005
  1.929193097214372E-005
  1.925569334698587E-005
  1.922334218525396E-005
  1.919476141938462E-005
  1.916983567956713E-005
  1.914845035075539E-005
  1.913049162633850E-005
  1.911584655855962E-005
  1.910440310583730E-005
  1.909605017705066E-005
  1.909067767296581E-005
  1.908817652486046E-005
  1.908843873049845E-005
  1.909135738752729E-005
  1.909682672444048E-005
  1.910474212918012E-005
  1.911500017551187E-005
  1.912749864723594E-005
  1.914213656038058E-005
  1.915881418343170E-005
  1.917743305571356E-005
  1.919789600402543E-005
  1.922010715758493E-005
  1.924397196142094E-005
  1.926939718823897E-005
  1.929629094889941E-005
  1.932456270154771E-005
  1.935412325950006E-005
  1.938488479793685E-005
  1.941676085950274E-005
  1.944966635885959E-005
  1.948351758626789E-005
  1.951823221027363E-005
  1.955372927952813E-005
  1.958992922385342E-005
  1.962675385454982E-005
  1.966412636403326E-005
  1.970197132486109E-005
  1.974021468816341E-005
  1.977878378153543E-005
  1.981760730646116E-005
  1.985661533525319E-005
  1.989573930758756E-005
  1.993491202665705E-005
  1.997406765495062E-005
  2.001314170971411E-005
  2.005207105809694E-005
  2.009079391200961E-005
  2.012924982270495E-005
  1.729056645071233E-005
  1.725052245333097E-005
  1.721413989668073E-005
  1.718131714600309E-005
  1.715195288393638E-005
  1.712594617299165E-005
  1.710319651487255E-005
  1.708360390674626E-005
  1.706706889452836E-005
  1.705349262332915E-005
  1.704277688509080E-005
  1.703482416357884E-005
  1.702953767676125E-005
  1.702682141670407E-005
  1.702658018706154E-005
  1.702871963824640E-005
  1.703314630038385E-005
  1.703976761411956E-005
  1.704849195937836E-005
  1.705922868215348E-005
  1.707188811941463E-005
  1.708638162220802E-005
  1.710262157703267E-005
  1.712052142556699E-005
  1.713999568283616E-005
  1.716095995386526E-005
  1.718333094892082E-005
  1.720702649739015E-005
  1.723196556037397E-005
  1.725806824206213E-005
  1.728525579994525E-005
  1.731345065393397E-005
  1.734257639443927E-005
  1.737255778947364E-005
  1.740332079082143E-005
  1.743479253934338E-005
  1.746690136945381E-005
  1.749957681282120E-005
  1.753274960133242E-005
  1.756635166937812E-005
  1.760031615548509E-005
  1.763457740332854E-005
  1.766907096218312E-005
  1.770373358680890E-005
  1.773850323684179E-005
  1.777331907567678E-005
  1.780812146890180E-005
  1.784285198226880E-005
  1.787745337925107E-005
  1.791186961819010E-005
  1.521473764089651E-005
  1.517634614723973E-005
  1.514127044597649E-005
  1.510942264903887E-005
  1.508071494273577E-005
  1.505505964984570E-005
  1.503236928890978E-005
  1.501255663075408E-005
  1.499553475234990E-005
  1.498121708807236E-005
  1.496951747844949E-005
  1.496035021643977E-005
  1.495363009137389E-005
  1.494927243058158E-005
  1.494719313880481E-005
  1.494730873547128E-005
  1.494953638988833E-005
  1.495379395444948E-005
  1.495999999590858E-005
  1.496807382479922E-005
  1.497793552306781E-005
  1.498950596999353E-005
  1.500270686645778E-005
  1.501746075762412E-005
  1.503369105410572E-005
  1.505132205167805E-005
  1.507027894959276E-005
  1.509048786755882E-005
  1.511187586144695E-005
  1.513437093778818E-005
  1.515790206708306E-005
  1.518239919603171E-005
  1.520779325868218E-005
  1.523401618657888E-005
  1.526100091794690E-005
  1.528868140597066E-005
  1.531699262618194E-005
  1.534587058304082E-005
  1.537525231570140E-005
  1.540507590305114E-005
  1.543528046800791E-005
  1.546580618114871E-005
  1.549659426367655E-005
  1.552758698976562E-005
  1.555872768830588E-005
  1.558996074406987E-005
  1.562123159832924E-005
  1.565248674893044E-005
  1.568367374985573E-005
  1.571474121028104E-005
  1.310824493341728E-005
  1.307275743941962E-005
  1.304024064544104E-005
  1.301061909847818E-005
  1.298381724513065E-005
  1.295975949148679E-005
  1.293837026047309E-005
  1.291957404679958E-005
  1.290329546949930E-005
  1.288945932216579E-005
  1.287799062093595E-005
  1.286881465024896E-005
  1.286185700651345E-005
  1.285704363965168E-005
  1.285430089266761E-005
  1.285355553923669E-005
  1.285473481941263E-005
  1.285776647350056E-005
  1.286257877414737E-005
  1.286910055672373E-005
  1.287726124804817E-005
  1.288699089349700E-005
  1.289822018259570E-005
  1.291088047309247E-005
  1.292490381360958E-005
  1.294022296492380E-005
  1.295677141989405E-005
  1.297448342213718E-005
  1.299329398344889E-005
  1.301313890006862E-005
  1.303395476779874E-005
  1.305567899603542E-005
  1.307824982076353E-005
  1.310160631655364E-005
  1.312568840758660E-005
  1.315043687777377E-005
  1.317579337998807E-005
  1.320170044445357E-005
  1.322810148631909E-005
  1.325494081246068E-005
  1.328216362753257E-005
  1.330971603929618E-005
  1.333754506327099E-005
  1.336559862670254E-005
  1.339382557189555E-005
  1.342217565893081E-005
  1.345059956775911E-005
  1.347904889973423E-005
  1.350747617854993E-005
  1.353583485063599E-005
  1.097409728108667E-005
  1.094258239038096E-005
  1.091369682011593E-005
  1.088737629163874E-005
  1.086355631105170E-005
  1.084217222537122E-005
  1.082315927652080E-005
  1.080645265318495E-005
  1.079198754057144E-005
  1.077969916813631E-005
  1.076952285530669E-005
  1.076139405526555E-005
  1.075524839683465E-005
  1.075102172449965E-005
  1.074865013664376E-005
  1.074807002202227E-005
  1.074921809452748E-005
  1.075203142631783E-005
  1.075644747930983E-005
  1.076240413512998E-005
  1.076983972355043E-005
  1.077869304945756E-005
  1.078890341839741E-005
  1.080041066076008E-005
  1.081315515462918E-005
  1.082707784733964E-005
  1.084212027582188E-005
  1.085822458571861E-005
  1.087533354936968E-005
  1.089339058267514E-005
  1.091233976088935E-005
  1.093212583336774E-005
  1.095269423733467E-005
  1.097399111067218E-005
  1.099596330380486E-005
  1.101855839066702E-005
  1.104172467882954E-005
  1.106541121879215E-005
  1.108956781247365E-005
  1.111414502094307E-005
  1.113909417138659E-005
  1.116436736338060E-005
  1.118991747444777E-005
  1.121569816495196E-005
  1.124166388233227E-005
  1.126776986471306E-005
  1.129397214387571E-005
  1.132022754764852E-005
  1.134649370168552E-005
  1.137272903068692E-005
  8.814785093646077E-006
  8.788148957586017E-006
  8.763806487006112E-006
  8.741703398157586E-006
  8.721785129078169E-006
  8.703996890956751E-006
  8.688283717608747E-006
  8.674590513107060E-006
  8.662862097602782E-006
  8.653043251374338E-006
  8.645078757126379E-006
  8.638913440603102E-006
  8.634492209520875E-006
  8.631760090887425E-006
  8.630662266722355E-006
  8.631144108240404E-006
  8.633151208509687E-006
  8.636629413651922E-006
  8.641524852599933E-006
  8.647783965466941E-006
  8.655353530558738E-006
  8.664180690069437E-006
  8.674212974497208E-006
  8.685398325820620E-006
  8.697685119472781E-006
  8.711022185143323E-006
  8.725358826454832E-006
  8.740644839545292E-006
  8.756830530584487E-006
  8.773866732265690E-006
  8.791704819316064E-006
  8.810296723025716E-006
  8.829594944874647E-006
  8.849552569232700E-006
  8.870123275218507E-006
  8.891261347702313E-006
  8.912921687502164E-006
  8.935059820795509E-006
  8.957631907766092E-006
  8.980594750523328E-006
  9.003905800298444E-006
  9.027523163956369E-006
  9.051405609827423E-006
  9.075512572895864E-006
  9.099804159351371E-006
  9.124241150507613E-006
  9.148785006134865E-006
  9.173397867187972E-006
  9.198042557954094E-006
  9.222682587640276E-006
  6.632320272125795E-006
  6.611325677851032E-006
  6.592295848745797E-006
  6.575185420701785E-006
  6.559948732878646E-006
  6.546539873396724E-006
  6.534912723451290E-006
  6.525020999854580E-006
  6.516818296011526E-006
  6.510258121391859E-006
  6.505293939495712E-006
  6.501879204358370E-006
  6.499967395615369E-006
  6.499512052160463E-006
  6.500466804425923E-006
  6.502785405319394E-006
  6.506421759841298E-006
  6.511329953409785E-006
  6.517464278948303E-006
  6.524779262733727E-006
  6.533229689056923E-006
  6.542770623739110E-006
  6.553357436477224E-006
  6.564945822140887E-006
  6.577491820965112E-006
  6.590951837709258E-006
  6.605282659826953E-006
  6.620441474626198E-006
  6.636385885507227E-006
  6.653073927255836E-006
  6.670464080456507E-006
  6.688515285031398E-006
  6.707186952932925E-006
  6.726438980036112E-006
  6.746231757220966E-006
  6.766526180701130E-006
  6.787283661602645E-006
  6.808466134828260E-006
  6.830036067200151E-006
  6.851956464964076E-006
  6.874190880584344E-006
  6.896703418932722E-006
  6.919458742835861E-006
  6.942422078016990E-006
  6.965559217445995E-006
  6.988836525106445E-006
  7.012220939194354E-006
  7.035679974764823E-006
  7.059181725828926E-006
  7.082694866914908E-006
  4.428282724000601E-006
  4.413566472155648E-006
  4.400493037764007E-006
  4.389025022423935E-006
  4.379124749963193E-006
  4.370754305891918E-006
  4.363875575494687E-006
  4.358450280621989E-006
  4.354440015151593E-006
  4.351806279183544E-006
  4.350510511964959E-006
  4.350514123569751E-006
  4.351778525361573E-006
  4.354265159263006E-006
  4.357935525838931E-006
  4.362751211245303E-006
  4.368673913044950E-006
  4.375665464920967E-006
  4.383687860318203E-006
  4.392703275025160E-006
  4.402674088744862E-006
  4.413562905643528E-006
  4.425332573940685E-006
  4.437946204537453E-006
  4.451367188722790E-006
  4.465559214969422E-006
  4.480486284860411E-006
  4.496112728155589E-006
  4.512403217035214E-006
  4.529322779518371E-006
  4.546836812118587E-006
  4.564911091720781E-006
  4.583511786725770E-006
  4.602605467470776E-006
  4.622159115951831E-006
  4.642140134871644E-006
  4.662516356027010E-006
  4.683256048041241E-006
  4.704327923502271E-006
  4.725701145466903E-006
  4.747345333384037E-006
  4.769230568458244E-006
  4.791327398431151E-006
  4.813606841838823E-006
  4.836040391715133E-006
  4.858600018788153E-006
  4.881258174166484E-006
  4.903987791520954E-006
  4.926762288767068E-006
  4.949555569284111E-006
  2.203872146581356E-006
  2.195960451600035E-006
  2.189376080642479E-006
  2.184088780870177E-006
  2.180068071832306E-006
  2.177283278199379E-006
  2.175703561384069E-006
  2.175297950060071E-006
  2.176035369619101E-006
  2.177884670550070E-006
  2.180814655777477E-006
  2.184794106964318E-006
  2.189791809805936E-006
  2.195776578324280E-006
  2.202717278189639E-006
  2.210582849071032E-006
  2.219342326063612E-006
  2.228964860183188E-006
  2.239419737964409E-006
  2.250676400182148E-006
  2.262704459698931E-006
  2.275473718486235E-006
  2.288954183814113E-006
  2.303116083647073E-006
  2.317929881253671E-006
  2.333366289050529E-006
  2.349396281720770E-006
  2.365991108592993E-006
  2.383122305323869E-006
  2.400761704895935E-006
  2.418881447952212E-006
  2.437453992485140E-006
  2.456452122886057E-006
  2.475848958390385E-006
  2.495617960936269E-006
  2.515732942419273E-006
  2.536168071415071E-006
  2.556897879335411E-006
  2.577897266058591E-006
  2.599141505039339E-006
  2.620606247923735E-006
  2.642267528656545E-006
  2.664101767127682E-006
  2.686085772341899E-006
  2.708196745130982E-006
  2.730412280429396E-006
  2.752710369101558E-006
  2.775069399353160E-006
  2.797468157714710E-006
  2.819885829612871E-006
 -4.003590944648567E-008
 -4.071419261611793E-008
 -4.037526332241665E-008
 -3.904290606394100E-008
 -3.674105737729367E-008
 -3.349378016534982E-008
 -2.932523891941866E-008
 -2.425967580222926E-008
 -1.832138762715603E-008
 -1.153470367668892E-008
 -3.923964375030194E-009
  4.486499212686203E-009
  1.367238505706737E-008
  2.360943904412146E-008
  3.427347305629479E-008
  4.564038228592149E-008
  5.768616179071990E-008
  7.038692228955921E-008
  8.371890525323954E-008
  9.765849726282251E-008
  1.121822436765269E-007
  1.272668616243611E-007
  1.428892523207792E-007
  1.590265127534849E-007
  1.756559467013697E-007
  1.927550751829337E-007
  2.103016462638713E-007
  2.282736443004774E-007
  2.466492986041692E-007
  2.654070915567319E-007
  2.845257661860575E-007
  3.039843332120672E-007
  3.237620775867467E-007
  3.438385645419415E-007
  3.641936451474900E-007
  3.848074614054985E-007
  4.056604508852823E-007
  4.267333509301303E-007
  4.480072024127294E-007
  4.694633530873184E-007
  4.910834605342264E-007
  5.128494946947813E-007
  5.347437400472477E-007
  5.567487973747280E-007
  5.788475851960265E-007
  6.010233408156146E-007
  6.232596210467814E-007
  6.455403025658800E-007
  6.678495819627238E-007
  6.901719754389023E-007
 -2.302830479802321E-006
 -2.295932945810660E-006
 -2.288324465907500E-006
 -2.280022883878067E-006
 -2.271046099852889E-006
 -2.261412051940130E-006
 -2.251138698554152E-006
 -2.240244001415159E-006
 -2.228745909239878E-006
 -2.216662342087745E-006
 -2.204011176356622E-006
 -2.190810230425019E-006
 -2.177077250942011E-006
 -2.162829899711232E-006
 -2.148085741203889E-006
 -2.132862230657007E-006
 -2.117176702768913E-006
 -2.101046360949197E-006
 -2.084488267152005E-006
 -2.067519332227544E-006
 -2.050156306832572E-006
 -2.032415772855962E-006
 -2.014314135341947E-006
 -1.995867614916222E-006
 -1.977092240704500E-006
 -1.958003843704933E-006
 -1.938618050624696E-006
 -1.918950278166345E-006
 -1.899015727737657E-006
 -1.878829380589671E-006
 -1.858405993352538E-006
 -1.837760093978603E-006
 -1.816905978066760E-006
 -1.795857705548989E-006
 -1.774629097753851E-006
 -1.753233734812139E-006
 -1.731684953402448E-006
 -1.709995844826935E-006
 -1.688179253411010E-006
 -1.666247775206975E-006
 -1.644213756995020E-006
 -1.622089295587531E-006
 -1.599886237406227E-006
 -1.577616178331185E-006
 -1.555290463829028E-006
 -1.532920189322967E-006
 -1.510516200831290E-006
 -1.488089095836291E-006
 -1.465649224400213E-006
 -1.443206690515111E-006
 -4.584102732472859E-006
 -4.569364938272288E-006
 -4.554220522281074E-006
 -4.538681760531870E-006
 -4.522760874458365E-006
 -4.506470020037975E-006
 -4.489821277446941E-006
 -4.472826641205325E-006
 -4.455498010817484E-006
 -4.437847181892935E-006
 -4.419885837730312E-006
 -4.401625541380253E-006
 -4.383077728151293E-006
 -4.364253698548149E-006
 -4.345164611670368E-006
 -4.325821479011071E-006
 -4.306235158677250E-006
 -4.286416350013162E-006
 -4.266375588619104E-006
 -4.246123241749588E-006
 -4.225669504082993E-006
 -4.205024393855591E-006
 -4.184197749346845E-006
 -4.163199225710237E-006
 -4.142038292119584E-006
 -4.120724229263470E-006
 -4.099266127127174E-006
 -4.077672883082990E-006
 -4.055953200275307E-006
 -4.034115586290120E-006
 -4.012168352084816E-006
 -3.990119611191365E-006
 -3.967977279170125E-006
 -3.945749073301521E-006
 -3.923442512529122E-006
 -3.901064917609024E-006
 -3.878623411495095E-006
 -3.856124919922128E-006
 -3.833576172199804E-006
 -3.810983702190357E-006
 -3.788353849486868E-006
 -3.765692760754178E-006
 -3.743006391255850E-006
 -3.720300506534242E-006
 -3.697580684259033E-006
 -3.674852316222106E-006
 -3.652120610472899E-006
 -3.629390593606304E-006
 -3.606667113172220E-006
 -3.583954840219522E-006
 -6.883581068527103E-006
 -6.860810549846519E-006
 -6.837937969459807E-006
 -6.814970249805394E-006
 -6.791914137104393E-006
 -6.768776198192950E-006
 -6.745562817695010E-006
 -6.722280195493553E-006
 -6.698934344548260E-006
 -6.675531088974715E-006
 -6.652076062449953E-006
 -6.628574706893844E-006
 -6.605032271421494E-006
 -6.581453811571033E-006
 -6.557844188799028E-006
 -6.534208070211136E-006
 -6.510549928548387E-006
 -6.486874042409092E-006
 -6.463184496692026E-006
 -6.439485183261472E-006
 -6.415779801820568E-006
 -6.392071860988240E-006
 -6.368364679570082E-006
 -6.344661388012556E-006
 -6.320964930040248E-006
 -6.297278064462222E-006
 -6.273603367127800E-006
 -6.249943233064528E-006
 -6.226299878728983E-006
 -6.202675344433789E-006
 -6.179071496875038E-006
 -6.155490031802549E-006
 -6.131932476808866E-006
 -6.108400194216919E-006
 -6.084894384092426E-006
 -6.061416087334885E-006
 -6.037966188868580E-006
 -6.014545420917934E-006
 -5.991154366370006E-006
 -5.967793462185582E-006
 -5.944463002906381E-006
 -5.921163144204314E-006
 -5.897893906488298E-006
 -5.874655178566382E-006
 -5.851446721344683E-006
 -5.828268171565611E-006
 -5.805119045587074E-006
 -5.781998743178298E-006
 -5.758906551340098E-006
 -5.735841648153427E-006
 -9.201064102314296E-006
 -9.170136960647640E-006
 -9.139414924081674E-006
 -9.108899613138569E-006
 -9.078592344216817E-006
 -9.048494134297321E-006
 -9.018605705800285E-006
 -8.988927491573658E-006
 -8.959459640036888E-006
 -8.930202020436450E-006
 -8.901154228219017E-006
 -8.872315590534184E-006
 -8.843685171808311E-006
 -8.815261779440250E-006
 -8.787043969579282E-006
 -8.759030052966025E-006
 -8.731218100874280E-006
 -8.703605951091425E-006
 -8.676191213980138E-006
 -8.648971278579726E-006
 -8.621943318757736E-006
 -8.595104299402387E-006
 -8.568450982645901E-006
 -8.541979934122042E-006
 -8.515687529236690E-006
 -8.489569959460400E-006
 -8.463623238631652E-006
 -8.437843209261875E-006
 -8.412225548843186E-006
 -8.386765776147901E-006
 -8.361459257525694E-006
 -8.336301213165822E-006
 -8.311286723366757E-006
 -8.286410734750700E-006
 -8.261668066474368E-006
 -8.237053416382458E-006
 -8.212561367137242E-006
 -8.188186392299693E-006
 -8.163922862357254E-006
 -8.139765050704231E-006
 -8.115707139561524E-006
 -8.091743225827020E-006
 -8.067867326886780E-006
 -8.044073386309571E-006
 -8.020355279512508E-006
 -7.996706819315604E-006
 -7.973121761423663E-006
 -7.949593809816993E-006
 -7.926116622050679E-006
 -7.902683814446663E-006
 -1.153635175226591E-005
 -1.149721187233393E-005
 -1.145858935449999E-005
 -1.142048040297970E-005
 -1.138288078803942E-005
 -1.134578585873229E-005
 -1.130919055560817E-005
 -1.127308942339671E-005
 -1.123747662363196E-005
 -1.120234594722942E-005
 -1.116769082701125E-005
 -1.113350435014435E-005
 -1.109977927052325E-005
 -1.106650802105209E-005
 -1.103368272584917E-005
 -1.100129521235295E-005
 -1.096933702332596E-005
 -1.093779942875239E-005
 -1.090667343762361E-005
 -1.087594980961108E-005
 -1.084561906660920E-005
 -1.081567150416490E-005
 -1.078609720275956E-005
 -1.075688603898087E-005
 -1.072802769653166E-005
 -1.069951167711349E-005
 -1.067132731116133E-005
 -1.064346376842985E-005
 -1.061591006842660E-005
 -1.058865509069520E-005
 -1.056168758493404E-005
 -1.053499618096379E-005
 -1.050856939852375E-005
 -1.048239565690932E-005
 -1.045646328443166E-005
 -1.043076052771812E-005
 -1.040527556082646E-005
 -1.037999649419169E-005
 -1.035491138339102E-005
 -1.033000823772055E-005
 -1.030527502859196E-005
 -1.028069969774683E-005
 -1.025627016526359E-005
 -1.023197433738420E-005
 -1.020780011413581E-005
 -1.018373539675311E-005
 -1.015976809489857E-005
 -1.013588613366146E-005
 -1.011207746035924E-005
 -1.008833005111599E-005
 -1.388917461340467E-005
 -1.384183556923879E-005
 -1.379533375178028E-005
 -1.374965966487887E-005
 -1.370480325112693E-005
 -1.366075391279082E-005
 -1.361750053255451E-005
 -1.357503149401579E-005
 -1.353333470196858E-005
 -1.349239760243958E-005
 -1.345220720245937E-005
 -1.341275008961048E-005
 -1.337401245128767E-005
 -1.333598009369790E-005
 -1.329863846058817E-005
 -1.326197265170843E-005
 -1.322596744096284E-005
 -1.319060729430641E-005
 -1.315587638733802E-005
 -1.312175862259812E-005
 -1.308823764658653E-005
 -1.305529686646128E-005
 -1.302291946646426E-005
 -1.299108842402168E-005
 -1.295978652556294E-005
 -1.292899638202260E-005
 -1.289870044403736E-005
 -1.286888101685568E-005
 -1.283952027491273E-005
 -1.281060027611778E-005
 -1.278210297583604E-005
 -1.275401024054426E-005
 -1.272630386119988E-005
 -1.269896556628222E-005
 -1.267197703453650E-005
 -1.264531990739789E-005
 -1.261897580111325E-005
 -1.259292631854544E-005
 -1.256715306066720E-005
 -1.254163763774013E-005
 -1.251636168018032E-005
 -1.249130684910438E-005
 -1.246645484656319E-005
 -1.244178742544759E-005
 -1.241728639907755E-005
 -1.239293365047091E-005
 -1.236871114126848E-005
 -1.234460092035660E-005
 -1.232058513211489E-005
 -1.229664602437321E-005
 -1.625912175685124E-005
 -1.620367146514581E-005
 -1.614938834294743E-005
 -1.609625673636718E-005
 -1.604426031013322E-005
 -1.599338207690388E-005
 -1.594360442617520E-005
 -1.589490915275147E-005
 -1.584727748478726E-005
 -1.580069011138872E-005
 -1.575512720976545E-005
 -1.571056847192173E-005
 -1.566699313090297E-005
 -1.562437998656546E-005
 -1.558270743089248E-005
 -1.554195347282700E-005
 -1.550209576264037E-005
 -1.546311161583642E-005
 -1.542497803655853E-005
 -1.538767174054518E-005
 -1.535116917759193E-005
 -1.531544655355768E-005
 -1.528047985187605E-005
 -1.524624485460886E-005
 -1.521271716301610E-005
 -1.517987221766489E-005
 -1.514768531806287E-005
 -1.511613164182950E-005
 -1.508518626339469E-005
 -1.505482417224031E-005
 -1.502502029067650E-005
 -1.499574949116309E-005
 -1.496698661317065E-005
 -1.493870647958922E-005
 -1.491088391267764E-005
 -1.488349374957126E-005
 -1.485651085733057E-005
 -1.482991014755105E-005
 -1.480366659051454E-005
 -1.477775522891260E-005
 -1.475215119109886E-005
 -1.472682970392089E-005
 -1.470176610509906E-005
 -1.467693585515044E-005
 -1.465231454887837E-005
 -1.462787792641277E-005
 -1.460360188379655E-005
 -1.457946248312545E-005
 -1.455543596223051E-005
 -1.453149874389919E-005
 -1.864556711159462E-005
 -1.858217529106442E-005
 -1.852029299889017E-005
 -1.845989778921917E-005
 -1.840096642695029E-005
 -1.834347492557267E-005
 -1.828739858435368E-005
 -1.823271202488918E-005
 -1.817938922698558E-005
 -1.812740356390569E-005
 -1.807672783692446E-005
 -1.802733430923195E-005
 -1.797919473916111E-005
 -1.793228041274687E-005
 -1.788656217560638E-005
 -1.784201046413679E-005
 -1.779859533606260E-005
 -1.775628650029671E-005
 -1.771505334612350E-005
 -1.767486497172938E-005
 -1.763569021206793E-005
 -1.759749766604724E-005
 -1.756025572308027E-005
 -1.752393258897247E-005
 -1.748849631115936E-005
 -1.745391480330032E-005
 -1.742015586924706E-005
 -1.738718722635648E-005
 -1.735497652819199E-005
 -1.732349138659508E-005
 -1.729269939314203E-005
 -1.726256813998477E-005
 -1.723306524008430E-005
 -1.720415834685090E-005
 -1.717581517317272E-005
 -1.714800350986491E-005
 -1.712069124351719E-005
 -1.709384637377145E-005
 -1.706743703000649E-005
 -1.704143148745562E-005
 -1.701579818274077E-005
 -1.699050572884091E-005
 -1.696552292948912E-005
 -1.694081879299797E-005
 -1.691636254552140E-005
 -1.689212364374800E-005
 -1.686807178702163E-005
 -1.684417692889632E-005
 -1.682040928811884E-005
 -1.679673935903684E-005
 -2.104759463053963E-005
 -2.097652312306890E-005
 -2.090731802985771E-005
 -2.083994929901228E-005
 -2.077438599937383E-005
 -2.071059636696146E-005
 -2.064854785052602E-005
 -2.058820715621307E-005
 -2.052954029132768E-005
 -2.047251260720763E-005
 -2.041708884117709E-005
 -2.036323315761563E-005
 -2.031090918812498E-005
 -2.026008007077873E-005
 -2.021070848849311E-005
 -2.016275670650445E-005
 -2.011618660894224E-005
 -2.007095973452943E-005
 -2.002703731141105E-005
 -1.998438029109592E-005
 -1.994294938155084E-005
 -1.990270507942255E-005
 -1.986360770142809E-005
 -1.982561741489140E-005
 -1.978869426745925E-005
 -1.975279821598055E-005
 -1.971788915459408E-005
 -1.968392694199850E-005
 -1.965087142792504E-005
 -1.961868247882793E-005
 -1.958732000281368E-005
 -1.955674397377833E-005
 -1.952691445480420E-005
 -1.949779162080036E-005
 -1.946933578040404E-005
 -1.944150739714833E-005
 -1.941426710990573E-005
 -1.938757575260948E-005
 -1.936139437326630E-005
 -1.933568425226512E-005
 -1.931040691998238E-005
 -1.928552417369442E-005
 -1.926099809379598E-005
 -1.923679105933377E-005
 -1.921286576285576E-005
 -1.918918522457377E-005
 -1.916571280584580E-005
 -1.914241222197268E-005
 -1.911924755432224E-005
 -1.909618326174728E-005
 -2.346392252761492E-005
 -2.338553852783454E-005
 -2.330939413411052E-005
 -2.323545069261170E-005
 -2.316366860430558E-005
 -2.309400738001354E-005
 -2.302642569432028E-005
 -2.296088143831943E-005
 -2.289733177117846E-005
 -2.283573317054901E-005
 -2.277604148181065E-005
 -2.271821196615840E-005
 -2.266219934754239E-005
 -2.260795785844642E-005
 -2.255544128454255E-005
 -2.250460300822327E-005
 -2.245539605098284E-005
 -2.240777311472377E-005
 -2.236168662195206E-005
 -2.231708875487779E-005
 -2.227393149345936E-005
 -2.223216665237495E-005
 -2.219174591694987E-005
 -2.215262087805511E-005
 -2.211474306597939E-005
 -2.207806398330187E-005
 -2.204253513676952E-005
 -2.200810806819953E-005
 -2.197473438442456E-005
 -2.194236578627505E-005
 -2.191095409664317E-005
 -2.188045128761182E-005
 -2.185080950669312E-005
 -2.182198110215387E-005
 -2.179391864746602E-005
 -2.176657496489508E-005
 -2.173990314821583E-005
 -2.171385658459199E-005
 -2.168838897561082E-005
 -2.166345435749720E-005
 -2.163900712049361E-005
 -2.161500202745022E-005
 -2.159139423158904E-005
 -2.156813929348285E-005
 -2.154519319722433E-005
 -2.152251236583132E-005
 -2.150005367583242E-005
 -2.147777447108965E-005
 -2.145563257581884E-005
 -2.143358630683999E-005
 -2.589282699631282E-005
 -2.580761921818172E-005
 -2.572504187097113E-005
 -2.564504652103484E-005
 -2.556758375465665E-005
 -2.549260324164050E-005
 -2.542005379742354E-005
 -2.534988344373575E-005
 -2.528203946775986E-005
 -2.521646847987348E-005
 -2.515311646990597E-005
 -2.509192886197835E-005
 -2.503285056791363E-005
 -2.497582603921880E-005
 -2.492079931769866E-005
 -2.486771408465912E-005
 -2.481651370875659E-005
 -2.476714129249861E-005
 -2.471953971741954E-005
 -2.467365168792705E-005
 -2.462941977388002E-005
 -2.458678645187000E-005
 -2.454569414527159E-005
 -2.450608526304241E-005
 -2.446790223732381E-005
 -2.443108755984528E-005
 -2.439558381714995E-005
 -2.436133372469214E-005
 -2.432828015977356E-005
 -2.429636619339678E-005
 -2.426553512100970E-005
 -2.423573049218484E-005
 -2.420689613925336E-005
 -2.417897620488383E-005
 -2.415191516866641E-005
 -2.412565787268183E-005
 -2.410014954609200E-005
 -2.407533582875542E-005
 -2.405116279390420E-005
 -2.402757696985121E-005
 -2.400452536079509E-005
 -2.398195546669167E-005
 -2.395981530222284E-005
 -2.393805341486544E-005
 -2.391661890206331E-005
 -2.389546142752205E-005
 -2.387453123661250E-005
 -2.385377917090763E-005
 -2.383315668183434E-005
 -2.381261584345000E-005
 -2.833206598318895E-005
 -2.824066376178009E-005
 -2.815230116839686E-005
 -2.806691863230089E-005
 -2.798445560675617E-005
 -2.790485064089861E-005
 -2.782804144974079E-005
 -2.775396498237810E-005
 -2.768255748840421E-005
 -2.761375458253242E-005
 -2.754749130745196E-005
 -2.748370219495978E-005
 -2.742232132534850E-005
 -2.736328238510796E-005
 -2.730651872294132E-005
 -2.725196340414115E-005
 -2.719954926331636E-005
 -2.714920895554806E-005
 -2.710087500594301E-005
 -2.705447985766491E-005
 -2.700995591842214E-005
 -2.696723560548618E-005
 -2.692625138923273E-005
 -2.688693583525938E-005
 -2.684922164508373E-005
 -2.681304169547701E-005
 -2.677832907643733E-005
 -2.674501712784530E-005
 -2.671303947482994E-005
 -2.668233006185294E-005
 -2.665282318557075E-005
 -2.662445352645591E-005
 -2.659715617925654E-005
 -2.657086668226794E-005
 -2.654552104546881E-005
 -2.652105577753881E-005
 -2.649740791177533E-005
 -2.647451503093282E-005
 -2.645231529099978E-005
 -2.643074744393427E-005
 -2.640975085938146E-005
 -2.638926554537378E-005
 -2.636923216803384E-005
 -2.634959207030329E-005
 -2.633028728968642E-005
 -2.631126057504048E-005
 -2.629245540239352E-005
 -2.627381598983345E-005
 -2.625528731141551E-005
 -2.623681511015858E-005
 -3.077880379280982E-005
 -3.068199907366683E-005
 -3.058866154751125E-005
 -3.049871897632434E-005
 -3.041209819796784E-005
 -3.032872520577458E-005
 -3.024852522590622E-005
 -3.017142279254675E-005
 -3.009734182090605E-005
 -3.002620567811448E-005
 -2.995793725200192E-005
 -2.989245901781368E-005
 -2.982969310286916E-005
 -2.976956134923001E-005
 -2.971198537439036E-005
 -2.965688663002732E-005
 -2.960418645886037E-005
 -2.955380614963380E-005
 -2.950566699028593E-005
 -2.945969031932762E-005
 -2.941579757545914E-005
 -2.937391034548803E-005
 -2.933395041057325E-005
 -2.929583979082074E-005
 -2.925950078829091E-005
 -2.922485602844526E-005
 -2.919182850006602E-005
 -2.916034159369288E-005
 -2.913031913859487E-005
 -2.910168543835168E-005
 -2.907436530502967E-005
 -2.904828409202107E-005
 -2.902336772557363E-005
 -2.899954273501747E-005
 -2.897673628175594E-005
 -2.895487618702814E-005
 -2.893389095846882E-005
 -2.891370981550014E-005
 -2.889426271358492E-005
 -2.887548036734245E-005
 -2.885729427258046E-005
 -2.883963672723252E-005
 -2.882244085123988E-005
 -2.880564060537770E-005
 -2.878917080906401E-005
 -2.877296715712438E-005
 -2.875696623557284E-005
 -2.874110553636215E-005
 -2.872532347115980E-005
 -2.870955938411434E-005
 -3.322953754337109E-005
 -3.312830964691828E-005
 -3.303099395161767E-005
 -3.293750386099987E-005
 -3.284775196390500E-005
 -3.276165012098964E-005
 -3.267910954857733E-005
 -3.260004089993427E-005
 -3.252435434396362E-005
 -3.245195964142248E-005
 -3.238276621864131E-005
 -3.231668323883057E-005
 -3.225361967102371E-005
 -3.219348435666219E-005
 -3.213618607393413E-005
 -3.208163359985552E-005
 -3.202973577018524E-005
 -3.198040153719800E-005
 -3.193354002538387E-005
 -3.188906058511587E-005
 -3.184687284432573E-005
 -3.180688675826678E-005
 -3.176901265738687E-005
 -3.173316129335449E-005
 -3.169924388334139E-005
 -3.166717215252906E-005
 -3.163685837496023E-005
 -3.160821541273278E-005
 -3.158115675360883E-005
 -3.155559654706839E-005
 -3.153144963886873E-005
 -3.150863160413540E-005
 -3.148705877902508E-005
 -3.146664829101904E-005
 -3.144731808786910E-005
 -3.142898696523119E-005
 -3.141157459303261E-005
 -3.139500154060536E-005
 -3.137918930059500E-005
 -3.136406031171186E-005
 -3.134953798031717E-005
 -3.133554670088424E-005
 -3.132201187536598E-005
 -3.130885993146927E-005
 -3.129601833986941E-005
 -3.128341563037463E-005
 -3.127098140705109E-005
 -3.125864636233707E-005
 -3.124634229012561E-005
 -3.123400209783476E-005
 -3.568002677356721E-005
 -3.557556973460086E-005
 -3.547548530433263E-005
 -3.537967069451407E-005
 -3.528802247994486E-005
 -3.520043669066815E-005
 -3.511680890107744E-005
 -3.503703431600553E-005
 -3.496100785381164E-005
 -3.488862422658991E-005
 -3.481977801749633E-005
 -3.475436375531444E-005
 -3.469227598626566E-005
 -3.463340934319946E-005
 -3.457765861215486E-005
 -3.452491879639325E-005
 -3.447508517799493E-005
 -3.442805337703046E-005
 -3.438371940840280E-005
 -3.434197973643192E-005
 -3.430273132722386E-005
 -3.426587169890558E-005
 -3.423129896978517E-005
 -3.419891190449332E-005
 -3.416860995818388E-005
 -3.414029331883696E-005
 -3.411386294772636E-005
 -3.408922061813467E-005
 -3.406626895233348E-005
 -3.404491145691306E-005
 -3.402505255651681E-005
 -3.400659762600877E-005
 -3.398945302114851E-005
 -3.397352610781623E-005
 -3.395872528983012E-005
 -3.394496003540326E-005
 -3.393214090228757E-005
 -3.392017956163839E-005
 -3.390898882064667E-005
 -3.389848264395947E-005
 -3.388857617394420E-005
 -3.387918574981561E-005
 -3.387022892563948E-005
 -3.386162448726915E-005
 -3.385329246821935E-005
 -3.384515416449079E-005
 -3.383713214837617E-005
 -3.382915028125888E-005
 -3.382113372541128E-005
 -3.381300895479270E-005
 -3.812522781944316E-005
 -3.801897998826106E-005
 -3.791757718814637E-005
 -3.782089849134238E-005
 -3.772882259076483E-005
 -3.764122789621787E-005
 -3.755799262704854E-005
 -3.747899490127001E-005
 -3.740411282132775E-005
 -3.733322455650059E-005
 -3.726620842206931E-005
 -3.720294295533708E-005
 -3.714330698855343E-005
 -3.708717971886206E-005
 -3.703444077533227E-005
 -3.698497028316988E-005
 -3.693864892519371E-005
 -3.689535800064463E-005
 -3.685497948143141E-005
 -3.681739606587995E-005
 -3.678249123008065E-005
 -3.675014927690000E-005
 -3.672025538274409E-005
 -3.669269564215677E-005
 -3.666735711031095E-005
 -3.664412784348832E-005
 -3.662289693761805E-005
 -3.660355456492937E-005
 -3.658599200881272E-005
 -3.657010169692242E-005
 -3.655577723264385E-005
 -3.654291342492181E-005
 -3.653140631656924E-005
 -3.652115321106667E-005
 -3.651205269795748E-005
 -3.650400467684925E-005
 -3.649691038011179E-005
 -3.649067239428711E-005
 -3.648519468027619E-005
 -3.648038259235434E-005
 -3.647614289601936E-005
 -3.647238378476860E-005
 -3.646901489577152E-005
 -3.646594732451824E-005
 -3.646309363845964E-005
 -3.646036788965238E-005
 -3.645768562643262E-005
 -3.645496390414995E-005
 -3.645212129495703E-005
 -3.644907789667501E-005
 -4.055923493193723E-005
 -4.045291038029492E-005
 -4.035191032848662E-005
 -4.025609368574367E-005
 -4.016531933183710E-005
 -4.007944621501270E-005
 -3.999833344588011E-005
 -3.992184038734308E-005
 -3.984982674064733E-005
 -3.978215262774138E-005
 -3.971867866995647E-005
 -3.965926606318664E-005
 -3.960377664962352E-005
 -3.955207298621668E-005
 -3.950401840989505E-005
 -3.945947709969755E-005
 -3.941831413592998E-005
 -3.938039555640006E-005
 -3.934558840989595E-005
 -3.931376080693951E-005
 -3.928478196801428E-005
 -3.925852226924473E-005
 -3.923485328572922E-005
 -3.921364783254747E-005
 -3.919478000359426E-005
 -3.917812520827960E-005
 -3.916356020621665E-005
 -3.915096313997153E-005
 -3.914021356596424E-005
 -3.913119248359229E-005
 -3.912378236267051E-005
 -3.911786716924980E-005
 -3.911333238989099E-005
 -3.911006505448443E-005
 -3.910795375763857E-005
 -3.910688867875778E-005
 -3.910676160081180E-005
 -3.910746592791798E-005
 -3.910889670172937E-005
 -3.911095061672542E-005
 -3.911352603443356E-005
 -3.911652299662768E-005
 -3.911984323753917E-005
 -3.912339019513883E-005
 -3.912706902148991E-005
 -3.913078659223075E-005
 -3.913445151519387E-005
 -3.913797413819137E-005
 -3.914126655597253E-005
 -3.914424261638741E-005
 -4.297523048660102E-005
 -4.287085158551977E-005
 -4.277227688464648E-005
 -4.267934308289236E-005
 -4.259188730451587E-005
 -4.250974719586387E-005
 -4.243276101751321E-005
 -4.236076773204679E-005
 -4.229360708748348E-005
 -4.223111969662609E-005
 -4.217314711236736E-005
 -4.211953189913249E-005
 -4.207011770059989E-005
 -4.202474930379835E-005
 -4.198327269973498E-005
 -4.194553514069749E-005
 -4.191138519433208E-005
 -4.188067279463503E-005
 -4.185324928999928E-005
 -4.182896748838816E-005
 -4.180768169984458E-005
 -4.178924777635997E-005
 -4.177352314926656E-005
 -4.176036686429593E-005
 -4.174963961432539E-005
 -4.174120377001608E-005
 -4.173492340838413E-005
 -4.173066433944332E-005
 -4.172829413098810E-005
 -4.172768213163316E-005
 -4.172869949220678E-005
 -4.173121918556661E-005
 -4.173511602492824E-005
 -4.174026668081930E-005
 -4.174654969668131E-005
 -4.175384550325344E-005
 -4.176203643176671E-005
 -4.177100672604303E-005
 -4.178064255353224E-005
 -4.179083201539094E-005
 -4.180146515561630E-005
 -4.181243396931124E-005
 -4.182363241011075E-005
 -4.183495639683805E-005
 -4.184630381939159E-005
 -4.185757454393415E-005
 -4.186867041739217E-005
 -4.187949527128917E-005
 -4.188995492494396E-005
 -4.189995718803539E-005
 -4.536544704067010E-005
 -4.526537736467512E-005
 -4.517158288240298E-005
 -4.508387607881159E-005
 -4.500207043682375E-005
 -4.492598052908475E-005
 -4.485542210464879E-005
 -4.479021217086197E-005
 -4.473016907054045E-005
 -4.467511255466611E-005
 -4.462486385071802E-005
 -4.457924572684714E-005
 -4.453808255205269E-005
 -4.450120035248568E-005
 -4.446842686409389E-005
 -4.443959158172070E-005
 -4.441452580483309E-005
 -4.439306268004618E-005
 -4.437503724053433E-005
 -4.436028644256340E-005
 -4.434864919919523E-005
 -4.433996641138222E-005
 -4.433408099652042E-005
 -4.433083791465985E-005
 -4.433008419243847E-005
 -4.433166894492101E-005
 -4.433544339541255E-005
 -4.434126089341934E-005
 -4.434897693081544E-005
 -4.435844915637125E-005
 -4.436953738874496E-005
 -4.438210362797856E-005
 -4.439601206570996E-005
 -4.441112909408144E-005
 -4.442732331350780E-005
 -4.444446553936100E-005
 -4.446242880764865E-005
 -4.448108837979576E-005
 -4.450032174655241E-005
 -4.452000863113660E-005
 -4.454003099165743E-005
 -4.456027302287451E-005
 -4.458062115736399E-005
 -4.460096406611161E-005
 -4.462119265860931E-005
 -4.464120008246489E-005
 -4.466088172257740E-005
 -4.468013519990272E-005
 -4.469886036981845E-005
 -4.471695932011985E-005
 -4.772114441017136E-005
 -4.762812087193375E-005
 -4.754182346607073E-005
 -4.746203858937199E-005
 -4.738855433938341E-005
 -4.732116059645363E-005
 -4.725964910043683E-005
 -4.720381352209613E-005
 -4.715344952957192E-005
 -4.710835484997943E-005
 -4.706832932643566E-005
 -4.703317497069427E-005
 -4.700269601154221E-005
 -4.697669893921183E-005
 -4.695499254597051E-005
 -4.693738796303984E-005
 -4.692369869410025E-005
 -4.691374064550251E-005
 -4.690733215336832E-005
 -4.690429400775961E-005
 -4.690444947410233E-005
 -4.690762431197477E-005
 -4.691364679147040E-005
 -4.692234770723693E-005
 -4.693356039041419E-005
 -4.694712071851026E-005
 -4.696286712345845E-005
 -4.698064059792365E-005
 -4.700028470001067E-005
 -4.702164555650087E-005
 -4.704457186473098E-005
 -4.706891489323096E-005
 -4.709452848123872E-005
 -4.712126903719386E-005
 -4.714899553629696E-005
 -4.717756951725460E-005
 -4.720685507829143E-005
 -4.723671887250687E-005
 -4.726703010265867E-005
 -4.729766051547317E-005
 -4.732848439551265E-005
 -4.735937855869655E-005
 -4.739022234551724E-005
 -4.742089761402250E-005
 -4.745128873259331E-005
 -4.748128257257183E-005
 -4.751076850077679E-005
 -4.753963837192803E-005
 -4.756778652102286E-005
 -4.759510975565968E-005
 -5.003260536086557E-005
 -4.994976818927105E-005
 -4.987407399141883E-005
 -4.980528143750788E-005
 -4.974315174258177E-005
 -4.968744873334993E-005
 -4.963793890921528E-005
 -4.959439149783823E-005
 -4.955657850542797E-005
 -4.952427476203843E-005
 -4.949725796209524E-005
 -4.947530870040713E-005
 -4.945821050385887E-005
 -4.944574985904911E-005
 -4.943771623605659E-005
 -4.943390210861362E-005
 -4.943410297077281E-005
 -4.943811735044426E-005
 -4.944574681984863E-005
 -4.945679600316017E-005
 -4.947107258151313E-005
 -4.948838729556116E-005
 -4.950855394572461E-005
 -4.953138939037870E-005
 -4.955671354206605E-005
 -4.958434936194454E-005
 -4.961412285261314E-005
 -4.964586304946741E-005
 -4.967940201071939E-005
 -4.971457480623241E-005
 -4.975121950530561E-005
 -4.978917716351995E-005
 -4.982829180878651E-005
 -4.986841042670619E-005
 -4.990938294534046E-005
 -4.995106221951881E-005
 -4.999330401477580E-005
 -5.003596699099062E-005
 -5.007891268585284E-005
 -5.012200549821630E-005
 -5.016511267139757E-005
 -5.020810427654877E-005
 -5.025085319609331E-005
 -5.029323510736428E-005
 -5.033512846640306E-005
 -5.037641449207344E-005
 -5.041697715043538E-005
 -5.045670313946474E-005
 -5.049548187414520E-005
 -5.053320547192555E-005
 -5.228915391731119E-005
 -5.222007276072855E-005
 -5.215850031361407E-005
 -5.210416624622279E-005
 -5.205680376834476E-005
 -5.201614967413974E-005
 -5.198194438090604E-005
 -5.195393196233566E-005
 -5.193186017633415E-005
 -5.191548048780470E-005
 -5.190454808665725E-005
 -5.189882190130505E-005
 -5.189806460787870E-005
 -5.190204263551573E-005
 -5.191052616784207E-005
 -5.192328914102093E-005
 -5.194010923850647E-005
 -5.196076788279026E-005
 -5.198505022435856E-005
 -5.201274512804151E-005
 -5.204364515701860E-005
 -5.207754655463335E-005
 -5.211424922425359E-005
 -5.215355670734626E-005
 -5.219527615994730E-005
 -5.223921832772945E-005
 -5.228519751980157E-005
 -5.233303158143578E-005
 -5.238254186585264E-005
 -5.243355320524555E-005
 -5.248589388115288E-005
 -5.253939559435536E-005
 -5.259389343438546E-005
 -5.264922584881996E-005
 -5.270523461243311E-005
 -5.276176479635512E-005
 -5.281866473732850E-005
 -5.287578600715423E-005
 -5.293298338243234E-005
 -5.299011481468919E-005
 -5.304704140095877E-005
 -5.310362735490226E-005
 -5.315973997851502E-005
 -5.321524963453324E-005
 -5.327002971951906E-005
 -5.332395663774221E-005
 -5.337690977586485E-005
 -5.342877147847186E-005
 -5.347942702448051E-005
 -5.352876460442469E-005
 -5.447920067840822E-005
 -5.442789474395799E-005
 -5.438439193268468E-005
 -5.434839216108655E-005
 -5.431960003667077E-005
 -5.429772487282710E-005
 -5.428248069778529E-005
 -5.427358625795516E-005
 -5.427076501603628E-005
 -5.427374514417207E-005
 -5.428225951251500E-005
 -5.429604567346245E-005
 -5.431484584189577E-005
 -5.433840687169716E-005
 -5.436648022884495E-005
 -5.439882196131960E-005
 -5.443519266613092E-005
 -5.447535745368392E-005
 -5.451908590975413E-005
 -5.456615205530787E-005
 -5.461633430437289E-005
 -5.466941542021239E-005
 -5.472518247000800E-005
 -5.478342677823010E-005
 -5.484394387893287E-005
 -5.490653346714706E-005
 -5.497099934952683E-005
 -5.503714939447824E-005
 -5.510479548187730E-005
 -5.517375345259148E-005
 -5.524384305791720E-005
 -5.531488790908779E-005
 -5.538671542701062E-005
 -5.545915679232421E-005
 -5.553204689594901E-005
 -5.560522429019906E-005
 -5.567853114059985E-005
 -5.575181317850565E-005
 -5.582491965458848E-005
 -5.589770329335240E-005
 -5.597002024866576E-005
 -5.604173006047057E-005
 -5.611269561269227E-005
 -5.618278309241737E-005
 -5.625186195042185E-005
 -5.631980486305308E-005
 -5.638648769556122E-005
 -5.645178946686478E-005
 -5.651559231582898E-005
 -5.657778146901807E-005
 -5.659031986507561E-005
 -5.656126959682788E-005
 -5.654022192678359E-005
 -5.652684696458738E-005
 -5.652082082090352E-005
 -5.652182558334931E-005
 -5.652954928675896E-005
 -5.654368587820009E-005
 -5.656393517700901E-005
 -5.659000283033166E-005
 -5.662160026443526E-005
 -5.665844463215730E-005
 -5.670025875685798E-005
 -5.674677107312082E-005
 -5.679771556459107E-005
 -5.685283169917107E-005
 -5.691186436191133E-005
 -5.697456378585754E-005
 -5.704068548111036E-005
 -5.710999016234842E-005
 -5.718224367507758E-005
 -5.725721692083997E-005
 -5.733468578156959E-005
 -5.741443104335767E-005
 -5.749623831982977E-005
 -5.757989797528228E-005
 -5.766520504782276E-005
 -5.775195917267875E-005
 -5.783996450582911E-005
 -5.792902964812597E-005
 -5.801896757009947E-005
 -5.810959553752282E-005
 -5.820073503794597E-005
 -5.829221170829373E-005
 -5.838385526364994E-005
 -5.847549942737117E-005
 -5.856698186259788E-005
 -5.865814410532037E-005
 -5.874883149904869E-005
 -5.883889313118704E-005
 -5.892818177121470E-005
 -5.901655381071395E-005
 -5.910386920535340E-005
 -5.918999141884299E-005
 -5.927478736895107E-005
 -5.935812737561277E-005
 -5.943988511117653E-005
 -5.951993755280901E-005
 -5.959816493710857E-005
 -5.967445071692227E-005
 -5.860936309275455E-005
 -5.860751045190577E-005
 -5.861373781099573E-005
 -5.862768632921211E-005
 -5.864900463124500E-005
 -5.867734873411229E-005
 -5.871238196894680E-005
 -5.875377489810849E-005
 -5.880120522799437E-005
 -5.885435771802845E-005
 -5.891292408617151E-005
 -5.897660291130882E-005
 -5.904509953290592E-005
 -5.911812594822236E-005
 -5.919540070748674E-005
 -5.927664880724328E-005
 -5.936160158227095E-005
 -5.944999659629219E-005
 -5.954157753180479E-005
 -5.963609407922563E-005
 -5.973330182567958E-005
 -5.983296214363242E-005
 -5.993484207957356E-005
 -6.003871424302148E-005
 -6.014435669603799E-005
 -6.025155284341875E-005
 -6.036009132379085E-005
 -6.046976590179577E-005
 -6.058037536147616E-005
 -6.069172340109066E-005
 -6.080361852947131E-005
 -6.091587396406911E-005
 -6.102830753084365E-005
 -6.114074156609363E-005
 -6.125300282037569E-005
 -6.136492236460313E-005
 -6.147633549843736E-005
 -6.158708166106664E-005
 -6.169700434446590E-005
 -6.180595100921740E-005
 -6.191377300295180E-005
 -6.202032548151555E-005
 -6.212546733288497E-005
 -6.222906110391540E-005
 -6.233097292995078E-005
 -6.243107246734645E-005
 -6.252923282893344E-005
 -6.262533052246697E-005
 -6.271924539206272E-005
 -6.281086056262708E-005
 -6.052261503007782E-005
 -6.055334897556530E-005
 -6.059208758369488E-005
 -6.063844506536244E-005
 -6.069204470426298E-005
 -6.075251872345146E-005
 -6.081950814779527E-005
 -6.089266266276914E-005
 -6.097164047003400E-005
 -6.105610814029584E-005
 -6.114574046369692E-005
 -6.124022029830949E-005
 -6.133923841694254E-005
 -6.144249335272862E-005
 -6.154969124376607E-005
 -6.166054567715535E-005
 -6.177477753274280E-005
 -6.189211482685303E-005
 -6.201229255628867E-005
 -6.213505254287248E-005
 -6.226014327875181E-005
 -6.238731977274641E-005
 -6.251634339793187E-005
 -6.264698174066124E-005
 -6.277900845126589E-005
 -6.291220309659055E-005
 -6.304635101456238E-005
 -6.318124317093366E-005
 -6.331667601839553E-005
 -6.345245135818098E-005
 -6.358837620431910E-005
 -6.372426265062885E-005
 -6.385992774066588E-005
 -6.399519334059355E-005
 -6.412988601525420E-005
 -6.426383690737243E-005
 -6.439688162012988E-005
 -6.452886010306490E-005
 -6.465961654148888E-005
 -6.478899924939237E-005
 -6.491686056598239E-005
 -6.504305675583875E-005
 -6.516744791281508E-005
 -6.528989786765119E-005
 -6.541027409938453E-005
 -6.552844765059711E-005
 -6.564429304647172E-005
 -6.575768821774191E-005
 -6.586851442749739E-005
 -6.597665620187979E-005
 -6.231599614127185E-005
 -6.238511943049485E-005
 -6.246198523519609E-005
 -6.254618422849634E-005
 -6.263731788522252E-005
 -6.273499827605699E-005
 -6.283884785905645E-005
 -6.294849926905569E-005
 -6.306359510540029E-005
 -6.318378771842759E-005
 -6.330873899512486E-005
 -6.343812014436609E-005
 -6.357161148211043E-005
 -6.370890221683509E-005
 -6.384969023569213E-005
 -6.399368189152719E-005
 -6.414059179119964E-005
 -6.429014258541100E-005
 -6.444206476032390E-005
 -6.459609643123625E-005
 -6.475198313852091E-005
 -6.490947764606862E-005
 -6.506833974243034E-005
 -6.522833604487500E-005
 -6.538923980647224E-005
 -6.555083072650239E-005
 -6.571289476419085E-005
 -6.587522395603437E-005
 -6.603761623679668E-005
 -6.619987526432435E-005
 -6.636181024828329E-005
 -6.652323578291760E-005
 -6.668397168396986E-005
 -6.684384282980132E-005
 -6.700267900682254E-005
 -6.716031475932063E-005
 -6.731658924373546E-005
 -6.747134608743454E-005
 -6.762443325208106E-005
 -6.777570290160681E-005
 -6.792501127486346E-005
 -6.807221856295599E-005
 -6.821718879133641E-005
 -6.835978970664138E-005
 -6.849989266832328E-005
 -6.863737254507086E-005
 -6.877210761605760E-005
 -6.890397947698863E-005
 -6.903287295098792E-005
 -6.915867600427143E-005
 -6.397531757287701E-005
 -6.408899052234000E-005
 -6.420991986021447E-005
 -6.433767782656466E-005
 -6.447184928055574E-005
 -6.461203140954670E-005
 -6.475783343754892E-005
 -6.490887633371905E-005
 -6.506479252124698E-005
 -6.522522558710412E-005
 -6.538982999303092E-005
 -6.555827078821101E-005
 -6.573022332388617E-005
 -6.590537297036970E-005
 -6.608341483665487E-005
 -6.626405349301917E-005
 -6.644700269678723E-005
 -6.663198512161981E-005
 -6.681873209047961E-005
 -6.700698331253235E-005
 -6.719648662415711E-005
 -6.738699773431157E-005
 -6.757827997433782E-005
 -6.777010405243917E-005
 -6.796224781292681E-005
 -6.815449600042044E-005
 -6.834664002902702E-005
 -6.853847775674463E-005
 -6.872981326503287E-005
 -6.892045664378996E-005
 -6.911022378169692E-005
 -6.929893616207269E-005
 -6.948642066426146E-005
 -6.967250937063365E-005
 -6.985703937925283E-005
 -7.003985262220419E-005
 -7.022079568968264E-005
 -7.039971965983253E-005
 -7.057647993437337E-005
 -7.075093608002790E-005
 -7.092295167577491E-005
 -7.109239416593538E-005
 -7.125913471908802E-005
 -7.142304809283806E-005
 -7.158401250440964E-005
 -7.174190950708281E-005
 -7.189662387245389E-005
 -7.204804347849610E-005
 -7.219605920342605E-005
 -7.234056482534596E-005
 -6.548659288345186E-005
 -6.565124926638700E-005
 -6.582241219279110E-005
 -6.599964257250252E-005
 -6.618251579323608E-005
 -6.637062133158762E-005
 -6.656356236625410E-005
 -6.676095539407664E-005
 -6.696242984915093E-005
 -6.716762772559980E-005
 -6.737620320425801E-005
 -6.758782228369255E-005
 -6.780216241577015E-005
 -6.801891214625977E-005
 -6.823777076050017E-005
 -6.845844793457837E-005
 -6.868066339215447E-005
 -6.890414656713392E-005
 -6.912863627240100E-005
 -6.935388037475581E-005
 -6.957963547623072E-005
 -6.980566660190471E-005
 -7.003174689428264E-005
 -7.025765731446440E-005
 -7.048318635004654E-005
 -7.070812972994075E-005
 -7.093229014611469E-005
 -7.115547698235102E-005
 -7.137750605000982E-005
 -7.159819933090188E-005
 -7.181738472722014E-005
 -7.203489581863460E-005
 -7.225057162647163E-005
 -7.246425638505182E-005
 -7.267579932014988E-005
 -7.288505443459488E-005
 -7.309188030095384E-005
 -7.329613986135423E-005
 -7.349770023436925E-005
 -7.369643252895633E-005
 -7.389221166545824E-005
 -7.408491620358205E-005
 -7.427442817738381E-005
 -7.446063293719788E-005
 -7.464341899845790E-005
 -7.482267789743710E-005
 -7.499830405379775E-005
 -7.517019463996980E-005
 -7.533824945727996E-005
 -7.550237081881429E-005
 -6.683641066403145E-005
 -6.705864049763107E-005
 -6.728632181321456E-005
 -6.751901360607925E-005
 -6.775629118563780E-005
 -6.799774567569104E-005
 -6.824298352061563E-005
 -6.849162599783731E-005
 -6.874330873695808E-005
 -6.899768124591071E-005
 -6.925440644450537E-005
 -6.951316020549442E-005
 -6.977363090361140E-005
 -7.003551897263486E-005
 -7.029853647079809E-005
 -7.056240665463312E-005
 -7.082686356143212E-005
 -7.109165160049893E-005
 -7.135652515318174E-005
 -7.162124818188459E-005
 -7.188559384809217E-005
 -7.214934413941562E-005
 -7.241228950574782E-005
 -7.267422850454972E-005
 -7.293496745522719E-005
 -7.319432010265385E-005
 -7.345210728977243E-005
 -7.370815663931002E-005
 -7.396230224451515E-005
 -7.421438436889892E-005
 -7.446424915497024E-005
 -7.471174834183145E-005
 -7.495673899165340E-005
 -7.519908322491797E-005
 -7.543864796438032E-005
 -7.567530468768044E-005
 -7.590892918853264E-005
 -7.613940134639129E-005
 -7.636660490456803E-005
 -7.659042725667971E-005
 -7.681075924137498E-005
 -7.702749494524644E-005
 -7.724053151387061E-005
 -7.744976897088120E-005
 -7.765511004501966E-005
 -7.785646000506424E-005
 -7.805372650260538E-005
 -7.824681942254929E-005
 -7.843565074131506E-005
 -7.862013439264335E-005
 -6.801237107182938E-005
 -6.829876468796914E-005
 -6.858920738733840E-005
 -6.888326829410274E-005
 -6.918053457708587E-005
 -6.948061082776912E-005
 -6.978311844861029E-005
 -7.008769505215603E-005
 -7.039399387116194E-005
 -7.070168317993556E-005
 -7.101044572723167E-005
 -7.131997818074010E-005
 -7.162999058344221E-005
 -7.194020582188081E-005
 -7.225035910639212E-005
 -7.256019746353720E-005
 -7.286947924052436E-005
 -7.317797362186760E-005
 -7.348546015810424E-005
 -7.379172830667004E-005
 -7.409657698477589E-005
 -7.439981413434889E-005
 -7.470125629885713E-005
 -7.500072821197425E-005
 -7.529806239800808E-005
 -7.559309878393500E-005
 -7.588568432295346E-005
 -7.617567262941993E-005
 -7.646292362502752E-005
 -7.674730319610429E-005
 -7.702868286186205E-005
 -7.730693945347111E-005
 -7.758195480381028E-005
 -7.785361544769831E-005
 -7.812181233252772E-005
 -7.838644053907243E-005
 -7.864739901238060E-005
 -7.890459030254324E-005
 -7.915792031524994E-005
 -7.940729807192411E-005
 -7.965263547935100E-005
 -7.989384710861951E-005
 -8.013084998325832E-005
 -8.036356337643582E-005
 -8.059190861708514E-005
 -8.081580890486058E-005
 -8.103518913377014E-005
 -8.124997572440197E-005
 -8.146009646461518E-005
 -8.166548035864189E-005
 -6.900358778836281E-005
 -6.936053532179403E-005
 -6.971974098888830E-005
 -7.008079901474138E-005
 -7.044332318913271E-005
 -7.080694611236911E-005
 -7.117131845712056E-005
 -7.153610824630599E-005
 -7.190100014734148E-005
 -7.226569478269654E-005
 -7.262990805695068E-005
 -7.299337050030379E-005
 -7.335582662857613E-005
 -7.371703431968187E-005
 -7.407676420643747E-005
 -7.443479908571993E-005
 -7.479093334375109E-005
 -7.514497239748030E-005
 -7.549673215182130E-005
 -7.584603847260633E-005
 -7.619272667504710E-005
 -7.653664102754832E-005
 -7.687763427057431E-005
 -7.721556715036539E-005
 -7.755030796733821E-005
 -7.788173213878874E-005
 -7.820972177574938E-005
 -7.853416527369594E-005
 -7.885495691684741E-005
 -7.917199649580179E-005
 -7.948518893821142E-005
 -7.979444395227653E-005
 -8.009967568277344E-005
 -8.040080237930008E-005
 -8.069774607659474E-005
 -8.099043228653725E-005
 -8.127878970170942E-005
 -8.156274991014370E-005
 -8.184224712114025E-005
 -8.211721790181629E-005
 -8.238760092423947E-005
 -8.265333672288685E-005
 -8.291436746222288E-005
 -8.317063671421952E-005
 -8.342208924560796E-005
 -8.366867081468471E-005
 -8.391032797750749E-005
 -8.414700790329932E-005
 -8.437865819896163E-005
 -8.460522674247684E-005
 -6.980125476426724E-005
 -7.023469507373624E-005
 -7.066817569174831E-005
 -7.110133411392615E-005
 -7.153382858094906E-005
 -7.196533718550741E-005
 -7.239555700185686E-005
 -7.282420323795872E-005
 -7.325100841010433E-005
 -7.367572153994418E-005
 -7.409810737386629E-005
 -7.451794562440775E-005
 -7.493503023363387E-005
 -7.534916865815110E-005
 -7.576018117553445E-005
 -7.616790021187414E-005
 -7.657216969006998E-005
 -7.697284439863254E-005
 -7.736978938055507E-005
 -7.776287934192732E-005
 -7.815199807988091E-005
 -7.853703792949643E-005
 -7.891789922923899E-005
 -7.929448980454224E-005
 -7.966672446908128E-005
 -8.003452454334546E-005
 -8.039781739008878E-005
 -8.075653596617956E-005
 -8.111061839050810E-005
 -8.146000752745717E-005
 -8.180465058555528E-005
 -8.214449873089175E-005
 -8.247950671489508E-005
 -8.280963251602896E-005
 -8.313483699510115E-005
 -8.345508356371375E-005
 -8.377033786553150E-005
 -8.408056747001715E-005
 -8.438574157821640E-005
 -8.468583074036271E-005
 -8.498080658487397E-005
 -8.527064155849126E-005
 -8.555530867725733E-005
 -8.583478128802128E-005
 -8.610903284025136E-005
 -8.637803666785573E-005
 -8.664176578081357E-005
 -8.690019266638756E-005
 -8.715328909967473E-005
 -8.740102596337861E-005
 -7.039927412364681E-005
 -7.091438723703521E-005
 -7.142686301981629E-005
 -7.193640381885238E-005
 -7.244273341140887E-005
 -7.294559597078437E-005
 -7.344475506235152E-005
 -7.393999266963060E-005
 -7.443110825019079E-005
 -7.491791782092499E-005
 -7.540025307232548E-005
 -7.587796051133764E-005
 -7.635090063225599E-005
 -7.681894711520784E-005
 -7.728198605168396E-005
 -7.773991519654373E-005
 -7.819264324592260E-005
 -7.864008914046966E-005
 -7.908218139326838E-005
 -7.951885744190579E-005
 -7.995006302392013E-005
 -8.037575157517952E-005
 -8.079588365036225E-005
 -8.121042636509243E-005
 -8.161935285889581E-005
 -8.202264177851340E-005
 -8.242027678085246E-005
 -8.281224605492090E-005
 -8.319854186222119E-005
 -8.357916009490385E-005
 -8.395409985113535E-005
 -8.432336302707143E-005
 -8.468695392483865E-005
 -8.504487887601893E-005
 -8.539714588002670E-005
 -8.574376425689745E-005
 -8.608474431393995E-005
 -8.642009702578189E-005
 -8.674983372727951E-005
 -8.707396581893359E-005
 -8.739250448424540E-005
 -8.770546041869773E-005
 -8.801284356990316E-005
 -8.831466288857127E-005
 -8.861092608992004E-005
 -8.890163942522198E-005
 -8.918680746315496E-005
 -8.946643288067059E-005
 -8.974051626314067E-005
 -9.000905591349223E-005
 -7.079493749851571E-005
 -7.139577501371884E-005
 -7.199081326889969E-005
 -7.257984458331775E-005
 -7.316268271370942E-005
 -7.373916168216599E-005
 -7.430913464324409E-005
 -7.487247278997183E-005
 -7.542906429780250E-005
 -7.597881330588147E-005
 -7.652163893495110E-005
 -7.705747434094484E-005
 -7.758626580357659E-005
 -7.810797184901672E-005
 -7.862256240580339E-005
 -7.913001799304775E-005
 -7.963032894014701E-005
 -8.012349463699665E-005
 -8.060952281377365E-005
 -8.108842884949169E-005
 -8.156023510824494E-005
 -8.202497030235588E-005
 -8.248266888139392E-005
 -8.293337044627428E-005
 -8.337711918740532E-005
 -8.381396334609936E-005
 -8.424395469833971E-005
 -8.466714805996024E-005
 -8.508360081253588E-005
 -8.549337244899527E-005
 -8.589652413826592E-005
 -8.629311830808984E-005
 -8.668321824526017E-005
 -8.706688771252408E-005
 -8.744419058142412E-005
 -8.781519048038046E-005
 -8.817995045734389E-005
 -8.853853265633898E-005
 -8.889099800729873E-005
 -8.923740592859763E-005
 -8.957781404166494E-005
 -8.991227789720891E-005
 -9.024085071247768E-005
 -9.056358311909765E-005
 -9.088052292102827E-005
 -9.119171486222279E-005
 -9.149720040356665E-005
 -9.179701750879169E-005
 -9.209120043893196E-005
 -9.237977955515935E-005
 -7.098964749299122E-005
 -7.167869606519302E-005
 -7.235828685785956E-005
 -7.302833083328990E-005
 -7.368875950812522E-005
 -7.433952365476011E-005
 -7.498059205247735E-005
 -7.561195028689716E-005
 -7.623359959678249E-005
 -7.684555576694233E-005
 -7.744784806599795E-005
 -7.804051822788381E-005
 -7.862361947568969E-005
 -7.919721558662994E-005
 -7.976137999689106E-005
 -8.031619494496152E-005
 -8.086175065222416E-005
 -8.139814453949728E-005
 -8.192548047816190E-005
 -8.244386807471030E-005
 -8.295342198728553E-005
 -8.345426127307736E-005
 -8.394650876525136E-005
 -8.443029047818124E-005
 -8.490573503980292E-005
 -8.537297314989255E-005
 -8.583213706304319E-005
 -8.628336009531088E-005
 -8.672677615330308E-005
 -8.716251928470369E-005
 -8.759072324911417E-005
 -8.801152110827876E-005
 -8.842504483457504E-005
 -8.883142493688842E-005
 -8.923079010298611E-005
 -8.962326685733914E-005
 -9.000897923372360E-005
 -9.038804846161848E-005
 -9.076059266570675E-005
 -9.112672657769725E-005
 -9.148656125973920E-005
 -9.184020383878173E-005
 -9.218775725117613E-005
 -9.252931999702960E-005
 -9.286498590360402E-005
 -9.319484389736485E-005
 -9.351897778412375E-005
 -9.383746603676685E-005
 -9.415038159041686E-005
 -9.445779164423836E-005
 -7.098965848808763E-005
 -7.176733272037528E-005
 -7.253139834373086E-005
 -7.328191702834057E-005
 -7.401896898439870E-005
 -7.474265155954903E-005
 -7.545307789645766E-005
 -7.615037564994006E-005
 -7.683468576136256E-005
 -7.750616128856371E-005
 -7.816496628971294E-005
 -7.881127475923885E-005
 -7.944526961392101E-005
 -8.006714172752356E-005
 -8.067708901199783E-005
 -8.127531554352437E-005
 -8.186203073167603E-005
 -8.243744852981832E-005
 -8.300178668502732E-005
 -8.355526602591315E-005
 -8.409810978642589E-005
 -8.463054296424803E-005
 -8.515279171184218E-005
 -8.566508275885175E-005
 -8.616764286400853E-005
 -8.666069829523149E-005
 -8.714447433626779E-005
 -8.761919481855589E-005
 -8.808508167678522E-005
 -8.854235452688525E-005
 -8.899123026501955E-005
 -8.943192268642681E-005
 -8.986464212273315E-005
 -9.028959509664600E-005
 -9.070698399286659E-005
 -9.111700674405515E-005
 -9.151985653087558E-005
 -9.191572149506648E-005
 -9.230478446456983E-005
 -9.268722268980914E-005
 -9.306320759027318E-005
 -9.343290451051145E-005
 -9.379647248484826E-005
 -9.415406401002945E-005
 -9.450582482514744E-005
 -9.485189369817928E-005
 -9.519240221858184E-005
 -9.552747459556105E-005
 -9.585722746094708E-005
 -9.618176967736270E-005
 -7.080680606009130E-005
 -7.167086896029052E-005
 -7.251670610396242E-005
 -7.334456495254059E-005
 -7.415470809604631E-005
 -7.494741177952718E-005
 -7.572296450482032E-005
 -7.648166570129961E-005
 -7.722382446529786E-005
 -7.794975836516679E-005
 -7.865979230926570E-005
 -7.935425747477342E-005
 -8.003349029452210E-005
 -8.069783149969073E-005
 -8.134762521573546E-005
 -8.198321810926019E-005
 -8.260495858343768E-005
 -8.321319601964559E-005
 -8.380828006310297E-005
 -8.439055995020336E-005
 -8.496038387535524E-005
 -8.551809839537714E-005
 -8.606404786904221E-005
 -8.659857393010380E-005
 -8.712201499161320E-005
 -8.763470577969731E-005
 -8.813697689493972E-005
 -8.862915439963024E-005
 -8.911155942903023E-005
 -8.958450782512962E-005
 -9.004830979117816E-005
 -9.050326956550682E-005
 -9.094968511309199E-005
 -9.138784783346512E-005
 -9.181804228358865E-005
 -9.224054591436265E-005
 -9.265562881951084E-005
 -9.306355349565106E-005
 -9.346457461238119E-005
 -9.385893879131137E-005
 -9.424688439302106E-005
 -9.462864131093681E-005
 -9.500443077121903E-005
 -9.537446513781191E-005
 -9.573894772186187E-005
 -9.609807259481780E-005
 -9.645202440441611E-005
 -9.680097819252898E-005
 -9.714509921630982E-005
 -9.748454276791956E-005
 -7.045918133117502E-005
 -7.140409323927468E-005
 -7.232574949391598E-005
 -7.322462079193205E-005
 -7.410118785538048E-005
 -7.495593994664948E-005
 -7.578937346060256E-005
 -7.660199060460844E-005
 -7.739429815583400E-005
 -7.816680629389918E-005
 -7.892002750621270E-005
 -7.965447556228001E-005
 -8.037066455369313E-005
 -8.106910799660810E-005
 -8.175031799358290E-005
 -8.241480445161375E-005
 -8.306307435346756E-005
 -8.369563107930134E-005
 -8.431297377560728E-005
 -8.491559676878003E-005
 -8.550398902064973E-005
 -8.607863362316899E-005
 -8.664000732983370E-005
 -8.718858012140928E-005
 -8.772481480340135E-005
 -8.824916663318700E-005
 -8.876208297441659E-005
 -8.926400297666643E-005
 -8.975535727821082E-005
 -9.023656772997667E-005
 -9.070804713876547E-005
 -9.117019902791181E-005
 -9.162341741365078E-005
 -9.206808659548659E-005
 -9.250458095895795E-005
 -9.293326478928968E-005
 -9.335449209445908E-005
 -9.376860643623349E-005
 -9.417594076791572E-005
 -9.457681727748340E-005
 -9.497154723496131E-005
 -9.536043084286646E-005
 -9.574375708875046E-005
 -9.612180359878724E-005
 -9.649483649143661E-005
 -9.686311023019234E-005
 -9.722686747515592E-005
 -9.758633893367167E-005
 -9.794174320279359E-005
 -9.829328661834004E-005
 -6.997169014161212E-005
 -7.098789095266739E-005
 -7.197548118090884E-005
 -7.293519352471981E-005
 -7.386776362811880E-005
 -7.477392862714321E-005
 -7.565442582714623E-005
 -7.650999145546046E-005
 -7.734135950831470E-005
 -7.814926068407288E-005
 -7.893442139646301E-005
 -7.969756286375080E-005
 -8.043940027018174E-005
 -8.116064199566247E-005
 -8.186198890935680E-005
 -8.254413372354275E-005
 -8.320776040378552E-005
 -8.385354363185740E-005
 -8.448214831783152E-005
 -8.509422915802652E-005
 -8.569043023547821E-005
 -8.627138465978535E-005
 -8.683771424325427E-005
 -8.739002921055898E-005
 -8.792892793887052E-005
 -8.845499672609721E-005
 -8.896880958432844E-005
 -8.947092805622087E-005
 -8.996190105188930E-005
 -9.044226470401249E-005
 -9.091254223896511E-005
 -9.137324386193006E-005
 -9.182486665395104E-005
 -9.226789447904711E-005
 -9.270279789948701E-005
 -9.313003409752509E-005
 -9.355004680194379E-005
 -9.396326621778021E-005
 -9.437010895767371E-005
 -9.477097797356255E-005
 -9.516626248718297E-005
 -9.555633791819854E-005
 -9.594156580861250E-005
 -9.632229374249938E-005
 -9.669885526025231E-005
 -9.707156976657776E-005
 -9.744074242940984E-005
 -9.780666406737564E-005
 -9.816961104600525E-005
 -9.852984512737836E-005
 -6.937641692363993E-005
 -7.044955188335667E-005
 -7.148852526890222E-005
 -7.249437042974096E-005
 -7.346811422373215E-005
 -7.441077580797286E-005
 -7.532336541888443E-005
 -7.620688332004333E-005
 -7.706231883712271E-005
 -7.789064947981882E-005
 -7.869284015241935E-005
 -7.946984244760319E-005
 -8.022259401671005E-005
 -8.095201801111045E-005
 -8.165902258970647E-005
 -8.234450048820349E-005
 -8.300932864547873E-005
 -8.365436788284300E-005
 -8.428046263184101E-005
 -8.488844070662432E-005
 -8.547911311714086E-005
 -8.605327391935988E-005
 -8.661170009921764E-005
 -8.715515148682443E-005
 -8.768437069783344E-005
 -8.820008309890192E-005
 -8.870299679438007E-005
 -8.919380263136424E-005
 -8.967317422055962E-005
 -9.014176797036334E-005
 -9.060022313166647E-005
 -9.104916185116121E-005
 -9.148918923079495E-005
 -9.192089339128952E-005
 -9.234484553764205E-005
 -9.276160002466537E-005
 -9.317169442060588E-005
 -9.357564956715444E-005
 -9.397396963394287E-005
 -9.436714216607478E-005
 -9.475563812311053E-005
 -9.513991190818058E-005
 -9.552040138591757E-005
 -9.589752788752103E-005
 -9.627169620091396E-005
 -9.664329454563268E-005
 -9.701269453750281E-005
 -9.738025114249694E-005
 -9.774630255560773E-005
 -9.811117019565183E-005
 -6.871269044277068E-005
 -6.982279691494949E-005
 -7.089317249669469E-005
 -7.192518749403386E-005
 -7.292019395448446E-005
 -7.387952438664487E-005
 -7.480449104775485E-005
 -7.569638513678381E-005
 -7.655647611280187E-005
 -7.738601113363062E-005
 -7.818621458403756E-005
 -7.895828768254795E-005
 -7.970340816416060E-005
 -8.042273003459983E-005
 -8.111738339046166E-005
 -8.178847429935844E-005
 -8.243708473425822E-005
 -8.306427255723389E-005
 -8.367107154760154E-005
 -8.425849147042426E-005
 -8.482751818087887E-005
 -8.537911376069589E-005
 -8.591421668272236E-005
 -8.643374199998187E-005
 -8.693858155584096E-005
 -8.742960421190949E-005
 -8.790765609057794E-005
 -8.837356082911212E-005
 -8.882811984247581E-005
 -8.927211259205373E-005
 -8.970629685758891E-005
 -9.013140900974995E-005
 -9.054816428077459E-005
 -9.095725703082808E-005
 -9.135936100770053E-005
 -9.175512959760744E-005
 -9.214519606499834E-005
 -9.253017377928821E-005
 -9.291065642661771E-005
 -9.328721820459223E-005
 -9.366041399804114E-005
 -9.403077953389167E-005
 -9.439883151397904E-005
 -9.476506772595740E-005
 -9.512996713248047E-005
 -9.549398993244612E-005
 -9.585757757625881E-005
 -9.622115274939863E-005
 -9.658511950586167E-005
 -9.694986289245512E-005
 -6.802672549796498E-005
 -6.914740719732198E-005
 -7.022300357349244E-005
 -7.125525394813073E-005
 -7.224586385970439E-005
 -7.319650556603850E-005
 -7.410881703884241E-005
 -7.498440172106196E-005
 -7.582482838257002E-005
 -7.663163099505207E-005
 -7.740630868276148E-005
 -7.815032576506651E-005
 -7.886511187914986E-005
 -7.955206216872667E-005
 -8.021253752966669E-005
 -8.084786490707976E-005
 -8.145933763909903E-005
 -8.204821584284231E-005
 -8.261572683770464E-005
 -8.316306560119925E-005
 -8.369139525283912E-005
 -8.420184756194999E-005
 -8.469552347520879E-005
 -8.517349366052803E-005
 -8.563679906349508E-005
 -8.608645147312844E-005
 -8.652343409342338E-005
 -8.694870211761987E-005
 -8.736318330190216E-005
 -8.776777853542747E-005
 -8.816336240376447E-005
 -8.855078374257771E-005
 -8.893086617888893E-005
 -8.930440865691626E-005
 -8.967218594575542E-005
 -9.003494912613074E-005
 -9.039342605357699E-005
 -9.074832179545570E-005
 -9.110031903964594E-005
 -9.145007847303715E-005
 -9.179823912827185E-005
 -9.214541869640584E-005
 -9.249221380131715E-005
 -9.283920022983472E-005
 -9.318693311639734E-005
 -9.353594710273682E-005
 -9.388675651042180E-005
 -9.423985543157587E-005
 -9.459571724846978E-005
 -9.495479579511511E-005
 -6.737069785995358E-005
 -6.846832124008488E-005
 -6.951601597986761E-005
 -7.051591186465448E-005
 -7.147009031696809E-005
 -7.238058049232948E-005
 -7.324936132598644E-005
 -7.407836176555723E-005
 -7.486946091391124E-005
 -7.562448847570171E-005
 -7.634522536110864E-005
 -7.703340434077925E-005
 -7.769071073301722E-005
 -7.831878313278401E-005
 -7.891921418847893E-005
 -7.949355142410177E-005
 -8.004329810006467E-005
 -8.056991410554119E-005
 -8.107481687678932E-005
 -8.155938233685083E-005
 -8.202494585305228E-005
 -8.247280320905065E-005
 -8.290421158780357E-005
 -8.332039056231915E-005
 -8.372252309017393E-005
 -8.411175650853094E-005
 -8.448920352544651E-005
 -8.485594320404927E-005
 -8.521302193545161E-005
 -8.556145439680629E-005
 -8.590222449043373E-005
 -8.623628626032123E-005
 -8.656456478221255E-005
 -8.688795702365117E-005
 -8.720733267052496E-005
 -8.752353491668517E-005
 -8.783738121324598E-005
 -8.814966397392190E-005
 -8.846115123232800E-005
 -8.877258724724035E-005
 -8.908469305311565E-005
 -8.939816695682526E-005
 -8.971368498654984E-005
 -9.003190129748568E-005
 -9.035344851411969E-005
 -9.067893793467943E-005
 -9.100895954065603E-005
 -9.134408221343463E-005
 -9.168485532981321E-005
 -9.203180448879398E-005
 -6.680110598001967E-005
 -6.783406384932809E-005
 -6.881311584257262E-005
 -6.974080198460799E-005
 -7.061958180915655E-005
 -7.145184996513738E-005
 -7.223993154215029E-005
 -7.298608271452053E-005
 -7.369249266250998E-005
 -7.436128508067662E-005
 -7.499451938783579E-005
 -7.559419193412558E-005
 -7.616223730807912E-005
 -7.670052972817579E-005
 -7.721088447946878E-005
 -7.769505937031901E-005
 -7.815475620149122E-005
 -7.859162224806676E-005
 -7.900725175707447E-005
 -7.940318746177914E-005
 -7.978092211157691E-005
 -8.014190001453366E-005
 -8.048751858869696E-005
 -8.081912991773530E-005
 -8.113804230621406E-005
 -8.144552182975407E-005
 -8.174279387487550E-005
 -8.203104466337988E-005
 -8.231142275553588E-005
 -8.258504052624667E-005
 -8.285297560798531E-005
 -8.311627229414326E-005
 -8.337594289648193E-005
 -8.363296905027164E-005
 -8.388830296146057E-005
 -8.414286859079820E-005
 -8.439756277135095E-005
 -8.465325625698478E-005
 -8.491079470010954E-005
 -8.517099955507231E-005
 -8.543466889794255E-005
 -8.570257814513916E-005
 -8.597548065135691E-005
 -8.625410819544283E-005
 -8.653917144691979E-005
 -8.683136059571219E-005
 -8.713134607416114E-005
 -8.743977794018550E-005
 -8.775728161954921E-005
 -8.808447297272044E-005
 -6.637631240058189E-005
 -6.729437543696122E-005
 -6.815586192697920E-005
 -6.896368627867336E-005
 -6.972070539293227E-005
 -7.042966758008302E-005
 -7.109323064736491E-005
 -7.171396754599333E-005
 -7.229436669130580E-005
 -7.283683270632913E-005
 -7.334368826679136E-005
 -7.381717639452209E-005
 -7.425946273574411E-005
 -7.467263770209604E-005
 -7.505871851819877E-005
 -7.541965124941219E-005
 -7.575731285809573E-005
 -7.607351330813516E-005
 -7.636999771810984E-005
 -7.664844855693097E-005
 -7.691048787418607E-005
 -7.715767955964289E-005
 -7.739153162657675E-005
 -7.761349851441430E-005
 -7.782498340444592E-005
 -7.802734054054759E-005
 -7.822187754522966E-005
 -7.840985771907827E-005
 -7.859250231091653E-005
 -7.877099274569162E-005
 -7.894647279678851E-005
 -7.912005069073082E-005
 -7.929280113255598E-005
 -7.946576724078612E-005
 -7.963996238127512E-005
 -7.981637188903742E-005
 -7.999595466786017E-005
 -8.017964465988197E-005
 -8.036835218423627E-005
 -8.056296515598248E-005
 -8.076435021174742E-005
 -8.097335377301571E-005
 -8.119080304116284E-005
 -8.141750679899235E-005
 -8.165425570837091E-005
 -8.190182183211899E-005
 -8.216095829857465E-005
 -8.243240338684038E-005
 -8.271689152674738E-005
 -8.301510128668634E-005
 -6.615320799916131E-005
 -6.689701826682754E-005
 -6.758327785832987E-005
 -6.821538846142982E-005
 -6.879649934193999E-005
 -6.932969661444866E-005
 -6.981796646857538E-005
 -7.026418062832060E-005
 -7.067110063766822E-005
 -7.104138473579032E-005
 -7.137759238639430E-005
 -7.168218686541794E-005
 -7.195753716675056E-005
 -7.220591998173693E-005
 -7.242952198323552E-005
 -7.263044238153134E-005
 -7.281069565378919E-005
 -7.297221437358871E-005
 -7.311685211141304E-005
 -7.324638640993746E-005
 -7.336252185296117E-005
 -7.346689324626824E-005
 -7.356106891885159E-005
 -7.364655413995703E-005
 -7.372479463403972E-005
 -7.379718016471663E-005
 -7.386504815111143E-005
 -7.392968727571312E-005
 -7.399234104196506E-005
 -7.405421124184706E-005
 -7.411646129853024E-005
 -7.418021945558317E-005
 -7.424658179293865E-005
 -7.431661505755550E-005
 -7.439135930455203E-005
 -7.447183034811064E-005
 -7.455902201924079E-005
 -7.465390821738025E-005
 -7.475744472487196E-005
 -7.487057073645844E-005
 -7.499421006119555E-005
 -7.512927202329151E-005
 -7.527665227010414E-005
 -7.543723398007346E-005
 -7.561189008014970E-005
 -7.580148609639709E-005
 -7.600687939078470E-005
 -7.622890438646317E-005
 -7.646835022481061E-005
 -7.672613327756495E-005
 -6.618322098621027E-005
 -6.668355125529175E-005
 -6.712788948248091E-005
 -6.751957208602695E-005
 -6.786229518499149E-005
 -6.815948859594311E-005
 -6.841439247497208E-005
 -6.863012514467671E-005
 -6.880969687476641E-005
 -6.895600424471910E-005
 -6.907182446807809E-005
 -6.915981419027073E-005
 -6.922251159165380E-005
 -6.926233984088005E-005
 -6.928161066669887E-005
 -6.928252761238123E-005
 -6.926718902197578E-005
 -6.923759100272795E-005
 -6.919563062260556E-005
 -6.914310953416407E-005
 -6.908173812566732E-005
 -6.901314021861254E-005
 -6.893885826842014E-005
 -6.886035898406321E-005
 -6.877903925877467E-005
 -6.869623229358742E-005
 -6.861321379400125E-005
 -6.853120812443493E-005
 -6.845139431223002E-005
 -6.837491180333624E-005
 -6.830286588296461E-005
 -6.823633268889365E-005
 -6.817636376343199E-005
 -6.812399011295119E-005
 -6.808022577419183E-005
 -6.804607092323332E-005
 -6.802251460349794E-005
 -6.801053718380638E-005
 -6.801111266713968E-005
 -6.802521092075473E-005
 -6.805379974286093E-005
 -6.809784638323759E-005
 -6.815831774579138E-005
 -6.823617835108321E-005
 -6.833238620016085E-005
 -6.844789090423910E-005
 -6.858364737722278E-005
 -6.874066231645608E-005
 -6.892001715408648E-005
 -6.912231843069228E-005
 -6.650762940012928E-005
 -6.668506149080832E-005
 -6.680962188691905E-005
 -6.688663085185488E-005
 -6.691948737585470E-005
 -6.691169452768775E-005
 -6.686684003360360E-005
 -6.678841191519393E-005
 -6.667972103172043E-005
 -6.654389599604078E-005
 -6.638390071375395E-005
 -6.620255042945539E-005
 -6.600251998864720E-005
 -6.578634562914423E-005
 -6.555642350315866E-005
 -6.531500771112390E-005
 -6.506420961862834E-005
 -6.480599931143766E-005
 -6.454220940058859E-005
 -6.427454100909316E-005
 -6.400457158427751E-005
 -6.373376411766127E-005
 -6.346347736250883E-005
 -6.319497668425744E-005
 -6.292944523479075E-005
 -6.266799519830159E-005
 -6.241167890471222E-005
 -6.216149964445041E-005
 -6.191842204441957E-005
 -6.168338187963257E-005
 -6.145729519968733E-005
 -6.124106664583926E-005
 -6.103559682703896E-005
 -6.084178861688472E-005
 -6.066055223644442E-005
 -6.049280901404314E-005
 -6.033949378014410E-005
 -6.020155598919559E-005
 -6.007995988739012E-005
 -5.997568438236210E-005
 -5.988972368446431E-005
 -5.982309011253310E-005
 -5.977682021775787E-005
 -5.975198353112895E-005
 -5.974968796332680E-005
 -5.977106548231303E-005
 -5.981721086119067E-005
 -5.988907352045578E-005
 -5.998754289724993E-005
 -6.011509180969487E-005
 -6.715407971781272E-005
 -6.691314879919759E-005
 -6.663057616172455E-005
 -6.630581079380493E-005
 -6.594408599916939E-005
 -6.555040960961572E-005
 -6.512894231937602E-005
 -6.468333572667251E-005
 -6.421701845492150E-005
 -6.373331266801527E-005
 -6.323544207598113E-005
 -6.272649487715386E-005
 -6.220937907526464E-005
 -6.168678697113988E-005
 -6.116117384634022E-005
 -6.063475028421746E-005
 -6.010948548465232E-005
 -5.958711854462785E-005
 -5.906917500961537E-005
 -5.855698655967826E-005
 -5.805171225555169E-005
 -5.755436024949621E-005
 -5.706580924339859E-005
 -5.658682925835361E-005
 -5.611810148228135E-005
 -5.566023710040937E-005
 -5.521379510419736E-005
 -5.477929912580212E-005
 -5.435725336819971E-005
 -5.394815769776888E-005
 -5.355252194077239E-005
 -5.317087937552691E-005
 -5.280379933700748E-005
 -5.245189874650860E-005
 -5.211585224041497E-005
 -5.179640039959962E-005
 -5.149435537873898E-005
 -5.121060302980213E-005
 -5.094610047049658E-005
 -5.070186811416936E-005
 -5.047897574669112E-005
 -5.027852385865117E-005
 -5.010162502898262E-005
 -4.994939691506689E-005
 -4.982298885157679E-005
 -4.972367357758394E-005
 -4.965301822742558E-005
 -4.961300289781954E-005
 -4.960533032625315E-005
 -4.962692529517744E-005
 -6.812973334354111E-005
 -6.736626181916424E-005
 -6.655476227020732E-005
 -6.571832298021330E-005
 -6.486158576702224E-005
 -6.398657941848404E-005
 -6.309631387261303E-005
 -6.219491553739974E-005
 -6.128704846171545E-005
 -6.037738196183230E-005
 -5.947024844292073E-005
 -5.856946725197920E-005
 -5.767828134197862E-005
 -5.679936160698282E-005
 -5.593484768541605E-005
 -5.508640560122614E-005
 -5.425529065801638E-005
 -5.344240916895478E-005
 -5.264837577451258E-005
 -5.187356497730756E-005
 -5.111815659402061E-005
 -5.038217540699802E-005
 -4.966552559103769E-005
 -4.896802061642551E-005
 -4.828940936210681E-005
 -4.762939915678373E-005
 -4.698767642784531E-005
 -4.636392559188962E-005
 -4.575784677466157E-005
 -4.516917290441586E-005
 -4.459768668101505E-005
 -4.404323787786717E-005
 -4.350576137688580E-005
 -4.298529625293150E-005
 -4.248200608808628E-005
 -4.199620046878361E-005
 -4.152835723599563E-005
 -4.107914442056983E-005
 -4.064943974990482E-005
 -4.024034393321457E-005
 -3.985318132634026E-005
 -3.948947775013060E-005
 -3.915090023004202E-005
 -3.883913873179556E-005
 -3.855571195663239E-005
 -3.830170924816333E-005
 -3.807760397805256E-005
 -3.788368300776116E-005
 -3.772289015617989E-005
 -3.761158716070117E-005
 -6.942818119786071E-005
 -6.793737587206230E-005
 -6.648236708855650E-005
 -6.501048425484948E-005
 -6.351764008625282E-005
 -6.201469483375747E-005
 -6.051515109500002E-005
 -5.903100973229540E-005
 -5.757170466394434E-005
 -5.614414199434662E-005
 -5.475308035911944E-005
 -5.340156625739407E-005
 -5.209132606081078E-005
 -5.082308923004672E-005
 -4.959684403646293E-005
 -4.841203554055814E-005
 -4.726771698784599E-005
 -4.616266470991672E-005
 -4.509546488529706E-005
 -4.406457880217287E-005
 -4.306839179931154E-005
 -4.210524988105729E-005
 -4.117348708235004E-005
 -4.027144595735130E-005
 -3.939749303749590E-005
 -3.855003071339112E-005
 -3.772750671365263E-005
 -3.692842215788604E-005
 -3.615133903775936E-005
 -3.539488791842034E-005
 -3.465777664709603E-005
 -3.393880090689175E-005
 -3.323685756328606E-005
 -3.255096192571005E-005
 -3.188027029667752E-005
 -3.122410951539772E-005
 -3.058201562737038E-005
 -2.995378431382679E-005
 -2.933953623194802E-005
 -2.873980076523392E-005
 -2.815562138495899E-005
 -2.758868370895939E-005
 -2.704146060171514E-005
 -2.651735054680844E-005
 -2.602073972804798E-005
 -2.555680476501060E-005
 -2.513059197167993E-005
 -2.474420619854054E-005
 -2.438915853007449E-005
 -2.402631457000488E-005
 -7.098139278538477E-005
 -6.874245250399463E-005
 -6.628127040122004E-005
 -6.376966445945166E-005
 -6.129275501754402E-005
 -5.889251541448139E-005
 -5.658857649420206E-005
 -5.438864348305437E-005
 -5.229394207157132E-005
 -5.030217370148901E-005
 -4.840916755627963E-005
 -4.660982364110439E-005
 -4.489865724885647E-005
 -4.327011314309861E-005
 -4.171874391457162E-005
 -4.023930706049696E-005
 -3.882681304510654E-005
 -3.747654377862263E-005
 -3.618405339162129E-005
 -3.494515863063252E-005
 -3.375592341397406E-005
 -3.261264035803749E-005
 -3.151181100176884E-005
 -3.045012577641457E-005
 -2.942444433896277E-005
 -2.843177662212629E-005
 -2.746926479379452E-005
 -2.653416623004315E-005
 -2.562383756986385E-005
 -2.473571992372958E-005
 -2.386732535159771E-005
 -2.301622481271081E-005
 -2.218003793154883E-005
 -2.135642514637941E-005
 -2.054308314847988E-005
 -1.973774504839970E-005
 -1.893818753245825E-005
 -1.814224858888736E-005
 -1.734786151782404E-005
 -1.655311448295597E-005
 -1.575635089411929E-005
 -1.495633647693808E-005
 -1.415253799904015E-005
 -1.334559443359497E-005
 -1.253813103772115E-005
 -1.173620802402524E-005
 -1.095199362236762E-005
 -1.020890725748550E-005
 -9.551980694410559E-006
 -9.069757361842204E-006
 -7.279412535497353E-005
 -6.769679807530883E-005
 -6.321925704480620E-005
 -5.922843798457588E-005
 -5.563139092907852E-005
 -5.236037383761538E-005
 -4.936432618909945E-005
 -4.660369323949974E-005
 -4.404712426453566E-005
 -4.166927932494418E-005
 -3.944932372638924E-005
 -3.736986619483114E-005
 -3.541619268256280E-005
 -3.357570240512968E-005
 -3.183748530038989E-005
 -3.019200026296499E-005
 -2.863082637673089E-005
 -2.714646779756493E-005
 -2.573219858005196E-005
 -2.438193758834821E-005
 -2.309014629339537E-005
 -2.185174412714863E-005
 -2.066203738990308E-005
 -1.951665865604455E-005
 -1.841151430738851E-005
 -1.734273831712975E-005
 -1.630665076254331E-005
 -1.529971979506763E-005
 -1.431852596730139E-005
 -1.335972792031710E-005
 -1.242002848283895E-005
 -1.149614022817472E-005
 -1.058474947351309E-005
 -9.682477583783594E-006
 -8.785838243908604E-006
 -7.891189067475727E-006
 -6.994675482156118E-006
 -6.092164218658059E-006
 -5.179162845755210E-006
 -4.250720507783554E-006
 -3.301303111180492E-006
 -2.324633309279729E-006
 -1.313481105891819E-006
 -2.593835756565914E-007
  8.477401233443618E-007
  2.020133960876133E-006
  3.273006103518456E-006
  4.625759651241483E-006
  6.103987495631639E-006
  7.742913408618786E-006
SCALARS elementIsPlast double 
LOOKUP_TABLE default
  0.000000000000000E+000
  0.000000000000000E+000
  0.000000000000000E+000
  0.000000000000000E+000
  0.000000000000000E+000
  0.000000000000000E+000
  0.000000000000000E+000
  0.000000000000000E+000
  0.000000000000000E+000
  0.000000000000000E+000
  0.000000000000000E+000
  0.000000000000000E+000
  0.000000000000000E+000
  0.000000000000000E+000
  0.000000000000000E+000
  0.000000000000000E+000
  0.000000000000000E+000
  0.000000000000000E+000
  0.000000000000000E+000
  0.000000000000000E+000
  0.000000000000000E+000
  0.000000000000000E+000
  0.000000000000000E+000
  0.000000000000000E+000
  0.000000000000000E+000
  0.000000000000000E+000
  0.000000000000000E+000
  0.000000000000000E+000
  0.000000000000000E+000
  0.000000000000000E+000
  0.000000000000000E+000
  0.000000000000000E+000
  0.000000000000000E+000
  0.000000000000000E+000
  0.000000000000000E+000
  0.000000000000000E+000
  0.000000000000000E+000
  0.000000000000000E+000
  0.000000000000000E+000
  0.000000000000000E+000
  0.000000000000000E+000
  0.000000000000000E+000
  0.000000000000000E+000
  0.000000000000000E+000
  0.000000000000000E+000
  0.000000000000000E+000
  0.000000000000000E+000
  0.000000000000000E+000
  0.000000000000000E+000
  0.000000000000000E+000
  0.000000000000000E+000
  0.000000000000000E+000
  0.000000000000000E+000
  0.000000000000000E+000
  0.000000000000000E+000
  0.000000000000000E+000
  0.000000000000000E+000
  0.000000000000000E+000
  0.000000000000000E+000
  0.000000000000000E+000
  0.000000000000000E+000
  0.000000000000000E+000
  0.000000000000000E+000
  0.000000000000000E+000
  0.000000000000000E+000
  0.000000000000000E+000
  0.000000000000000E+000
  0.000000000000000E+000
  0.000000000000000E+000
  0.000000000000000E+000
  0.000000000000000E+000
  0.000000000000000E+000
  0.000000000000000E+000
  0.000000000000000E+000
  0.000000000000000E+000
  0.000000000000000E+000
  0.000000000000000E+000
  0.000000000000000E+000
  0.000000000000000E+000
  0.000000000000000E+000
  0.000000000000000E+000
  0.000000000000000E+000
  0.000000000000000E+000
  0.000000000000000E+000
  0.000000000000000E+000
  0.000000000000000E+000
  0.000000000000000E+000
  0.000000000000000E+000
  0.000000000000000E+000
  0.000000000000000E+000
  0.000000000000000E+000
  0.000000000000000E+000
  0.000000000000000E+000
  0.000000000000000E+000
  0.000000000000000E+000
  0.000000000000000E+000
  0.000000000000000E+000
  0.000000000000000E+000
  0.000000000000000E+000
  0.000000000000000E+000
  0.000000000000000E+000
  0.000000000000000E+000
  0.000000000000000E+000
  0.000000000000000E+000
  0.000000000000000E+000
  0.000000000000000E+000
  0.000000000000000E+000
  0.000000000000000E+000
  0.000000000000000E+000
  0.000000000000000E+000
  0.000000000000000E+000
  0.000000000000000E+000
  0.000000000000000E+000
  0.000000000000000E+000
  0.000000000000000E+000
  0.000000000000000E+000
  0.000000000000000E+000
  0.000000000000000E+000
  0.000000000000000E+000
  0.000000000000000E+000
  0.000000000000000E+000
  0.000000000000000E+000
  0.000000000000000E+000
  0.000000000000000E+000
  0.000000000000000E+000
  0.000000000000000E+000
  0.000000000000000E+000
  0.000000000000000E+000
  0.000000000000000E+000
  0.000000000000000E+000
  0.000000000000000E+000
  0.000000000000000E+000
  0.000000000000000E+000
  0.000000000000000E+000
  0.000000000000000E+000
  0.000000000000000E+000
  0.000000000000000E+000
  0.000000000000000E+000
  0.000000000000000E+000
  0.000000000000000E+000
  0.000000000000000E+000
  0.000000000000000E+000
  0.000000000000000E+000
  0.000000000000000E+000
  0.000000000000000E+000
  0.000000000000000E+000
  0.000000000000000E+000
  0.000000000000000E+000
  0.000000000000000E+000
  0.000000000000000E+000
  0.000000000000000E+000
  0.000000000000000E+000
  0.000000000000000E+000
  0.000000000000000E+000
  0.000000000000000E+000
  0.000000000000000E+000
  0.000000000000000E+000
  0.000000000000000E+000
  0.000000000000000E+000
  0.000000000000000E+000
  0.000000000000000E+000
  0.000000000000000E+000
  0.000000000000000E+000
  0.000000000000000E+000
  0.000000000000000E+000
  0.000000000000000E+000
  0.000000000000000E+000
  0.000000000000000E+000
  0.000000000000000E+000
  0.000000000000000E+000
  0.000000000000000E+000
  0.000000000000000E+000
  0.000000000000000E+000
  0.000000000000000E+000
  0.000000000000000E+000
  0.000000000000000E+000
  0.000000000000000E+000
  0.000000000000000E+000
  0.000000000000000E+000
  0.000000000000000E+000
  0.000000000000000E+000
  0.000000000000000E+000
  0.000000000000000E+000
  0.000000000000000E+000
  0.000000000000000E+000
  0.000000000000000E+000
  0.000000000000000E+000
  0.000000000000000E+000
  0.000000000000000E+000
  0.000000000000000E+000
  0.000000000000000E+000
  0.000000000000000E+000
  0.000000000000000E+000
  0.000000000000000E+000
  0.000000000000000E+000
  0.000000000000000E+000
  0.000000000000000E+000
  0.000000000000000E+000
  0.000000000000000E+000
  0.000000000000000E+000
  0.000000000000000E+000
  0.000000000000000E+000
  0.000000000000000E+000
  0.000000000000000E+000
  0.000000000000000E+000
  0.000000000000000E+000
  0.000000000000000E+000
  0.000000000000000E+000
  0.000000000000000E+000
  0.000000000000000E+000
  0.000000000000000E+000
  0.000000000000000E+000
  0.000000000000000E+000
  0.000000000000000E+000
  0.000000000000000E+000
  0.000000000000000E+000
  0.000000000000000E+000
  0.000000000000000E+000
  0.000000000000000E+000
  0.000000000000000E+000
  0.000000000000000E+000
  0.000000000000000E+000
  0.000000000000000E+000
  0.000000000000000E+000
  0.000000000000000E+000
  0.000000000000000E+000
  0.000000000000000E+000
  0.000000000000000E+000
  0.000000000000000E+000
  0.000000000000000E+000
  0.000000000000000E+000
  0.000000000000000E+000
  0.000000000000000E+000
  0.000000000000000E+000
  0.000000000000000E+000
  0.000000000000000E+000
  0.000000000000000E+000
  0.000000000000000E+000
  0.000000000000000E+000
  0.000000000000000E+000
  0.000000000000000E+000
  0.000000000000000E+000
  0.000000000000000E+000
  0.000000000000000E+000
  0.000000000000000E+000
  0.000000000000000E+000
  0.000000000000000E+000
  0.000000000000000E+000
  0.000000000000000E+000
  0.000000000000000E+000
  0.000000000000000E+000
  0.000000000000000E+000
  0.000000000000000E+000
  0.000000000000000E+000
  0.000000000000000E+000
  0.000000000000000E+000
  0.000000000000000E+000
  0.000000000000000E+000
  0.000000000000000E+000
  0.000000000000000E+000
  0.000000000000000E+000
  0.000000000000000E+000
  0.000000000000000E+000
  0.000000000000000E+000
  0.000000000000000E+000
  0.000000000000000E+000
  0.000000000000000E+000
  0.000000000000000E+000
  0.000000000000000E+000
  0.000000000000000E+000
  0.000000000000000E+000
  0.000000000000000E+000
  0.000000000000000E+000
  0.000000000000000E+000
  0.000000000000000E+000
  0.000000000000000E+000
  0.000000000000000E+000
  0.000000000000000E+000
  0.000000000000000E+000
  0.000000000000000E+000
  0.000000000000000E+000
  0.000000000000000E+000
  0.000000000000000E+000
  0.000000000000000E+000
  0.000000000000000E+000
  0.000000000000000E+000
  0.000000000000000E+000
  0.000000000000000E+000
  0.000000000000000E+000
  0.000000000000000E+000
  0.000000000000000E+000
  0.000000000000000E+000
  0.000000000000000E+000
  0.000000000000000E+000
  0.000000000000000E+000
  0.000000000000000E+000
  0.000000000000000E+000
  0.000000000000000E+000
  0.000000000000000E+000
  0.000000000000000E+000
  0.000000000000000E+000
  0.000000000000000E+000
  0.000000000000000E+000
  0.000000000000000E+000
  0.000000000000000E+000
  0.000000000000000E+000
  0.000000000000000E+000
  0.000000000000000E+000
  0.000000000000000E+000
  0.000000000000000E+000
  0.000000000000000E+000
  0.000000000000000E+000
  0.000000000000000E+000
  0.000000000000000E+000
  0.000000000000000E+000
  0.000000000000000E+000
  0.000000000000000E+000
  0.000000000000000E+000
  0.000000000000000E+000
  0.000000000000000E+000
  0.000000000000000E+000
  0.000000000000000E+000
  0.000000000000000E+000
  0.000000000000000E+000
  0.000000000000000E+000
  0.000000000000000E+000
  0.000000000000000E+000
  0.000000000000000E+000
  0.000000000000000E+000
  0.000000000000000E+000
  0.000000000000000E+000
  0.000000000000000E+000
  0.000000000000000E+000
  0.000000000000000E+000
  0.000000000000000E+000
  0.000000000000000E+000
  0.000000000000000E+000
  0.000000000000000E+000
  0.000000000000000E+000
  0.000000000000000E+000
  0.000000000000000E+000
  0.000000000000000E+000
  0.000000000000000E+000
  0.000000000000000E+000
  0.000000000000000E+000
  0.000000000000000E+000
  0.000000000000000E+000
  0.000000000000000E+000
  0.000000000000000E+000
  0.000000000000000E+000
  0.000000000000000E+000
  0.000000000000000E+000
  0.000000000000000E+000
  0.000000000000000E+000
  0.000000000000000E+000
  0.000000000000000E+000
  0.000000000000000E+000
  0.000000000000000E+000
  0.000000000000000E+000
  0.000000000000000E+000
  0.000000000000000E+000
  0.000000000000000E+000
  0.000000000000000E+000
  0.000000000000000E+000
  0.000000000000000E+000
  0.000000000000000E+000
  0.000000000000000E+000
  0.000000000000000E+000
  0.000000000000000E+000
  0.000000000000000E+000
  0.000000000000000E+000
  0.000000000000000E+000
  0.000000000000000E+000
  0.000000000000000E+000
  0.000000000000000E+000
  0.000000000000000E+000
  0.000000000000000E+000
  0.000000000000000E+000
  0.000000000000000E+000
  0.000000000000000E+000
  0.000000000000000E+000
  0.000000000000000E+000
  0.000000000000000E+000
  0.000000000000000E+000
  0.000000000000000E+000
  0.000000000000000E+000
  0.000000000000000E+000
  0.000000000000000E+000
  0.000000000000000E+000
  0.000000000000000E+000
  0.000000000000000E+000
  0.000000000000000E+000
  0.000000000000000E+000
  0.000000000000000E+000
  0.000000000000000E+000
  0.000000000000000E+000
  0.000000000000000E+000
  0.000000000000000E+000
  0.000000000000000E+000
  0.000000000000000E+000
  0.000000000000000E+000
  0.000000000000000E+000
  0.000000000000000E+000
  0.000000000000000E+000
  0.000000000000000E+000
  0.000000000000000E+000
  0.000000000000000E+000
  0.000000000000000E+000
  0.000000000000000E+000
  0.000000000000000E+000
  0.000000000000000E+000
  0.000000000000000E+000
  0.000000000000000E+000
  0.000000000000000E+000
  0.000000000000000E+000
  0.000000000000000E+000
  0.000000000000000E+000
  0.000000000000000E+000
  0.000000000000000E+000
  0.000000000000000E+000
  0.000000000000000E+000
  0.000000000000000E+000
  0.000000000000000E+000
  0.000000000000000E+000
  0.000000000000000E+000
  0.000000000000000E+000
  0.000000000000000E+000
  0.000000000000000E+000
  0.000000000000000E+000
  0.000000000000000E+000
  0.000000000000000E+000
  0.000000000000000E+000
  0.000000000000000E+000
  0.000000000000000E+000
  0.000000000000000E+000
  0.000000000000000E+000
  0.000000000000000E+000
  0.000000000000000E+000
  0.000000000000000E+000
  0.000000000000000E+000
  0.000000000000000E+000
  0.000000000000000E+000
  0.000000000000000E+000
  0.000000000000000E+000
  0.000000000000000E+000
  0.000000000000000E+000
  0.000000000000000E+000
  0.000000000000000E+000
  0.000000000000000E+000
  0.000000000000000E+000
  0.000000000000000E+000
  0.000000000000000E+000
  0.000000000000000E+000
  0.000000000000000E+000
  0.000000000000000E+000
  0.000000000000000E+000
  0.000000000000000E+000
  0.000000000000000E+000
  0.000000000000000E+000
  0.000000000000000E+000
  0.000000000000000E+000
  0.000000000000000E+000
  0.000000000000000E+000
  0.000000000000000E+000
  0.000000000000000E+000
  0.000000000000000E+000
  0.000000000000000E+000
  0.000000000000000E+000
  0.000000000000000E+000
  0.000000000000000E+000
  0.000000000000000E+000
  0.000000000000000E+000
  0.000000000000000E+000
  0.000000000000000E+000
  0.000000000000000E+000
  0.000000000000000E+000
  0.000000000000000E+000
  0.000000000000000E+000
  0.000000000000000E+000
  0.000000000000000E+000
  0.000000000000000E+000
  0.000000000000000E+000
  0.000000000000000E+000
  0.000000000000000E+000
  0.000000000000000E+000
  0.000000000000000E+000
  0.000000000000000E+000
  0.000000000000000E+000
  0.000000000000000E+000
  0.000000000000000E+000
  0.000000000000000E+000
  0.000000000000000E+000
  0.000000000000000E+000
  0.000000000000000E+000
  0.000000000000000E+000
  0.000000000000000E+000
  0.000000000000000E+000
  0.000000000000000E+000
  0.000000000000000E+000
  0.000000000000000E+000
  0.000000000000000E+000
  0.000000000000000E+000
  0.000000000000000E+000
  0.000000000000000E+000
  0.000000000000000E+000
  0.000000000000000E+000
  0.000000000000000E+000
  0.000000000000000E+000
  0.000000000000000E+000
  0.000000000000000E+000
  0.000000000000000E+000
  0.000000000000000E+000
  0.000000000000000E+000
  0.000000000000000E+000
  0.000000000000000E+000
  0.000000000000000E+000
  0.000000000000000E+000
  0.000000000000000E+000
  0.000000000000000E+000
  0.000000000000000E+000
  0.000000000000000E+000
  0.000000000000000E+000
  0.000000000000000E+000
  0.000000000000000E+000
  0.000000000000000E+000
  0.000000000000000E+000
  0.000000000000000E+000
  0.000000000000000E+000
  0.000000000000000E+000
  0.000000000000000E+000
  0.000000000000000E+000
  0.000000000000000E+000
  0.000000000000000E+000
  0.000000000000000E+000
  0.000000000000000E+000
  0.000000000000000E+000
  0.000000000000000E+000
  0.000000000000000E+000
  0.000000000000000E+000
  0.000000000000000E+000
  0.000000000000000E+000
  0.000000000000000E+000
  0.000000000000000E+000
  0.000000000000000E+000
  0.000000000000000E+000
  0.000000000000000E+000
  0.000000000000000E+000
  0.000000000000000E+000
  0.000000000000000E+000
  0.000000000000000E+000
  0.000000000000000E+000
  0.000000000000000E+000
  0.000000000000000E+000
  0.000000000000000E+000
  0.000000000000000E+000
  0.000000000000000E+000
  0.000000000000000E+000
  0.000000000000000E+000
  0.000000000000000E+000
  0.000000000000000E+000
  0.000000000000000E+000
  0.000000000000000E+000
  0.000000000000000E+000
  0.000000000000000E+000
  0.000000000000000E+000
  0.000000000000000E+000
  0.000000000000000E+000
  0.000000000000000E+000
  0.000000000000000E+000
  0.000000000000000E+000
  0.000000000000000E+000
  0.000000000000000E+000
  0.000000000000000E+000
  0.000000000000000E+000
  0.000000000000000E+000
  0.000000000000000E+000
  0.000000000000000E+000
  0.000000000000000E+000
  0.000000000000000E+000
  0.000000000000000E+000
  0.000000000000000E+000
  0.000000000000000E+000
  0.000000000000000E+000
  0.000000000000000E+000
  0.000000000000000E+000
  0.000000000000000E+000
  0.000000000000000E+000
  0.000000000000000E+000
  0.000000000000000E+000
  0.000000000000000E+000
  0.000000000000000E+000
  0.000000000000000E+000
  0.000000000000000E+000
  0.000000000000000E+000
  0.000000000000000E+000
  0.000000000000000E+000
  0.000000000000000E+000
  0.000000000000000E+000
  0.000000000000000E+000
  0.000000000000000E+000
  0.000000000000000E+000
  0.000000000000000E+000
  0.000000000000000E+000
  0.000000000000000E+000
  0.000000000000000E+000
  0.000000000000000E+000
  0.000000000000000E+000
  0.000000000000000E+000
  0.000000000000000E+000
  0.000000000000000E+000
  0.000000000000000E+000
  0.000000000000000E+000
  0.000000000000000E+000
  0.000000000000000E+000
  0.000000000000000E+000
  0.000000000000000E+000
  0.000000000000000E+000
  0.000000000000000E+000
  0.000000000000000E+000
  0.000000000000000E+000
  0.000000000000000E+000
  0.000000000000000E+000
  0.000000000000000E+000
  0.000000000000000E+000
  0.000000000000000E+000
  0.000000000000000E+000
  0.000000000000000E+000
  0.000000000000000E+000
  0.000000000000000E+000
  0.000000000000000E+000
  0.000000000000000E+000
  0.000000000000000E+000
  0.000000000000000E+000
  0.000000000000000E+000
  0.000000000000000E+000
  0.000000000000000E+000
  0.000000000000000E+000
  0.000000000000000E+000
  0.000000000000000E+000
  0.000000000000000E+000
  0.000000000000000E+000
  0.000000000000000E+000
  0.000000000000000E+000
  0.000000000000000E+000
  0.000000000000000E+000
  0.000000000000000E+000
  0.000000000000000E+000
  0.000000000000000E+000
  0.000000000000000E+000
  0.000000000000000E+000
  0.000000000000000E+000
  0.000000000000000E+000
  0.000000000000000E+000
  0.000000000000000E+000
  0.000000000000000E+000
  0.000000000000000E+000
  0.000000000000000E+000
  0.000000000000000E+000
  0.000000000000000E+000
  0.000000000000000E+000
  0.000000000000000E+000
  0.000000000000000E+000
  0.000000000000000E+000
  0.000000000000000E+000
  0.000000000000000E+000
  0.000000000000000E+000
  0.000000000000000E+000
  0.000000000000000E+000
  0.000000000000000E+000
  0.000000000000000E+000
  0.000000000000000E+000
  0.000000000000000E+000
  0.000000000000000E+000
  0.000000000000000E+000
  0.000000000000000E+000
  0.000000000000000E+000
  0.000000000000000E+000
  0.000000000000000E+000
  0.000000000000000E+000
  0.000000000000000E+000
  0.000000000000000E+000
  0.000000000000000E+000
  0.000000000000000E+000
  0.000000000000000E+000
  0.000000000000000E+000
  0.000000000000000E+000
  0.000000000000000E+000
  0.000000000000000E+000
  0.000000000000000E+000
  0.000000000000000E+000
  0.000000000000000E+000
  0.000000000000000E+000
  0.000000000000000E+000
  0.000000000000000E+000
  0.000000000000000E+000
  0.000000000000000E+000
  0.000000000000000E+000
  0.000000000000000E+000
  0.000000000000000E+000
  0.000000000000000E+000
  0.000000000000000E+000
  0.000000000000000E+000
  0.000000000000000E+000
  0.000000000000000E+000
  0.000000000000000E+000
  0.000000000000000E+000
  0.000000000000000E+000
  0.000000000000000E+000
  0.000000000000000E+000
  0.000000000000000E+000
  0.000000000000000E+000
  0.000000000000000E+000
  0.000000000000000E+000
  0.000000000000000E+000
  0.000000000000000E+000
  0.000000000000000E+000
  0.000000000000000E+000
  0.000000000000000E+000
  0.000000000000000E+000
  0.000000000000000E+000
  0.000000000000000E+000
  0.000000000000000E+000
  0.000000000000000E+000
  0.000000000000000E+000
  0.000000000000000E+000
  0.000000000000000E+000
  0.000000000000000E+000
  0.000000000000000E+000
  0.000000000000000E+000
  0.000000000000000E+000
  0.000000000000000E+000
  0.000000000000000E+000
  0.000000000000000E+000
  0.000000000000000E+000
  0.000000000000000E+000
  0.000000000000000E+000
  0.000000000000000E+000
  0.000000000000000E+000
  0.000000000000000E+000
  0.000000000000000E+000
  0.000000000000000E+000
  0.000000000000000E+000
  0.000000000000000E+000
  0.000000000000000E+000
  0.000000000000000E+000
  0.000000000000000E+000
  0.000000000000000E+000
  0.000000000000000E+000
  0.000000000000000E+000
  0.000000000000000E+000
  0.000000000000000E+000
  0.000000000000000E+000
  0.000000000000000E+000
  0.000000000000000E+000
  0.000000000000000E+000
  0.000000000000000E+000
  0.000000000000000E+000
  0.000000000000000E+000
  0.000000000000000E+000
  0.000000000000000E+000
  0.000000000000000E+000
  0.000000000000000E+000
  0.000000000000000E+000
  0.000000000000000E+000
  0.000000000000000E+000
  0.000000000000000E+000
  0.000000000000000E+000
  0.000000000000000E+000
  0.000000000000000E+000
  0.000000000000000E+000
  0.000000000000000E+000
  0.000000000000000E+000
  0.000000000000000E+000
  0.000000000000000E+000
  0.000000000000000E+000
  0.000000000000000E+000
  0.000000000000000E+000
  0.000000000000000E+000
  0.000000000000000E+000
  0.000000000000000E+000
  0.000000000000000E+000
  0.000000000000000E+000
  0.000000000000000E+000
  0.000000000000000E+000
  0.000000000000000E+000
  0.000000000000000E+000
  0.000000000000000E+000
  0.000000000000000E+000
  0.000000000000000E+000
  0.000000000000000E+000
  0.000000000000000E+000
  0.000000000000000E+000
  0.000000000000000E+000
  0.000000000000000E+000
  0.000000000000000E+000
  0.000000000000000E+000
  0.000000000000000E+000
  0.000000000000000E+000
  0.000000000000000E+000
  0.000000000000000E+000
  0.000000000000000E+000
  0.000000000000000E+000
  0.000000000000000E+000
  0.000000000000000E+000
  0.000000000000000E+000
  0.000000000000000E+000
  0.000000000000000E+000
  0.000000000000000E+000
  0.000000000000000E+000
  0.000000000000000E+000
  0.000000000000000E+000
  0.000000000000000E+000
  0.000000000000000E+000
  0.000000000000000E+000
  0.000000000000000E+000
  0.000000000000000E+000
  0.000000000000000E+000
  0.000000000000000E+000
  0.000000000000000E+000
  0.000000000000000E+000
  0.000000000000000E+000
  0.000000000000000E+000
  0.000000000000000E+000
  0.000000000000000E+000
  0.000000000000000E+000
  0.000000000000000E+000
  0.000000000000000E+000
  0.000000000000000E+000
  0.000000000000000E+000
  0.000000000000000E+000
  0.000000000000000E+000
  0.000000000000000E+000
  0.000000000000000E+000
  0.000000000000000E+000
  0.000000000000000E+000
  0.000000000000000E+000
  0.000000000000000E+000
  0.000000000000000E+000
  0.000000000000000E+000
  0.000000000000000E+000
  0.000000000000000E+000
  0.000000000000000E+000
  0.000000000000000E+000
  0.000000000000000E+000
  0.000000000000000E+000
  0.000000000000000E+000
  0.000000000000000E+000
  0.000000000000000E+000
  0.000000000000000E+000
  0.000000000000000E+000
  0.000000000000000E+000
  0.000000000000000E+000
  0.000000000000000E+000
  0.000000000000000E+000
  0.000000000000000E+000
  0.000000000000000E+000
  0.000000000000000E+000
  0.000000000000000E+000
  0.000000000000000E+000
  0.000000000000000E+000
  0.000000000000000E+000
  0.000000000000000E+000
  0.000000000000000E+000
  0.000000000000000E+000
  0.000000000000000E+000
  0.000000000000000E+000
  0.000000000000000E+000
  0.000000000000000E+000
  0.000000000000000E+000
  0.000000000000000E+000
  0.000000000000000E+000
  0.000000000000000E+000
  0.000000000000000E+000
  0.000000000000000E+000
  0.000000000000000E+000
  0.000000000000000E+000
  0.000000000000000E+000
  0.000000000000000E+000
  0.000000000000000E+000
  0.000000000000000E+000
  0.000000000000000E+000
  0.000000000000000E+000
  0.000000000000000E+000
  0.000000000000000E+000
  0.000000000000000E+000
  0.000000000000000E+000
  0.000000000000000E+000
  0.000000000000000E+000
  0.000000000000000E+000
  0.000000000000000E+000
  0.000000000000000E+000
  0.000000000000000E+000
  0.000000000000000E+000
  0.000000000000000E+000
  0.000000000000000E+000
  0.000000000000000E+000
  0.000000000000000E+000
  0.000000000000000E+000
  0.000000000000000E+000
  0.000000000000000E+000
  0.000000000000000E+000
  0.000000000000000E+000
  0.000000000000000E+000
  0.000000000000000E+000
  0.000000000000000E+000
  0.000000000000000E+000
  0.000000000000000E+000
  0.000000000000000E+000
  0.000000000000000E+000
  0.000000000000000E+000
  0.000000000000000E+000
  0.000000000000000E+000
  0.000000000000000E+000
  0.000000000000000E+000
  0.000000000000000E+000
  0.000000000000000E+000
  0.000000000000000E+000
  0.000000000000000E+000
  0.000000000000000E+000
  0.000000000000000E+000
  0.000000000000000E+000
  0.000000000000000E+000
  0.000000000000000E+000
  0.000000000000000E+000
  0.000000000000000E+000
  0.000000000000000E+000
  0.000000000000000E+000
  0.000000000000000E+000
  0.000000000000000E+000
  0.000000000000000E+000
  0.000000000000000E+000
  0.000000000000000E+000
  0.000000000000000E+000
  0.000000000000000E+000
  0.000000000000000E+000
  0.000000000000000E+000
  0.000000000000000E+000
  0.000000000000000E+000
  0.000000000000000E+000
  0.000000000000000E+000
  0.000000000000000E+000
  0.000000000000000E+000
  0.000000000000000E+000
  0.000000000000000E+000
  0.000000000000000E+000
  0.000000000000000E+000
  0.000000000000000E+000
  0.000000000000000E+000
  0.000000000000000E+000
  0.000000000000000E+000
  0.000000000000000E+000
  0.000000000000000E+000
  0.000000000000000E+000
  0.000000000000000E+000
  0.000000000000000E+000
  0.000000000000000E+000
  0.000000000000000E+000
  0.000000000000000E+000
  0.000000000000000E+000
  0.000000000000000E+000
  0.000000000000000E+000
  0.000000000000000E+000
  0.000000000000000E+000
  0.000000000000000E+000
  0.000000000000000E+000
  0.000000000000000E+000
  0.000000000000000E+000
  0.000000000000000E+000
  0.000000000000000E+000
  0.000000000000000E+000
  0.000000000000000E+000
  0.000000000000000E+000
  0.000000000000000E+000
  0.000000000000000E+000
  0.000000000000000E+000
  0.000000000000000E+000
  0.000000000000000E+000
  0.000000000000000E+000
  0.000000000000000E+000
  0.000000000000000E+000
  0.000000000000000E+000
  0.000000000000000E+000
  0.000000000000000E+000
  0.000000000000000E+000
  0.000000000000000E+000
  0.000000000000000E+000
  0.000000000000000E+000
  0.000000000000000E+000
  0.000000000000000E+000
  0.000000000000000E+000
  0.000000000000000E+000
  0.000000000000000E+000
  0.000000000000000E+000
  0.000000000000000E+000
  0.000000000000000E+000
  0.000000000000000E+000
  0.000000000000000E+000
  0.000000000000000E+000
  0.000000000000000E+000
  0.000000000000000E+000
  0.000000000000000E+000
  0.000000000000000E+000
  0.000000000000000E+000
  0.000000000000000E+000
  0.000000000000000E+000
  0.000000000000000E+000
  0.000000000000000E+000
  0.000000000000000E+000
  0.000000000000000E+000
  0.000000000000000E+000
  0.000000000000000E+000
  0.000000000000000E+000
  0.000000000000000E+000
  0.000000000000000E+000
  0.000000000000000E+000
  0.000000000000000E+000
  0.000000000000000E+000
  0.000000000000000E+000
  0.000000000000000E+000
  0.000000000000000E+000
  0.000000000000000E+000
  0.000000000000000E+000
  0.000000000000000E+000
  0.000000000000000E+000
  0.000000000000000E+000
  0.000000000000000E+000
  0.000000000000000E+000
  0.000000000000000E+000
  0.000000000000000E+000
  0.000000000000000E+000
  0.000000000000000E+000
  0.000000000000000E+000
  0.000000000000000E+000
  0.000000000000000E+000
  0.000000000000000E+000
  0.000000000000000E+000
  0.000000000000000E+000
  0.000000000000000E+000
  0.000000000000000E+000
  0.000000000000000E+000
  0.000000000000000E+000
  0.000000000000000E+000
  0.000000000000000E+000
  0.000000000000000E+000
  0.000000000000000E+000
  0.000000000000000E+000
  0.000000000000000E+000
  0.000000000000000E+000
  0.000000000000000E+000
  0.000000000000000E+000
  0.000000000000000E+000
  0.000000000000000E+000
  0.000000000000000E+000
  0.000000000000000E+000
  0.000000000000000E+000
  0.000000000000000E+000
  0.000000000000000E+000
  0.000000000000000E+000
  0.000000000000000E+000
  0.000000000000000E+000
  0.000000000000000E+000
  0.000000000000000E+000
  0.000000000000000E+000
  0.000000000000000E+000
  0.000000000000000E+000
  0.000000000000000E+000
  0.000000000000000E+000
  0.000000000000000E+000
  0.000000000000000E+000
  0.000000000000000E+000
  0.000000000000000E+000
  0.000000000000000E+000
  0.000000000000000E+000
  0.000000000000000E+000
  0.000000000000000E+000
  0.000000000000000E+000
  0.000000000000000E+000
  0.000000000000000E+000
  0.000000000000000E+000
  0.000000000000000E+000
  0.000000000000000E+000
  0.000000000000000E+000
  0.000000000000000E+000
  0.000000000000000E+000
  0.000000000000000E+000
  0.000000000000000E+000
  0.000000000000000E+000
  0.000000000000000E+000
  0.000000000000000E+000
  0.000000000000000E+000
  0.000000000000000E+000
  0.000000000000000E+000
  0.000000000000000E+000
  0.000000000000000E+000
  0.000000000000000E+000
  0.000000000000000E+000
  0.000000000000000E+000
  0.000000000000000E+000
  0.000000000000000E+000
  0.000000000000000E+000
  0.000000000000000E+000
  0.000000000000000E+000
  0.000000000000000E+000
  0.000000000000000E+000
  0.000000000000000E+000
  0.000000000000000E+000
  0.000000000000000E+000
  0.000000000000000E+000
  0.000000000000000E+000
  0.000000000000000E+000
  0.000000000000000E+000
  0.000000000000000E+000
  0.000000000000000E+000
  0.000000000000000E+000
  0.000000000000000E+000
  0.000000000000000E+000
  0.000000000000000E+000
  0.000000000000000E+000
  0.000000000000000E+000
  0.000000000000000E+000
  0.000000000000000E+000
  0.000000000000000E+000
  0.000000000000000E+000
  0.000000000000000E+000
  0.000000000000000E+000
  0.000000000000000E+000
  0.000000000000000E+000
  0.000000000000000E+000
  0.000000000000000E+000
  0.000000000000000E+000
  0.000000000000000E+000
  0.000000000000000E+000
  0.000000000000000E+000
  0.000000000000000E+000
  0.000000000000000E+000
  0.000000000000000E+000
  0.000000000000000E+000
  0.000000000000000E+000
  0.000000000000000E+000
  0.000000000000000E+000
  0.000000000000000E+000
  0.000000000000000E+000
  0.000000000000000E+000
  0.000000000000000E+000
  0.000000000000000E+000
  0.000000000000000E+000
  0.000000000000000E+000
  0.000000000000000E+000
  0.000000000000000E+000
  0.000000000000000E+000
  0.000000000000000E+000
  0.000000000000000E+000
  0.000000000000000E+000
  0.000000000000000E+000
  0.000000000000000E+000
  0.000000000000000E+000
  0.000000000000000E+000
  0.000000000000000E+000
  0.000000000000000E+000
  0.000000000000000E+000
  0.000000000000000E+000
  0.000000000000000E+000
  0.000000000000000E+000
  0.000000000000000E+000
  0.000000000000000E+000
  0.000000000000000E+000
  0.000000000000000E+000
  0.000000000000000E+000
  0.000000000000000E+000
  0.000000000000000E+000
  0.000000000000000E+000
  0.000000000000000E+000
  0.000000000000000E+000
  0.000000000000000E+000
  0.000000000000000E+000
  0.000000000000000E+000
  0.000000000000000E+000
  0.000000000000000E+000
  0.000000000000000E+000
  0.000000000000000E+000
  0.000000000000000E+000
  0.000000000000000E+000
  0.000000000000000E+000
  0.000000000000000E+000
  0.000000000000000E+000
  0.000000000000000E+000
  0.000000000000000E+000
  0.000000000000000E+000
  0.000000000000000E+000
  0.000000000000000E+000
  0.000000000000000E+000
  0.000000000000000E+000
  0.000000000000000E+000
  0.000000000000000E+000
  0.000000000000000E+000
  0.000000000000000E+000
  0.000000000000000E+000
  0.000000000000000E+000
  0.000000000000000E+000
  0.000000000000000E+000
  0.000000000000000E+000
  0.000000000000000E+000
  0.000000000000000E+000
  0.000000000000000E+000
  0.000000000000000E+000
  0.000000000000000E+000
  0.000000000000000E+000
  0.000000000000000E+000
  0.000000000000000E+000
  0.000000000000000E+000
  0.000000000000000E+000
  0.000000000000000E+000
  0.000000000000000E+000
  0.000000000000000E+000
  0.000000000000000E+000
  0.000000000000000E+000
  0.000000000000000E+000
  0.000000000000000E+000
  0.000000000000000E+000
  0.000000000000000E+000
  0.000000000000000E+000
  0.000000000000000E+000
  0.000000000000000E+000
  0.000000000000000E+000
  0.000000000000000E+000
  0.000000000000000E+000
  0.000000000000000E+000
  0.000000000000000E+000
  0.000000000000000E+000
  0.000000000000000E+000
  0.000000000000000E+000
  0.000000000000000E+000
  0.000000000000000E+000
  0.000000000000000E+000
  0.000000000000000E+000
  0.000000000000000E+000
  0.000000000000000E+000
  0.000000000000000E+000
  0.000000000000000E+000
  0.000000000000000E+000
  0.000000000000000E+000
  0.000000000000000E+000
  0.000000000000000E+000
  0.000000000000000E+000
  0.000000000000000E+000
  0.000000000000000E+000
  0.000000000000000E+000
  0.000000000000000E+000
  0.000000000000000E+000
  0.000000000000000E+000
  0.000000000000000E+000
  0.000000000000000E+000
  0.000000000000000E+000
  0.000000000000000E+000
  0.000000000000000E+000
  0.000000000000000E+000
  0.000000000000000E+000
  0.000000000000000E+000
  0.000000000000000E+000
  0.000000000000000E+000
  0.000000000000000E+000
  0.000000000000000E+000
  0.000000000000000E+000
  0.000000000000000E+000
  0.000000000000000E+000
  0.000000000000000E+000
  0.000000000000000E+000
  0.000000000000000E+000
  0.000000000000000E+000
  0.000000000000000E+000
  0.000000000000000E+000
  0.000000000000000E+000
  0.000000000000000E+000
  0.000000000000000E+000
  0.000000000000000E+000
  0.000000000000000E+000
  0.000000000000000E+000
  0.000000000000000E+000
  0.000000000000000E+000
  0.000000000000000E+000
  0.000000000000000E+000
  0.000000000000000E+000
  0.000000000000000E+000
  0.000000000000000E+000
  0.000000000000000E+000
  0.000000000000000E+000
  0.000000000000000E+000
  0.000000000000000E+000
  0.000000000000000E+000
  0.000000000000000E+000
  0.000000000000000E+000
  0.000000000000000E+000
  0.000000000000000E+000
  0.000000000000000E+000
  0.000000000000000E+000
  0.000000000000000E+000
  0.000000000000000E+000
  0.000000000000000E+000
  0.000000000000000E+000
  0.000000000000000E+000
  0.000000000000000E+000
  0.000000000000000E+000
  0.000000000000000E+000
  0.000000000000000E+000
  0.000000000000000E+000
  0.000000000000000E+000
  0.000000000000000E+000
  0.000000000000000E+000
  0.000000000000000E+000
  0.000000000000000E+000
  0.000000000000000E+000
  0.000000000000000E+000
  0.000000000000000E+000
  0.000000000000000E+000
  0.000000000000000E+000
  0.000000000000000E+000
  0.000000000000000E+000
  0.000000000000000E+000
  0.000000000000000E+000
  0.000000000000000E+000
  0.000000000000000E+000
  0.000000000000000E+000
  0.000000000000000E+000
  0.000000000000000E+000
  0.000000000000000E+000
  0.000000000000000E+000
  0.000000000000000E+000
  0.000000000000000E+000
  0.000000000000000E+000
  0.000000000000000E+000
  0.000000000000000E+000
  0.000000000000000E+000
  0.000000000000000E+000
  0.000000000000000E+000
  0.000000000000000E+000
  0.000000000000000E+000
  0.000000000000000E+000
  0.000000000000000E+000
  0.000000000000000E+000
  0.000000000000000E+000
  0.000000000000000E+000
  0.000000000000000E+000
  0.000000000000000E+000
  0.000000000000000E+000
  0.000000000000000E+000
  0.000000000000000E+000
  0.000000000000000E+000
  0.000000000000000E+000
  0.000000000000000E+000
  0.000000000000000E+000
  0.000000000000000E+000
  0.000000000000000E+000
  0.000000000000000E+000
  0.000000000000000E+000
  0.000000000000000E+000
  0.000000000000000E+000
  0.000000000000000E+000
  0.000000000000000E+000
  0.000000000000000E+000
  0.000000000000000E+000
  0.000000000000000E+000
  0.000000000000000E+000
  0.000000000000000E+000
  0.000000000000000E+000
  0.000000000000000E+000
  0.000000000000000E+000
  0.000000000000000E+000
  0.000000000000000E+000
  0.000000000000000E+000
  0.000000000000000E+000
  0.000000000000000E+000
  0.000000000000000E+000
  0.000000000000000E+000
  0.000000000000000E+000
  0.000000000000000E+000
  0.000000000000000E+000
  0.000000000000000E+000
  0.000000000000000E+000
  0.000000000000000E+000
  0.000000000000000E+000
  0.000000000000000E+000
  0.000000000000000E+000
  0.000000000000000E+000
  0.000000000000000E+000
  0.000000000000000E+000
  0.000000000000000E+000
  0.000000000000000E+000
  0.000000000000000E+000
  0.000000000000000E+000
  0.000000000000000E+000
  0.000000000000000E+000
  0.000000000000000E+000
  0.000000000000000E+000
  0.000000000000000E+000
  0.000000000000000E+000
  0.000000000000000E+000
  0.000000000000000E+000
  0.000000000000000E+000
  0.000000000000000E+000
  0.000000000000000E+000
  0.000000000000000E+000
  0.000000000000000E+000
  0.000000000000000E+000
  0.000000000000000E+000
  0.000000000000000E+000
  0.000000000000000E+000
  0.000000000000000E+000
  0.000000000000000E+000
  0.000000000000000E+000
  0.000000000000000E+000
  0.000000000000000E+000
  0.000000000000000E+000
  0.000000000000000E+000
  0.000000000000000E+000
  0.000000000000000E+000
  0.000000000000000E+000
  0.000000000000000E+000
  0.000000000000000E+000
  0.000000000000000E+000
  0.000000000000000E+000
  0.000000000000000E+000
  0.000000000000000E+000
  0.000000000000000E+000
  0.000000000000000E+000
  0.000000000000000E+000
  0.000000000000000E+000
  0.000000000000000E+000
  0.000000000000000E+000
  0.000000000000000E+000
  0.000000000000000E+000
  0.000000000000000E+000
  0.000000000000000E+000
  0.000000000000000E+000
  0.000000000000000E+000
  0.000000000000000E+000
  0.000000000000000E+000
  0.000000000000000E+000
  0.000000000000000E+000
  0.000000000000000E+000
  0.000000000000000E+000
  0.000000000000000E+000
  0.000000000000000E+000
  0.000000000000000E+000
  0.000000000000000E+000
  0.000000000000000E+000
  0.000000000000000E+000
  0.000000000000000E+000
  0.000000000000000E+000
  0.000000000000000E+000
  0.000000000000000E+000
  0.000000000000000E+000
  0.000000000000000E+000
  0.000000000000000E+000
  0.000000000000000E+000
  0.000000000000000E+000
  0.000000000000000E+000
  0.000000000000000E+000
  0.000000000000000E+000
  0.000000000000000E+000
  0.000000000000000E+000
  0.000000000000000E+000
  0.000000000000000E+000
  0.000000000000000E+000
  0.000000000000000E+000
  0.000000000000000E+000
  0.000000000000000E+000
  0.000000000000000E+000
  0.000000000000000E+000
  0.000000000000000E+000
  0.000000000000000E+000
  0.000000000000000E+000
  0.000000000000000E+000
  0.000000000000000E+000
  0.000000000000000E+000
  0.000000000000000E+000
  0.000000000000000E+000
  0.000000000000000E+000
  0.000000000000000E+000
  0.000000000000000E+000
  0.000000000000000E+000
  0.000000000000000E+000
  0.000000000000000E+000
  0.000000000000000E+000
  0.000000000000000E+000
  0.000000000000000E+000
  0.000000000000000E+000
  0.000000000000000E+000
  0.000000000000000E+000
  0.000000000000000E+000
  0.000000000000000E+000
  0.000000000000000E+000
  0.000000000000000E+000
  0.000000000000000E+000
  0.000000000000000E+000
  0.000000000000000E+000
  0.000000000000000E+000
  0.000000000000000E+000
  0.000000000000000E+000
  0.000000000000000E+000
  0.000000000000000E+000
  0.000000000000000E+000
  0.000000000000000E+000
  0.000000000000000E+000
  0.000000000000000E+000
  0.000000000000000E+000
  0.000000000000000E+000
  0.000000000000000E+000
  0.000000000000000E+000
  0.000000000000000E+000
  0.000000000000000E+000
  0.000000000000000E+000
  0.000000000000000E+000
  0.000000000000000E+000
  0.000000000000000E+000
  0.000000000000000E+000
  0.000000000000000E+000
  0.000000000000000E+000
  0.000000000000000E+000
  0.000000000000000E+000
  0.000000000000000E+000
  0.000000000000000E+000
  0.000000000000000E+000
  0.000000000000000E+000
  0.000000000000000E+000
  0.000000000000000E+000
  0.000000000000000E+000
  0.000000000000000E+000
  0.000000000000000E+000
  0.000000000000000E+000
  0.000000000000000E+000
  0.000000000000000E+000
  0.000000000000000E+000
  0.000000000000000E+000
  0.000000000000000E+000
  0.000000000000000E+000
  0.000000000000000E+000
  0.000000000000000E+000
  0.000000000000000E+000
  0.000000000000000E+000
  0.000000000000000E+000
  0.000000000000000E+000
  0.000000000000000E+000
  0.000000000000000E+000
  0.000000000000000E+000
  0.000000000000000E+000
  0.000000000000000E+000
  0.000000000000000E+000
  0.000000000000000E+000
  0.000000000000000E+000
  0.000000000000000E+000
  0.000000000000000E+000
  0.000000000000000E+000
  0.000000000000000E+000
  0.000000000000000E+000
  0.000000000000000E+000
  0.000000000000000E+000
  0.000000000000000E+000
  0.000000000000000E+000
  0.000000000000000E+000
  0.000000000000000E+000
  0.000000000000000E+000
  0.000000000000000E+000
  0.000000000000000E+000
  0.000000000000000E+000
  0.000000000000000E+000
  0.000000000000000E+000
  0.000000000000000E+000
  0.000000000000000E+000
  0.000000000000000E+000
  0.000000000000000E+000
  0.000000000000000E+000
  0.000000000000000E+000
  0.000000000000000E+000
  0.000000000000000E+000
  0.000000000000000E+000
  0.000000000000000E+000
  0.000000000000000E+000
  0.000000000000000E+000
  0.000000000000000E+000
  0.000000000000000E+000
  0.000000000000000E+000
  0.000000000000000E+000
  0.000000000000000E+000
  0.000000000000000E+000
  0.000000000000000E+000
  0.000000000000000E+000
  0.000000000000000E+000
  0.000000000000000E+000
  0.000000000000000E+000
  0.000000000000000E+000
  0.000000000000000E+000
  0.000000000000000E+000
  0.000000000000000E+000
  0.000000000000000E+000
  0.000000000000000E+000
  0.000000000000000E+000
  0.000000000000000E+000
  0.000000000000000E+000
  0.000000000000000E+000
  0.000000000000000E+000
  0.000000000000000E+000
  0.000000000000000E+000
  0.000000000000000E+000
  0.000000000000000E+000
  0.000000000000000E+000
  0.000000000000000E+000
  0.000000000000000E+000
  0.000000000000000E+000
  0.000000000000000E+000
  0.000000000000000E+000
  0.000000000000000E+000
  0.000000000000000E+000
  0.000000000000000E+000
  0.000000000000000E+000
  0.000000000000000E+000
  0.000000000000000E+000
  0.000000000000000E+000
  0.000000000000000E+000
  0.000000000000000E+000
  0.000000000000000E+000
  0.000000000000000E+000
  0.000000000000000E+000
  0.000000000000000E+000
  0.000000000000000E+000
  0.000000000000000E+000
  0.000000000000000E+000
  0.000000000000000E+000
  0.000000000000000E+000
  0.000000000000000E+000
  0.000000000000000E+000
  0.000000000000000E+000
  0.000000000000000E+000
  0.000000000000000E+000
  0.000000000000000E+000
  0.000000000000000E+000
  0.000000000000000E+000
  0.000000000000000E+000
  0.000000000000000E+000
  0.000000000000000E+000
  0.000000000000000E+000
  0.000000000000000E+000
  0.000000000000000E+000
  0.000000000000000E+000
  0.000000000000000E+000
  0.000000000000000E+000
  0.000000000000000E+000
  0.000000000000000E+000
  0.000000000000000E+000
  0.000000000000000E+000
  0.000000000000000E+000
  0.000000000000000E+000
  0.000000000000000E+000
  0.000000000000000E+000
  0.000000000000000E+000
  0.000000000000000E+000
  0.000000000000000E+000
  0.000000000000000E+000
  0.000000000000000E+000
  0.000000000000000E+000
  0.000000000000000E+000
  0.000000000000000E+000
  0.000000000000000E+000
  0.000000000000000E+000
  0.000000000000000E+000
  0.000000000000000E+000
  0.000000000000000E+000
  0.000000000000000E+000
  0.000000000000000E+000
  0.000000000000000E+000
  0.000000000000000E+000
  0.000000000000000E+000
  0.000000000000000E+000
  0.000000000000000E+000
  0.000000000000000E+000
  0.000000000000000E+000
  0.000000000000000E+000
  0.000000000000000E+000
  0.000000000000000E+000
  0.000000000000000E+000
  0.000000000000000E+000
  0.000000000000000E+000
  0.000000000000000E+000
  0.000000000000000E+000
  0.000000000000000E+000
  0.000000000000000E+000
  0.000000000000000E+000
  0.000000000000000E+000
  0.000000000000000E+000
  0.000000000000000E+000
  0.000000000000000E+000
  0.000000000000000E+000
  0.000000000000000E+000
  0.000000000000000E+000
  0.000000000000000E+000
  0.000000000000000E+000
  0.000000000000000E+000
  0.000000000000000E+000
  0.000000000000000E+000
  0.000000000000000E+000
  0.000000000000000E+000
  0.000000000000000E+000
  0.000000000000000E+000
  0.000000000000000E+000
  0.000000000000000E+000
  0.000000000000000E+000
  0.000000000000000E+000
  0.000000000000000E+000
  0.000000000000000E+000
  0.000000000000000E+000
  0.000000000000000E+000
  0.000000000000000E+000
  0.000000000000000E+000
  0.000000000000000E+000
  0.000000000000000E+000
  0.000000000000000E+000
  0.000000000000000E+000
  0.000000000000000E+000
  0.000000000000000E+000
  0.000000000000000E+000
  0.000000000000000E+000
  0.000000000000000E+000
  0.000000000000000E+000
  0.000000000000000E+000
  0.000000000000000E+000
  0.000000000000000E+000
  0.000000000000000E+000
  0.000000000000000E+000
  0.000000000000000E+000
  0.000000000000000E+000
  0.000000000000000E+000
  0.000000000000000E+000
  0.000000000000000E+000
  0.000000000000000E+000
  0.000000000000000E+000
  0.000000000000000E+000
  0.000000000000000E+000
  0.000000000000000E+000
  0.000000000000000E+000
  0.000000000000000E+000
  0.000000000000000E+000
  0.000000000000000E+000
  0.000000000000000E+000
  0.000000000000000E+000
  0.000000000000000E+000
  0.000000000000000E+000
  0.000000000000000E+000
  0.000000000000000E+000
  0.000000000000000E+000
  0.000000000000000E+000
  0.000000000000000E+000
  0.000000000000000E+000
  0.000000000000000E+000
  0.000000000000000E+000
  0.000000000000000E+000
  0.000000000000000E+000
  0.000000000000000E+000
  0.000000000000000E+000
  0.000000000000000E+000
  0.000000000000000E+000
  0.000000000000000E+000
  0.000000000000000E+000
  0.000000000000000E+000
  0.000000000000000E+000
  0.000000000000000E+000
  0.000000000000000E+000
  0.000000000000000E+000
  0.000000000000000E+000
  0.000000000000000E+000
  0.000000000000000E+000
  0.000000000000000E+000
  0.000000000000000E+000
  0.000000000000000E+000
  0.000000000000000E+000
  0.000000000000000E+000
  0.000000000000000E+000
  0.000000000000000E+000
  0.000000000000000E+000
  0.000000000000000E+000
  0.000000000000000E+000
  0.000000000000000E+000
  0.000000000000000E+000
  0.000000000000000E+000
  0.000000000000000E+000
  0.000000000000000E+000
  0.000000000000000E+000
  0.000000000000000E+000
  0.000000000000000E+000
  0.000000000000000E+000
  0.000000000000000E+000
  0.000000000000000E+000
  0.000000000000000E+000
  0.000000000000000E+000
  0.000000000000000E+000
  0.000000000000000E+000
  0.000000000000000E+000
  0.000000000000000E+000
  0.000000000000000E+000
  0.000000000000000E+000
  0.000000000000000E+000
  0.000000000000000E+000
  0.000000000000000E+000
  0.000000000000000E+000
  0.000000000000000E+000
  0.000000000000000E+000
  0.000000000000000E+000
  0.000000000000000E+000
  0.000000000000000E+000
  0.000000000000000E+000
  0.000000000000000E+000
  0.000000000000000E+000
  0.000000000000000E+000
  0.000000000000000E+000
  0.000000000000000E+000
  0.000000000000000E+000
  0.000000000000000E+000
  0.000000000000000E+000
  0.000000000000000E+000
  0.000000000000000E+000
  0.000000000000000E+000
  0.000000000000000E+000
  0.000000000000000E+000
  0.000000000000000E+000
  0.000000000000000E+000
  0.000000000000000E+000
  0.000000000000000E+000
  0.000000000000000E+000
  0.000000000000000E+000
  0.000000000000000E+000
  0.000000000000000E+000
  0.000000000000000E+000
  0.000000000000000E+000
  0.000000000000000E+000
  0.000000000000000E+000
  0.000000000000000E+000
  0.000000000000000E+000
  0.000000000000000E+000
  0.000000000000000E+000
  0.000000000000000E+000
  0.000000000000000E+000
  0.000000000000000E+000
  0.000000000000000E+000
  0.000000000000000E+000
  0.000000000000000E+000
  0.000000000000000E+000
  0.000000000000000E+000
  0.000000000000000E+000
  0.000000000000000E+000
  0.000000000000000E+000
  0.000000000000000E+000
  0.000000000000000E+000
  0.000000000000000E+000
  0.000000000000000E+000
  0.000000000000000E+000
  0.000000000000000E+000
  0.000000000000000E+000
  0.000000000000000E+000
  0.000000000000000E+000
  0.000000000000000E+000
  0.000000000000000E+000
  0.000000000000000E+000
  0.000000000000000E+000
  0.000000000000000E+000
  0.000000000000000E+000
  0.000000000000000E+000
  0.000000000000000E+000
  0.000000000000000E+000
  0.000000000000000E+000
  0.000000000000000E+000
  0.000000000000000E+000
  0.000000000000000E+000
  0.000000000000000E+000
  0.000000000000000E+000
  0.000000000000000E+000
  0.000000000000000E+000
  0.000000000000000E+000
  0.000000000000000E+000
  0.000000000000000E+000
  0.000000000000000E+000
  0.000000000000000E+000
  0.000000000000000E+000
  0.000000000000000E+000
  0.000000000000000E+000
  0.000000000000000E+000
  0.000000000000000E+000
  0.000000000000000E+000
  0.000000000000000E+000
  0.000000000000000E+000
  0.000000000000000E+000
  0.000000000000000E+000
  0.000000000000000E+000
  0.000000000000000E+000
  0.000000000000000E+000
  0.000000000000000E+000
  0.000000000000000E+000
  0.000000000000000E+000
  0.000000000000000E+000
  0.000000000000000E+000
  0.000000000000000E+000
  0.000000000000000E+000
  0.000000000000000E+000
  0.000000000000000E+000
  0.000000000000000E+000
  0.000000000000000E+000
  0.000000000000000E+000
  0.000000000000000E+000
  0.000000000000000E+000
  0.000000000000000E+000
  0.000000000000000E+000
  0.000000000000000E+000
  0.000000000000000E+000
  0.000000000000000E+000
  0.000000000000000E+000
  0.000000000000000E+000
  0.000000000000000E+000
  0.000000000000000E+000
  0.000000000000000E+000
  0.000000000000000E+000
  0.000000000000000E+000
  0.000000000000000E+000
  0.000000000000000E+000
  0.000000000000000E+000
  0.000000000000000E+000
  0.000000000000000E+000
  0.000000000000000E+000
  0.000000000000000E+000
  0.000000000000000E+000
  0.000000000000000E+000
  0.000000000000000E+000
  0.000000000000000E+000
  0.000000000000000E+000
  0.000000000000000E+000
  0.000000000000000E+000
  0.000000000000000E+000
  0.000000000000000E+000
  0.000000000000000E+000
  0.000000000000000E+000
  0.000000000000000E+000
  0.000000000000000E+000
  0.000000000000000E+000
  0.000000000000000E+000
  0.000000000000000E+000
  0.000000000000000E+000
  0.000000000000000E+000
  0.000000000000000E+000
  0.000000000000000E+000
  0.000000000000000E+000
  0.000000000000000E+000
  0.000000000000000E+000
  0.000000000000000E+000
  0.000000000000000E+000
  0.000000000000000E+000
  0.000000000000000E+000
  0.000000000000000E+000
  0.000000000000000E+000
  0.000000000000000E+000
  0.000000000000000E+000
  0.000000000000000E+000
  0.000000000000000E+000
  0.000000000000000E+000
  0.000000000000000E+000
  0.000000000000000E+000
  0.000000000000000E+000
  0.000000000000000E+000
  0.000000000000000E+000
  0.000000000000000E+000
  0.000000000000000E+000
  0.000000000000000E+000
  0.000000000000000E+000
  0.000000000000000E+000
  0.000000000000000E+000
  0.000000000000000E+000
  0.000000000000000E+000
  0.000000000000000E+000
  0.000000000000000E+000
  0.000000000000000E+000
  0.000000000000000E+000
  0.000000000000000E+000
  0.000000000000000E+000
  0.000000000000000E+000
  0.000000000000000E+000
  0.000000000000000E+000
  0.000000000000000E+000
  0.000000000000000E+000
  0.000000000000000E+000
  0.000000000000000E+000
  0.000000000000000E+000
  0.000000000000000E+000
  0.000000000000000E+000
  0.000000000000000E+000
  0.000000000000000E+000
  0.000000000000000E+000
  0.000000000000000E+000
  0.000000000000000E+000
  0.000000000000000E+000
  0.000000000000000E+000
  0.000000000000000E+000
  0.000000000000000E+000
  0.000000000000000E+000
  0.000000000000000E+000
  0.000000000000000E+000
  0.000000000000000E+000
  0.000000000000000E+000
  0.000000000000000E+000
  0.000000000000000E+000
  0.000000000000000E+000
  0.000000000000000E+000
  0.000000000000000E+000
  0.000000000000000E+000
  0.000000000000000E+000
  0.000000000000000E+000
  0.000000000000000E+000
  0.000000000000000E+000
  0.000000000000000E+000
  0.000000000000000E+000
  0.000000000000000E+000
  0.000000000000000E+000
  0.000000000000000E+000
  0.000000000000000E+000
  0.000000000000000E+000
  0.000000000000000E+000
  0.000000000000000E+000
  0.000000000000000E+000
  0.000000000000000E+000
  0.000000000000000E+000
  0.000000000000000E+000
  0.000000000000000E+000
  0.000000000000000E+000
  0.000000000000000E+000
  0.000000000000000E+000
  0.000000000000000E+000
  0.000000000000000E+000
  0.000000000000000E+000
  0.000000000000000E+000
  0.000000000000000E+000
  0.000000000000000E+000
  0.000000000000000E+000
  0.000000000000000E+000
  0.000000000000000E+000
  0.000000000000000E+000
  0.000000000000000E+000
  0.000000000000000E+000
  0.000000000000000E+000
  0.000000000000000E+000
  0.000000000000000E+000
  0.000000000000000E+000
  0.000000000000000E+000
  0.000000000000000E+000
  0.000000000000000E+000
  0.000000000000000E+000
  0.000000000000000E+000
  0.000000000000000E+000
  0.000000000000000E+000
  0.000000000000000E+000
  0.000000000000000E+000
  0.000000000000000E+000
  0.000000000000000E+000
  0.000000000000000E+000
  0.000000000000000E+000
  0.000000000000000E+000
  0.000000000000000E+000
  0.000000000000000E+000
  0.000000000000000E+000
  0.000000000000000E+000
  0.000000000000000E+000
  0.000000000000000E+000
  0.000000000000000E+000
  0.000000000000000E+000
  0.000000000000000E+000
  0.000000000000000E+000
  0.000000000000000E+000
  0.000000000000000E+000
  0.000000000000000E+000
  0.000000000000000E+000
  0.000000000000000E+000
  0.000000000000000E+000
  0.000000000000000E+000
  0.000000000000000E+000
  0.000000000000000E+000
  0.000000000000000E+000
  0.000000000000000E+000
  0.000000000000000E+000
  0.000000000000000E+000
  0.000000000000000E+000
  0.000000000000000E+000
  0.000000000000000E+000
  0.000000000000000E+000
  0.000000000000000E+000
  0.000000000000000E+000
  0.000000000000000E+000
  0.000000000000000E+000
  0.000000000000000E+000
  0.000000000000000E+000
  0.000000000000000E+000
  0.000000000000000E+000
  0.000000000000000E+000
  0.000000000000000E+000
  0.000000000000000E+000
  0.000000000000000E+000
  0.000000000000000E+000
  0.000000000000000E+000
  0.000000000000000E+000
  0.000000000000000E+000
  0.000000000000000E+000
  0.000000000000000E+000
  0.000000000000000E+000
  0.000000000000000E+000
  0.000000000000000E+000
  0.000000000000000E+000
  0.000000000000000E+000
  0.000000000000000E+000
  0.000000000000000E+000
  0.000000000000000E+000
  0.000000000000000E+000
  0.000000000000000E+000
  0.000000000000000E+000
  0.000000000000000E+000
  0.000000000000000E+000
  0.000000000000000E+000
  0.000000000000000E+000
  0.000000000000000E+000
  0.000000000000000E+000
  0.000000000000000E+000
  0.000000000000000E+000
  0.000000000000000E+000
  0.000000000000000E+000
  0.000000000000000E+000
  0.000000000000000E+000
  0.000000000000000E+000
  0.000000000000000E+000
  0.000000000000000E+000
  0.000000000000000E+000
  0.000000000000000E+000
  0.000000000000000E+000
  0.000000000000000E+000
  0.000000000000000E+000
  0.000000000000000E+000
  0.000000000000000E+000
  0.000000000000000E+000
  0.000000000000000E+000
  0.000000000000000E+000
  0.000000000000000E+000
  0.000000000000000E+000
  0.000000000000000E+000
  0.000000000000000E+000
  0.000000000000000E+000
  0.000000000000000E+000
  0.000000000000000E+000
  0.000000000000000E+000
  0.000000000000000E+000
  0.000000000000000E+000
  0.000000000000000E+000
  0.000000000000000E+000
  0.000000000000000E+000
  0.000000000000000E+000
  0.000000000000000E+000
  0.000000000000000E+000
  0.000000000000000E+000
  0.000000000000000E+000
  0.000000000000000E+000
  0.000000000000000E+000
  0.000000000000000E+000
  0.000000000000000E+000
  0.000000000000000E+000
  0.000000000000000E+000
  0.000000000000000E+000
  0.000000000000000E+000
  0.000000000000000E+000
  0.000000000000000E+000
  0.000000000000000E+000
  0.000000000000000E+000
  0.000000000000000E+000
  0.000000000000000E+000
  0.000000000000000E+000
  0.000000000000000E+000
  0.000000000000000E+000
  0.000000000000000E+000
  0.000000000000000E+000
  0.000000000000000E+000
  0.000000000000000E+000
  0.000000000000000E+000
  0.000000000000000E+000
  0.000000000000000E+000
  0.000000000000000E+000
  0.000000000000000E+000
  0.000000000000000E+000
  0.000000000000000E+000
  0.000000000000000E+000
  0.000000000000000E+000
  0.000000000000000E+000
  0.000000000000000E+000
  0.000000000000000E+000
  0.000000000000000E+000
  0.000000000000000E+000
  0.000000000000000E+000
  0.000000000000000E+000
  0.000000000000000E+000
  0.000000000000000E+000
  0.000000000000000E+000
  0.000000000000000E+000
  0.000000000000000E+000
  0.000000000000000E+000
  0.000000000000000E+000
  0.000000000000000E+000
  0.000000000000000E+000
  0.000000000000000E+000
  0.000000000000000E+000
  0.000000000000000E+000
  0.000000000000000E+000
  0.000000000000000E+000
  0.000000000000000E+000
  0.000000000000000E+000
  0.000000000000000E+000
  0.000000000000000E+000
  0.000000000000000E+000
  0.000000000000000E+000
  0.000000000000000E+000
  0.000000000000000E+000
  0.000000000000000E+000
  0.000000000000000E+000
  0.000000000000000E+000
  0.000000000000000E+000
  0.000000000000000E+000
  0.000000000000000E+000
  0.000000000000000E+000
  0.000000000000000E+000
  0.000000000000000E+000
  0.000000000000000E+000
  0.000000000000000E+000
  0.000000000000000E+000
  0.000000000000000E+000
  0.000000000000000E+000
  0.000000000000000E+000
  0.000000000000000E+000
  0.000000000000000E+000
  0.000000000000000E+000
  0.000000000000000E+000
  0.000000000000000E+000
  0.000000000000000E+000
  0.000000000000000E+000
  0.000000000000000E+000
  0.000000000000000E+000
  0.000000000000000E+000
  0.000000000000000E+000
  0.000000000000000E+000
  0.000000000000000E+000
  0.000000000000000E+000
  0.000000000000000E+000
  0.000000000000000E+000
  0.000000000000000E+000
  0.000000000000000E+000
  0.000000000000000E+000
  0.000000000000000E+000
  0.000000000000000E+000
  0.000000000000000E+000
  0.000000000000000E+000
  0.000000000000000E+000
  0.000000000000000E+000
  0.000000000000000E+000
  0.000000000000000E+000
  0.000000000000000E+000
  0.000000000000000E+000
  0.000000000000000E+000
  0.000000000000000E+000
  0.000000000000000E+000
  0.000000000000000E+000
  0.000000000000000E+000
  0.000000000000000E+000
  0.000000000000000E+000
  0.000000000000000E+000
  0.000000000000000E+000
  0.000000000000000E+000
  0.000000000000000E+000
  0.000000000000000E+000
  0.000000000000000E+000
  0.000000000000000E+000
  0.000000000000000E+000
  0.000000000000000E+000
  0.000000000000000E+000
  0.000000000000000E+000
  0.000000000000000E+000
  0.000000000000000E+000
  0.000000000000000E+000
  0.000000000000000E+000
  0.000000000000000E+000
  0.000000000000000E+000
  0.000000000000000E+000
  0.000000000000000E+000
  0.000000000000000E+000
  0.000000000000000E+000
  0.000000000000000E+000
  0.000000000000000E+000
  0.000000000000000E+000
  0.000000000000000E+000
  0.000000000000000E+000
  0.000000000000000E+000
  0.000000000000000E+000
  0.000000000000000E+000
  0.000000000000000E+000
  0.000000000000000E+000
  0.000000000000000E+000
  0.000000000000000E+000
  0.000000000000000E+000
  0.000000000000000E+000
  0.000000000000000E+000
  0.000000000000000E+000
  0.000000000000000E+000
  0.000000000000000E+000
  0.000000000000000E+000
  0.000000000000000E+000
  0.000000000000000E+000
  0.000000000000000E+000
  0.000000000000000E+000
  0.000000000000000E+000
  0.000000000000000E+000
  0.000000000000000E+000
  0.000000000000000E+000
  0.000000000000000E+000
  0.000000000000000E+000
  0.000000000000000E+000
  0.000000000000000E+000
  0.000000000000000E+000
  0.000000000000000E+000
  0.000000000000000E+000
  0.000000000000000E+000
  0.000000000000000E+000
  0.000000000000000E+000
  0.000000000000000E+000
  0.000000000000000E+000
  0.000000000000000E+000
  0.000000000000000E+000
  0.000000000000000E+000
  0.000000000000000E+000
  0.000000000000000E+000
  0.000000000000000E+000
  0.000000000000000E+000
  0.000000000000000E+000
  0.000000000000000E+000
  0.000000000000000E+000
  0.000000000000000E+000
  0.000000000000000E+000
  0.000000000000000E+000
  0.000000000000000E+000
  0.000000000000000E+000
  0.000000000000000E+000
  0.000000000000000E+000
  0.000000000000000E+000
  0.000000000000000E+000
  0.000000000000000E+000
  0.000000000000000E+000
  0.000000000000000E+000
  0.000000000000000E+000
  0.000000000000000E+000
  0.000000000000000E+000
  0.000000000000000E+000
  0.000000000000000E+000
  0.000000000000000E+000
  0.000000000000000E+000
  0.000000000000000E+000
  0.000000000000000E+000
  0.000000000000000E+000
  0.000000000000000E+000
  0.000000000000000E+000
  0.000000000000000E+000
  0.000000000000000E+000
  0.000000000000000E+000
  0.000000000000000E+000
  0.000000000000000E+000
  0.000000000000000E+000
  0.000000000000000E+000
  0.000000000000000E+000
  0.000000000000000E+000
  0.000000000000000E+000
  0.000000000000000E+000
  0.000000000000000E+000
  0.000000000000000E+000
  0.000000000000000E+000
  0.000000000000000E+000
  0.000000000000000E+000
  0.000000000000000E+000
  0.000000000000000E+000
  0.000000000000000E+000
  0.000000000000000E+000
  0.000000000000000E+000
  0.000000000000000E+000
  0.000000000000000E+000
  0.000000000000000E+000
  0.000000000000000E+000
  0.000000000000000E+000
  0.000000000000000E+000
  0.000000000000000E+000
  0.000000000000000E+000
  0.000000000000000E+000
  0.000000000000000E+000
  0.000000000000000E+000
  0.000000000000000E+000
  0.000000000000000E+000
  0.000000000000000E+000
  0.000000000000000E+000
  0.000000000000000E+000
  0.000000000000000E+000
  0.000000000000000E+000
  0.000000000000000E+000
  0.000000000000000E+000
  0.000000000000000E+000
  0.000000000000000E+000
  0.000000000000000E+000
  0.000000000000000E+000
  0.000000000000000E+000
  0.000000000000000E+000
  0.000000000000000E+000
  0.000000000000000E+000
  0.000000000000000E+000
  0.000000000000000E+000
  0.000000000000000E+000
  0.000000000000000E+000
  0.000000000000000E+000
  0.000000000000000E+000
  0.000000000000000E+000
  0.000000000000000E+000
  0.000000000000000E+000
  0.000000000000000E+000
  0.000000000000000E+000
  0.000000000000000E+000
  0.000000000000000E+000
  0.000000000000000E+000
  0.000000000000000E+000
  0.000000000000000E+000
  0.000000000000000E+000
  0.000000000000000E+000
  0.000000000000000E+000
  0.000000000000000E+000
  0.000000000000000E+000
  0.000000000000000E+000
  0.000000000000000E+000
  0.000000000000000E+000
  0.000000000000000E+000
  0.000000000000000E+000
  0.000000000000000E+000
  0.000000000000000E+000
  0.000000000000000E+000
  0.000000000000000E+000
  0.000000000000000E+000
  0.000000000000000E+000
  0.000000000000000E+000
  0.000000000000000E+000
  0.000000000000000E+000
  0.000000000000000E+000
  0.000000000000000E+000
  0.000000000000000E+000
  0.000000000000000E+000
  0.000000000000000E+000
  0.000000000000000E+000
  0.000000000000000E+000
  0.000000000000000E+000
  0.000000000000000E+000
  0.000000000000000E+000
  0.000000000000000E+000
  0.000000000000000E+000
  0.000000000000000E+000
  0.000000000000000E+000
  0.000000000000000E+000
  0.000000000000000E+000
  0.000000000000000E+000
  0.000000000000000E+000
  0.000000000000000E+000
  0.000000000000000E+000
  0.000000000000000E+000
  0.000000000000000E+000
  0.000000000000000E+000
  0.000000000000000E+000
  0.000000000000000E+000
  0.000000000000000E+000
  0.000000000000000E+000
  0.000000000000000E+000
  0.000000000000000E+000
  0.000000000000000E+000
  0.000000000000000E+000
  0.000000000000000E+000
  0.000000000000000E+000
  0.000000000000000E+000
  0.000000000000000E+000
  0.000000000000000E+000
  0.000000000000000E+000
  0.000000000000000E+000
  0.000000000000000E+000
  0.000000000000000E+000
  0.000000000000000E+000
  0.000000000000000E+000
  0.000000000000000E+000
  0.000000000000000E+000
  0.000000000000000E+000
  0.000000000000000E+000
  0.000000000000000E+000
  0.000000000000000E+000
  0.000000000000000E+000
  0.000000000000000E+000
  0.000000000000000E+000
  0.000000000000000E+000
  0.000000000000000E+000
  0.000000000000000E+000
  0.000000000000000E+000
  0.000000000000000E+000
  0.000000000000000E+000
  0.000000000000000E+000
  0.000000000000000E+000
  0.000000000000000E+000
  0.000000000000000E+000
  0.000000000000000E+000
  0.000000000000000E+000
  0.000000000000000E+000
  0.000000000000000E+000
  0.000000000000000E+000
  0.000000000000000E+000
  0.000000000000000E+000
  0.000000000000000E+000
  0.000000000000000E+000
  0.000000000000000E+000
  0.000000000000000E+000
  0.000000000000000E+000
  0.000000000000000E+000
  0.000000000000000E+000
  0.000000000000000E+000
  0.000000000000000E+000
  0.000000000000000E+000
  0.000000000000000E+000
  0.000000000000000E+000
  0.000000000000000E+000
  0.000000000000000E+000
  0.000000000000000E+000
  0.000000000000000E+000
  0.000000000000000E+000
  0.000000000000000E+000
  0.000000000000000E+000
  0.000000000000000E+000
  0.000000000000000E+000
  0.000000000000000E+000
  0.000000000000000E+000
  0.000000000000000E+000
  0.000000000000000E+000
  0.000000000000000E+000
  0.000000000000000E+000
  0.000000000000000E+000
  0.000000000000000E+000
  0.000000000000000E+000
  0.000000000000000E+000
  0.000000000000000E+000
  0.000000000000000E+000
  0.000000000000000E+000
  0.000000000000000E+000
  0.000000000000000E+000
  0.000000000000000E+000
  0.000000000000000E+000
  0.000000000000000E+000
  0.000000000000000E+000
  0.000000000000000E+000
  0.000000000000000E+000
  0.000000000000000E+000
  0.000000000000000E+000
  0.000000000000000E+000
  0.000000000000000E+000
  0.000000000000000E+000
  0.000000000000000E+000
  0.000000000000000E+000
  0.000000000000000E+000
  0.000000000000000E+000
  0.000000000000000E+000
  0.000000000000000E+000
  0.000000000000000E+000
  0.000000000000000E+000
  0.000000000000000E+000
  0.000000000000000E+000
  0.000000000000000E+000
  0.000000000000000E+000
  0.000000000000000E+000
  0.000000000000000E+000
  0.000000000000000E+000
  0.000000000000000E+000
  0.000000000000000E+000
  0.000000000000000E+000
  0.000000000000000E+000
  0.000000000000000E+000
  0.000000000000000E+000
  0.000000000000000E+000
  0.000000000000000E+000
  0.000000000000000E+000
  0.000000000000000E+000
  0.000000000000000E+000
  0.000000000000000E+000
  0.000000000000000E+000
  0.000000000000000E+000
  0.000000000000000E+000
  0.000000000000000E+000
  0.000000000000000E+000
  0.000000000000000E+000
  0.000000000000000E+000
  0.000000000000000E+000
  0.000000000000000E+000
  0.000000000000000E+000
  0.000000000000000E+000
  0.000000000000000E+000
  0.000000000000000E+000
  0.000000000000000E+000
  0.000000000000000E+000
  0.000000000000000E+000
  0.000000000000000E+000
  0.000000000000000E+000
  0.000000000000000E+000
  0.000000000000000E+000
  0.000000000000000E+000
  0.000000000000000E+000
  0.000000000000000E+000
  0.000000000000000E+000
  0.000000000000000E+000
  0.000000000000000E+000
  0.000000000000000E+000
  0.000000000000000E+000
  0.000000000000000E+000
  0.000000000000000E+000
  0.000000000000000E+000
  0.000000000000000E+000
  0.000000000000000E+000
  0.000000000000000E+000
  0.000000000000000E+000
  0.000000000000000E+000
  0.000000000000000E+000
  0.000000000000000E+000
  0.000000000000000E+000
  0.000000000000000E+000
  0.000000000000000E+000
  0.000000000000000E+000
  0.000000000000000E+000
  0.000000000000000E+000
  0.000000000000000E+000
  0.000000000000000E+000
  0.000000000000000E+000
  0.000000000000000E+000
  0.000000000000000E+000
  0.000000000000000E+000
  0.000000000000000E+000
  0.000000000000000E+000
  0.000000000000000E+000
  0.000000000000000E+000
  0.000000000000000E+000
  0.000000000000000E+000
  0.000000000000000E+000
  0.000000000000000E+000
  0.000000000000000E+000
  0.000000000000000E+000
  0.000000000000000E+000
  0.000000000000000E+000
  0.000000000000000E+000
  0.000000000000000E+000
  0.000000000000000E+000
  0.000000000000000E+000
  0.000000000000000E+000
  0.000000000000000E+000
  0.000000000000000E+000
  0.000000000000000E+000
  0.000000000000000E+000
  0.000000000000000E+000
  0.000000000000000E+000
  0.000000000000000E+000
  0.000000000000000E+000
  0.000000000000000E+000
  0.000000000000000E+000
  0.000000000000000E+000
  0.000000000000000E+000
  0.000000000000000E+000
  0.000000000000000E+000
  0.000000000000000E+000
  0.000000000000000E+000
  0.000000000000000E+000
  0.000000000000000E+000
  0.000000000000000E+000
  0.000000000000000E+000
  0.000000000000000E+000
  0.000000000000000E+000
  0.000000000000000E+000
  0.000000000000000E+000
  0.000000000000000E+000
  0.000000000000000E+000
  0.000000000000000E+000
  0.000000000000000E+000
  0.000000000000000E+000
  0.000000000000000E+000
  0.000000000000000E+000
  0.000000000000000E+000
  0.000000000000000E+000
  0.000000000000000E+000
  0.000000000000000E+000
  0.000000000000000E+000
  0.000000000000000E+000
  0.000000000000000E+000
  0.000000000000000E+000
  0.000000000000000E+000
  0.000000000000000E+000
  0.000000000000000E+000
  0.000000000000000E+000
  0.000000000000000E+000
  0.000000000000000E+000
  0.000000000000000E+000
  0.000000000000000E+000
  0.000000000000000E+000
  0.000000000000000E+000
  0.000000000000000E+000
  0.000000000000000E+000
  0.000000000000000E+000
  0.000000000000000E+000
  0.000000000000000E+000
  0.000000000000000E+000
  0.000000000000000E+000
  0.000000000000000E+000
  0.000000000000000E+000
  0.000000000000000E+000
  0.000000000000000E+000
  0.000000000000000E+000
  0.000000000000000E+000
  0.000000000000000E+000
  0.000000000000000E+000
  0.000000000000000E+000
  0.000000000000000E+000
  0.000000000000000E+000
  0.000000000000000E+000
  0.000000000000000E+000
  0.000000000000000E+000
  0.000000000000000E+000
  0.000000000000000E+000
  0.000000000000000E+000
  0.000000000000000E+000
  0.000000000000000E+000
  0.000000000000000E+000
  0.000000000000000E+000
  0.000000000000000E+000
  0.000000000000000E+000
  0.000000000000000E+000
  0.000000000000000E+000
  0.000000000000000E+000
  0.000000000000000E+000
  0.000000000000000E+000
  0.000000000000000E+000
  0.000000000000000E+000
  0.000000000000000E+000
  0.000000000000000E+000
  0.000000000000000E+000
  0.000000000000000E+000
  0.000000000000000E+000
  0.000000000000000E+000
  0.000000000000000E+000
  0.000000000000000E+000
  0.000000000000000E+000
  0.000000000000000E+000
  0.000000000000000E+000
  0.000000000000000E+000
  0.000000000000000E+000
  0.000000000000000E+000
  0.000000000000000E+000
  0.000000000000000E+000
  0.000000000000000E+000
  0.000000000000000E+000
  0.000000000000000E+000
  0.000000000000000E+000
  0.000000000000000E+000
  0.000000000000000E+000
  0.000000000000000E+000
  0.000000000000000E+000
  0.000000000000000E+000
  0.000000000000000E+000
  0.000000000000000E+000
  0.000000000000000E+000
  0.000000000000000E+000
  0.000000000000000E+000
  0.000000000000000E+000
  0.000000000000000E+000
  0.000000000000000E+000
  0.000000000000000E+000
  0.000000000000000E+000
  0.000000000000000E+000
  0.000000000000000E+000
  0.000000000000000E+000
  0.000000000000000E+000
  0.000000000000000E+000
  0.000000000000000E+000
  0.000000000000000E+000
  0.000000000000000E+000
  0.000000000000000E+000
  0.000000000000000E+000
  0.000000000000000E+000
  0.000000000000000E+000
  0.000000000000000E+000
  0.000000000000000E+000
  0.000000000000000E+000
  0.000000000000000E+000
  0.000000000000000E+000
  0.000000000000000E+000
  0.000000000000000E+000
  0.000000000000000E+000
  0.000000000000000E+000
  0.000000000000000E+000
  0.000000000000000E+000
  0.000000000000000E+000
  0.000000000000000E+000
  0.000000000000000E+000
  0.000000000000000E+000
  0.000000000000000E+000
  0.000000000000000E+000
  0.000000000000000E+000
  0.000000000000000E+000
  0.000000000000000E+000
  0.000000000000000E+000
  0.000000000000000E+000
  0.000000000000000E+000
  0.000000000000000E+000
  0.000000000000000E+000
  0.000000000000000E+000
  0.000000000000000E+000
  0.000000000000000E+000
  0.000000000000000E+000
  0.000000000000000E+000
  0.000000000000000E+000
  0.000000000000000E+000
  0.000000000000000E+000
  0.000000000000000E+000
  0.000000000000000E+000
  0.000000000000000E+000
  0.000000000000000E+000
  0.000000000000000E+000
  0.000000000000000E+000
  0.000000000000000E+000
  0.000000000000000E+000
  0.000000000000000E+000
  0.000000000000000E+000
  0.000000000000000E+000
  0.000000000000000E+000
  0.000000000000000E+000
  0.000000000000000E+000
  0.000000000000000E+000
  0.000000000000000E+000
  0.000000000000000E+000
  0.000000000000000E+000
  0.000000000000000E+000
  0.000000000000000E+000
  0.000000000000000E+000
  0.000000000000000E+000
  0.000000000000000E+000
  0.000000000000000E+000
  0.000000000000000E+000
  0.000000000000000E+000
  0.000000000000000E+000
  0.000000000000000E+000
  0.000000000000000E+000
  0.000000000000000E+000
  0.000000000000000E+000
  0.000000000000000E+000
  0.000000000000000E+000
  0.000000000000000E+000
  0.000000000000000E+000
  0.000000000000000E+000
  0.000000000000000E+000
  0.000000000000000E+000
  0.000000000000000E+000
  0.000000000000000E+000
  0.000000000000000E+000
  0.000000000000000E+000
  0.000000000000000E+000
  0.000000000000000E+000
  0.000000000000000E+000
  0.000000000000000E+000
  0.000000000000000E+000
  0.000000000000000E+000
  0.000000000000000E+000
  0.000000000000000E+000
  0.000000000000000E+000
  0.000000000000000E+000
  0.000000000000000E+000
  0.000000000000000E+000
  0.000000000000000E+000
  0.000000000000000E+000
  0.000000000000000E+000
  0.000000000000000E+000
  0.000000000000000E+000
  0.000000000000000E+000
  0.000000000000000E+000
  0.000000000000000E+000
  0.000000000000000E+000
  0.000000000000000E+000
  0.000000000000000E+000
  0.000000000000000E+000
  0.000000000000000E+000
  0.000000000000000E+000
  0.000000000000000E+000
  0.000000000000000E+000
  0.000000000000000E+000
  0.000000000000000E+000
  0.000000000000000E+000
  0.000000000000000E+000
  0.000000000000000E+000
  0.000000000000000E+000
  0.000000000000000E+000
  0.000000000000000E+000
  0.000000000000000E+000
  0.000000000000000E+000
  0.000000000000000E+000
  0.000000000000000E+000
  0.000000000000000E+000
  0.000000000000000E+000
  0.000000000000000E+000
  0.000000000000000E+000
  0.000000000000000E+000
  0.000000000000000E+000
  0.000000000000000E+000
  0.000000000000000E+000
  0.000000000000000E+000
  0.000000000000000E+000
  0.000000000000000E+000
  0.000000000000000E+000
  0.000000000000000E+000
  0.000000000000000E+000
  0.000000000000000E+000
  0.000000000000000E+000
  0.000000000000000E+000
  0.000000000000000E+000
  0.000000000000000E+000
  0.000000000000000E+000
  0.000000000000000E+000
  0.000000000000000E+000
  0.000000000000000E+000
  0.000000000000000E+000
  0.000000000000000E+000
  0.000000000000000E+000
  0.000000000000000E+000
  0.000000000000000E+000
  0.000000000000000E+000
  0.000000000000000E+000
  0.000000000000000E+000
  0.000000000000000E+000
  0.000000000000000E+000
  0.000000000000000E+000
  0.000000000000000E+000
  0.000000000000000E+000
  0.000000000000000E+000
  0.000000000000000E+000
  0.000000000000000E+000
  0.000000000000000E+000
  0.000000000000000E+000
  0.000000000000000E+000
  0.000000000000000E+000
  0.000000000000000E+000
  0.000000000000000E+000
  0.000000000000000E+000
  0.000000000000000E+000
  0.000000000000000E+000
  0.000000000000000E+000
  0.000000000000000E+000
  0.000000000000000E+000
  0.000000000000000E+000
  0.000000000000000E+000
  0.000000000000000E+000
  0.000000000000000E+000
  0.000000000000000E+000
  0.000000000000000E+000
  0.000000000000000E+000
  0.000000000000000E+000
  0.000000000000000E+000
  0.000000000000000E+000
  0.000000000000000E+000
  0.000000000000000E+000
  0.000000000000000E+000
  0.000000000000000E+000
  0.000000000000000E+000
  0.000000000000000E+000
  0.000000000000000E+000
  0.000000000000000E+000
  0.000000000000000E+000
  0.000000000000000E+000
  0.000000000000000E+000
  0.000000000000000E+000
  0.000000000000000E+000
  0.000000000000000E+000
  0.000000000000000E+000
  0.000000000000000E+000
  0.000000000000000E+000
  0.000000000000000E+000
  0.000000000000000E+000
  0.000000000000000E+000
  0.000000000000000E+000
  0.000000000000000E+000
  0.000000000000000E+000
  0.000000000000000E+000
  0.000000000000000E+000
  0.000000000000000E+000
  0.000000000000000E+000
  0.000000000000000E+000
  0.000000000000000E+000
  0.000000000000000E+000
  0.000000000000000E+000
  0.000000000000000E+000
  0.000000000000000E+000
  0.000000000000000E+000
  0.000000000000000E+000
  0.000000000000000E+000
  0.000000000000000E+000
  0.000000000000000E+000
  0.000000000000000E+000
  0.000000000000000E+000
  0.000000000000000E+000
  0.000000000000000E+000
  0.000000000000000E+000
  0.000000000000000E+000
  0.000000000000000E+000
  0.000000000000000E+000
  0.000000000000000E+000
  0.000000000000000E+000
  0.000000000000000E+000
  0.000000000000000E+000
  0.000000000000000E+000
  0.000000000000000E+000
  0.000000000000000E+000
  0.000000000000000E+000
  0.000000000000000E+000
  0.000000000000000E+000
  0.000000000000000E+000
  0.000000000000000E+000
  0.000000000000000E+000
  0.000000000000000E+000
  0.000000000000000E+000
  0.000000000000000E+000
  0.000000000000000E+000
  0.000000000000000E+000
  0.000000000000000E+000
  0.000000000000000E+000
  0.000000000000000E+000
  0.000000000000000E+000
  0.000000000000000E+000
  0.000000000000000E+000
  0.000000000000000E+000
  0.000000000000000E+000
  0.000000000000000E+000
  0.000000000000000E+000
  0.000000000000000E+000
  0.000000000000000E+000
  0.000000000000000E+000
  0.000000000000000E+000
  0.000000000000000E+000
  0.000000000000000E+000
  0.000000000000000E+000
  0.000000000000000E+000
  0.000000000000000E+000
  0.000000000000000E+000
  0.000000000000000E+000
  0.000000000000000E+000
  0.000000000000000E+000
  0.000000000000000E+000
  0.000000000000000E+000
  0.000000000000000E+000
  0.000000000000000E+000
  0.000000000000000E+000
  0.000000000000000E+000
  0.000000000000000E+000
  0.000000000000000E+000
  0.000000000000000E+000
  0.000000000000000E+000
  0.000000000000000E+000
  0.000000000000000E+000
  0.000000000000000E+000
  0.000000000000000E+000
  0.000000000000000E+000
  0.000000000000000E+000
  0.000000000000000E+000
  0.000000000000000E+000
  0.000000000000000E+000
  0.000000000000000E+000
  0.000000000000000E+000
  0.000000000000000E+000
  0.000000000000000E+000
  0.000000000000000E+000
  0.000000000000000E+000
  0.000000000000000E+000
  0.000000000000000E+000
  0.000000000000000E+000
  0.000000000000000E+000
  0.000000000000000E+000
  0.000000000000000E+000
  0.000000000000000E+000
  0.000000000000000E+000
  0.000000000000000E+000
  0.000000000000000E+000
  0.000000000000000E+000
  0.000000000000000E+000
  0.000000000000000E+000
  0.000000000000000E+000
  0.000000000000000E+000
  0.000000000000000E+000
  0.000000000000000E+000
  0.000000000000000E+000
  0.000000000000000E+000
  0.000000000000000E+000
  0.000000000000000E+000
  0.000000000000000E+000
  0.000000000000000E+000
  0.000000000000000E+000
  0.000000000000000E+000
  0.000000000000000E+000
  0.000000000000000E+000
  0.000000000000000E+000
  0.000000000000000E+000
  0.000000000000000E+000
  0.000000000000000E+000
  0.000000000000000E+000
  0.000000000000000E+000
  0.000000000000000E+000
  0.000000000000000E+000
  0.000000000000000E+000
  0.000000000000000E+000
  0.000000000000000E+000
  0.000000000000000E+000
  0.000000000000000E+000
  0.000000000000000E+000
  0.000000000000000E+000
  0.000000000000000E+000
  0.000000000000000E+000
  0.000000000000000E+000
  0.000000000000000E+000
  0.000000000000000E+000
  0.000000000000000E+000
  0.000000000000000E+000
  0.000000000000000E+000
  0.000000000000000E+000
  0.000000000000000E+000
  0.000000000000000E+000
  0.000000000000000E+000
  0.000000000000000E+000
  0.000000000000000E+000
  0.000000000000000E+000
  0.000000000000000E+000
  0.000000000000000E+000
  0.000000000000000E+000
  0.000000000000000E+000
  0.000000000000000E+000
  0.000000000000000E+000
  0.000000000000000E+000
  0.000000000000000E+000
  0.000000000000000E+000
  0.000000000000000E+000
  0.000000000000000E+000
  0.000000000000000E+000
  0.000000000000000E+000
  0.000000000000000E+000
  0.000000000000000E+000
  0.000000000000000E+000
  0.000000000000000E+000
  0.000000000000000E+000
  0.000000000000000E+000
  0.000000000000000E+000
  0.000000000000000E+000
  0.000000000000000E+000
  0.000000000000000E+000
  0.000000000000000E+000
  0.000000000000000E+000
  0.000000000000000E+000
  0.000000000000000E+000
  0.000000000000000E+000
  0.000000000000000E+000
  0.000000000000000E+000
  0.000000000000000E+000
  0.000000000000000E+000
  0.000000000000000E+000
  0.000000000000000E+000
  0.000000000000000E+000
  0.000000000000000E+000
  0.000000000000000E+000
  0.000000000000000E+000
  0.000000000000000E+000
  0.000000000000000E+000
  0.000000000000000E+000
  0.000000000000000E+000
  0.000000000000000E+000
  0.000000000000000E+000
  0.000000000000000E+000
  0.000000000000000E+000
  0.000000000000000E+000
  0.000000000000000E+000
  0.000000000000000E+000
  0.000000000000000E+000
  0.000000000000000E+000
  0.000000000000000E+000
  0.000000000000000E+000
  0.000000000000000E+000
  0.000000000000000E+000
  0.000000000000000E+000
  0.000000000000000E+000
  0.000000000000000E+000
  0.000000000000000E+000
  0.000000000000000E+000
  0.000000000000000E+000
  0.000000000000000E+000
  0.000000000000000E+000
  0.000000000000000E+000
  0.000000000000000E+000
  0.000000000000000E+000
  0.000000000000000E+000
  0.000000000000000E+000
  0.000000000000000E+000
  0.000000000000000E+000
  0.000000000000000E+000
  0.000000000000000E+000
  0.000000000000000E+000
  0.000000000000000E+000
  0.000000000000000E+000
  0.000000000000000E+000
  0.000000000000000E+000
  0.000000000000000E+000
  0.000000000000000E+000
  0.000000000000000E+000
  0.000000000000000E+000
  0.000000000000000E+000
  0.000000000000000E+000
  0.000000000000000E+000
  0.000000000000000E+000
  0.000000000000000E+000
  0.000000000000000E+000
  0.000000000000000E+000
  0.000000000000000E+000
  0.000000000000000E+000
  0.000000000000000E+000
  0.000000000000000E+000
  0.000000000000000E+000
  0.000000000000000E+000
  0.000000000000000E+000
  0.000000000000000E+000
  0.000000000000000E+000
  0.000000000000000E+000
  0.000000000000000E+000
  0.000000000000000E+000
  0.000000000000000E+000
  0.000000000000000E+000
  0.000000000000000E+000
  0.000000000000000E+000
  0.000000000000000E+000
  0.000000000000000E+000
  0.000000000000000E+000
  0.000000000000000E+000
  0.000000000000000E+000
  0.000000000000000E+000
  0.000000000000000E+000
  0.000000000000000E+000
  0.000000000000000E+000
  0.000000000000000E+000
  0.000000000000000E+000
  0.000000000000000E+000
  0.000000000000000E+000
  0.000000000000000E+000
  0.000000000000000E+000
  0.000000000000000E+000
  0.000000000000000E+000
  0.000000000000000E+000
  0.000000000000000E+000
  0.000000000000000E+000
  0.000000000000000E+000
  0.000000000000000E+000
  0.000000000000000E+000
  0.000000000000000E+000
  0.000000000000000E+000
  0.000000000000000E+000
  0.000000000000000E+000
  0.000000000000000E+000
  0.000000000000000E+000
  0.000000000000000E+000
  0.000000000000000E+000
  0.000000000000000E+000
  0.000000000000000E+000
  0.000000000000000E+000
  0.000000000000000E+000
  0.000000000000000E+000
  0.000000000000000E+000
  0.000000000000000E+000
  0.000000000000000E+000
  0.000000000000000E+000
  0.000000000000000E+000
  0.000000000000000E+000
  0.000000000000000E+000
  0.000000000000000E+000
  0.000000000000000E+000
  0.000000000000000E+000
  0.000000000000000E+000
  0.000000000000000E+000
  0.000000000000000E+000
  0.000000000000000E+000
  0.000000000000000E+000
  0.000000000000000E+000
  0.000000000000000E+000
  0.000000000000000E+000
  0.000000000000000E+000
  0.000000000000000E+000
  0.000000000000000E+000
  0.000000000000000E+000
  0.000000000000000E+000
  0.000000000000000E+000
  0.000000000000000E+000
  0.000000000000000E+000
  0.000000000000000E+000
  0.000000000000000E+000
  0.000000000000000E+000
  0.000000000000000E+000
  0.000000000000000E+000
  0.000000000000000E+000
  0.000000000000000E+000
  0.000000000000000E+000
  0.000000000000000E+000
  0.000000000000000E+000
  0.000000000000000E+000
  0.000000000000000E+000
  0.000000000000000E+000
  0.000000000000000E+000
  0.000000000000000E+000
  0.000000000000000E+000
  0.000000000000000E+000
  0.000000000000000E+000
  0.000000000000000E+000
  0.000000000000000E+000
  0.000000000000000E+000
  0.000000000000000E+000
  0.000000000000000E+000
  0.000000000000000E+000
  0.000000000000000E+000
  0.000000000000000E+000
  0.000000000000000E+000
  0.000000000000000E+000
  0.000000000000000E+000
  0.000000000000000E+000
  0.000000000000000E+000
  0.000000000000000E+000
  0.000000000000000E+000
  0.000000000000000E+000
  0.000000000000000E+000
  0.000000000000000E+000
  0.000000000000000E+000
  0.000000000000000E+000
  0.000000000000000E+000
  0.000000000000000E+000
  0.000000000000000E+000
  0.000000000000000E+000
  0.000000000000000E+000
  0.000000000000000E+000
  0.000000000000000E+000
  0.000000000000000E+000
  0.000000000000000E+000
  0.000000000000000E+000
  0.000000000000000E+000
  0.000000000000000E+000
  0.000000000000000E+000
  0.000000000000000E+000
  0.000000000000000E+000
  0.000000000000000E+000
  0.000000000000000E+000
  0.000000000000000E+000
  0.000000000000000E+000
  0.000000000000000E+000
  0.000000000000000E+000
  0.000000000000000E+000
  0.000000000000000E+000
  0.000000000000000E+000
  0.000000000000000E+000
  0.000000000000000E+000
  0.000000000000000E+000
  0.000000000000000E+000
  0.000000000000000E+000
  0.000000000000000E+000
  0.000000000000000E+000
  0.000000000000000E+000
  0.000000000000000E+000
  0.000000000000000E+000
  0.000000000000000E+000
  0.000000000000000E+000
  0.000000000000000E+000
  0.000000000000000E+000
  0.000000000000000E+000
  0.000000000000000E+000
  0.000000000000000E+000
  0.000000000000000E+000
  0.000000000000000E+000
  0.000000000000000E+000
  0.000000000000000E+000
  0.000000000000000E+000
  0.000000000000000E+000
  0.000000000000000E+000
  0.000000000000000E+000
  0.000000000000000E+000
  0.000000000000000E+000
  0.000000000000000E+000
  0.000000000000000E+000
  0.000000000000000E+000
  0.000000000000000E+000
  0.000000000000000E+000
  0.000000000000000E+000
  0.000000000000000E+000
  0.000000000000000E+000
  0.000000000000000E+000
  0.000000000000000E+000
  0.000000000000000E+000
  0.000000000000000E+000
  0.000000000000000E+000
  0.000000000000000E+000
  0.000000000000000E+000
  0.000000000000000E+000
  0.000000000000000E+000
  0.000000000000000E+000
  0.000000000000000E+000
  0.000000000000000E+000
  0.000000000000000E+000
  0.000000000000000E+000
  0.000000000000000E+000
  0.000000000000000E+000
  0.000000000000000E+000
  0.000000000000000E+000
  0.000000000000000E+000
  0.000000000000000E+000
  0.000000000000000E+000
  0.000000000000000E+000
  0.000000000000000E+000
  0.000000000000000E+000
  0.000000000000000E+000
  0.000000000000000E+000
  0.000000000000000E+000
  0.000000000000000E+000
  0.000000000000000E+000
  0.000000000000000E+000
  0.000000000000000E+000
  0.000000000000000E+000
  0.000000000000000E+000
  0.000000000000000E+000
  0.000000000000000E+000
  0.000000000000000E+000
  0.000000000000000E+000
  0.000000000000000E+000
  0.000000000000000E+000
  0.000000000000000E+000
  0.000000000000000E+000
  0.000000000000000E+000
  0.000000000000000E+000
  0.000000000000000E+000
  0.000000000000000E+000
  0.000000000000000E+000
  0.000000000000000E+000
  0.000000000000000E+000
  0.000000000000000E+000
  0.000000000000000E+000
  0.000000000000000E+000
  0.000000000000000E+000
  0.000000000000000E+000
  0.000000000000000E+000
  0.000000000000000E+000
  0.000000000000000E+000
  0.000000000000000E+000
  0.000000000000000E+000
  0.000000000000000E+000
  0.000000000000000E+000
  0.000000000000000E+000
  0.000000000000000E+000
  0.000000000000000E+000
  0.000000000000000E+000
  0.000000000000000E+000
  0.000000000000000E+000
  0.000000000000000E+000
  0.000000000000000E+000
  0.000000000000000E+000
  0.000000000000000E+000
  0.000000000000000E+000
  0.000000000000000E+000
  0.000000000000000E+000
  0.000000000000000E+000
  0.000000000000000E+000
  0.000000000000000E+000
  0.000000000000000E+000
  0.000000000000000E+000
  0.000000000000000E+000
  0.000000000000000E+000
  0.000000000000000E+000
  0.000000000000000E+000
  0.000000000000000E+000
  0.000000000000000E+000
  0.000000000000000E+000
  0.000000000000000E+000
  0.000000000000000E+000
  0.000000000000000E+000
  0.000000000000000E+000
  0.000000000000000E+000
  0.000000000000000E+000
  0.000000000000000E+000
  0.000000000000000E+000
  0.000000000000000E+000
  0.000000000000000E+000
  0.000000000000000E+000
  0.000000000000000E+000
  0.000000000000000E+000
  0.000000000000000E+000
  0.000000000000000E+000
  0.000000000000000E+000
  0.000000000000000E+000
  0.000000000000000E+000
  0.000000000000000E+000
  0.000000000000000E+000
  0.000000000000000E+000
  0.000000000000000E+000
  0.000000000000000E+000
  0.000000000000000E+000
  0.000000000000000E+000
  0.000000000000000E+000
  0.000000000000000E+000
  0.000000000000000E+000
  0.000000000000000E+000
  0.000000000000000E+000
  0.000000000000000E+000
  0.000000000000000E+000
  0.000000000000000E+000
  0.000000000000000E+000
  0.000000000000000E+000
  0.000000000000000E+000
  0.000000000000000E+000
  0.000000000000000E+000
  0.000000000000000E+000
  0.000000000000000E+000
  0.000000000000000E+000
  0.000000000000000E+000
  0.000000000000000E+000
  0.000000000000000E+000
  0.000000000000000E+000
  0.000000000000000E+000
  0.000000000000000E+000
  0.000000000000000E+000
  0.000000000000000E+000
  0.000000000000000E+000
  0.000000000000000E+000
  0.000000000000000E+000
  0.000000000000000E+000
  0.000000000000000E+000
  0.000000000000000E+000
  0.000000000000000E+000
  0.000000000000000E+000
  0.000000000000000E+000
  0.000000000000000E+000
  0.000000000000000E+000
  0.000000000000000E+000
  0.000000000000000E+000
  0.000000000000000E+000
  0.000000000000000E+000
  0.000000000000000E+000
  0.000000000000000E+000
  0.000000000000000E+000
  0.000000000000000E+000
  0.000000000000000E+000
  0.000000000000000E+000
  0.000000000000000E+000
  0.000000000000000E+000
  0.000000000000000E+000
  0.000000000000000E+000
  0.000000000000000E+000
  0.000000000000000E+000
  0.000000000000000E+000
  0.000000000000000E+000
  0.000000000000000E+000
  0.000000000000000E+000
  0.000000000000000E+000
  0.000000000000000E+000
  0.000000000000000E+000
  0.000000000000000E+000
  0.000000000000000E+000
  0.000000000000000E+000
  0.000000000000000E+000
  0.000000000000000E+000
  0.000000000000000E+000
  0.000000000000000E+000
  0.000000000000000E+000
  0.000000000000000E+000
  0.000000000000000E+000
  0.000000000000000E+000
  0.000000000000000E+000
  0.000000000000000E+000
  0.000000000000000E+000
  0.000000000000000E+000
  0.000000000000000E+000
  0.000000000000000E+000
  0.000000000000000E+000
  0.000000000000000E+000
  0.000000000000000E+000
  0.000000000000000E+000
  0.000000000000000E+000
  0.000000000000000E+000
  0.000000000000000E+000
  0.000000000000000E+000
  0.000000000000000E+000
  0.000000000000000E+000
  0.000000000000000E+000
  0.000000000000000E+000
  0.000000000000000E+000
  0.000000000000000E+000
  0.000000000000000E+000
  0.000000000000000E+000
  0.000000000000000E+000
  0.000000000000000E+000
  0.000000000000000E+000
  0.000000000000000E+000
  0.000000000000000E+000
  0.000000000000000E+000
  0.000000000000000E+000
  0.000000000000000E+000
  0.000000000000000E+000
  0.000000000000000E+000
  0.000000000000000E+000
  0.000000000000000E+000
  0.000000000000000E+000
  0.000000000000000E+000
  0.000000000000000E+000
  0.000000000000000E+000
  0.000000000000000E+000
  0.000000000000000E+000
  0.000000000000000E+000
  0.000000000000000E+000
  0.000000000000000E+000
  0.000000000000000E+000
  0.000000000000000E+000
  0.000000000000000E+000
  0.000000000000000E+000
  0.000000000000000E+000
  0.000000000000000E+000
  0.000000000000000E+000
  0.000000000000000E+000
  0.000000000000000E+000
  0.000000000000000E+000
  0.000000000000000E+000
  0.000000000000000E+000
  0.000000000000000E+000
  0.000000000000000E+000
  0.000000000000000E+000
  0.000000000000000E+000
  0.000000000000000E+000
  0.000000000000000E+000
  0.000000000000000E+000
  0.000000000000000E+000
  0.000000000000000E+000
  0.000000000000000E+000
  0.000000000000000E+000
  0.000000000000000E+000
  0.000000000000000E+000
  0.000000000000000E+000
  0.000000000000000E+000
  0.000000000000000E+000
  0.000000000000000E+000
  0.000000000000000E+000
  0.000000000000000E+000
  0.000000000000000E+000
  0.000000000000000E+000
  0.000000000000000E+000
  0.000000000000000E+000
  0.000000000000000E+000
  0.000000000000000E+000
  0.000000000000000E+000
  0.000000000000000E+000
  0.000000000000000E+000
  0.000000000000000E+000
  0.000000000000000E+000
  0.000000000000000E+000
  0.000000000000000E+000
  0.000000000000000E+000
  0.000000000000000E+000
  0.000000000000000E+000
  0.000000000000000E+000
  0.000000000000000E+000
  0.000000000000000E+000
  0.000000000000000E+000
  0.000000000000000E+000
  0.000000000000000E+000
  0.000000000000000E+000
  0.000000000000000E+000
  0.000000000000000E+000
  0.000000000000000E+000
  0.000000000000000E+000
  0.000000000000000E+000
  0.000000000000000E+000
  0.000000000000000E+000
  0.000000000000000E+000
  0.000000000000000E+000
  0.000000000000000E+000
  0.000000000000000E+000
  0.000000000000000E+000
  0.000000000000000E+000
  0.000000000000000E+000
  0.000000000000000E+000
  0.000000000000000E+000
  0.000000000000000E+000
  0.000000000000000E+000
  0.000000000000000E+000
  0.000000000000000E+000
  0.000000000000000E+000
  0.000000000000000E+000
  0.000000000000000E+000
  0.000000000000000E+000
  0.000000000000000E+000
  0.000000000000000E+000
  0.000000000000000E+000
  0.000000000000000E+000
  0.000000000000000E+000
  0.000000000000000E+000
  0.000000000000000E+000
  0.000000000000000E+000
  0.000000000000000E+000
  0.000000000000000E+000
  0.000000000000000E+000
  0.000000000000000E+000
  0.000000000000000E+000
  0.000000000000000E+000
  0.000000000000000E+000
  0.000000000000000E+000
  0.000000000000000E+000
  0.000000000000000E+000
  0.000000000000000E+000
  0.000000000000000E+000
  0.000000000000000E+000
  0.000000000000000E+000
  0.000000000000000E+000
  0.000000000000000E+000
  0.000000000000000E+000
  0.000000000000000E+000
  0.000000000000000E+000
  0.000000000000000E+000
  0.000000000000000E+000
  0.000000000000000E+000
  0.000000000000000E+000
  0.000000000000000E+000
  0.000000000000000E+000
  0.000000000000000E+000
  0.000000000000000E+000
  0.000000000000000E+000
  0.000000000000000E+000
  0.000000000000000E+000
  0.000000000000000E+000
  0.000000000000000E+000
  0.000000000000000E+000
  0.000000000000000E+000
  0.000000000000000E+000
  0.000000000000000E+000
  0.000000000000000E+000
  0.000000000000000E+000
  0.000000000000000E+000
  0.000000000000000E+000
  0.000000000000000E+000
  0.000000000000000E+000
  0.000000000000000E+000
  0.000000000000000E+000
  0.000000000000000E+000
  0.000000000000000E+000
  0.000000000000000E+000
  0.000000000000000E+000
  0.000000000000000E+000
  0.000000000000000E+000
  0.000000000000000E+000
  0.000000000000000E+000
  0.000000000000000E+000
  0.000000000000000E+000
  0.000000000000000E+000
  0.000000000000000E+000
  0.000000000000000E+000
  0.000000000000000E+000
  0.000000000000000E+000
  0.000000000000000E+000
  0.000000000000000E+000
  0.000000000000000E+000
  0.000000000000000E+000
  0.000000000000000E+000
  0.000000000000000E+000
  0.000000000000000E+000
  0.000000000000000E+000
  0.000000000000000E+000
  0.000000000000000E+000
  0.000000000000000E+000
  0.000000000000000E+000
  0.000000000000000E+000
  0.000000000000000E+000
  0.000000000000000E+000
  0.000000000000000E+000
  0.000000000000000E+000
  0.000000000000000E+000
  0.000000000000000E+000
  0.000000000000000E+000
  0.000000000000000E+000
  0.000000000000000E+000
  0.000000000000000E+000
  0.000000000000000E+000
  0.000000000000000E+000
  0.000000000000000E+000
  0.000000000000000E+000
  0.000000000000000E+000
  0.000000000000000E+000
  0.000000000000000E+000
  0.000000000000000E+000
  0.000000000000000E+000
  0.000000000000000E+000
  0.000000000000000E+000
  0.000000000000000E+000
  0.000000000000000E+000
  0.000000000000000E+000
  0.000000000000000E+000
  0.000000000000000E+000
  0.000000000000000E+000
  0.000000000000000E+000
  0.000000000000000E+000
  0.000000000000000E+000
  0.000000000000000E+000
  0.000000000000000E+000
  0.000000000000000E+000
  0.000000000000000E+000
  0.000000000000000E+000
  0.000000000000000E+000
  0.000000000000000E+000
  0.000000000000000E+000
  0.000000000000000E+000
  0.000000000000000E+000
  0.000000000000000E+000
  0.000000000000000E+000
  0.000000000000000E+000
  0.000000000000000E+000
  0.000000000000000E+000
  0.000000000000000E+000
  0.000000000000000E+000
  0.000000000000000E+000
  0.000000000000000E+000
  0.000000000000000E+000
  0.000000000000000E+000
  0.000000000000000E+000
  0.000000000000000E+000
  0.000000000000000E+000
  0.000000000000000E+000
  0.000000000000000E+000
  0.000000000000000E+000
  0.000000000000000E+000
  0.000000000000000E+000
  0.000000000000000E+000
  0.000000000000000E+000
  0.000000000000000E+000
  0.000000000000000E+000
  0.000000000000000E+000
  0.000000000000000E+000
  0.000000000000000E+000
  0.000000000000000E+000
  0.000000000000000E+000
  0.000000000000000E+000
  0.000000000000000E+000
  0.000000000000000E+000
  0.000000000000000E+000
  0.000000000000000E+000
  0.000000000000000E+000
  0.000000000000000E+000
  0.000000000000000E+000
  0.000000000000000E+000
  0.000000000000000E+000
  0.000000000000000E+000
  0.000000000000000E+000
  0.000000000000000E+000
  0.000000000000000E+000
  0.000000000000000E+000
  0.000000000000000E+000
  0.000000000000000E+000
  0.000000000000000E+000
  0.000000000000000E+000
  0.000000000000000E+000
  0.000000000000000E+000
  0.000000000000000E+000
  0.000000000000000E+000
  0.000000000000000E+000
  0.000000000000000E+000
  0.000000000000000E+000
  0.000000000000000E+000
  0.000000000000000E+000
  0.000000000000000E+000
  0.000000000000000E+000
  0.000000000000000E+000
  0.000000000000000E+000
  0.000000000000000E+000
  0.000000000000000E+000
  0.000000000000000E+000
  0.000000000000000E+000
  0.000000000000000E+000
  0.000000000000000E+000
  0.000000000000000E+000
  0.000000000000000E+000
  0.000000000000000E+000
  0.000000000000000E+000
  0.000000000000000E+000
  0.000000000000000E+000
  0.000000000000000E+000
  0.000000000000000E+000
  0.000000000000000E+000
  0.000000000000000E+000
  0.000000000000000E+000
  0.000000000000000E+000
  0.000000000000000E+000
  0.000000000000000E+000
  0.000000000000000E+000
  0.000000000000000E+000
  0.000000000000000E+000
  0.000000000000000E+000
  0.000000000000000E+000
  0.000000000000000E+000
  0.000000000000000E+000
  0.000000000000000E+000
  0.000000000000000E+000
  0.000000000000000E+000
  0.000000000000000E+000
  0.000000000000000E+000
  0.000000000000000E+000
  0.000000000000000E+000
  0.000000000000000E+000
  0.000000000000000E+000
  0.000000000000000E+000
  0.000000000000000E+000
  0.000000000000000E+000
  0.000000000000000E+000
  0.000000000000000E+000
  0.000000000000000E+000
  0.000000000000000E+000
  0.000000000000000E+000
  0.000000000000000E+000
  0.000000000000000E+000
  0.000000000000000E+000
  0.000000000000000E+000
  0.000000000000000E+000
  0.000000000000000E+000
  0.000000000000000E+000
  0.000000000000000E+000
  0.000000000000000E+000
  0.000000000000000E+000
  0.000000000000000E+000
  0.000000000000000E+000
  0.000000000000000E+000
  0.000000000000000E+000
  0.000000000000000E+000
  0.000000000000000E+000
  0.000000000000000E+000
  0.000000000000000E+000
  0.000000000000000E+000
  0.000000000000000E+000
  0.000000000000000E+000
  0.000000000000000E+000
  0.000000000000000E+000
  0.000000000000000E+000
  0.000000000000000E+000
  0.000000000000000E+000
  0.000000000000000E+000
  0.000000000000000E+000
  0.000000000000000E+000
  0.000000000000000E+000
  0.000000000000000E+000
  0.000000000000000E+000
  0.000000000000000E+000
  0.000000000000000E+000
  0.000000000000000E+000
  0.000000000000000E+000
  0.000000000000000E+000
  0.000000000000000E+000
  0.000000000000000E+000
  0.000000000000000E+000
  0.000000000000000E+000
  0.000000000000000E+000
  0.000000000000000E+000
  0.000000000000000E+000
  0.000000000000000E+000
  0.000000000000000E+000
  0.000000000000000E+000
  0.000000000000000E+000
  0.000000000000000E+000
  0.000000000000000E+000
  0.000000000000000E+000
  0.000000000000000E+000
  0.000000000000000E+000
  0.000000000000000E+000
  0.000000000000000E+000
  0.000000000000000E+000
  0.000000000000000E+000
  0.000000000000000E+000
  0.000000000000000E+000
  0.000000000000000E+000
  0.000000000000000E+000
  0.000000000000000E+000
  0.000000000000000E+000
  0.000000000000000E+000
  0.000000000000000E+000
  0.000000000000000E+000
  0.000000000000000E+000
  0.000000000000000E+000
  0.000000000000000E+000
  0.000000000000000E+000
  0.000000000000000E+000
  0.000000000000000E+000
  0.000000000000000E+000
  0.000000000000000E+000
  0.000000000000000E+000
  0.000000000000000E+000
  0.000000000000000E+000
  0.000000000000000E+000
  0.000000000000000E+000
  0.000000000000000E+000
  0.000000000000000E+000
  0.000000000000000E+000
  0.000000000000000E+000
  0.000000000000000E+000
  0.000000000000000E+000
  0.000000000000000E+000
  0.000000000000000E+000
  0.000000000000000E+000
  0.000000000000000E+000
  0.000000000000000E+000
  0.000000000000000E+000
  0.000000000000000E+000
  0.000000000000000E+000
  0.000000000000000E+000
  0.000000000000000E+000
  0.000000000000000E+000
  0.000000000000000E+000
  0.000000000000000E+000
  0.000000000000000E+000
  0.000000000000000E+000
  0.000000000000000E+000
  0.000000000000000E+000
  0.000000000000000E+000
  0.000000000000000E+000
  0.000000000000000E+000
  0.000000000000000E+000
  0.000000000000000E+000
  0.000000000000000E+000
  0.000000000000000E+000
  0.000000000000000E+000
  0.000000000000000E+000
  0.000000000000000E+000
  0.000000000000000E+000
  0.000000000000000E+000
  0.000000000000000E+000
  0.000000000000000E+000
  0.000000000000000E+000
  0.000000000000000E+000
  0.000000000000000E+000
  0.000000000000000E+000
  0.000000000000000E+000
  0.000000000000000E+000
  0.000000000000000E+000
  0.000000000000000E+000
  0.000000000000000E+000
  0.000000000000000E+000
  0.000000000000000E+000
  0.000000000000000E+000
  0.000000000000000E+000
  0.000000000000000E+000
  0.000000000000000E+000
  0.000000000000000E+000
  0.000000000000000E+000
  0.000000000000000E+000
  0.000000000000000E+000
  0.000000000000000E+000
  0.000000000000000E+000
  0.000000000000000E+000
  0.000000000000000E+000
  0.000000000000000E+000
  0.000000000000000E+000
  0.000000000000000E+000
  0.000000000000000E+000
  0.000000000000000E+000
  0.000000000000000E+000
  0.000000000000000E+000
  0.000000000000000E+000
  0.000000000000000E+000
  0.000000000000000E+000
  0.000000000000000E+000
  0.000000000000000E+000
  0.000000000000000E+000
  0.000000000000000E+000
  0.000000000000000E+000
  0.000000000000000E+000
  0.000000000000000E+000
  0.000000000000000E+000
  0.000000000000000E+000
  0.000000000000000E+000
  0.000000000000000E+000
  0.000000000000000E+000
  0.000000000000000E+000
  0.000000000000000E+000
  0.000000000000000E+000
  0.000000000000000E+000
  0.000000000000000E+000
  0.000000000000000E+000
  0.000000000000000E+000
  0.000000000000000E+000
  0.000000000000000E+000
  0.000000000000000E+000
  0.000000000000000E+000
  0.000000000000000E+000
  0.000000000000000E+000
  0.000000000000000E+000
  0.000000000000000E+000
  0.000000000000000E+000
  0.000000000000000E+000
  0.000000000000000E+000
  0.000000000000000E+000
  0.000000000000000E+000
  0.000000000000000E+000
  0.000000000000000E+000
  0.000000000000000E+000
  0.000000000000000E+000
  0.000000000000000E+000
  0.000000000000000E+000
  0.000000000000000E+000
  0.000000000000000E+000
  0.000000000000000E+000
  0.000000000000000E+000
  0.000000000000000E+000
  0.000000000000000E+000
  0.000000000000000E+000
  0.000000000000000E+000
  0.000000000000000E+000
  0.000000000000000E+000
  0.000000000000000E+000
  0.000000000000000E+000
  0.000000000000000E+000
  0.000000000000000E+000
  0.000000000000000E+000
  0.000000000000000E+000
  0.000000000000000E+000
  0.000000000000000E+000
  0.000000000000000E+000
  0.000000000000000E+000
  0.000000000000000E+000
  0.000000000000000E+000
  0.000000000000000E+000
  0.000000000000000E+000
  0.000000000000000E+000
  0.000000000000000E+000
  0.000000000000000E+000
  0.000000000000000E+000
  0.000000000000000E+000
  0.000000000000000E+000
  0.000000000000000E+000
  0.000000000000000E+000
  0.000000000000000E+000
  0.000000000000000E+000
  0.000000000000000E+000
  0.000000000000000E+000
  0.000000000000000E+000
  0.000000000000000E+000
  0.000000000000000E+000
  0.000000000000000E+000
  0.000000000000000E+000
  0.000000000000000E+000
  0.000000000000000E+000
  0.000000000000000E+000
  0.000000000000000E+000
  0.000000000000000E+000
  0.000000000000000E+000
  0.000000000000000E+000
  0.000000000000000E+000
  0.000000000000000E+000
  0.000000000000000E+000
  0.000000000000000E+000
  0.000000000000000E+000
  0.000000000000000E+000
  0.000000000000000E+000
  0.000000000000000E+000
  0.000000000000000E+000
  0.000000000000000E+000
  0.000000000000000E+000
  0.000000000000000E+000
  0.000000000000000E+000
  0.000000000000000E+000
  0.000000000000000E+000
  0.000000000000000E+000
  0.000000000000000E+000
  0.000000000000000E+000
  0.000000000000000E+000
  0.000000000000000E+000
  0.000000000000000E+000
  0.000000000000000E+000
  0.000000000000000E+000
  0.000000000000000E+000
  0.000000000000000E+000
  0.000000000000000E+000
  0.000000000000000E+000
  0.000000000000000E+000
  0.000000000000000E+000
  0.000000000000000E+000
  0.000000000000000E+000
  0.000000000000000E+000
  0.000000000000000E+000
  0.000000000000000E+000
  0.000000000000000E+000
  0.000000000000000E+000
  0.000000000000000E+000
  0.000000000000000E+000
  0.000000000000000E+000
  0.000000000000000E+000
  0.000000000000000E+000
  0.000000000000000E+000
  0.000000000000000E+000
  0.000000000000000E+000
  0.000000000000000E+000
  0.000000000000000E+000
  0.000000000000000E+000
  0.000000000000000E+000
  0.000000000000000E+000
  0.000000000000000E+000
  0.000000000000000E+000
  0.000000000000000E+000
  0.000000000000000E+000
  0.000000000000000E+000
  0.000000000000000E+000
  0.000000000000000E+000
  0.000000000000000E+000
  0.000000000000000E+000
  0.000000000000000E+000
  0.000000000000000E+000
  0.000000000000000E+000
  0.000000000000000E+000
  0.000000000000000E+000
  0.000000000000000E+000
  0.000000000000000E+000
  0.000000000000000E+000
  0.000000000000000E+000
  0.000000000000000E+000
  0.000000000000000E+000
  0.000000000000000E+000
  0.000000000000000E+000
  0.000000000000000E+000
  0.000000000000000E+000
  0.000000000000000E+000
  0.000000000000000E+000
  0.000000000000000E+000
  0.000000000000000E+000
  0.000000000000000E+000
  0.000000000000000E+000
  0.000000000000000E+000
  0.000000000000000E+000
  0.000000000000000E+000
  0.000000000000000E+000
  0.000000000000000E+000
  0.000000000000000E+000
  0.000000000000000E+000
  0.000000000000000E+000
  0.000000000000000E+000
  0.000000000000000E+000
  0.000000000000000E+000
  0.000000000000000E+000
  0.000000000000000E+000
  0.000000000000000E+000
  0.000000000000000E+000
  0.000000000000000E+000
  0.000000000000000E+000
  0.000000000000000E+000
  0.000000000000000E+000
  0.000000000000000E+000
  0.000000000000000E+000
  0.000000000000000E+000
  0.000000000000000E+000
  0.000000000000000E+000
  0.000000000000000E+000
  0.000000000000000E+000
  0.000000000000000E+000
  0.000000000000000E+000
  0.000000000000000E+000
  0.000000000000000E+000
  0.000000000000000E+000
  0.000000000000000E+000
  0.000000000000000E+000
  0.000000000000000E+000
  0.000000000000000E+000
  0.000000000000000E+000
  0.000000000000000E+000
  0.000000000000000E+000
  0.000000000000000E+000
  0.000000000000000E+000
  0.000000000000000E+000
  0.000000000000000E+000
  0.000000000000000E+000
  0.000000000000000E+000
  0.000000000000000E+000
  0.000000000000000E+000
  0.000000000000000E+000
  0.000000000000000E+000
  0.000000000000000E+000
  0.000000000000000E+000
  0.000000000000000E+000
  0.000000000000000E+000
  0.000000000000000E+000
  0.000000000000000E+000
  0.000000000000000E+000
  0.000000000000000E+000
  0.000000000000000E+000
  0.000000000000000E+000
  0.000000000000000E+000
  0.000000000000000E+000
  0.000000000000000E+000
  0.000000000000000E+000
  0.000000000000000E+000
  0.000000000000000E+000
  0.000000000000000E+000
  0.000000000000000E+000
  0.000000000000000E+000
  0.000000000000000E+000
  0.000000000000000E+000
  0.000000000000000E+000
  0.000000000000000E+000
  0.000000000000000E+000
  0.000000000000000E+000
  0.000000000000000E+000
  0.000000000000000E+000
  0.000000000000000E+000
  0.000000000000000E+000
  0.000000000000000E+000
  0.000000000000000E+000
  0.000000000000000E+000
  0.000000000000000E+000
  0.000000000000000E+000
  0.000000000000000E+000
  0.000000000000000E+000
  0.000000000000000E+000
  0.000000000000000E+000
  0.000000000000000E+000
  0.000000000000000E+000
  0.000000000000000E+000
  0.000000000000000E+000
  0.000000000000000E+000
  0.000000000000000E+000
  0.000000000000000E+000
  0.000000000000000E+000
  0.000000000000000E+000
  0.000000000000000E+000
  0.000000000000000E+000
  0.000000000000000E+000
  0.000000000000000E+000
  0.000000000000000E+000
  0.000000000000000E+000
  0.000000000000000E+000
  0.000000000000000E+000
  0.000000000000000E+000
  0.000000000000000E+000
  0.000000000000000E+000
  0.000000000000000E+000
  0.000000000000000E+000
  0.000000000000000E+000
  0.000000000000000E+000
  0.000000000000000E+000
  0.000000000000000E+000
  0.000000000000000E+000
  0.000000000000000E+000
  0.000000000000000E+000
  0.000000000000000E+000
  0.000000000000000E+000
  0.000000000000000E+000
  0.000000000000000E+000
  0.000000000000000E+000
  0.000000000000000E+000
  0.000000000000000E+000
  0.000000000000000E+000
  0.000000000000000E+000
  0.000000000000000E+000
  0.000000000000000E+000
  0.000000000000000E+000
  0.000000000000000E+000
  0.000000000000000E+000
  0.000000000000000E+000
  0.000000000000000E+000
  0.000000000000000E+000
  0.000000000000000E+000
  0.000000000000000E+000
  0.000000000000000E+000
  0.000000000000000E+000
  0.000000000000000E+000
  0.000000000000000E+000
  0.000000000000000E+000
  0.000000000000000E+000
  0.000000000000000E+000
  0.000000000000000E+000
  0.000000000000000E+000
  0.000000000000000E+000
  0.000000000000000E+000
  0.000000000000000E+000
  0.000000000000000E+000
  0.000000000000000E+000
  0.000000000000000E+000
  0.000000000000000E+000
  0.000000000000000E+000
  0.000000000000000E+000
  0.000000000000000E+000
  0.000000000000000E+000
  0.000000000000000E+000
  0.000000000000000E+000
  0.000000000000000E+000
  0.000000000000000E+000
  0.000000000000000E+000
  0.000000000000000E+000
  0.000000000000000E+000
  0.000000000000000E+000
  0.000000000000000E+000
  0.000000000000000E+000
  0.000000000000000E+000
  0.000000000000000E+000
  0.000000000000000E+000
  0.000000000000000E+000
  0.000000000000000E+000
  0.000000000000000E+000
  0.000000000000000E+000
  0.000000000000000E+000
  0.000000000000000E+000
  0.000000000000000E+000
  0.000000000000000E+000
  0.000000000000000E+000
  0.000000000000000E+000
  0.000000000000000E+000
  0.000000000000000E+000
  0.000000000000000E+000
  0.000000000000000E+000
  0.000000000000000E+000
  0.000000000000000E+000
  0.000000000000000E+000
  0.000000000000000E+000
  0.000000000000000E+000
  0.000000000000000E+000
  0.000000000000000E+000
  0.000000000000000E+000
  0.000000000000000E+000
  0.000000000000000E+000
  0.000000000000000E+000
  0.000000000000000E+000
  0.000000000000000E+000
  0.000000000000000E+000
  0.000000000000000E+000
  0.000000000000000E+000
  0.000000000000000E+000
  0.000000000000000E+000
  0.000000000000000E+000
  0.000000000000000E+000
  0.000000000000000E+000
  0.000000000000000E+000
  0.000000000000000E+000
  0.000000000000000E+000
  0.000000000000000E+000
  0.000000000000000E+000
  0.000000000000000E+000
  0.000000000000000E+000
  0.000000000000000E+000
  0.000000000000000E+000
  0.000000000000000E+000
  0.000000000000000E+000
  0.000000000000000E+000
  0.000000000000000E+000
  0.000000000000000E+000
  0.000000000000000E+000
  0.000000000000000E+000
  0.000000000000000E+000
  0.000000000000000E+000
  0.000000000000000E+000
  0.000000000000000E+000
  0.000000000000000E+000
  0.000000000000000E+000
  0.000000000000000E+000
  0.000000000000000E+000
  0.000000000000000E+000
  0.000000000000000E+000
  0.000000000000000E+000
  0.000000000000000E+000
  0.000000000000000E+000
  0.000000000000000E+000
  0.000000000000000E+000
  0.000000000000000E+000
  0.000000000000000E+000
  0.000000000000000E+000
  0.000000000000000E+000
  0.000000000000000E+000
  0.000000000000000E+000
  0.000000000000000E+000
  0.000000000000000E+000
  0.000000000000000E+000
  0.000000000000000E+000
  0.000000000000000E+000
  0.000000000000000E+000
  0.000000000000000E+000
  0.000000000000000E+000
  0.000000000000000E+000
  0.000000000000000E+000
  0.000000000000000E+000
  0.000000000000000E+000
  0.000000000000000E+000
  0.000000000000000E+000
  0.000000000000000E+000
  0.000000000000000E+000
  0.000000000000000E+000
  0.000000000000000E+000
  0.000000000000000E+000
  0.000000000000000E+000
  0.000000000000000E+000
  0.000000000000000E+000
  0.000000000000000E+000
  0.000000000000000E+000
  0.000000000000000E+000
  0.000000000000000E+000
  0.000000000000000E+000
  0.000000000000000E+000
  0.000000000000000E+000
  0.000000000000000E+000
  0.000000000000000E+000
  0.000000000000000E+000
  0.000000000000000E+000
  0.000000000000000E+000
  0.000000000000000E+000
  0.000000000000000E+000
  0.000000000000000E+000
  0.000000000000000E+000
  0.000000000000000E+000
  0.000000000000000E+000
  0.000000000000000E+000
  0.000000000000000E+000
  0.000000000000000E+000
  0.000000000000000E+000
  0.000000000000000E+000
  0.000000000000000E+000
  0.000000000000000E+000
  0.000000000000000E+000
  0.000000000000000E+000
  0.000000000000000E+000
  0.000000000000000E+000
  0.000000000000000E+000
  0.000000000000000E+000
  0.000000000000000E+000
  0.000000000000000E+000
  0.000000000000000E+000
  0.000000000000000E+000
  0.000000000000000E+000
  0.000000000000000E+000
  0.000000000000000E+000
  0.000000000000000E+000
  0.000000000000000E+000
  0.000000000000000E+000
  0.000000000000000E+000
  0.000000000000000E+000
  0.000000000000000E+000
  0.000000000000000E+000
  0.000000000000000E+000
  0.000000000000000E+000
  0.000000000000000E+000
  0.000000000000000E+000
  0.000000000000000E+000
  0.000000000000000E+000
  0.000000000000000E+000
  0.000000000000000E+000
  0.000000000000000E+000
  0.000000000000000E+000
  0.000000000000000E+000
  0.000000000000000E+000
  0.000000000000000E+000
  0.000000000000000E+000
  0.000000000000000E+000
  0.000000000000000E+000
  0.000000000000000E+000
  0.000000000000000E+000
  0.000000000000000E+000
  0.000000000000000E+000
  0.000000000000000E+000
  0.000000000000000E+000
  0.000000000000000E+000
  0.000000000000000E+000
  0.000000000000000E+000
  0.000000000000000E+000
  0.000000000000000E+000
  0.000000000000000E+000
  0.000000000000000E+000
  0.000000000000000E+000
  0.000000000000000E+000
  0.000000000000000E+000
  0.000000000000000E+000
  0.000000000000000E+000
  0.000000000000000E+000
  0.000000000000000E+000
  0.000000000000000E+000
  0.000000000000000E+000
  0.000000000000000E+000
  0.000000000000000E+000
  0.000000000000000E+000
  0.000000000000000E+000
  0.000000000000000E+000
  0.000000000000000E+000
  0.000000000000000E+000
  0.000000000000000E+000
  0.000000000000000E+000
  0.000000000000000E+000
  0.000000000000000E+000
  0.000000000000000E+000
  0.000000000000000E+000
  0.000000000000000E+000
  0.000000000000000E+000
  0.000000000000000E+000
  0.000000000000000E+000
  0.000000000000000E+000
  0.000000000000000E+000
  0.000000000000000E+000
  0.000000000000000E+000
  0.000000000000000E+000
  0.000000000000000E+000
  0.000000000000000E+000
  0.000000000000000E+000
  0.000000000000000E+000
  0.000000000000000E+000
  0.000000000000000E+000
  0.000000000000000E+000
  0.000000000000000E+000
  0.000000000000000E+000
  0.000000000000000E+000
  0.000000000000000E+000
  0.000000000000000E+000
  0.000000000000000E+000
  0.000000000000000E+000
  0.000000000000000E+000
  0.000000000000000E+000
  0.000000000000000E+000
  0.000000000000000E+000
  0.000000000000000E+000
  0.000000000000000E+000
  0.000000000000000E+000
  0.000000000000000E+000
  0.000000000000000E+000
  0.000000000000000E+000
  0.000000000000000E+000
  0.000000000000000E+000
  0.000000000000000E+000
  0.000000000000000E+000
  0.000000000000000E+000
  0.000000000000000E+000
  0.000000000000000E+000
  0.000000000000000E+000
  0.000000000000000E+000
  0.000000000000000E+000
  0.000000000000000E+000
  0.000000000000000E+000
  0.000000000000000E+000
  0.000000000000000E+000
  0.000000000000000E+000
  0.000000000000000E+000
  0.000000000000000E+000
  0.000000000000000E+000
  0.000000000000000E+000
  0.000000000000000E+000
  0.000000000000000E+000
  0.000000000000000E+000
  0.000000000000000E+000
  0.000000000000000E+000
  0.000000000000000E+000
  0.000000000000000E+000
  0.000000000000000E+000
  0.000000000000000E+000
  0.000000000000000E+000
  0.000000000000000E+000
  0.000000000000000E+000
  0.000000000000000E+000
  0.000000000000000E+000
  0.000000000000000E+000
  0.000000000000000E+000
  0.000000000000000E+000
  0.000000000000000E+000
  0.000000000000000E+000
  0.000000000000000E+000
  0.000000000000000E+000
  0.000000000000000E+000
  0.000000000000000E+000
  0.000000000000000E+000
  0.000000000000000E+000
  0.000000000000000E+000
  0.000000000000000E+000
  0.000000000000000E+000
  0.000000000000000E+000
  0.000000000000000E+000
  0.000000000000000E+000
  0.000000000000000E+000
  0.000000000000000E+000
  0.000000000000000E+000
  0.000000000000000E+000
  0.000000000000000E+000
  0.000000000000000E+000
  0.000000000000000E+000
  0.000000000000000E+000
  0.000000000000000E+000
  0.000000000000000E+000
  0.000000000000000E+000
  0.000000000000000E+000
  0.000000000000000E+000
  0.000000000000000E+000
  0.000000000000000E+000
  0.000000000000000E+000
  0.000000000000000E+000
  0.000000000000000E+000
  0.000000000000000E+000
  0.000000000000000E+000
  0.000000000000000E+000
  0.000000000000000E+000
  0.000000000000000E+000
  0.000000000000000E+000
  0.000000000000000E+000
  0.000000000000000E+000
  0.000000000000000E+000
  0.000000000000000E+000
  0.000000000000000E+000
  0.000000000000000E+000
  0.000000000000000E+000
  0.000000000000000E+000
  0.000000000000000E+000
  0.000000000000000E+000
  0.000000000000000E+000
  0.000000000000000E+000
  0.000000000000000E+000
  0.000000000000000E+000
  0.000000000000000E+000
  0.000000000000000E+000
  0.000000000000000E+000
  0.000000000000000E+000
  0.000000000000000E+000
  0.000000000000000E+000
  0.000000000000000E+000
  0.000000000000000E+000
  0.000000000000000E+000
  0.000000000000000E+000
  0.000000000000000E+000
  0.000000000000000E+000
  0.000000000000000E+000
  0.000000000000000E+000
  0.000000000000000E+000
  0.000000000000000E+000
  0.000000000000000E+000
  0.000000000000000E+000
  0.000000000000000E+000
  0.000000000000000E+000
  0.000000000000000E+000
  0.000000000000000E+000
  0.000000000000000E+000
  0.000000000000000E+000
  0.000000000000000E+000
  0.000000000000000E+000
  0.000000000000000E+000
  0.000000000000000E+000
  0.000000000000000E+000
  0.000000000000000E+000
  0.000000000000000E+000
  0.000000000000000E+000
  0.000000000000000E+000
  0.000000000000000E+000
  0.000000000000000E+000
  0.000000000000000E+000
  0.000000000000000E+000
  0.000000000000000E+000
  0.000000000000000E+000
  0.000000000000000E+000
  0.000000000000000E+000
  0.000000000000000E+000
  0.000000000000000E+000
  0.000000000000000E+000
  0.000000000000000E+000
  0.000000000000000E+000
  0.000000000000000E+000
  0.000000000000000E+000
  0.000000000000000E+000
  0.000000000000000E+000
  0.000000000000000E+000
  0.000000000000000E+000
  0.000000000000000E+000
  0.000000000000000E+000
  0.000000000000000E+000
  0.000000000000000E+000
  0.000000000000000E+000
  0.000000000000000E+000
  0.000000000000000E+000
  0.000000000000000E+000
  0.000000000000000E+000
  0.000000000000000E+000
  0.000000000000000E+000
  0.000000000000000E+000
  0.000000000000000E+000
  0.000000000000000E+000
  0.000000000000000E+000
  0.000000000000000E+000
  0.000000000000000E+000
  0.000000000000000E+000
  0.000000000000000E+000
  0.000000000000000E+000
  0.000000000000000E+000
  0.000000000000000E+000
  0.000000000000000E+000
  0.000000000000000E+000
  0.000000000000000E+000
  0.000000000000000E+000
  0.000000000000000E+000
  0.000000000000000E+000
  0.000000000000000E+000
  0.000000000000000E+000
  0.000000000000000E+000
  0.000000000000000E+000
  0.000000000000000E+000
  0.000000000000000E+000
  0.000000000000000E+000
  0.000000000000000E+000
  0.000000000000000E+000
  0.000000000000000E+000
  0.000000000000000E+000
  0.000000000000000E+000
  0.000000000000000E+000
  0.000000000000000E+000
  0.000000000000000E+000
  0.000000000000000E+000
  0.000000000000000E+000
  0.000000000000000E+000
  0.000000000000000E+000
  0.000000000000000E+000
  0.000000000000000E+000
  0.000000000000000E+000
  0.000000000000000E+000
  0.000000000000000E+000
  0.000000000000000E+000
  0.000000000000000E+000
  0.000000000000000E+000
  0.000000000000000E+000
  0.000000000000000E+000
  0.000000000000000E+000
  0.000000000000000E+000
  0.000000000000000E+000
  0.000000000000000E+000
  0.000000000000000E+000
  0.000000000000000E+000
  0.000000000000000E+000
  0.000000000000000E+000
  0.000000000000000E+000
  0.000000000000000E+000
  0.000000000000000E+000
  0.000000000000000E+000
  0.000000000000000E+000
  0.000000000000000E+000
  0.000000000000000E+000
  0.000000000000000E+000
  0.000000000000000E+000
  0.000000000000000E+000
  0.000000000000000E+000
  0.000000000000000E+000
  0.000000000000000E+000
  0.000000000000000E+000
  0.000000000000000E+000
  0.000000000000000E+000
  0.000000000000000E+000
  0.000000000000000E+000
  0.000000000000000E+000
  0.000000000000000E+000
  0.000000000000000E+000
  0.000000000000000E+000
  0.000000000000000E+000
  0.000000000000000E+000
  0.000000000000000E+000
  0.000000000000000E+000
  0.000000000000000E+000
  0.000000000000000E+000
  0.000000000000000E+000
  0.000000000000000E+000
  0.000000000000000E+000
  0.000000000000000E+000
  0.000000000000000E+000
  0.000000000000000E+000
  0.000000000000000E+000
  0.000000000000000E+000
  0.000000000000000E+000
  0.000000000000000E+000
  0.000000000000000E+000
  0.000000000000000E+000
  0.000000000000000E+000
  0.000000000000000E+000
  0.000000000000000E+000
  0.000000000000000E+000
  0.000000000000000E+000
  0.000000000000000E+000
  0.000000000000000E+000
  0.000000000000000E+000
  0.000000000000000E+000
  0.000000000000000E+000
  0.000000000000000E+000
  0.000000000000000E+000
  0.000000000000000E+000
  0.000000000000000E+000
  0.000000000000000E+000
  0.000000000000000E+000
  0.000000000000000E+000
  0.000000000000000E+000
  0.000000000000000E+000
  0.000000000000000E+000
  0.000000000000000E+000
  0.000000000000000E+000
  0.000000000000000E+000
  0.000000000000000E+000
  0.000000000000000E+000
  0.000000000000000E+000
  0.000000000000000E+000
  0.000000000000000E+000
  0.000000000000000E+000
  0.000000000000000E+000
  0.000000000000000E+000
  0.000000000000000E+000
  0.000000000000000E+000
  0.000000000000000E+000
  0.000000000000000E+000
  0.000000000000000E+000
  0.000000000000000E+000
  0.000000000000000E+000
  0.000000000000000E+000
  0.000000000000000E+000
  0.000000000000000E+000
  0.000000000000000E+000
  0.000000000000000E+000
  0.000000000000000E+000
  0.000000000000000E+000
  0.000000000000000E+000
  0.000000000000000E+000
  0.000000000000000E+000
  0.000000000000000E+000
  0.000000000000000E+000
  0.000000000000000E+000
  0.000000000000000E+000
  0.000000000000000E+000
  0.000000000000000E+000
  0.000000000000000E+000
  0.000000000000000E+000
  0.000000000000000E+000
  0.000000000000000E+000
  0.000000000000000E+000
  0.000000000000000E+000
  0.000000000000000E+000
  0.000000000000000E+000
  0.000000000000000E+000
  0.000000000000000E+000
  0.000000000000000E+000
  0.000000000000000E+000
  0.000000000000000E+000
  0.000000000000000E+000
  0.000000000000000E+000
  0.000000000000000E+000
  0.000000000000000E+000
  0.000000000000000E+000
  0.000000000000000E+000
  0.000000000000000E+000
  0.000000000000000E+000
  0.000000000000000E+000
  0.000000000000000E+000
  0.000000000000000E+000
  0.000000000000000E+000
  0.000000000000000E+000
  0.000000000000000E+000
  0.000000000000000E+000
  0.000000000000000E+000
  0.000000000000000E+000
  0.000000000000000E+000
  0.000000000000000E+000
  0.000000000000000E+000
  0.000000000000000E+000
  0.000000000000000E+000
  0.000000000000000E+000
  0.000000000000000E+000
  0.000000000000000E+000
  0.000000000000000E+000
  0.000000000000000E+000
  0.000000000000000E+000
  0.000000000000000E+000
  0.000000000000000E+000
  0.000000000000000E+000
  0.000000000000000E+000
  0.000000000000000E+000
  0.000000000000000E+000
  0.000000000000000E+000
  0.000000000000000E+000
  0.000000000000000E+000
  0.000000000000000E+000
  0.000000000000000E+000
  0.000000000000000E+000
  0.000000000000000E+000
  0.000000000000000E+000
  0.000000000000000E+000
  0.000000000000000E+000
  0.000000000000000E+000
  0.000000000000000E+000
  0.000000000000000E+000
  0.000000000000000E+000
  0.000000000000000E+000
  0.000000000000000E+000
  0.000000000000000E+000
  0.000000000000000E+000
  0.000000000000000E+000
  0.000000000000000E+000
  0.000000000000000E+000
  0.000000000000000E+000
  0.000000000000000E+000
  0.000000000000000E+000
  0.000000000000000E+000
  0.000000000000000E+000
  0.000000000000000E+000
  0.000000000000000E+000
  0.000000000000000E+000
  0.000000000000000E+000
