# vtk DataFile Version 3.0
vtk output
ASCII
DATASET UNSTRUCTURED_GRID
POINTS      5151 double 
  0.00000000E+00  1.00000000E+02  0.00000000E+00
  0.00000000E+00  9.80000000E+01  0.00000000E+00
  0.00000000E+00  9.60000000E+01  0.00000000E+00
  0.00000000E+00  9.40000000E+01  0.00000000E+00
  0.00000000E+00  9.20000000E+01  0.00000000E+00
  0.00000000E+00  9.00000000E+01  0.00000000E+00
  0.00000000E+00  8.80000000E+01  0.00000000E+00
  0.00000000E+00  8.60000000E+01  0.00000000E+00
  0.00000000E+00  8.40000000E+01  0.00000000E+00
  0.00000000E+00  8.20000000E+01  0.00000000E+00
  0.00000000E+00  8.00000000E+01  0.00000000E+00
  0.00000000E+00  7.80000000E+01  0.00000000E+00
  0.00000000E+00  7.60000000E+01  0.00000000E+00
  0.00000000E+00  7.40000000E+01  0.00000000E+00
  0.00000000E+00  7.20000000E+01  0.00000000E+00
  0.00000000E+00  7.00000000E+01  0.00000000E+00
  0.00000000E+00  6.80000000E+01  0.00000000E+00
  0.00000000E+00  6.60000000E+01  0.00000000E+00
  0.00000000E+00  6.40000000E+01  0.00000000E+00
  0.00000000E+00  6.20000000E+01  0.00000000E+00
  0.00000000E+00  6.00000000E+01  0.00000000E+00
  0.00000000E+00  5.80000000E+01  0.00000000E+00
  0.00000000E+00  5.60000000E+01  0.00000000E+00
  0.00000000E+00  5.40000000E+01  0.00000000E+00
  0.00000000E+00  5.20000000E+01  0.00000000E+00
  0.00000000E+00  5.00000000E+01  0.00000000E+00
  0.00000000E+00  4.80000000E+01  0.00000000E+00
  0.00000000E+00  4.60000000E+01  0.00000000E+00
  0.00000000E+00  4.40000000E+01  0.00000000E+00
  0.00000000E+00  4.20000000E+01  0.00000000E+00
  0.00000000E+00  4.00000000E+01  0.00000000E+00
  0.00000000E+00  3.80000000E+01  0.00000000E+00
  0.00000000E+00  3.60000000E+01  0.00000000E+00
  0.00000000E+00  3.40000000E+01  0.00000000E+00
  0.00000000E+00  3.20000000E+01  0.00000000E+00
  0.00000000E+00  3.00000000E+01  0.00000000E+00
  0.00000000E+00  2.80000000E+01  0.00000000E+00
  0.00000000E+00  2.60000000E+01  0.00000000E+00
  0.00000000E+00  2.40000000E+01  0.00000000E+00
  0.00000000E+00  2.20000000E+01  0.00000000E+00
  0.00000000E+00  2.00000000E+01  0.00000000E+00
  0.00000000E+00  1.80000000E+01  0.00000000E+00
  0.00000000E+00  1.60000000E+01  0.00000000E+00
  0.00000000E+00  1.40000000E+01  0.00000000E+00
  0.00000000E+00  1.20000000E+01  0.00000000E+00
  0.00000000E+00  1.00000000E+01  0.00000000E+00
  0.00000000E+00  8.00000000E+00  0.00000000E+00
  0.00000000E+00  6.00000000E+00  0.00000000E+00
  0.00000000E+00  4.00000000E+00  0.00000000E+00
  0.00000000E+00  2.00000000E+00  0.00000000E+00
  0.00000000E+00 -3.33066907E-14  0.00000000E+00
  1.00000000E+01  1.00000000E+02  0.00000000E+00
  1.00000000E+01  9.80000000E+01  0.00000000E+00
  1.00000000E+01  9.60000000E+01  0.00000000E+00
  1.00000000E+01  9.40000000E+01  0.00000000E+00
  1.00000000E+01  9.20000000E+01  0.00000000E+00
  1.00000000E+01  9.00000000E+01  0.00000000E+00
  1.00000000E+01  8.80000000E+01  0.00000000E+00
  1.00000000E+01  8.60000000E+01  0.00000000E+00
  1.00000000E+01  8.40000000E+01  0.00000000E+00
  1.00000000E+01  8.20000000E+01  0.00000000E+00
  1.00000000E+01  8.00000000E+01  0.00000000E+00
  1.00000000E+01  7.80000000E+01  0.00000000E+00
  1.00000000E+01  7.60000000E+01  0.00000000E+00
  1.00000000E+01  7.40000000E+01  0.00000000E+00
  1.00000000E+01  7.20000000E+01  0.00000000E+00
  1.00000000E+01  7.00000000E+01  0.00000000E+00
  1.00000000E+01  6.80000000E+01  0.00000000E+00
  1.00000000E+01  6.60000000E+01  0.00000000E+00
  1.00000000E+01  6.40000000E+01  0.00000000E+00
  1.00000000E+01  6.20000000E+01  0.00000000E+00
  1.00000000E+01  6.00000000E+01  0.00000000E+00
  1.00000000E+01  5.80000000E+01  0.00000000E+00
  1.00000000E+01  5.60000000E+01  0.00000000E+00
  1.00000000E+01  5.40000000E+01  0.00000000E+00
  1.00000000E+01  5.20000000E+01  0.00000000E+00
  1.00000000E+01  5.00000000E+01  0.00000000E+00
  1.00000000E+01  4.80000000E+01  0.00000000E+00
  1.00000000E+01  4.60000000E+01  0.00000000E+00
  1.00000000E+01  4.40000000E+01  0.00000000E+00
  1.00000000E+01  4.20000000E+01  0.00000000E+00
  1.00000000E+01  4.00000000E+01  0.00000000E+00
  1.00000000E+01  3.80000000E+01  0.00000000E+00
  1.00000000E+01  3.60000000E+01  0.00000000E+00
  1.00000000E+01  3.40000000E+01  0.00000000E+00
  1.00000000E+01  3.20000000E+01  0.00000000E+00
  1.00000000E+01  3.00000000E+01  0.00000000E+00
  1.00000000E+01  2.80000000E+01  0.00000000E+00
  1.00000000E+01  2.60000000E+01  0.00000000E+00
  1.00000000E+01  2.40000000E+01  0.00000000E+00
  1.00000000E+01  2.20000000E+01  0.00000000E+00
  1.00000000E+01  2.00000000E+01  0.00000000E+00
  1.00000000E+01  1.80000000E+01  0.00000000E+00
  1.00000000E+01  1.60000000E+01  0.00000000E+00
  1.00000000E+01  1.40000000E+01  0.00000000E+00
  1.00000000E+01  1.20000000E+01  0.00000000E+00
  1.00000000E+01  1.00000000E+01  0.00000000E+00
  1.00000000E+01  8.00000000E+00  0.00000000E+00
  1.00000000E+01  6.00000000E+00  0.00000000E+00
  1.00000000E+01  4.00000000E+00  0.00000000E+00
  1.00000000E+01  2.00000000E+00  0.00000000E+00
  1.00000000E+01 -3.33066907E-14  0.00000000E+00
  2.00000000E+01  1.00000000E+02  0.00000000E+00
  2.00000000E+01  9.80000000E+01  0.00000000E+00
  2.00000000E+01  9.60000000E+01  0.00000000E+00
  2.00000000E+01  9.40000000E+01  0.00000000E+00
  2.00000000E+01  9.20000000E+01  0.00000000E+00
  2.00000000E+01  9.00000000E+01  0.00000000E+00
  2.00000000E+01  8.80000000E+01  0.00000000E+00
  2.00000000E+01  8.60000000E+01  0.00000000E+00
  2.00000000E+01  8.40000000E+01  0.00000000E+00
  2.00000000E+01  8.20000000E+01  0.00000000E+00
  2.00000000E+01  8.00000000E+01  0.00000000E+00
  2.00000000E+01  7.80000000E+01  0.00000000E+00
  2.00000000E+01  7.60000000E+01  0.00000000E+00
  2.00000000E+01  7.40000000E+01  0.00000000E+00
  2.00000000E+01  7.20000000E+01  0.00000000E+00
  2.00000000E+01  7.00000000E+01  0.00000000E+00
  2.00000000E+01  6.80000000E+01  0.00000000E+00
  2.00000000E+01  6.60000000E+01  0.00000000E+00
  2.00000000E+01  6.40000000E+01  0.00000000E+00
  2.00000000E+01  6.20000000E+01  0.00000000E+00
  2.00000000E+01  6.00000000E+01  0.00000000E+00
  2.00000000E+01  5.80000000E+01  0.00000000E+00
  2.00000000E+01  5.60000000E+01  0.00000000E+00
  2.00000000E+01  5.40000000E+01  0.00000000E+00
  2.00000000E+01  5.20000000E+01  0.00000000E+00
  2.00000000E+01  5.00000000E+01  0.00000000E+00
  2.00000000E+01  4.80000000E+01  0.00000000E+00
  2.00000000E+01  4.60000000E+01  0.00000000E+00
  2.00000000E+01  4.40000000E+01  0.00000000E+00
  2.00000000E+01  4.20000000E+01  0.00000000E+00
  2.00000000E+01  4.00000000E+01  0.00000000E+00
  2.00000000E+01  3.80000000E+01  0.00000000E+00
  2.00000000E+01  3.60000000E+01  0.00000000E+00
  2.00000000E+01  3.40000000E+01  0.00000000E+00
  2.00000000E+01  3.20000000E+01  0.00000000E+00
  2.00000000E+01  3.00000000E+01  0.00000000E+00
  2.00000000E+01  2.80000000E+01  0.00000000E+00
  2.00000000E+01  2.60000000E+01  0.00000000E+00
  2.00000000E+01  2.40000000E+01  0.00000000E+00
  2.00000000E+01  2.20000000E+01  0.00000000E+00
  2.00000000E+01  2.00000000E+01  0.00000000E+00
  2.00000000E+01  1.80000000E+01  0.00000000E+00
  2.00000000E+01  1.60000000E+01  0.00000000E+00
  2.00000000E+01  1.40000000E+01  0.00000000E+00
  2.00000000E+01  1.20000000E+01  0.00000000E+00
  2.00000000E+01  1.00000000E+01  0.00000000E+00
  2.00000000E+01  8.00000000E+00  0.00000000E+00
  2.00000000E+01  6.00000000E+00  0.00000000E+00
  2.00000000E+01  4.00000000E+00  0.00000000E+00
  2.00000000E+01  2.00000000E+00  0.00000000E+00
  2.00000000E+01 -3.33066907E-14  0.00000000E+00
  3.00000000E+01  1.00000000E+02  0.00000000E+00
  3.00000000E+01  9.80000000E+01  0.00000000E+00
  3.00000000E+01  9.60000000E+01  0.00000000E+00
  3.00000000E+01  9.40000000E+01  0.00000000E+00
  3.00000000E+01  9.20000000E+01  0.00000000E+00
  3.00000000E+01  9.00000000E+01  0.00000000E+00
  3.00000000E+01  8.80000000E+01  0.00000000E+00
  3.00000000E+01  8.60000000E+01  0.00000000E+00
  3.00000000E+01  8.40000000E+01  0.00000000E+00
  3.00000000E+01  8.20000000E+01  0.00000000E+00
  3.00000000E+01  8.00000000E+01  0.00000000E+00
  3.00000000E+01  7.80000000E+01  0.00000000E+00
  3.00000000E+01  7.60000000E+01  0.00000000E+00
  3.00000000E+01  7.40000000E+01  0.00000000E+00
  3.00000000E+01  7.20000000E+01  0.00000000E+00
  3.00000000E+01  7.00000000E+01  0.00000000E+00
  3.00000000E+01  6.80000000E+01  0.00000000E+00
  3.00000000E+01  6.60000000E+01  0.00000000E+00
  3.00000000E+01  6.40000000E+01  0.00000000E+00
  3.00000000E+01  6.20000000E+01  0.00000000E+00
  3.00000000E+01  6.00000000E+01  0.00000000E+00
  3.00000000E+01  5.80000000E+01  0.00000000E+00
  3.00000000E+01  5.60000000E+01  0.00000000E+00
  3.00000000E+01  5.40000000E+01  0.00000000E+00
  3.00000000E+01  5.20000000E+01  0.00000000E+00
  3.00000000E+01  5.00000000E+01  0.00000000E+00
  3.00000000E+01  4.80000000E+01  0.00000000E+00
  3.00000000E+01  4.60000000E+01  0.00000000E+00
  3.00000000E+01  4.40000000E+01  0.00000000E+00
  3.00000000E+01  4.20000000E+01  0.00000000E+00
  3.00000000E+01  4.00000000E+01  0.00000000E+00
  3.00000000E+01  3.80000000E+01  0.00000000E+00
  3.00000000E+01  3.60000000E+01  0.00000000E+00
  3.00000000E+01  3.40000000E+01  0.00000000E+00
  3.00000000E+01  3.20000000E+01  0.00000000E+00
  3.00000000E+01  3.00000000E+01  0.00000000E+00
  3.00000000E+01  2.80000000E+01  0.00000000E+00
  3.00000000E+01  2.60000000E+01  0.00000000E+00
  3.00000000E+01  2.40000000E+01  0.00000000E+00
  3.00000000E+01  2.20000000E+01  0.00000000E+00
  3.00000000E+01  2.00000000E+01  0.00000000E+00
  3.00000000E+01  1.80000000E+01  0.00000000E+00
  3.00000000E+01  1.60000000E+01  0.00000000E+00
  3.00000000E+01  1.40000000E+01  0.00000000E+00
  3.00000000E+01  1.20000000E+01  0.00000000E+00
  3.00000000E+01  1.00000000E+01  0.00000000E+00
  3.00000000E+01  8.00000000E+00  0.00000000E+00
  3.00000000E+01  6.00000000E+00  0.00000000E+00
  3.00000000E+01  4.00000000E+00  0.00000000E+00
  3.00000000E+01  2.00000000E+00  0.00000000E+00
  3.00000000E+01 -3.33066907E-14  0.00000000E+00
  4.00000000E+01  1.00000000E+02  0.00000000E+00
  4.00000000E+01  9.80000000E+01  0.00000000E+00
  4.00000000E+01  9.60000000E+01  0.00000000E+00
  4.00000000E+01  9.40000000E+01  0.00000000E+00
  4.00000000E+01  9.20000000E+01  0.00000000E+00
  4.00000000E+01  9.00000000E+01  0.00000000E+00
  4.00000000E+01  8.80000000E+01  0.00000000E+00
  4.00000000E+01  8.60000000E+01  0.00000000E+00
  4.00000000E+01  8.40000000E+01  0.00000000E+00
  4.00000000E+01  8.20000000E+01  0.00000000E+00
  4.00000000E+01  8.00000000E+01  0.00000000E+00
  4.00000000E+01  7.80000000E+01  0.00000000E+00
  4.00000000E+01  7.60000000E+01  0.00000000E+00
  4.00000000E+01  7.40000000E+01  0.00000000E+00
  4.00000000E+01  7.20000000E+01  0.00000000E+00
  4.00000000E+01  7.00000000E+01  0.00000000E+00
  4.00000000E+01  6.80000000E+01  0.00000000E+00
  4.00000000E+01  6.60000000E+01  0.00000000E+00
  4.00000000E+01  6.40000000E+01  0.00000000E+00
  4.00000000E+01  6.20000000E+01  0.00000000E+00
  4.00000000E+01  6.00000000E+01  0.00000000E+00
  4.00000000E+01  5.80000000E+01  0.00000000E+00
  4.00000000E+01  5.60000000E+01  0.00000000E+00
  4.00000000E+01  5.40000000E+01  0.00000000E+00
  4.00000000E+01  5.20000000E+01  0.00000000E+00
  4.00000000E+01  5.00000000E+01  0.00000000E+00
  4.00000000E+01  4.80000000E+01  0.00000000E+00
  4.00000000E+01  4.60000000E+01  0.00000000E+00
  4.00000000E+01  4.40000000E+01  0.00000000E+00
  4.00000000E+01  4.20000000E+01  0.00000000E+00
  4.00000000E+01  4.00000000E+01  0.00000000E+00
  4.00000000E+01  3.80000000E+01  0.00000000E+00
  4.00000000E+01  3.60000000E+01  0.00000000E+00
  4.00000000E+01  3.40000000E+01  0.00000000E+00
  4.00000000E+01  3.20000000E+01  0.00000000E+00
  4.00000000E+01  3.00000000E+01  0.00000000E+00
  4.00000000E+01  2.80000000E+01  0.00000000E+00
  4.00000000E+01  2.60000000E+01  0.00000000E+00
  4.00000000E+01  2.40000000E+01  0.00000000E+00
  4.00000000E+01  2.20000000E+01  0.00000000E+00
  4.00000000E+01  2.00000000E+01  0.00000000E+00
  4.00000000E+01  1.80000000E+01  0.00000000E+00
  4.00000000E+01  1.60000000E+01  0.00000000E+00
  4.00000000E+01  1.40000000E+01  0.00000000E+00
  4.00000000E+01  1.20000000E+01  0.00000000E+00
  4.00000000E+01  1.00000000E+01  0.00000000E+00
  4.00000000E+01  8.00000000E+00  0.00000000E+00
  4.00000000E+01  6.00000000E+00  0.00000000E+00
  4.00000000E+01  4.00000000E+00  0.00000000E+00
  4.00000000E+01  2.00000000E+00  0.00000000E+00
  4.00000000E+01 -3.33066907E-14  0.00000000E+00
  5.00000000E+01  1.00000000E+02  0.00000000E+00
  5.00000000E+01  9.80000000E+01  0.00000000E+00
  5.00000000E+01  9.60000000E+01  0.00000000E+00
  5.00000000E+01  9.40000000E+01  0.00000000E+00
  5.00000000E+01  9.20000000E+01  0.00000000E+00
  5.00000000E+01  9.00000000E+01  0.00000000E+00
  5.00000000E+01  8.80000000E+01  0.00000000E+00
  5.00000000E+01  8.60000000E+01  0.00000000E+00
  5.00000000E+01  8.40000000E+01  0.00000000E+00
  5.00000000E+01  8.20000000E+01  0.00000000E+00
  5.00000000E+01  8.00000000E+01  0.00000000E+00
  5.00000000E+01  7.80000000E+01  0.00000000E+00
  5.00000000E+01  7.60000000E+01  0.00000000E+00
  5.00000000E+01  7.40000000E+01  0.00000000E+00
  5.00000000E+01  7.20000000E+01  0.00000000E+00
  5.00000000E+01  7.00000000E+01  0.00000000E+00
  5.00000000E+01  6.80000000E+01  0.00000000E+00
  5.00000000E+01  6.60000000E+01  0.00000000E+00
  5.00000000E+01  6.40000000E+01  0.00000000E+00
  5.00000000E+01  6.20000000E+01  0.00000000E+00
  5.00000000E+01  6.00000000E+01  0.00000000E+00
  5.00000000E+01  5.80000000E+01  0.00000000E+00
  5.00000000E+01  5.60000000E+01  0.00000000E+00
  5.00000000E+01  5.40000000E+01  0.00000000E+00
  5.00000000E+01  5.20000000E+01  0.00000000E+00
  5.00000000E+01  5.00000000E+01  0.00000000E+00
  5.00000000E+01  4.80000000E+01  0.00000000E+00
  5.00000000E+01  4.60000000E+01  0.00000000E+00
  5.00000000E+01  4.40000000E+01  0.00000000E+00
  5.00000000E+01  4.20000000E+01  0.00000000E+00
  5.00000000E+01  4.00000000E+01  0.00000000E+00
  5.00000000E+01  3.80000000E+01  0.00000000E+00
  5.00000000E+01  3.60000000E+01  0.00000000E+00
  5.00000000E+01  3.40000000E+01  0.00000000E+00
  5.00000000E+01  3.20000000E+01  0.00000000E+00
  5.00000000E+01  3.00000000E+01  0.00000000E+00
  5.00000000E+01  2.80000000E+01  0.00000000E+00
  5.00000000E+01  2.60000000E+01  0.00000000E+00
  5.00000000E+01  2.40000000E+01  0.00000000E+00
  5.00000000E+01  2.20000000E+01  0.00000000E+00
  5.00000000E+01  2.00000000E+01  0.00000000E+00
  5.00000000E+01  1.80000000E+01  0.00000000E+00
  5.00000000E+01  1.60000000E+01  0.00000000E+00
  5.00000000E+01  1.40000000E+01  0.00000000E+00
  5.00000000E+01  1.20000000E+01  0.00000000E+00
  5.00000000E+01  1.00000000E+01  0.00000000E+00
  5.00000000E+01  8.00000000E+00  0.00000000E+00
  5.00000000E+01  6.00000000E+00  0.00000000E+00
  5.00000000E+01  4.00000000E+00  0.00000000E+00
  5.00000000E+01  2.00000000E+00  0.00000000E+00
  5.00000000E+01 -3.33066907E-14  0.00000000E+00
  6.00000000E+01  1.00000000E+02  0.00000000E+00
  6.00000000E+01  9.80000000E+01  0.00000000E+00
  6.00000000E+01  9.60000000E+01  0.00000000E+00
  6.00000000E+01  9.40000000E+01  0.00000000E+00
  6.00000000E+01  9.20000000E+01  0.00000000E+00
  6.00000000E+01  9.00000000E+01  0.00000000E+00
  6.00000000E+01  8.80000000E+01  0.00000000E+00
  6.00000000E+01  8.60000000E+01  0.00000000E+00
  6.00000000E+01  8.40000000E+01  0.00000000E+00
  6.00000000E+01  8.20000000E+01  0.00000000E+00
  6.00000000E+01  8.00000000E+01  0.00000000E+00
  6.00000000E+01  7.80000000E+01  0.00000000E+00
  6.00000000E+01  7.60000000E+01  0.00000000E+00
  6.00000000E+01  7.40000000E+01  0.00000000E+00
  6.00000000E+01  7.20000000E+01  0.00000000E+00
  6.00000000E+01  7.00000000E+01  0.00000000E+00
  6.00000000E+01  6.80000000E+01  0.00000000E+00
  6.00000000E+01  6.60000000E+01  0.00000000E+00
  6.00000000E+01  6.40000000E+01  0.00000000E+00
  6.00000000E+01  6.20000000E+01  0.00000000E+00
  6.00000000E+01  6.00000000E+01  0.00000000E+00
  6.00000000E+01  5.80000000E+01  0.00000000E+00
  6.00000000E+01  5.60000000E+01  0.00000000E+00
  6.00000000E+01  5.40000000E+01  0.00000000E+00
  6.00000000E+01  5.20000000E+01  0.00000000E+00
  6.00000000E+01  5.00000000E+01  0.00000000E+00
  6.00000000E+01  4.80000000E+01  0.00000000E+00
  6.00000000E+01  4.60000000E+01  0.00000000E+00
  6.00000000E+01  4.40000000E+01  0.00000000E+00
  6.00000000E+01  4.20000000E+01  0.00000000E+00
  6.00000000E+01  4.00000000E+01  0.00000000E+00
  6.00000000E+01  3.80000000E+01  0.00000000E+00
  6.00000000E+01  3.60000000E+01  0.00000000E+00
  6.00000000E+01  3.40000000E+01  0.00000000E+00
  6.00000000E+01  3.20000000E+01  0.00000000E+00
  6.00000000E+01  3.00000000E+01  0.00000000E+00
  6.00000000E+01  2.80000000E+01  0.00000000E+00
  6.00000000E+01  2.60000000E+01  0.00000000E+00
  6.00000000E+01  2.40000000E+01  0.00000000E+00
  6.00000000E+01  2.20000000E+01  0.00000000E+00
  6.00000000E+01  2.00000000E+01  0.00000000E+00
  6.00000000E+01  1.80000000E+01  0.00000000E+00
  6.00000000E+01  1.60000000E+01  0.00000000E+00
  6.00000000E+01  1.40000000E+01  0.00000000E+00
  6.00000000E+01  1.20000000E+01  0.00000000E+00
  6.00000000E+01  1.00000000E+01  0.00000000E+00
  6.00000000E+01  8.00000000E+00  0.00000000E+00
  6.00000000E+01  6.00000000E+00  0.00000000E+00
  6.00000000E+01  4.00000000E+00  0.00000000E+00
  6.00000000E+01  2.00000000E+00  0.00000000E+00
  6.00000000E+01 -3.33066907E-14  0.00000000E+00
  7.00000000E+01  1.00000000E+02  0.00000000E+00
  7.00000000E+01  9.80000000E+01  0.00000000E+00
  7.00000000E+01  9.60000000E+01  0.00000000E+00
  7.00000000E+01  9.40000000E+01  0.00000000E+00
  7.00000000E+01  9.20000000E+01  0.00000000E+00
  7.00000000E+01  9.00000000E+01  0.00000000E+00
  7.00000000E+01  8.80000000E+01  0.00000000E+00
  7.00000000E+01  8.60000000E+01  0.00000000E+00
  7.00000000E+01  8.40000000E+01  0.00000000E+00
  7.00000000E+01  8.20000000E+01  0.00000000E+00
  7.00000000E+01  8.00000000E+01  0.00000000E+00
  7.00000000E+01  7.80000000E+01  0.00000000E+00
  7.00000000E+01  7.60000000E+01  0.00000000E+00
  7.00000000E+01  7.40000000E+01  0.00000000E+00
  7.00000000E+01  7.20000000E+01  0.00000000E+00
  7.00000000E+01  7.00000000E+01  0.00000000E+00
  7.00000000E+01  6.80000000E+01  0.00000000E+00
  7.00000000E+01  6.60000000E+01  0.00000000E+00
  7.00000000E+01  6.40000000E+01  0.00000000E+00
  7.00000000E+01  6.20000000E+01  0.00000000E+00
  7.00000000E+01  6.00000000E+01  0.00000000E+00
  7.00000000E+01  5.80000000E+01  0.00000000E+00
  7.00000000E+01  5.60000000E+01  0.00000000E+00
  7.00000000E+01  5.40000000E+01  0.00000000E+00
  7.00000000E+01  5.20000000E+01  0.00000000E+00
  7.00000000E+01  5.00000000E+01  0.00000000E+00
  7.00000000E+01  4.80000000E+01  0.00000000E+00
  7.00000000E+01  4.60000000E+01  0.00000000E+00
  7.00000000E+01  4.40000000E+01  0.00000000E+00
  7.00000000E+01  4.20000000E+01  0.00000000E+00
  7.00000000E+01  4.00000000E+01  0.00000000E+00
  7.00000000E+01  3.80000000E+01  0.00000000E+00
  7.00000000E+01  3.60000000E+01  0.00000000E+00
  7.00000000E+01  3.40000000E+01  0.00000000E+00
  7.00000000E+01  3.20000000E+01  0.00000000E+00
  7.00000000E+01  3.00000000E+01  0.00000000E+00
  7.00000000E+01  2.80000000E+01  0.00000000E+00
  7.00000000E+01  2.60000000E+01  0.00000000E+00
  7.00000000E+01  2.40000000E+01  0.00000000E+00
  7.00000000E+01  2.20000000E+01  0.00000000E+00
  7.00000000E+01  2.00000000E+01  0.00000000E+00
  7.00000000E+01  1.80000000E+01  0.00000000E+00
  7.00000000E+01  1.60000000E+01  0.00000000E+00
  7.00000000E+01  1.40000000E+01  0.00000000E+00
  7.00000000E+01  1.20000000E+01  0.00000000E+00
  7.00000000E+01  1.00000000E+01  0.00000000E+00
  7.00000000E+01  8.00000000E+00  0.00000000E+00
  7.00000000E+01  6.00000000E+00  0.00000000E+00
  7.00000000E+01  4.00000000E+00  0.00000000E+00
  7.00000000E+01  2.00000000E+00  0.00000000E+00
  7.00000000E+01 -3.33066907E-14  0.00000000E+00
  8.00000000E+01  1.00000000E+02  0.00000000E+00
  8.00000000E+01  9.80000000E+01  0.00000000E+00
  8.00000000E+01  9.60000000E+01  0.00000000E+00
  8.00000000E+01  9.40000000E+01  0.00000000E+00
  8.00000000E+01  9.20000000E+01  0.00000000E+00
  8.00000000E+01  9.00000000E+01  0.00000000E+00
  8.00000000E+01  8.80000000E+01  0.00000000E+00
  8.00000000E+01  8.60000000E+01  0.00000000E+00
  8.00000000E+01  8.40000000E+01  0.00000000E+00
  8.00000000E+01  8.20000000E+01  0.00000000E+00
  8.00000000E+01  8.00000000E+01  0.00000000E+00
  8.00000000E+01  7.80000000E+01  0.00000000E+00
  8.00000000E+01  7.60000000E+01  0.00000000E+00
  8.00000000E+01  7.40000000E+01  0.00000000E+00
  8.00000000E+01  7.20000000E+01  0.00000000E+00
  8.00000000E+01  7.00000000E+01  0.00000000E+00
  8.00000000E+01  6.80000000E+01  0.00000000E+00
  8.00000000E+01  6.60000000E+01  0.00000000E+00
  8.00000000E+01  6.40000000E+01  0.00000000E+00
  8.00000000E+01  6.20000000E+01  0.00000000E+00
  8.00000000E+01  6.00000000E+01  0.00000000E+00
  8.00000000E+01  5.80000000E+01  0.00000000E+00
  8.00000000E+01  5.60000000E+01  0.00000000E+00
  8.00000000E+01  5.40000000E+01  0.00000000E+00
  8.00000000E+01  5.20000000E+01  0.00000000E+00
  8.00000000E+01  5.00000000E+01  0.00000000E+00
  8.00000000E+01  4.80000000E+01  0.00000000E+00
  8.00000000E+01  4.60000000E+01  0.00000000E+00
  8.00000000E+01  4.40000000E+01  0.00000000E+00
  8.00000000E+01  4.20000000E+01  0.00000000E+00
  8.00000000E+01  4.00000000E+01  0.00000000E+00
  8.00000000E+01  3.80000000E+01  0.00000000E+00
  8.00000000E+01  3.60000000E+01  0.00000000E+00
  8.00000000E+01  3.40000000E+01  0.00000000E+00
  8.00000000E+01  3.20000000E+01  0.00000000E+00
  8.00000000E+01  3.00000000E+01  0.00000000E+00
  8.00000000E+01  2.80000000E+01  0.00000000E+00
  8.00000000E+01  2.60000000E+01  0.00000000E+00
  8.00000000E+01  2.40000000E+01  0.00000000E+00
  8.00000000E+01  2.20000000E+01  0.00000000E+00
  8.00000000E+01  2.00000000E+01  0.00000000E+00
  8.00000000E+01  1.80000000E+01  0.00000000E+00
  8.00000000E+01  1.60000000E+01  0.00000000E+00
  8.00000000E+01  1.40000000E+01  0.00000000E+00
  8.00000000E+01  1.20000000E+01  0.00000000E+00
  8.00000000E+01  1.00000000E+01  0.00000000E+00
  8.00000000E+01  8.00000000E+00  0.00000000E+00
  8.00000000E+01  6.00000000E+00  0.00000000E+00
  8.00000000E+01  4.00000000E+00  0.00000000E+00
  8.00000000E+01  2.00000000E+00  0.00000000E+00
  8.00000000E+01 -3.33066907E-14  0.00000000E+00
  9.00000000E+01  1.00000000E+02  0.00000000E+00
  9.00000000E+01  9.80000000E+01  0.00000000E+00
  9.00000000E+01  9.60000000E+01  0.00000000E+00
  9.00000000E+01  9.40000000E+01  0.00000000E+00
  9.00000000E+01  9.20000000E+01  0.00000000E+00
  9.00000000E+01  9.00000000E+01  0.00000000E+00
  9.00000000E+01  8.80000000E+01  0.00000000E+00
  9.00000000E+01  8.60000000E+01  0.00000000E+00
  9.00000000E+01  8.40000000E+01  0.00000000E+00
  9.00000000E+01  8.20000000E+01  0.00000000E+00
  9.00000000E+01  8.00000000E+01  0.00000000E+00
  9.00000000E+01  7.80000000E+01  0.00000000E+00
  9.00000000E+01  7.60000000E+01  0.00000000E+00
  9.00000000E+01  7.40000000E+01  0.00000000E+00
  9.00000000E+01  7.20000000E+01  0.00000000E+00
  9.00000000E+01  7.00000000E+01  0.00000000E+00
  9.00000000E+01  6.80000000E+01  0.00000000E+00
  9.00000000E+01  6.60000000E+01  0.00000000E+00
  9.00000000E+01  6.40000000E+01  0.00000000E+00
  9.00000000E+01  6.20000000E+01  0.00000000E+00
  9.00000000E+01  6.00000000E+01  0.00000000E+00
  9.00000000E+01  5.80000000E+01  0.00000000E+00
  9.00000000E+01  5.60000000E+01  0.00000000E+00
  9.00000000E+01  5.40000000E+01  0.00000000E+00
  9.00000000E+01  5.20000000E+01  0.00000000E+00
  9.00000000E+01  5.00000000E+01  0.00000000E+00
  9.00000000E+01  4.80000000E+01  0.00000000E+00
  9.00000000E+01  4.60000000E+01  0.00000000E+00
  9.00000000E+01  4.40000000E+01  0.00000000E+00
  9.00000000E+01  4.20000000E+01  0.00000000E+00
  9.00000000E+01  4.00000000E+01  0.00000000E+00
  9.00000000E+01  3.80000000E+01  0.00000000E+00
  9.00000000E+01  3.60000000E+01  0.00000000E+00
  9.00000000E+01  3.40000000E+01  0.00000000E+00
  9.00000000E+01  3.20000000E+01  0.00000000E+00
  9.00000000E+01  3.00000000E+01  0.00000000E+00
  9.00000000E+01  2.80000000E+01  0.00000000E+00
  9.00000000E+01  2.60000000E+01  0.00000000E+00
  9.00000000E+01  2.40000000E+01  0.00000000E+00
  9.00000000E+01  2.20000000E+01  0.00000000E+00
  9.00000000E+01  2.00000000E+01  0.00000000E+00
  9.00000000E+01  1.80000000E+01  0.00000000E+00
  9.00000000E+01  1.60000000E+01  0.00000000E+00
  9.00000000E+01  1.40000000E+01  0.00000000E+00
  9.00000000E+01  1.20000000E+01  0.00000000E+00
  9.00000000E+01  1.00000000E+01  0.00000000E+00
  9.00000000E+01  8.00000000E+00  0.00000000E+00
  9.00000000E+01  6.00000000E+00  0.00000000E+00
  9.00000000E+01  4.00000000E+00  0.00000000E+00
  9.00000000E+01  2.00000000E+00  0.00000000E+00
  9.00000000E+01 -3.33066907E-14  0.00000000E+00
  1.00000000E+02  1.00000000E+02  0.00000000E+00
  1.00000000E+02  9.80000000E+01  0.00000000E+00
  1.00000000E+02  9.60000000E+01  0.00000000E+00
  1.00000000E+02  9.40000000E+01  0.00000000E+00
  1.00000000E+02  9.20000000E+01  0.00000000E+00
  1.00000000E+02  9.00000000E+01  0.00000000E+00
  1.00000000E+02  8.80000000E+01  0.00000000E+00
  1.00000000E+02  8.60000000E+01  0.00000000E+00
  1.00000000E+02  8.40000000E+01  0.00000000E+00
  1.00000000E+02  8.20000000E+01  0.00000000E+00
  1.00000000E+02  8.00000000E+01  0.00000000E+00
  1.00000000E+02  7.80000000E+01  0.00000000E+00
  1.00000000E+02  7.60000000E+01  0.00000000E+00
  1.00000000E+02  7.40000000E+01  0.00000000E+00
  1.00000000E+02  7.20000000E+01  0.00000000E+00
  1.00000000E+02  7.00000000E+01  0.00000000E+00
  1.00000000E+02  6.80000000E+01  0.00000000E+00
  1.00000000E+02  6.60000000E+01  0.00000000E+00
  1.00000000E+02  6.40000000E+01  0.00000000E+00
  1.00000000E+02  6.20000000E+01  0.00000000E+00
  1.00000000E+02  6.00000000E+01  0.00000000E+00
  1.00000000E+02  5.80000000E+01  0.00000000E+00
  1.00000000E+02  5.60000000E+01  0.00000000E+00
  1.00000000E+02  5.40000000E+01  0.00000000E+00
  1.00000000E+02  5.20000000E+01  0.00000000E+00
  1.00000000E+02  5.00000000E+01  0.00000000E+00
  1.00000000E+02  4.80000000E+01  0.00000000E+00
  1.00000000E+02  4.60000000E+01  0.00000000E+00
  1.00000000E+02  4.40000000E+01  0.00000000E+00
  1.00000000E+02  4.20000000E+01  0.00000000E+00
  1.00000000E+02  4.00000000E+01  0.00000000E+00
  1.00000000E+02  3.80000000E+01  0.00000000E+00
  1.00000000E+02  3.60000000E+01  0.00000000E+00
  1.00000000E+02  3.40000000E+01  0.00000000E+00
  1.00000000E+02  3.20000000E+01  0.00000000E+00
  1.00000000E+02  3.00000000E+01  0.00000000E+00
  1.00000000E+02  2.80000000E+01  0.00000000E+00
  1.00000000E+02  2.60000000E+01  0.00000000E+00
  1.00000000E+02  2.40000000E+01  0.00000000E+00
  1.00000000E+02  2.20000000E+01  0.00000000E+00
  1.00000000E+02  2.00000000E+01  0.00000000E+00
  1.00000000E+02  1.80000000E+01  0.00000000E+00
  1.00000000E+02  1.60000000E+01  0.00000000E+00
  1.00000000E+02  1.40000000E+01  0.00000000E+00
  1.00000000E+02  1.20000000E+01  0.00000000E+00
  1.00000000E+02  1.00000000E+01  0.00000000E+00
  1.00000000E+02  8.00000000E+00  0.00000000E+00
  1.00000000E+02  6.00000000E+00  0.00000000E+00
  1.00000000E+02  4.00000000E+00  0.00000000E+00
  1.00000000E+02  2.00000000E+00  0.00000000E+00
  1.00000000E+02 -3.33066907E-14  0.00000000E+00
  1.10000000E+02  1.00000000E+02  0.00000000E+00
  1.10000000E+02  9.80000000E+01  0.00000000E+00
  1.10000000E+02  9.60000000E+01  0.00000000E+00
  1.10000000E+02  9.40000000E+01  0.00000000E+00
  1.10000000E+02  9.20000000E+01  0.00000000E+00
  1.10000000E+02  9.00000000E+01  0.00000000E+00
  1.10000000E+02  8.80000000E+01  0.00000000E+00
  1.10000000E+02  8.60000000E+01  0.00000000E+00
  1.10000000E+02  8.40000000E+01  0.00000000E+00
  1.10000000E+02  8.20000000E+01  0.00000000E+00
  1.10000000E+02  8.00000000E+01  0.00000000E+00
  1.10000000E+02  7.80000000E+01  0.00000000E+00
  1.10000000E+02  7.60000000E+01  0.00000000E+00
  1.10000000E+02  7.40000000E+01  0.00000000E+00
  1.10000000E+02  7.20000000E+01  0.00000000E+00
  1.10000000E+02  7.00000000E+01  0.00000000E+00
  1.10000000E+02  6.80000000E+01  0.00000000E+00
  1.10000000E+02  6.60000000E+01  0.00000000E+00
  1.10000000E+02  6.40000000E+01  0.00000000E+00
  1.10000000E+02  6.20000000E+01  0.00000000E+00
  1.10000000E+02  6.00000000E+01  0.00000000E+00
  1.10000000E+02  5.80000000E+01  0.00000000E+00
  1.10000000E+02  5.60000000E+01  0.00000000E+00
  1.10000000E+02  5.40000000E+01  0.00000000E+00
  1.10000000E+02  5.20000000E+01  0.00000000E+00
  1.10000000E+02  5.00000000E+01  0.00000000E+00
  1.10000000E+02  4.80000000E+01  0.00000000E+00
  1.10000000E+02  4.60000000E+01  0.00000000E+00
  1.10000000E+02  4.40000000E+01  0.00000000E+00
  1.10000000E+02  4.20000000E+01  0.00000000E+00
  1.10000000E+02  4.00000000E+01  0.00000000E+00
  1.10000000E+02  3.80000000E+01  0.00000000E+00
  1.10000000E+02  3.60000000E+01  0.00000000E+00
  1.10000000E+02  3.40000000E+01  0.00000000E+00
  1.10000000E+02  3.20000000E+01  0.00000000E+00
  1.10000000E+02  3.00000000E+01  0.00000000E+00
  1.10000000E+02  2.80000000E+01  0.00000000E+00
  1.10000000E+02  2.60000000E+01  0.00000000E+00
  1.10000000E+02  2.40000000E+01  0.00000000E+00
  1.10000000E+02  2.20000000E+01  0.00000000E+00
  1.10000000E+02  2.00000000E+01  0.00000000E+00
  1.10000000E+02  1.80000000E+01  0.00000000E+00
  1.10000000E+02  1.60000000E+01  0.00000000E+00
  1.10000000E+02  1.40000000E+01  0.00000000E+00
  1.10000000E+02  1.20000000E+01  0.00000000E+00
  1.10000000E+02  1.00000000E+01  0.00000000E+00
  1.10000000E+02  8.00000000E+00  0.00000000E+00
  1.10000000E+02  6.00000000E+00  0.00000000E+00
  1.10000000E+02  4.00000000E+00  0.00000000E+00
  1.10000000E+02  2.00000000E+00  0.00000000E+00
  1.10000000E+02 -3.33066907E-14  0.00000000E+00
  1.20000000E+02  1.00000000E+02  0.00000000E+00
  1.20000000E+02  9.80000000E+01  0.00000000E+00
  1.20000000E+02  9.60000000E+01  0.00000000E+00
  1.20000000E+02  9.40000000E+01  0.00000000E+00
  1.20000000E+02  9.20000000E+01  0.00000000E+00
  1.20000000E+02  9.00000000E+01  0.00000000E+00
  1.20000000E+02  8.80000000E+01  0.00000000E+00
  1.20000000E+02  8.60000000E+01  0.00000000E+00
  1.20000000E+02  8.40000000E+01  0.00000000E+00
  1.20000000E+02  8.20000000E+01  0.00000000E+00
  1.20000000E+02  8.00000000E+01  0.00000000E+00
  1.20000000E+02  7.80000000E+01  0.00000000E+00
  1.20000000E+02  7.60000000E+01  0.00000000E+00
  1.20000000E+02  7.40000000E+01  0.00000000E+00
  1.20000000E+02  7.20000000E+01  0.00000000E+00
  1.20000000E+02  7.00000000E+01  0.00000000E+00
  1.20000000E+02  6.80000000E+01  0.00000000E+00
  1.20000000E+02  6.60000000E+01  0.00000000E+00
  1.20000000E+02  6.40000000E+01  0.00000000E+00
  1.20000000E+02  6.20000000E+01  0.00000000E+00
  1.20000000E+02  6.00000000E+01  0.00000000E+00
  1.20000000E+02  5.80000000E+01  0.00000000E+00
  1.20000000E+02  5.60000000E+01  0.00000000E+00
  1.20000000E+02  5.40000000E+01  0.00000000E+00
  1.20000000E+02  5.20000000E+01  0.00000000E+00
  1.20000000E+02  5.00000000E+01  0.00000000E+00
  1.20000000E+02  4.80000000E+01  0.00000000E+00
  1.20000000E+02  4.60000000E+01  0.00000000E+00
  1.20000000E+02  4.40000000E+01  0.00000000E+00
  1.20000000E+02  4.20000000E+01  0.00000000E+00
  1.20000000E+02  4.00000000E+01  0.00000000E+00
  1.20000000E+02  3.80000000E+01  0.00000000E+00
  1.20000000E+02  3.60000000E+01  0.00000000E+00
  1.20000000E+02  3.40000000E+01  0.00000000E+00
  1.20000000E+02  3.20000000E+01  0.00000000E+00
  1.20000000E+02  3.00000000E+01  0.00000000E+00
  1.20000000E+02  2.80000000E+01  0.00000000E+00
  1.20000000E+02  2.60000000E+01  0.00000000E+00
  1.20000000E+02  2.40000000E+01  0.00000000E+00
  1.20000000E+02  2.20000000E+01  0.00000000E+00
  1.20000000E+02  2.00000000E+01  0.00000000E+00
  1.20000000E+02  1.80000000E+01  0.00000000E+00
  1.20000000E+02  1.60000000E+01  0.00000000E+00
  1.20000000E+02  1.40000000E+01  0.00000000E+00
  1.20000000E+02  1.20000000E+01  0.00000000E+00
  1.20000000E+02  1.00000000E+01  0.00000000E+00
  1.20000000E+02  8.00000000E+00  0.00000000E+00
  1.20000000E+02  6.00000000E+00  0.00000000E+00
  1.20000000E+02  4.00000000E+00  0.00000000E+00
  1.20000000E+02  2.00000000E+00  0.00000000E+00
  1.20000000E+02 -3.33066907E-14  0.00000000E+00
  1.30000000E+02  1.00000000E+02  0.00000000E+00
  1.30000000E+02  9.80000000E+01  0.00000000E+00
  1.30000000E+02  9.60000000E+01  0.00000000E+00
  1.30000000E+02  9.40000000E+01  0.00000000E+00
  1.30000000E+02  9.20000000E+01  0.00000000E+00
  1.30000000E+02  9.00000000E+01  0.00000000E+00
  1.30000000E+02  8.80000000E+01  0.00000000E+00
  1.30000000E+02  8.60000000E+01  0.00000000E+00
  1.30000000E+02  8.40000000E+01  0.00000000E+00
  1.30000000E+02  8.20000000E+01  0.00000000E+00
  1.30000000E+02  8.00000000E+01  0.00000000E+00
  1.30000000E+02  7.80000000E+01  0.00000000E+00
  1.30000000E+02  7.60000000E+01  0.00000000E+00
  1.30000000E+02  7.40000000E+01  0.00000000E+00
  1.30000000E+02  7.20000000E+01  0.00000000E+00
  1.30000000E+02  7.00000000E+01  0.00000000E+00
  1.30000000E+02  6.80000000E+01  0.00000000E+00
  1.30000000E+02  6.60000000E+01  0.00000000E+00
  1.30000000E+02  6.40000000E+01  0.00000000E+00
  1.30000000E+02  6.20000000E+01  0.00000000E+00
  1.30000000E+02  6.00000000E+01  0.00000000E+00
  1.30000000E+02  5.80000000E+01  0.00000000E+00
  1.30000000E+02  5.60000000E+01  0.00000000E+00
  1.30000000E+02  5.40000000E+01  0.00000000E+00
  1.30000000E+02  5.20000000E+01  0.00000000E+00
  1.30000000E+02  5.00000000E+01  0.00000000E+00
  1.30000000E+02  4.80000000E+01  0.00000000E+00
  1.30000000E+02  4.60000000E+01  0.00000000E+00
  1.30000000E+02  4.40000000E+01  0.00000000E+00
  1.30000000E+02  4.20000000E+01  0.00000000E+00
  1.30000000E+02  4.00000000E+01  0.00000000E+00
  1.30000000E+02  3.80000000E+01  0.00000000E+00
  1.30000000E+02  3.60000000E+01  0.00000000E+00
  1.30000000E+02  3.40000000E+01  0.00000000E+00
  1.30000000E+02  3.20000000E+01  0.00000000E+00
  1.30000000E+02  3.00000000E+01  0.00000000E+00
  1.30000000E+02  2.80000000E+01  0.00000000E+00
  1.30000000E+02  2.60000000E+01  0.00000000E+00
  1.30000000E+02  2.40000000E+01  0.00000000E+00
  1.30000000E+02  2.20000000E+01  0.00000000E+00
  1.30000000E+02  2.00000000E+01  0.00000000E+00
  1.30000000E+02  1.80000000E+01  0.00000000E+00
  1.30000000E+02  1.60000000E+01  0.00000000E+00
  1.30000000E+02  1.40000000E+01  0.00000000E+00
  1.30000000E+02  1.20000000E+01  0.00000000E+00
  1.30000000E+02  1.00000000E+01  0.00000000E+00
  1.30000000E+02  8.00000000E+00  0.00000000E+00
  1.30000000E+02  6.00000000E+00  0.00000000E+00
  1.30000000E+02  4.00000000E+00  0.00000000E+00
  1.30000000E+02  2.00000000E+00  0.00000000E+00
  1.30000000E+02 -3.33066907E-14  0.00000000E+00
  1.40000000E+02  1.00000000E+02  0.00000000E+00
  1.40000000E+02  9.80000000E+01  0.00000000E+00
  1.40000000E+02  9.60000000E+01  0.00000000E+00
  1.40000000E+02  9.40000000E+01  0.00000000E+00
  1.40000000E+02  9.20000000E+01  0.00000000E+00
  1.40000000E+02  9.00000000E+01  0.00000000E+00
  1.40000000E+02  8.80000000E+01  0.00000000E+00
  1.40000000E+02  8.60000000E+01  0.00000000E+00
  1.40000000E+02  8.40000000E+01  0.00000000E+00
  1.40000000E+02  8.20000000E+01  0.00000000E+00
  1.40000000E+02  8.00000000E+01  0.00000000E+00
  1.40000000E+02  7.80000000E+01  0.00000000E+00
  1.40000000E+02  7.60000000E+01  0.00000000E+00
  1.40000000E+02  7.40000000E+01  0.00000000E+00
  1.40000000E+02  7.20000000E+01  0.00000000E+00
  1.40000000E+02  7.00000000E+01  0.00000000E+00
  1.40000000E+02  6.80000000E+01  0.00000000E+00
  1.40000000E+02  6.60000000E+01  0.00000000E+00
  1.40000000E+02  6.40000000E+01  0.00000000E+00
  1.40000000E+02  6.20000000E+01  0.00000000E+00
  1.40000000E+02  6.00000000E+01  0.00000000E+00
  1.40000000E+02  5.80000000E+01  0.00000000E+00
  1.40000000E+02  5.60000000E+01  0.00000000E+00
  1.40000000E+02  5.40000000E+01  0.00000000E+00
  1.40000000E+02  5.20000000E+01  0.00000000E+00
  1.40000000E+02  5.00000000E+01  0.00000000E+00
  1.40000000E+02  4.80000000E+01  0.00000000E+00
  1.40000000E+02  4.60000000E+01  0.00000000E+00
  1.40000000E+02  4.40000000E+01  0.00000000E+00
  1.40000000E+02  4.20000000E+01  0.00000000E+00
  1.40000000E+02  4.00000000E+01  0.00000000E+00
  1.40000000E+02  3.80000000E+01  0.00000000E+00
  1.40000000E+02  3.60000000E+01  0.00000000E+00
  1.40000000E+02  3.40000000E+01  0.00000000E+00
  1.40000000E+02  3.20000000E+01  0.00000000E+00
  1.40000000E+02  3.00000000E+01  0.00000000E+00
  1.40000000E+02  2.80000000E+01  0.00000000E+00
  1.40000000E+02  2.60000000E+01  0.00000000E+00
  1.40000000E+02  2.40000000E+01  0.00000000E+00
  1.40000000E+02  2.20000000E+01  0.00000000E+00
  1.40000000E+02  2.00000000E+01  0.00000000E+00
  1.40000000E+02  1.80000000E+01  0.00000000E+00
  1.40000000E+02  1.60000000E+01  0.00000000E+00
  1.40000000E+02  1.40000000E+01  0.00000000E+00
  1.40000000E+02  1.20000000E+01  0.00000000E+00
  1.40000000E+02  1.00000000E+01  0.00000000E+00
  1.40000000E+02  8.00000000E+00  0.00000000E+00
  1.40000000E+02  6.00000000E+00  0.00000000E+00
  1.40000000E+02  4.00000000E+00  0.00000000E+00
  1.40000000E+02  2.00000000E+00  0.00000000E+00
  1.40000000E+02 -3.33066907E-14  0.00000000E+00
  1.50000000E+02  1.00000000E+02  0.00000000E+00
  1.50000000E+02  9.80000000E+01  0.00000000E+00
  1.50000000E+02  9.60000000E+01  0.00000000E+00
  1.50000000E+02  9.40000000E+01  0.00000000E+00
  1.50000000E+02  9.20000000E+01  0.00000000E+00
  1.50000000E+02  9.00000000E+01  0.00000000E+00
  1.50000000E+02  8.80000000E+01  0.00000000E+00
  1.50000000E+02  8.60000000E+01  0.00000000E+00
  1.50000000E+02  8.40000000E+01  0.00000000E+00
  1.50000000E+02  8.20000000E+01  0.00000000E+00
  1.50000000E+02  8.00000000E+01  0.00000000E+00
  1.50000000E+02  7.80000000E+01  0.00000000E+00
  1.50000000E+02  7.60000000E+01  0.00000000E+00
  1.50000000E+02  7.40000000E+01  0.00000000E+00
  1.50000000E+02  7.20000000E+01  0.00000000E+00
  1.50000000E+02  7.00000000E+01  0.00000000E+00
  1.50000000E+02  6.80000000E+01  0.00000000E+00
  1.50000000E+02  6.60000000E+01  0.00000000E+00
  1.50000000E+02  6.40000000E+01  0.00000000E+00
  1.50000000E+02  6.20000000E+01  0.00000000E+00
  1.50000000E+02  6.00000000E+01  0.00000000E+00
  1.50000000E+02  5.80000000E+01  0.00000000E+00
  1.50000000E+02  5.60000000E+01  0.00000000E+00
  1.50000000E+02  5.40000000E+01  0.00000000E+00
  1.50000000E+02  5.20000000E+01  0.00000000E+00
  1.50000000E+02  5.00000000E+01  0.00000000E+00
  1.50000000E+02  4.80000000E+01  0.00000000E+00
  1.50000000E+02  4.60000000E+01  0.00000000E+00
  1.50000000E+02  4.40000000E+01  0.00000000E+00
  1.50000000E+02  4.20000000E+01  0.00000000E+00
  1.50000000E+02  4.00000000E+01  0.00000000E+00
  1.50000000E+02  3.80000000E+01  0.00000000E+00
  1.50000000E+02  3.60000000E+01  0.00000000E+00
  1.50000000E+02  3.40000000E+01  0.00000000E+00
  1.50000000E+02  3.20000000E+01  0.00000000E+00
  1.50000000E+02  3.00000000E+01  0.00000000E+00
  1.50000000E+02  2.80000000E+01  0.00000000E+00
  1.50000000E+02  2.60000000E+01  0.00000000E+00
  1.50000000E+02  2.40000000E+01  0.00000000E+00
  1.50000000E+02  2.20000000E+01  0.00000000E+00
  1.50000000E+02  2.00000000E+01  0.00000000E+00
  1.50000000E+02  1.80000000E+01  0.00000000E+00
  1.50000000E+02  1.60000000E+01  0.00000000E+00
  1.50000000E+02  1.40000000E+01  0.00000000E+00
  1.50000000E+02  1.20000000E+01  0.00000000E+00
  1.50000000E+02  1.00000000E+01  0.00000000E+00
  1.50000000E+02  8.00000000E+00  0.00000000E+00
  1.50000000E+02  6.00000000E+00  0.00000000E+00
  1.50000000E+02  4.00000000E+00  0.00000000E+00
  1.50000000E+02  2.00000000E+00  0.00000000E+00
  1.50000000E+02 -3.33066907E-14  0.00000000E+00
  1.60000000E+02  1.00000000E+02  0.00000000E+00
  1.60000000E+02  9.80000000E+01  0.00000000E+00
  1.60000000E+02  9.60000000E+01  0.00000000E+00
  1.60000000E+02  9.40000000E+01  0.00000000E+00
  1.60000000E+02  9.20000000E+01  0.00000000E+00
  1.60000000E+02  9.00000000E+01  0.00000000E+00
  1.60000000E+02  8.80000000E+01  0.00000000E+00
  1.60000000E+02  8.60000000E+01  0.00000000E+00
  1.60000000E+02  8.40000000E+01  0.00000000E+00
  1.60000000E+02  8.20000000E+01  0.00000000E+00
  1.60000000E+02  8.00000000E+01  0.00000000E+00
  1.60000000E+02  7.80000000E+01  0.00000000E+00
  1.60000000E+02  7.60000000E+01  0.00000000E+00
  1.60000000E+02  7.40000000E+01  0.00000000E+00
  1.60000000E+02  7.20000000E+01  0.00000000E+00
  1.60000000E+02  7.00000000E+01  0.00000000E+00
  1.60000000E+02  6.80000000E+01  0.00000000E+00
  1.60000000E+02  6.60000000E+01  0.00000000E+00
  1.60000000E+02  6.40000000E+01  0.00000000E+00
  1.60000000E+02  6.20000000E+01  0.00000000E+00
  1.60000000E+02  6.00000000E+01  0.00000000E+00
  1.60000000E+02  5.80000000E+01  0.00000000E+00
  1.60000000E+02  5.60000000E+01  0.00000000E+00
  1.60000000E+02  5.40000000E+01  0.00000000E+00
  1.60000000E+02  5.20000000E+01  0.00000000E+00
  1.60000000E+02  5.00000000E+01  0.00000000E+00
  1.60000000E+02  4.80000000E+01  0.00000000E+00
  1.60000000E+02  4.60000000E+01  0.00000000E+00
  1.60000000E+02  4.40000000E+01  0.00000000E+00
  1.60000000E+02  4.20000000E+01  0.00000000E+00
  1.60000000E+02  4.00000000E+01  0.00000000E+00
  1.60000000E+02  3.80000000E+01  0.00000000E+00
  1.60000000E+02  3.60000000E+01  0.00000000E+00
  1.60000000E+02  3.40000000E+01  0.00000000E+00
  1.60000000E+02  3.20000000E+01  0.00000000E+00
  1.60000000E+02  3.00000000E+01  0.00000000E+00
  1.60000000E+02  2.80000000E+01  0.00000000E+00
  1.60000000E+02  2.60000000E+01  0.00000000E+00
  1.60000000E+02  2.40000000E+01  0.00000000E+00
  1.60000000E+02  2.20000000E+01  0.00000000E+00
  1.60000000E+02  2.00000000E+01  0.00000000E+00
  1.60000000E+02  1.80000000E+01  0.00000000E+00
  1.60000000E+02  1.60000000E+01  0.00000000E+00
  1.60000000E+02  1.40000000E+01  0.00000000E+00
  1.60000000E+02  1.20000000E+01  0.00000000E+00
  1.60000000E+02  1.00000000E+01  0.00000000E+00
  1.60000000E+02  8.00000000E+00  0.00000000E+00
  1.60000000E+02  6.00000000E+00  0.00000000E+00
  1.60000000E+02  4.00000000E+00  0.00000000E+00
  1.60000000E+02  2.00000000E+00  0.00000000E+00
  1.60000000E+02 -3.33066907E-14  0.00000000E+00
  1.70000000E+02  1.00000000E+02  0.00000000E+00
  1.70000000E+02  9.80000000E+01  0.00000000E+00
  1.70000000E+02  9.60000000E+01  0.00000000E+00
  1.70000000E+02  9.40000000E+01  0.00000000E+00
  1.70000000E+02  9.20000000E+01  0.00000000E+00
  1.70000000E+02  9.00000000E+01  0.00000000E+00
  1.70000000E+02  8.80000000E+01  0.00000000E+00
  1.70000000E+02  8.60000000E+01  0.00000000E+00
  1.70000000E+02  8.40000000E+01  0.00000000E+00
  1.70000000E+02  8.20000000E+01  0.00000000E+00
  1.70000000E+02  8.00000000E+01  0.00000000E+00
  1.70000000E+02  7.80000000E+01  0.00000000E+00
  1.70000000E+02  7.60000000E+01  0.00000000E+00
  1.70000000E+02  7.40000000E+01  0.00000000E+00
  1.70000000E+02  7.20000000E+01  0.00000000E+00
  1.70000000E+02  7.00000000E+01  0.00000000E+00
  1.70000000E+02  6.80000000E+01  0.00000000E+00
  1.70000000E+02  6.60000000E+01  0.00000000E+00
  1.70000000E+02  6.40000000E+01  0.00000000E+00
  1.70000000E+02  6.20000000E+01  0.00000000E+00
  1.70000000E+02  6.00000000E+01  0.00000000E+00
  1.70000000E+02  5.80000000E+01  0.00000000E+00
  1.70000000E+02  5.60000000E+01  0.00000000E+00
  1.70000000E+02  5.40000000E+01  0.00000000E+00
  1.70000000E+02  5.20000000E+01  0.00000000E+00
  1.70000000E+02  5.00000000E+01  0.00000000E+00
  1.70000000E+02  4.80000000E+01  0.00000000E+00
  1.70000000E+02  4.60000000E+01  0.00000000E+00
  1.70000000E+02  4.40000000E+01  0.00000000E+00
  1.70000000E+02  4.20000000E+01  0.00000000E+00
  1.70000000E+02  4.00000000E+01  0.00000000E+00
  1.70000000E+02  3.80000000E+01  0.00000000E+00
  1.70000000E+02  3.60000000E+01  0.00000000E+00
  1.70000000E+02  3.40000000E+01  0.00000000E+00
  1.70000000E+02  3.20000000E+01  0.00000000E+00
  1.70000000E+02  3.00000000E+01  0.00000000E+00
  1.70000000E+02  2.80000000E+01  0.00000000E+00
  1.70000000E+02  2.60000000E+01  0.00000000E+00
  1.70000000E+02  2.40000000E+01  0.00000000E+00
  1.70000000E+02  2.20000000E+01  0.00000000E+00
  1.70000000E+02  2.00000000E+01  0.00000000E+00
  1.70000000E+02  1.80000000E+01  0.00000000E+00
  1.70000000E+02  1.60000000E+01  0.00000000E+00
  1.70000000E+02  1.40000000E+01  0.00000000E+00
  1.70000000E+02  1.20000000E+01  0.00000000E+00
  1.70000000E+02  1.00000000E+01  0.00000000E+00
  1.70000000E+02  8.00000000E+00  0.00000000E+00
  1.70000000E+02  6.00000000E+00  0.00000000E+00
  1.70000000E+02  4.00000000E+00  0.00000000E+00
  1.70000000E+02  2.00000000E+00  0.00000000E+00
  1.70000000E+02 -3.33066907E-14  0.00000000E+00
  1.80000000E+02  1.00000000E+02  0.00000000E+00
  1.80000000E+02  9.80000000E+01  0.00000000E+00
  1.80000000E+02  9.60000000E+01  0.00000000E+00
  1.80000000E+02  9.40000000E+01  0.00000000E+00
  1.80000000E+02  9.20000000E+01  0.00000000E+00
  1.80000000E+02  9.00000000E+01  0.00000000E+00
  1.80000000E+02  8.80000000E+01  0.00000000E+00
  1.80000000E+02  8.60000000E+01  0.00000000E+00
  1.80000000E+02  8.40000000E+01  0.00000000E+00
  1.80000000E+02  8.20000000E+01  0.00000000E+00
  1.80000000E+02  8.00000000E+01  0.00000000E+00
  1.80000000E+02  7.80000000E+01  0.00000000E+00
  1.80000000E+02  7.60000000E+01  0.00000000E+00
  1.80000000E+02  7.40000000E+01  0.00000000E+00
  1.80000000E+02  7.20000000E+01  0.00000000E+00
  1.80000000E+02  7.00000000E+01  0.00000000E+00
  1.80000000E+02  6.80000000E+01  0.00000000E+00
  1.80000000E+02  6.60000000E+01  0.00000000E+00
  1.80000000E+02  6.40000000E+01  0.00000000E+00
  1.80000000E+02  6.20000000E+01  0.00000000E+00
  1.80000000E+02  6.00000000E+01  0.00000000E+00
  1.80000000E+02  5.80000000E+01  0.00000000E+00
  1.80000000E+02  5.60000000E+01  0.00000000E+00
  1.80000000E+02  5.40000000E+01  0.00000000E+00
  1.80000000E+02  5.20000000E+01  0.00000000E+00
  1.80000000E+02  5.00000000E+01  0.00000000E+00
  1.80000000E+02  4.80000000E+01  0.00000000E+00
  1.80000000E+02  4.60000000E+01  0.00000000E+00
  1.80000000E+02  4.40000000E+01  0.00000000E+00
  1.80000000E+02  4.20000000E+01  0.00000000E+00
  1.80000000E+02  4.00000000E+01  0.00000000E+00
  1.80000000E+02  3.80000000E+01  0.00000000E+00
  1.80000000E+02  3.60000000E+01  0.00000000E+00
  1.80000000E+02  3.40000000E+01  0.00000000E+00
  1.80000000E+02  3.20000000E+01  0.00000000E+00
  1.80000000E+02  3.00000000E+01  0.00000000E+00
  1.80000000E+02  2.80000000E+01  0.00000000E+00
  1.80000000E+02  2.60000000E+01  0.00000000E+00
  1.80000000E+02  2.40000000E+01  0.00000000E+00
  1.80000000E+02  2.20000000E+01  0.00000000E+00
  1.80000000E+02  2.00000000E+01  0.00000000E+00
  1.80000000E+02  1.80000000E+01  0.00000000E+00
  1.80000000E+02  1.60000000E+01  0.00000000E+00
  1.80000000E+02  1.40000000E+01  0.00000000E+00
  1.80000000E+02  1.20000000E+01  0.00000000E+00
  1.80000000E+02  1.00000000E+01  0.00000000E+00
  1.80000000E+02  8.00000000E+00  0.00000000E+00
  1.80000000E+02  6.00000000E+00  0.00000000E+00
  1.80000000E+02  4.00000000E+00  0.00000000E+00
  1.80000000E+02  2.00000000E+00  0.00000000E+00
  1.80000000E+02 -3.33066907E-14  0.00000000E+00
  1.90000000E+02  1.00000000E+02  0.00000000E+00
  1.90000000E+02  9.80000000E+01  0.00000000E+00
  1.90000000E+02  9.60000000E+01  0.00000000E+00
  1.90000000E+02  9.40000000E+01  0.00000000E+00
  1.90000000E+02  9.20000000E+01  0.00000000E+00
  1.90000000E+02  9.00000000E+01  0.00000000E+00
  1.90000000E+02  8.80000000E+01  0.00000000E+00
  1.90000000E+02  8.60000000E+01  0.00000000E+00
  1.90000000E+02  8.40000000E+01  0.00000000E+00
  1.90000000E+02  8.20000000E+01  0.00000000E+00
  1.90000000E+02  8.00000000E+01  0.00000000E+00
  1.90000000E+02  7.80000000E+01  0.00000000E+00
  1.90000000E+02  7.60000000E+01  0.00000000E+00
  1.90000000E+02  7.40000000E+01  0.00000000E+00
  1.90000000E+02  7.20000000E+01  0.00000000E+00
  1.90000000E+02  7.00000000E+01  0.00000000E+00
  1.90000000E+02  6.80000000E+01  0.00000000E+00
  1.90000000E+02  6.60000000E+01  0.00000000E+00
  1.90000000E+02  6.40000000E+01  0.00000000E+00
  1.90000000E+02  6.20000000E+01  0.00000000E+00
  1.90000000E+02  6.00000000E+01  0.00000000E+00
  1.90000000E+02  5.80000000E+01  0.00000000E+00
  1.90000000E+02  5.60000000E+01  0.00000000E+00
  1.90000000E+02  5.40000000E+01  0.00000000E+00
  1.90000000E+02  5.20000000E+01  0.00000000E+00
  1.90000000E+02  5.00000000E+01  0.00000000E+00
  1.90000000E+02  4.80000000E+01  0.00000000E+00
  1.90000000E+02  4.60000000E+01  0.00000000E+00
  1.90000000E+02  4.40000000E+01  0.00000000E+00
  1.90000000E+02  4.20000000E+01  0.00000000E+00
  1.90000000E+02  4.00000000E+01  0.00000000E+00
  1.90000000E+02  3.80000000E+01  0.00000000E+00
  1.90000000E+02  3.60000000E+01  0.00000000E+00
  1.90000000E+02  3.40000000E+01  0.00000000E+00
  1.90000000E+02  3.20000000E+01  0.00000000E+00
  1.90000000E+02  3.00000000E+01  0.00000000E+00
  1.90000000E+02  2.80000000E+01  0.00000000E+00
  1.90000000E+02  2.60000000E+01  0.00000000E+00
  1.90000000E+02  2.40000000E+01  0.00000000E+00
  1.90000000E+02  2.20000000E+01  0.00000000E+00
  1.90000000E+02  2.00000000E+01  0.00000000E+00
  1.90000000E+02  1.80000000E+01  0.00000000E+00
  1.90000000E+02  1.60000000E+01  0.00000000E+00
  1.90000000E+02  1.40000000E+01  0.00000000E+00
  1.90000000E+02  1.20000000E+01  0.00000000E+00
  1.90000000E+02  1.00000000E+01  0.00000000E+00
  1.90000000E+02  8.00000000E+00  0.00000000E+00
  1.90000000E+02  6.00000000E+00  0.00000000E+00
  1.90000000E+02  4.00000000E+00  0.00000000E+00
  1.90000000E+02  2.00000000E+00  0.00000000E+00
  1.90000000E+02 -3.33066907E-14  0.00000000E+00
  2.00000000E+02  1.00000000E+02  0.00000000E+00
  2.00000000E+02  9.80000000E+01  0.00000000E+00
  2.00000000E+02  9.60000000E+01  0.00000000E+00
  2.00000000E+02  9.40000000E+01  0.00000000E+00
  2.00000000E+02  9.20000000E+01  0.00000000E+00
  2.00000000E+02  9.00000000E+01  0.00000000E+00
  2.00000000E+02  8.80000000E+01  0.00000000E+00
  2.00000000E+02  8.60000000E+01  0.00000000E+00
  2.00000000E+02  8.40000000E+01  0.00000000E+00
  2.00000000E+02  8.20000000E+01  0.00000000E+00
  2.00000000E+02  8.00000000E+01  0.00000000E+00
  2.00000000E+02  7.80000000E+01  0.00000000E+00
  2.00000000E+02  7.60000000E+01  0.00000000E+00
  2.00000000E+02  7.40000000E+01  0.00000000E+00
  2.00000000E+02  7.20000000E+01  0.00000000E+00
  2.00000000E+02  7.00000000E+01  0.00000000E+00
  2.00000000E+02  6.80000000E+01  0.00000000E+00
  2.00000000E+02  6.60000000E+01  0.00000000E+00
  2.00000000E+02  6.40000000E+01  0.00000000E+00
  2.00000000E+02  6.20000000E+01  0.00000000E+00
  2.00000000E+02  6.00000000E+01  0.00000000E+00
  2.00000000E+02  5.80000000E+01  0.00000000E+00
  2.00000000E+02  5.60000000E+01  0.00000000E+00
  2.00000000E+02  5.40000000E+01  0.00000000E+00
  2.00000000E+02  5.20000000E+01  0.00000000E+00
  2.00000000E+02  5.00000000E+01  0.00000000E+00
  2.00000000E+02  4.80000000E+01  0.00000000E+00
  2.00000000E+02  4.60000000E+01  0.00000000E+00
  2.00000000E+02  4.40000000E+01  0.00000000E+00
  2.00000000E+02  4.20000000E+01  0.00000000E+00
  2.00000000E+02  4.00000000E+01  0.00000000E+00
  2.00000000E+02  3.80000000E+01  0.00000000E+00
  2.00000000E+02  3.60000000E+01  0.00000000E+00
  2.00000000E+02  3.40000000E+01  0.00000000E+00
  2.00000000E+02  3.20000000E+01  0.00000000E+00
  2.00000000E+02  3.00000000E+01  0.00000000E+00
  2.00000000E+02  2.80000000E+01  0.00000000E+00
  2.00000000E+02  2.60000000E+01  0.00000000E+00
  2.00000000E+02  2.40000000E+01  0.00000000E+00
  2.00000000E+02  2.20000000E+01  0.00000000E+00
  2.00000000E+02  2.00000000E+01  0.00000000E+00
  2.00000000E+02  1.80000000E+01  0.00000000E+00
  2.00000000E+02  1.60000000E+01  0.00000000E+00
  2.00000000E+02  1.40000000E+01  0.00000000E+00
  2.00000000E+02  1.20000000E+01  0.00000000E+00
  2.00000000E+02  1.00000000E+01  0.00000000E+00
  2.00000000E+02  8.00000000E+00  0.00000000E+00
  2.00000000E+02  6.00000000E+00  0.00000000E+00
  2.00000000E+02  4.00000000E+00  0.00000000E+00
  2.00000000E+02  2.00000000E+00  0.00000000E+00
  2.00000000E+02 -3.33066907E-14  0.00000000E+00
  2.10000000E+02  1.00000000E+02  0.00000000E+00
  2.10000000E+02  9.80000000E+01  0.00000000E+00
  2.10000000E+02  9.60000000E+01  0.00000000E+00
  2.10000000E+02  9.40000000E+01  0.00000000E+00
  2.10000000E+02  9.20000000E+01  0.00000000E+00
  2.10000000E+02  9.00000000E+01  0.00000000E+00
  2.10000000E+02  8.80000000E+01  0.00000000E+00
  2.10000000E+02  8.60000000E+01  0.00000000E+00
  2.10000000E+02  8.40000000E+01  0.00000000E+00
  2.10000000E+02  8.20000000E+01  0.00000000E+00
  2.10000000E+02  8.00000000E+01  0.00000000E+00
  2.10000000E+02  7.80000000E+01  0.00000000E+00
  2.10000000E+02  7.60000000E+01  0.00000000E+00
  2.10000000E+02  7.40000000E+01  0.00000000E+00
  2.10000000E+02  7.20000000E+01  0.00000000E+00
  2.10000000E+02  7.00000000E+01  0.00000000E+00
  2.10000000E+02  6.80000000E+01  0.00000000E+00
  2.10000000E+02  6.60000000E+01  0.00000000E+00
  2.10000000E+02  6.40000000E+01  0.00000000E+00
  2.10000000E+02  6.20000000E+01  0.00000000E+00
  2.10000000E+02  6.00000000E+01  0.00000000E+00
  2.10000000E+02  5.80000000E+01  0.00000000E+00
  2.10000000E+02  5.60000000E+01  0.00000000E+00
  2.10000000E+02  5.40000000E+01  0.00000000E+00
  2.10000000E+02  5.20000000E+01  0.00000000E+00
  2.10000000E+02  5.00000000E+01  0.00000000E+00
  2.10000000E+02  4.80000000E+01  0.00000000E+00
  2.10000000E+02  4.60000000E+01  0.00000000E+00
  2.10000000E+02  4.40000000E+01  0.00000000E+00
  2.10000000E+02  4.20000000E+01  0.00000000E+00
  2.10000000E+02  4.00000000E+01  0.00000000E+00
  2.10000000E+02  3.80000000E+01  0.00000000E+00
  2.10000000E+02  3.60000000E+01  0.00000000E+00
  2.10000000E+02  3.40000000E+01  0.00000000E+00
  2.10000000E+02  3.20000000E+01  0.00000000E+00
  2.10000000E+02  3.00000000E+01  0.00000000E+00
  2.10000000E+02  2.80000000E+01  0.00000000E+00
  2.10000000E+02  2.60000000E+01  0.00000000E+00
  2.10000000E+02  2.40000000E+01  0.00000000E+00
  2.10000000E+02  2.20000000E+01  0.00000000E+00
  2.10000000E+02  2.00000000E+01  0.00000000E+00
  2.10000000E+02  1.80000000E+01  0.00000000E+00
  2.10000000E+02  1.60000000E+01  0.00000000E+00
  2.10000000E+02  1.40000000E+01  0.00000000E+00
  2.10000000E+02  1.20000000E+01  0.00000000E+00
  2.10000000E+02  1.00000000E+01  0.00000000E+00
  2.10000000E+02  8.00000000E+00  0.00000000E+00
  2.10000000E+02  6.00000000E+00  0.00000000E+00
  2.10000000E+02  4.00000000E+00  0.00000000E+00
  2.10000000E+02  2.00000000E+00  0.00000000E+00
  2.10000000E+02 -3.33066907E-14  0.00000000E+00
  2.20000000E+02  1.00000000E+02  0.00000000E+00
  2.20000000E+02  9.80000000E+01  0.00000000E+00
  2.20000000E+02  9.60000000E+01  0.00000000E+00
  2.20000000E+02  9.40000000E+01  0.00000000E+00
  2.20000000E+02  9.20000000E+01  0.00000000E+00
  2.20000000E+02  9.00000000E+01  0.00000000E+00
  2.20000000E+02  8.80000000E+01  0.00000000E+00
  2.20000000E+02  8.60000000E+01  0.00000000E+00
  2.20000000E+02  8.40000000E+01  0.00000000E+00
  2.20000000E+02  8.20000000E+01  0.00000000E+00
  2.20000000E+02  8.00000000E+01  0.00000000E+00
  2.20000000E+02  7.80000000E+01  0.00000000E+00
  2.20000000E+02  7.60000000E+01  0.00000000E+00
  2.20000000E+02  7.40000000E+01  0.00000000E+00
  2.20000000E+02  7.20000000E+01  0.00000000E+00
  2.20000000E+02  7.00000000E+01  0.00000000E+00
  2.20000000E+02  6.80000000E+01  0.00000000E+00
  2.20000000E+02  6.60000000E+01  0.00000000E+00
  2.20000000E+02  6.40000000E+01  0.00000000E+00
  2.20000000E+02  6.20000000E+01  0.00000000E+00
  2.20000000E+02  6.00000000E+01  0.00000000E+00
  2.20000000E+02  5.80000000E+01  0.00000000E+00
  2.20000000E+02  5.60000000E+01  0.00000000E+00
  2.20000000E+02  5.40000000E+01  0.00000000E+00
  2.20000000E+02  5.20000000E+01  0.00000000E+00
  2.20000000E+02  5.00000000E+01  0.00000000E+00
  2.20000000E+02  4.80000000E+01  0.00000000E+00
  2.20000000E+02  4.60000000E+01  0.00000000E+00
  2.20000000E+02  4.40000000E+01  0.00000000E+00
  2.20000000E+02  4.20000000E+01  0.00000000E+00
  2.20000000E+02  4.00000000E+01  0.00000000E+00
  2.20000000E+02  3.80000000E+01  0.00000000E+00
  2.20000000E+02  3.60000000E+01  0.00000000E+00
  2.20000000E+02  3.40000000E+01  0.00000000E+00
  2.20000000E+02  3.20000000E+01  0.00000000E+00
  2.20000000E+02  3.00000000E+01  0.00000000E+00
  2.20000000E+02  2.80000000E+01  0.00000000E+00
  2.20000000E+02  2.60000000E+01  0.00000000E+00
  2.20000000E+02  2.40000000E+01  0.00000000E+00
  2.20000000E+02  2.20000000E+01  0.00000000E+00
  2.20000000E+02  2.00000000E+01  0.00000000E+00
  2.20000000E+02  1.80000000E+01  0.00000000E+00
  2.20000000E+02  1.60000000E+01  0.00000000E+00
  2.20000000E+02  1.40000000E+01  0.00000000E+00
  2.20000000E+02  1.20000000E+01  0.00000000E+00
  2.20000000E+02  1.00000000E+01  0.00000000E+00
  2.20000000E+02  8.00000000E+00  0.00000000E+00
  2.20000000E+02  6.00000000E+00  0.00000000E+00
  2.20000000E+02  4.00000000E+00  0.00000000E+00
  2.20000000E+02  2.00000000E+00  0.00000000E+00
  2.20000000E+02 -3.33066907E-14  0.00000000E+00
  2.30000000E+02  1.00000000E+02  0.00000000E+00
  2.30000000E+02  9.80000000E+01  0.00000000E+00
  2.30000000E+02  9.60000000E+01  0.00000000E+00
  2.30000000E+02  9.40000000E+01  0.00000000E+00
  2.30000000E+02  9.20000000E+01  0.00000000E+00
  2.30000000E+02  9.00000000E+01  0.00000000E+00
  2.30000000E+02  8.80000000E+01  0.00000000E+00
  2.30000000E+02  8.60000000E+01  0.00000000E+00
  2.30000000E+02  8.40000000E+01  0.00000000E+00
  2.30000000E+02  8.20000000E+01  0.00000000E+00
  2.30000000E+02  8.00000000E+01  0.00000000E+00
  2.30000000E+02  7.80000000E+01  0.00000000E+00
  2.30000000E+02  7.60000000E+01  0.00000000E+00
  2.30000000E+02  7.40000000E+01  0.00000000E+00
  2.30000000E+02  7.20000000E+01  0.00000000E+00
  2.30000000E+02  7.00000000E+01  0.00000000E+00
  2.30000000E+02  6.80000000E+01  0.00000000E+00
  2.30000000E+02  6.60000000E+01  0.00000000E+00
  2.30000000E+02  6.40000000E+01  0.00000000E+00
  2.30000000E+02  6.20000000E+01  0.00000000E+00
  2.30000000E+02  6.00000000E+01  0.00000000E+00
  2.30000000E+02  5.80000000E+01  0.00000000E+00
  2.30000000E+02  5.60000000E+01  0.00000000E+00
  2.30000000E+02  5.40000000E+01  0.00000000E+00
  2.30000000E+02  5.20000000E+01  0.00000000E+00
  2.30000000E+02  5.00000000E+01  0.00000000E+00
  2.30000000E+02  4.80000000E+01  0.00000000E+00
  2.30000000E+02  4.60000000E+01  0.00000000E+00
  2.30000000E+02  4.40000000E+01  0.00000000E+00
  2.30000000E+02  4.20000000E+01  0.00000000E+00
  2.30000000E+02  4.00000000E+01  0.00000000E+00
  2.30000000E+02  3.80000000E+01  0.00000000E+00
  2.30000000E+02  3.60000000E+01  0.00000000E+00
  2.30000000E+02  3.40000000E+01  0.00000000E+00
  2.30000000E+02  3.20000000E+01  0.00000000E+00
  2.30000000E+02  3.00000000E+01  0.00000000E+00
  2.30000000E+02  2.80000000E+01  0.00000000E+00
  2.30000000E+02  2.60000000E+01  0.00000000E+00
  2.30000000E+02  2.40000000E+01  0.00000000E+00
  2.30000000E+02  2.20000000E+01  0.00000000E+00
  2.30000000E+02  2.00000000E+01  0.00000000E+00
  2.30000000E+02  1.80000000E+01  0.00000000E+00
  2.30000000E+02  1.60000000E+01  0.00000000E+00
  2.30000000E+02  1.40000000E+01  0.00000000E+00
  2.30000000E+02  1.20000000E+01  0.00000000E+00
  2.30000000E+02  1.00000000E+01  0.00000000E+00
  2.30000000E+02  8.00000000E+00  0.00000000E+00
  2.30000000E+02  6.00000000E+00  0.00000000E+00
  2.30000000E+02  4.00000000E+00  0.00000000E+00
  2.30000000E+02  2.00000000E+00  0.00000000E+00
  2.30000000E+02 -3.33066907E-14  0.00000000E+00
  2.40000000E+02  1.00000000E+02  0.00000000E+00
  2.40000000E+02  9.80000000E+01  0.00000000E+00
  2.40000000E+02  9.60000000E+01  0.00000000E+00
  2.40000000E+02  9.40000000E+01  0.00000000E+00
  2.40000000E+02  9.20000000E+01  0.00000000E+00
  2.40000000E+02  9.00000000E+01  0.00000000E+00
  2.40000000E+02  8.80000000E+01  0.00000000E+00
  2.40000000E+02  8.60000000E+01  0.00000000E+00
  2.40000000E+02  8.40000000E+01  0.00000000E+00
  2.40000000E+02  8.20000000E+01  0.00000000E+00
  2.40000000E+02  8.00000000E+01  0.00000000E+00
  2.40000000E+02  7.80000000E+01  0.00000000E+00
  2.40000000E+02  7.60000000E+01  0.00000000E+00
  2.40000000E+02  7.40000000E+01  0.00000000E+00
  2.40000000E+02  7.20000000E+01  0.00000000E+00
  2.40000000E+02  7.00000000E+01  0.00000000E+00
  2.40000000E+02  6.80000000E+01  0.00000000E+00
  2.40000000E+02  6.60000000E+01  0.00000000E+00
  2.40000000E+02  6.40000000E+01  0.00000000E+00
  2.40000000E+02  6.20000000E+01  0.00000000E+00
  2.40000000E+02  6.00000000E+01  0.00000000E+00
  2.40000000E+02  5.80000000E+01  0.00000000E+00
  2.40000000E+02  5.60000000E+01  0.00000000E+00
  2.40000000E+02  5.40000000E+01  0.00000000E+00
  2.40000000E+02  5.20000000E+01  0.00000000E+00
  2.40000000E+02  5.00000000E+01  0.00000000E+00
  2.40000000E+02  4.80000000E+01  0.00000000E+00
  2.40000000E+02  4.60000000E+01  0.00000000E+00
  2.40000000E+02  4.40000000E+01  0.00000000E+00
  2.40000000E+02  4.20000000E+01  0.00000000E+00
  2.40000000E+02  4.00000000E+01  0.00000000E+00
  2.40000000E+02  3.80000000E+01  0.00000000E+00
  2.40000000E+02  3.60000000E+01  0.00000000E+00
  2.40000000E+02  3.40000000E+01  0.00000000E+00
  2.40000000E+02  3.20000000E+01  0.00000000E+00
  2.40000000E+02  3.00000000E+01  0.00000000E+00
  2.40000000E+02  2.80000000E+01  0.00000000E+00
  2.40000000E+02  2.60000000E+01  0.00000000E+00
  2.40000000E+02  2.40000000E+01  0.00000000E+00
  2.40000000E+02  2.20000000E+01  0.00000000E+00
  2.40000000E+02  2.00000000E+01  0.00000000E+00
  2.40000000E+02  1.80000000E+01  0.00000000E+00
  2.40000000E+02  1.60000000E+01  0.00000000E+00
  2.40000000E+02  1.40000000E+01  0.00000000E+00
  2.40000000E+02  1.20000000E+01  0.00000000E+00
  2.40000000E+02  1.00000000E+01  0.00000000E+00
  2.40000000E+02  8.00000000E+00  0.00000000E+00
  2.40000000E+02  6.00000000E+00  0.00000000E+00
  2.40000000E+02  4.00000000E+00  0.00000000E+00
  2.40000000E+02  2.00000000E+00  0.00000000E+00
  2.40000000E+02 -3.33066907E-14  0.00000000E+00
  2.50000000E+02  1.00000000E+02  0.00000000E+00
  2.50000000E+02  9.80000000E+01  0.00000000E+00
  2.50000000E+02  9.60000000E+01  0.00000000E+00
  2.50000000E+02  9.40000000E+01  0.00000000E+00
  2.50000000E+02  9.20000000E+01  0.00000000E+00
  2.50000000E+02  9.00000000E+01  0.00000000E+00
  2.50000000E+02  8.80000000E+01  0.00000000E+00
  2.50000000E+02  8.60000000E+01  0.00000000E+00
  2.50000000E+02  8.40000000E+01  0.00000000E+00
  2.50000000E+02  8.20000000E+01  0.00000000E+00
  2.50000000E+02  8.00000000E+01  0.00000000E+00
  2.50000000E+02  7.80000000E+01  0.00000000E+00
  2.50000000E+02  7.60000000E+01  0.00000000E+00
  2.50000000E+02  7.40000000E+01  0.00000000E+00
  2.50000000E+02  7.20000000E+01  0.00000000E+00
  2.50000000E+02  7.00000000E+01  0.00000000E+00
  2.50000000E+02  6.80000000E+01  0.00000000E+00
  2.50000000E+02  6.60000000E+01  0.00000000E+00
  2.50000000E+02  6.40000000E+01  0.00000000E+00
  2.50000000E+02  6.20000000E+01  0.00000000E+00
  2.50000000E+02  6.00000000E+01  0.00000000E+00
  2.50000000E+02  5.80000000E+01  0.00000000E+00
  2.50000000E+02  5.60000000E+01  0.00000000E+00
  2.50000000E+02  5.40000000E+01  0.00000000E+00
  2.50000000E+02  5.20000000E+01  0.00000000E+00
  2.50000000E+02  5.00000000E+01  0.00000000E+00
  2.50000000E+02  4.80000000E+01  0.00000000E+00
  2.50000000E+02  4.60000000E+01  0.00000000E+00
  2.50000000E+02  4.40000000E+01  0.00000000E+00
  2.50000000E+02  4.20000000E+01  0.00000000E+00
  2.50000000E+02  4.00000000E+01  0.00000000E+00
  2.50000000E+02  3.80000000E+01  0.00000000E+00
  2.50000000E+02  3.60000000E+01  0.00000000E+00
  2.50000000E+02  3.40000000E+01  0.00000000E+00
  2.50000000E+02  3.20000000E+01  0.00000000E+00
  2.50000000E+02  3.00000000E+01  0.00000000E+00
  2.50000000E+02  2.80000000E+01  0.00000000E+00
  2.50000000E+02  2.60000000E+01  0.00000000E+00
  2.50000000E+02  2.40000000E+01  0.00000000E+00
  2.50000000E+02  2.20000000E+01  0.00000000E+00
  2.50000000E+02  2.00000000E+01  0.00000000E+00
  2.50000000E+02  1.80000000E+01  0.00000000E+00
  2.50000000E+02  1.60000000E+01  0.00000000E+00
  2.50000000E+02  1.40000000E+01  0.00000000E+00
  2.50000000E+02  1.20000000E+01  0.00000000E+00
  2.50000000E+02  1.00000000E+01  0.00000000E+00
  2.50000000E+02  8.00000000E+00  0.00000000E+00
  2.50000000E+02  6.00000000E+00  0.00000000E+00
  2.50000000E+02  4.00000000E+00  0.00000000E+00
  2.50000000E+02  2.00000000E+00  0.00000000E+00
  2.50000000E+02 -3.33066907E-14  0.00000000E+00
  2.60000000E+02  1.00000000E+02  0.00000000E+00
  2.60000000E+02  9.80000000E+01  0.00000000E+00
  2.60000000E+02  9.60000000E+01  0.00000000E+00
  2.60000000E+02  9.40000000E+01  0.00000000E+00
  2.60000000E+02  9.20000000E+01  0.00000000E+00
  2.60000000E+02  9.00000000E+01  0.00000000E+00
  2.60000000E+02  8.80000000E+01  0.00000000E+00
  2.60000000E+02  8.60000000E+01  0.00000000E+00
  2.60000000E+02  8.40000000E+01  0.00000000E+00
  2.60000000E+02  8.20000000E+01  0.00000000E+00
  2.60000000E+02  8.00000000E+01  0.00000000E+00
  2.60000000E+02  7.80000000E+01  0.00000000E+00
  2.60000000E+02  7.60000000E+01  0.00000000E+00
  2.60000000E+02  7.40000000E+01  0.00000000E+00
  2.60000000E+02  7.20000000E+01  0.00000000E+00
  2.60000000E+02  7.00000000E+01  0.00000000E+00
  2.60000000E+02  6.80000000E+01  0.00000000E+00
  2.60000000E+02  6.60000000E+01  0.00000000E+00
  2.60000000E+02  6.40000000E+01  0.00000000E+00
  2.60000000E+02  6.20000000E+01  0.00000000E+00
  2.60000000E+02  6.00000000E+01  0.00000000E+00
  2.60000000E+02  5.80000000E+01  0.00000000E+00
  2.60000000E+02  5.60000000E+01  0.00000000E+00
  2.60000000E+02  5.40000000E+01  0.00000000E+00
  2.60000000E+02  5.20000000E+01  0.00000000E+00
  2.60000000E+02  5.00000000E+01  0.00000000E+00
  2.60000000E+02  4.80000000E+01  0.00000000E+00
  2.60000000E+02  4.60000000E+01  0.00000000E+00
  2.60000000E+02  4.40000000E+01  0.00000000E+00
  2.60000000E+02  4.20000000E+01  0.00000000E+00
  2.60000000E+02  4.00000000E+01  0.00000000E+00
  2.60000000E+02  3.80000000E+01  0.00000000E+00
  2.60000000E+02  3.60000000E+01  0.00000000E+00
  2.60000000E+02  3.40000000E+01  0.00000000E+00
  2.60000000E+02  3.20000000E+01  0.00000000E+00
  2.60000000E+02  3.00000000E+01  0.00000000E+00
  2.60000000E+02  2.80000000E+01  0.00000000E+00
  2.60000000E+02  2.60000000E+01  0.00000000E+00
  2.60000000E+02  2.40000000E+01  0.00000000E+00
  2.60000000E+02  2.20000000E+01  0.00000000E+00
  2.60000000E+02  2.00000000E+01  0.00000000E+00
  2.60000000E+02  1.80000000E+01  0.00000000E+00
  2.60000000E+02  1.60000000E+01  0.00000000E+00
  2.60000000E+02  1.40000000E+01  0.00000000E+00
  2.60000000E+02  1.20000000E+01  0.00000000E+00
  2.60000000E+02  1.00000000E+01  0.00000000E+00
  2.60000000E+02  8.00000000E+00  0.00000000E+00
  2.60000000E+02  6.00000000E+00  0.00000000E+00
  2.60000000E+02  4.00000000E+00  0.00000000E+00
  2.60000000E+02  2.00000000E+00  0.00000000E+00
  2.60000000E+02 -3.33066907E-14  0.00000000E+00
  2.70000000E+02  1.00000000E+02  0.00000000E+00
  2.70000000E+02  9.80000000E+01  0.00000000E+00
  2.70000000E+02  9.60000000E+01  0.00000000E+00
  2.70000000E+02  9.40000000E+01  0.00000000E+00
  2.70000000E+02  9.20000000E+01  0.00000000E+00
  2.70000000E+02  9.00000000E+01  0.00000000E+00
  2.70000000E+02  8.80000000E+01  0.00000000E+00
  2.70000000E+02  8.60000000E+01  0.00000000E+00
  2.70000000E+02  8.40000000E+01  0.00000000E+00
  2.70000000E+02  8.20000000E+01  0.00000000E+00
  2.70000000E+02  8.00000000E+01  0.00000000E+00
  2.70000000E+02  7.80000000E+01  0.00000000E+00
  2.70000000E+02  7.60000000E+01  0.00000000E+00
  2.70000000E+02  7.40000000E+01  0.00000000E+00
  2.70000000E+02  7.20000000E+01  0.00000000E+00
  2.70000000E+02  7.00000000E+01  0.00000000E+00
  2.70000000E+02  6.80000000E+01  0.00000000E+00
  2.70000000E+02  6.60000000E+01  0.00000000E+00
  2.70000000E+02  6.40000000E+01  0.00000000E+00
  2.70000000E+02  6.20000000E+01  0.00000000E+00
  2.70000000E+02  6.00000000E+01  0.00000000E+00
  2.70000000E+02  5.80000000E+01  0.00000000E+00
  2.70000000E+02  5.60000000E+01  0.00000000E+00
  2.70000000E+02  5.40000000E+01  0.00000000E+00
  2.70000000E+02  5.20000000E+01  0.00000000E+00
  2.70000000E+02  5.00000000E+01  0.00000000E+00
  2.70000000E+02  4.80000000E+01  0.00000000E+00
  2.70000000E+02  4.60000000E+01  0.00000000E+00
  2.70000000E+02  4.40000000E+01  0.00000000E+00
  2.70000000E+02  4.20000000E+01  0.00000000E+00
  2.70000000E+02  4.00000000E+01  0.00000000E+00
  2.70000000E+02  3.80000000E+01  0.00000000E+00
  2.70000000E+02  3.60000000E+01  0.00000000E+00
  2.70000000E+02  3.40000000E+01  0.00000000E+00
  2.70000000E+02  3.20000000E+01  0.00000000E+00
  2.70000000E+02  3.00000000E+01  0.00000000E+00
  2.70000000E+02  2.80000000E+01  0.00000000E+00
  2.70000000E+02  2.60000000E+01  0.00000000E+00
  2.70000000E+02  2.40000000E+01  0.00000000E+00
  2.70000000E+02  2.20000000E+01  0.00000000E+00
  2.70000000E+02  2.00000000E+01  0.00000000E+00
  2.70000000E+02  1.80000000E+01  0.00000000E+00
  2.70000000E+02  1.60000000E+01  0.00000000E+00
  2.70000000E+02  1.40000000E+01  0.00000000E+00
  2.70000000E+02  1.20000000E+01  0.00000000E+00
  2.70000000E+02  1.00000000E+01  0.00000000E+00
  2.70000000E+02  8.00000000E+00  0.00000000E+00
  2.70000000E+02  6.00000000E+00  0.00000000E+00
  2.70000000E+02  4.00000000E+00  0.00000000E+00
  2.70000000E+02  2.00000000E+00  0.00000000E+00
  2.70000000E+02 -3.33066907E-14  0.00000000E+00
  2.80000000E+02  1.00000000E+02  0.00000000E+00
  2.80000000E+02  9.80000000E+01  0.00000000E+00
  2.80000000E+02  9.60000000E+01  0.00000000E+00
  2.80000000E+02  9.40000000E+01  0.00000000E+00
  2.80000000E+02  9.20000000E+01  0.00000000E+00
  2.80000000E+02  9.00000000E+01  0.00000000E+00
  2.80000000E+02  8.80000000E+01  0.00000000E+00
  2.80000000E+02  8.60000000E+01  0.00000000E+00
  2.80000000E+02  8.40000000E+01  0.00000000E+00
  2.80000000E+02  8.20000000E+01  0.00000000E+00
  2.80000000E+02  8.00000000E+01  0.00000000E+00
  2.80000000E+02  7.80000000E+01  0.00000000E+00
  2.80000000E+02  7.60000000E+01  0.00000000E+00
  2.80000000E+02  7.40000000E+01  0.00000000E+00
  2.80000000E+02  7.20000000E+01  0.00000000E+00
  2.80000000E+02  7.00000000E+01  0.00000000E+00
  2.80000000E+02  6.80000000E+01  0.00000000E+00
  2.80000000E+02  6.60000000E+01  0.00000000E+00
  2.80000000E+02  6.40000000E+01  0.00000000E+00
  2.80000000E+02  6.20000000E+01  0.00000000E+00
  2.80000000E+02  6.00000000E+01  0.00000000E+00
  2.80000000E+02  5.80000000E+01  0.00000000E+00
  2.80000000E+02  5.60000000E+01  0.00000000E+00
  2.80000000E+02  5.40000000E+01  0.00000000E+00
  2.80000000E+02  5.20000000E+01  0.00000000E+00
  2.80000000E+02  5.00000000E+01  0.00000000E+00
  2.80000000E+02  4.80000000E+01  0.00000000E+00
  2.80000000E+02  4.60000000E+01  0.00000000E+00
  2.80000000E+02  4.40000000E+01  0.00000000E+00
  2.80000000E+02  4.20000000E+01  0.00000000E+00
  2.80000000E+02  4.00000000E+01  0.00000000E+00
  2.80000000E+02  3.80000000E+01  0.00000000E+00
  2.80000000E+02  3.60000000E+01  0.00000000E+00
  2.80000000E+02  3.40000000E+01  0.00000000E+00
  2.80000000E+02  3.20000000E+01  0.00000000E+00
  2.80000000E+02  3.00000000E+01  0.00000000E+00
  2.80000000E+02  2.80000000E+01  0.00000000E+00
  2.80000000E+02  2.60000000E+01  0.00000000E+00
  2.80000000E+02  2.40000000E+01  0.00000000E+00
  2.80000000E+02  2.20000000E+01  0.00000000E+00
  2.80000000E+02  2.00000000E+01  0.00000000E+00
  2.80000000E+02  1.80000000E+01  0.00000000E+00
  2.80000000E+02  1.60000000E+01  0.00000000E+00
  2.80000000E+02  1.40000000E+01  0.00000000E+00
  2.80000000E+02  1.20000000E+01  0.00000000E+00
  2.80000000E+02  1.00000000E+01  0.00000000E+00
  2.80000000E+02  8.00000000E+00  0.00000000E+00
  2.80000000E+02  6.00000000E+00  0.00000000E+00
  2.80000000E+02  4.00000000E+00  0.00000000E+00
  2.80000000E+02  2.00000000E+00  0.00000000E+00
  2.80000000E+02 -3.33066907E-14  0.00000000E+00
  2.90000000E+02  1.00000000E+02  0.00000000E+00
  2.90000000E+02  9.80000000E+01  0.00000000E+00
  2.90000000E+02  9.60000000E+01  0.00000000E+00
  2.90000000E+02  9.40000000E+01  0.00000000E+00
  2.90000000E+02  9.20000000E+01  0.00000000E+00
  2.90000000E+02  9.00000000E+01  0.00000000E+00
  2.90000000E+02  8.80000000E+01  0.00000000E+00
  2.90000000E+02  8.60000000E+01  0.00000000E+00
  2.90000000E+02  8.40000000E+01  0.00000000E+00
  2.90000000E+02  8.20000000E+01  0.00000000E+00
  2.90000000E+02  8.00000000E+01  0.00000000E+00
  2.90000000E+02  7.80000000E+01  0.00000000E+00
  2.90000000E+02  7.60000000E+01  0.00000000E+00
  2.90000000E+02  7.40000000E+01  0.00000000E+00
  2.90000000E+02  7.20000000E+01  0.00000000E+00
  2.90000000E+02  7.00000000E+01  0.00000000E+00
  2.90000000E+02  6.80000000E+01  0.00000000E+00
  2.90000000E+02  6.60000000E+01  0.00000000E+00
  2.90000000E+02  6.40000000E+01  0.00000000E+00
  2.90000000E+02  6.20000000E+01  0.00000000E+00
  2.90000000E+02  6.00000000E+01  0.00000000E+00
  2.90000000E+02  5.80000000E+01  0.00000000E+00
  2.90000000E+02  5.60000000E+01  0.00000000E+00
  2.90000000E+02  5.40000000E+01  0.00000000E+00
  2.90000000E+02  5.20000000E+01  0.00000000E+00
  2.90000000E+02  5.00000000E+01  0.00000000E+00
  2.90000000E+02  4.80000000E+01  0.00000000E+00
  2.90000000E+02  4.60000000E+01  0.00000000E+00
  2.90000000E+02  4.40000000E+01  0.00000000E+00
  2.90000000E+02  4.20000000E+01  0.00000000E+00
  2.90000000E+02  4.00000000E+01  0.00000000E+00
  2.90000000E+02  3.80000000E+01  0.00000000E+00
  2.90000000E+02  3.60000000E+01  0.00000000E+00
  2.90000000E+02  3.40000000E+01  0.00000000E+00
  2.90000000E+02  3.20000000E+01  0.00000000E+00
  2.90000000E+02  3.00000000E+01  0.00000000E+00
  2.90000000E+02  2.80000000E+01  0.00000000E+00
  2.90000000E+02  2.60000000E+01  0.00000000E+00
  2.90000000E+02  2.40000000E+01  0.00000000E+00
  2.90000000E+02  2.20000000E+01  0.00000000E+00
  2.90000000E+02  2.00000000E+01  0.00000000E+00
  2.90000000E+02  1.80000000E+01  0.00000000E+00
  2.90000000E+02  1.60000000E+01  0.00000000E+00
  2.90000000E+02  1.40000000E+01  0.00000000E+00
  2.90000000E+02  1.20000000E+01  0.00000000E+00
  2.90000000E+02  1.00000000E+01  0.00000000E+00
  2.90000000E+02  8.00000000E+00  0.00000000E+00
  2.90000000E+02  6.00000000E+00  0.00000000E+00
  2.90000000E+02  4.00000000E+00  0.00000000E+00
  2.90000000E+02  2.00000000E+00  0.00000000E+00
  2.90000000E+02 -3.33066907E-14  0.00000000E+00
  3.00000000E+02  1.00000000E+02  0.00000000E+00
  3.00000000E+02  9.80000000E+01  0.00000000E+00
  3.00000000E+02  9.60000000E+01  0.00000000E+00
  3.00000000E+02  9.40000000E+01  0.00000000E+00
  3.00000000E+02  9.20000000E+01  0.00000000E+00
  3.00000000E+02  9.00000000E+01  0.00000000E+00
  3.00000000E+02  8.80000000E+01  0.00000000E+00
  3.00000000E+02  8.60000000E+01  0.00000000E+00
  3.00000000E+02  8.40000000E+01  0.00000000E+00
  3.00000000E+02  8.20000000E+01  0.00000000E+00
  3.00000000E+02  8.00000000E+01  0.00000000E+00
  3.00000000E+02  7.80000000E+01  0.00000000E+00
  3.00000000E+02  7.60000000E+01  0.00000000E+00
  3.00000000E+02  7.40000000E+01  0.00000000E+00
  3.00000000E+02  7.20000000E+01  0.00000000E+00
  3.00000000E+02  7.00000000E+01  0.00000000E+00
  3.00000000E+02  6.80000000E+01  0.00000000E+00
  3.00000000E+02  6.60000000E+01  0.00000000E+00
  3.00000000E+02  6.40000000E+01  0.00000000E+00
  3.00000000E+02  6.20000000E+01  0.00000000E+00
  3.00000000E+02  6.00000000E+01  0.00000000E+00
  3.00000000E+02  5.80000000E+01  0.00000000E+00
  3.00000000E+02  5.60000000E+01  0.00000000E+00
  3.00000000E+02  5.40000000E+01  0.00000000E+00
  3.00000000E+02  5.20000000E+01  0.00000000E+00
  3.00000000E+02  5.00000000E+01  0.00000000E+00
  3.00000000E+02  4.80000000E+01  0.00000000E+00
  3.00000000E+02  4.60000000E+01  0.00000000E+00
  3.00000000E+02  4.40000000E+01  0.00000000E+00
  3.00000000E+02  4.20000000E+01  0.00000000E+00
  3.00000000E+02  4.00000000E+01  0.00000000E+00
  3.00000000E+02  3.80000000E+01  0.00000000E+00
  3.00000000E+02  3.60000000E+01  0.00000000E+00
  3.00000000E+02  3.40000000E+01  0.00000000E+00
  3.00000000E+02  3.20000000E+01  0.00000000E+00
  3.00000000E+02  3.00000000E+01  0.00000000E+00
  3.00000000E+02  2.80000000E+01  0.00000000E+00
  3.00000000E+02  2.60000000E+01  0.00000000E+00
  3.00000000E+02  2.40000000E+01  0.00000000E+00
  3.00000000E+02  2.20000000E+01  0.00000000E+00
  3.00000000E+02  2.00000000E+01  0.00000000E+00
  3.00000000E+02  1.80000000E+01  0.00000000E+00
  3.00000000E+02  1.60000000E+01  0.00000000E+00
  3.00000000E+02  1.40000000E+01  0.00000000E+00
  3.00000000E+02  1.20000000E+01  0.00000000E+00
  3.00000000E+02  1.00000000E+01  0.00000000E+00
  3.00000000E+02  8.00000000E+00  0.00000000E+00
  3.00000000E+02  6.00000000E+00  0.00000000E+00
  3.00000000E+02  4.00000000E+00  0.00000000E+00
  3.00000000E+02  2.00000000E+00  0.00000000E+00
  3.00000000E+02 -3.33066907E-14  0.00000000E+00
  3.10000000E+02  1.00000000E+02  0.00000000E+00
  3.10000000E+02  9.80000000E+01  0.00000000E+00
  3.10000000E+02  9.60000000E+01  0.00000000E+00
  3.10000000E+02  9.40000000E+01  0.00000000E+00
  3.10000000E+02  9.20000000E+01  0.00000000E+00
  3.10000000E+02  9.00000000E+01  0.00000000E+00
  3.10000000E+02  8.80000000E+01  0.00000000E+00
  3.10000000E+02  8.60000000E+01  0.00000000E+00
  3.10000000E+02  8.40000000E+01  0.00000000E+00
  3.10000000E+02  8.20000000E+01  0.00000000E+00
  3.10000000E+02  8.00000000E+01  0.00000000E+00
  3.10000000E+02  7.80000000E+01  0.00000000E+00
  3.10000000E+02  7.60000000E+01  0.00000000E+00
  3.10000000E+02  7.40000000E+01  0.00000000E+00
  3.10000000E+02  7.20000000E+01  0.00000000E+00
  3.10000000E+02  7.00000000E+01  0.00000000E+00
  3.10000000E+02  6.80000000E+01  0.00000000E+00
  3.10000000E+02  6.60000000E+01  0.00000000E+00
  3.10000000E+02  6.40000000E+01  0.00000000E+00
  3.10000000E+02  6.20000000E+01  0.00000000E+00
  3.10000000E+02  6.00000000E+01  0.00000000E+00
  3.10000000E+02  5.80000000E+01  0.00000000E+00
  3.10000000E+02  5.60000000E+01  0.00000000E+00
  3.10000000E+02  5.40000000E+01  0.00000000E+00
  3.10000000E+02  5.20000000E+01  0.00000000E+00
  3.10000000E+02  5.00000000E+01  0.00000000E+00
  3.10000000E+02  4.80000000E+01  0.00000000E+00
  3.10000000E+02  4.60000000E+01  0.00000000E+00
  3.10000000E+02  4.40000000E+01  0.00000000E+00
  3.10000000E+02  4.20000000E+01  0.00000000E+00
  3.10000000E+02  4.00000000E+01  0.00000000E+00
  3.10000000E+02  3.80000000E+01  0.00000000E+00
  3.10000000E+02  3.60000000E+01  0.00000000E+00
  3.10000000E+02  3.40000000E+01  0.00000000E+00
  3.10000000E+02  3.20000000E+01  0.00000000E+00
  3.10000000E+02  3.00000000E+01  0.00000000E+00
  3.10000000E+02  2.80000000E+01  0.00000000E+00
  3.10000000E+02  2.60000000E+01  0.00000000E+00
  3.10000000E+02  2.40000000E+01  0.00000000E+00
  3.10000000E+02  2.20000000E+01  0.00000000E+00
  3.10000000E+02  2.00000000E+01  0.00000000E+00
  3.10000000E+02  1.80000000E+01  0.00000000E+00
  3.10000000E+02  1.60000000E+01  0.00000000E+00
  3.10000000E+02  1.40000000E+01  0.00000000E+00
  3.10000000E+02  1.20000000E+01  0.00000000E+00
  3.10000000E+02  1.00000000E+01  0.00000000E+00
  3.10000000E+02  8.00000000E+00  0.00000000E+00
  3.10000000E+02  6.00000000E+00  0.00000000E+00
  3.10000000E+02  4.00000000E+00  0.00000000E+00
  3.10000000E+02  2.00000000E+00  0.00000000E+00
  3.10000000E+02 -3.33066907E-14  0.00000000E+00
  3.20000000E+02  1.00000000E+02  0.00000000E+00
  3.20000000E+02  9.80000000E+01  0.00000000E+00
  3.20000000E+02  9.60000000E+01  0.00000000E+00
  3.20000000E+02  9.40000000E+01  0.00000000E+00
  3.20000000E+02  9.20000000E+01  0.00000000E+00
  3.20000000E+02  9.00000000E+01  0.00000000E+00
  3.20000000E+02  8.80000000E+01  0.00000000E+00
  3.20000000E+02  8.60000000E+01  0.00000000E+00
  3.20000000E+02  8.40000000E+01  0.00000000E+00
  3.20000000E+02  8.20000000E+01  0.00000000E+00
  3.20000000E+02  8.00000000E+01  0.00000000E+00
  3.20000000E+02  7.80000000E+01  0.00000000E+00
  3.20000000E+02  7.60000000E+01  0.00000000E+00
  3.20000000E+02  7.40000000E+01  0.00000000E+00
  3.20000000E+02  7.20000000E+01  0.00000000E+00
  3.20000000E+02  7.00000000E+01  0.00000000E+00
  3.20000000E+02  6.80000000E+01  0.00000000E+00
  3.20000000E+02  6.60000000E+01  0.00000000E+00
  3.20000000E+02  6.40000000E+01  0.00000000E+00
  3.20000000E+02  6.20000000E+01  0.00000000E+00
  3.20000000E+02  6.00000000E+01  0.00000000E+00
  3.20000000E+02  5.80000000E+01  0.00000000E+00
  3.20000000E+02  5.60000000E+01  0.00000000E+00
  3.20000000E+02  5.40000000E+01  0.00000000E+00
  3.20000000E+02  5.20000000E+01  0.00000000E+00
  3.20000000E+02  5.00000000E+01  0.00000000E+00
  3.20000000E+02  4.80000000E+01  0.00000000E+00
  3.20000000E+02  4.60000000E+01  0.00000000E+00
  3.20000000E+02  4.40000000E+01  0.00000000E+00
  3.20000000E+02  4.20000000E+01  0.00000000E+00
  3.20000000E+02  4.00000000E+01  0.00000000E+00
  3.20000000E+02  3.80000000E+01  0.00000000E+00
  3.20000000E+02  3.60000000E+01  0.00000000E+00
  3.20000000E+02  3.40000000E+01  0.00000000E+00
  3.20000000E+02  3.20000000E+01  0.00000000E+00
  3.20000000E+02  3.00000000E+01  0.00000000E+00
  3.20000000E+02  2.80000000E+01  0.00000000E+00
  3.20000000E+02  2.60000000E+01  0.00000000E+00
  3.20000000E+02  2.40000000E+01  0.00000000E+00
  3.20000000E+02  2.20000000E+01  0.00000000E+00
  3.20000000E+02  2.00000000E+01  0.00000000E+00
  3.20000000E+02  1.80000000E+01  0.00000000E+00
  3.20000000E+02  1.60000000E+01  0.00000000E+00
  3.20000000E+02  1.40000000E+01  0.00000000E+00
  3.20000000E+02  1.20000000E+01  0.00000000E+00
  3.20000000E+02  1.00000000E+01  0.00000000E+00
  3.20000000E+02  8.00000000E+00  0.00000000E+00
  3.20000000E+02  6.00000000E+00  0.00000000E+00
  3.20000000E+02  4.00000000E+00  0.00000000E+00
  3.20000000E+02  2.00000000E+00  0.00000000E+00
  3.20000000E+02 -3.33066907E-14  0.00000000E+00
  3.30000000E+02  1.00000000E+02  0.00000000E+00
  3.30000000E+02  9.80000000E+01  0.00000000E+00
  3.30000000E+02  9.60000000E+01  0.00000000E+00
  3.30000000E+02  9.40000000E+01  0.00000000E+00
  3.30000000E+02  9.20000000E+01  0.00000000E+00
  3.30000000E+02  9.00000000E+01  0.00000000E+00
  3.30000000E+02  8.80000000E+01  0.00000000E+00
  3.30000000E+02  8.60000000E+01  0.00000000E+00
  3.30000000E+02  8.40000000E+01  0.00000000E+00
  3.30000000E+02  8.20000000E+01  0.00000000E+00
  3.30000000E+02  8.00000000E+01  0.00000000E+00
  3.30000000E+02  7.80000000E+01  0.00000000E+00
  3.30000000E+02  7.60000000E+01  0.00000000E+00
  3.30000000E+02  7.40000000E+01  0.00000000E+00
  3.30000000E+02  7.20000000E+01  0.00000000E+00
  3.30000000E+02  7.00000000E+01  0.00000000E+00
  3.30000000E+02  6.80000000E+01  0.00000000E+00
  3.30000000E+02  6.60000000E+01  0.00000000E+00
  3.30000000E+02  6.40000000E+01  0.00000000E+00
  3.30000000E+02  6.20000000E+01  0.00000000E+00
  3.30000000E+02  6.00000000E+01  0.00000000E+00
  3.30000000E+02  5.80000000E+01  0.00000000E+00
  3.30000000E+02  5.60000000E+01  0.00000000E+00
  3.30000000E+02  5.40000000E+01  0.00000000E+00
  3.30000000E+02  5.20000000E+01  0.00000000E+00
  3.30000000E+02  5.00000000E+01  0.00000000E+00
  3.30000000E+02  4.80000000E+01  0.00000000E+00
  3.30000000E+02  4.60000000E+01  0.00000000E+00
  3.30000000E+02  4.40000000E+01  0.00000000E+00
  3.30000000E+02  4.20000000E+01  0.00000000E+00
  3.30000000E+02  4.00000000E+01  0.00000000E+00
  3.30000000E+02  3.80000000E+01  0.00000000E+00
  3.30000000E+02  3.60000000E+01  0.00000000E+00
  3.30000000E+02  3.40000000E+01  0.00000000E+00
  3.30000000E+02  3.20000000E+01  0.00000000E+00
  3.30000000E+02  3.00000000E+01  0.00000000E+00
  3.30000000E+02  2.80000000E+01  0.00000000E+00
  3.30000000E+02  2.60000000E+01  0.00000000E+00
  3.30000000E+02  2.40000000E+01  0.00000000E+00
  3.30000000E+02  2.20000000E+01  0.00000000E+00
  3.30000000E+02  2.00000000E+01  0.00000000E+00
  3.30000000E+02  1.80000000E+01  0.00000000E+00
  3.30000000E+02  1.60000000E+01  0.00000000E+00
  3.30000000E+02  1.40000000E+01  0.00000000E+00
  3.30000000E+02  1.20000000E+01  0.00000000E+00
  3.30000000E+02  1.00000000E+01  0.00000000E+00
  3.30000000E+02  8.00000000E+00  0.00000000E+00
  3.30000000E+02  6.00000000E+00  0.00000000E+00
  3.30000000E+02  4.00000000E+00  0.00000000E+00
  3.30000000E+02  2.00000000E+00  0.00000000E+00
  3.30000000E+02 -3.33066907E-14  0.00000000E+00
  3.40000000E+02  1.00000000E+02  0.00000000E+00
  3.40000000E+02  9.80000000E+01  0.00000000E+00
  3.40000000E+02  9.60000000E+01  0.00000000E+00
  3.40000000E+02  9.40000000E+01  0.00000000E+00
  3.40000000E+02  9.20000000E+01  0.00000000E+00
  3.40000000E+02  9.00000000E+01  0.00000000E+00
  3.40000000E+02  8.80000000E+01  0.00000000E+00
  3.40000000E+02  8.60000000E+01  0.00000000E+00
  3.40000000E+02  8.40000000E+01  0.00000000E+00
  3.40000000E+02  8.20000000E+01  0.00000000E+00
  3.40000000E+02  8.00000000E+01  0.00000000E+00
  3.40000000E+02  7.80000000E+01  0.00000000E+00
  3.40000000E+02  7.60000000E+01  0.00000000E+00
  3.40000000E+02  7.40000000E+01  0.00000000E+00
  3.40000000E+02  7.20000000E+01  0.00000000E+00
  3.40000000E+02  7.00000000E+01  0.00000000E+00
  3.40000000E+02  6.80000000E+01  0.00000000E+00
  3.40000000E+02  6.60000000E+01  0.00000000E+00
  3.40000000E+02  6.40000000E+01  0.00000000E+00
  3.40000000E+02  6.20000000E+01  0.00000000E+00
  3.40000000E+02  6.00000000E+01  0.00000000E+00
  3.40000000E+02  5.80000000E+01  0.00000000E+00
  3.40000000E+02  5.60000000E+01  0.00000000E+00
  3.40000000E+02  5.40000000E+01  0.00000000E+00
  3.40000000E+02  5.20000000E+01  0.00000000E+00
  3.40000000E+02  5.00000000E+01  0.00000000E+00
  3.40000000E+02  4.80000000E+01  0.00000000E+00
  3.40000000E+02  4.60000000E+01  0.00000000E+00
  3.40000000E+02  4.40000000E+01  0.00000000E+00
  3.40000000E+02  4.20000000E+01  0.00000000E+00
  3.40000000E+02  4.00000000E+01  0.00000000E+00
  3.40000000E+02  3.80000000E+01  0.00000000E+00
  3.40000000E+02  3.60000000E+01  0.00000000E+00
  3.40000000E+02  3.40000000E+01  0.00000000E+00
  3.40000000E+02  3.20000000E+01  0.00000000E+00
  3.40000000E+02  3.00000000E+01  0.00000000E+00
  3.40000000E+02  2.80000000E+01  0.00000000E+00
  3.40000000E+02  2.60000000E+01  0.00000000E+00
  3.40000000E+02  2.40000000E+01  0.00000000E+00
  3.40000000E+02  2.20000000E+01  0.00000000E+00
  3.40000000E+02  2.00000000E+01  0.00000000E+00
  3.40000000E+02  1.80000000E+01  0.00000000E+00
  3.40000000E+02  1.60000000E+01  0.00000000E+00
  3.40000000E+02  1.40000000E+01  0.00000000E+00
  3.40000000E+02  1.20000000E+01  0.00000000E+00
  3.40000000E+02  1.00000000E+01  0.00000000E+00
  3.40000000E+02  8.00000000E+00  0.00000000E+00
  3.40000000E+02  6.00000000E+00  0.00000000E+00
  3.40000000E+02  4.00000000E+00  0.00000000E+00
  3.40000000E+02  2.00000000E+00  0.00000000E+00
  3.40000000E+02 -3.33066907E-14  0.00000000E+00
  3.50000000E+02  1.00000000E+02  0.00000000E+00
  3.50000000E+02  9.80000000E+01  0.00000000E+00
  3.50000000E+02  9.60000000E+01  0.00000000E+00
  3.50000000E+02  9.40000000E+01  0.00000000E+00
  3.50000000E+02  9.20000000E+01  0.00000000E+00
  3.50000000E+02  9.00000000E+01  0.00000000E+00
  3.50000000E+02  8.80000000E+01  0.00000000E+00
  3.50000000E+02  8.60000000E+01  0.00000000E+00
  3.50000000E+02  8.40000000E+01  0.00000000E+00
  3.50000000E+02  8.20000000E+01  0.00000000E+00
  3.50000000E+02  8.00000000E+01  0.00000000E+00
  3.50000000E+02  7.80000000E+01  0.00000000E+00
  3.50000000E+02  7.60000000E+01  0.00000000E+00
  3.50000000E+02  7.40000000E+01  0.00000000E+00
  3.50000000E+02  7.20000000E+01  0.00000000E+00
  3.50000000E+02  7.00000000E+01  0.00000000E+00
  3.50000000E+02  6.80000000E+01  0.00000000E+00
  3.50000000E+02  6.60000000E+01  0.00000000E+00
  3.50000000E+02  6.40000000E+01  0.00000000E+00
  3.50000000E+02  6.20000000E+01  0.00000000E+00
  3.50000000E+02  6.00000000E+01  0.00000000E+00
  3.50000000E+02  5.80000000E+01  0.00000000E+00
  3.50000000E+02  5.60000000E+01  0.00000000E+00
  3.50000000E+02  5.40000000E+01  0.00000000E+00
  3.50000000E+02  5.20000000E+01  0.00000000E+00
  3.50000000E+02  5.00000000E+01  0.00000000E+00
  3.50000000E+02  4.80000000E+01  0.00000000E+00
  3.50000000E+02  4.60000000E+01  0.00000000E+00
  3.50000000E+02  4.40000000E+01  0.00000000E+00
  3.50000000E+02  4.20000000E+01  0.00000000E+00
  3.50000000E+02  4.00000000E+01  0.00000000E+00
  3.50000000E+02  3.80000000E+01  0.00000000E+00
  3.50000000E+02  3.60000000E+01  0.00000000E+00
  3.50000000E+02  3.40000000E+01  0.00000000E+00
  3.50000000E+02  3.20000000E+01  0.00000000E+00
  3.50000000E+02  3.00000000E+01  0.00000000E+00
  3.50000000E+02  2.80000000E+01  0.00000000E+00
  3.50000000E+02  2.60000000E+01  0.00000000E+00
  3.50000000E+02  2.40000000E+01  0.00000000E+00
  3.50000000E+02  2.20000000E+01  0.00000000E+00
  3.50000000E+02  2.00000000E+01  0.00000000E+00
  3.50000000E+02  1.80000000E+01  0.00000000E+00
  3.50000000E+02  1.60000000E+01  0.00000000E+00
  3.50000000E+02  1.40000000E+01  0.00000000E+00
  3.50000000E+02  1.20000000E+01  0.00000000E+00
  3.50000000E+02  1.00000000E+01  0.00000000E+00
  3.50000000E+02  8.00000000E+00  0.00000000E+00
  3.50000000E+02  6.00000000E+00  0.00000000E+00
  3.50000000E+02  4.00000000E+00  0.00000000E+00
  3.50000000E+02  2.00000000E+00  0.00000000E+00
  3.50000000E+02 -3.33066907E-14  0.00000000E+00
  3.60000000E+02  1.00000000E+02  0.00000000E+00
  3.60000000E+02  9.80000000E+01  0.00000000E+00
  3.60000000E+02  9.60000000E+01  0.00000000E+00
  3.60000000E+02  9.40000000E+01  0.00000000E+00
  3.60000000E+02  9.20000000E+01  0.00000000E+00
  3.60000000E+02  9.00000000E+01  0.00000000E+00
  3.60000000E+02  8.80000000E+01  0.00000000E+00
  3.60000000E+02  8.60000000E+01  0.00000000E+00
  3.60000000E+02  8.40000000E+01  0.00000000E+00
  3.60000000E+02  8.20000000E+01  0.00000000E+00
  3.60000000E+02  8.00000000E+01  0.00000000E+00
  3.60000000E+02  7.80000000E+01  0.00000000E+00
  3.60000000E+02  7.60000000E+01  0.00000000E+00
  3.60000000E+02  7.40000000E+01  0.00000000E+00
  3.60000000E+02  7.20000000E+01  0.00000000E+00
  3.60000000E+02  7.00000000E+01  0.00000000E+00
  3.60000000E+02  6.80000000E+01  0.00000000E+00
  3.60000000E+02  6.60000000E+01  0.00000000E+00
  3.60000000E+02  6.40000000E+01  0.00000000E+00
  3.60000000E+02  6.20000000E+01  0.00000000E+00
  3.60000000E+02  6.00000000E+01  0.00000000E+00
  3.60000000E+02  5.80000000E+01  0.00000000E+00
  3.60000000E+02  5.60000000E+01  0.00000000E+00
  3.60000000E+02  5.40000000E+01  0.00000000E+00
  3.60000000E+02  5.20000000E+01  0.00000000E+00
  3.60000000E+02  5.00000000E+01  0.00000000E+00
  3.60000000E+02  4.80000000E+01  0.00000000E+00
  3.60000000E+02  4.60000000E+01  0.00000000E+00
  3.60000000E+02  4.40000000E+01  0.00000000E+00
  3.60000000E+02  4.20000000E+01  0.00000000E+00
  3.60000000E+02  4.00000000E+01  0.00000000E+00
  3.60000000E+02  3.80000000E+01  0.00000000E+00
  3.60000000E+02  3.60000000E+01  0.00000000E+00
  3.60000000E+02  3.40000000E+01  0.00000000E+00
  3.60000000E+02  3.20000000E+01  0.00000000E+00
  3.60000000E+02  3.00000000E+01  0.00000000E+00
  3.60000000E+02  2.80000000E+01  0.00000000E+00
  3.60000000E+02  2.60000000E+01  0.00000000E+00
  3.60000000E+02  2.40000000E+01  0.00000000E+00
  3.60000000E+02  2.20000000E+01  0.00000000E+00
  3.60000000E+02  2.00000000E+01  0.00000000E+00
  3.60000000E+02  1.80000000E+01  0.00000000E+00
  3.60000000E+02  1.60000000E+01  0.00000000E+00
  3.60000000E+02  1.40000000E+01  0.00000000E+00
  3.60000000E+02  1.20000000E+01  0.00000000E+00
  3.60000000E+02  1.00000000E+01  0.00000000E+00
  3.60000000E+02  8.00000000E+00  0.00000000E+00
  3.60000000E+02  6.00000000E+00  0.00000000E+00
  3.60000000E+02  4.00000000E+00  0.00000000E+00
  3.60000000E+02  2.00000000E+00  0.00000000E+00
  3.60000000E+02 -3.33066907E-14  0.00000000E+00
  3.70000000E+02  1.00000000E+02  0.00000000E+00
  3.70000000E+02  9.80000000E+01  0.00000000E+00
  3.70000000E+02  9.60000000E+01  0.00000000E+00
  3.70000000E+02  9.40000000E+01  0.00000000E+00
  3.70000000E+02  9.20000000E+01  0.00000000E+00
  3.70000000E+02  9.00000000E+01  0.00000000E+00
  3.70000000E+02  8.80000000E+01  0.00000000E+00
  3.70000000E+02  8.60000000E+01  0.00000000E+00
  3.70000000E+02  8.40000000E+01  0.00000000E+00
  3.70000000E+02  8.20000000E+01  0.00000000E+00
  3.70000000E+02  8.00000000E+01  0.00000000E+00
  3.70000000E+02  7.80000000E+01  0.00000000E+00
  3.70000000E+02  7.60000000E+01  0.00000000E+00
  3.70000000E+02  7.40000000E+01  0.00000000E+00
  3.70000000E+02  7.20000000E+01  0.00000000E+00
  3.70000000E+02  7.00000000E+01  0.00000000E+00
  3.70000000E+02  6.80000000E+01  0.00000000E+00
  3.70000000E+02  6.60000000E+01  0.00000000E+00
  3.70000000E+02  6.40000000E+01  0.00000000E+00
  3.70000000E+02  6.20000000E+01  0.00000000E+00
  3.70000000E+02  6.00000000E+01  0.00000000E+00
  3.70000000E+02  5.80000000E+01  0.00000000E+00
  3.70000000E+02  5.60000000E+01  0.00000000E+00
  3.70000000E+02  5.40000000E+01  0.00000000E+00
  3.70000000E+02  5.20000000E+01  0.00000000E+00
  3.70000000E+02  5.00000000E+01  0.00000000E+00
  3.70000000E+02  4.80000000E+01  0.00000000E+00
  3.70000000E+02  4.60000000E+01  0.00000000E+00
  3.70000000E+02  4.40000000E+01  0.00000000E+00
  3.70000000E+02  4.20000000E+01  0.00000000E+00
  3.70000000E+02  4.00000000E+01  0.00000000E+00
  3.70000000E+02  3.80000000E+01  0.00000000E+00
  3.70000000E+02  3.60000000E+01  0.00000000E+00
  3.70000000E+02  3.40000000E+01  0.00000000E+00
  3.70000000E+02  3.20000000E+01  0.00000000E+00
  3.70000000E+02  3.00000000E+01  0.00000000E+00
  3.70000000E+02  2.80000000E+01  0.00000000E+00
  3.70000000E+02  2.60000000E+01  0.00000000E+00
  3.70000000E+02  2.40000000E+01  0.00000000E+00
  3.70000000E+02  2.20000000E+01  0.00000000E+00
  3.70000000E+02  2.00000000E+01  0.00000000E+00
  3.70000000E+02  1.80000000E+01  0.00000000E+00
  3.70000000E+02  1.60000000E+01  0.00000000E+00
  3.70000000E+02  1.40000000E+01  0.00000000E+00
  3.70000000E+02  1.20000000E+01  0.00000000E+00
  3.70000000E+02  1.00000000E+01  0.00000000E+00
  3.70000000E+02  8.00000000E+00  0.00000000E+00
  3.70000000E+02  6.00000000E+00  0.00000000E+00
  3.70000000E+02  4.00000000E+00  0.00000000E+00
  3.70000000E+02  2.00000000E+00  0.00000000E+00
  3.70000000E+02 -3.33066907E-14  0.00000000E+00
  3.80000000E+02  1.00000000E+02  0.00000000E+00
  3.80000000E+02  9.80000000E+01  0.00000000E+00
  3.80000000E+02  9.60000000E+01  0.00000000E+00
  3.80000000E+02  9.40000000E+01  0.00000000E+00
  3.80000000E+02  9.20000000E+01  0.00000000E+00
  3.80000000E+02  9.00000000E+01  0.00000000E+00
  3.80000000E+02  8.80000000E+01  0.00000000E+00
  3.80000000E+02  8.60000000E+01  0.00000000E+00
  3.80000000E+02  8.40000000E+01  0.00000000E+00
  3.80000000E+02  8.20000000E+01  0.00000000E+00
  3.80000000E+02  8.00000000E+01  0.00000000E+00
  3.80000000E+02  7.80000000E+01  0.00000000E+00
  3.80000000E+02  7.60000000E+01  0.00000000E+00
  3.80000000E+02  7.40000000E+01  0.00000000E+00
  3.80000000E+02  7.20000000E+01  0.00000000E+00
  3.80000000E+02  7.00000000E+01  0.00000000E+00
  3.80000000E+02  6.80000000E+01  0.00000000E+00
  3.80000000E+02  6.60000000E+01  0.00000000E+00
  3.80000000E+02  6.40000000E+01  0.00000000E+00
  3.80000000E+02  6.20000000E+01  0.00000000E+00
  3.80000000E+02  6.00000000E+01  0.00000000E+00
  3.80000000E+02  5.80000000E+01  0.00000000E+00
  3.80000000E+02  5.60000000E+01  0.00000000E+00
  3.80000000E+02  5.40000000E+01  0.00000000E+00
  3.80000000E+02  5.20000000E+01  0.00000000E+00
  3.80000000E+02  5.00000000E+01  0.00000000E+00
  3.80000000E+02  4.80000000E+01  0.00000000E+00
  3.80000000E+02  4.60000000E+01  0.00000000E+00
  3.80000000E+02  4.40000000E+01  0.00000000E+00
  3.80000000E+02  4.20000000E+01  0.00000000E+00
  3.80000000E+02  4.00000000E+01  0.00000000E+00
  3.80000000E+02  3.80000000E+01  0.00000000E+00
  3.80000000E+02  3.60000000E+01  0.00000000E+00
  3.80000000E+02  3.40000000E+01  0.00000000E+00
  3.80000000E+02  3.20000000E+01  0.00000000E+00
  3.80000000E+02  3.00000000E+01  0.00000000E+00
  3.80000000E+02  2.80000000E+01  0.00000000E+00
  3.80000000E+02  2.60000000E+01  0.00000000E+00
  3.80000000E+02  2.40000000E+01  0.00000000E+00
  3.80000000E+02  2.20000000E+01  0.00000000E+00
  3.80000000E+02  2.00000000E+01  0.00000000E+00
  3.80000000E+02  1.80000000E+01  0.00000000E+00
  3.80000000E+02  1.60000000E+01  0.00000000E+00
  3.80000000E+02  1.40000000E+01  0.00000000E+00
  3.80000000E+02  1.20000000E+01  0.00000000E+00
  3.80000000E+02  1.00000000E+01  0.00000000E+00
  3.80000000E+02  8.00000000E+00  0.00000000E+00
  3.80000000E+02  6.00000000E+00  0.00000000E+00
  3.80000000E+02  4.00000000E+00  0.00000000E+00
  3.80000000E+02  2.00000000E+00  0.00000000E+00
  3.80000000E+02 -3.33066907E-14  0.00000000E+00
  3.90000000E+02  1.00000000E+02  0.00000000E+00
  3.90000000E+02  9.80000000E+01  0.00000000E+00
  3.90000000E+02  9.60000000E+01  0.00000000E+00
  3.90000000E+02  9.40000000E+01  0.00000000E+00
  3.90000000E+02  9.20000000E+01  0.00000000E+00
  3.90000000E+02  9.00000000E+01  0.00000000E+00
  3.90000000E+02  8.80000000E+01  0.00000000E+00
  3.90000000E+02  8.60000000E+01  0.00000000E+00
  3.90000000E+02  8.40000000E+01  0.00000000E+00
  3.90000000E+02  8.20000000E+01  0.00000000E+00
  3.90000000E+02  8.00000000E+01  0.00000000E+00
  3.90000000E+02  7.80000000E+01  0.00000000E+00
  3.90000000E+02  7.60000000E+01  0.00000000E+00
  3.90000000E+02  7.40000000E+01  0.00000000E+00
  3.90000000E+02  7.20000000E+01  0.00000000E+00
  3.90000000E+02  7.00000000E+01  0.00000000E+00
  3.90000000E+02  6.80000000E+01  0.00000000E+00
  3.90000000E+02  6.60000000E+01  0.00000000E+00
  3.90000000E+02  6.40000000E+01  0.00000000E+00
  3.90000000E+02  6.20000000E+01  0.00000000E+00
  3.90000000E+02  6.00000000E+01  0.00000000E+00
  3.90000000E+02  5.80000000E+01  0.00000000E+00
  3.90000000E+02  5.60000000E+01  0.00000000E+00
  3.90000000E+02  5.40000000E+01  0.00000000E+00
  3.90000000E+02  5.20000000E+01  0.00000000E+00
  3.90000000E+02  5.00000000E+01  0.00000000E+00
  3.90000000E+02  4.80000000E+01  0.00000000E+00
  3.90000000E+02  4.60000000E+01  0.00000000E+00
  3.90000000E+02  4.40000000E+01  0.00000000E+00
  3.90000000E+02  4.20000000E+01  0.00000000E+00
  3.90000000E+02  4.00000000E+01  0.00000000E+00
  3.90000000E+02  3.80000000E+01  0.00000000E+00
  3.90000000E+02  3.60000000E+01  0.00000000E+00
  3.90000000E+02  3.40000000E+01  0.00000000E+00
  3.90000000E+02  3.20000000E+01  0.00000000E+00
  3.90000000E+02  3.00000000E+01  0.00000000E+00
  3.90000000E+02  2.80000000E+01  0.00000000E+00
  3.90000000E+02  2.60000000E+01  0.00000000E+00
  3.90000000E+02  2.40000000E+01  0.00000000E+00
  3.90000000E+02  2.20000000E+01  0.00000000E+00
  3.90000000E+02  2.00000000E+01  0.00000000E+00
  3.90000000E+02  1.80000000E+01  0.00000000E+00
  3.90000000E+02  1.60000000E+01  0.00000000E+00
  3.90000000E+02  1.40000000E+01  0.00000000E+00
  3.90000000E+02  1.20000000E+01  0.00000000E+00
  3.90000000E+02  1.00000000E+01  0.00000000E+00
  3.90000000E+02  8.00000000E+00  0.00000000E+00
  3.90000000E+02  6.00000000E+00  0.00000000E+00
  3.90000000E+02  4.00000000E+00  0.00000000E+00
  3.90000000E+02  2.00000000E+00  0.00000000E+00
  3.90000000E+02 -3.33066907E-14  0.00000000E+00
  4.00000000E+02  1.00000000E+02  0.00000000E+00
  4.00000000E+02  9.80000000E+01  0.00000000E+00
  4.00000000E+02  9.60000000E+01  0.00000000E+00
  4.00000000E+02  9.40000000E+01  0.00000000E+00
  4.00000000E+02  9.20000000E+01  0.00000000E+00
  4.00000000E+02  9.00000000E+01  0.00000000E+00
  4.00000000E+02  8.80000000E+01  0.00000000E+00
  4.00000000E+02  8.60000000E+01  0.00000000E+00
  4.00000000E+02  8.40000000E+01  0.00000000E+00
  4.00000000E+02  8.20000000E+01  0.00000000E+00
  4.00000000E+02  8.00000000E+01  0.00000000E+00
  4.00000000E+02  7.80000000E+01  0.00000000E+00
  4.00000000E+02  7.60000000E+01  0.00000000E+00
  4.00000000E+02  7.40000000E+01  0.00000000E+00
  4.00000000E+02  7.20000000E+01  0.00000000E+00
  4.00000000E+02  7.00000000E+01  0.00000000E+00
  4.00000000E+02  6.80000000E+01  0.00000000E+00
  4.00000000E+02  6.60000000E+01  0.00000000E+00
  4.00000000E+02  6.40000000E+01  0.00000000E+00
  4.00000000E+02  6.20000000E+01  0.00000000E+00
  4.00000000E+02  6.00000000E+01  0.00000000E+00
  4.00000000E+02  5.80000000E+01  0.00000000E+00
  4.00000000E+02  5.60000000E+01  0.00000000E+00
  4.00000000E+02  5.40000000E+01  0.00000000E+00
  4.00000000E+02  5.20000000E+01  0.00000000E+00
  4.00000000E+02  5.00000000E+01  0.00000000E+00
  4.00000000E+02  4.80000000E+01  0.00000000E+00
  4.00000000E+02  4.60000000E+01  0.00000000E+00
  4.00000000E+02  4.40000000E+01  0.00000000E+00
  4.00000000E+02  4.20000000E+01  0.00000000E+00
  4.00000000E+02  4.00000000E+01  0.00000000E+00
  4.00000000E+02  3.80000000E+01  0.00000000E+00
  4.00000000E+02  3.60000000E+01  0.00000000E+00
  4.00000000E+02  3.40000000E+01  0.00000000E+00
  4.00000000E+02  3.20000000E+01  0.00000000E+00
  4.00000000E+02  3.00000000E+01  0.00000000E+00
  4.00000000E+02  2.80000000E+01  0.00000000E+00
  4.00000000E+02  2.60000000E+01  0.00000000E+00
  4.00000000E+02  2.40000000E+01  0.00000000E+00
  4.00000000E+02  2.20000000E+01  0.00000000E+00
  4.00000000E+02  2.00000000E+01  0.00000000E+00
  4.00000000E+02  1.80000000E+01  0.00000000E+00
  4.00000000E+02  1.60000000E+01  0.00000000E+00
  4.00000000E+02  1.40000000E+01  0.00000000E+00
  4.00000000E+02  1.20000000E+01  0.00000000E+00
  4.00000000E+02  1.00000000E+01  0.00000000E+00
  4.00000000E+02  8.00000000E+00  0.00000000E+00
  4.00000000E+02  6.00000000E+00  0.00000000E+00
  4.00000000E+02  4.00000000E+00  0.00000000E+00
  4.00000000E+02  2.00000000E+00  0.00000000E+00
  4.00000000E+02 -3.33066907E-14  0.00000000E+00
  4.10000000E+02  1.00000000E+02  0.00000000E+00
  4.10000000E+02  9.80000000E+01  0.00000000E+00
  4.10000000E+02  9.60000000E+01  0.00000000E+00
  4.10000000E+02  9.40000000E+01  0.00000000E+00
  4.10000000E+02  9.20000000E+01  0.00000000E+00
  4.10000000E+02  9.00000000E+01  0.00000000E+00
  4.10000000E+02  8.80000000E+01  0.00000000E+00
  4.10000000E+02  8.60000000E+01  0.00000000E+00
  4.10000000E+02  8.40000000E+01  0.00000000E+00
  4.10000000E+02  8.20000000E+01  0.00000000E+00
  4.10000000E+02  8.00000000E+01  0.00000000E+00
  4.10000000E+02  7.80000000E+01  0.00000000E+00
  4.10000000E+02  7.60000000E+01  0.00000000E+00
  4.10000000E+02  7.40000000E+01  0.00000000E+00
  4.10000000E+02  7.20000000E+01  0.00000000E+00
  4.10000000E+02  7.00000000E+01  0.00000000E+00
  4.10000000E+02  6.80000000E+01  0.00000000E+00
  4.10000000E+02  6.60000000E+01  0.00000000E+00
  4.10000000E+02  6.40000000E+01  0.00000000E+00
  4.10000000E+02  6.20000000E+01  0.00000000E+00
  4.10000000E+02  6.00000000E+01  0.00000000E+00
  4.10000000E+02  5.80000000E+01  0.00000000E+00
  4.10000000E+02  5.60000000E+01  0.00000000E+00
  4.10000000E+02  5.40000000E+01  0.00000000E+00
  4.10000000E+02  5.20000000E+01  0.00000000E+00
  4.10000000E+02  5.00000000E+01  0.00000000E+00
  4.10000000E+02  4.80000000E+01  0.00000000E+00
  4.10000000E+02  4.60000000E+01  0.00000000E+00
  4.10000000E+02  4.40000000E+01  0.00000000E+00
  4.10000000E+02  4.20000000E+01  0.00000000E+00
  4.10000000E+02  4.00000000E+01  0.00000000E+00
  4.10000000E+02  3.80000000E+01  0.00000000E+00
  4.10000000E+02  3.60000000E+01  0.00000000E+00
  4.10000000E+02  3.40000000E+01  0.00000000E+00
  4.10000000E+02  3.20000000E+01  0.00000000E+00
  4.10000000E+02  3.00000000E+01  0.00000000E+00
  4.10000000E+02  2.80000000E+01  0.00000000E+00
  4.10000000E+02  2.60000000E+01  0.00000000E+00
  4.10000000E+02  2.40000000E+01  0.00000000E+00
  4.10000000E+02  2.20000000E+01  0.00000000E+00
  4.10000000E+02  2.00000000E+01  0.00000000E+00
  4.10000000E+02  1.80000000E+01  0.00000000E+00
  4.10000000E+02  1.60000000E+01  0.00000000E+00
  4.10000000E+02  1.40000000E+01  0.00000000E+00
  4.10000000E+02  1.20000000E+01  0.00000000E+00
  4.10000000E+02  1.00000000E+01  0.00000000E+00
  4.10000000E+02  8.00000000E+00  0.00000000E+00
  4.10000000E+02  6.00000000E+00  0.00000000E+00
  4.10000000E+02  4.00000000E+00  0.00000000E+00
  4.10000000E+02  2.00000000E+00  0.00000000E+00
  4.10000000E+02 -3.33066907E-14  0.00000000E+00
  4.20000000E+02  1.00000000E+02  0.00000000E+00
  4.20000000E+02  9.80000000E+01  0.00000000E+00
  4.20000000E+02  9.60000000E+01  0.00000000E+00
  4.20000000E+02  9.40000000E+01  0.00000000E+00
  4.20000000E+02  9.20000000E+01  0.00000000E+00
  4.20000000E+02  9.00000000E+01  0.00000000E+00
  4.20000000E+02  8.80000000E+01  0.00000000E+00
  4.20000000E+02  8.60000000E+01  0.00000000E+00
  4.20000000E+02  8.40000000E+01  0.00000000E+00
  4.20000000E+02  8.20000000E+01  0.00000000E+00
  4.20000000E+02  8.00000000E+01  0.00000000E+00
  4.20000000E+02  7.80000000E+01  0.00000000E+00
  4.20000000E+02  7.60000000E+01  0.00000000E+00
  4.20000000E+02  7.40000000E+01  0.00000000E+00
  4.20000000E+02  7.20000000E+01  0.00000000E+00
  4.20000000E+02  7.00000000E+01  0.00000000E+00
  4.20000000E+02  6.80000000E+01  0.00000000E+00
  4.20000000E+02  6.60000000E+01  0.00000000E+00
  4.20000000E+02  6.40000000E+01  0.00000000E+00
  4.20000000E+02  6.20000000E+01  0.00000000E+00
  4.20000000E+02  6.00000000E+01  0.00000000E+00
  4.20000000E+02  5.80000000E+01  0.00000000E+00
  4.20000000E+02  5.60000000E+01  0.00000000E+00
  4.20000000E+02  5.40000000E+01  0.00000000E+00
  4.20000000E+02  5.20000000E+01  0.00000000E+00
  4.20000000E+02  5.00000000E+01  0.00000000E+00
  4.20000000E+02  4.80000000E+01  0.00000000E+00
  4.20000000E+02  4.60000000E+01  0.00000000E+00
  4.20000000E+02  4.40000000E+01  0.00000000E+00
  4.20000000E+02  4.20000000E+01  0.00000000E+00
  4.20000000E+02  4.00000000E+01  0.00000000E+00
  4.20000000E+02  3.80000000E+01  0.00000000E+00
  4.20000000E+02  3.60000000E+01  0.00000000E+00
  4.20000000E+02  3.40000000E+01  0.00000000E+00
  4.20000000E+02  3.20000000E+01  0.00000000E+00
  4.20000000E+02  3.00000000E+01  0.00000000E+00
  4.20000000E+02  2.80000000E+01  0.00000000E+00
  4.20000000E+02  2.60000000E+01  0.00000000E+00
  4.20000000E+02  2.40000000E+01  0.00000000E+00
  4.20000000E+02  2.20000000E+01  0.00000000E+00
  4.20000000E+02  2.00000000E+01  0.00000000E+00
  4.20000000E+02  1.80000000E+01  0.00000000E+00
  4.20000000E+02  1.60000000E+01  0.00000000E+00
  4.20000000E+02  1.40000000E+01  0.00000000E+00
  4.20000000E+02  1.20000000E+01  0.00000000E+00
  4.20000000E+02  1.00000000E+01  0.00000000E+00
  4.20000000E+02  8.00000000E+00  0.00000000E+00
  4.20000000E+02  6.00000000E+00  0.00000000E+00
  4.20000000E+02  4.00000000E+00  0.00000000E+00
  4.20000000E+02  2.00000000E+00  0.00000000E+00
  4.20000000E+02 -3.33066907E-14  0.00000000E+00
  4.30000000E+02  1.00000000E+02  0.00000000E+00
  4.30000000E+02  9.80000000E+01  0.00000000E+00
  4.30000000E+02  9.60000000E+01  0.00000000E+00
  4.30000000E+02  9.40000000E+01  0.00000000E+00
  4.30000000E+02  9.20000000E+01  0.00000000E+00
  4.30000000E+02  9.00000000E+01  0.00000000E+00
  4.30000000E+02  8.80000000E+01  0.00000000E+00
  4.30000000E+02  8.60000000E+01  0.00000000E+00
  4.30000000E+02  8.40000000E+01  0.00000000E+00
  4.30000000E+02  8.20000000E+01  0.00000000E+00
  4.30000000E+02  8.00000000E+01  0.00000000E+00
  4.30000000E+02  7.80000000E+01  0.00000000E+00
  4.30000000E+02  7.60000000E+01  0.00000000E+00
  4.30000000E+02  7.40000000E+01  0.00000000E+00
  4.30000000E+02  7.20000000E+01  0.00000000E+00
  4.30000000E+02  7.00000000E+01  0.00000000E+00
  4.30000000E+02  6.80000000E+01  0.00000000E+00
  4.30000000E+02  6.60000000E+01  0.00000000E+00
  4.30000000E+02  6.40000000E+01  0.00000000E+00
  4.30000000E+02  6.20000000E+01  0.00000000E+00
  4.30000000E+02  6.00000000E+01  0.00000000E+00
  4.30000000E+02  5.80000000E+01  0.00000000E+00
  4.30000000E+02  5.60000000E+01  0.00000000E+00
  4.30000000E+02  5.40000000E+01  0.00000000E+00
  4.30000000E+02  5.20000000E+01  0.00000000E+00
  4.30000000E+02  5.00000000E+01  0.00000000E+00
  4.30000000E+02  4.80000000E+01  0.00000000E+00
  4.30000000E+02  4.60000000E+01  0.00000000E+00
  4.30000000E+02  4.40000000E+01  0.00000000E+00
  4.30000000E+02  4.20000000E+01  0.00000000E+00
  4.30000000E+02  4.00000000E+01  0.00000000E+00
  4.30000000E+02  3.80000000E+01  0.00000000E+00
  4.30000000E+02  3.60000000E+01  0.00000000E+00
  4.30000000E+02  3.40000000E+01  0.00000000E+00
  4.30000000E+02  3.20000000E+01  0.00000000E+00
  4.30000000E+02  3.00000000E+01  0.00000000E+00
  4.30000000E+02  2.80000000E+01  0.00000000E+00
  4.30000000E+02  2.60000000E+01  0.00000000E+00
  4.30000000E+02  2.40000000E+01  0.00000000E+00
  4.30000000E+02  2.20000000E+01  0.00000000E+00
  4.30000000E+02  2.00000000E+01  0.00000000E+00
  4.30000000E+02  1.80000000E+01  0.00000000E+00
  4.30000000E+02  1.60000000E+01  0.00000000E+00
  4.30000000E+02  1.40000000E+01  0.00000000E+00
  4.30000000E+02  1.20000000E+01  0.00000000E+00
  4.30000000E+02  1.00000000E+01  0.00000000E+00
  4.30000000E+02  8.00000000E+00  0.00000000E+00
  4.30000000E+02  6.00000000E+00  0.00000000E+00
  4.30000000E+02  4.00000000E+00  0.00000000E+00
  4.30000000E+02  2.00000000E+00  0.00000000E+00
  4.30000000E+02 -3.33066907E-14  0.00000000E+00
  4.40000000E+02  1.00000000E+02  0.00000000E+00
  4.40000000E+02  9.80000000E+01  0.00000000E+00
  4.40000000E+02  9.60000000E+01  0.00000000E+00
  4.40000000E+02  9.40000000E+01  0.00000000E+00
  4.40000000E+02  9.20000000E+01  0.00000000E+00
  4.40000000E+02  9.00000000E+01  0.00000000E+00
  4.40000000E+02  8.80000000E+01  0.00000000E+00
  4.40000000E+02  8.60000000E+01  0.00000000E+00
  4.40000000E+02  8.40000000E+01  0.00000000E+00
  4.40000000E+02  8.20000000E+01  0.00000000E+00
  4.40000000E+02  8.00000000E+01  0.00000000E+00
  4.40000000E+02  7.80000000E+01  0.00000000E+00
  4.40000000E+02  7.60000000E+01  0.00000000E+00
  4.40000000E+02  7.40000000E+01  0.00000000E+00
  4.40000000E+02  7.20000000E+01  0.00000000E+00
  4.40000000E+02  7.00000000E+01  0.00000000E+00
  4.40000000E+02  6.80000000E+01  0.00000000E+00
  4.40000000E+02  6.60000000E+01  0.00000000E+00
  4.40000000E+02  6.40000000E+01  0.00000000E+00
  4.40000000E+02  6.20000000E+01  0.00000000E+00
  4.40000000E+02  6.00000000E+01  0.00000000E+00
  4.40000000E+02  5.80000000E+01  0.00000000E+00
  4.40000000E+02  5.60000000E+01  0.00000000E+00
  4.40000000E+02  5.40000000E+01  0.00000000E+00
  4.40000000E+02  5.20000000E+01  0.00000000E+00
  4.40000000E+02  5.00000000E+01  0.00000000E+00
  4.40000000E+02  4.80000000E+01  0.00000000E+00
  4.40000000E+02  4.60000000E+01  0.00000000E+00
  4.40000000E+02  4.40000000E+01  0.00000000E+00
  4.40000000E+02  4.20000000E+01  0.00000000E+00
  4.40000000E+02  4.00000000E+01  0.00000000E+00
  4.40000000E+02  3.80000000E+01  0.00000000E+00
  4.40000000E+02  3.60000000E+01  0.00000000E+00
  4.40000000E+02  3.40000000E+01  0.00000000E+00
  4.40000000E+02  3.20000000E+01  0.00000000E+00
  4.40000000E+02  3.00000000E+01  0.00000000E+00
  4.40000000E+02  2.80000000E+01  0.00000000E+00
  4.40000000E+02  2.60000000E+01  0.00000000E+00
  4.40000000E+02  2.40000000E+01  0.00000000E+00
  4.40000000E+02  2.20000000E+01  0.00000000E+00
  4.40000000E+02  2.00000000E+01  0.00000000E+00
  4.40000000E+02  1.80000000E+01  0.00000000E+00
  4.40000000E+02  1.60000000E+01  0.00000000E+00
  4.40000000E+02  1.40000000E+01  0.00000000E+00
  4.40000000E+02  1.20000000E+01  0.00000000E+00
  4.40000000E+02  1.00000000E+01  0.00000000E+00
  4.40000000E+02  8.00000000E+00  0.00000000E+00
  4.40000000E+02  6.00000000E+00  0.00000000E+00
  4.40000000E+02  4.00000000E+00  0.00000000E+00
  4.40000000E+02  2.00000000E+00  0.00000000E+00
  4.40000000E+02 -3.33066907E-14  0.00000000E+00
  4.50000000E+02  1.00000000E+02  0.00000000E+00
  4.50000000E+02  9.80000000E+01  0.00000000E+00
  4.50000000E+02  9.60000000E+01  0.00000000E+00
  4.50000000E+02  9.40000000E+01  0.00000000E+00
  4.50000000E+02  9.20000000E+01  0.00000000E+00
  4.50000000E+02  9.00000000E+01  0.00000000E+00
  4.50000000E+02  8.80000000E+01  0.00000000E+00
  4.50000000E+02  8.60000000E+01  0.00000000E+00
  4.50000000E+02  8.40000000E+01  0.00000000E+00
  4.50000000E+02  8.20000000E+01  0.00000000E+00
  4.50000000E+02  8.00000000E+01  0.00000000E+00
  4.50000000E+02  7.80000000E+01  0.00000000E+00
  4.50000000E+02  7.60000000E+01  0.00000000E+00
  4.50000000E+02  7.40000000E+01  0.00000000E+00
  4.50000000E+02  7.20000000E+01  0.00000000E+00
  4.50000000E+02  7.00000000E+01  0.00000000E+00
  4.50000000E+02  6.80000000E+01  0.00000000E+00
  4.50000000E+02  6.60000000E+01  0.00000000E+00
  4.50000000E+02  6.40000000E+01  0.00000000E+00
  4.50000000E+02  6.20000000E+01  0.00000000E+00
  4.50000000E+02  6.00000000E+01  0.00000000E+00
  4.50000000E+02  5.80000000E+01  0.00000000E+00
  4.50000000E+02  5.60000000E+01  0.00000000E+00
  4.50000000E+02  5.40000000E+01  0.00000000E+00
  4.50000000E+02  5.20000000E+01  0.00000000E+00
  4.50000000E+02  5.00000000E+01  0.00000000E+00
  4.50000000E+02  4.80000000E+01  0.00000000E+00
  4.50000000E+02  4.60000000E+01  0.00000000E+00
  4.50000000E+02  4.40000000E+01  0.00000000E+00
  4.50000000E+02  4.20000000E+01  0.00000000E+00
  4.50000000E+02  4.00000000E+01  0.00000000E+00
  4.50000000E+02  3.80000000E+01  0.00000000E+00
  4.50000000E+02  3.60000000E+01  0.00000000E+00
  4.50000000E+02  3.40000000E+01  0.00000000E+00
  4.50000000E+02  3.20000000E+01  0.00000000E+00
  4.50000000E+02  3.00000000E+01  0.00000000E+00
  4.50000000E+02  2.80000000E+01  0.00000000E+00
  4.50000000E+02  2.60000000E+01  0.00000000E+00
  4.50000000E+02  2.40000000E+01  0.00000000E+00
  4.50000000E+02  2.20000000E+01  0.00000000E+00
  4.50000000E+02  2.00000000E+01  0.00000000E+00
  4.50000000E+02  1.80000000E+01  0.00000000E+00
  4.50000000E+02  1.60000000E+01  0.00000000E+00
  4.50000000E+02  1.40000000E+01  0.00000000E+00
  4.50000000E+02  1.20000000E+01  0.00000000E+00
  4.50000000E+02  1.00000000E+01  0.00000000E+00
  4.50000000E+02  8.00000000E+00  0.00000000E+00
  4.50000000E+02  6.00000000E+00  0.00000000E+00
  4.50000000E+02  4.00000000E+00  0.00000000E+00
  4.50000000E+02  2.00000000E+00  0.00000000E+00
  4.50000000E+02 -3.33066907E-14  0.00000000E+00
  4.60000000E+02  1.00000000E+02  0.00000000E+00
  4.60000000E+02  9.80000000E+01  0.00000000E+00
  4.60000000E+02  9.60000000E+01  0.00000000E+00
  4.60000000E+02  9.40000000E+01  0.00000000E+00
  4.60000000E+02  9.20000000E+01  0.00000000E+00
  4.60000000E+02  9.00000000E+01  0.00000000E+00
  4.60000000E+02  8.80000000E+01  0.00000000E+00
  4.60000000E+02  8.60000000E+01  0.00000000E+00
  4.60000000E+02  8.40000000E+01  0.00000000E+00
  4.60000000E+02  8.20000000E+01  0.00000000E+00
  4.60000000E+02  8.00000000E+01  0.00000000E+00
  4.60000000E+02  7.80000000E+01  0.00000000E+00
  4.60000000E+02  7.60000000E+01  0.00000000E+00
  4.60000000E+02  7.40000000E+01  0.00000000E+00
  4.60000000E+02  7.20000000E+01  0.00000000E+00
  4.60000000E+02  7.00000000E+01  0.00000000E+00
  4.60000000E+02  6.80000000E+01  0.00000000E+00
  4.60000000E+02  6.60000000E+01  0.00000000E+00
  4.60000000E+02  6.40000000E+01  0.00000000E+00
  4.60000000E+02  6.20000000E+01  0.00000000E+00
  4.60000000E+02  6.00000000E+01  0.00000000E+00
  4.60000000E+02  5.80000000E+01  0.00000000E+00
  4.60000000E+02  5.60000000E+01  0.00000000E+00
  4.60000000E+02  5.40000000E+01  0.00000000E+00
  4.60000000E+02  5.20000000E+01  0.00000000E+00
  4.60000000E+02  5.00000000E+01  0.00000000E+00
  4.60000000E+02  4.80000000E+01  0.00000000E+00
  4.60000000E+02  4.60000000E+01  0.00000000E+00
  4.60000000E+02  4.40000000E+01  0.00000000E+00
  4.60000000E+02  4.20000000E+01  0.00000000E+00
  4.60000000E+02  4.00000000E+01  0.00000000E+00
  4.60000000E+02  3.80000000E+01  0.00000000E+00
  4.60000000E+02  3.60000000E+01  0.00000000E+00
  4.60000000E+02  3.40000000E+01  0.00000000E+00
  4.60000000E+02  3.20000000E+01  0.00000000E+00
  4.60000000E+02  3.00000000E+01  0.00000000E+00
  4.60000000E+02  2.80000000E+01  0.00000000E+00
  4.60000000E+02  2.60000000E+01  0.00000000E+00
  4.60000000E+02  2.40000000E+01  0.00000000E+00
  4.60000000E+02  2.20000000E+01  0.00000000E+00
  4.60000000E+02  2.00000000E+01  0.00000000E+00
  4.60000000E+02  1.80000000E+01  0.00000000E+00
  4.60000000E+02  1.60000000E+01  0.00000000E+00
  4.60000000E+02  1.40000000E+01  0.00000000E+00
  4.60000000E+02  1.20000000E+01  0.00000000E+00
  4.60000000E+02  1.00000000E+01  0.00000000E+00
  4.60000000E+02  8.00000000E+00  0.00000000E+00
  4.60000000E+02  6.00000000E+00  0.00000000E+00
  4.60000000E+02  4.00000000E+00  0.00000000E+00
  4.60000000E+02  2.00000000E+00  0.00000000E+00
  4.60000000E+02 -3.33066907E-14  0.00000000E+00
  4.70000000E+02  1.00000000E+02  0.00000000E+00
  4.70000000E+02  9.80000000E+01  0.00000000E+00
  4.70000000E+02  9.60000000E+01  0.00000000E+00
  4.70000000E+02  9.40000000E+01  0.00000000E+00
  4.70000000E+02  9.20000000E+01  0.00000000E+00
  4.70000000E+02  9.00000000E+01  0.00000000E+00
  4.70000000E+02  8.80000000E+01  0.00000000E+00
  4.70000000E+02  8.60000000E+01  0.00000000E+00
  4.70000000E+02  8.40000000E+01  0.00000000E+00
  4.70000000E+02  8.20000000E+01  0.00000000E+00
  4.70000000E+02  8.00000000E+01  0.00000000E+00
  4.70000000E+02  7.80000000E+01  0.00000000E+00
  4.70000000E+02  7.60000000E+01  0.00000000E+00
  4.70000000E+02  7.40000000E+01  0.00000000E+00
  4.70000000E+02  7.20000000E+01  0.00000000E+00
  4.70000000E+02  7.00000000E+01  0.00000000E+00
  4.70000000E+02  6.80000000E+01  0.00000000E+00
  4.70000000E+02  6.60000000E+01  0.00000000E+00
  4.70000000E+02  6.40000000E+01  0.00000000E+00
  4.70000000E+02  6.20000000E+01  0.00000000E+00
  4.70000000E+02  6.00000000E+01  0.00000000E+00
  4.70000000E+02  5.80000000E+01  0.00000000E+00
  4.70000000E+02  5.60000000E+01  0.00000000E+00
  4.70000000E+02  5.40000000E+01  0.00000000E+00
  4.70000000E+02  5.20000000E+01  0.00000000E+00
  4.70000000E+02  5.00000000E+01  0.00000000E+00
  4.70000000E+02  4.80000000E+01  0.00000000E+00
  4.70000000E+02  4.60000000E+01  0.00000000E+00
  4.70000000E+02  4.40000000E+01  0.00000000E+00
  4.70000000E+02  4.20000000E+01  0.00000000E+00
  4.70000000E+02  4.00000000E+01  0.00000000E+00
  4.70000000E+02  3.80000000E+01  0.00000000E+00
  4.70000000E+02  3.60000000E+01  0.00000000E+00
  4.70000000E+02  3.40000000E+01  0.00000000E+00
  4.70000000E+02  3.20000000E+01  0.00000000E+00
  4.70000000E+02  3.00000000E+01  0.00000000E+00
  4.70000000E+02  2.80000000E+01  0.00000000E+00
  4.70000000E+02  2.60000000E+01  0.00000000E+00
  4.70000000E+02  2.40000000E+01  0.00000000E+00
  4.70000000E+02  2.20000000E+01  0.00000000E+00
  4.70000000E+02  2.00000000E+01  0.00000000E+00
  4.70000000E+02  1.80000000E+01  0.00000000E+00
  4.70000000E+02  1.60000000E+01  0.00000000E+00
  4.70000000E+02  1.40000000E+01  0.00000000E+00
  4.70000000E+02  1.20000000E+01  0.00000000E+00
  4.70000000E+02  1.00000000E+01  0.00000000E+00
  4.70000000E+02  8.00000000E+00  0.00000000E+00
  4.70000000E+02  6.00000000E+00  0.00000000E+00
  4.70000000E+02  4.00000000E+00  0.00000000E+00
  4.70000000E+02  2.00000000E+00  0.00000000E+00
  4.70000000E+02 -3.33066907E-14  0.00000000E+00
  4.80000000E+02  1.00000000E+02  0.00000000E+00
  4.80000000E+02  9.80000000E+01  0.00000000E+00
  4.80000000E+02  9.60000000E+01  0.00000000E+00
  4.80000000E+02  9.40000000E+01  0.00000000E+00
  4.80000000E+02  9.20000000E+01  0.00000000E+00
  4.80000000E+02  9.00000000E+01  0.00000000E+00
  4.80000000E+02  8.80000000E+01  0.00000000E+00
  4.80000000E+02  8.60000000E+01  0.00000000E+00
  4.80000000E+02  8.40000000E+01  0.00000000E+00
  4.80000000E+02  8.20000000E+01  0.00000000E+00
  4.80000000E+02  8.00000000E+01  0.00000000E+00
  4.80000000E+02  7.80000000E+01  0.00000000E+00
  4.80000000E+02  7.60000000E+01  0.00000000E+00
  4.80000000E+02  7.40000000E+01  0.00000000E+00
  4.80000000E+02  7.20000000E+01  0.00000000E+00
  4.80000000E+02  7.00000000E+01  0.00000000E+00
  4.80000000E+02  6.80000000E+01  0.00000000E+00
  4.80000000E+02  6.60000000E+01  0.00000000E+00
  4.80000000E+02  6.40000000E+01  0.00000000E+00
  4.80000000E+02  6.20000000E+01  0.00000000E+00
  4.80000000E+02  6.00000000E+01  0.00000000E+00
  4.80000000E+02  5.80000000E+01  0.00000000E+00
  4.80000000E+02  5.60000000E+01  0.00000000E+00
  4.80000000E+02  5.40000000E+01  0.00000000E+00
  4.80000000E+02  5.20000000E+01  0.00000000E+00
  4.80000000E+02  5.00000000E+01  0.00000000E+00
  4.80000000E+02  4.80000000E+01  0.00000000E+00
  4.80000000E+02  4.60000000E+01  0.00000000E+00
  4.80000000E+02  4.40000000E+01  0.00000000E+00
  4.80000000E+02  4.20000000E+01  0.00000000E+00
  4.80000000E+02  4.00000000E+01  0.00000000E+00
  4.80000000E+02  3.80000000E+01  0.00000000E+00
  4.80000000E+02  3.60000000E+01  0.00000000E+00
  4.80000000E+02  3.40000000E+01  0.00000000E+00
  4.80000000E+02  3.20000000E+01  0.00000000E+00
  4.80000000E+02  3.00000000E+01  0.00000000E+00
  4.80000000E+02  2.80000000E+01  0.00000000E+00
  4.80000000E+02  2.60000000E+01  0.00000000E+00
  4.80000000E+02  2.40000000E+01  0.00000000E+00
  4.80000000E+02  2.20000000E+01  0.00000000E+00
  4.80000000E+02  2.00000000E+01  0.00000000E+00
  4.80000000E+02  1.80000000E+01  0.00000000E+00
  4.80000000E+02  1.60000000E+01  0.00000000E+00
  4.80000000E+02  1.40000000E+01  0.00000000E+00
  4.80000000E+02  1.20000000E+01  0.00000000E+00
  4.80000000E+02  1.00000000E+01  0.00000000E+00
  4.80000000E+02  8.00000000E+00  0.00000000E+00
  4.80000000E+02  6.00000000E+00  0.00000000E+00
  4.80000000E+02  4.00000000E+00  0.00000000E+00
  4.80000000E+02  2.00000000E+00  0.00000000E+00
  4.80000000E+02 -3.33066907E-14  0.00000000E+00
  4.90000000E+02  1.00000000E+02  0.00000000E+00
  4.90000000E+02  9.80000000E+01  0.00000000E+00
  4.90000000E+02  9.60000000E+01  0.00000000E+00
  4.90000000E+02  9.40000000E+01  0.00000000E+00
  4.90000000E+02  9.20000000E+01  0.00000000E+00
  4.90000000E+02  9.00000000E+01  0.00000000E+00
  4.90000000E+02  8.80000000E+01  0.00000000E+00
  4.90000000E+02  8.60000000E+01  0.00000000E+00
  4.90000000E+02  8.40000000E+01  0.00000000E+00
  4.90000000E+02  8.20000000E+01  0.00000000E+00
  4.90000000E+02  8.00000000E+01  0.00000000E+00
  4.90000000E+02  7.80000000E+01  0.00000000E+00
  4.90000000E+02  7.60000000E+01  0.00000000E+00
  4.90000000E+02  7.40000000E+01  0.00000000E+00
  4.90000000E+02  7.20000000E+01  0.00000000E+00
  4.90000000E+02  7.00000000E+01  0.00000000E+00
  4.90000000E+02  6.80000000E+01  0.00000000E+00
  4.90000000E+02  6.60000000E+01  0.00000000E+00
  4.90000000E+02  6.40000000E+01  0.00000000E+00
  4.90000000E+02  6.20000000E+01  0.00000000E+00
  4.90000000E+02  6.00000000E+01  0.00000000E+00
  4.90000000E+02  5.80000000E+01  0.00000000E+00
  4.90000000E+02  5.60000000E+01  0.00000000E+00
  4.90000000E+02  5.40000000E+01  0.00000000E+00
  4.90000000E+02  5.20000000E+01  0.00000000E+00
  4.90000000E+02  5.00000000E+01  0.00000000E+00
  4.90000000E+02  4.80000000E+01  0.00000000E+00
  4.90000000E+02  4.60000000E+01  0.00000000E+00
  4.90000000E+02  4.40000000E+01  0.00000000E+00
  4.90000000E+02  4.20000000E+01  0.00000000E+00
  4.90000000E+02  4.00000000E+01  0.00000000E+00
  4.90000000E+02  3.80000000E+01  0.00000000E+00
  4.90000000E+02  3.60000000E+01  0.00000000E+00
  4.90000000E+02  3.40000000E+01  0.00000000E+00
  4.90000000E+02  3.20000000E+01  0.00000000E+00
  4.90000000E+02  3.00000000E+01  0.00000000E+00
  4.90000000E+02  2.80000000E+01  0.00000000E+00
  4.90000000E+02  2.60000000E+01  0.00000000E+00
  4.90000000E+02  2.40000000E+01  0.00000000E+00
  4.90000000E+02  2.20000000E+01  0.00000000E+00
  4.90000000E+02  2.00000000E+01  0.00000000E+00
  4.90000000E+02  1.80000000E+01  0.00000000E+00
  4.90000000E+02  1.60000000E+01  0.00000000E+00
  4.90000000E+02  1.40000000E+01  0.00000000E+00
  4.90000000E+02  1.20000000E+01  0.00000000E+00
  4.90000000E+02  1.00000000E+01  0.00000000E+00
  4.90000000E+02  8.00000000E+00  0.00000000E+00
  4.90000000E+02  6.00000000E+00  0.00000000E+00
  4.90000000E+02  4.00000000E+00  0.00000000E+00
  4.90000000E+02  2.00000000E+00  0.00000000E+00
  4.90000000E+02 -3.33066907E-14  0.00000000E+00
  5.00000000E+02  1.00000000E+02  0.00000000E+00
  5.00000000E+02  9.80000000E+01  0.00000000E+00
  5.00000000E+02  9.60000000E+01  0.00000000E+00
  5.00000000E+02  9.40000000E+01  0.00000000E+00
  5.00000000E+02  9.20000000E+01  0.00000000E+00
  5.00000000E+02  9.00000000E+01  0.00000000E+00
  5.00000000E+02  8.80000000E+01  0.00000000E+00
  5.00000000E+02  8.60000000E+01  0.00000000E+00
  5.00000000E+02  8.40000000E+01  0.00000000E+00
  5.00000000E+02  8.20000000E+01  0.00000000E+00
  5.00000000E+02  8.00000000E+01  0.00000000E+00
  5.00000000E+02  7.80000000E+01  0.00000000E+00
  5.00000000E+02  7.60000000E+01  0.00000000E+00
  5.00000000E+02  7.40000000E+01  0.00000000E+00
  5.00000000E+02  7.20000000E+01  0.00000000E+00
  5.00000000E+02  7.00000000E+01  0.00000000E+00
  5.00000000E+02  6.80000000E+01  0.00000000E+00
  5.00000000E+02  6.60000000E+01  0.00000000E+00
  5.00000000E+02  6.40000000E+01  0.00000000E+00
  5.00000000E+02  6.20000000E+01  0.00000000E+00
  5.00000000E+02  6.00000000E+01  0.00000000E+00
  5.00000000E+02  5.80000000E+01  0.00000000E+00
  5.00000000E+02  5.60000000E+01  0.00000000E+00
  5.00000000E+02  5.40000000E+01  0.00000000E+00
  5.00000000E+02  5.20000000E+01  0.00000000E+00
  5.00000000E+02  5.00000000E+01  0.00000000E+00
  5.00000000E+02  4.80000000E+01  0.00000000E+00
  5.00000000E+02  4.60000000E+01  0.00000000E+00
  5.00000000E+02  4.40000000E+01  0.00000000E+00
  5.00000000E+02  4.20000000E+01  0.00000000E+00
  5.00000000E+02  4.00000000E+01  0.00000000E+00
  5.00000000E+02  3.80000000E+01  0.00000000E+00
  5.00000000E+02  3.60000000E+01  0.00000000E+00
  5.00000000E+02  3.40000000E+01  0.00000000E+00
  5.00000000E+02  3.20000000E+01  0.00000000E+00
  5.00000000E+02  3.00000000E+01  0.00000000E+00
  5.00000000E+02  2.80000000E+01  0.00000000E+00
  5.00000000E+02  2.60000000E+01  0.00000000E+00
  5.00000000E+02  2.40000000E+01  0.00000000E+00
  5.00000000E+02  2.20000000E+01  0.00000000E+00
  5.00000000E+02  2.00000000E+01  0.00000000E+00
  5.00000000E+02  1.80000000E+01  0.00000000E+00
  5.00000000E+02  1.60000000E+01  0.00000000E+00
  5.00000000E+02  1.40000000E+01  0.00000000E+00
  5.00000000E+02  1.20000000E+01  0.00000000E+00
  5.00000000E+02  1.00000000E+01  0.00000000E+00
  5.00000000E+02  8.00000000E+00  0.00000000E+00
  5.00000000E+02  6.00000000E+00  0.00000000E+00
  5.00000000E+02  4.00000000E+00  0.00000000E+00
  5.00000000E+02  2.00000000E+00  0.00000000E+00
  5.00000000E+02 -3.33066907E-14  0.00000000E+00
  5.10000000E+02  1.00000000E+02  0.00000000E+00
  5.10000000E+02  9.80000000E+01  0.00000000E+00
  5.10000000E+02  9.60000000E+01  0.00000000E+00
  5.10000000E+02  9.40000000E+01  0.00000000E+00
  5.10000000E+02  9.20000000E+01  0.00000000E+00
  5.10000000E+02  9.00000000E+01  0.00000000E+00
  5.10000000E+02  8.80000000E+01  0.00000000E+00
  5.10000000E+02  8.60000000E+01  0.00000000E+00
  5.10000000E+02  8.40000000E+01  0.00000000E+00
  5.10000000E+02  8.20000000E+01  0.00000000E+00
  5.10000000E+02  8.00000000E+01  0.00000000E+00
  5.10000000E+02  7.80000000E+01  0.00000000E+00
  5.10000000E+02  7.60000000E+01  0.00000000E+00
  5.10000000E+02  7.40000000E+01  0.00000000E+00
  5.10000000E+02  7.20000000E+01  0.00000000E+00
  5.10000000E+02  7.00000000E+01  0.00000000E+00
  5.10000000E+02  6.80000000E+01  0.00000000E+00
  5.10000000E+02  6.60000000E+01  0.00000000E+00
  5.10000000E+02  6.40000000E+01  0.00000000E+00
  5.10000000E+02  6.20000000E+01  0.00000000E+00
  5.10000000E+02  6.00000000E+01  0.00000000E+00
  5.10000000E+02  5.80000000E+01  0.00000000E+00
  5.10000000E+02  5.60000000E+01  0.00000000E+00
  5.10000000E+02  5.40000000E+01  0.00000000E+00
  5.10000000E+02  5.20000000E+01  0.00000000E+00
  5.10000000E+02  5.00000000E+01  0.00000000E+00
  5.10000000E+02  4.80000000E+01  0.00000000E+00
  5.10000000E+02  4.60000000E+01  0.00000000E+00
  5.10000000E+02  4.40000000E+01  0.00000000E+00
  5.10000000E+02  4.20000000E+01  0.00000000E+00
  5.10000000E+02  4.00000000E+01  0.00000000E+00
  5.10000000E+02  3.80000000E+01  0.00000000E+00
  5.10000000E+02  3.60000000E+01  0.00000000E+00
  5.10000000E+02  3.40000000E+01  0.00000000E+00
  5.10000000E+02  3.20000000E+01  0.00000000E+00
  5.10000000E+02  3.00000000E+01  0.00000000E+00
  5.10000000E+02  2.80000000E+01  0.00000000E+00
  5.10000000E+02  2.60000000E+01  0.00000000E+00
  5.10000000E+02  2.40000000E+01  0.00000000E+00
  5.10000000E+02  2.20000000E+01  0.00000000E+00
  5.10000000E+02  2.00000000E+01  0.00000000E+00
  5.10000000E+02  1.80000000E+01  0.00000000E+00
  5.10000000E+02  1.60000000E+01  0.00000000E+00
  5.10000000E+02  1.40000000E+01  0.00000000E+00
  5.10000000E+02  1.20000000E+01  0.00000000E+00
  5.10000000E+02  1.00000000E+01  0.00000000E+00
  5.10000000E+02  8.00000000E+00  0.00000000E+00
  5.10000000E+02  6.00000000E+00  0.00000000E+00
  5.10000000E+02  4.00000000E+00  0.00000000E+00
  5.10000000E+02  2.00000000E+00  0.00000000E+00
  5.10000000E+02 -3.33066907E-14  0.00000000E+00
  5.20000000E+02  1.00000000E+02  0.00000000E+00
  5.20000000E+02  9.80000000E+01  0.00000000E+00
  5.20000000E+02  9.60000000E+01  0.00000000E+00
  5.20000000E+02  9.40000000E+01  0.00000000E+00
  5.20000000E+02  9.20000000E+01  0.00000000E+00
  5.20000000E+02  9.00000000E+01  0.00000000E+00
  5.20000000E+02  8.80000000E+01  0.00000000E+00
  5.20000000E+02  8.60000000E+01  0.00000000E+00
  5.20000000E+02  8.40000000E+01  0.00000000E+00
  5.20000000E+02  8.20000000E+01  0.00000000E+00
  5.20000000E+02  8.00000000E+01  0.00000000E+00
  5.20000000E+02  7.80000000E+01  0.00000000E+00
  5.20000000E+02  7.60000000E+01  0.00000000E+00
  5.20000000E+02  7.40000000E+01  0.00000000E+00
  5.20000000E+02  7.20000000E+01  0.00000000E+00
  5.20000000E+02  7.00000000E+01  0.00000000E+00
  5.20000000E+02  6.80000000E+01  0.00000000E+00
  5.20000000E+02  6.60000000E+01  0.00000000E+00
  5.20000000E+02  6.40000000E+01  0.00000000E+00
  5.20000000E+02  6.20000000E+01  0.00000000E+00
  5.20000000E+02  6.00000000E+01  0.00000000E+00
  5.20000000E+02  5.80000000E+01  0.00000000E+00
  5.20000000E+02  5.60000000E+01  0.00000000E+00
  5.20000000E+02  5.40000000E+01  0.00000000E+00
  5.20000000E+02  5.20000000E+01  0.00000000E+00
  5.20000000E+02  5.00000000E+01  0.00000000E+00
  5.20000000E+02  4.80000000E+01  0.00000000E+00
  5.20000000E+02  4.60000000E+01  0.00000000E+00
  5.20000000E+02  4.40000000E+01  0.00000000E+00
  5.20000000E+02  4.20000000E+01  0.00000000E+00
  5.20000000E+02  4.00000000E+01  0.00000000E+00
  5.20000000E+02  3.80000000E+01  0.00000000E+00
  5.20000000E+02  3.60000000E+01  0.00000000E+00
  5.20000000E+02  3.40000000E+01  0.00000000E+00
  5.20000000E+02  3.20000000E+01  0.00000000E+00
  5.20000000E+02  3.00000000E+01  0.00000000E+00
  5.20000000E+02  2.80000000E+01  0.00000000E+00
  5.20000000E+02  2.60000000E+01  0.00000000E+00
  5.20000000E+02  2.40000000E+01  0.00000000E+00
  5.20000000E+02  2.20000000E+01  0.00000000E+00
  5.20000000E+02  2.00000000E+01  0.00000000E+00
  5.20000000E+02  1.80000000E+01  0.00000000E+00
  5.20000000E+02  1.60000000E+01  0.00000000E+00
  5.20000000E+02  1.40000000E+01  0.00000000E+00
  5.20000000E+02  1.20000000E+01  0.00000000E+00
  5.20000000E+02  1.00000000E+01  0.00000000E+00
  5.20000000E+02  8.00000000E+00  0.00000000E+00
  5.20000000E+02  6.00000000E+00  0.00000000E+00
  5.20000000E+02  4.00000000E+00  0.00000000E+00
  5.20000000E+02  2.00000000E+00  0.00000000E+00
  5.20000000E+02 -3.33066907E-14  0.00000000E+00
  5.30000000E+02  1.00000000E+02  0.00000000E+00
  5.30000000E+02  9.80000000E+01  0.00000000E+00
  5.30000000E+02  9.60000000E+01  0.00000000E+00
  5.30000000E+02  9.40000000E+01  0.00000000E+00
  5.30000000E+02  9.20000000E+01  0.00000000E+00
  5.30000000E+02  9.00000000E+01  0.00000000E+00
  5.30000000E+02  8.80000000E+01  0.00000000E+00
  5.30000000E+02  8.60000000E+01  0.00000000E+00
  5.30000000E+02  8.40000000E+01  0.00000000E+00
  5.30000000E+02  8.20000000E+01  0.00000000E+00
  5.30000000E+02  8.00000000E+01  0.00000000E+00
  5.30000000E+02  7.80000000E+01  0.00000000E+00
  5.30000000E+02  7.60000000E+01  0.00000000E+00
  5.30000000E+02  7.40000000E+01  0.00000000E+00
  5.30000000E+02  7.20000000E+01  0.00000000E+00
  5.30000000E+02  7.00000000E+01  0.00000000E+00
  5.30000000E+02  6.80000000E+01  0.00000000E+00
  5.30000000E+02  6.60000000E+01  0.00000000E+00
  5.30000000E+02  6.40000000E+01  0.00000000E+00
  5.30000000E+02  6.20000000E+01  0.00000000E+00
  5.30000000E+02  6.00000000E+01  0.00000000E+00
  5.30000000E+02  5.80000000E+01  0.00000000E+00
  5.30000000E+02  5.60000000E+01  0.00000000E+00
  5.30000000E+02  5.40000000E+01  0.00000000E+00
  5.30000000E+02  5.20000000E+01  0.00000000E+00
  5.30000000E+02  5.00000000E+01  0.00000000E+00
  5.30000000E+02  4.80000000E+01  0.00000000E+00
  5.30000000E+02  4.60000000E+01  0.00000000E+00
  5.30000000E+02  4.40000000E+01  0.00000000E+00
  5.30000000E+02  4.20000000E+01  0.00000000E+00
  5.30000000E+02  4.00000000E+01  0.00000000E+00
  5.30000000E+02  3.80000000E+01  0.00000000E+00
  5.30000000E+02  3.60000000E+01  0.00000000E+00
  5.30000000E+02  3.40000000E+01  0.00000000E+00
  5.30000000E+02  3.20000000E+01  0.00000000E+00
  5.30000000E+02  3.00000000E+01  0.00000000E+00
  5.30000000E+02  2.80000000E+01  0.00000000E+00
  5.30000000E+02  2.60000000E+01  0.00000000E+00
  5.30000000E+02  2.40000000E+01  0.00000000E+00
  5.30000000E+02  2.20000000E+01  0.00000000E+00
  5.30000000E+02  2.00000000E+01  0.00000000E+00
  5.30000000E+02  1.80000000E+01  0.00000000E+00
  5.30000000E+02  1.60000000E+01  0.00000000E+00
  5.30000000E+02  1.40000000E+01  0.00000000E+00
  5.30000000E+02  1.20000000E+01  0.00000000E+00
  5.30000000E+02  1.00000000E+01  0.00000000E+00
  5.30000000E+02  8.00000000E+00  0.00000000E+00
  5.30000000E+02  6.00000000E+00  0.00000000E+00
  5.30000000E+02  4.00000000E+00  0.00000000E+00
  5.30000000E+02  2.00000000E+00  0.00000000E+00
  5.30000000E+02 -3.33066907E-14  0.00000000E+00
  5.40000000E+02  1.00000000E+02  0.00000000E+00
  5.40000000E+02  9.80000000E+01  0.00000000E+00
  5.40000000E+02  9.60000000E+01  0.00000000E+00
  5.40000000E+02  9.40000000E+01  0.00000000E+00
  5.40000000E+02  9.20000000E+01  0.00000000E+00
  5.40000000E+02  9.00000000E+01  0.00000000E+00
  5.40000000E+02  8.80000000E+01  0.00000000E+00
  5.40000000E+02  8.60000000E+01  0.00000000E+00
  5.40000000E+02  8.40000000E+01  0.00000000E+00
  5.40000000E+02  8.20000000E+01  0.00000000E+00
  5.40000000E+02  8.00000000E+01  0.00000000E+00
  5.40000000E+02  7.80000000E+01  0.00000000E+00
  5.40000000E+02  7.60000000E+01  0.00000000E+00
  5.40000000E+02  7.40000000E+01  0.00000000E+00
  5.40000000E+02  7.20000000E+01  0.00000000E+00
  5.40000000E+02  7.00000000E+01  0.00000000E+00
  5.40000000E+02  6.80000000E+01  0.00000000E+00
  5.40000000E+02  6.60000000E+01  0.00000000E+00
  5.40000000E+02  6.40000000E+01  0.00000000E+00
  5.40000000E+02  6.20000000E+01  0.00000000E+00
  5.40000000E+02  6.00000000E+01  0.00000000E+00
  5.40000000E+02  5.80000000E+01  0.00000000E+00
  5.40000000E+02  5.60000000E+01  0.00000000E+00
  5.40000000E+02  5.40000000E+01  0.00000000E+00
  5.40000000E+02  5.20000000E+01  0.00000000E+00
  5.40000000E+02  5.00000000E+01  0.00000000E+00
  5.40000000E+02  4.80000000E+01  0.00000000E+00
  5.40000000E+02  4.60000000E+01  0.00000000E+00
  5.40000000E+02  4.40000000E+01  0.00000000E+00
  5.40000000E+02  4.20000000E+01  0.00000000E+00
  5.40000000E+02  4.00000000E+01  0.00000000E+00
  5.40000000E+02  3.80000000E+01  0.00000000E+00
  5.40000000E+02  3.60000000E+01  0.00000000E+00
  5.40000000E+02  3.40000000E+01  0.00000000E+00
  5.40000000E+02  3.20000000E+01  0.00000000E+00
  5.40000000E+02  3.00000000E+01  0.00000000E+00
  5.40000000E+02  2.80000000E+01  0.00000000E+00
  5.40000000E+02  2.60000000E+01  0.00000000E+00
  5.40000000E+02  2.40000000E+01  0.00000000E+00
  5.40000000E+02  2.20000000E+01  0.00000000E+00
  5.40000000E+02  2.00000000E+01  0.00000000E+00
  5.40000000E+02  1.80000000E+01  0.00000000E+00
  5.40000000E+02  1.60000000E+01  0.00000000E+00
  5.40000000E+02  1.40000000E+01  0.00000000E+00
  5.40000000E+02  1.20000000E+01  0.00000000E+00
  5.40000000E+02  1.00000000E+01  0.00000000E+00
  5.40000000E+02  8.00000000E+00  0.00000000E+00
  5.40000000E+02  6.00000000E+00  0.00000000E+00
  5.40000000E+02  4.00000000E+00  0.00000000E+00
  5.40000000E+02  2.00000000E+00  0.00000000E+00
  5.40000000E+02 -3.33066907E-14  0.00000000E+00
  5.50000000E+02  1.00000000E+02  0.00000000E+00
  5.50000000E+02  9.80000000E+01  0.00000000E+00
  5.50000000E+02  9.60000000E+01  0.00000000E+00
  5.50000000E+02  9.40000000E+01  0.00000000E+00
  5.50000000E+02  9.20000000E+01  0.00000000E+00
  5.50000000E+02  9.00000000E+01  0.00000000E+00
  5.50000000E+02  8.80000000E+01  0.00000000E+00
  5.50000000E+02  8.60000000E+01  0.00000000E+00
  5.50000000E+02  8.40000000E+01  0.00000000E+00
  5.50000000E+02  8.20000000E+01  0.00000000E+00
  5.50000000E+02  8.00000000E+01  0.00000000E+00
  5.50000000E+02  7.80000000E+01  0.00000000E+00
  5.50000000E+02  7.60000000E+01  0.00000000E+00
  5.50000000E+02  7.40000000E+01  0.00000000E+00
  5.50000000E+02  7.20000000E+01  0.00000000E+00
  5.50000000E+02  7.00000000E+01  0.00000000E+00
  5.50000000E+02  6.80000000E+01  0.00000000E+00
  5.50000000E+02  6.60000000E+01  0.00000000E+00
  5.50000000E+02  6.40000000E+01  0.00000000E+00
  5.50000000E+02  6.20000000E+01  0.00000000E+00
  5.50000000E+02  6.00000000E+01  0.00000000E+00
  5.50000000E+02  5.80000000E+01  0.00000000E+00
  5.50000000E+02  5.60000000E+01  0.00000000E+00
  5.50000000E+02  5.40000000E+01  0.00000000E+00
  5.50000000E+02  5.20000000E+01  0.00000000E+00
  5.50000000E+02  5.00000000E+01  0.00000000E+00
  5.50000000E+02  4.80000000E+01  0.00000000E+00
  5.50000000E+02  4.60000000E+01  0.00000000E+00
  5.50000000E+02  4.40000000E+01  0.00000000E+00
  5.50000000E+02  4.20000000E+01  0.00000000E+00
  5.50000000E+02  4.00000000E+01  0.00000000E+00
  5.50000000E+02  3.80000000E+01  0.00000000E+00
  5.50000000E+02  3.60000000E+01  0.00000000E+00
  5.50000000E+02  3.40000000E+01  0.00000000E+00
  5.50000000E+02  3.20000000E+01  0.00000000E+00
  5.50000000E+02  3.00000000E+01  0.00000000E+00
  5.50000000E+02  2.80000000E+01  0.00000000E+00
  5.50000000E+02  2.60000000E+01  0.00000000E+00
  5.50000000E+02  2.40000000E+01  0.00000000E+00
  5.50000000E+02  2.20000000E+01  0.00000000E+00
  5.50000000E+02  2.00000000E+01  0.00000000E+00
  5.50000000E+02  1.80000000E+01  0.00000000E+00
  5.50000000E+02  1.60000000E+01  0.00000000E+00
  5.50000000E+02  1.40000000E+01  0.00000000E+00
  5.50000000E+02  1.20000000E+01  0.00000000E+00
  5.50000000E+02  1.00000000E+01  0.00000000E+00
  5.50000000E+02  8.00000000E+00  0.00000000E+00
  5.50000000E+02  6.00000000E+00  0.00000000E+00
  5.50000000E+02  4.00000000E+00  0.00000000E+00
  5.50000000E+02  2.00000000E+00  0.00000000E+00
  5.50000000E+02 -3.33066907E-14  0.00000000E+00
  5.60000000E+02  1.00000000E+02  0.00000000E+00
  5.60000000E+02  9.80000000E+01  0.00000000E+00
  5.60000000E+02  9.60000000E+01  0.00000000E+00
  5.60000000E+02  9.40000000E+01  0.00000000E+00
  5.60000000E+02  9.20000000E+01  0.00000000E+00
  5.60000000E+02  9.00000000E+01  0.00000000E+00
  5.60000000E+02  8.80000000E+01  0.00000000E+00
  5.60000000E+02  8.60000000E+01  0.00000000E+00
  5.60000000E+02  8.40000000E+01  0.00000000E+00
  5.60000000E+02  8.20000000E+01  0.00000000E+00
  5.60000000E+02  8.00000000E+01  0.00000000E+00
  5.60000000E+02  7.80000000E+01  0.00000000E+00
  5.60000000E+02  7.60000000E+01  0.00000000E+00
  5.60000000E+02  7.40000000E+01  0.00000000E+00
  5.60000000E+02  7.20000000E+01  0.00000000E+00
  5.60000000E+02  7.00000000E+01  0.00000000E+00
  5.60000000E+02  6.80000000E+01  0.00000000E+00
  5.60000000E+02  6.60000000E+01  0.00000000E+00
  5.60000000E+02  6.40000000E+01  0.00000000E+00
  5.60000000E+02  6.20000000E+01  0.00000000E+00
  5.60000000E+02  6.00000000E+01  0.00000000E+00
  5.60000000E+02  5.80000000E+01  0.00000000E+00
  5.60000000E+02  5.60000000E+01  0.00000000E+00
  5.60000000E+02  5.40000000E+01  0.00000000E+00
  5.60000000E+02  5.20000000E+01  0.00000000E+00
  5.60000000E+02  5.00000000E+01  0.00000000E+00
  5.60000000E+02  4.80000000E+01  0.00000000E+00
  5.60000000E+02  4.60000000E+01  0.00000000E+00
  5.60000000E+02  4.40000000E+01  0.00000000E+00
  5.60000000E+02  4.20000000E+01  0.00000000E+00
  5.60000000E+02  4.00000000E+01  0.00000000E+00
  5.60000000E+02  3.80000000E+01  0.00000000E+00
  5.60000000E+02  3.60000000E+01  0.00000000E+00
  5.60000000E+02  3.40000000E+01  0.00000000E+00
  5.60000000E+02  3.20000000E+01  0.00000000E+00
  5.60000000E+02  3.00000000E+01  0.00000000E+00
  5.60000000E+02  2.80000000E+01  0.00000000E+00
  5.60000000E+02  2.60000000E+01  0.00000000E+00
  5.60000000E+02  2.40000000E+01  0.00000000E+00
  5.60000000E+02  2.20000000E+01  0.00000000E+00
  5.60000000E+02  2.00000000E+01  0.00000000E+00
  5.60000000E+02  1.80000000E+01  0.00000000E+00
  5.60000000E+02  1.60000000E+01  0.00000000E+00
  5.60000000E+02  1.40000000E+01  0.00000000E+00
  5.60000000E+02  1.20000000E+01  0.00000000E+00
  5.60000000E+02  1.00000000E+01  0.00000000E+00
  5.60000000E+02  8.00000000E+00  0.00000000E+00
  5.60000000E+02  6.00000000E+00  0.00000000E+00
  5.60000000E+02  4.00000000E+00  0.00000000E+00
  5.60000000E+02  2.00000000E+00  0.00000000E+00
  5.60000000E+02 -3.33066907E-14  0.00000000E+00
  5.70000000E+02  1.00000000E+02  0.00000000E+00
  5.70000000E+02  9.80000000E+01  0.00000000E+00
  5.70000000E+02  9.60000000E+01  0.00000000E+00
  5.70000000E+02  9.40000000E+01  0.00000000E+00
  5.70000000E+02  9.20000000E+01  0.00000000E+00
  5.70000000E+02  9.00000000E+01  0.00000000E+00
  5.70000000E+02  8.80000000E+01  0.00000000E+00
  5.70000000E+02  8.60000000E+01  0.00000000E+00
  5.70000000E+02  8.40000000E+01  0.00000000E+00
  5.70000000E+02  8.20000000E+01  0.00000000E+00
  5.70000000E+02  8.00000000E+01  0.00000000E+00
  5.70000000E+02  7.80000000E+01  0.00000000E+00
  5.70000000E+02  7.60000000E+01  0.00000000E+00
  5.70000000E+02  7.40000000E+01  0.00000000E+00
  5.70000000E+02  7.20000000E+01  0.00000000E+00
  5.70000000E+02  7.00000000E+01  0.00000000E+00
  5.70000000E+02  6.80000000E+01  0.00000000E+00
  5.70000000E+02  6.60000000E+01  0.00000000E+00
  5.70000000E+02  6.40000000E+01  0.00000000E+00
  5.70000000E+02  6.20000000E+01  0.00000000E+00
  5.70000000E+02  6.00000000E+01  0.00000000E+00
  5.70000000E+02  5.80000000E+01  0.00000000E+00
  5.70000000E+02  5.60000000E+01  0.00000000E+00
  5.70000000E+02  5.40000000E+01  0.00000000E+00
  5.70000000E+02  5.20000000E+01  0.00000000E+00
  5.70000000E+02  5.00000000E+01  0.00000000E+00
  5.70000000E+02  4.80000000E+01  0.00000000E+00
  5.70000000E+02  4.60000000E+01  0.00000000E+00
  5.70000000E+02  4.40000000E+01  0.00000000E+00
  5.70000000E+02  4.20000000E+01  0.00000000E+00
  5.70000000E+02  4.00000000E+01  0.00000000E+00
  5.70000000E+02  3.80000000E+01  0.00000000E+00
  5.70000000E+02  3.60000000E+01  0.00000000E+00
  5.70000000E+02  3.40000000E+01  0.00000000E+00
  5.70000000E+02  3.20000000E+01  0.00000000E+00
  5.70000000E+02  3.00000000E+01  0.00000000E+00
  5.70000000E+02  2.80000000E+01  0.00000000E+00
  5.70000000E+02  2.60000000E+01  0.00000000E+00
  5.70000000E+02  2.40000000E+01  0.00000000E+00
  5.70000000E+02  2.20000000E+01  0.00000000E+00
  5.70000000E+02  2.00000000E+01  0.00000000E+00
  5.70000000E+02  1.80000000E+01  0.00000000E+00
  5.70000000E+02  1.60000000E+01  0.00000000E+00
  5.70000000E+02  1.40000000E+01  0.00000000E+00
  5.70000000E+02  1.20000000E+01  0.00000000E+00
  5.70000000E+02  1.00000000E+01  0.00000000E+00
  5.70000000E+02  8.00000000E+00  0.00000000E+00
  5.70000000E+02  6.00000000E+00  0.00000000E+00
  5.70000000E+02  4.00000000E+00  0.00000000E+00
  5.70000000E+02  2.00000000E+00  0.00000000E+00
  5.70000000E+02 -3.33066907E-14  0.00000000E+00
  5.80000000E+02  1.00000000E+02  0.00000000E+00
  5.80000000E+02  9.80000000E+01  0.00000000E+00
  5.80000000E+02  9.60000000E+01  0.00000000E+00
  5.80000000E+02  9.40000000E+01  0.00000000E+00
  5.80000000E+02  9.20000000E+01  0.00000000E+00
  5.80000000E+02  9.00000000E+01  0.00000000E+00
  5.80000000E+02  8.80000000E+01  0.00000000E+00
  5.80000000E+02  8.60000000E+01  0.00000000E+00
  5.80000000E+02  8.40000000E+01  0.00000000E+00
  5.80000000E+02  8.20000000E+01  0.00000000E+00
  5.80000000E+02  8.00000000E+01  0.00000000E+00
  5.80000000E+02  7.80000000E+01  0.00000000E+00
  5.80000000E+02  7.60000000E+01  0.00000000E+00
  5.80000000E+02  7.40000000E+01  0.00000000E+00
  5.80000000E+02  7.20000000E+01  0.00000000E+00
  5.80000000E+02  7.00000000E+01  0.00000000E+00
  5.80000000E+02  6.80000000E+01  0.00000000E+00
  5.80000000E+02  6.60000000E+01  0.00000000E+00
  5.80000000E+02  6.40000000E+01  0.00000000E+00
  5.80000000E+02  6.20000000E+01  0.00000000E+00
  5.80000000E+02  6.00000000E+01  0.00000000E+00
  5.80000000E+02  5.80000000E+01  0.00000000E+00
  5.80000000E+02  5.60000000E+01  0.00000000E+00
  5.80000000E+02  5.40000000E+01  0.00000000E+00
  5.80000000E+02  5.20000000E+01  0.00000000E+00
  5.80000000E+02  5.00000000E+01  0.00000000E+00
  5.80000000E+02  4.80000000E+01  0.00000000E+00
  5.80000000E+02  4.60000000E+01  0.00000000E+00
  5.80000000E+02  4.40000000E+01  0.00000000E+00
  5.80000000E+02  4.20000000E+01  0.00000000E+00
  5.80000000E+02  4.00000000E+01  0.00000000E+00
  5.80000000E+02  3.80000000E+01  0.00000000E+00
  5.80000000E+02  3.60000000E+01  0.00000000E+00
  5.80000000E+02  3.40000000E+01  0.00000000E+00
  5.80000000E+02  3.20000000E+01  0.00000000E+00
  5.80000000E+02  3.00000000E+01  0.00000000E+00
  5.80000000E+02  2.80000000E+01  0.00000000E+00
  5.80000000E+02  2.60000000E+01  0.00000000E+00
  5.80000000E+02  2.40000000E+01  0.00000000E+00
  5.80000000E+02  2.20000000E+01  0.00000000E+00
  5.80000000E+02  2.00000000E+01  0.00000000E+00
  5.80000000E+02  1.80000000E+01  0.00000000E+00
  5.80000000E+02  1.60000000E+01  0.00000000E+00
  5.80000000E+02  1.40000000E+01  0.00000000E+00
  5.80000000E+02  1.20000000E+01  0.00000000E+00
  5.80000000E+02  1.00000000E+01  0.00000000E+00
  5.80000000E+02  8.00000000E+00  0.00000000E+00
  5.80000000E+02  6.00000000E+00  0.00000000E+00
  5.80000000E+02  4.00000000E+00  0.00000000E+00
  5.80000000E+02  2.00000000E+00  0.00000000E+00
  5.80000000E+02 -3.33066907E-14  0.00000000E+00
  5.90000000E+02  1.00000000E+02  0.00000000E+00
  5.90000000E+02  9.80000000E+01  0.00000000E+00
  5.90000000E+02  9.60000000E+01  0.00000000E+00
  5.90000000E+02  9.40000000E+01  0.00000000E+00
  5.90000000E+02  9.20000000E+01  0.00000000E+00
  5.90000000E+02  9.00000000E+01  0.00000000E+00
  5.90000000E+02  8.80000000E+01  0.00000000E+00
  5.90000000E+02  8.60000000E+01  0.00000000E+00
  5.90000000E+02  8.40000000E+01  0.00000000E+00
  5.90000000E+02  8.20000000E+01  0.00000000E+00
  5.90000000E+02  8.00000000E+01  0.00000000E+00
  5.90000000E+02  7.80000000E+01  0.00000000E+00
  5.90000000E+02  7.60000000E+01  0.00000000E+00
  5.90000000E+02  7.40000000E+01  0.00000000E+00
  5.90000000E+02  7.20000000E+01  0.00000000E+00
  5.90000000E+02  7.00000000E+01  0.00000000E+00
  5.90000000E+02  6.80000000E+01  0.00000000E+00
  5.90000000E+02  6.60000000E+01  0.00000000E+00
  5.90000000E+02  6.40000000E+01  0.00000000E+00
  5.90000000E+02  6.20000000E+01  0.00000000E+00
  5.90000000E+02  6.00000000E+01  0.00000000E+00
  5.90000000E+02  5.80000000E+01  0.00000000E+00
  5.90000000E+02  5.60000000E+01  0.00000000E+00
  5.90000000E+02  5.40000000E+01  0.00000000E+00
  5.90000000E+02  5.20000000E+01  0.00000000E+00
  5.90000000E+02  5.00000000E+01  0.00000000E+00
  5.90000000E+02  4.80000000E+01  0.00000000E+00
  5.90000000E+02  4.60000000E+01  0.00000000E+00
  5.90000000E+02  4.40000000E+01  0.00000000E+00
  5.90000000E+02  4.20000000E+01  0.00000000E+00
  5.90000000E+02  4.00000000E+01  0.00000000E+00
  5.90000000E+02  3.80000000E+01  0.00000000E+00
  5.90000000E+02  3.60000000E+01  0.00000000E+00
  5.90000000E+02  3.40000000E+01  0.00000000E+00
  5.90000000E+02  3.20000000E+01  0.00000000E+00
  5.90000000E+02  3.00000000E+01  0.00000000E+00
  5.90000000E+02  2.80000000E+01  0.00000000E+00
  5.90000000E+02  2.60000000E+01  0.00000000E+00
  5.90000000E+02  2.40000000E+01  0.00000000E+00
  5.90000000E+02  2.20000000E+01  0.00000000E+00
  5.90000000E+02  2.00000000E+01  0.00000000E+00
  5.90000000E+02  1.80000000E+01  0.00000000E+00
  5.90000000E+02  1.60000000E+01  0.00000000E+00
  5.90000000E+02  1.40000000E+01  0.00000000E+00
  5.90000000E+02  1.20000000E+01  0.00000000E+00
  5.90000000E+02  1.00000000E+01  0.00000000E+00
  5.90000000E+02  8.00000000E+00  0.00000000E+00
  5.90000000E+02  6.00000000E+00  0.00000000E+00
  5.90000000E+02  4.00000000E+00  0.00000000E+00
  5.90000000E+02  2.00000000E+00  0.00000000E+00
  5.90000000E+02 -3.33066907E-14  0.00000000E+00
  6.00000000E+02  1.00000000E+02  0.00000000E+00
  6.00000000E+02  9.80000000E+01  0.00000000E+00
  6.00000000E+02  9.60000000E+01  0.00000000E+00
  6.00000000E+02  9.40000000E+01  0.00000000E+00
  6.00000000E+02  9.20000000E+01  0.00000000E+00
  6.00000000E+02  9.00000000E+01  0.00000000E+00
  6.00000000E+02  8.80000000E+01  0.00000000E+00
  6.00000000E+02  8.60000000E+01  0.00000000E+00
  6.00000000E+02  8.40000000E+01  0.00000000E+00
  6.00000000E+02  8.20000000E+01  0.00000000E+00
  6.00000000E+02  8.00000000E+01  0.00000000E+00
  6.00000000E+02  7.80000000E+01  0.00000000E+00
  6.00000000E+02  7.60000000E+01  0.00000000E+00
  6.00000000E+02  7.40000000E+01  0.00000000E+00
  6.00000000E+02  7.20000000E+01  0.00000000E+00
  6.00000000E+02  7.00000000E+01  0.00000000E+00
  6.00000000E+02  6.80000000E+01  0.00000000E+00
  6.00000000E+02  6.60000000E+01  0.00000000E+00
  6.00000000E+02  6.40000000E+01  0.00000000E+00
  6.00000000E+02  6.20000000E+01  0.00000000E+00
  6.00000000E+02  6.00000000E+01  0.00000000E+00
  6.00000000E+02  5.80000000E+01  0.00000000E+00
  6.00000000E+02  5.60000000E+01  0.00000000E+00
  6.00000000E+02  5.40000000E+01  0.00000000E+00
  6.00000000E+02  5.20000000E+01  0.00000000E+00
  6.00000000E+02  5.00000000E+01  0.00000000E+00
  6.00000000E+02  4.80000000E+01  0.00000000E+00
  6.00000000E+02  4.60000000E+01  0.00000000E+00
  6.00000000E+02  4.40000000E+01  0.00000000E+00
  6.00000000E+02  4.20000000E+01  0.00000000E+00
  6.00000000E+02  4.00000000E+01  0.00000000E+00
  6.00000000E+02  3.80000000E+01  0.00000000E+00
  6.00000000E+02  3.60000000E+01  0.00000000E+00
  6.00000000E+02  3.40000000E+01  0.00000000E+00
  6.00000000E+02  3.20000000E+01  0.00000000E+00
  6.00000000E+02  3.00000000E+01  0.00000000E+00
  6.00000000E+02  2.80000000E+01  0.00000000E+00
  6.00000000E+02  2.60000000E+01  0.00000000E+00
  6.00000000E+02  2.40000000E+01  0.00000000E+00
  6.00000000E+02  2.20000000E+01  0.00000000E+00
  6.00000000E+02  2.00000000E+01  0.00000000E+00
  6.00000000E+02  1.80000000E+01  0.00000000E+00
  6.00000000E+02  1.60000000E+01  0.00000000E+00
  6.00000000E+02  1.40000000E+01  0.00000000E+00
  6.00000000E+02  1.20000000E+01  0.00000000E+00
  6.00000000E+02  1.00000000E+01  0.00000000E+00
  6.00000000E+02  8.00000000E+00  0.00000000E+00
  6.00000000E+02  6.00000000E+00  0.00000000E+00
  6.00000000E+02  4.00000000E+00  0.00000000E+00
  6.00000000E+02  2.00000000E+00  0.00000000E+00
  6.00000000E+02 -3.33066907E-14  0.00000000E+00
  6.10000000E+02  1.00000000E+02  0.00000000E+00
  6.10000000E+02  9.80000000E+01  0.00000000E+00
  6.10000000E+02  9.60000000E+01  0.00000000E+00
  6.10000000E+02  9.40000000E+01  0.00000000E+00
  6.10000000E+02  9.20000000E+01  0.00000000E+00
  6.10000000E+02  9.00000000E+01  0.00000000E+00
  6.10000000E+02  8.80000000E+01  0.00000000E+00
  6.10000000E+02  8.60000000E+01  0.00000000E+00
  6.10000000E+02  8.40000000E+01  0.00000000E+00
  6.10000000E+02  8.20000000E+01  0.00000000E+00
  6.10000000E+02  8.00000000E+01  0.00000000E+00
  6.10000000E+02  7.80000000E+01  0.00000000E+00
  6.10000000E+02  7.60000000E+01  0.00000000E+00
  6.10000000E+02  7.40000000E+01  0.00000000E+00
  6.10000000E+02  7.20000000E+01  0.00000000E+00
  6.10000000E+02  7.00000000E+01  0.00000000E+00
  6.10000000E+02  6.80000000E+01  0.00000000E+00
  6.10000000E+02  6.60000000E+01  0.00000000E+00
  6.10000000E+02  6.40000000E+01  0.00000000E+00
  6.10000000E+02  6.20000000E+01  0.00000000E+00
  6.10000000E+02  6.00000000E+01  0.00000000E+00
  6.10000000E+02  5.80000000E+01  0.00000000E+00
  6.10000000E+02  5.60000000E+01  0.00000000E+00
  6.10000000E+02  5.40000000E+01  0.00000000E+00
  6.10000000E+02  5.20000000E+01  0.00000000E+00
  6.10000000E+02  5.00000000E+01  0.00000000E+00
  6.10000000E+02  4.80000000E+01  0.00000000E+00
  6.10000000E+02  4.60000000E+01  0.00000000E+00
  6.10000000E+02  4.40000000E+01  0.00000000E+00
  6.10000000E+02  4.20000000E+01  0.00000000E+00
  6.10000000E+02  4.00000000E+01  0.00000000E+00
  6.10000000E+02  3.80000000E+01  0.00000000E+00
  6.10000000E+02  3.60000000E+01  0.00000000E+00
  6.10000000E+02  3.40000000E+01  0.00000000E+00
  6.10000000E+02  3.20000000E+01  0.00000000E+00
  6.10000000E+02  3.00000000E+01  0.00000000E+00
  6.10000000E+02  2.80000000E+01  0.00000000E+00
  6.10000000E+02  2.60000000E+01  0.00000000E+00
  6.10000000E+02  2.40000000E+01  0.00000000E+00
  6.10000000E+02  2.20000000E+01  0.00000000E+00
  6.10000000E+02  2.00000000E+01  0.00000000E+00
  6.10000000E+02  1.80000000E+01  0.00000000E+00
  6.10000000E+02  1.60000000E+01  0.00000000E+00
  6.10000000E+02  1.40000000E+01  0.00000000E+00
  6.10000000E+02  1.20000000E+01  0.00000000E+00
  6.10000000E+02  1.00000000E+01  0.00000000E+00
  6.10000000E+02  8.00000000E+00  0.00000000E+00
  6.10000000E+02  6.00000000E+00  0.00000000E+00
  6.10000000E+02  4.00000000E+00  0.00000000E+00
  6.10000000E+02  2.00000000E+00  0.00000000E+00
  6.10000000E+02 -3.33066907E-14  0.00000000E+00
  6.20000000E+02  1.00000000E+02  0.00000000E+00
  6.20000000E+02  9.80000000E+01  0.00000000E+00
  6.20000000E+02  9.60000000E+01  0.00000000E+00
  6.20000000E+02  9.40000000E+01  0.00000000E+00
  6.20000000E+02  9.20000000E+01  0.00000000E+00
  6.20000000E+02  9.00000000E+01  0.00000000E+00
  6.20000000E+02  8.80000000E+01  0.00000000E+00
  6.20000000E+02  8.60000000E+01  0.00000000E+00
  6.20000000E+02  8.40000000E+01  0.00000000E+00
  6.20000000E+02  8.20000000E+01  0.00000000E+00
  6.20000000E+02  8.00000000E+01  0.00000000E+00
  6.20000000E+02  7.80000000E+01  0.00000000E+00
  6.20000000E+02  7.60000000E+01  0.00000000E+00
  6.20000000E+02  7.40000000E+01  0.00000000E+00
  6.20000000E+02  7.20000000E+01  0.00000000E+00
  6.20000000E+02  7.00000000E+01  0.00000000E+00
  6.20000000E+02  6.80000000E+01  0.00000000E+00
  6.20000000E+02  6.60000000E+01  0.00000000E+00
  6.20000000E+02  6.40000000E+01  0.00000000E+00
  6.20000000E+02  6.20000000E+01  0.00000000E+00
  6.20000000E+02  6.00000000E+01  0.00000000E+00
  6.20000000E+02  5.80000000E+01  0.00000000E+00
  6.20000000E+02  5.60000000E+01  0.00000000E+00
  6.20000000E+02  5.40000000E+01  0.00000000E+00
  6.20000000E+02  5.20000000E+01  0.00000000E+00
  6.20000000E+02  5.00000000E+01  0.00000000E+00
  6.20000000E+02  4.80000000E+01  0.00000000E+00
  6.20000000E+02  4.60000000E+01  0.00000000E+00
  6.20000000E+02  4.40000000E+01  0.00000000E+00
  6.20000000E+02  4.20000000E+01  0.00000000E+00
  6.20000000E+02  4.00000000E+01  0.00000000E+00
  6.20000000E+02  3.80000000E+01  0.00000000E+00
  6.20000000E+02  3.60000000E+01  0.00000000E+00
  6.20000000E+02  3.40000000E+01  0.00000000E+00
  6.20000000E+02  3.20000000E+01  0.00000000E+00
  6.20000000E+02  3.00000000E+01  0.00000000E+00
  6.20000000E+02  2.80000000E+01  0.00000000E+00
  6.20000000E+02  2.60000000E+01  0.00000000E+00
  6.20000000E+02  2.40000000E+01  0.00000000E+00
  6.20000000E+02  2.20000000E+01  0.00000000E+00
  6.20000000E+02  2.00000000E+01  0.00000000E+00
  6.20000000E+02  1.80000000E+01  0.00000000E+00
  6.20000000E+02  1.60000000E+01  0.00000000E+00
  6.20000000E+02  1.40000000E+01  0.00000000E+00
  6.20000000E+02  1.20000000E+01  0.00000000E+00
  6.20000000E+02  1.00000000E+01  0.00000000E+00
  6.20000000E+02  8.00000000E+00  0.00000000E+00
  6.20000000E+02  6.00000000E+00  0.00000000E+00
  6.20000000E+02  4.00000000E+00  0.00000000E+00
  6.20000000E+02  2.00000000E+00  0.00000000E+00
  6.20000000E+02 -3.33066907E-14  0.00000000E+00
  6.30000000E+02  1.00000000E+02  0.00000000E+00
  6.30000000E+02  9.80000000E+01  0.00000000E+00
  6.30000000E+02  9.60000000E+01  0.00000000E+00
  6.30000000E+02  9.40000000E+01  0.00000000E+00
  6.30000000E+02  9.20000000E+01  0.00000000E+00
  6.30000000E+02  9.00000000E+01  0.00000000E+00
  6.30000000E+02  8.80000000E+01  0.00000000E+00
  6.30000000E+02  8.60000000E+01  0.00000000E+00
  6.30000000E+02  8.40000000E+01  0.00000000E+00
  6.30000000E+02  8.20000000E+01  0.00000000E+00
  6.30000000E+02  8.00000000E+01  0.00000000E+00
  6.30000000E+02  7.80000000E+01  0.00000000E+00
  6.30000000E+02  7.60000000E+01  0.00000000E+00
  6.30000000E+02  7.40000000E+01  0.00000000E+00
  6.30000000E+02  7.20000000E+01  0.00000000E+00
  6.30000000E+02  7.00000000E+01  0.00000000E+00
  6.30000000E+02  6.80000000E+01  0.00000000E+00
  6.30000000E+02  6.60000000E+01  0.00000000E+00
  6.30000000E+02  6.40000000E+01  0.00000000E+00
  6.30000000E+02  6.20000000E+01  0.00000000E+00
  6.30000000E+02  6.00000000E+01  0.00000000E+00
  6.30000000E+02  5.80000000E+01  0.00000000E+00
  6.30000000E+02  5.60000000E+01  0.00000000E+00
  6.30000000E+02  5.40000000E+01  0.00000000E+00
  6.30000000E+02  5.20000000E+01  0.00000000E+00
  6.30000000E+02  5.00000000E+01  0.00000000E+00
  6.30000000E+02  4.80000000E+01  0.00000000E+00
  6.30000000E+02  4.60000000E+01  0.00000000E+00
  6.30000000E+02  4.40000000E+01  0.00000000E+00
  6.30000000E+02  4.20000000E+01  0.00000000E+00
  6.30000000E+02  4.00000000E+01  0.00000000E+00
  6.30000000E+02  3.80000000E+01  0.00000000E+00
  6.30000000E+02  3.60000000E+01  0.00000000E+00
  6.30000000E+02  3.40000000E+01  0.00000000E+00
  6.30000000E+02  3.20000000E+01  0.00000000E+00
  6.30000000E+02  3.00000000E+01  0.00000000E+00
  6.30000000E+02  2.80000000E+01  0.00000000E+00
  6.30000000E+02  2.60000000E+01  0.00000000E+00
  6.30000000E+02  2.40000000E+01  0.00000000E+00
  6.30000000E+02  2.20000000E+01  0.00000000E+00
  6.30000000E+02  2.00000000E+01  0.00000000E+00
  6.30000000E+02  1.80000000E+01  0.00000000E+00
  6.30000000E+02  1.60000000E+01  0.00000000E+00
  6.30000000E+02  1.40000000E+01  0.00000000E+00
  6.30000000E+02  1.20000000E+01  0.00000000E+00
  6.30000000E+02  1.00000000E+01  0.00000000E+00
  6.30000000E+02  8.00000000E+00  0.00000000E+00
  6.30000000E+02  6.00000000E+00  0.00000000E+00
  6.30000000E+02  4.00000000E+00  0.00000000E+00
  6.30000000E+02  2.00000000E+00  0.00000000E+00
  6.30000000E+02 -3.33066907E-14  0.00000000E+00
  6.40000000E+02  1.00000000E+02  0.00000000E+00
  6.40000000E+02  9.80000000E+01  0.00000000E+00
  6.40000000E+02  9.60000000E+01  0.00000000E+00
  6.40000000E+02  9.40000000E+01  0.00000000E+00
  6.40000000E+02  9.20000000E+01  0.00000000E+00
  6.40000000E+02  9.00000000E+01  0.00000000E+00
  6.40000000E+02  8.80000000E+01  0.00000000E+00
  6.40000000E+02  8.60000000E+01  0.00000000E+00
  6.40000000E+02  8.40000000E+01  0.00000000E+00
  6.40000000E+02  8.20000000E+01  0.00000000E+00
  6.40000000E+02  8.00000000E+01  0.00000000E+00
  6.40000000E+02  7.80000000E+01  0.00000000E+00
  6.40000000E+02  7.60000000E+01  0.00000000E+00
  6.40000000E+02  7.40000000E+01  0.00000000E+00
  6.40000000E+02  7.20000000E+01  0.00000000E+00
  6.40000000E+02  7.00000000E+01  0.00000000E+00
  6.40000000E+02  6.80000000E+01  0.00000000E+00
  6.40000000E+02  6.60000000E+01  0.00000000E+00
  6.40000000E+02  6.40000000E+01  0.00000000E+00
  6.40000000E+02  6.20000000E+01  0.00000000E+00
  6.40000000E+02  6.00000000E+01  0.00000000E+00
  6.40000000E+02  5.80000000E+01  0.00000000E+00
  6.40000000E+02  5.60000000E+01  0.00000000E+00
  6.40000000E+02  5.40000000E+01  0.00000000E+00
  6.40000000E+02  5.20000000E+01  0.00000000E+00
  6.40000000E+02  5.00000000E+01  0.00000000E+00
  6.40000000E+02  4.80000000E+01  0.00000000E+00
  6.40000000E+02  4.60000000E+01  0.00000000E+00
  6.40000000E+02  4.40000000E+01  0.00000000E+00
  6.40000000E+02  4.20000000E+01  0.00000000E+00
  6.40000000E+02  4.00000000E+01  0.00000000E+00
  6.40000000E+02  3.80000000E+01  0.00000000E+00
  6.40000000E+02  3.60000000E+01  0.00000000E+00
  6.40000000E+02  3.40000000E+01  0.00000000E+00
  6.40000000E+02  3.20000000E+01  0.00000000E+00
  6.40000000E+02  3.00000000E+01  0.00000000E+00
  6.40000000E+02  2.80000000E+01  0.00000000E+00
  6.40000000E+02  2.60000000E+01  0.00000000E+00
  6.40000000E+02  2.40000000E+01  0.00000000E+00
  6.40000000E+02  2.20000000E+01  0.00000000E+00
  6.40000000E+02  2.00000000E+01  0.00000000E+00
  6.40000000E+02  1.80000000E+01  0.00000000E+00
  6.40000000E+02  1.60000000E+01  0.00000000E+00
  6.40000000E+02  1.40000000E+01  0.00000000E+00
  6.40000000E+02  1.20000000E+01  0.00000000E+00
  6.40000000E+02  1.00000000E+01  0.00000000E+00
  6.40000000E+02  8.00000000E+00  0.00000000E+00
  6.40000000E+02  6.00000000E+00  0.00000000E+00
  6.40000000E+02  4.00000000E+00  0.00000000E+00
  6.40000000E+02  2.00000000E+00  0.00000000E+00
  6.40000000E+02 -3.33066907E-14  0.00000000E+00
  6.50000000E+02  1.00000000E+02  0.00000000E+00
  6.50000000E+02  9.80000000E+01  0.00000000E+00
  6.50000000E+02  9.60000000E+01  0.00000000E+00
  6.50000000E+02  9.40000000E+01  0.00000000E+00
  6.50000000E+02  9.20000000E+01  0.00000000E+00
  6.50000000E+02  9.00000000E+01  0.00000000E+00
  6.50000000E+02  8.80000000E+01  0.00000000E+00
  6.50000000E+02  8.60000000E+01  0.00000000E+00
  6.50000000E+02  8.40000000E+01  0.00000000E+00
  6.50000000E+02  8.20000000E+01  0.00000000E+00
  6.50000000E+02  8.00000000E+01  0.00000000E+00
  6.50000000E+02  7.80000000E+01  0.00000000E+00
  6.50000000E+02  7.60000000E+01  0.00000000E+00
  6.50000000E+02  7.40000000E+01  0.00000000E+00
  6.50000000E+02  7.20000000E+01  0.00000000E+00
  6.50000000E+02  7.00000000E+01  0.00000000E+00
  6.50000000E+02  6.80000000E+01  0.00000000E+00
  6.50000000E+02  6.60000000E+01  0.00000000E+00
  6.50000000E+02  6.40000000E+01  0.00000000E+00
  6.50000000E+02  6.20000000E+01  0.00000000E+00
  6.50000000E+02  6.00000000E+01  0.00000000E+00
  6.50000000E+02  5.80000000E+01  0.00000000E+00
  6.50000000E+02  5.60000000E+01  0.00000000E+00
  6.50000000E+02  5.40000000E+01  0.00000000E+00
  6.50000000E+02  5.20000000E+01  0.00000000E+00
  6.50000000E+02  5.00000000E+01  0.00000000E+00
  6.50000000E+02  4.80000000E+01  0.00000000E+00
  6.50000000E+02  4.60000000E+01  0.00000000E+00
  6.50000000E+02  4.40000000E+01  0.00000000E+00
  6.50000000E+02  4.20000000E+01  0.00000000E+00
  6.50000000E+02  4.00000000E+01  0.00000000E+00
  6.50000000E+02  3.80000000E+01  0.00000000E+00
  6.50000000E+02  3.60000000E+01  0.00000000E+00
  6.50000000E+02  3.40000000E+01  0.00000000E+00
  6.50000000E+02  3.20000000E+01  0.00000000E+00
  6.50000000E+02  3.00000000E+01  0.00000000E+00
  6.50000000E+02  2.80000000E+01  0.00000000E+00
  6.50000000E+02  2.60000000E+01  0.00000000E+00
  6.50000000E+02  2.40000000E+01  0.00000000E+00
  6.50000000E+02  2.20000000E+01  0.00000000E+00
  6.50000000E+02  2.00000000E+01  0.00000000E+00
  6.50000000E+02  1.80000000E+01  0.00000000E+00
  6.50000000E+02  1.60000000E+01  0.00000000E+00
  6.50000000E+02  1.40000000E+01  0.00000000E+00
  6.50000000E+02  1.20000000E+01  0.00000000E+00
  6.50000000E+02  1.00000000E+01  0.00000000E+00
  6.50000000E+02  8.00000000E+00  0.00000000E+00
  6.50000000E+02  6.00000000E+00  0.00000000E+00
  6.50000000E+02  4.00000000E+00  0.00000000E+00
  6.50000000E+02  2.00000000E+00  0.00000000E+00
  6.50000000E+02 -3.33066907E-14  0.00000000E+00
  6.60000000E+02  1.00000000E+02  0.00000000E+00
  6.60000000E+02  9.80000000E+01  0.00000000E+00
  6.60000000E+02  9.60000000E+01  0.00000000E+00
  6.60000000E+02  9.40000000E+01  0.00000000E+00
  6.60000000E+02  9.20000000E+01  0.00000000E+00
  6.60000000E+02  9.00000000E+01  0.00000000E+00
  6.60000000E+02  8.80000000E+01  0.00000000E+00
  6.60000000E+02  8.60000000E+01  0.00000000E+00
  6.60000000E+02  8.40000000E+01  0.00000000E+00
  6.60000000E+02  8.20000000E+01  0.00000000E+00
  6.60000000E+02  8.00000000E+01  0.00000000E+00
  6.60000000E+02  7.80000000E+01  0.00000000E+00
  6.60000000E+02  7.60000000E+01  0.00000000E+00
  6.60000000E+02  7.40000000E+01  0.00000000E+00
  6.60000000E+02  7.20000000E+01  0.00000000E+00
  6.60000000E+02  7.00000000E+01  0.00000000E+00
  6.60000000E+02  6.80000000E+01  0.00000000E+00
  6.60000000E+02  6.60000000E+01  0.00000000E+00
  6.60000000E+02  6.40000000E+01  0.00000000E+00
  6.60000000E+02  6.20000000E+01  0.00000000E+00
  6.60000000E+02  6.00000000E+01  0.00000000E+00
  6.60000000E+02  5.80000000E+01  0.00000000E+00
  6.60000000E+02  5.60000000E+01  0.00000000E+00
  6.60000000E+02  5.40000000E+01  0.00000000E+00
  6.60000000E+02  5.20000000E+01  0.00000000E+00
  6.60000000E+02  5.00000000E+01  0.00000000E+00
  6.60000000E+02  4.80000000E+01  0.00000000E+00
  6.60000000E+02  4.60000000E+01  0.00000000E+00
  6.60000000E+02  4.40000000E+01  0.00000000E+00
  6.60000000E+02  4.20000000E+01  0.00000000E+00
  6.60000000E+02  4.00000000E+01  0.00000000E+00
  6.60000000E+02  3.80000000E+01  0.00000000E+00
  6.60000000E+02  3.60000000E+01  0.00000000E+00
  6.60000000E+02  3.40000000E+01  0.00000000E+00
  6.60000000E+02  3.20000000E+01  0.00000000E+00
  6.60000000E+02  3.00000000E+01  0.00000000E+00
  6.60000000E+02  2.80000000E+01  0.00000000E+00
  6.60000000E+02  2.60000000E+01  0.00000000E+00
  6.60000000E+02  2.40000000E+01  0.00000000E+00
  6.60000000E+02  2.20000000E+01  0.00000000E+00
  6.60000000E+02  2.00000000E+01  0.00000000E+00
  6.60000000E+02  1.80000000E+01  0.00000000E+00
  6.60000000E+02  1.60000000E+01  0.00000000E+00
  6.60000000E+02  1.40000000E+01  0.00000000E+00
  6.60000000E+02  1.20000000E+01  0.00000000E+00
  6.60000000E+02  1.00000000E+01  0.00000000E+00
  6.60000000E+02  8.00000000E+00  0.00000000E+00
  6.60000000E+02  6.00000000E+00  0.00000000E+00
  6.60000000E+02  4.00000000E+00  0.00000000E+00
  6.60000000E+02  2.00000000E+00  0.00000000E+00
  6.60000000E+02 -3.33066907E-14  0.00000000E+00
  6.70000000E+02  1.00000000E+02  0.00000000E+00
  6.70000000E+02  9.80000000E+01  0.00000000E+00
  6.70000000E+02  9.60000000E+01  0.00000000E+00
  6.70000000E+02  9.40000000E+01  0.00000000E+00
  6.70000000E+02  9.20000000E+01  0.00000000E+00
  6.70000000E+02  9.00000000E+01  0.00000000E+00
  6.70000000E+02  8.80000000E+01  0.00000000E+00
  6.70000000E+02  8.60000000E+01  0.00000000E+00
  6.70000000E+02  8.40000000E+01  0.00000000E+00
  6.70000000E+02  8.20000000E+01  0.00000000E+00
  6.70000000E+02  8.00000000E+01  0.00000000E+00
  6.70000000E+02  7.80000000E+01  0.00000000E+00
  6.70000000E+02  7.60000000E+01  0.00000000E+00
  6.70000000E+02  7.40000000E+01  0.00000000E+00
  6.70000000E+02  7.20000000E+01  0.00000000E+00
  6.70000000E+02  7.00000000E+01  0.00000000E+00
  6.70000000E+02  6.80000000E+01  0.00000000E+00
  6.70000000E+02  6.60000000E+01  0.00000000E+00
  6.70000000E+02  6.40000000E+01  0.00000000E+00
  6.70000000E+02  6.20000000E+01  0.00000000E+00
  6.70000000E+02  6.00000000E+01  0.00000000E+00
  6.70000000E+02  5.80000000E+01  0.00000000E+00
  6.70000000E+02  5.60000000E+01  0.00000000E+00
  6.70000000E+02  5.40000000E+01  0.00000000E+00
  6.70000000E+02  5.20000000E+01  0.00000000E+00
  6.70000000E+02  5.00000000E+01  0.00000000E+00
  6.70000000E+02  4.80000000E+01  0.00000000E+00
  6.70000000E+02  4.60000000E+01  0.00000000E+00
  6.70000000E+02  4.40000000E+01  0.00000000E+00
  6.70000000E+02  4.20000000E+01  0.00000000E+00
  6.70000000E+02  4.00000000E+01  0.00000000E+00
  6.70000000E+02  3.80000000E+01  0.00000000E+00
  6.70000000E+02  3.60000000E+01  0.00000000E+00
  6.70000000E+02  3.40000000E+01  0.00000000E+00
  6.70000000E+02  3.20000000E+01  0.00000000E+00
  6.70000000E+02  3.00000000E+01  0.00000000E+00
  6.70000000E+02  2.80000000E+01  0.00000000E+00
  6.70000000E+02  2.60000000E+01  0.00000000E+00
  6.70000000E+02  2.40000000E+01  0.00000000E+00
  6.70000000E+02  2.20000000E+01  0.00000000E+00
  6.70000000E+02  2.00000000E+01  0.00000000E+00
  6.70000000E+02  1.80000000E+01  0.00000000E+00
  6.70000000E+02  1.60000000E+01  0.00000000E+00
  6.70000000E+02  1.40000000E+01  0.00000000E+00
  6.70000000E+02  1.20000000E+01  0.00000000E+00
  6.70000000E+02  1.00000000E+01  0.00000000E+00
  6.70000000E+02  8.00000000E+00  0.00000000E+00
  6.70000000E+02  6.00000000E+00  0.00000000E+00
  6.70000000E+02  4.00000000E+00  0.00000000E+00
  6.70000000E+02  2.00000000E+00  0.00000000E+00
  6.70000000E+02 -3.33066907E-14  0.00000000E+00
  6.80000000E+02  1.00000000E+02  0.00000000E+00
  6.80000000E+02  9.80000000E+01  0.00000000E+00
  6.80000000E+02  9.60000000E+01  0.00000000E+00
  6.80000000E+02  9.40000000E+01  0.00000000E+00
  6.80000000E+02  9.20000000E+01  0.00000000E+00
  6.80000000E+02  9.00000000E+01  0.00000000E+00
  6.80000000E+02  8.80000000E+01  0.00000000E+00
  6.80000000E+02  8.60000000E+01  0.00000000E+00
  6.80000000E+02  8.40000000E+01  0.00000000E+00
  6.80000000E+02  8.20000000E+01  0.00000000E+00
  6.80000000E+02  8.00000000E+01  0.00000000E+00
  6.80000000E+02  7.80000000E+01  0.00000000E+00
  6.80000000E+02  7.60000000E+01  0.00000000E+00
  6.80000000E+02  7.40000000E+01  0.00000000E+00
  6.80000000E+02  7.20000000E+01  0.00000000E+00
  6.80000000E+02  7.00000000E+01  0.00000000E+00
  6.80000000E+02  6.80000000E+01  0.00000000E+00
  6.80000000E+02  6.60000000E+01  0.00000000E+00
  6.80000000E+02  6.40000000E+01  0.00000000E+00
  6.80000000E+02  6.20000000E+01  0.00000000E+00
  6.80000000E+02  6.00000000E+01  0.00000000E+00
  6.80000000E+02  5.80000000E+01  0.00000000E+00
  6.80000000E+02  5.60000000E+01  0.00000000E+00
  6.80000000E+02  5.40000000E+01  0.00000000E+00
  6.80000000E+02  5.20000000E+01  0.00000000E+00
  6.80000000E+02  5.00000000E+01  0.00000000E+00
  6.80000000E+02  4.80000000E+01  0.00000000E+00
  6.80000000E+02  4.60000000E+01  0.00000000E+00
  6.80000000E+02  4.40000000E+01  0.00000000E+00
  6.80000000E+02  4.20000000E+01  0.00000000E+00
  6.80000000E+02  4.00000000E+01  0.00000000E+00
  6.80000000E+02  3.80000000E+01  0.00000000E+00
  6.80000000E+02  3.60000000E+01  0.00000000E+00
  6.80000000E+02  3.40000000E+01  0.00000000E+00
  6.80000000E+02  3.20000000E+01  0.00000000E+00
  6.80000000E+02  3.00000000E+01  0.00000000E+00
  6.80000000E+02  2.80000000E+01  0.00000000E+00
  6.80000000E+02  2.60000000E+01  0.00000000E+00
  6.80000000E+02  2.40000000E+01  0.00000000E+00
  6.80000000E+02  2.20000000E+01  0.00000000E+00
  6.80000000E+02  2.00000000E+01  0.00000000E+00
  6.80000000E+02  1.80000000E+01  0.00000000E+00
  6.80000000E+02  1.60000000E+01  0.00000000E+00
  6.80000000E+02  1.40000000E+01  0.00000000E+00
  6.80000000E+02  1.20000000E+01  0.00000000E+00
  6.80000000E+02  1.00000000E+01  0.00000000E+00
  6.80000000E+02  8.00000000E+00  0.00000000E+00
  6.80000000E+02  6.00000000E+00  0.00000000E+00
  6.80000000E+02  4.00000000E+00  0.00000000E+00
  6.80000000E+02  2.00000000E+00  0.00000000E+00
  6.80000000E+02 -3.33066907E-14  0.00000000E+00
  6.90000000E+02  1.00000000E+02  0.00000000E+00
  6.90000000E+02  9.80000000E+01  0.00000000E+00
  6.90000000E+02  9.60000000E+01  0.00000000E+00
  6.90000000E+02  9.40000000E+01  0.00000000E+00
  6.90000000E+02  9.20000000E+01  0.00000000E+00
  6.90000000E+02  9.00000000E+01  0.00000000E+00
  6.90000000E+02  8.80000000E+01  0.00000000E+00
  6.90000000E+02  8.60000000E+01  0.00000000E+00
  6.90000000E+02  8.40000000E+01  0.00000000E+00
  6.90000000E+02  8.20000000E+01  0.00000000E+00
  6.90000000E+02  8.00000000E+01  0.00000000E+00
  6.90000000E+02  7.80000000E+01  0.00000000E+00
  6.90000000E+02  7.60000000E+01  0.00000000E+00
  6.90000000E+02  7.40000000E+01  0.00000000E+00
  6.90000000E+02  7.20000000E+01  0.00000000E+00
  6.90000000E+02  7.00000000E+01  0.00000000E+00
  6.90000000E+02  6.80000000E+01  0.00000000E+00
  6.90000000E+02  6.60000000E+01  0.00000000E+00
  6.90000000E+02  6.40000000E+01  0.00000000E+00
  6.90000000E+02  6.20000000E+01  0.00000000E+00
  6.90000000E+02  6.00000000E+01  0.00000000E+00
  6.90000000E+02  5.80000000E+01  0.00000000E+00
  6.90000000E+02  5.60000000E+01  0.00000000E+00
  6.90000000E+02  5.40000000E+01  0.00000000E+00
  6.90000000E+02  5.20000000E+01  0.00000000E+00
  6.90000000E+02  5.00000000E+01  0.00000000E+00
  6.90000000E+02  4.80000000E+01  0.00000000E+00
  6.90000000E+02  4.60000000E+01  0.00000000E+00
  6.90000000E+02  4.40000000E+01  0.00000000E+00
  6.90000000E+02  4.20000000E+01  0.00000000E+00
  6.90000000E+02  4.00000000E+01  0.00000000E+00
  6.90000000E+02  3.80000000E+01  0.00000000E+00
  6.90000000E+02  3.60000000E+01  0.00000000E+00
  6.90000000E+02  3.40000000E+01  0.00000000E+00
  6.90000000E+02  3.20000000E+01  0.00000000E+00
  6.90000000E+02  3.00000000E+01  0.00000000E+00
  6.90000000E+02  2.80000000E+01  0.00000000E+00
  6.90000000E+02  2.60000000E+01  0.00000000E+00
  6.90000000E+02  2.40000000E+01  0.00000000E+00
  6.90000000E+02  2.20000000E+01  0.00000000E+00
  6.90000000E+02  2.00000000E+01  0.00000000E+00
  6.90000000E+02  1.80000000E+01  0.00000000E+00
  6.90000000E+02  1.60000000E+01  0.00000000E+00
  6.90000000E+02  1.40000000E+01  0.00000000E+00
  6.90000000E+02  1.20000000E+01  0.00000000E+00
  6.90000000E+02  1.00000000E+01  0.00000000E+00
  6.90000000E+02  8.00000000E+00  0.00000000E+00
  6.90000000E+02  6.00000000E+00  0.00000000E+00
  6.90000000E+02  4.00000000E+00  0.00000000E+00
  6.90000000E+02  2.00000000E+00  0.00000000E+00
  6.90000000E+02 -3.33066907E-14  0.00000000E+00
  7.00000000E+02  1.00000000E+02  0.00000000E+00
  7.00000000E+02  9.80000000E+01  0.00000000E+00
  7.00000000E+02  9.60000000E+01  0.00000000E+00
  7.00000000E+02  9.40000000E+01  0.00000000E+00
  7.00000000E+02  9.20000000E+01  0.00000000E+00
  7.00000000E+02  9.00000000E+01  0.00000000E+00
  7.00000000E+02  8.80000000E+01  0.00000000E+00
  7.00000000E+02  8.60000000E+01  0.00000000E+00
  7.00000000E+02  8.40000000E+01  0.00000000E+00
  7.00000000E+02  8.20000000E+01  0.00000000E+00
  7.00000000E+02  8.00000000E+01  0.00000000E+00
  7.00000000E+02  7.80000000E+01  0.00000000E+00
  7.00000000E+02  7.60000000E+01  0.00000000E+00
  7.00000000E+02  7.40000000E+01  0.00000000E+00
  7.00000000E+02  7.20000000E+01  0.00000000E+00
  7.00000000E+02  7.00000000E+01  0.00000000E+00
  7.00000000E+02  6.80000000E+01  0.00000000E+00
  7.00000000E+02  6.60000000E+01  0.00000000E+00
  7.00000000E+02  6.40000000E+01  0.00000000E+00
  7.00000000E+02  6.20000000E+01  0.00000000E+00
  7.00000000E+02  6.00000000E+01  0.00000000E+00
  7.00000000E+02  5.80000000E+01  0.00000000E+00
  7.00000000E+02  5.60000000E+01  0.00000000E+00
  7.00000000E+02  5.40000000E+01  0.00000000E+00
  7.00000000E+02  5.20000000E+01  0.00000000E+00
  7.00000000E+02  5.00000000E+01  0.00000000E+00
  7.00000000E+02  4.80000000E+01  0.00000000E+00
  7.00000000E+02  4.60000000E+01  0.00000000E+00
  7.00000000E+02  4.40000000E+01  0.00000000E+00
  7.00000000E+02  4.20000000E+01  0.00000000E+00
  7.00000000E+02  4.00000000E+01  0.00000000E+00
  7.00000000E+02  3.80000000E+01  0.00000000E+00
  7.00000000E+02  3.60000000E+01  0.00000000E+00
  7.00000000E+02  3.40000000E+01  0.00000000E+00
  7.00000000E+02  3.20000000E+01  0.00000000E+00
  7.00000000E+02  3.00000000E+01  0.00000000E+00
  7.00000000E+02  2.80000000E+01  0.00000000E+00
  7.00000000E+02  2.60000000E+01  0.00000000E+00
  7.00000000E+02  2.40000000E+01  0.00000000E+00
  7.00000000E+02  2.20000000E+01  0.00000000E+00
  7.00000000E+02  2.00000000E+01  0.00000000E+00
  7.00000000E+02  1.80000000E+01  0.00000000E+00
  7.00000000E+02  1.60000000E+01  0.00000000E+00
  7.00000000E+02  1.40000000E+01  0.00000000E+00
  7.00000000E+02  1.20000000E+01  0.00000000E+00
  7.00000000E+02  1.00000000E+01  0.00000000E+00
  7.00000000E+02  8.00000000E+00  0.00000000E+00
  7.00000000E+02  6.00000000E+00  0.00000000E+00
  7.00000000E+02  4.00000000E+00  0.00000000E+00
  7.00000000E+02  2.00000000E+00  0.00000000E+00
  7.00000000E+02 -3.33066907E-14  0.00000000E+00
  7.10000000E+02  1.00000000E+02  0.00000000E+00
  7.10000000E+02  9.80000000E+01  0.00000000E+00
  7.10000000E+02  9.60000000E+01  0.00000000E+00
  7.10000000E+02  9.40000000E+01  0.00000000E+00
  7.10000000E+02  9.20000000E+01  0.00000000E+00
  7.10000000E+02  9.00000000E+01  0.00000000E+00
  7.10000000E+02  8.80000000E+01  0.00000000E+00
  7.10000000E+02  8.60000000E+01  0.00000000E+00
  7.10000000E+02  8.40000000E+01  0.00000000E+00
  7.10000000E+02  8.20000000E+01  0.00000000E+00
  7.10000000E+02  8.00000000E+01  0.00000000E+00
  7.10000000E+02  7.80000000E+01  0.00000000E+00
  7.10000000E+02  7.60000000E+01  0.00000000E+00
  7.10000000E+02  7.40000000E+01  0.00000000E+00
  7.10000000E+02  7.20000000E+01  0.00000000E+00
  7.10000000E+02  7.00000000E+01  0.00000000E+00
  7.10000000E+02  6.80000000E+01  0.00000000E+00
  7.10000000E+02  6.60000000E+01  0.00000000E+00
  7.10000000E+02  6.40000000E+01  0.00000000E+00
  7.10000000E+02  6.20000000E+01  0.00000000E+00
  7.10000000E+02  6.00000000E+01  0.00000000E+00
  7.10000000E+02  5.80000000E+01  0.00000000E+00
  7.10000000E+02  5.60000000E+01  0.00000000E+00
  7.10000000E+02  5.40000000E+01  0.00000000E+00
  7.10000000E+02  5.20000000E+01  0.00000000E+00
  7.10000000E+02  5.00000000E+01  0.00000000E+00
  7.10000000E+02  4.80000000E+01  0.00000000E+00
  7.10000000E+02  4.60000000E+01  0.00000000E+00
  7.10000000E+02  4.40000000E+01  0.00000000E+00
  7.10000000E+02  4.20000000E+01  0.00000000E+00
  7.10000000E+02  4.00000000E+01  0.00000000E+00
  7.10000000E+02  3.80000000E+01  0.00000000E+00
  7.10000000E+02  3.60000000E+01  0.00000000E+00
  7.10000000E+02  3.40000000E+01  0.00000000E+00
  7.10000000E+02  3.20000000E+01  0.00000000E+00
  7.10000000E+02  3.00000000E+01  0.00000000E+00
  7.10000000E+02  2.80000000E+01  0.00000000E+00
  7.10000000E+02  2.60000000E+01  0.00000000E+00
  7.10000000E+02  2.40000000E+01  0.00000000E+00
  7.10000000E+02  2.20000000E+01  0.00000000E+00
  7.10000000E+02  2.00000000E+01  0.00000000E+00
  7.10000000E+02  1.80000000E+01  0.00000000E+00
  7.10000000E+02  1.60000000E+01  0.00000000E+00
  7.10000000E+02  1.40000000E+01  0.00000000E+00
  7.10000000E+02  1.20000000E+01  0.00000000E+00
  7.10000000E+02  1.00000000E+01  0.00000000E+00
  7.10000000E+02  8.00000000E+00  0.00000000E+00
  7.10000000E+02  6.00000000E+00  0.00000000E+00
  7.10000000E+02  4.00000000E+00  0.00000000E+00
  7.10000000E+02  2.00000000E+00  0.00000000E+00
  7.10000000E+02 -3.33066907E-14  0.00000000E+00
  7.20000000E+02  1.00000000E+02  0.00000000E+00
  7.20000000E+02  9.80000000E+01  0.00000000E+00
  7.20000000E+02  9.60000000E+01  0.00000000E+00
  7.20000000E+02  9.40000000E+01  0.00000000E+00
  7.20000000E+02  9.20000000E+01  0.00000000E+00
  7.20000000E+02  9.00000000E+01  0.00000000E+00
  7.20000000E+02  8.80000000E+01  0.00000000E+00
  7.20000000E+02  8.60000000E+01  0.00000000E+00
  7.20000000E+02  8.40000000E+01  0.00000000E+00
  7.20000000E+02  8.20000000E+01  0.00000000E+00
  7.20000000E+02  8.00000000E+01  0.00000000E+00
  7.20000000E+02  7.80000000E+01  0.00000000E+00
  7.20000000E+02  7.60000000E+01  0.00000000E+00
  7.20000000E+02  7.40000000E+01  0.00000000E+00
  7.20000000E+02  7.20000000E+01  0.00000000E+00
  7.20000000E+02  7.00000000E+01  0.00000000E+00
  7.20000000E+02  6.80000000E+01  0.00000000E+00
  7.20000000E+02  6.60000000E+01  0.00000000E+00
  7.20000000E+02  6.40000000E+01  0.00000000E+00
  7.20000000E+02  6.20000000E+01  0.00000000E+00
  7.20000000E+02  6.00000000E+01  0.00000000E+00
  7.20000000E+02  5.80000000E+01  0.00000000E+00
  7.20000000E+02  5.60000000E+01  0.00000000E+00
  7.20000000E+02  5.40000000E+01  0.00000000E+00
  7.20000000E+02  5.20000000E+01  0.00000000E+00
  7.20000000E+02  5.00000000E+01  0.00000000E+00
  7.20000000E+02  4.80000000E+01  0.00000000E+00
  7.20000000E+02  4.60000000E+01  0.00000000E+00
  7.20000000E+02  4.40000000E+01  0.00000000E+00
  7.20000000E+02  4.20000000E+01  0.00000000E+00
  7.20000000E+02  4.00000000E+01  0.00000000E+00
  7.20000000E+02  3.80000000E+01  0.00000000E+00
  7.20000000E+02  3.60000000E+01  0.00000000E+00
  7.20000000E+02  3.40000000E+01  0.00000000E+00
  7.20000000E+02  3.20000000E+01  0.00000000E+00
  7.20000000E+02  3.00000000E+01  0.00000000E+00
  7.20000000E+02  2.80000000E+01  0.00000000E+00
  7.20000000E+02  2.60000000E+01  0.00000000E+00
  7.20000000E+02  2.40000000E+01  0.00000000E+00
  7.20000000E+02  2.20000000E+01  0.00000000E+00
  7.20000000E+02  2.00000000E+01  0.00000000E+00
  7.20000000E+02  1.80000000E+01  0.00000000E+00
  7.20000000E+02  1.60000000E+01  0.00000000E+00
  7.20000000E+02  1.40000000E+01  0.00000000E+00
  7.20000000E+02  1.20000000E+01  0.00000000E+00
  7.20000000E+02  1.00000000E+01  0.00000000E+00
  7.20000000E+02  8.00000000E+00  0.00000000E+00
  7.20000000E+02  6.00000000E+00  0.00000000E+00
  7.20000000E+02  4.00000000E+00  0.00000000E+00
  7.20000000E+02  2.00000000E+00  0.00000000E+00
  7.20000000E+02 -3.33066907E-14  0.00000000E+00
  7.30000000E+02  1.00000000E+02  0.00000000E+00
  7.30000000E+02  9.80000000E+01  0.00000000E+00
  7.30000000E+02  9.60000000E+01  0.00000000E+00
  7.30000000E+02  9.40000000E+01  0.00000000E+00
  7.30000000E+02  9.20000000E+01  0.00000000E+00
  7.30000000E+02  9.00000000E+01  0.00000000E+00
  7.30000000E+02  8.80000000E+01  0.00000000E+00
  7.30000000E+02  8.60000000E+01  0.00000000E+00
  7.30000000E+02  8.40000000E+01  0.00000000E+00
  7.30000000E+02  8.20000000E+01  0.00000000E+00
  7.30000000E+02  8.00000000E+01  0.00000000E+00
  7.30000000E+02  7.80000000E+01  0.00000000E+00
  7.30000000E+02  7.60000000E+01  0.00000000E+00
  7.30000000E+02  7.40000000E+01  0.00000000E+00
  7.30000000E+02  7.20000000E+01  0.00000000E+00
  7.30000000E+02  7.00000000E+01  0.00000000E+00
  7.30000000E+02  6.80000000E+01  0.00000000E+00
  7.30000000E+02  6.60000000E+01  0.00000000E+00
  7.30000000E+02  6.40000000E+01  0.00000000E+00
  7.30000000E+02  6.20000000E+01  0.00000000E+00
  7.30000000E+02  6.00000000E+01  0.00000000E+00
  7.30000000E+02  5.80000000E+01  0.00000000E+00
  7.30000000E+02  5.60000000E+01  0.00000000E+00
  7.30000000E+02  5.40000000E+01  0.00000000E+00
  7.30000000E+02  5.20000000E+01  0.00000000E+00
  7.30000000E+02  5.00000000E+01  0.00000000E+00
  7.30000000E+02  4.80000000E+01  0.00000000E+00
  7.30000000E+02  4.60000000E+01  0.00000000E+00
  7.30000000E+02  4.40000000E+01  0.00000000E+00
  7.30000000E+02  4.20000000E+01  0.00000000E+00
  7.30000000E+02  4.00000000E+01  0.00000000E+00
  7.30000000E+02  3.80000000E+01  0.00000000E+00
  7.30000000E+02  3.60000000E+01  0.00000000E+00
  7.30000000E+02  3.40000000E+01  0.00000000E+00
  7.30000000E+02  3.20000000E+01  0.00000000E+00
  7.30000000E+02  3.00000000E+01  0.00000000E+00
  7.30000000E+02  2.80000000E+01  0.00000000E+00
  7.30000000E+02  2.60000000E+01  0.00000000E+00
  7.30000000E+02  2.40000000E+01  0.00000000E+00
  7.30000000E+02  2.20000000E+01  0.00000000E+00
  7.30000000E+02  2.00000000E+01  0.00000000E+00
  7.30000000E+02  1.80000000E+01  0.00000000E+00
  7.30000000E+02  1.60000000E+01  0.00000000E+00
  7.30000000E+02  1.40000000E+01  0.00000000E+00
  7.30000000E+02  1.20000000E+01  0.00000000E+00
  7.30000000E+02  1.00000000E+01  0.00000000E+00
  7.30000000E+02  8.00000000E+00  0.00000000E+00
  7.30000000E+02  6.00000000E+00  0.00000000E+00
  7.30000000E+02  4.00000000E+00  0.00000000E+00
  7.30000000E+02  2.00000000E+00  0.00000000E+00
  7.30000000E+02 -3.33066907E-14  0.00000000E+00
  7.40000000E+02  1.00000000E+02  0.00000000E+00
  7.40000000E+02  9.80000000E+01  0.00000000E+00
  7.40000000E+02  9.60000000E+01  0.00000000E+00
  7.40000000E+02  9.40000000E+01  0.00000000E+00
  7.40000000E+02  9.20000000E+01  0.00000000E+00
  7.40000000E+02  9.00000000E+01  0.00000000E+00
  7.40000000E+02  8.80000000E+01  0.00000000E+00
  7.40000000E+02  8.60000000E+01  0.00000000E+00
  7.40000000E+02  8.40000000E+01  0.00000000E+00
  7.40000000E+02  8.20000000E+01  0.00000000E+00
  7.40000000E+02  8.00000000E+01  0.00000000E+00
  7.40000000E+02  7.80000000E+01  0.00000000E+00
  7.40000000E+02  7.60000000E+01  0.00000000E+00
  7.40000000E+02  7.40000000E+01  0.00000000E+00
  7.40000000E+02  7.20000000E+01  0.00000000E+00
  7.40000000E+02  7.00000000E+01  0.00000000E+00
  7.40000000E+02  6.80000000E+01  0.00000000E+00
  7.40000000E+02  6.60000000E+01  0.00000000E+00
  7.40000000E+02  6.40000000E+01  0.00000000E+00
  7.40000000E+02  6.20000000E+01  0.00000000E+00
  7.40000000E+02  6.00000000E+01  0.00000000E+00
  7.40000000E+02  5.80000000E+01  0.00000000E+00
  7.40000000E+02  5.60000000E+01  0.00000000E+00
  7.40000000E+02  5.40000000E+01  0.00000000E+00
  7.40000000E+02  5.20000000E+01  0.00000000E+00
  7.40000000E+02  5.00000000E+01  0.00000000E+00
  7.40000000E+02  4.80000000E+01  0.00000000E+00
  7.40000000E+02  4.60000000E+01  0.00000000E+00
  7.40000000E+02  4.40000000E+01  0.00000000E+00
  7.40000000E+02  4.20000000E+01  0.00000000E+00
  7.40000000E+02  4.00000000E+01  0.00000000E+00
  7.40000000E+02  3.80000000E+01  0.00000000E+00
  7.40000000E+02  3.60000000E+01  0.00000000E+00
  7.40000000E+02  3.40000000E+01  0.00000000E+00
  7.40000000E+02  3.20000000E+01  0.00000000E+00
  7.40000000E+02  3.00000000E+01  0.00000000E+00
  7.40000000E+02  2.80000000E+01  0.00000000E+00
  7.40000000E+02  2.60000000E+01  0.00000000E+00
  7.40000000E+02  2.40000000E+01  0.00000000E+00
  7.40000000E+02  2.20000000E+01  0.00000000E+00
  7.40000000E+02  2.00000000E+01  0.00000000E+00
  7.40000000E+02  1.80000000E+01  0.00000000E+00
  7.40000000E+02  1.60000000E+01  0.00000000E+00
  7.40000000E+02  1.40000000E+01  0.00000000E+00
  7.40000000E+02  1.20000000E+01  0.00000000E+00
  7.40000000E+02  1.00000000E+01  0.00000000E+00
  7.40000000E+02  8.00000000E+00  0.00000000E+00
  7.40000000E+02  6.00000000E+00  0.00000000E+00
  7.40000000E+02  4.00000000E+00  0.00000000E+00
  7.40000000E+02  2.00000000E+00  0.00000000E+00
  7.40000000E+02 -3.33066907E-14  0.00000000E+00
  7.50000000E+02  1.00000000E+02  0.00000000E+00
  7.50000000E+02  9.80000000E+01  0.00000000E+00
  7.50000000E+02  9.60000000E+01  0.00000000E+00
  7.50000000E+02  9.40000000E+01  0.00000000E+00
  7.50000000E+02  9.20000000E+01  0.00000000E+00
  7.50000000E+02  9.00000000E+01  0.00000000E+00
  7.50000000E+02  8.80000000E+01  0.00000000E+00
  7.50000000E+02  8.60000000E+01  0.00000000E+00
  7.50000000E+02  8.40000000E+01  0.00000000E+00
  7.50000000E+02  8.20000000E+01  0.00000000E+00
  7.50000000E+02  8.00000000E+01  0.00000000E+00
  7.50000000E+02  7.80000000E+01  0.00000000E+00
  7.50000000E+02  7.60000000E+01  0.00000000E+00
  7.50000000E+02  7.40000000E+01  0.00000000E+00
  7.50000000E+02  7.20000000E+01  0.00000000E+00
  7.50000000E+02  7.00000000E+01  0.00000000E+00
  7.50000000E+02  6.80000000E+01  0.00000000E+00
  7.50000000E+02  6.60000000E+01  0.00000000E+00
  7.50000000E+02  6.40000000E+01  0.00000000E+00
  7.50000000E+02  6.20000000E+01  0.00000000E+00
  7.50000000E+02  6.00000000E+01  0.00000000E+00
  7.50000000E+02  5.80000000E+01  0.00000000E+00
  7.50000000E+02  5.60000000E+01  0.00000000E+00
  7.50000000E+02  5.40000000E+01  0.00000000E+00
  7.50000000E+02  5.20000000E+01  0.00000000E+00
  7.50000000E+02  5.00000000E+01  0.00000000E+00
  7.50000000E+02  4.80000000E+01  0.00000000E+00
  7.50000000E+02  4.60000000E+01  0.00000000E+00
  7.50000000E+02  4.40000000E+01  0.00000000E+00
  7.50000000E+02  4.20000000E+01  0.00000000E+00
  7.50000000E+02  4.00000000E+01  0.00000000E+00
  7.50000000E+02  3.80000000E+01  0.00000000E+00
  7.50000000E+02  3.60000000E+01  0.00000000E+00
  7.50000000E+02  3.40000000E+01  0.00000000E+00
  7.50000000E+02  3.20000000E+01  0.00000000E+00
  7.50000000E+02  3.00000000E+01  0.00000000E+00
  7.50000000E+02  2.80000000E+01  0.00000000E+00
  7.50000000E+02  2.60000000E+01  0.00000000E+00
  7.50000000E+02  2.40000000E+01  0.00000000E+00
  7.50000000E+02  2.20000000E+01  0.00000000E+00
  7.50000000E+02  2.00000000E+01  0.00000000E+00
  7.50000000E+02  1.80000000E+01  0.00000000E+00
  7.50000000E+02  1.60000000E+01  0.00000000E+00
  7.50000000E+02  1.40000000E+01  0.00000000E+00
  7.50000000E+02  1.20000000E+01  0.00000000E+00
  7.50000000E+02  1.00000000E+01  0.00000000E+00
  7.50000000E+02  8.00000000E+00  0.00000000E+00
  7.50000000E+02  6.00000000E+00  0.00000000E+00
  7.50000000E+02  4.00000000E+00  0.00000000E+00
  7.50000000E+02  2.00000000E+00  0.00000000E+00
  7.50000000E+02 -3.33066907E-14  0.00000000E+00
  7.60000000E+02  1.00000000E+02  0.00000000E+00
  7.60000000E+02  9.80000000E+01  0.00000000E+00
  7.60000000E+02  9.60000000E+01  0.00000000E+00
  7.60000000E+02  9.40000000E+01  0.00000000E+00
  7.60000000E+02  9.20000000E+01  0.00000000E+00
  7.60000000E+02  9.00000000E+01  0.00000000E+00
  7.60000000E+02  8.80000000E+01  0.00000000E+00
  7.60000000E+02  8.60000000E+01  0.00000000E+00
  7.60000000E+02  8.40000000E+01  0.00000000E+00
  7.60000000E+02  8.20000000E+01  0.00000000E+00
  7.60000000E+02  8.00000000E+01  0.00000000E+00
  7.60000000E+02  7.80000000E+01  0.00000000E+00
  7.60000000E+02  7.60000000E+01  0.00000000E+00
  7.60000000E+02  7.40000000E+01  0.00000000E+00
  7.60000000E+02  7.20000000E+01  0.00000000E+00
  7.60000000E+02  7.00000000E+01  0.00000000E+00
  7.60000000E+02  6.80000000E+01  0.00000000E+00
  7.60000000E+02  6.60000000E+01  0.00000000E+00
  7.60000000E+02  6.40000000E+01  0.00000000E+00
  7.60000000E+02  6.20000000E+01  0.00000000E+00
  7.60000000E+02  6.00000000E+01  0.00000000E+00
  7.60000000E+02  5.80000000E+01  0.00000000E+00
  7.60000000E+02  5.60000000E+01  0.00000000E+00
  7.60000000E+02  5.40000000E+01  0.00000000E+00
  7.60000000E+02  5.20000000E+01  0.00000000E+00
  7.60000000E+02  5.00000000E+01  0.00000000E+00
  7.60000000E+02  4.80000000E+01  0.00000000E+00
  7.60000000E+02  4.60000000E+01  0.00000000E+00
  7.60000000E+02  4.40000000E+01  0.00000000E+00
  7.60000000E+02  4.20000000E+01  0.00000000E+00
  7.60000000E+02  4.00000000E+01  0.00000000E+00
  7.60000000E+02  3.80000000E+01  0.00000000E+00
  7.60000000E+02  3.60000000E+01  0.00000000E+00
  7.60000000E+02  3.40000000E+01  0.00000000E+00
  7.60000000E+02  3.20000000E+01  0.00000000E+00
  7.60000000E+02  3.00000000E+01  0.00000000E+00
  7.60000000E+02  2.80000000E+01  0.00000000E+00
  7.60000000E+02  2.60000000E+01  0.00000000E+00
  7.60000000E+02  2.40000000E+01  0.00000000E+00
  7.60000000E+02  2.20000000E+01  0.00000000E+00
  7.60000000E+02  2.00000000E+01  0.00000000E+00
  7.60000000E+02  1.80000000E+01  0.00000000E+00
  7.60000000E+02  1.60000000E+01  0.00000000E+00
  7.60000000E+02  1.40000000E+01  0.00000000E+00
  7.60000000E+02  1.20000000E+01  0.00000000E+00
  7.60000000E+02  1.00000000E+01  0.00000000E+00
  7.60000000E+02  8.00000000E+00  0.00000000E+00
  7.60000000E+02  6.00000000E+00  0.00000000E+00
  7.60000000E+02  4.00000000E+00  0.00000000E+00
  7.60000000E+02  2.00000000E+00  0.00000000E+00
  7.60000000E+02 -3.33066907E-14  0.00000000E+00
  7.70000000E+02  1.00000000E+02  0.00000000E+00
  7.70000000E+02  9.80000000E+01  0.00000000E+00
  7.70000000E+02  9.60000000E+01  0.00000000E+00
  7.70000000E+02  9.40000000E+01  0.00000000E+00
  7.70000000E+02  9.20000000E+01  0.00000000E+00
  7.70000000E+02  9.00000000E+01  0.00000000E+00
  7.70000000E+02  8.80000000E+01  0.00000000E+00
  7.70000000E+02  8.60000000E+01  0.00000000E+00
  7.70000000E+02  8.40000000E+01  0.00000000E+00
  7.70000000E+02  8.20000000E+01  0.00000000E+00
  7.70000000E+02  8.00000000E+01  0.00000000E+00
  7.70000000E+02  7.80000000E+01  0.00000000E+00
  7.70000000E+02  7.60000000E+01  0.00000000E+00
  7.70000000E+02  7.40000000E+01  0.00000000E+00
  7.70000000E+02  7.20000000E+01  0.00000000E+00
  7.70000000E+02  7.00000000E+01  0.00000000E+00
  7.70000000E+02  6.80000000E+01  0.00000000E+00
  7.70000000E+02  6.60000000E+01  0.00000000E+00
  7.70000000E+02  6.40000000E+01  0.00000000E+00
  7.70000000E+02  6.20000000E+01  0.00000000E+00
  7.70000000E+02  6.00000000E+01  0.00000000E+00
  7.70000000E+02  5.80000000E+01  0.00000000E+00
  7.70000000E+02  5.60000000E+01  0.00000000E+00
  7.70000000E+02  5.40000000E+01  0.00000000E+00
  7.70000000E+02  5.20000000E+01  0.00000000E+00
  7.70000000E+02  5.00000000E+01  0.00000000E+00
  7.70000000E+02  4.80000000E+01  0.00000000E+00
  7.70000000E+02  4.60000000E+01  0.00000000E+00
  7.70000000E+02  4.40000000E+01  0.00000000E+00
  7.70000000E+02  4.20000000E+01  0.00000000E+00
  7.70000000E+02  4.00000000E+01  0.00000000E+00
  7.70000000E+02  3.80000000E+01  0.00000000E+00
  7.70000000E+02  3.60000000E+01  0.00000000E+00
  7.70000000E+02  3.40000000E+01  0.00000000E+00
  7.70000000E+02  3.20000000E+01  0.00000000E+00
  7.70000000E+02  3.00000000E+01  0.00000000E+00
  7.70000000E+02  2.80000000E+01  0.00000000E+00
  7.70000000E+02  2.60000000E+01  0.00000000E+00
  7.70000000E+02  2.40000000E+01  0.00000000E+00
  7.70000000E+02  2.20000000E+01  0.00000000E+00
  7.70000000E+02  2.00000000E+01  0.00000000E+00
  7.70000000E+02  1.80000000E+01  0.00000000E+00
  7.70000000E+02  1.60000000E+01  0.00000000E+00
  7.70000000E+02  1.40000000E+01  0.00000000E+00
  7.70000000E+02  1.20000000E+01  0.00000000E+00
  7.70000000E+02  1.00000000E+01  0.00000000E+00
  7.70000000E+02  8.00000000E+00  0.00000000E+00
  7.70000000E+02  6.00000000E+00  0.00000000E+00
  7.70000000E+02  4.00000000E+00  0.00000000E+00
  7.70000000E+02  2.00000000E+00  0.00000000E+00
  7.70000000E+02 -3.33066907E-14  0.00000000E+00
  7.80000000E+02  1.00000000E+02  0.00000000E+00
  7.80000000E+02  9.80000000E+01  0.00000000E+00
  7.80000000E+02  9.60000000E+01  0.00000000E+00
  7.80000000E+02  9.40000000E+01  0.00000000E+00
  7.80000000E+02  9.20000000E+01  0.00000000E+00
  7.80000000E+02  9.00000000E+01  0.00000000E+00
  7.80000000E+02  8.80000000E+01  0.00000000E+00
  7.80000000E+02  8.60000000E+01  0.00000000E+00
  7.80000000E+02  8.40000000E+01  0.00000000E+00
  7.80000000E+02  8.20000000E+01  0.00000000E+00
  7.80000000E+02  8.00000000E+01  0.00000000E+00
  7.80000000E+02  7.80000000E+01  0.00000000E+00
  7.80000000E+02  7.60000000E+01  0.00000000E+00
  7.80000000E+02  7.40000000E+01  0.00000000E+00
  7.80000000E+02  7.20000000E+01  0.00000000E+00
  7.80000000E+02  7.00000000E+01  0.00000000E+00
  7.80000000E+02  6.80000000E+01  0.00000000E+00
  7.80000000E+02  6.60000000E+01  0.00000000E+00
  7.80000000E+02  6.40000000E+01  0.00000000E+00
  7.80000000E+02  6.20000000E+01  0.00000000E+00
  7.80000000E+02  6.00000000E+01  0.00000000E+00
  7.80000000E+02  5.80000000E+01  0.00000000E+00
  7.80000000E+02  5.60000000E+01  0.00000000E+00
  7.80000000E+02  5.40000000E+01  0.00000000E+00
  7.80000000E+02  5.20000000E+01  0.00000000E+00
  7.80000000E+02  5.00000000E+01  0.00000000E+00
  7.80000000E+02  4.80000000E+01  0.00000000E+00
  7.80000000E+02  4.60000000E+01  0.00000000E+00
  7.80000000E+02  4.40000000E+01  0.00000000E+00
  7.80000000E+02  4.20000000E+01  0.00000000E+00
  7.80000000E+02  4.00000000E+01  0.00000000E+00
  7.80000000E+02  3.80000000E+01  0.00000000E+00
  7.80000000E+02  3.60000000E+01  0.00000000E+00
  7.80000000E+02  3.40000000E+01  0.00000000E+00
  7.80000000E+02  3.20000000E+01  0.00000000E+00
  7.80000000E+02  3.00000000E+01  0.00000000E+00
  7.80000000E+02  2.80000000E+01  0.00000000E+00
  7.80000000E+02  2.60000000E+01  0.00000000E+00
  7.80000000E+02  2.40000000E+01  0.00000000E+00
  7.80000000E+02  2.20000000E+01  0.00000000E+00
  7.80000000E+02  2.00000000E+01  0.00000000E+00
  7.80000000E+02  1.80000000E+01  0.00000000E+00
  7.80000000E+02  1.60000000E+01  0.00000000E+00
  7.80000000E+02  1.40000000E+01  0.00000000E+00
  7.80000000E+02  1.20000000E+01  0.00000000E+00
  7.80000000E+02  1.00000000E+01  0.00000000E+00
  7.80000000E+02  8.00000000E+00  0.00000000E+00
  7.80000000E+02  6.00000000E+00  0.00000000E+00
  7.80000000E+02  4.00000000E+00  0.00000000E+00
  7.80000000E+02  2.00000000E+00  0.00000000E+00
  7.80000000E+02 -3.33066907E-14  0.00000000E+00
  7.90000000E+02  1.00000000E+02  0.00000000E+00
  7.90000000E+02  9.80000000E+01  0.00000000E+00
  7.90000000E+02  9.60000000E+01  0.00000000E+00
  7.90000000E+02  9.40000000E+01  0.00000000E+00
  7.90000000E+02  9.20000000E+01  0.00000000E+00
  7.90000000E+02  9.00000000E+01  0.00000000E+00
  7.90000000E+02  8.80000000E+01  0.00000000E+00
  7.90000000E+02  8.60000000E+01  0.00000000E+00
  7.90000000E+02  8.40000000E+01  0.00000000E+00
  7.90000000E+02  8.20000000E+01  0.00000000E+00
  7.90000000E+02  8.00000000E+01  0.00000000E+00
  7.90000000E+02  7.80000000E+01  0.00000000E+00
  7.90000000E+02  7.60000000E+01  0.00000000E+00
  7.90000000E+02  7.40000000E+01  0.00000000E+00
  7.90000000E+02  7.20000000E+01  0.00000000E+00
  7.90000000E+02  7.00000000E+01  0.00000000E+00
  7.90000000E+02  6.80000000E+01  0.00000000E+00
  7.90000000E+02  6.60000000E+01  0.00000000E+00
  7.90000000E+02  6.40000000E+01  0.00000000E+00
  7.90000000E+02  6.20000000E+01  0.00000000E+00
  7.90000000E+02  6.00000000E+01  0.00000000E+00
  7.90000000E+02  5.80000000E+01  0.00000000E+00
  7.90000000E+02  5.60000000E+01  0.00000000E+00
  7.90000000E+02  5.40000000E+01  0.00000000E+00
  7.90000000E+02  5.20000000E+01  0.00000000E+00
  7.90000000E+02  5.00000000E+01  0.00000000E+00
  7.90000000E+02  4.80000000E+01  0.00000000E+00
  7.90000000E+02  4.60000000E+01  0.00000000E+00
  7.90000000E+02  4.40000000E+01  0.00000000E+00
  7.90000000E+02  4.20000000E+01  0.00000000E+00
  7.90000000E+02  4.00000000E+01  0.00000000E+00
  7.90000000E+02  3.80000000E+01  0.00000000E+00
  7.90000000E+02  3.60000000E+01  0.00000000E+00
  7.90000000E+02  3.40000000E+01  0.00000000E+00
  7.90000000E+02  3.20000000E+01  0.00000000E+00
  7.90000000E+02  3.00000000E+01  0.00000000E+00
  7.90000000E+02  2.80000000E+01  0.00000000E+00
  7.90000000E+02  2.60000000E+01  0.00000000E+00
  7.90000000E+02  2.40000000E+01  0.00000000E+00
  7.90000000E+02  2.20000000E+01  0.00000000E+00
  7.90000000E+02  2.00000000E+01  0.00000000E+00
  7.90000000E+02  1.80000000E+01  0.00000000E+00
  7.90000000E+02  1.60000000E+01  0.00000000E+00
  7.90000000E+02  1.40000000E+01  0.00000000E+00
  7.90000000E+02  1.20000000E+01  0.00000000E+00
  7.90000000E+02  1.00000000E+01  0.00000000E+00
  7.90000000E+02  8.00000000E+00  0.00000000E+00
  7.90000000E+02  6.00000000E+00  0.00000000E+00
  7.90000000E+02  4.00000000E+00  0.00000000E+00
  7.90000000E+02  2.00000000E+00  0.00000000E+00
  7.90000000E+02 -3.33066907E-14  0.00000000E+00
  8.00000000E+02  1.00000000E+02  0.00000000E+00
  8.00000000E+02  9.80000000E+01  0.00000000E+00
  8.00000000E+02  9.60000000E+01  0.00000000E+00
  8.00000000E+02  9.40000000E+01  0.00000000E+00
  8.00000000E+02  9.20000000E+01  0.00000000E+00
  8.00000000E+02  9.00000000E+01  0.00000000E+00
  8.00000000E+02  8.80000000E+01  0.00000000E+00
  8.00000000E+02  8.60000000E+01  0.00000000E+00
  8.00000000E+02  8.40000000E+01  0.00000000E+00
  8.00000000E+02  8.20000000E+01  0.00000000E+00
  8.00000000E+02  8.00000000E+01  0.00000000E+00
  8.00000000E+02  7.80000000E+01  0.00000000E+00
  8.00000000E+02  7.60000000E+01  0.00000000E+00
  8.00000000E+02  7.40000000E+01  0.00000000E+00
  8.00000000E+02  7.20000000E+01  0.00000000E+00
  8.00000000E+02  7.00000000E+01  0.00000000E+00
  8.00000000E+02  6.80000000E+01  0.00000000E+00
  8.00000000E+02  6.60000000E+01  0.00000000E+00
  8.00000000E+02  6.40000000E+01  0.00000000E+00
  8.00000000E+02  6.20000000E+01  0.00000000E+00
  8.00000000E+02  6.00000000E+01  0.00000000E+00
  8.00000000E+02  5.80000000E+01  0.00000000E+00
  8.00000000E+02  5.60000000E+01  0.00000000E+00
  8.00000000E+02  5.40000000E+01  0.00000000E+00
  8.00000000E+02  5.20000000E+01  0.00000000E+00
  8.00000000E+02  5.00000000E+01  0.00000000E+00
  8.00000000E+02  4.80000000E+01  0.00000000E+00
  8.00000000E+02  4.60000000E+01  0.00000000E+00
  8.00000000E+02  4.40000000E+01  0.00000000E+00
  8.00000000E+02  4.20000000E+01  0.00000000E+00
  8.00000000E+02  4.00000000E+01  0.00000000E+00
  8.00000000E+02  3.80000000E+01  0.00000000E+00
  8.00000000E+02  3.60000000E+01  0.00000000E+00
  8.00000000E+02  3.40000000E+01  0.00000000E+00
  8.00000000E+02  3.20000000E+01  0.00000000E+00
  8.00000000E+02  3.00000000E+01  0.00000000E+00
  8.00000000E+02  2.80000000E+01  0.00000000E+00
  8.00000000E+02  2.60000000E+01  0.00000000E+00
  8.00000000E+02  2.40000000E+01  0.00000000E+00
  8.00000000E+02  2.20000000E+01  0.00000000E+00
  8.00000000E+02  2.00000000E+01  0.00000000E+00
  8.00000000E+02  1.80000000E+01  0.00000000E+00
  8.00000000E+02  1.60000000E+01  0.00000000E+00
  8.00000000E+02  1.40000000E+01  0.00000000E+00
  8.00000000E+02  1.20000000E+01  0.00000000E+00
  8.00000000E+02  1.00000000E+01  0.00000000E+00
  8.00000000E+02  8.00000000E+00  0.00000000E+00
  8.00000000E+02  6.00000000E+00  0.00000000E+00
  8.00000000E+02  4.00000000E+00  0.00000000E+00
  8.00000000E+02  2.00000000E+00  0.00000000E+00
  8.00000000E+02 -3.33066907E-14  0.00000000E+00
  8.10000000E+02  1.00000000E+02  0.00000000E+00
  8.10000000E+02  9.80000000E+01  0.00000000E+00
  8.10000000E+02  9.60000000E+01  0.00000000E+00
  8.10000000E+02  9.40000000E+01  0.00000000E+00
  8.10000000E+02  9.20000000E+01  0.00000000E+00
  8.10000000E+02  9.00000000E+01  0.00000000E+00
  8.10000000E+02  8.80000000E+01  0.00000000E+00
  8.10000000E+02  8.60000000E+01  0.00000000E+00
  8.10000000E+02  8.40000000E+01  0.00000000E+00
  8.10000000E+02  8.20000000E+01  0.00000000E+00
  8.10000000E+02  8.00000000E+01  0.00000000E+00
  8.10000000E+02  7.80000000E+01  0.00000000E+00
  8.10000000E+02  7.60000000E+01  0.00000000E+00
  8.10000000E+02  7.40000000E+01  0.00000000E+00
  8.10000000E+02  7.20000000E+01  0.00000000E+00
  8.10000000E+02  7.00000000E+01  0.00000000E+00
  8.10000000E+02  6.80000000E+01  0.00000000E+00
  8.10000000E+02  6.60000000E+01  0.00000000E+00
  8.10000000E+02  6.40000000E+01  0.00000000E+00
  8.10000000E+02  6.20000000E+01  0.00000000E+00
  8.10000000E+02  6.00000000E+01  0.00000000E+00
  8.10000000E+02  5.80000000E+01  0.00000000E+00
  8.10000000E+02  5.60000000E+01  0.00000000E+00
  8.10000000E+02  5.40000000E+01  0.00000000E+00
  8.10000000E+02  5.20000000E+01  0.00000000E+00
  8.10000000E+02  5.00000000E+01  0.00000000E+00
  8.10000000E+02  4.80000000E+01  0.00000000E+00
  8.10000000E+02  4.60000000E+01  0.00000000E+00
  8.10000000E+02  4.40000000E+01  0.00000000E+00
  8.10000000E+02  4.20000000E+01  0.00000000E+00
  8.10000000E+02  4.00000000E+01  0.00000000E+00
  8.10000000E+02  3.80000000E+01  0.00000000E+00
  8.10000000E+02  3.60000000E+01  0.00000000E+00
  8.10000000E+02  3.40000000E+01  0.00000000E+00
  8.10000000E+02  3.20000000E+01  0.00000000E+00
  8.10000000E+02  3.00000000E+01  0.00000000E+00
  8.10000000E+02  2.80000000E+01  0.00000000E+00
  8.10000000E+02  2.60000000E+01  0.00000000E+00
  8.10000000E+02  2.40000000E+01  0.00000000E+00
  8.10000000E+02  2.20000000E+01  0.00000000E+00
  8.10000000E+02  2.00000000E+01  0.00000000E+00
  8.10000000E+02  1.80000000E+01  0.00000000E+00
  8.10000000E+02  1.60000000E+01  0.00000000E+00
  8.10000000E+02  1.40000000E+01  0.00000000E+00
  8.10000000E+02  1.20000000E+01  0.00000000E+00
  8.10000000E+02  1.00000000E+01  0.00000000E+00
  8.10000000E+02  8.00000000E+00  0.00000000E+00
  8.10000000E+02  6.00000000E+00  0.00000000E+00
  8.10000000E+02  4.00000000E+00  0.00000000E+00
  8.10000000E+02  2.00000000E+00  0.00000000E+00
  8.10000000E+02 -3.33066907E-14  0.00000000E+00
  8.20000000E+02  1.00000000E+02  0.00000000E+00
  8.20000000E+02  9.80000000E+01  0.00000000E+00
  8.20000000E+02  9.60000000E+01  0.00000000E+00
  8.20000000E+02  9.40000000E+01  0.00000000E+00
  8.20000000E+02  9.20000000E+01  0.00000000E+00
  8.20000000E+02  9.00000000E+01  0.00000000E+00
  8.20000000E+02  8.80000000E+01  0.00000000E+00
  8.20000000E+02  8.60000000E+01  0.00000000E+00
  8.20000000E+02  8.40000000E+01  0.00000000E+00
  8.20000000E+02  8.20000000E+01  0.00000000E+00
  8.20000000E+02  8.00000000E+01  0.00000000E+00
  8.20000000E+02  7.80000000E+01  0.00000000E+00
  8.20000000E+02  7.60000000E+01  0.00000000E+00
  8.20000000E+02  7.40000000E+01  0.00000000E+00
  8.20000000E+02  7.20000000E+01  0.00000000E+00
  8.20000000E+02  7.00000000E+01  0.00000000E+00
  8.20000000E+02  6.80000000E+01  0.00000000E+00
  8.20000000E+02  6.60000000E+01  0.00000000E+00
  8.20000000E+02  6.40000000E+01  0.00000000E+00
  8.20000000E+02  6.20000000E+01  0.00000000E+00
  8.20000000E+02  6.00000000E+01  0.00000000E+00
  8.20000000E+02  5.80000000E+01  0.00000000E+00
  8.20000000E+02  5.60000000E+01  0.00000000E+00
  8.20000000E+02  5.40000000E+01  0.00000000E+00
  8.20000000E+02  5.20000000E+01  0.00000000E+00
  8.20000000E+02  5.00000000E+01  0.00000000E+00
  8.20000000E+02  4.80000000E+01  0.00000000E+00
  8.20000000E+02  4.60000000E+01  0.00000000E+00
  8.20000000E+02  4.40000000E+01  0.00000000E+00
  8.20000000E+02  4.20000000E+01  0.00000000E+00
  8.20000000E+02  4.00000000E+01  0.00000000E+00
  8.20000000E+02  3.80000000E+01  0.00000000E+00
  8.20000000E+02  3.60000000E+01  0.00000000E+00
  8.20000000E+02  3.40000000E+01  0.00000000E+00
  8.20000000E+02  3.20000000E+01  0.00000000E+00
  8.20000000E+02  3.00000000E+01  0.00000000E+00
  8.20000000E+02  2.80000000E+01  0.00000000E+00
  8.20000000E+02  2.60000000E+01  0.00000000E+00
  8.20000000E+02  2.40000000E+01  0.00000000E+00
  8.20000000E+02  2.20000000E+01  0.00000000E+00
  8.20000000E+02  2.00000000E+01  0.00000000E+00
  8.20000000E+02  1.80000000E+01  0.00000000E+00
  8.20000000E+02  1.60000000E+01  0.00000000E+00
  8.20000000E+02  1.40000000E+01  0.00000000E+00
  8.20000000E+02  1.20000000E+01  0.00000000E+00
  8.20000000E+02  1.00000000E+01  0.00000000E+00
  8.20000000E+02  8.00000000E+00  0.00000000E+00
  8.20000000E+02  6.00000000E+00  0.00000000E+00
  8.20000000E+02  4.00000000E+00  0.00000000E+00
  8.20000000E+02  2.00000000E+00  0.00000000E+00
  8.20000000E+02 -3.33066907E-14  0.00000000E+00
  8.30000000E+02  1.00000000E+02  0.00000000E+00
  8.30000000E+02  9.80000000E+01  0.00000000E+00
  8.30000000E+02  9.60000000E+01  0.00000000E+00
  8.30000000E+02  9.40000000E+01  0.00000000E+00
  8.30000000E+02  9.20000000E+01  0.00000000E+00
  8.30000000E+02  9.00000000E+01  0.00000000E+00
  8.30000000E+02  8.80000000E+01  0.00000000E+00
  8.30000000E+02  8.60000000E+01  0.00000000E+00
  8.30000000E+02  8.40000000E+01  0.00000000E+00
  8.30000000E+02  8.20000000E+01  0.00000000E+00
  8.30000000E+02  8.00000000E+01  0.00000000E+00
  8.30000000E+02  7.80000000E+01  0.00000000E+00
  8.30000000E+02  7.60000000E+01  0.00000000E+00
  8.30000000E+02  7.40000000E+01  0.00000000E+00
  8.30000000E+02  7.20000000E+01  0.00000000E+00
  8.30000000E+02  7.00000000E+01  0.00000000E+00
  8.30000000E+02  6.80000000E+01  0.00000000E+00
  8.30000000E+02  6.60000000E+01  0.00000000E+00
  8.30000000E+02  6.40000000E+01  0.00000000E+00
  8.30000000E+02  6.20000000E+01  0.00000000E+00
  8.30000000E+02  6.00000000E+01  0.00000000E+00
  8.30000000E+02  5.80000000E+01  0.00000000E+00
  8.30000000E+02  5.60000000E+01  0.00000000E+00
  8.30000000E+02  5.40000000E+01  0.00000000E+00
  8.30000000E+02  5.20000000E+01  0.00000000E+00
  8.30000000E+02  5.00000000E+01  0.00000000E+00
  8.30000000E+02  4.80000000E+01  0.00000000E+00
  8.30000000E+02  4.60000000E+01  0.00000000E+00
  8.30000000E+02  4.40000000E+01  0.00000000E+00
  8.30000000E+02  4.20000000E+01  0.00000000E+00
  8.30000000E+02  4.00000000E+01  0.00000000E+00
  8.30000000E+02  3.80000000E+01  0.00000000E+00
  8.30000000E+02  3.60000000E+01  0.00000000E+00
  8.30000000E+02  3.40000000E+01  0.00000000E+00
  8.30000000E+02  3.20000000E+01  0.00000000E+00
  8.30000000E+02  3.00000000E+01  0.00000000E+00
  8.30000000E+02  2.80000000E+01  0.00000000E+00
  8.30000000E+02  2.60000000E+01  0.00000000E+00
  8.30000000E+02  2.40000000E+01  0.00000000E+00
  8.30000000E+02  2.20000000E+01  0.00000000E+00
  8.30000000E+02  2.00000000E+01  0.00000000E+00
  8.30000000E+02  1.80000000E+01  0.00000000E+00
  8.30000000E+02  1.60000000E+01  0.00000000E+00
  8.30000000E+02  1.40000000E+01  0.00000000E+00
  8.30000000E+02  1.20000000E+01  0.00000000E+00
  8.30000000E+02  1.00000000E+01  0.00000000E+00
  8.30000000E+02  8.00000000E+00  0.00000000E+00
  8.30000000E+02  6.00000000E+00  0.00000000E+00
  8.30000000E+02  4.00000000E+00  0.00000000E+00
  8.30000000E+02  2.00000000E+00  0.00000000E+00
  8.30000000E+02 -3.33066907E-14  0.00000000E+00
  8.40000000E+02  1.00000000E+02  0.00000000E+00
  8.40000000E+02  9.80000000E+01  0.00000000E+00
  8.40000000E+02  9.60000000E+01  0.00000000E+00
  8.40000000E+02  9.40000000E+01  0.00000000E+00
  8.40000000E+02  9.20000000E+01  0.00000000E+00
  8.40000000E+02  9.00000000E+01  0.00000000E+00
  8.40000000E+02  8.80000000E+01  0.00000000E+00
  8.40000000E+02  8.60000000E+01  0.00000000E+00
  8.40000000E+02  8.40000000E+01  0.00000000E+00
  8.40000000E+02  8.20000000E+01  0.00000000E+00
  8.40000000E+02  8.00000000E+01  0.00000000E+00
  8.40000000E+02  7.80000000E+01  0.00000000E+00
  8.40000000E+02  7.60000000E+01  0.00000000E+00
  8.40000000E+02  7.40000000E+01  0.00000000E+00
  8.40000000E+02  7.20000000E+01  0.00000000E+00
  8.40000000E+02  7.00000000E+01  0.00000000E+00
  8.40000000E+02  6.80000000E+01  0.00000000E+00
  8.40000000E+02  6.60000000E+01  0.00000000E+00
  8.40000000E+02  6.40000000E+01  0.00000000E+00
  8.40000000E+02  6.20000000E+01  0.00000000E+00
  8.40000000E+02  6.00000000E+01  0.00000000E+00
  8.40000000E+02  5.80000000E+01  0.00000000E+00
  8.40000000E+02  5.60000000E+01  0.00000000E+00
  8.40000000E+02  5.40000000E+01  0.00000000E+00
  8.40000000E+02  5.20000000E+01  0.00000000E+00
  8.40000000E+02  5.00000000E+01  0.00000000E+00
  8.40000000E+02  4.80000000E+01  0.00000000E+00
  8.40000000E+02  4.60000000E+01  0.00000000E+00
  8.40000000E+02  4.40000000E+01  0.00000000E+00
  8.40000000E+02  4.20000000E+01  0.00000000E+00
  8.40000000E+02  4.00000000E+01  0.00000000E+00
  8.40000000E+02  3.80000000E+01  0.00000000E+00
  8.40000000E+02  3.60000000E+01  0.00000000E+00
  8.40000000E+02  3.40000000E+01  0.00000000E+00
  8.40000000E+02  3.20000000E+01  0.00000000E+00
  8.40000000E+02  3.00000000E+01  0.00000000E+00
  8.40000000E+02  2.80000000E+01  0.00000000E+00
  8.40000000E+02  2.60000000E+01  0.00000000E+00
  8.40000000E+02  2.40000000E+01  0.00000000E+00
  8.40000000E+02  2.20000000E+01  0.00000000E+00
  8.40000000E+02  2.00000000E+01  0.00000000E+00
  8.40000000E+02  1.80000000E+01  0.00000000E+00
  8.40000000E+02  1.60000000E+01  0.00000000E+00
  8.40000000E+02  1.40000000E+01  0.00000000E+00
  8.40000000E+02  1.20000000E+01  0.00000000E+00
  8.40000000E+02  1.00000000E+01  0.00000000E+00
  8.40000000E+02  8.00000000E+00  0.00000000E+00
  8.40000000E+02  6.00000000E+00  0.00000000E+00
  8.40000000E+02  4.00000000E+00  0.00000000E+00
  8.40000000E+02  2.00000000E+00  0.00000000E+00
  8.40000000E+02 -3.33066907E-14  0.00000000E+00
  8.50000000E+02  1.00000000E+02  0.00000000E+00
  8.50000000E+02  9.80000000E+01  0.00000000E+00
  8.50000000E+02  9.60000000E+01  0.00000000E+00
  8.50000000E+02  9.40000000E+01  0.00000000E+00
  8.50000000E+02  9.20000000E+01  0.00000000E+00
  8.50000000E+02  9.00000000E+01  0.00000000E+00
  8.50000000E+02  8.80000000E+01  0.00000000E+00
  8.50000000E+02  8.60000000E+01  0.00000000E+00
  8.50000000E+02  8.40000000E+01  0.00000000E+00
  8.50000000E+02  8.20000000E+01  0.00000000E+00
  8.50000000E+02  8.00000000E+01  0.00000000E+00
  8.50000000E+02  7.80000000E+01  0.00000000E+00
  8.50000000E+02  7.60000000E+01  0.00000000E+00
  8.50000000E+02  7.40000000E+01  0.00000000E+00
  8.50000000E+02  7.20000000E+01  0.00000000E+00
  8.50000000E+02  7.00000000E+01  0.00000000E+00
  8.50000000E+02  6.80000000E+01  0.00000000E+00
  8.50000000E+02  6.60000000E+01  0.00000000E+00
  8.50000000E+02  6.40000000E+01  0.00000000E+00
  8.50000000E+02  6.20000000E+01  0.00000000E+00
  8.50000000E+02  6.00000000E+01  0.00000000E+00
  8.50000000E+02  5.80000000E+01  0.00000000E+00
  8.50000000E+02  5.60000000E+01  0.00000000E+00
  8.50000000E+02  5.40000000E+01  0.00000000E+00
  8.50000000E+02  5.20000000E+01  0.00000000E+00
  8.50000000E+02  5.00000000E+01  0.00000000E+00
  8.50000000E+02  4.80000000E+01  0.00000000E+00
  8.50000000E+02  4.60000000E+01  0.00000000E+00
  8.50000000E+02  4.40000000E+01  0.00000000E+00
  8.50000000E+02  4.20000000E+01  0.00000000E+00
  8.50000000E+02  4.00000000E+01  0.00000000E+00
  8.50000000E+02  3.80000000E+01  0.00000000E+00
  8.50000000E+02  3.60000000E+01  0.00000000E+00
  8.50000000E+02  3.40000000E+01  0.00000000E+00
  8.50000000E+02  3.20000000E+01  0.00000000E+00
  8.50000000E+02  3.00000000E+01  0.00000000E+00
  8.50000000E+02  2.80000000E+01  0.00000000E+00
  8.50000000E+02  2.60000000E+01  0.00000000E+00
  8.50000000E+02  2.40000000E+01  0.00000000E+00
  8.50000000E+02  2.20000000E+01  0.00000000E+00
  8.50000000E+02  2.00000000E+01  0.00000000E+00
  8.50000000E+02  1.80000000E+01  0.00000000E+00
  8.50000000E+02  1.60000000E+01  0.00000000E+00
  8.50000000E+02  1.40000000E+01  0.00000000E+00
  8.50000000E+02  1.20000000E+01  0.00000000E+00
  8.50000000E+02  1.00000000E+01  0.00000000E+00
  8.50000000E+02  8.00000000E+00  0.00000000E+00
  8.50000000E+02  6.00000000E+00  0.00000000E+00
  8.50000000E+02  4.00000000E+00  0.00000000E+00
  8.50000000E+02  2.00000000E+00  0.00000000E+00
  8.50000000E+02 -3.33066907E-14  0.00000000E+00
  8.60000000E+02  1.00000000E+02  0.00000000E+00
  8.60000000E+02  9.80000000E+01  0.00000000E+00
  8.60000000E+02  9.60000000E+01  0.00000000E+00
  8.60000000E+02  9.40000000E+01  0.00000000E+00
  8.60000000E+02  9.20000000E+01  0.00000000E+00
  8.60000000E+02  9.00000000E+01  0.00000000E+00
  8.60000000E+02  8.80000000E+01  0.00000000E+00
  8.60000000E+02  8.60000000E+01  0.00000000E+00
  8.60000000E+02  8.40000000E+01  0.00000000E+00
  8.60000000E+02  8.20000000E+01  0.00000000E+00
  8.60000000E+02  8.00000000E+01  0.00000000E+00
  8.60000000E+02  7.80000000E+01  0.00000000E+00
  8.60000000E+02  7.60000000E+01  0.00000000E+00
  8.60000000E+02  7.40000000E+01  0.00000000E+00
  8.60000000E+02  7.20000000E+01  0.00000000E+00
  8.60000000E+02  7.00000000E+01  0.00000000E+00
  8.60000000E+02  6.80000000E+01  0.00000000E+00
  8.60000000E+02  6.60000000E+01  0.00000000E+00
  8.60000000E+02  6.40000000E+01  0.00000000E+00
  8.60000000E+02  6.20000000E+01  0.00000000E+00
  8.60000000E+02  6.00000000E+01  0.00000000E+00
  8.60000000E+02  5.80000000E+01  0.00000000E+00
  8.60000000E+02  5.60000000E+01  0.00000000E+00
  8.60000000E+02  5.40000000E+01  0.00000000E+00
  8.60000000E+02  5.20000000E+01  0.00000000E+00
  8.60000000E+02  5.00000000E+01  0.00000000E+00
  8.60000000E+02  4.80000000E+01  0.00000000E+00
  8.60000000E+02  4.60000000E+01  0.00000000E+00
  8.60000000E+02  4.40000000E+01  0.00000000E+00
  8.60000000E+02  4.20000000E+01  0.00000000E+00
  8.60000000E+02  4.00000000E+01  0.00000000E+00
  8.60000000E+02  3.80000000E+01  0.00000000E+00
  8.60000000E+02  3.60000000E+01  0.00000000E+00
  8.60000000E+02  3.40000000E+01  0.00000000E+00
  8.60000000E+02  3.20000000E+01  0.00000000E+00
  8.60000000E+02  3.00000000E+01  0.00000000E+00
  8.60000000E+02  2.80000000E+01  0.00000000E+00
  8.60000000E+02  2.60000000E+01  0.00000000E+00
  8.60000000E+02  2.40000000E+01  0.00000000E+00
  8.60000000E+02  2.20000000E+01  0.00000000E+00
  8.60000000E+02  2.00000000E+01  0.00000000E+00
  8.60000000E+02  1.80000000E+01  0.00000000E+00
  8.60000000E+02  1.60000000E+01  0.00000000E+00
  8.60000000E+02  1.40000000E+01  0.00000000E+00
  8.60000000E+02  1.20000000E+01  0.00000000E+00
  8.60000000E+02  1.00000000E+01  0.00000000E+00
  8.60000000E+02  8.00000000E+00  0.00000000E+00
  8.60000000E+02  6.00000000E+00  0.00000000E+00
  8.60000000E+02  4.00000000E+00  0.00000000E+00
  8.60000000E+02  2.00000000E+00  0.00000000E+00
  8.60000000E+02 -3.33066907E-14  0.00000000E+00
  8.70000000E+02  1.00000000E+02  0.00000000E+00
  8.70000000E+02  9.80000000E+01  0.00000000E+00
  8.70000000E+02  9.60000000E+01  0.00000000E+00
  8.70000000E+02  9.40000000E+01  0.00000000E+00
  8.70000000E+02  9.20000000E+01  0.00000000E+00
  8.70000000E+02  9.00000000E+01  0.00000000E+00
  8.70000000E+02  8.80000000E+01  0.00000000E+00
  8.70000000E+02  8.60000000E+01  0.00000000E+00
  8.70000000E+02  8.40000000E+01  0.00000000E+00
  8.70000000E+02  8.20000000E+01  0.00000000E+00
  8.70000000E+02  8.00000000E+01  0.00000000E+00
  8.70000000E+02  7.80000000E+01  0.00000000E+00
  8.70000000E+02  7.60000000E+01  0.00000000E+00
  8.70000000E+02  7.40000000E+01  0.00000000E+00
  8.70000000E+02  7.20000000E+01  0.00000000E+00
  8.70000000E+02  7.00000000E+01  0.00000000E+00
  8.70000000E+02  6.80000000E+01  0.00000000E+00
  8.70000000E+02  6.60000000E+01  0.00000000E+00
  8.70000000E+02  6.40000000E+01  0.00000000E+00
  8.70000000E+02  6.20000000E+01  0.00000000E+00
  8.70000000E+02  6.00000000E+01  0.00000000E+00
  8.70000000E+02  5.80000000E+01  0.00000000E+00
  8.70000000E+02  5.60000000E+01  0.00000000E+00
  8.70000000E+02  5.40000000E+01  0.00000000E+00
  8.70000000E+02  5.20000000E+01  0.00000000E+00
  8.70000000E+02  5.00000000E+01  0.00000000E+00
  8.70000000E+02  4.80000000E+01  0.00000000E+00
  8.70000000E+02  4.60000000E+01  0.00000000E+00
  8.70000000E+02  4.40000000E+01  0.00000000E+00
  8.70000000E+02  4.20000000E+01  0.00000000E+00
  8.70000000E+02  4.00000000E+01  0.00000000E+00
  8.70000000E+02  3.80000000E+01  0.00000000E+00
  8.70000000E+02  3.60000000E+01  0.00000000E+00
  8.70000000E+02  3.40000000E+01  0.00000000E+00
  8.70000000E+02  3.20000000E+01  0.00000000E+00
  8.70000000E+02  3.00000000E+01  0.00000000E+00
  8.70000000E+02  2.80000000E+01  0.00000000E+00
  8.70000000E+02  2.60000000E+01  0.00000000E+00
  8.70000000E+02  2.40000000E+01  0.00000000E+00
  8.70000000E+02  2.20000000E+01  0.00000000E+00
  8.70000000E+02  2.00000000E+01  0.00000000E+00
  8.70000000E+02  1.80000000E+01  0.00000000E+00
  8.70000000E+02  1.60000000E+01  0.00000000E+00
  8.70000000E+02  1.40000000E+01  0.00000000E+00
  8.70000000E+02  1.20000000E+01  0.00000000E+00
  8.70000000E+02  1.00000000E+01  0.00000000E+00
  8.70000000E+02  8.00000000E+00  0.00000000E+00
  8.70000000E+02  6.00000000E+00  0.00000000E+00
  8.70000000E+02  4.00000000E+00  0.00000000E+00
  8.70000000E+02  2.00000000E+00  0.00000000E+00
  8.70000000E+02 -3.33066907E-14  0.00000000E+00
  8.80000000E+02  1.00000000E+02  0.00000000E+00
  8.80000000E+02  9.80000000E+01  0.00000000E+00
  8.80000000E+02  9.60000000E+01  0.00000000E+00
  8.80000000E+02  9.40000000E+01  0.00000000E+00
  8.80000000E+02  9.20000000E+01  0.00000000E+00
  8.80000000E+02  9.00000000E+01  0.00000000E+00
  8.80000000E+02  8.80000000E+01  0.00000000E+00
  8.80000000E+02  8.60000000E+01  0.00000000E+00
  8.80000000E+02  8.40000000E+01  0.00000000E+00
  8.80000000E+02  8.20000000E+01  0.00000000E+00
  8.80000000E+02  8.00000000E+01  0.00000000E+00
  8.80000000E+02  7.80000000E+01  0.00000000E+00
  8.80000000E+02  7.60000000E+01  0.00000000E+00
  8.80000000E+02  7.40000000E+01  0.00000000E+00
  8.80000000E+02  7.20000000E+01  0.00000000E+00
  8.80000000E+02  7.00000000E+01  0.00000000E+00
  8.80000000E+02  6.80000000E+01  0.00000000E+00
  8.80000000E+02  6.60000000E+01  0.00000000E+00
  8.80000000E+02  6.40000000E+01  0.00000000E+00
  8.80000000E+02  6.20000000E+01  0.00000000E+00
  8.80000000E+02  6.00000000E+01  0.00000000E+00
  8.80000000E+02  5.80000000E+01  0.00000000E+00
  8.80000000E+02  5.60000000E+01  0.00000000E+00
  8.80000000E+02  5.40000000E+01  0.00000000E+00
  8.80000000E+02  5.20000000E+01  0.00000000E+00
  8.80000000E+02  5.00000000E+01  0.00000000E+00
  8.80000000E+02  4.80000000E+01  0.00000000E+00
  8.80000000E+02  4.60000000E+01  0.00000000E+00
  8.80000000E+02  4.40000000E+01  0.00000000E+00
  8.80000000E+02  4.20000000E+01  0.00000000E+00
  8.80000000E+02  4.00000000E+01  0.00000000E+00
  8.80000000E+02  3.80000000E+01  0.00000000E+00
  8.80000000E+02  3.60000000E+01  0.00000000E+00
  8.80000000E+02  3.40000000E+01  0.00000000E+00
  8.80000000E+02  3.20000000E+01  0.00000000E+00
  8.80000000E+02  3.00000000E+01  0.00000000E+00
  8.80000000E+02  2.80000000E+01  0.00000000E+00
  8.80000000E+02  2.60000000E+01  0.00000000E+00
  8.80000000E+02  2.40000000E+01  0.00000000E+00
  8.80000000E+02  2.20000000E+01  0.00000000E+00
  8.80000000E+02  2.00000000E+01  0.00000000E+00
  8.80000000E+02  1.80000000E+01  0.00000000E+00
  8.80000000E+02  1.60000000E+01  0.00000000E+00
  8.80000000E+02  1.40000000E+01  0.00000000E+00
  8.80000000E+02  1.20000000E+01  0.00000000E+00
  8.80000000E+02  1.00000000E+01  0.00000000E+00
  8.80000000E+02  8.00000000E+00  0.00000000E+00
  8.80000000E+02  6.00000000E+00  0.00000000E+00
  8.80000000E+02  4.00000000E+00  0.00000000E+00
  8.80000000E+02  2.00000000E+00  0.00000000E+00
  8.80000000E+02 -3.33066907E-14  0.00000000E+00
  8.90000000E+02  1.00000000E+02  0.00000000E+00
  8.90000000E+02  9.80000000E+01  0.00000000E+00
  8.90000000E+02  9.60000000E+01  0.00000000E+00
  8.90000000E+02  9.40000000E+01  0.00000000E+00
  8.90000000E+02  9.20000000E+01  0.00000000E+00
  8.90000000E+02  9.00000000E+01  0.00000000E+00
  8.90000000E+02  8.80000000E+01  0.00000000E+00
  8.90000000E+02  8.60000000E+01  0.00000000E+00
  8.90000000E+02  8.40000000E+01  0.00000000E+00
  8.90000000E+02  8.20000000E+01  0.00000000E+00
  8.90000000E+02  8.00000000E+01  0.00000000E+00
  8.90000000E+02  7.80000000E+01  0.00000000E+00
  8.90000000E+02  7.60000000E+01  0.00000000E+00
  8.90000000E+02  7.40000000E+01  0.00000000E+00
  8.90000000E+02  7.20000000E+01  0.00000000E+00
  8.90000000E+02  7.00000000E+01  0.00000000E+00
  8.90000000E+02  6.80000000E+01  0.00000000E+00
  8.90000000E+02  6.60000000E+01  0.00000000E+00
  8.90000000E+02  6.40000000E+01  0.00000000E+00
  8.90000000E+02  6.20000000E+01  0.00000000E+00
  8.90000000E+02  6.00000000E+01  0.00000000E+00
  8.90000000E+02  5.80000000E+01  0.00000000E+00
  8.90000000E+02  5.60000000E+01  0.00000000E+00
  8.90000000E+02  5.40000000E+01  0.00000000E+00
  8.90000000E+02  5.20000000E+01  0.00000000E+00
  8.90000000E+02  5.00000000E+01  0.00000000E+00
  8.90000000E+02  4.80000000E+01  0.00000000E+00
  8.90000000E+02  4.60000000E+01  0.00000000E+00
  8.90000000E+02  4.40000000E+01  0.00000000E+00
  8.90000000E+02  4.20000000E+01  0.00000000E+00
  8.90000000E+02  4.00000000E+01  0.00000000E+00
  8.90000000E+02  3.80000000E+01  0.00000000E+00
  8.90000000E+02  3.60000000E+01  0.00000000E+00
  8.90000000E+02  3.40000000E+01  0.00000000E+00
  8.90000000E+02  3.20000000E+01  0.00000000E+00
  8.90000000E+02  3.00000000E+01  0.00000000E+00
  8.90000000E+02  2.80000000E+01  0.00000000E+00
  8.90000000E+02  2.60000000E+01  0.00000000E+00
  8.90000000E+02  2.40000000E+01  0.00000000E+00
  8.90000000E+02  2.20000000E+01  0.00000000E+00
  8.90000000E+02  2.00000000E+01  0.00000000E+00
  8.90000000E+02  1.80000000E+01  0.00000000E+00
  8.90000000E+02  1.60000000E+01  0.00000000E+00
  8.90000000E+02  1.40000000E+01  0.00000000E+00
  8.90000000E+02  1.20000000E+01  0.00000000E+00
  8.90000000E+02  1.00000000E+01  0.00000000E+00
  8.90000000E+02  8.00000000E+00  0.00000000E+00
  8.90000000E+02  6.00000000E+00  0.00000000E+00
  8.90000000E+02  4.00000000E+00  0.00000000E+00
  8.90000000E+02  2.00000000E+00  0.00000000E+00
  8.90000000E+02 -3.33066907E-14  0.00000000E+00
  9.00000000E+02  1.00000000E+02  0.00000000E+00
  9.00000000E+02  9.80000000E+01  0.00000000E+00
  9.00000000E+02  9.60000000E+01  0.00000000E+00
  9.00000000E+02  9.40000000E+01  0.00000000E+00
  9.00000000E+02  9.20000000E+01  0.00000000E+00
  9.00000000E+02  9.00000000E+01  0.00000000E+00
  9.00000000E+02  8.80000000E+01  0.00000000E+00
  9.00000000E+02  8.60000000E+01  0.00000000E+00
  9.00000000E+02  8.40000000E+01  0.00000000E+00
  9.00000000E+02  8.20000000E+01  0.00000000E+00
  9.00000000E+02  8.00000000E+01  0.00000000E+00
  9.00000000E+02  7.80000000E+01  0.00000000E+00
  9.00000000E+02  7.60000000E+01  0.00000000E+00
  9.00000000E+02  7.40000000E+01  0.00000000E+00
  9.00000000E+02  7.20000000E+01  0.00000000E+00
  9.00000000E+02  7.00000000E+01  0.00000000E+00
  9.00000000E+02  6.80000000E+01  0.00000000E+00
  9.00000000E+02  6.60000000E+01  0.00000000E+00
  9.00000000E+02  6.40000000E+01  0.00000000E+00
  9.00000000E+02  6.20000000E+01  0.00000000E+00
  9.00000000E+02  6.00000000E+01  0.00000000E+00
  9.00000000E+02  5.80000000E+01  0.00000000E+00
  9.00000000E+02  5.60000000E+01  0.00000000E+00
  9.00000000E+02  5.40000000E+01  0.00000000E+00
  9.00000000E+02  5.20000000E+01  0.00000000E+00
  9.00000000E+02  5.00000000E+01  0.00000000E+00
  9.00000000E+02  4.80000000E+01  0.00000000E+00
  9.00000000E+02  4.60000000E+01  0.00000000E+00
  9.00000000E+02  4.40000000E+01  0.00000000E+00
  9.00000000E+02  4.20000000E+01  0.00000000E+00
  9.00000000E+02  4.00000000E+01  0.00000000E+00
  9.00000000E+02  3.80000000E+01  0.00000000E+00
  9.00000000E+02  3.60000000E+01  0.00000000E+00
  9.00000000E+02  3.40000000E+01  0.00000000E+00
  9.00000000E+02  3.20000000E+01  0.00000000E+00
  9.00000000E+02  3.00000000E+01  0.00000000E+00
  9.00000000E+02  2.80000000E+01  0.00000000E+00
  9.00000000E+02  2.60000000E+01  0.00000000E+00
  9.00000000E+02  2.40000000E+01  0.00000000E+00
  9.00000000E+02  2.20000000E+01  0.00000000E+00
  9.00000000E+02  2.00000000E+01  0.00000000E+00
  9.00000000E+02  1.80000000E+01  0.00000000E+00
  9.00000000E+02  1.60000000E+01  0.00000000E+00
  9.00000000E+02  1.40000000E+01  0.00000000E+00
  9.00000000E+02  1.20000000E+01  0.00000000E+00
  9.00000000E+02  1.00000000E+01  0.00000000E+00
  9.00000000E+02  8.00000000E+00  0.00000000E+00
  9.00000000E+02  6.00000000E+00  0.00000000E+00
  9.00000000E+02  4.00000000E+00  0.00000000E+00
  9.00000000E+02  2.00000000E+00  0.00000000E+00
  9.00000000E+02 -3.33066907E-14  0.00000000E+00
  9.10000000E+02  1.00000000E+02  0.00000000E+00
  9.10000000E+02  9.80000000E+01  0.00000000E+00
  9.10000000E+02  9.60000000E+01  0.00000000E+00
  9.10000000E+02  9.40000000E+01  0.00000000E+00
  9.10000000E+02  9.20000000E+01  0.00000000E+00
  9.10000000E+02  9.00000000E+01  0.00000000E+00
  9.10000000E+02  8.80000000E+01  0.00000000E+00
  9.10000000E+02  8.60000000E+01  0.00000000E+00
  9.10000000E+02  8.40000000E+01  0.00000000E+00
  9.10000000E+02  8.20000000E+01  0.00000000E+00
  9.10000000E+02  8.00000000E+01  0.00000000E+00
  9.10000000E+02  7.80000000E+01  0.00000000E+00
  9.10000000E+02  7.60000000E+01  0.00000000E+00
  9.10000000E+02  7.40000000E+01  0.00000000E+00
  9.10000000E+02  7.20000000E+01  0.00000000E+00
  9.10000000E+02  7.00000000E+01  0.00000000E+00
  9.10000000E+02  6.80000000E+01  0.00000000E+00
  9.10000000E+02  6.60000000E+01  0.00000000E+00
  9.10000000E+02  6.40000000E+01  0.00000000E+00
  9.10000000E+02  6.20000000E+01  0.00000000E+00
  9.10000000E+02  6.00000000E+01  0.00000000E+00
  9.10000000E+02  5.80000000E+01  0.00000000E+00
  9.10000000E+02  5.60000000E+01  0.00000000E+00
  9.10000000E+02  5.40000000E+01  0.00000000E+00
  9.10000000E+02  5.20000000E+01  0.00000000E+00
  9.10000000E+02  5.00000000E+01  0.00000000E+00
  9.10000000E+02  4.80000000E+01  0.00000000E+00
  9.10000000E+02  4.60000000E+01  0.00000000E+00
  9.10000000E+02  4.40000000E+01  0.00000000E+00
  9.10000000E+02  4.20000000E+01  0.00000000E+00
  9.10000000E+02  4.00000000E+01  0.00000000E+00
  9.10000000E+02  3.80000000E+01  0.00000000E+00
  9.10000000E+02  3.60000000E+01  0.00000000E+00
  9.10000000E+02  3.40000000E+01  0.00000000E+00
  9.10000000E+02  3.20000000E+01  0.00000000E+00
  9.10000000E+02  3.00000000E+01  0.00000000E+00
  9.10000000E+02  2.80000000E+01  0.00000000E+00
  9.10000000E+02  2.60000000E+01  0.00000000E+00
  9.10000000E+02  2.40000000E+01  0.00000000E+00
  9.10000000E+02  2.20000000E+01  0.00000000E+00
  9.10000000E+02  2.00000000E+01  0.00000000E+00
  9.10000000E+02  1.80000000E+01  0.00000000E+00
  9.10000000E+02  1.60000000E+01  0.00000000E+00
  9.10000000E+02  1.40000000E+01  0.00000000E+00
  9.10000000E+02  1.20000000E+01  0.00000000E+00
  9.10000000E+02  1.00000000E+01  0.00000000E+00
  9.10000000E+02  8.00000000E+00  0.00000000E+00
  9.10000000E+02  6.00000000E+00  0.00000000E+00
  9.10000000E+02  4.00000000E+00  0.00000000E+00
  9.10000000E+02  2.00000000E+00  0.00000000E+00
  9.10000000E+02 -3.33066907E-14  0.00000000E+00
  9.20000000E+02  1.00000000E+02  0.00000000E+00
  9.20000000E+02  9.80000000E+01  0.00000000E+00
  9.20000000E+02  9.60000000E+01  0.00000000E+00
  9.20000000E+02  9.40000000E+01  0.00000000E+00
  9.20000000E+02  9.20000000E+01  0.00000000E+00
  9.20000000E+02  9.00000000E+01  0.00000000E+00
  9.20000000E+02  8.80000000E+01  0.00000000E+00
  9.20000000E+02  8.60000000E+01  0.00000000E+00
  9.20000000E+02  8.40000000E+01  0.00000000E+00
  9.20000000E+02  8.20000000E+01  0.00000000E+00
  9.20000000E+02  8.00000000E+01  0.00000000E+00
  9.20000000E+02  7.80000000E+01  0.00000000E+00
  9.20000000E+02  7.60000000E+01  0.00000000E+00
  9.20000000E+02  7.40000000E+01  0.00000000E+00
  9.20000000E+02  7.20000000E+01  0.00000000E+00
  9.20000000E+02  7.00000000E+01  0.00000000E+00
  9.20000000E+02  6.80000000E+01  0.00000000E+00
  9.20000000E+02  6.60000000E+01  0.00000000E+00
  9.20000000E+02  6.40000000E+01  0.00000000E+00
  9.20000000E+02  6.20000000E+01  0.00000000E+00
  9.20000000E+02  6.00000000E+01  0.00000000E+00
  9.20000000E+02  5.80000000E+01  0.00000000E+00
  9.20000000E+02  5.60000000E+01  0.00000000E+00
  9.20000000E+02  5.40000000E+01  0.00000000E+00
  9.20000000E+02  5.20000000E+01  0.00000000E+00
  9.20000000E+02  5.00000000E+01  0.00000000E+00
  9.20000000E+02  4.80000000E+01  0.00000000E+00
  9.20000000E+02  4.60000000E+01  0.00000000E+00
  9.20000000E+02  4.40000000E+01  0.00000000E+00
  9.20000000E+02  4.20000000E+01  0.00000000E+00
  9.20000000E+02  4.00000000E+01  0.00000000E+00
  9.20000000E+02  3.80000000E+01  0.00000000E+00
  9.20000000E+02  3.60000000E+01  0.00000000E+00
  9.20000000E+02  3.40000000E+01  0.00000000E+00
  9.20000000E+02  3.20000000E+01  0.00000000E+00
  9.20000000E+02  3.00000000E+01  0.00000000E+00
  9.20000000E+02  2.80000000E+01  0.00000000E+00
  9.20000000E+02  2.60000000E+01  0.00000000E+00
  9.20000000E+02  2.40000000E+01  0.00000000E+00
  9.20000000E+02  2.20000000E+01  0.00000000E+00
  9.20000000E+02  2.00000000E+01  0.00000000E+00
  9.20000000E+02  1.80000000E+01  0.00000000E+00
  9.20000000E+02  1.60000000E+01  0.00000000E+00
  9.20000000E+02  1.40000000E+01  0.00000000E+00
  9.20000000E+02  1.20000000E+01  0.00000000E+00
  9.20000000E+02  1.00000000E+01  0.00000000E+00
  9.20000000E+02  8.00000000E+00  0.00000000E+00
  9.20000000E+02  6.00000000E+00  0.00000000E+00
  9.20000000E+02  4.00000000E+00  0.00000000E+00
  9.20000000E+02  2.00000000E+00  0.00000000E+00
  9.20000000E+02 -3.33066907E-14  0.00000000E+00
  9.30000000E+02  1.00000000E+02  0.00000000E+00
  9.30000000E+02  9.80000000E+01  0.00000000E+00
  9.30000000E+02  9.60000000E+01  0.00000000E+00
  9.30000000E+02  9.40000000E+01  0.00000000E+00
  9.30000000E+02  9.20000000E+01  0.00000000E+00
  9.30000000E+02  9.00000000E+01  0.00000000E+00
  9.30000000E+02  8.80000000E+01  0.00000000E+00
  9.30000000E+02  8.60000000E+01  0.00000000E+00
  9.30000000E+02  8.40000000E+01  0.00000000E+00
  9.30000000E+02  8.20000000E+01  0.00000000E+00
  9.30000000E+02  8.00000000E+01  0.00000000E+00
  9.30000000E+02  7.80000000E+01  0.00000000E+00
  9.30000000E+02  7.60000000E+01  0.00000000E+00
  9.30000000E+02  7.40000000E+01  0.00000000E+00
  9.30000000E+02  7.20000000E+01  0.00000000E+00
  9.30000000E+02  7.00000000E+01  0.00000000E+00
  9.30000000E+02  6.80000000E+01  0.00000000E+00
  9.30000000E+02  6.60000000E+01  0.00000000E+00
  9.30000000E+02  6.40000000E+01  0.00000000E+00
  9.30000000E+02  6.20000000E+01  0.00000000E+00
  9.30000000E+02  6.00000000E+01  0.00000000E+00
  9.30000000E+02  5.80000000E+01  0.00000000E+00
  9.30000000E+02  5.60000000E+01  0.00000000E+00
  9.30000000E+02  5.40000000E+01  0.00000000E+00
  9.30000000E+02  5.20000000E+01  0.00000000E+00
  9.30000000E+02  5.00000000E+01  0.00000000E+00
  9.30000000E+02  4.80000000E+01  0.00000000E+00
  9.30000000E+02  4.60000000E+01  0.00000000E+00
  9.30000000E+02  4.40000000E+01  0.00000000E+00
  9.30000000E+02  4.20000000E+01  0.00000000E+00
  9.30000000E+02  4.00000000E+01  0.00000000E+00
  9.30000000E+02  3.80000000E+01  0.00000000E+00
  9.30000000E+02  3.60000000E+01  0.00000000E+00
  9.30000000E+02  3.40000000E+01  0.00000000E+00
  9.30000000E+02  3.20000000E+01  0.00000000E+00
  9.30000000E+02  3.00000000E+01  0.00000000E+00
  9.30000000E+02  2.80000000E+01  0.00000000E+00
  9.30000000E+02  2.60000000E+01  0.00000000E+00
  9.30000000E+02  2.40000000E+01  0.00000000E+00
  9.30000000E+02  2.20000000E+01  0.00000000E+00
  9.30000000E+02  2.00000000E+01  0.00000000E+00
  9.30000000E+02  1.80000000E+01  0.00000000E+00
  9.30000000E+02  1.60000000E+01  0.00000000E+00
  9.30000000E+02  1.40000000E+01  0.00000000E+00
  9.30000000E+02  1.20000000E+01  0.00000000E+00
  9.30000000E+02  1.00000000E+01  0.00000000E+00
  9.30000000E+02  8.00000000E+00  0.00000000E+00
  9.30000000E+02  6.00000000E+00  0.00000000E+00
  9.30000000E+02  4.00000000E+00  0.00000000E+00
  9.30000000E+02  2.00000000E+00  0.00000000E+00
  9.30000000E+02 -3.33066907E-14  0.00000000E+00
  9.40000000E+02  1.00000000E+02  0.00000000E+00
  9.40000000E+02  9.80000000E+01  0.00000000E+00
  9.40000000E+02  9.60000000E+01  0.00000000E+00
  9.40000000E+02  9.40000000E+01  0.00000000E+00
  9.40000000E+02  9.20000000E+01  0.00000000E+00
  9.40000000E+02  9.00000000E+01  0.00000000E+00
  9.40000000E+02  8.80000000E+01  0.00000000E+00
  9.40000000E+02  8.60000000E+01  0.00000000E+00
  9.40000000E+02  8.40000000E+01  0.00000000E+00
  9.40000000E+02  8.20000000E+01  0.00000000E+00
  9.40000000E+02  8.00000000E+01  0.00000000E+00
  9.40000000E+02  7.80000000E+01  0.00000000E+00
  9.40000000E+02  7.60000000E+01  0.00000000E+00
  9.40000000E+02  7.40000000E+01  0.00000000E+00
  9.40000000E+02  7.20000000E+01  0.00000000E+00
  9.40000000E+02  7.00000000E+01  0.00000000E+00
  9.40000000E+02  6.80000000E+01  0.00000000E+00
  9.40000000E+02  6.60000000E+01  0.00000000E+00
  9.40000000E+02  6.40000000E+01  0.00000000E+00
  9.40000000E+02  6.20000000E+01  0.00000000E+00
  9.40000000E+02  6.00000000E+01  0.00000000E+00
  9.40000000E+02  5.80000000E+01  0.00000000E+00
  9.40000000E+02  5.60000000E+01  0.00000000E+00
  9.40000000E+02  5.40000000E+01  0.00000000E+00
  9.40000000E+02  5.20000000E+01  0.00000000E+00
  9.40000000E+02  5.00000000E+01  0.00000000E+00
  9.40000000E+02  4.80000000E+01  0.00000000E+00
  9.40000000E+02  4.60000000E+01  0.00000000E+00
  9.40000000E+02  4.40000000E+01  0.00000000E+00
  9.40000000E+02  4.20000000E+01  0.00000000E+00
  9.40000000E+02  4.00000000E+01  0.00000000E+00
  9.40000000E+02  3.80000000E+01  0.00000000E+00
  9.40000000E+02  3.60000000E+01  0.00000000E+00
  9.40000000E+02  3.40000000E+01  0.00000000E+00
  9.40000000E+02  3.20000000E+01  0.00000000E+00
  9.40000000E+02  3.00000000E+01  0.00000000E+00
  9.40000000E+02  2.80000000E+01  0.00000000E+00
  9.40000000E+02  2.60000000E+01  0.00000000E+00
  9.40000000E+02  2.40000000E+01  0.00000000E+00
  9.40000000E+02  2.20000000E+01  0.00000000E+00
  9.40000000E+02  2.00000000E+01  0.00000000E+00
  9.40000000E+02  1.80000000E+01  0.00000000E+00
  9.40000000E+02  1.60000000E+01  0.00000000E+00
  9.40000000E+02  1.40000000E+01  0.00000000E+00
  9.40000000E+02  1.20000000E+01  0.00000000E+00
  9.40000000E+02  1.00000000E+01  0.00000000E+00
  9.40000000E+02  8.00000000E+00  0.00000000E+00
  9.40000000E+02  6.00000000E+00  0.00000000E+00
  9.40000000E+02  4.00000000E+00  0.00000000E+00
  9.40000000E+02  2.00000000E+00  0.00000000E+00
  9.40000000E+02 -3.33066907E-14  0.00000000E+00
  9.50000000E+02  1.00000000E+02  0.00000000E+00
  9.50000000E+02  9.80000000E+01  0.00000000E+00
  9.50000000E+02  9.60000000E+01  0.00000000E+00
  9.50000000E+02  9.40000000E+01  0.00000000E+00
  9.50000000E+02  9.20000000E+01  0.00000000E+00
  9.50000000E+02  9.00000000E+01  0.00000000E+00
  9.50000000E+02  8.80000000E+01  0.00000000E+00
  9.50000000E+02  8.60000000E+01  0.00000000E+00
  9.50000000E+02  8.40000000E+01  0.00000000E+00
  9.50000000E+02  8.20000000E+01  0.00000000E+00
  9.50000000E+02  8.00000000E+01  0.00000000E+00
  9.50000000E+02  7.80000000E+01  0.00000000E+00
  9.50000000E+02  7.60000000E+01  0.00000000E+00
  9.50000000E+02  7.40000000E+01  0.00000000E+00
  9.50000000E+02  7.20000000E+01  0.00000000E+00
  9.50000000E+02  7.00000000E+01  0.00000000E+00
  9.50000000E+02  6.80000000E+01  0.00000000E+00
  9.50000000E+02  6.60000000E+01  0.00000000E+00
  9.50000000E+02  6.40000000E+01  0.00000000E+00
  9.50000000E+02  6.20000000E+01  0.00000000E+00
  9.50000000E+02  6.00000000E+01  0.00000000E+00
  9.50000000E+02  5.80000000E+01  0.00000000E+00
  9.50000000E+02  5.60000000E+01  0.00000000E+00
  9.50000000E+02  5.40000000E+01  0.00000000E+00
  9.50000000E+02  5.20000000E+01  0.00000000E+00
  9.50000000E+02  5.00000000E+01  0.00000000E+00
  9.50000000E+02  4.80000000E+01  0.00000000E+00
  9.50000000E+02  4.60000000E+01  0.00000000E+00
  9.50000000E+02  4.40000000E+01  0.00000000E+00
  9.50000000E+02  4.20000000E+01  0.00000000E+00
  9.50000000E+02  4.00000000E+01  0.00000000E+00
  9.50000000E+02  3.80000000E+01  0.00000000E+00
  9.50000000E+02  3.60000000E+01  0.00000000E+00
  9.50000000E+02  3.40000000E+01  0.00000000E+00
  9.50000000E+02  3.20000000E+01  0.00000000E+00
  9.50000000E+02  3.00000000E+01  0.00000000E+00
  9.50000000E+02  2.80000000E+01  0.00000000E+00
  9.50000000E+02  2.60000000E+01  0.00000000E+00
  9.50000000E+02  2.40000000E+01  0.00000000E+00
  9.50000000E+02  2.20000000E+01  0.00000000E+00
  9.50000000E+02  2.00000000E+01  0.00000000E+00
  9.50000000E+02  1.80000000E+01  0.00000000E+00
  9.50000000E+02  1.60000000E+01  0.00000000E+00
  9.50000000E+02  1.40000000E+01  0.00000000E+00
  9.50000000E+02  1.20000000E+01  0.00000000E+00
  9.50000000E+02  1.00000000E+01  0.00000000E+00
  9.50000000E+02  8.00000000E+00  0.00000000E+00
  9.50000000E+02  6.00000000E+00  0.00000000E+00
  9.50000000E+02  4.00000000E+00  0.00000000E+00
  9.50000000E+02  2.00000000E+00  0.00000000E+00
  9.50000000E+02 -3.33066907E-14  0.00000000E+00
  9.60000000E+02  1.00000000E+02  0.00000000E+00
  9.60000000E+02  9.80000000E+01  0.00000000E+00
  9.60000000E+02  9.60000000E+01  0.00000000E+00
  9.60000000E+02  9.40000000E+01  0.00000000E+00
  9.60000000E+02  9.20000000E+01  0.00000000E+00
  9.60000000E+02  9.00000000E+01  0.00000000E+00
  9.60000000E+02  8.80000000E+01  0.00000000E+00
  9.60000000E+02  8.60000000E+01  0.00000000E+00
  9.60000000E+02  8.40000000E+01  0.00000000E+00
  9.60000000E+02  8.20000000E+01  0.00000000E+00
  9.60000000E+02  8.00000000E+01  0.00000000E+00
  9.60000000E+02  7.80000000E+01  0.00000000E+00
  9.60000000E+02  7.60000000E+01  0.00000000E+00
  9.60000000E+02  7.40000000E+01  0.00000000E+00
  9.60000000E+02  7.20000000E+01  0.00000000E+00
  9.60000000E+02  7.00000000E+01  0.00000000E+00
  9.60000000E+02  6.80000000E+01  0.00000000E+00
  9.60000000E+02  6.60000000E+01  0.00000000E+00
  9.60000000E+02  6.40000000E+01  0.00000000E+00
  9.60000000E+02  6.20000000E+01  0.00000000E+00
  9.60000000E+02  6.00000000E+01  0.00000000E+00
  9.60000000E+02  5.80000000E+01  0.00000000E+00
  9.60000000E+02  5.60000000E+01  0.00000000E+00
  9.60000000E+02  5.40000000E+01  0.00000000E+00
  9.60000000E+02  5.20000000E+01  0.00000000E+00
  9.60000000E+02  5.00000000E+01  0.00000000E+00
  9.60000000E+02  4.80000000E+01  0.00000000E+00
  9.60000000E+02  4.60000000E+01  0.00000000E+00
  9.60000000E+02  4.40000000E+01  0.00000000E+00
  9.60000000E+02  4.20000000E+01  0.00000000E+00
  9.60000000E+02  4.00000000E+01  0.00000000E+00
  9.60000000E+02  3.80000000E+01  0.00000000E+00
  9.60000000E+02  3.60000000E+01  0.00000000E+00
  9.60000000E+02  3.40000000E+01  0.00000000E+00
  9.60000000E+02  3.20000000E+01  0.00000000E+00
  9.60000000E+02  3.00000000E+01  0.00000000E+00
  9.60000000E+02  2.80000000E+01  0.00000000E+00
  9.60000000E+02  2.60000000E+01  0.00000000E+00
  9.60000000E+02  2.40000000E+01  0.00000000E+00
  9.60000000E+02  2.20000000E+01  0.00000000E+00
  9.60000000E+02  2.00000000E+01  0.00000000E+00
  9.60000000E+02  1.80000000E+01  0.00000000E+00
  9.60000000E+02  1.60000000E+01  0.00000000E+00
  9.60000000E+02  1.40000000E+01  0.00000000E+00
  9.60000000E+02  1.20000000E+01  0.00000000E+00
  9.60000000E+02  1.00000000E+01  0.00000000E+00
  9.60000000E+02  8.00000000E+00  0.00000000E+00
  9.60000000E+02  6.00000000E+00  0.00000000E+00
  9.60000000E+02  4.00000000E+00  0.00000000E+00
  9.60000000E+02  2.00000000E+00  0.00000000E+00
  9.60000000E+02 -3.33066907E-14  0.00000000E+00
  9.70000000E+02  1.00000000E+02  0.00000000E+00
  9.70000000E+02  9.80000000E+01  0.00000000E+00
  9.70000000E+02  9.60000000E+01  0.00000000E+00
  9.70000000E+02  9.40000000E+01  0.00000000E+00
  9.70000000E+02  9.20000000E+01  0.00000000E+00
  9.70000000E+02  9.00000000E+01  0.00000000E+00
  9.70000000E+02  8.80000000E+01  0.00000000E+00
  9.70000000E+02  8.60000000E+01  0.00000000E+00
  9.70000000E+02  8.40000000E+01  0.00000000E+00
  9.70000000E+02  8.20000000E+01  0.00000000E+00
  9.70000000E+02  8.00000000E+01  0.00000000E+00
  9.70000000E+02  7.80000000E+01  0.00000000E+00
  9.70000000E+02  7.60000000E+01  0.00000000E+00
  9.70000000E+02  7.40000000E+01  0.00000000E+00
  9.70000000E+02  7.20000000E+01  0.00000000E+00
  9.70000000E+02  7.00000000E+01  0.00000000E+00
  9.70000000E+02  6.80000000E+01  0.00000000E+00
  9.70000000E+02  6.60000000E+01  0.00000000E+00
  9.70000000E+02  6.40000000E+01  0.00000000E+00
  9.70000000E+02  6.20000000E+01  0.00000000E+00
  9.70000000E+02  6.00000000E+01  0.00000000E+00
  9.70000000E+02  5.80000000E+01  0.00000000E+00
  9.70000000E+02  5.60000000E+01  0.00000000E+00
  9.70000000E+02  5.40000000E+01  0.00000000E+00
  9.70000000E+02  5.20000000E+01  0.00000000E+00
  9.70000000E+02  5.00000000E+01  0.00000000E+00
  9.70000000E+02  4.80000000E+01  0.00000000E+00
  9.70000000E+02  4.60000000E+01  0.00000000E+00
  9.70000000E+02  4.40000000E+01  0.00000000E+00
  9.70000000E+02  4.20000000E+01  0.00000000E+00
  9.70000000E+02  4.00000000E+01  0.00000000E+00
  9.70000000E+02  3.80000000E+01  0.00000000E+00
  9.70000000E+02  3.60000000E+01  0.00000000E+00
  9.70000000E+02  3.40000000E+01  0.00000000E+00
  9.70000000E+02  3.20000000E+01  0.00000000E+00
  9.70000000E+02  3.00000000E+01  0.00000000E+00
  9.70000000E+02  2.80000000E+01  0.00000000E+00
  9.70000000E+02  2.60000000E+01  0.00000000E+00
  9.70000000E+02  2.40000000E+01  0.00000000E+00
  9.70000000E+02  2.20000000E+01  0.00000000E+00
  9.70000000E+02  2.00000000E+01  0.00000000E+00
  9.70000000E+02  1.80000000E+01  0.00000000E+00
  9.70000000E+02  1.60000000E+01  0.00000000E+00
  9.70000000E+02  1.40000000E+01  0.00000000E+00
  9.70000000E+02  1.20000000E+01  0.00000000E+00
  9.70000000E+02  1.00000000E+01  0.00000000E+00
  9.70000000E+02  8.00000000E+00  0.00000000E+00
  9.70000000E+02  6.00000000E+00  0.00000000E+00
  9.70000000E+02  4.00000000E+00  0.00000000E+00
  9.70000000E+02  2.00000000E+00  0.00000000E+00
  9.70000000E+02 -3.33066907E-14  0.00000000E+00
  9.80000000E+02  1.00000000E+02  0.00000000E+00
  9.80000000E+02  9.80000000E+01  0.00000000E+00
  9.80000000E+02  9.60000000E+01  0.00000000E+00
  9.80000000E+02  9.40000000E+01  0.00000000E+00
  9.80000000E+02  9.20000000E+01  0.00000000E+00
  9.80000000E+02  9.00000000E+01  0.00000000E+00
  9.80000000E+02  8.80000000E+01  0.00000000E+00
  9.80000000E+02  8.60000000E+01  0.00000000E+00
  9.80000000E+02  8.40000000E+01  0.00000000E+00
  9.80000000E+02  8.20000000E+01  0.00000000E+00
  9.80000000E+02  8.00000000E+01  0.00000000E+00
  9.80000000E+02  7.80000000E+01  0.00000000E+00
  9.80000000E+02  7.60000000E+01  0.00000000E+00
  9.80000000E+02  7.40000000E+01  0.00000000E+00
  9.80000000E+02  7.20000000E+01  0.00000000E+00
  9.80000000E+02  7.00000000E+01  0.00000000E+00
  9.80000000E+02  6.80000000E+01  0.00000000E+00
  9.80000000E+02  6.60000000E+01  0.00000000E+00
  9.80000000E+02  6.40000000E+01  0.00000000E+00
  9.80000000E+02  6.20000000E+01  0.00000000E+00
  9.80000000E+02  6.00000000E+01  0.00000000E+00
  9.80000000E+02  5.80000000E+01  0.00000000E+00
  9.80000000E+02  5.60000000E+01  0.00000000E+00
  9.80000000E+02  5.40000000E+01  0.00000000E+00
  9.80000000E+02  5.20000000E+01  0.00000000E+00
  9.80000000E+02  5.00000000E+01  0.00000000E+00
  9.80000000E+02  4.80000000E+01  0.00000000E+00
  9.80000000E+02  4.60000000E+01  0.00000000E+00
  9.80000000E+02  4.40000000E+01  0.00000000E+00
  9.80000000E+02  4.20000000E+01  0.00000000E+00
  9.80000000E+02  4.00000000E+01  0.00000000E+00
  9.80000000E+02  3.80000000E+01  0.00000000E+00
  9.80000000E+02  3.60000000E+01  0.00000000E+00
  9.80000000E+02  3.40000000E+01  0.00000000E+00
  9.80000000E+02  3.20000000E+01  0.00000000E+00
  9.80000000E+02  3.00000000E+01  0.00000000E+00
  9.80000000E+02  2.80000000E+01  0.00000000E+00
  9.80000000E+02  2.60000000E+01  0.00000000E+00
  9.80000000E+02  2.40000000E+01  0.00000000E+00
  9.80000000E+02  2.20000000E+01  0.00000000E+00
  9.80000000E+02  2.00000000E+01  0.00000000E+00
  9.80000000E+02  1.80000000E+01  0.00000000E+00
  9.80000000E+02  1.60000000E+01  0.00000000E+00
  9.80000000E+02  1.40000000E+01  0.00000000E+00
  9.80000000E+02  1.20000000E+01  0.00000000E+00
  9.80000000E+02  1.00000000E+01  0.00000000E+00
  9.80000000E+02  8.00000000E+00  0.00000000E+00
  9.80000000E+02  6.00000000E+00  0.00000000E+00
  9.80000000E+02  4.00000000E+00  0.00000000E+00
  9.80000000E+02  2.00000000E+00  0.00000000E+00
  9.80000000E+02 -3.33066907E-14  0.00000000E+00
  9.90000000E+02  1.00000000E+02  0.00000000E+00
  9.90000000E+02  9.80000000E+01  0.00000000E+00
  9.90000000E+02  9.60000000E+01  0.00000000E+00
  9.90000000E+02  9.40000000E+01  0.00000000E+00
  9.90000000E+02  9.20000000E+01  0.00000000E+00
  9.90000000E+02  9.00000000E+01  0.00000000E+00
  9.90000000E+02  8.80000000E+01  0.00000000E+00
  9.90000000E+02  8.60000000E+01  0.00000000E+00
  9.90000000E+02  8.40000000E+01  0.00000000E+00
  9.90000000E+02  8.20000000E+01  0.00000000E+00
  9.90000000E+02  8.00000000E+01  0.00000000E+00
  9.90000000E+02  7.80000000E+01  0.00000000E+00
  9.90000000E+02  7.60000000E+01  0.00000000E+00
  9.90000000E+02  7.40000000E+01  0.00000000E+00
  9.90000000E+02  7.20000000E+01  0.00000000E+00
  9.90000000E+02  7.00000000E+01  0.00000000E+00
  9.90000000E+02  6.80000000E+01  0.00000000E+00
  9.90000000E+02  6.60000000E+01  0.00000000E+00
  9.90000000E+02  6.40000000E+01  0.00000000E+00
  9.90000000E+02  6.20000000E+01  0.00000000E+00
  9.90000000E+02  6.00000000E+01  0.00000000E+00
  9.90000000E+02  5.80000000E+01  0.00000000E+00
  9.90000000E+02  5.60000000E+01  0.00000000E+00
  9.90000000E+02  5.40000000E+01  0.00000000E+00
  9.90000000E+02  5.20000000E+01  0.00000000E+00
  9.90000000E+02  5.00000000E+01  0.00000000E+00
  9.90000000E+02  4.80000000E+01  0.00000000E+00
  9.90000000E+02  4.60000000E+01  0.00000000E+00
  9.90000000E+02  4.40000000E+01  0.00000000E+00
  9.90000000E+02  4.20000000E+01  0.00000000E+00
  9.90000000E+02  4.00000000E+01  0.00000000E+00
  9.90000000E+02  3.80000000E+01  0.00000000E+00
  9.90000000E+02  3.60000000E+01  0.00000000E+00
  9.90000000E+02  3.40000000E+01  0.00000000E+00
  9.90000000E+02  3.20000000E+01  0.00000000E+00
  9.90000000E+02  3.00000000E+01  0.00000000E+00
  9.90000000E+02  2.80000000E+01  0.00000000E+00
  9.90000000E+02  2.60000000E+01  0.00000000E+00
  9.90000000E+02  2.40000000E+01  0.00000000E+00
  9.90000000E+02  2.20000000E+01  0.00000000E+00
  9.90000000E+02  2.00000000E+01  0.00000000E+00
  9.90000000E+02  1.80000000E+01  0.00000000E+00
  9.90000000E+02  1.60000000E+01  0.00000000E+00
  9.90000000E+02  1.40000000E+01  0.00000000E+00
  9.90000000E+02  1.20000000E+01  0.00000000E+00
  9.90000000E+02  1.00000000E+01  0.00000000E+00
  9.90000000E+02  8.00000000E+00  0.00000000E+00
  9.90000000E+02  6.00000000E+00  0.00000000E+00
  9.90000000E+02  4.00000000E+00  0.00000000E+00
  9.90000000E+02  2.00000000E+00  0.00000000E+00
  9.90000000E+02 -3.33066907E-14  0.00000000E+00
  1.00000000E+03  1.00000000E+02  0.00000000E+00
  1.00000000E+03  9.80000000E+01  0.00000000E+00
  1.00000000E+03  9.60000000E+01  0.00000000E+00
  1.00000000E+03  9.40000000E+01  0.00000000E+00
  1.00000000E+03  9.20000000E+01  0.00000000E+00
  1.00000000E+03  9.00000000E+01  0.00000000E+00
  1.00000000E+03  8.80000000E+01  0.00000000E+00
  1.00000000E+03  8.60000000E+01  0.00000000E+00
  1.00000000E+03  8.40000000E+01  0.00000000E+00
  1.00000000E+03  8.20000000E+01  0.00000000E+00
  1.00000000E+03  8.00000000E+01  0.00000000E+00
  1.00000000E+03  7.80000000E+01  0.00000000E+00
  1.00000000E+03  7.60000000E+01  0.00000000E+00
  1.00000000E+03  7.40000000E+01  0.00000000E+00
  1.00000000E+03  7.20000000E+01  0.00000000E+00
  1.00000000E+03  7.00000000E+01  0.00000000E+00
  1.00000000E+03  6.80000000E+01  0.00000000E+00
  1.00000000E+03  6.60000000E+01  0.00000000E+00
  1.00000000E+03  6.40000000E+01  0.00000000E+00
  1.00000000E+03  6.20000000E+01  0.00000000E+00
  1.00000000E+03  6.00000000E+01  0.00000000E+00
  1.00000000E+03  5.80000000E+01  0.00000000E+00
  1.00000000E+03  5.60000000E+01  0.00000000E+00
  1.00000000E+03  5.40000000E+01  0.00000000E+00
  1.00000000E+03  5.20000000E+01  0.00000000E+00
  1.00000000E+03  5.00000000E+01  0.00000000E+00
  1.00000000E+03  4.80000000E+01  0.00000000E+00
  1.00000000E+03  4.60000000E+01  0.00000000E+00
  1.00000000E+03  4.40000000E+01  0.00000000E+00
  1.00000000E+03  4.20000000E+01  0.00000000E+00
  1.00000000E+03  4.00000000E+01  0.00000000E+00
  1.00000000E+03  3.80000000E+01  0.00000000E+00
  1.00000000E+03  3.60000000E+01  0.00000000E+00
  1.00000000E+03  3.40000000E+01  0.00000000E+00
  1.00000000E+03  3.20000000E+01  0.00000000E+00
  1.00000000E+03  3.00000000E+01  0.00000000E+00
  1.00000000E+03  2.80000000E+01  0.00000000E+00
  1.00000000E+03  2.60000000E+01  0.00000000E+00
  1.00000000E+03  2.40000000E+01  0.00000000E+00
  1.00000000E+03  2.20000000E+01  0.00000000E+00
  1.00000000E+03  2.00000000E+01  0.00000000E+00
  1.00000000E+03  1.80000000E+01  0.00000000E+00
  1.00000000E+03  1.60000000E+01  0.00000000E+00
  1.00000000E+03  1.40000000E+01  0.00000000E+00
  1.00000000E+03  1.20000000E+01  0.00000000E+00
  1.00000000E+03  1.00000000E+01  0.00000000E+00
  1.00000000E+03  8.00000000E+00  0.00000000E+00
  1.00000000E+03  6.00000000E+00  0.00000000E+00
  1.00000000E+03  4.00000000E+00  0.00000000E+00
  1.00000000E+03  2.00000000E+00  0.00000000E+00
  1.00000000E+03 -3.33066907E-14  0.00000000E+00
CELLS      5000     25000
         4           0           1          52          51
         4           1           2          53          52
         4           2           3          54          53
         4           3           4          55          54
         4           4           5          56          55
         4           5           6          57          56
         4           6           7          58          57
         4           7           8          59          58
         4           8           9          60          59
         4           9          10          61          60
         4          10          11          62          61
         4          11          12          63          62
         4          12          13          64          63
         4          13          14          65          64
         4          14          15          66          65
         4          15          16          67          66
         4          16          17          68          67
         4          17          18          69          68
         4          18          19          70          69
         4          19          20          71          70
         4          20          21          72          71
         4          21          22          73          72
         4          22          23          74          73
         4          23          24          75          74
         4          24          25          76          75
         4          25          26          77          76
         4          26          27          78          77
         4          27          28          79          78
         4          28          29          80          79
         4          29          30          81          80
         4          30          31          82          81
         4          31          32          83          82
         4          32          33          84          83
         4          33          34          85          84
         4          34          35          86          85
         4          35          36          87          86
         4          36          37          88          87
         4          37          38          89          88
         4          38          39          90          89
         4          39          40          91          90
         4          40          41          92          91
         4          41          42          93          92
         4          42          43          94          93
         4          43          44          95          94
         4          44          45          96          95
         4          45          46          97          96
         4          46          47          98          97
         4          47          48          99          98
         4          48          49         100          99
         4          49          50         101         100
         4          51          52         103         102
         4          52          53         104         103
         4          53          54         105         104
         4          54          55         106         105
         4          55          56         107         106
         4          56          57         108         107
         4          57          58         109         108
         4          58          59         110         109
         4          59          60         111         110
         4          60          61         112         111
         4          61          62         113         112
         4          62          63         114         113
         4          63          64         115         114
         4          64          65         116         115
         4          65          66         117         116
         4          66          67         118         117
         4          67          68         119         118
         4          68          69         120         119
         4          69          70         121         120
         4          70          71         122         121
         4          71          72         123         122
         4          72          73         124         123
         4          73          74         125         124
         4          74          75         126         125
         4          75          76         127         126
         4          76          77         128         127
         4          77          78         129         128
         4          78          79         130         129
         4          79          80         131         130
         4          80          81         132         131
         4          81          82         133         132
         4          82          83         134         133
         4          83          84         135         134
         4          84          85         136         135
         4          85          86         137         136
         4          86          87         138         137
         4          87          88         139         138
         4          88          89         140         139
         4          89          90         141         140
         4          90          91         142         141
         4          91          92         143         142
         4          92          93         144         143
         4          93          94         145         144
         4          94          95         146         145
         4          95          96         147         146
         4          96          97         148         147
         4          97          98         149         148
         4          98          99         150         149
         4          99         100         151         150
         4         100         101         152         151
         4         102         103         154         153
         4         103         104         155         154
         4         104         105         156         155
         4         105         106         157         156
         4         106         107         158         157
         4         107         108         159         158
         4         108         109         160         159
         4         109         110         161         160
         4         110         111         162         161
         4         111         112         163         162
         4         112         113         164         163
         4         113         114         165         164
         4         114         115         166         165
         4         115         116         167         166
         4         116         117         168         167
         4         117         118         169         168
         4         118         119         170         169
         4         119         120         171         170
         4         120         121         172         171
         4         121         122         173         172
         4         122         123         174         173
         4         123         124         175         174
         4         124         125         176         175
         4         125         126         177         176
         4         126         127         178         177
         4         127         128         179         178
         4         128         129         180         179
         4         129         130         181         180
         4         130         131         182         181
         4         131         132         183         182
         4         132         133         184         183
         4         133         134         185         184
         4         134         135         186         185
         4         135         136         187         186
         4         136         137         188         187
         4         137         138         189         188
         4         138         139         190         189
         4         139         140         191         190
         4         140         141         192         191
         4         141         142         193         192
         4         142         143         194         193
         4         143         144         195         194
         4         144         145         196         195
         4         145         146         197         196
         4         146         147         198         197
         4         147         148         199         198
         4         148         149         200         199
         4         149         150         201         200
         4         150         151         202         201
         4         151         152         203         202
         4         153         154         205         204
         4         154         155         206         205
         4         155         156         207         206
         4         156         157         208         207
         4         157         158         209         208
         4         158         159         210         209
         4         159         160         211         210
         4         160         161         212         211
         4         161         162         213         212
         4         162         163         214         213
         4         163         164         215         214
         4         164         165         216         215
         4         165         166         217         216
         4         166         167         218         217
         4         167         168         219         218
         4         168         169         220         219
         4         169         170         221         220
         4         170         171         222         221
         4         171         172         223         222
         4         172         173         224         223
         4         173         174         225         224
         4         174         175         226         225
         4         175         176         227         226
         4         176         177         228         227
         4         177         178         229         228
         4         178         179         230         229
         4         179         180         231         230
         4         180         181         232         231
         4         181         182         233         232
         4         182         183         234         233
         4         183         184         235         234
         4         184         185         236         235
         4         185         186         237         236
         4         186         187         238         237
         4         187         188         239         238
         4         188         189         240         239
         4         189         190         241         240
         4         190         191         242         241
         4         191         192         243         242
         4         192         193         244         243
         4         193         194         245         244
         4         194         195         246         245
         4         195         196         247         246
         4         196         197         248         247
         4         197         198         249         248
         4         198         199         250         249
         4         199         200         251         250
         4         200         201         252         251
         4         201         202         253         252
         4         202         203         254         253
         4         204         205         256         255
         4         205         206         257         256
         4         206         207         258         257
         4         207         208         259         258
         4         208         209         260         259
         4         209         210         261         260
         4         210         211         262         261
         4         211         212         263         262
         4         212         213         264         263
         4         213         214         265         264
         4         214         215         266         265
         4         215         216         267         266
         4         216         217         268         267
         4         217         218         269         268
         4         218         219         270         269
         4         219         220         271         270
         4         220         221         272         271
         4         221         222         273         272
         4         222         223         274         273
         4         223         224         275         274
         4         224         225         276         275
         4         225         226         277         276
         4         226         227         278         277
         4         227         228         279         278
         4         228         229         280         279
         4         229         230         281         280
         4         230         231         282         281
         4         231         232         283         282
         4         232         233         284         283
         4         233         234         285         284
         4         234         235         286         285
         4         235         236         287         286
         4         236         237         288         287
         4         237         238         289         288
         4         238         239         290         289
         4         239         240         291         290
         4         240         241         292         291
         4         241         242         293         292
         4         242         243         294         293
         4         243         244         295         294
         4         244         245         296         295
         4         245         246         297         296
         4         246         247         298         297
         4         247         248         299         298
         4         248         249         300         299
         4         249         250         301         300
         4         250         251         302         301
         4         251         252         303         302
         4         252         253         304         303
         4         253         254         305         304
         4         255         256         307         306
         4         256         257         308         307
         4         257         258         309         308
         4         258         259         310         309
         4         259         260         311         310
         4         260         261         312         311
         4         261         262         313         312
         4         262         263         314         313
         4         263         264         315         314
         4         264         265         316         315
         4         265         266         317         316
         4         266         267         318         317
         4         267         268         319         318
         4         268         269         320         319
         4         269         270         321         320
         4         270         271         322         321
         4         271         272         323         322
         4         272         273         324         323
         4         273         274         325         324
         4         274         275         326         325
         4         275         276         327         326
         4         276         277         328         327
         4         277         278         329         328
         4         278         279         330         329
         4         279         280         331         330
         4         280         281         332         331
         4         281         282         333         332
         4         282         283         334         333
         4         283         284         335         334
         4         284         285         336         335
         4         285         286         337         336
         4         286         287         338         337
         4         287         288         339         338
         4         288         289         340         339
         4         289         290         341         340
         4         290         291         342         341
         4         291         292         343         342
         4         292         293         344         343
         4         293         294         345         344
         4         294         295         346         345
         4         295         296         347         346
         4         296         297         348         347
         4         297         298         349         348
         4         298         299         350         349
         4         299         300         351         350
         4         300         301         352         351
         4         301         302         353         352
         4         302         303         354         353
         4         303         304         355         354
         4         304         305         356         355
         4         306         307         358         357
         4         307         308         359         358
         4         308         309         360         359
         4         309         310         361         360
         4         310         311         362         361
         4         311         312         363         362
         4         312         313         364         363
         4         313         314         365         364
         4         314         315         366         365
         4         315         316         367         366
         4         316         317         368         367
         4         317         318         369         368
         4         318         319         370         369
         4         319         320         371         370
         4         320         321         372         371
         4         321         322         373         372
         4         322         323         374         373
         4         323         324         375         374
         4         324         325         376         375
         4         325         326         377         376
         4         326         327         378         377
         4         327         328         379         378
         4         328         329         380         379
         4         329         330         381         380
         4         330         331         382         381
         4         331         332         383         382
         4         332         333         384         383
         4         333         334         385         384
         4         334         335         386         385
         4         335         336         387         386
         4         336         337         388         387
         4         337         338         389         388
         4         338         339         390         389
         4         339         340         391         390
         4         340         341         392         391
         4         341         342         393         392
         4         342         343         394         393
         4         343         344         395         394
         4         344         345         396         395
         4         345         346         397         396
         4         346         347         398         397
         4         347         348         399         398
         4         348         349         400         399
         4         349         350         401         400
         4         350         351         402         401
         4         351         352         403         402
         4         352         353         404         403
         4         353         354         405         404
         4         354         355         406         405
         4         355         356         407         406
         4         357         358         409         408
         4         358         359         410         409
         4         359         360         411         410
         4         360         361         412         411
         4         361         362         413         412
         4         362         363         414         413
         4         363         364         415         414
         4         364         365         416         415
         4         365         366         417         416
         4         366         367         418         417
         4         367         368         419         418
         4         368         369         420         419
         4         369         370         421         420
         4         370         371         422         421
         4         371         372         423         422
         4         372         373         424         423
         4         373         374         425         424
         4         374         375         426         425
         4         375         376         427         426
         4         376         377         428         427
         4         377         378         429         428
         4         378         379         430         429
         4         379         380         431         430
         4         380         381         432         431
         4         381         382         433         432
         4         382         383         434         433
         4         383         384         435         434
         4         384         385         436         435
         4         385         386         437         436
         4         386         387         438         437
         4         387         388         439         438
         4         388         389         440         439
         4         389         390         441         440
         4         390         391         442         441
         4         391         392         443         442
         4         392         393         444         443
         4         393         394         445         444
         4         394         395         446         445
         4         395         396         447         446
         4         396         397         448         447
         4         397         398         449         448
         4         398         399         450         449
         4         399         400         451         450
         4         400         401         452         451
         4         401         402         453         452
         4         402         403         454         453
         4         403         404         455         454
         4         404         405         456         455
         4         405         406         457         456
         4         406         407         458         457
         4         408         409         460         459
         4         409         410         461         460
         4         410         411         462         461
         4         411         412         463         462
         4         412         413         464         463
         4         413         414         465         464
         4         414         415         466         465
         4         415         416         467         466
         4         416         417         468         467
         4         417         418         469         468
         4         418         419         470         469
         4         419         420         471         470
         4         420         421         472         471
         4         421         422         473         472
         4         422         423         474         473
         4         423         424         475         474
         4         424         425         476         475
         4         425         426         477         476
         4         426         427         478         477
         4         427         428         479         478
         4         428         429         480         479
         4         429         430         481         480
         4         430         431         482         481
         4         431         432         483         482
         4         432         433         484         483
         4         433         434         485         484
         4         434         435         486         485
         4         435         436         487         486
         4         436         437         488         487
         4         437         438         489         488
         4         438         439         490         489
         4         439         440         491         490
         4         440         441         492         491
         4         441         442         493         492
         4         442         443         494         493
         4         443         444         495         494
         4         444         445         496         495
         4         445         446         497         496
         4         446         447         498         497
         4         447         448         499         498
         4         448         449         500         499
         4         449         450         501         500
         4         450         451         502         501
         4         451         452         503         502
         4         452         453         504         503
         4         453         454         505         504
         4         454         455         506         505
         4         455         456         507         506
         4         456         457         508         507
         4         457         458         509         508
         4         459         460         511         510
         4         460         461         512         511
         4         461         462         513         512
         4         462         463         514         513
         4         463         464         515         514
         4         464         465         516         515
         4         465         466         517         516
         4         466         467         518         517
         4         467         468         519         518
         4         468         469         520         519
         4         469         470         521         520
         4         470         471         522         521
         4         471         472         523         522
         4         472         473         524         523
         4         473         474         525         524
         4         474         475         526         525
         4         475         476         527         526
         4         476         477         528         527
         4         477         478         529         528
         4         478         479         530         529
         4         479         480         531         530
         4         480         481         532         531
         4         481         482         533         532
         4         482         483         534         533
         4         483         484         535         534
         4         484         485         536         535
         4         485         486         537         536
         4         486         487         538         537
         4         487         488         539         538
         4         488         489         540         539
         4         489         490         541         540
         4         490         491         542         541
         4         491         492         543         542
         4         492         493         544         543
         4         493         494         545         544
         4         494         495         546         545
         4         495         496         547         546
         4         496         497         548         547
         4         497         498         549         548
         4         498         499         550         549
         4         499         500         551         550
         4         500         501         552         551
         4         501         502         553         552
         4         502         503         554         553
         4         503         504         555         554
         4         504         505         556         555
         4         505         506         557         556
         4         506         507         558         557
         4         507         508         559         558
         4         508         509         560         559
         4         510         511         562         561
         4         511         512         563         562
         4         512         513         564         563
         4         513         514         565         564
         4         514         515         566         565
         4         515         516         567         566
         4         516         517         568         567
         4         517         518         569         568
         4         518         519         570         569
         4         519         520         571         570
         4         520         521         572         571
         4         521         522         573         572
         4         522         523         574         573
         4         523         524         575         574
         4         524         525         576         575
         4         525         526         577         576
         4         526         527         578         577
         4         527         528         579         578
         4         528         529         580         579
         4         529         530         581         580
         4         530         531         582         581
         4         531         532         583         582
         4         532         533         584         583
         4         533         534         585         584
         4         534         535         586         585
         4         535         536         587         586
         4         536         537         588         587
         4         537         538         589         588
         4         538         539         590         589
         4         539         540         591         590
         4         540         541         592         591
         4         541         542         593         592
         4         542         543         594         593
         4         543         544         595         594
         4         544         545         596         595
         4         545         546         597         596
         4         546         547         598         597
         4         547         548         599         598
         4         548         549         600         599
         4         549         550         601         600
         4         550         551         602         601
         4         551         552         603         602
         4         552         553         604         603
         4         553         554         605         604
         4         554         555         606         605
         4         555         556         607         606
         4         556         557         608         607
         4         557         558         609         608
         4         558         559         610         609
         4         559         560         611         610
         4         561         562         613         612
         4         562         563         614         613
         4         563         564         615         614
         4         564         565         616         615
         4         565         566         617         616
         4         566         567         618         617
         4         567         568         619         618
         4         568         569         620         619
         4         569         570         621         620
         4         570         571         622         621
         4         571         572         623         622
         4         572         573         624         623
         4         573         574         625         624
         4         574         575         626         625
         4         575         576         627         626
         4         576         577         628         627
         4         577         578         629         628
         4         578         579         630         629
         4         579         580         631         630
         4         580         581         632         631
         4         581         582         633         632
         4         582         583         634         633
         4         583         584         635         634
         4         584         585         636         635
         4         585         586         637         636
         4         586         587         638         637
         4         587         588         639         638
         4         588         589         640         639
         4         589         590         641         640
         4         590         591         642         641
         4         591         592         643         642
         4         592         593         644         643
         4         593         594         645         644
         4         594         595         646         645
         4         595         596         647         646
         4         596         597         648         647
         4         597         598         649         648
         4         598         599         650         649
         4         599         600         651         650
         4         600         601         652         651
         4         601         602         653         652
         4         602         603         654         653
         4         603         604         655         654
         4         604         605         656         655
         4         605         606         657         656
         4         606         607         658         657
         4         607         608         659         658
         4         608         609         660         659
         4         609         610         661         660
         4         610         611         662         661
         4         612         613         664         663
         4         613         614         665         664
         4         614         615         666         665
         4         615         616         667         666
         4         616         617         668         667
         4         617         618         669         668
         4         618         619         670         669
         4         619         620         671         670
         4         620         621         672         671
         4         621         622         673         672
         4         622         623         674         673
         4         623         624         675         674
         4         624         625         676         675
         4         625         626         677         676
         4         626         627         678         677
         4         627         628         679         678
         4         628         629         680         679
         4         629         630         681         680
         4         630         631         682         681
         4         631         632         683         682
         4         632         633         684         683
         4         633         634         685         684
         4         634         635         686         685
         4         635         636         687         686
         4         636         637         688         687
         4         637         638         689         688
         4         638         639         690         689
         4         639         640         691         690
         4         640         641         692         691
         4         641         642         693         692
         4         642         643         694         693
         4         643         644         695         694
         4         644         645         696         695
         4         645         646         697         696
         4         646         647         698         697
         4         647         648         699         698
         4         648         649         700         699
         4         649         650         701         700
         4         650         651         702         701
         4         651         652         703         702
         4         652         653         704         703
         4         653         654         705         704
         4         654         655         706         705
         4         655         656         707         706
         4         656         657         708         707
         4         657         658         709         708
         4         658         659         710         709
         4         659         660         711         710
         4         660         661         712         711
         4         661         662         713         712
         4         663         664         715         714
         4         664         665         716         715
         4         665         666         717         716
         4         666         667         718         717
         4         667         668         719         718
         4         668         669         720         719
         4         669         670         721         720
         4         670         671         722         721
         4         671         672         723         722
         4         672         673         724         723
         4         673         674         725         724
         4         674         675         726         725
         4         675         676         727         726
         4         676         677         728         727
         4         677         678         729         728
         4         678         679         730         729
         4         679         680         731         730
         4         680         681         732         731
         4         681         682         733         732
         4         682         683         734         733
         4         683         684         735         734
         4         684         685         736         735
         4         685         686         737         736
         4         686         687         738         737
         4         687         688         739         738
         4         688         689         740         739
         4         689         690         741         740
         4         690         691         742         741
         4         691         692         743         742
         4         692         693         744         743
         4         693         694         745         744
         4         694         695         746         745
         4         695         696         747         746
         4         696         697         748         747
         4         697         698         749         748
         4         698         699         750         749
         4         699         700         751         750
         4         700         701         752         751
         4         701         702         753         752
         4         702         703         754         753
         4         703         704         755         754
         4         704         705         756         755
         4         705         706         757         756
         4         706         707         758         757
         4         707         708         759         758
         4         708         709         760         759
         4         709         710         761         760
         4         710         711         762         761
         4         711         712         763         762
         4         712         713         764         763
         4         714         715         766         765
         4         715         716         767         766
         4         716         717         768         767
         4         717         718         769         768
         4         718         719         770         769
         4         719         720         771         770
         4         720         721         772         771
         4         721         722         773         772
         4         722         723         774         773
         4         723         724         775         774
         4         724         725         776         775
         4         725         726         777         776
         4         726         727         778         777
         4         727         728         779         778
         4         728         729         780         779
         4         729         730         781         780
         4         730         731         782         781
         4         731         732         783         782
         4         732         733         784         783
         4         733         734         785         784
         4         734         735         786         785
         4         735         736         787         786
         4         736         737         788         787
         4         737         738         789         788
         4         738         739         790         789
         4         739         740         791         790
         4         740         741         792         791
         4         741         742         793         792
         4         742         743         794         793
         4         743         744         795         794
         4         744         745         796         795
         4         745         746         797         796
         4         746         747         798         797
         4         747         748         799         798
         4         748         749         800         799
         4         749         750         801         800
         4         750         751         802         801
         4         751         752         803         802
         4         752         753         804         803
         4         753         754         805         804
         4         754         755         806         805
         4         755         756         807         806
         4         756         757         808         807
         4         757         758         809         808
         4         758         759         810         809
         4         759         760         811         810
         4         760         761         812         811
         4         761         762         813         812
         4         762         763         814         813
         4         763         764         815         814
         4         765         766         817         816
         4         766         767         818         817
         4         767         768         819         818
         4         768         769         820         819
         4         769         770         821         820
         4         770         771         822         821
         4         771         772         823         822
         4         772         773         824         823
         4         773         774         825         824
         4         774         775         826         825
         4         775         776         827         826
         4         776         777         828         827
         4         777         778         829         828
         4         778         779         830         829
         4         779         780         831         830
         4         780         781         832         831
         4         781         782         833         832
         4         782         783         834         833
         4         783         784         835         834
         4         784         785         836         835
         4         785         786         837         836
         4         786         787         838         837
         4         787         788         839         838
         4         788         789         840         839
         4         789         790         841         840
         4         790         791         842         841
         4         791         792         843         842
         4         792         793         844         843
         4         793         794         845         844
         4         794         795         846         845
         4         795         796         847         846
         4         796         797         848         847
         4         797         798         849         848
         4         798         799         850         849
         4         799         800         851         850
         4         800         801         852         851
         4         801         802         853         852
         4         802         803         854         853
         4         803         804         855         854
         4         804         805         856         855
         4         805         806         857         856
         4         806         807         858         857
         4         807         808         859         858
         4         808         809         860         859
         4         809         810         861         860
         4         810         811         862         861
         4         811         812         863         862
         4         812         813         864         863
         4         813         814         865         864
         4         814         815         866         865
         4         816         817         868         867
         4         817         818         869         868
         4         818         819         870         869
         4         819         820         871         870
         4         820         821         872         871
         4         821         822         873         872
         4         822         823         874         873
         4         823         824         875         874
         4         824         825         876         875
         4         825         826         877         876
         4         826         827         878         877
         4         827         828         879         878
         4         828         829         880         879
         4         829         830         881         880
         4         830         831         882         881
         4         831         832         883         882
         4         832         833         884         883
         4         833         834         885         884
         4         834         835         886         885
         4         835         836         887         886
         4         836         837         888         887
         4         837         838         889         888
         4         838         839         890         889
         4         839         840         891         890
         4         840         841         892         891
         4         841         842         893         892
         4         842         843         894         893
         4         843         844         895         894
         4         844         845         896         895
         4         845         846         897         896
         4         846         847         898         897
         4         847         848         899         898
         4         848         849         900         899
         4         849         850         901         900
         4         850         851         902         901
         4         851         852         903         902
         4         852         853         904         903
         4         853         854         905         904
         4         854         855         906         905
         4         855         856         907         906
         4         856         857         908         907
         4         857         858         909         908
         4         858         859         910         909
         4         859         860         911         910
         4         860         861         912         911
         4         861         862         913         912
         4         862         863         914         913
         4         863         864         915         914
         4         864         865         916         915
         4         865         866         917         916
         4         867         868         919         918
         4         868         869         920         919
         4         869         870         921         920
         4         870         871         922         921
         4         871         872         923         922
         4         872         873         924         923
         4         873         874         925         924
         4         874         875         926         925
         4         875         876         927         926
         4         876         877         928         927
         4         877         878         929         928
         4         878         879         930         929
         4         879         880         931         930
         4         880         881         932         931
         4         881         882         933         932
         4         882         883         934         933
         4         883         884         935         934
         4         884         885         936         935
         4         885         886         937         936
         4         886         887         938         937
         4         887         888         939         938
         4         888         889         940         939
         4         889         890         941         940
         4         890         891         942         941
         4         891         892         943         942
         4         892         893         944         943
         4         893         894         945         944
         4         894         895         946         945
         4         895         896         947         946
         4         896         897         948         947
         4         897         898         949         948
         4         898         899         950         949
         4         899         900         951         950
         4         900         901         952         951
         4         901         902         953         952
         4         902         903         954         953
         4         903         904         955         954
         4         904         905         956         955
         4         905         906         957         956
         4         906         907         958         957
         4         907         908         959         958
         4         908         909         960         959
         4         909         910         961         960
         4         910         911         962         961
         4         911         912         963         962
         4         912         913         964         963
         4         913         914         965         964
         4         914         915         966         965
         4         915         916         967         966
         4         916         917         968         967
         4         918         919         970         969
         4         919         920         971         970
         4         920         921         972         971
         4         921         922         973         972
         4         922         923         974         973
         4         923         924         975         974
         4         924         925         976         975
         4         925         926         977         976
         4         926         927         978         977
         4         927         928         979         978
         4         928         929         980         979
         4         929         930         981         980
         4         930         931         982         981
         4         931         932         983         982
         4         932         933         984         983
         4         933         934         985         984
         4         934         935         986         985
         4         935         936         987         986
         4         936         937         988         987
         4         937         938         989         988
         4         938         939         990         989
         4         939         940         991         990
         4         940         941         992         991
         4         941         942         993         992
         4         942         943         994         993
         4         943         944         995         994
         4         944         945         996         995
         4         945         946         997         996
         4         946         947         998         997
         4         947         948         999         998
         4         948         949        1000         999
         4         949         950        1001        1000
         4         950         951        1002        1001
         4         951         952        1003        1002
         4         952         953        1004        1003
         4         953         954        1005        1004
         4         954         955        1006        1005
         4         955         956        1007        1006
         4         956         957        1008        1007
         4         957         958        1009        1008
         4         958         959        1010        1009
         4         959         960        1011        1010
         4         960         961        1012        1011
         4         961         962        1013        1012
         4         962         963        1014        1013
         4         963         964        1015        1014
         4         964         965        1016        1015
         4         965         966        1017        1016
         4         966         967        1018        1017
         4         967         968        1019        1018
         4         969         970        1021        1020
         4         970         971        1022        1021
         4         971         972        1023        1022
         4         972         973        1024        1023
         4         973         974        1025        1024
         4         974         975        1026        1025
         4         975         976        1027        1026
         4         976         977        1028        1027
         4         977         978        1029        1028
         4         978         979        1030        1029
         4         979         980        1031        1030
         4         980         981        1032        1031
         4         981         982        1033        1032
         4         982         983        1034        1033
         4         983         984        1035        1034
         4         984         985        1036        1035
         4         985         986        1037        1036
         4         986         987        1038        1037
         4         987         988        1039        1038
         4         988         989        1040        1039
         4         989         990        1041        1040
         4         990         991        1042        1041
         4         991         992        1043        1042
         4         992         993        1044        1043
         4         993         994        1045        1044
         4         994         995        1046        1045
         4         995         996        1047        1046
         4         996         997        1048        1047
         4         997         998        1049        1048
         4         998         999        1050        1049
         4         999        1000        1051        1050
         4        1000        1001        1052        1051
         4        1001        1002        1053        1052
         4        1002        1003        1054        1053
         4        1003        1004        1055        1054
         4        1004        1005        1056        1055
         4        1005        1006        1057        1056
         4        1006        1007        1058        1057
         4        1007        1008        1059        1058
         4        1008        1009        1060        1059
         4        1009        1010        1061        1060
         4        1010        1011        1062        1061
         4        1011        1012        1063        1062
         4        1012        1013        1064        1063
         4        1013        1014        1065        1064
         4        1014        1015        1066        1065
         4        1015        1016        1067        1066
         4        1016        1017        1068        1067
         4        1017        1018        1069        1068
         4        1018        1019        1070        1069
         4        1020        1021        1072        1071
         4        1021        1022        1073        1072
         4        1022        1023        1074        1073
         4        1023        1024        1075        1074
         4        1024        1025        1076        1075
         4        1025        1026        1077        1076
         4        1026        1027        1078        1077
         4        1027        1028        1079        1078
         4        1028        1029        1080        1079
         4        1029        1030        1081        1080
         4        1030        1031        1082        1081
         4        1031        1032        1083        1082
         4        1032        1033        1084        1083
         4        1033        1034        1085        1084
         4        1034        1035        1086        1085
         4        1035        1036        1087        1086
         4        1036        1037        1088        1087
         4        1037        1038        1089        1088
         4        1038        1039        1090        1089
         4        1039        1040        1091        1090
         4        1040        1041        1092        1091
         4        1041        1042        1093        1092
         4        1042        1043        1094        1093
         4        1043        1044        1095        1094
         4        1044        1045        1096        1095
         4        1045        1046        1097        1096
         4        1046        1047        1098        1097
         4        1047        1048        1099        1098
         4        1048        1049        1100        1099
         4        1049        1050        1101        1100
         4        1050        1051        1102        1101
         4        1051        1052        1103        1102
         4        1052        1053        1104        1103
         4        1053        1054        1105        1104
         4        1054        1055        1106        1105
         4        1055        1056        1107        1106
         4        1056        1057        1108        1107
         4        1057        1058        1109        1108
         4        1058        1059        1110        1109
         4        1059        1060        1111        1110
         4        1060        1061        1112        1111
         4        1061        1062        1113        1112
         4        1062        1063        1114        1113
         4        1063        1064        1115        1114
         4        1064        1065        1116        1115
         4        1065        1066        1117        1116
         4        1066        1067        1118        1117
         4        1067        1068        1119        1118
         4        1068        1069        1120        1119
         4        1069        1070        1121        1120
         4        1071        1072        1123        1122
         4        1072        1073        1124        1123
         4        1073        1074        1125        1124
         4        1074        1075        1126        1125
         4        1075        1076        1127        1126
         4        1076        1077        1128        1127
         4        1077        1078        1129        1128
         4        1078        1079        1130        1129
         4        1079        1080        1131        1130
         4        1080        1081        1132        1131
         4        1081        1082        1133        1132
         4        1082        1083        1134        1133
         4        1083        1084        1135        1134
         4        1084        1085        1136        1135
         4        1085        1086        1137        1136
         4        1086        1087        1138        1137
         4        1087        1088        1139        1138
         4        1088        1089        1140        1139
         4        1089        1090        1141        1140
         4        1090        1091        1142        1141
         4        1091        1092        1143        1142
         4        1092        1093        1144        1143
         4        1093        1094        1145        1144
         4        1094        1095        1146        1145
         4        1095        1096        1147        1146
         4        1096        1097        1148        1147
         4        1097        1098        1149        1148
         4        1098        1099        1150        1149
         4        1099        1100        1151        1150
         4        1100        1101        1152        1151
         4        1101        1102        1153        1152
         4        1102        1103        1154        1153
         4        1103        1104        1155        1154
         4        1104        1105        1156        1155
         4        1105        1106        1157        1156
         4        1106        1107        1158        1157
         4        1107        1108        1159        1158
         4        1108        1109        1160        1159
         4        1109        1110        1161        1160
         4        1110        1111        1162        1161
         4        1111        1112        1163        1162
         4        1112        1113        1164        1163
         4        1113        1114        1165        1164
         4        1114        1115        1166        1165
         4        1115        1116        1167        1166
         4        1116        1117        1168        1167
         4        1117        1118        1169        1168
         4        1118        1119        1170        1169
         4        1119        1120        1171        1170
         4        1120        1121        1172        1171
         4        1122        1123        1174        1173
         4        1123        1124        1175        1174
         4        1124        1125        1176        1175
         4        1125        1126        1177        1176
         4        1126        1127        1178        1177
         4        1127        1128        1179        1178
         4        1128        1129        1180        1179
         4        1129        1130        1181        1180
         4        1130        1131        1182        1181
         4        1131        1132        1183        1182
         4        1132        1133        1184        1183
         4        1133        1134        1185        1184
         4        1134        1135        1186        1185
         4        1135        1136        1187        1186
         4        1136        1137        1188        1187
         4        1137        1138        1189        1188
         4        1138        1139        1190        1189
         4        1139        1140        1191        1190
         4        1140        1141        1192        1191
         4        1141        1142        1193        1192
         4        1142        1143        1194        1193
         4        1143        1144        1195        1194
         4        1144        1145        1196        1195
         4        1145        1146        1197        1196
         4        1146        1147        1198        1197
         4        1147        1148        1199        1198
         4        1148        1149        1200        1199
         4        1149        1150        1201        1200
         4        1150        1151        1202        1201
         4        1151        1152        1203        1202
         4        1152        1153        1204        1203
         4        1153        1154        1205        1204
         4        1154        1155        1206        1205
         4        1155        1156        1207        1206
         4        1156        1157        1208        1207
         4        1157        1158        1209        1208
         4        1158        1159        1210        1209
         4        1159        1160        1211        1210
         4        1160        1161        1212        1211
         4        1161        1162        1213        1212
         4        1162        1163        1214        1213
         4        1163        1164        1215        1214
         4        1164        1165        1216        1215
         4        1165        1166        1217        1216
         4        1166        1167        1218        1217
         4        1167        1168        1219        1218
         4        1168        1169        1220        1219
         4        1169        1170        1221        1220
         4        1170        1171        1222        1221
         4        1171        1172        1223        1222
         4        1173        1174        1225        1224
         4        1174        1175        1226        1225
         4        1175        1176        1227        1226
         4        1176        1177        1228        1227
         4        1177        1178        1229        1228
         4        1178        1179        1230        1229
         4        1179        1180        1231        1230
         4        1180        1181        1232        1231
         4        1181        1182        1233        1232
         4        1182        1183        1234        1233
         4        1183        1184        1235        1234
         4        1184        1185        1236        1235
         4        1185        1186        1237        1236
         4        1186        1187        1238        1237
         4        1187        1188        1239        1238
         4        1188        1189        1240        1239
         4        1189        1190        1241        1240
         4        1190        1191        1242        1241
         4        1191        1192        1243        1242
         4        1192        1193        1244        1243
         4        1193        1194        1245        1244
         4        1194        1195        1246        1245
         4        1195        1196        1247        1246
         4        1196        1197        1248        1247
         4        1197        1198        1249        1248
         4        1198        1199        1250        1249
         4        1199        1200        1251        1250
         4        1200        1201        1252        1251
         4        1201        1202        1253        1252
         4        1202        1203        1254        1253
         4        1203        1204        1255        1254
         4        1204        1205        1256        1255
         4        1205        1206        1257        1256
         4        1206        1207        1258        1257
         4        1207        1208        1259        1258
         4        1208        1209        1260        1259
         4        1209        1210        1261        1260
         4        1210        1211        1262        1261
         4        1211        1212        1263        1262
         4        1212        1213        1264        1263
         4        1213        1214        1265        1264
         4        1214        1215        1266        1265
         4        1215        1216        1267        1266
         4        1216        1217        1268        1267
         4        1217        1218        1269        1268
         4        1218        1219        1270        1269
         4        1219        1220        1271        1270
         4        1220        1221        1272        1271
         4        1221        1222        1273        1272
         4        1222        1223        1274        1273
         4        1224        1225        1276        1275
         4        1225        1226        1277        1276
         4        1226        1227        1278        1277
         4        1227        1228        1279        1278
         4        1228        1229        1280        1279
         4        1229        1230        1281        1280
         4        1230        1231        1282        1281
         4        1231        1232        1283        1282
         4        1232        1233        1284        1283
         4        1233        1234        1285        1284
         4        1234        1235        1286        1285
         4        1235        1236        1287        1286
         4        1236        1237        1288        1287
         4        1237        1238        1289        1288
         4        1238        1239        1290        1289
         4        1239        1240        1291        1290
         4        1240        1241        1292        1291
         4        1241        1242        1293        1292
         4        1242        1243        1294        1293
         4        1243        1244        1295        1294
         4        1244        1245        1296        1295
         4        1245        1246        1297        1296
         4        1246        1247        1298        1297
         4        1247        1248        1299        1298
         4        1248        1249        1300        1299
         4        1249        1250        1301        1300
         4        1250        1251        1302        1301
         4        1251        1252        1303        1302
         4        1252        1253        1304        1303
         4        1253        1254        1305        1304
         4        1254        1255        1306        1305
         4        1255        1256        1307        1306
         4        1256        1257        1308        1307
         4        1257        1258        1309        1308
         4        1258        1259        1310        1309
         4        1259        1260        1311        1310
         4        1260        1261        1312        1311
         4        1261        1262        1313        1312
         4        1262        1263        1314        1313
         4        1263        1264        1315        1314
         4        1264        1265        1316        1315
         4        1265        1266        1317        1316
         4        1266        1267        1318        1317
         4        1267        1268        1319        1318
         4        1268        1269        1320        1319
         4        1269        1270        1321        1320
         4        1270        1271        1322        1321
         4        1271        1272        1323        1322
         4        1272        1273        1324        1323
         4        1273        1274        1325        1324
         4        1275        1276        1327        1326
         4        1276        1277        1328        1327
         4        1277        1278        1329        1328
         4        1278        1279        1330        1329
         4        1279        1280        1331        1330
         4        1280        1281        1332        1331
         4        1281        1282        1333        1332
         4        1282        1283        1334        1333
         4        1283        1284        1335        1334
         4        1284        1285        1336        1335
         4        1285        1286        1337        1336
         4        1286        1287        1338        1337
         4        1287        1288        1339        1338
         4        1288        1289        1340        1339
         4        1289        1290        1341        1340
         4        1290        1291        1342        1341
         4        1291        1292        1343        1342
         4        1292        1293        1344        1343
         4        1293        1294        1345        1344
         4        1294        1295        1346        1345
         4        1295        1296        1347        1346
         4        1296        1297        1348        1347
         4        1297        1298        1349        1348
         4        1298        1299        1350        1349
         4        1299        1300        1351        1350
         4        1300        1301        1352        1351
         4        1301        1302        1353        1352
         4        1302        1303        1354        1353
         4        1303        1304        1355        1354
         4        1304        1305        1356        1355
         4        1305        1306        1357        1356
         4        1306        1307        1358        1357
         4        1307        1308        1359        1358
         4        1308        1309        1360        1359
         4        1309        1310        1361        1360
         4        1310        1311        1362        1361
         4        1311        1312        1363        1362
         4        1312        1313        1364        1363
         4        1313        1314        1365        1364
         4        1314        1315        1366        1365
         4        1315        1316        1367        1366
         4        1316        1317        1368        1367
         4        1317        1318        1369        1368
         4        1318        1319        1370        1369
         4        1319        1320        1371        1370
         4        1320        1321        1372        1371
         4        1321        1322        1373        1372
         4        1322        1323        1374        1373
         4        1323        1324        1375        1374
         4        1324        1325        1376        1375
         4        1326        1327        1378        1377
         4        1327        1328        1379        1378
         4        1328        1329        1380        1379
         4        1329        1330        1381        1380
         4        1330        1331        1382        1381
         4        1331        1332        1383        1382
         4        1332        1333        1384        1383
         4        1333        1334        1385        1384
         4        1334        1335        1386        1385
         4        1335        1336        1387        1386
         4        1336        1337        1388        1387
         4        1337        1338        1389        1388
         4        1338        1339        1390        1389
         4        1339        1340        1391        1390
         4        1340        1341        1392        1391
         4        1341        1342        1393        1392
         4        1342        1343        1394        1393
         4        1343        1344        1395        1394
         4        1344        1345        1396        1395
         4        1345        1346        1397        1396
         4        1346        1347        1398        1397
         4        1347        1348        1399        1398
         4        1348        1349        1400        1399
         4        1349        1350        1401        1400
         4        1350        1351        1402        1401
         4        1351        1352        1403        1402
         4        1352        1353        1404        1403
         4        1353        1354        1405        1404
         4        1354        1355        1406        1405
         4        1355        1356        1407        1406
         4        1356        1357        1408        1407
         4        1357        1358        1409        1408
         4        1358        1359        1410        1409
         4        1359        1360        1411        1410
         4        1360        1361        1412        1411
         4        1361        1362        1413        1412
         4        1362        1363        1414        1413
         4        1363        1364        1415        1414
         4        1364        1365        1416        1415
         4        1365        1366        1417        1416
         4        1366        1367        1418        1417
         4        1367        1368        1419        1418
         4        1368        1369        1420        1419
         4        1369        1370        1421        1420
         4        1370        1371        1422        1421
         4        1371        1372        1423        1422
         4        1372        1373        1424        1423
         4        1373        1374        1425        1424
         4        1374        1375        1426        1425
         4        1375        1376        1427        1426
         4        1377        1378        1429        1428
         4        1378        1379        1430        1429
         4        1379        1380        1431        1430
         4        1380        1381        1432        1431
         4        1381        1382        1433        1432
         4        1382        1383        1434        1433
         4        1383        1384        1435        1434
         4        1384        1385        1436        1435
         4        1385        1386        1437        1436
         4        1386        1387        1438        1437
         4        1387        1388        1439        1438
         4        1388        1389        1440        1439
         4        1389        1390        1441        1440
         4        1390        1391        1442        1441
         4        1391        1392        1443        1442
         4        1392        1393        1444        1443
         4        1393        1394        1445        1444
         4        1394        1395        1446        1445
         4        1395        1396        1447        1446
         4        1396        1397        1448        1447
         4        1397        1398        1449        1448
         4        1398        1399        1450        1449
         4        1399        1400        1451        1450
         4        1400        1401        1452        1451
         4        1401        1402        1453        1452
         4        1402        1403        1454        1453
         4        1403        1404        1455        1454
         4        1404        1405        1456        1455
         4        1405        1406        1457        1456
         4        1406        1407        1458        1457
         4        1407        1408        1459        1458
         4        1408        1409        1460        1459
         4        1409        1410        1461        1460
         4        1410        1411        1462        1461
         4        1411        1412        1463        1462
         4        1412        1413        1464        1463
         4        1413        1414        1465        1464
         4        1414        1415        1466        1465
         4        1415        1416        1467        1466
         4        1416        1417        1468        1467
         4        1417        1418        1469        1468
         4        1418        1419        1470        1469
         4        1419        1420        1471        1470
         4        1420        1421        1472        1471
         4        1421        1422        1473        1472
         4        1422        1423        1474        1473
         4        1423        1424        1475        1474
         4        1424        1425        1476        1475
         4        1425        1426        1477        1476
         4        1426        1427        1478        1477
         4        1428        1429        1480        1479
         4        1429        1430        1481        1480
         4        1430        1431        1482        1481
         4        1431        1432        1483        1482
         4        1432        1433        1484        1483
         4        1433        1434        1485        1484
         4        1434        1435        1486        1485
         4        1435        1436        1487        1486
         4        1436        1437        1488        1487
         4        1437        1438        1489        1488
         4        1438        1439        1490        1489
         4        1439        1440        1491        1490
         4        1440        1441        1492        1491
         4        1441        1442        1493        1492
         4        1442        1443        1494        1493
         4        1443        1444        1495        1494
         4        1444        1445        1496        1495
         4        1445        1446        1497        1496
         4        1446        1447        1498        1497
         4        1447        1448        1499        1498
         4        1448        1449        1500        1499
         4        1449        1450        1501        1500
         4        1450        1451        1502        1501
         4        1451        1452        1503        1502
         4        1452        1453        1504        1503
         4        1453        1454        1505        1504
         4        1454        1455        1506        1505
         4        1455        1456        1507        1506
         4        1456        1457        1508        1507
         4        1457        1458        1509        1508
         4        1458        1459        1510        1509
         4        1459        1460        1511        1510
         4        1460        1461        1512        1511
         4        1461        1462        1513        1512
         4        1462        1463        1514        1513
         4        1463        1464        1515        1514
         4        1464        1465        1516        1515
         4        1465        1466        1517        1516
         4        1466        1467        1518        1517
         4        1467        1468        1519        1518
         4        1468        1469        1520        1519
         4        1469        1470        1521        1520
         4        1470        1471        1522        1521
         4        1471        1472        1523        1522
         4        1472        1473        1524        1523
         4        1473        1474        1525        1524
         4        1474        1475        1526        1525
         4        1475        1476        1527        1526
         4        1476        1477        1528        1527
         4        1477        1478        1529        1528
         4        1479        1480        1531        1530
         4        1480        1481        1532        1531
         4        1481        1482        1533        1532
         4        1482        1483        1534        1533
         4        1483        1484        1535        1534
         4        1484        1485        1536        1535
         4        1485        1486        1537        1536
         4        1486        1487        1538        1537
         4        1487        1488        1539        1538
         4        1488        1489        1540        1539
         4        1489        1490        1541        1540
         4        1490        1491        1542        1541
         4        1491        1492        1543        1542
         4        1492        1493        1544        1543
         4        1493        1494        1545        1544
         4        1494        1495        1546        1545
         4        1495        1496        1547        1546
         4        1496        1497        1548        1547
         4        1497        1498        1549        1548
         4        1498        1499        1550        1549
         4        1499        1500        1551        1550
         4        1500        1501        1552        1551
         4        1501        1502        1553        1552
         4        1502        1503        1554        1553
         4        1503        1504        1555        1554
         4        1504        1505        1556        1555
         4        1505        1506        1557        1556
         4        1506        1507        1558        1557
         4        1507        1508        1559        1558
         4        1508        1509        1560        1559
         4        1509        1510        1561        1560
         4        1510        1511        1562        1561
         4        1511        1512        1563        1562
         4        1512        1513        1564        1563
         4        1513        1514        1565        1564
         4        1514        1515        1566        1565
         4        1515        1516        1567        1566
         4        1516        1517        1568        1567
         4        1517        1518        1569        1568
         4        1518        1519        1570        1569
         4        1519        1520        1571        1570
         4        1520        1521        1572        1571
         4        1521        1522        1573        1572
         4        1522        1523        1574        1573
         4        1523        1524        1575        1574
         4        1524        1525        1576        1575
         4        1525        1526        1577        1576
         4        1526        1527        1578        1577
         4        1527        1528        1579        1578
         4        1528        1529        1580        1579
         4        1530        1531        1582        1581
         4        1531        1532        1583        1582
         4        1532        1533        1584        1583
         4        1533        1534        1585        1584
         4        1534        1535        1586        1585
         4        1535        1536        1587        1586
         4        1536        1537        1588        1587
         4        1537        1538        1589        1588
         4        1538        1539        1590        1589
         4        1539        1540        1591        1590
         4        1540        1541        1592        1591
         4        1541        1542        1593        1592
         4        1542        1543        1594        1593
         4        1543        1544        1595        1594
         4        1544        1545        1596        1595
         4        1545        1546        1597        1596
         4        1546        1547        1598        1597
         4        1547        1548        1599        1598
         4        1548        1549        1600        1599
         4        1549        1550        1601        1600
         4        1550        1551        1602        1601
         4        1551        1552        1603        1602
         4        1552        1553        1604        1603
         4        1553        1554        1605        1604
         4        1554        1555        1606        1605
         4        1555        1556        1607        1606
         4        1556        1557        1608        1607
         4        1557        1558        1609        1608
         4        1558        1559        1610        1609
         4        1559        1560        1611        1610
         4        1560        1561        1612        1611
         4        1561        1562        1613        1612
         4        1562        1563        1614        1613
         4        1563        1564        1615        1614
         4        1564        1565        1616        1615
         4        1565        1566        1617        1616
         4        1566        1567        1618        1617
         4        1567        1568        1619        1618
         4        1568        1569        1620        1619
         4        1569        1570        1621        1620
         4        1570        1571        1622        1621
         4        1571        1572        1623        1622
         4        1572        1573        1624        1623
         4        1573        1574        1625        1624
         4        1574        1575        1626        1625
         4        1575        1576        1627        1626
         4        1576        1577        1628        1627
         4        1577        1578        1629        1628
         4        1578        1579        1630        1629
         4        1579        1580        1631        1630
         4        1581        1582        1633        1632
         4        1582        1583        1634        1633
         4        1583        1584        1635        1634
         4        1584        1585        1636        1635
         4        1585        1586        1637        1636
         4        1586        1587        1638        1637
         4        1587        1588        1639        1638
         4        1588        1589        1640        1639
         4        1589        1590        1641        1640
         4        1590        1591        1642        1641
         4        1591        1592        1643        1642
         4        1592        1593        1644        1643
         4        1593        1594        1645        1644
         4        1594        1595        1646        1645
         4        1595        1596        1647        1646
         4        1596        1597        1648        1647
         4        1597        1598        1649        1648
         4        1598        1599        1650        1649
         4        1599        1600        1651        1650
         4        1600        1601        1652        1651
         4        1601        1602        1653        1652
         4        1602        1603        1654        1653
         4        1603        1604        1655        1654
         4        1604        1605        1656        1655
         4        1605        1606        1657        1656
         4        1606        1607        1658        1657
         4        1607        1608        1659        1658
         4        1608        1609        1660        1659
         4        1609        1610        1661        1660
         4        1610        1611        1662        1661
         4        1611        1612        1663        1662
         4        1612        1613        1664        1663
         4        1613        1614        1665        1664
         4        1614        1615        1666        1665
         4        1615        1616        1667        1666
         4        1616        1617        1668        1667
         4        1617        1618        1669        1668
         4        1618        1619        1670        1669
         4        1619        1620        1671        1670
         4        1620        1621        1672        1671
         4        1621        1622        1673        1672
         4        1622        1623        1674        1673
         4        1623        1624        1675        1674
         4        1624        1625        1676        1675
         4        1625        1626        1677        1676
         4        1626        1627        1678        1677
         4        1627        1628        1679        1678
         4        1628        1629        1680        1679
         4        1629        1630        1681        1680
         4        1630        1631        1682        1681
         4        1632        1633        1684        1683
         4        1633        1634        1685        1684
         4        1634        1635        1686        1685
         4        1635        1636        1687        1686
         4        1636        1637        1688        1687
         4        1637        1638        1689        1688
         4        1638        1639        1690        1689
         4        1639        1640        1691        1690
         4        1640        1641        1692        1691
         4        1641        1642        1693        1692
         4        1642        1643        1694        1693
         4        1643        1644        1695        1694
         4        1644        1645        1696        1695
         4        1645        1646        1697        1696
         4        1646        1647        1698        1697
         4        1647        1648        1699        1698
         4        1648        1649        1700        1699
         4        1649        1650        1701        1700
         4        1650        1651        1702        1701
         4        1651        1652        1703        1702
         4        1652        1653        1704        1703
         4        1653        1654        1705        1704
         4        1654        1655        1706        1705
         4        1655        1656        1707        1706
         4        1656        1657        1708        1707
         4        1657        1658        1709        1708
         4        1658        1659        1710        1709
         4        1659        1660        1711        1710
         4        1660        1661        1712        1711
         4        1661        1662        1713        1712
         4        1662        1663        1714        1713
         4        1663        1664        1715        1714
         4        1664        1665        1716        1715
         4        1665        1666        1717        1716
         4        1666        1667        1718        1717
         4        1667        1668        1719        1718
         4        1668        1669        1720        1719
         4        1669        1670        1721        1720
         4        1670        1671        1722        1721
         4        1671        1672        1723        1722
         4        1672        1673        1724        1723
         4        1673        1674        1725        1724
         4        1674        1675        1726        1725
         4        1675        1676        1727        1726
         4        1676        1677        1728        1727
         4        1677        1678        1729        1728
         4        1678        1679        1730        1729
         4        1679        1680        1731        1730
         4        1680        1681        1732        1731
         4        1681        1682        1733        1732
         4        1683        1684        1735        1734
         4        1684        1685        1736        1735
         4        1685        1686        1737        1736
         4        1686        1687        1738        1737
         4        1687        1688        1739        1738
         4        1688        1689        1740        1739
         4        1689        1690        1741        1740
         4        1690        1691        1742        1741
         4        1691        1692        1743        1742
         4        1692        1693        1744        1743
         4        1693        1694        1745        1744
         4        1694        1695        1746        1745
         4        1695        1696        1747        1746
         4        1696        1697        1748        1747
         4        1697        1698        1749        1748
         4        1698        1699        1750        1749
         4        1699        1700        1751        1750
         4        1700        1701        1752        1751
         4        1701        1702        1753        1752
         4        1702        1703        1754        1753
         4        1703        1704        1755        1754
         4        1704        1705        1756        1755
         4        1705        1706        1757        1756
         4        1706        1707        1758        1757
         4        1707        1708        1759        1758
         4        1708        1709        1760        1759
         4        1709        1710        1761        1760
         4        1710        1711        1762        1761
         4        1711        1712        1763        1762
         4        1712        1713        1764        1763
         4        1713        1714        1765        1764
         4        1714        1715        1766        1765
         4        1715        1716        1767        1766
         4        1716        1717        1768        1767
         4        1717        1718        1769        1768
         4        1718        1719        1770        1769
         4        1719        1720        1771        1770
         4        1720        1721        1772        1771
         4        1721        1722        1773        1772
         4        1722        1723        1774        1773
         4        1723        1724        1775        1774
         4        1724        1725        1776        1775
         4        1725        1726        1777        1776
         4        1726        1727        1778        1777
         4        1727        1728        1779        1778
         4        1728        1729        1780        1779
         4        1729        1730        1781        1780
         4        1730        1731        1782        1781
         4        1731        1732        1783        1782
         4        1732        1733        1784        1783
         4        1734        1735        1786        1785
         4        1735        1736        1787        1786
         4        1736        1737        1788        1787
         4        1737        1738        1789        1788
         4        1738        1739        1790        1789
         4        1739        1740        1791        1790
         4        1740        1741        1792        1791
         4        1741        1742        1793        1792
         4        1742        1743        1794        1793
         4        1743        1744        1795        1794
         4        1744        1745        1796        1795
         4        1745        1746        1797        1796
         4        1746        1747        1798        1797
         4        1747        1748        1799        1798
         4        1748        1749        1800        1799
         4        1749        1750        1801        1800
         4        1750        1751        1802        1801
         4        1751        1752        1803        1802
         4        1752        1753        1804        1803
         4        1753        1754        1805        1804
         4        1754        1755        1806        1805
         4        1755        1756        1807        1806
         4        1756        1757        1808        1807
         4        1757        1758        1809        1808
         4        1758        1759        1810        1809
         4        1759        1760        1811        1810
         4        1760        1761        1812        1811
         4        1761        1762        1813        1812
         4        1762        1763        1814        1813
         4        1763        1764        1815        1814
         4        1764        1765        1816        1815
         4        1765        1766        1817        1816
         4        1766        1767        1818        1817
         4        1767        1768        1819        1818
         4        1768        1769        1820        1819
         4        1769        1770        1821        1820
         4        1770        1771        1822        1821
         4        1771        1772        1823        1822
         4        1772        1773        1824        1823
         4        1773        1774        1825        1824
         4        1774        1775        1826        1825
         4        1775        1776        1827        1826
         4        1776        1777        1828        1827
         4        1777        1778        1829        1828
         4        1778        1779        1830        1829
         4        1779        1780        1831        1830
         4        1780        1781        1832        1831
         4        1781        1782        1833        1832
         4        1782        1783        1834        1833
         4        1783        1784        1835        1834
         4        1785        1786        1837        1836
         4        1786        1787        1838        1837
         4        1787        1788        1839        1838
         4        1788        1789        1840        1839
         4        1789        1790        1841        1840
         4        1790        1791        1842        1841
         4        1791        1792        1843        1842
         4        1792        1793        1844        1843
         4        1793        1794        1845        1844
         4        1794        1795        1846        1845
         4        1795        1796        1847        1846
         4        1796        1797        1848        1847
         4        1797        1798        1849        1848
         4        1798        1799        1850        1849
         4        1799        1800        1851        1850
         4        1800        1801        1852        1851
         4        1801        1802        1853        1852
         4        1802        1803        1854        1853
         4        1803        1804        1855        1854
         4        1804        1805        1856        1855
         4        1805        1806        1857        1856
         4        1806        1807        1858        1857
         4        1807        1808        1859        1858
         4        1808        1809        1860        1859
         4        1809        1810        1861        1860
         4        1810        1811        1862        1861
         4        1811        1812        1863        1862
         4        1812        1813        1864        1863
         4        1813        1814        1865        1864
         4        1814        1815        1866        1865
         4        1815        1816        1867        1866
         4        1816        1817        1868        1867
         4        1817        1818        1869        1868
         4        1818        1819        1870        1869
         4        1819        1820        1871        1870
         4        1820        1821        1872        1871
         4        1821        1822        1873        1872
         4        1822        1823        1874        1873
         4        1823        1824        1875        1874
         4        1824        1825        1876        1875
         4        1825        1826        1877        1876
         4        1826        1827        1878        1877
         4        1827        1828        1879        1878
         4        1828        1829        1880        1879
         4        1829        1830        1881        1880
         4        1830        1831        1882        1881
         4        1831        1832        1883        1882
         4        1832        1833        1884        1883
         4        1833        1834        1885        1884
         4        1834        1835        1886        1885
         4        1836        1837        1888        1887
         4        1837        1838        1889        1888
         4        1838        1839        1890        1889
         4        1839        1840        1891        1890
         4        1840        1841        1892        1891
         4        1841        1842        1893        1892
         4        1842        1843        1894        1893
         4        1843        1844        1895        1894
         4        1844        1845        1896        1895
         4        1845        1846        1897        1896
         4        1846        1847        1898        1897
         4        1847        1848        1899        1898
         4        1848        1849        1900        1899
         4        1849        1850        1901        1900
         4        1850        1851        1902        1901
         4        1851        1852        1903        1902
         4        1852        1853        1904        1903
         4        1853        1854        1905        1904
         4        1854        1855        1906        1905
         4        1855        1856        1907        1906
         4        1856        1857        1908        1907
         4        1857        1858        1909        1908
         4        1858        1859        1910        1909
         4        1859        1860        1911        1910
         4        1860        1861        1912        1911
         4        1861        1862        1913        1912
         4        1862        1863        1914        1913
         4        1863        1864        1915        1914
         4        1864        1865        1916        1915
         4        1865        1866        1917        1916
         4        1866        1867        1918        1917
         4        1867        1868        1919        1918
         4        1868        1869        1920        1919
         4        1869        1870        1921        1920
         4        1870        1871        1922        1921
         4        1871        1872        1923        1922
         4        1872        1873        1924        1923
         4        1873        1874        1925        1924
         4        1874        1875        1926        1925
         4        1875        1876        1927        1926
         4        1876        1877        1928        1927
         4        1877        1878        1929        1928
         4        1878        1879        1930        1929
         4        1879        1880        1931        1930
         4        1880        1881        1932        1931
         4        1881        1882        1933        1932
         4        1882        1883        1934        1933
         4        1883        1884        1935        1934
         4        1884        1885        1936        1935
         4        1885        1886        1937        1936
         4        1887        1888        1939        1938
         4        1888        1889        1940        1939
         4        1889        1890        1941        1940
         4        1890        1891        1942        1941
         4        1891        1892        1943        1942
         4        1892        1893        1944        1943
         4        1893        1894        1945        1944
         4        1894        1895        1946        1945
         4        1895        1896        1947        1946
         4        1896        1897        1948        1947
         4        1897        1898        1949        1948
         4        1898        1899        1950        1949
         4        1899        1900        1951        1950
         4        1900        1901        1952        1951
         4        1901        1902        1953        1952
         4        1902        1903        1954        1953
         4        1903        1904        1955        1954
         4        1904        1905        1956        1955
         4        1905        1906        1957        1956
         4        1906        1907        1958        1957
         4        1907        1908        1959        1958
         4        1908        1909        1960        1959
         4        1909        1910        1961        1960
         4        1910        1911        1962        1961
         4        1911        1912        1963        1962
         4        1912        1913        1964        1963
         4        1913        1914        1965        1964
         4        1914        1915        1966        1965
         4        1915        1916        1967        1966
         4        1916        1917        1968        1967
         4        1917        1918        1969        1968
         4        1918        1919        1970        1969
         4        1919        1920        1971        1970
         4        1920        1921        1972        1971
         4        1921        1922        1973        1972
         4        1922        1923        1974        1973
         4        1923        1924        1975        1974
         4        1924        1925        1976        1975
         4        1925        1926        1977        1976
         4        1926        1927        1978        1977
         4        1927        1928        1979        1978
         4        1928        1929        1980        1979
         4        1929        1930        1981        1980
         4        1930        1931        1982        1981
         4        1931        1932        1983        1982
         4        1932        1933        1984        1983
         4        1933        1934        1985        1984
         4        1934        1935        1986        1985
         4        1935        1936        1987        1986
         4        1936        1937        1988        1987
         4        1938        1939        1990        1989
         4        1939        1940        1991        1990
         4        1940        1941        1992        1991
         4        1941        1942        1993        1992
         4        1942        1943        1994        1993
         4        1943        1944        1995        1994
         4        1944        1945        1996        1995
         4        1945        1946        1997        1996
         4        1946        1947        1998        1997
         4        1947        1948        1999        1998
         4        1948        1949        2000        1999
         4        1949        1950        2001        2000
         4        1950        1951        2002        2001
         4        1951        1952        2003        2002
         4        1952        1953        2004        2003
         4        1953        1954        2005        2004
         4        1954        1955        2006        2005
         4        1955        1956        2007        2006
         4        1956        1957        2008        2007
         4        1957        1958        2009        2008
         4        1958        1959        2010        2009
         4        1959        1960        2011        2010
         4        1960        1961        2012        2011
         4        1961        1962        2013        2012
         4        1962        1963        2014        2013
         4        1963        1964        2015        2014
         4        1964        1965        2016        2015
         4        1965        1966        2017        2016
         4        1966        1967        2018        2017
         4        1967        1968        2019        2018
         4        1968        1969        2020        2019
         4        1969        1970        2021        2020
         4        1970        1971        2022        2021
         4        1971        1972        2023        2022
         4        1972        1973        2024        2023
         4        1973        1974        2025        2024
         4        1974        1975        2026        2025
         4        1975        1976        2027        2026
         4        1976        1977        2028        2027
         4        1977        1978        2029        2028
         4        1978        1979        2030        2029
         4        1979        1980        2031        2030
         4        1980        1981        2032        2031
         4        1981        1982        2033        2032
         4        1982        1983        2034        2033
         4        1983        1984        2035        2034
         4        1984        1985        2036        2035
         4        1985        1986        2037        2036
         4        1986        1987        2038        2037
         4        1987        1988        2039        2038
         4        1989        1990        2041        2040
         4        1990        1991        2042        2041
         4        1991        1992        2043        2042
         4        1992        1993        2044        2043
         4        1993        1994        2045        2044
         4        1994        1995        2046        2045
         4        1995        1996        2047        2046
         4        1996        1997        2048        2047
         4        1997        1998        2049        2048
         4        1998        1999        2050        2049
         4        1999        2000        2051        2050
         4        2000        2001        2052        2051
         4        2001        2002        2053        2052
         4        2002        2003        2054        2053
         4        2003        2004        2055        2054
         4        2004        2005        2056        2055
         4        2005        2006        2057        2056
         4        2006        2007        2058        2057
         4        2007        2008        2059        2058
         4        2008        2009        2060        2059
         4        2009        2010        2061        2060
         4        2010        2011        2062        2061
         4        2011        2012        2063        2062
         4        2012        2013        2064        2063
         4        2013        2014        2065        2064
         4        2014        2015        2066        2065
         4        2015        2016        2067        2066
         4        2016        2017        2068        2067
         4        2017        2018        2069        2068
         4        2018        2019        2070        2069
         4        2019        2020        2071        2070
         4        2020        2021        2072        2071
         4        2021        2022        2073        2072
         4        2022        2023        2074        2073
         4        2023        2024        2075        2074
         4        2024        2025        2076        2075
         4        2025        2026        2077        2076
         4        2026        2027        2078        2077
         4        2027        2028        2079        2078
         4        2028        2029        2080        2079
         4        2029        2030        2081        2080
         4        2030        2031        2082        2081
         4        2031        2032        2083        2082
         4        2032        2033        2084        2083
         4        2033        2034        2085        2084
         4        2034        2035        2086        2085
         4        2035        2036        2087        2086
         4        2036        2037        2088        2087
         4        2037        2038        2089        2088
         4        2038        2039        2090        2089
         4        2040        2041        2092        2091
         4        2041        2042        2093        2092
         4        2042        2043        2094        2093
         4        2043        2044        2095        2094
         4        2044        2045        2096        2095
         4        2045        2046        2097        2096
         4        2046        2047        2098        2097
         4        2047        2048        2099        2098
         4        2048        2049        2100        2099
         4        2049        2050        2101        2100
         4        2050        2051        2102        2101
         4        2051        2052        2103        2102
         4        2052        2053        2104        2103
         4        2053        2054        2105        2104
         4        2054        2055        2106        2105
         4        2055        2056        2107        2106
         4        2056        2057        2108        2107
         4        2057        2058        2109        2108
         4        2058        2059        2110        2109
         4        2059        2060        2111        2110
         4        2060        2061        2112        2111
         4        2061        2062        2113        2112
         4        2062        2063        2114        2113
         4        2063        2064        2115        2114
         4        2064        2065        2116        2115
         4        2065        2066        2117        2116
         4        2066        2067        2118        2117
         4        2067        2068        2119        2118
         4        2068        2069        2120        2119
         4        2069        2070        2121        2120
         4        2070        2071        2122        2121
         4        2071        2072        2123        2122
         4        2072        2073        2124        2123
         4        2073        2074        2125        2124
         4        2074        2075        2126        2125
         4        2075        2076        2127        2126
         4        2076        2077        2128        2127
         4        2077        2078        2129        2128
         4        2078        2079        2130        2129
         4        2079        2080        2131        2130
         4        2080        2081        2132        2131
         4        2081        2082        2133        2132
         4        2082        2083        2134        2133
         4        2083        2084        2135        2134
         4        2084        2085        2136        2135
         4        2085        2086        2137        2136
         4        2086        2087        2138        2137
         4        2087        2088        2139        2138
         4        2088        2089        2140        2139
         4        2089        2090        2141        2140
         4        2091        2092        2143        2142
         4        2092        2093        2144        2143
         4        2093        2094        2145        2144
         4        2094        2095        2146        2145
         4        2095        2096        2147        2146
         4        2096        2097        2148        2147
         4        2097        2098        2149        2148
         4        2098        2099        2150        2149
         4        2099        2100        2151        2150
         4        2100        2101        2152        2151
         4        2101        2102        2153        2152
         4        2102        2103        2154        2153
         4        2103        2104        2155        2154
         4        2104        2105        2156        2155
         4        2105        2106        2157        2156
         4        2106        2107        2158        2157
         4        2107        2108        2159        2158
         4        2108        2109        2160        2159
         4        2109        2110        2161        2160
         4        2110        2111        2162        2161
         4        2111        2112        2163        2162
         4        2112        2113        2164        2163
         4        2113        2114        2165        2164
         4        2114        2115        2166        2165
         4        2115        2116        2167        2166
         4        2116        2117        2168        2167
         4        2117        2118        2169        2168
         4        2118        2119        2170        2169
         4        2119        2120        2171        2170
         4        2120        2121        2172        2171
         4        2121        2122        2173        2172
         4        2122        2123        2174        2173
         4        2123        2124        2175        2174
         4        2124        2125        2176        2175
         4        2125        2126        2177        2176
         4        2126        2127        2178        2177
         4        2127        2128        2179        2178
         4        2128        2129        2180        2179
         4        2129        2130        2181        2180
         4        2130        2131        2182        2181
         4        2131        2132        2183        2182
         4        2132        2133        2184        2183
         4        2133        2134        2185        2184
         4        2134        2135        2186        2185
         4        2135        2136        2187        2186
         4        2136        2137        2188        2187
         4        2137        2138        2189        2188
         4        2138        2139        2190        2189
         4        2139        2140        2191        2190
         4        2140        2141        2192        2191
         4        2142        2143        2194        2193
         4        2143        2144        2195        2194
         4        2144        2145        2196        2195
         4        2145        2146        2197        2196
         4        2146        2147        2198        2197
         4        2147        2148        2199        2198
         4        2148        2149        2200        2199
         4        2149        2150        2201        2200
         4        2150        2151        2202        2201
         4        2151        2152        2203        2202
         4        2152        2153        2204        2203
         4        2153        2154        2205        2204
         4        2154        2155        2206        2205
         4        2155        2156        2207        2206
         4        2156        2157        2208        2207
         4        2157        2158        2209        2208
         4        2158        2159        2210        2209
         4        2159        2160        2211        2210
         4        2160        2161        2212        2211
         4        2161        2162        2213        2212
         4        2162        2163        2214        2213
         4        2163        2164        2215        2214
         4        2164        2165        2216        2215
         4        2165        2166        2217        2216
         4        2166        2167        2218        2217
         4        2167        2168        2219        2218
         4        2168        2169        2220        2219
         4        2169        2170        2221        2220
         4        2170        2171        2222        2221
         4        2171        2172        2223        2222
         4        2172        2173        2224        2223
         4        2173        2174        2225        2224
         4        2174        2175        2226        2225
         4        2175        2176        2227        2226
         4        2176        2177        2228        2227
         4        2177        2178        2229        2228
         4        2178        2179        2230        2229
         4        2179        2180        2231        2230
         4        2180        2181        2232        2231
         4        2181        2182        2233        2232
         4        2182        2183        2234        2233
         4        2183        2184        2235        2234
         4        2184        2185        2236        2235
         4        2185        2186        2237        2236
         4        2186        2187        2238        2237
         4        2187        2188        2239        2238
         4        2188        2189        2240        2239
         4        2189        2190        2241        2240
         4        2190        2191        2242        2241
         4        2191        2192        2243        2242
         4        2193        2194        2245        2244
         4        2194        2195        2246        2245
         4        2195        2196        2247        2246
         4        2196        2197        2248        2247
         4        2197        2198        2249        2248
         4        2198        2199        2250        2249
         4        2199        2200        2251        2250
         4        2200        2201        2252        2251
         4        2201        2202        2253        2252
         4        2202        2203        2254        2253
         4        2203        2204        2255        2254
         4        2204        2205        2256        2255
         4        2205        2206        2257        2256
         4        2206        2207        2258        2257
         4        2207        2208        2259        2258
         4        2208        2209        2260        2259
         4        2209        2210        2261        2260
         4        2210        2211        2262        2261
         4        2211        2212        2263        2262
         4        2212        2213        2264        2263
         4        2213        2214        2265        2264
         4        2214        2215        2266        2265
         4        2215        2216        2267        2266
         4        2216        2217        2268        2267
         4        2217        2218        2269        2268
         4        2218        2219        2270        2269
         4        2219        2220        2271        2270
         4        2220        2221        2272        2271
         4        2221        2222        2273        2272
         4        2222        2223        2274        2273
         4        2223        2224        2275        2274
         4        2224        2225        2276        2275
         4        2225        2226        2277        2276
         4        2226        2227        2278        2277
         4        2227        2228        2279        2278
         4        2228        2229        2280        2279
         4        2229        2230        2281        2280
         4        2230        2231        2282        2281
         4        2231        2232        2283        2282
         4        2232        2233        2284        2283
         4        2233        2234        2285        2284
         4        2234        2235        2286        2285
         4        2235        2236        2287        2286
         4        2236        2237        2288        2287
         4        2237        2238        2289        2288
         4        2238        2239        2290        2289
         4        2239        2240        2291        2290
         4        2240        2241        2292        2291
         4        2241        2242        2293        2292
         4        2242        2243        2294        2293
         4        2244        2245        2296        2295
         4        2245        2246        2297        2296
         4        2246        2247        2298        2297
         4        2247        2248        2299        2298
         4        2248        2249        2300        2299
         4        2249        2250        2301        2300
         4        2250        2251        2302        2301
         4        2251        2252        2303        2302
         4        2252        2253        2304        2303
         4        2253        2254        2305        2304
         4        2254        2255        2306        2305
         4        2255        2256        2307        2306
         4        2256        2257        2308        2307
         4        2257        2258        2309        2308
         4        2258        2259        2310        2309
         4        2259        2260        2311        2310
         4        2260        2261        2312        2311
         4        2261        2262        2313        2312
         4        2262        2263        2314        2313
         4        2263        2264        2315        2314
         4        2264        2265        2316        2315
         4        2265        2266        2317        2316
         4        2266        2267        2318        2317
         4        2267        2268        2319        2318
         4        2268        2269        2320        2319
         4        2269        2270        2321        2320
         4        2270        2271        2322        2321
         4        2271        2272        2323        2322
         4        2272        2273        2324        2323
         4        2273        2274        2325        2324
         4        2274        2275        2326        2325
         4        2275        2276        2327        2326
         4        2276        2277        2328        2327
         4        2277        2278        2329        2328
         4        2278        2279        2330        2329
         4        2279        2280        2331        2330
         4        2280        2281        2332        2331
         4        2281        2282        2333        2332
         4        2282        2283        2334        2333
         4        2283        2284        2335        2334
         4        2284        2285        2336        2335
         4        2285        2286        2337        2336
         4        2286        2287        2338        2337
         4        2287        2288        2339        2338
         4        2288        2289        2340        2339
         4        2289        2290        2341        2340
         4        2290        2291        2342        2341
         4        2291        2292        2343        2342
         4        2292        2293        2344        2343
         4        2293        2294        2345        2344
         4        2295        2296        2347        2346
         4        2296        2297        2348        2347
         4        2297        2298        2349        2348
         4        2298        2299        2350        2349
         4        2299        2300        2351        2350
         4        2300        2301        2352        2351
         4        2301        2302        2353        2352
         4        2302        2303        2354        2353
         4        2303        2304        2355        2354
         4        2304        2305        2356        2355
         4        2305        2306        2357        2356
         4        2306        2307        2358        2357
         4        2307        2308        2359        2358
         4        2308        2309        2360        2359
         4        2309        2310        2361        2360
         4        2310        2311        2362        2361
         4        2311        2312        2363        2362
         4        2312        2313        2364        2363
         4        2313        2314        2365        2364
         4        2314        2315        2366        2365
         4        2315        2316        2367        2366
         4        2316        2317        2368        2367
         4        2317        2318        2369        2368
         4        2318        2319        2370        2369
         4        2319        2320        2371        2370
         4        2320        2321        2372        2371
         4        2321        2322        2373        2372
         4        2322        2323        2374        2373
         4        2323        2324        2375        2374
         4        2324        2325        2376        2375
         4        2325        2326        2377        2376
         4        2326        2327        2378        2377
         4        2327        2328        2379        2378
         4        2328        2329        2380        2379
         4        2329        2330        2381        2380
         4        2330        2331        2382        2381
         4        2331        2332        2383        2382
         4        2332        2333        2384        2383
         4        2333        2334        2385        2384
         4        2334        2335        2386        2385
         4        2335        2336        2387        2386
         4        2336        2337        2388        2387
         4        2337        2338        2389        2388
         4        2338        2339        2390        2389
         4        2339        2340        2391        2390
         4        2340        2341        2392        2391
         4        2341        2342        2393        2392
         4        2342        2343        2394        2393
         4        2343        2344        2395        2394
         4        2344        2345        2396        2395
         4        2346        2347        2398        2397
         4        2347        2348        2399        2398
         4        2348        2349        2400        2399
         4        2349        2350        2401        2400
         4        2350        2351        2402        2401
         4        2351        2352        2403        2402
         4        2352        2353        2404        2403
         4        2353        2354        2405        2404
         4        2354        2355        2406        2405
         4        2355        2356        2407        2406
         4        2356        2357        2408        2407
         4        2357        2358        2409        2408
         4        2358        2359        2410        2409
         4        2359        2360        2411        2410
         4        2360        2361        2412        2411
         4        2361        2362        2413        2412
         4        2362        2363        2414        2413
         4        2363        2364        2415        2414
         4        2364        2365        2416        2415
         4        2365        2366        2417        2416
         4        2366        2367        2418        2417
         4        2367        2368        2419        2418
         4        2368        2369        2420        2419
         4        2369        2370        2421        2420
         4        2370        2371        2422        2421
         4        2371        2372        2423        2422
         4        2372        2373        2424        2423
         4        2373        2374        2425        2424
         4        2374        2375        2426        2425
         4        2375        2376        2427        2426
         4        2376        2377        2428        2427
         4        2377        2378        2429        2428
         4        2378        2379        2430        2429
         4        2379        2380        2431        2430
         4        2380        2381        2432        2431
         4        2381        2382        2433        2432
         4        2382        2383        2434        2433
         4        2383        2384        2435        2434
         4        2384        2385        2436        2435
         4        2385        2386        2437        2436
         4        2386        2387        2438        2437
         4        2387        2388        2439        2438
         4        2388        2389        2440        2439
         4        2389        2390        2441        2440
         4        2390        2391        2442        2441
         4        2391        2392        2443        2442
         4        2392        2393        2444        2443
         4        2393        2394        2445        2444
         4        2394        2395        2446        2445
         4        2395        2396        2447        2446
         4        2397        2398        2449        2448
         4        2398        2399        2450        2449
         4        2399        2400        2451        2450
         4        2400        2401        2452        2451
         4        2401        2402        2453        2452
         4        2402        2403        2454        2453
         4        2403        2404        2455        2454
         4        2404        2405        2456        2455
         4        2405        2406        2457        2456
         4        2406        2407        2458        2457
         4        2407        2408        2459        2458
         4        2408        2409        2460        2459
         4        2409        2410        2461        2460
         4        2410        2411        2462        2461
         4        2411        2412        2463        2462
         4        2412        2413        2464        2463
         4        2413        2414        2465        2464
         4        2414        2415        2466        2465
         4        2415        2416        2467        2466
         4        2416        2417        2468        2467
         4        2417        2418        2469        2468
         4        2418        2419        2470        2469
         4        2419        2420        2471        2470
         4        2420        2421        2472        2471
         4        2421        2422        2473        2472
         4        2422        2423        2474        2473
         4        2423        2424        2475        2474
         4        2424        2425        2476        2475
         4        2425        2426        2477        2476
         4        2426        2427        2478        2477
         4        2427        2428        2479        2478
         4        2428        2429        2480        2479
         4        2429        2430        2481        2480
         4        2430        2431        2482        2481
         4        2431        2432        2483        2482
         4        2432        2433        2484        2483
         4        2433        2434        2485        2484
         4        2434        2435        2486        2485
         4        2435        2436        2487        2486
         4        2436        2437        2488        2487
         4        2437        2438        2489        2488
         4        2438        2439        2490        2489
         4        2439        2440        2491        2490
         4        2440        2441        2492        2491
         4        2441        2442        2493        2492
         4        2442        2443        2494        2493
         4        2443        2444        2495        2494
         4        2444        2445        2496        2495
         4        2445        2446        2497        2496
         4        2446        2447        2498        2497
         4        2448        2449        2500        2499
         4        2449        2450        2501        2500
         4        2450        2451        2502        2501
         4        2451        2452        2503        2502
         4        2452        2453        2504        2503
         4        2453        2454        2505        2504
         4        2454        2455        2506        2505
         4        2455        2456        2507        2506
         4        2456        2457        2508        2507
         4        2457        2458        2509        2508
         4        2458        2459        2510        2509
         4        2459        2460        2511        2510
         4        2460        2461        2512        2511
         4        2461        2462        2513        2512
         4        2462        2463        2514        2513
         4        2463        2464        2515        2514
         4        2464        2465        2516        2515
         4        2465        2466        2517        2516
         4        2466        2467        2518        2517
         4        2467        2468        2519        2518
         4        2468        2469        2520        2519
         4        2469        2470        2521        2520
         4        2470        2471        2522        2521
         4        2471        2472        2523        2522
         4        2472        2473        2524        2523
         4        2473        2474        2525        2524
         4        2474        2475        2526        2525
         4        2475        2476        2527        2526
         4        2476        2477        2528        2527
         4        2477        2478        2529        2528
         4        2478        2479        2530        2529
         4        2479        2480        2531        2530
         4        2480        2481        2532        2531
         4        2481        2482        2533        2532
         4        2482        2483        2534        2533
         4        2483        2484        2535        2534
         4        2484        2485        2536        2535
         4        2485        2486        2537        2536
         4        2486        2487        2538        2537
         4        2487        2488        2539        2538
         4        2488        2489        2540        2539
         4        2489        2490        2541        2540
         4        2490        2491        2542        2541
         4        2491        2492        2543        2542
         4        2492        2493        2544        2543
         4        2493        2494        2545        2544
         4        2494        2495        2546        2545
         4        2495        2496        2547        2546
         4        2496        2497        2548        2547
         4        2497        2498        2549        2548
         4        2499        2500        2551        2550
         4        2500        2501        2552        2551
         4        2501        2502        2553        2552
         4        2502        2503        2554        2553
         4        2503        2504        2555        2554
         4        2504        2505        2556        2555
         4        2505        2506        2557        2556
         4        2506        2507        2558        2557
         4        2507        2508        2559        2558
         4        2508        2509        2560        2559
         4        2509        2510        2561        2560
         4        2510        2511        2562        2561
         4        2511        2512        2563        2562
         4        2512        2513        2564        2563
         4        2513        2514        2565        2564
         4        2514        2515        2566        2565
         4        2515        2516        2567        2566
         4        2516        2517        2568        2567
         4        2517        2518        2569        2568
         4        2518        2519        2570        2569
         4        2519        2520        2571        2570
         4        2520        2521        2572        2571
         4        2521        2522        2573        2572
         4        2522        2523        2574        2573
         4        2523        2524        2575        2574
         4        2524        2525        2576        2575
         4        2525        2526        2577        2576
         4        2526        2527        2578        2577
         4        2527        2528        2579        2578
         4        2528        2529        2580        2579
         4        2529        2530        2581        2580
         4        2530        2531        2582        2581
         4        2531        2532        2583        2582
         4        2532        2533        2584        2583
         4        2533        2534        2585        2584
         4        2534        2535        2586        2585
         4        2535        2536        2587        2586
         4        2536        2537        2588        2587
         4        2537        2538        2589        2588
         4        2538        2539        2590        2589
         4        2539        2540        2591        2590
         4        2540        2541        2592        2591
         4        2541        2542        2593        2592
         4        2542        2543        2594        2593
         4        2543        2544        2595        2594
         4        2544        2545        2596        2595
         4        2545        2546        2597        2596
         4        2546        2547        2598        2597
         4        2547        2548        2599        2598
         4        2548        2549        2600        2599
         4        2550        2551        2602        2601
         4        2551        2552        2603        2602
         4        2552        2553        2604        2603
         4        2553        2554        2605        2604
         4        2554        2555        2606        2605
         4        2555        2556        2607        2606
         4        2556        2557        2608        2607
         4        2557        2558        2609        2608
         4        2558        2559        2610        2609
         4        2559        2560        2611        2610
         4        2560        2561        2612        2611
         4        2561        2562        2613        2612
         4        2562        2563        2614        2613
         4        2563        2564        2615        2614
         4        2564        2565        2616        2615
         4        2565        2566        2617        2616
         4        2566        2567        2618        2617
         4        2567        2568        2619        2618
         4        2568        2569        2620        2619
         4        2569        2570        2621        2620
         4        2570        2571        2622        2621
         4        2571        2572        2623        2622
         4        2572        2573        2624        2623
         4        2573        2574        2625        2624
         4        2574        2575        2626        2625
         4        2575        2576        2627        2626
         4        2576        2577        2628        2627
         4        2577        2578        2629        2628
         4        2578        2579        2630        2629
         4        2579        2580        2631        2630
         4        2580        2581        2632        2631
         4        2581        2582        2633        2632
         4        2582        2583        2634        2633
         4        2583        2584        2635        2634
         4        2584        2585        2636        2635
         4        2585        2586        2637        2636
         4        2586        2587        2638        2637
         4        2587        2588        2639        2638
         4        2588        2589        2640        2639
         4        2589        2590        2641        2640
         4        2590        2591        2642        2641
         4        2591        2592        2643        2642
         4        2592        2593        2644        2643
         4        2593        2594        2645        2644
         4        2594        2595        2646        2645
         4        2595        2596        2647        2646
         4        2596        2597        2648        2647
         4        2597        2598        2649        2648
         4        2598        2599        2650        2649
         4        2599        2600        2651        2650
         4        2601        2602        2653        2652
         4        2602        2603        2654        2653
         4        2603        2604        2655        2654
         4        2604        2605        2656        2655
         4        2605        2606        2657        2656
         4        2606        2607        2658        2657
         4        2607        2608        2659        2658
         4        2608        2609        2660        2659
         4        2609        2610        2661        2660
         4        2610        2611        2662        2661
         4        2611        2612        2663        2662
         4        2612        2613        2664        2663
         4        2613        2614        2665        2664
         4        2614        2615        2666        2665
         4        2615        2616        2667        2666
         4        2616        2617        2668        2667
         4        2617        2618        2669        2668
         4        2618        2619        2670        2669
         4        2619        2620        2671        2670
         4        2620        2621        2672        2671
         4        2621        2622        2673        2672
         4        2622        2623        2674        2673
         4        2623        2624        2675        2674
         4        2624        2625        2676        2675
         4        2625        2626        2677        2676
         4        2626        2627        2678        2677
         4        2627        2628        2679        2678
         4        2628        2629        2680        2679
         4        2629        2630        2681        2680
         4        2630        2631        2682        2681
         4        2631        2632        2683        2682
         4        2632        2633        2684        2683
         4        2633        2634        2685        2684
         4        2634        2635        2686        2685
         4        2635        2636        2687        2686
         4        2636        2637        2688        2687
         4        2637        2638        2689        2688
         4        2638        2639        2690        2689
         4        2639        2640        2691        2690
         4        2640        2641        2692        2691
         4        2641        2642        2693        2692
         4        2642        2643        2694        2693
         4        2643        2644        2695        2694
         4        2644        2645        2696        2695
         4        2645        2646        2697        2696
         4        2646        2647        2698        2697
         4        2647        2648        2699        2698
         4        2648        2649        2700        2699
         4        2649        2650        2701        2700
         4        2650        2651        2702        2701
         4        2652        2653        2704        2703
         4        2653        2654        2705        2704
         4        2654        2655        2706        2705
         4        2655        2656        2707        2706
         4        2656        2657        2708        2707
         4        2657        2658        2709        2708
         4        2658        2659        2710        2709
         4        2659        2660        2711        2710
         4        2660        2661        2712        2711
         4        2661        2662        2713        2712
         4        2662        2663        2714        2713
         4        2663        2664        2715        2714
         4        2664        2665        2716        2715
         4        2665        2666        2717        2716
         4        2666        2667        2718        2717
         4        2667        2668        2719        2718
         4        2668        2669        2720        2719
         4        2669        2670        2721        2720
         4        2670        2671        2722        2721
         4        2671        2672        2723        2722
         4        2672        2673        2724        2723
         4        2673        2674        2725        2724
         4        2674        2675        2726        2725
         4        2675        2676        2727        2726
         4        2676        2677        2728        2727
         4        2677        2678        2729        2728
         4        2678        2679        2730        2729
         4        2679        2680        2731        2730
         4        2680        2681        2732        2731
         4        2681        2682        2733        2732
         4        2682        2683        2734        2733
         4        2683        2684        2735        2734
         4        2684        2685        2736        2735
         4        2685        2686        2737        2736
         4        2686        2687        2738        2737
         4        2687        2688        2739        2738
         4        2688        2689        2740        2739
         4        2689        2690        2741        2740
         4        2690        2691        2742        2741
         4        2691        2692        2743        2742
         4        2692        2693        2744        2743
         4        2693        2694        2745        2744
         4        2694        2695        2746        2745
         4        2695        2696        2747        2746
         4        2696        2697        2748        2747
         4        2697        2698        2749        2748
         4        2698        2699        2750        2749
         4        2699        2700        2751        2750
         4        2700        2701        2752        2751
         4        2701        2702        2753        2752
         4        2703        2704        2755        2754
         4        2704        2705        2756        2755
         4        2705        2706        2757        2756
         4        2706        2707        2758        2757
         4        2707        2708        2759        2758
         4        2708        2709        2760        2759
         4        2709        2710        2761        2760
         4        2710        2711        2762        2761
         4        2711        2712        2763        2762
         4        2712        2713        2764        2763
         4        2713        2714        2765        2764
         4        2714        2715        2766        2765
         4        2715        2716        2767        2766
         4        2716        2717        2768        2767
         4        2717        2718        2769        2768
         4        2718        2719        2770        2769
         4        2719        2720        2771        2770
         4        2720        2721        2772        2771
         4        2721        2722        2773        2772
         4        2722        2723        2774        2773
         4        2723        2724        2775        2774
         4        2724        2725        2776        2775
         4        2725        2726        2777        2776
         4        2726        2727        2778        2777
         4        2727        2728        2779        2778
         4        2728        2729        2780        2779
         4        2729        2730        2781        2780
         4        2730        2731        2782        2781
         4        2731        2732        2783        2782
         4        2732        2733        2784        2783
         4        2733        2734        2785        2784
         4        2734        2735        2786        2785
         4        2735        2736        2787        2786
         4        2736        2737        2788        2787
         4        2737        2738        2789        2788
         4        2738        2739        2790        2789
         4        2739        2740        2791        2790
         4        2740        2741        2792        2791
         4        2741        2742        2793        2792
         4        2742        2743        2794        2793
         4        2743        2744        2795        2794
         4        2744        2745        2796        2795
         4        2745        2746        2797        2796
         4        2746        2747        2798        2797
         4        2747        2748        2799        2798
         4        2748        2749        2800        2799
         4        2749        2750        2801        2800
         4        2750        2751        2802        2801
         4        2751        2752        2803        2802
         4        2752        2753        2804        2803
         4        2754        2755        2806        2805
         4        2755        2756        2807        2806
         4        2756        2757        2808        2807
         4        2757        2758        2809        2808
         4        2758        2759        2810        2809
         4        2759        2760        2811        2810
         4        2760        2761        2812        2811
         4        2761        2762        2813        2812
         4        2762        2763        2814        2813
         4        2763        2764        2815        2814
         4        2764        2765        2816        2815
         4        2765        2766        2817        2816
         4        2766        2767        2818        2817
         4        2767        2768        2819        2818
         4        2768        2769        2820        2819
         4        2769        2770        2821        2820
         4        2770        2771        2822        2821
         4        2771        2772        2823        2822
         4        2772        2773        2824        2823
         4        2773        2774        2825        2824
         4        2774        2775        2826        2825
         4        2775        2776        2827        2826
         4        2776        2777        2828        2827
         4        2777        2778        2829        2828
         4        2778        2779        2830        2829
         4        2779        2780        2831        2830
         4        2780        2781        2832        2831
         4        2781        2782        2833        2832
         4        2782        2783        2834        2833
         4        2783        2784        2835        2834
         4        2784        2785        2836        2835
         4        2785        2786        2837        2836
         4        2786        2787        2838        2837
         4        2787        2788        2839        2838
         4        2788        2789        2840        2839
         4        2789        2790        2841        2840
         4        2790        2791        2842        2841
         4        2791        2792        2843        2842
         4        2792        2793        2844        2843
         4        2793        2794        2845        2844
         4        2794        2795        2846        2845
         4        2795        2796        2847        2846
         4        2796        2797        2848        2847
         4        2797        2798        2849        2848
         4        2798        2799        2850        2849
         4        2799        2800        2851        2850
         4        2800        2801        2852        2851
         4        2801        2802        2853        2852
         4        2802        2803        2854        2853
         4        2803        2804        2855        2854
         4        2805        2806        2857        2856
         4        2806        2807        2858        2857
         4        2807        2808        2859        2858
         4        2808        2809        2860        2859
         4        2809        2810        2861        2860
         4        2810        2811        2862        2861
         4        2811        2812        2863        2862
         4        2812        2813        2864        2863
         4        2813        2814        2865        2864
         4        2814        2815        2866        2865
         4        2815        2816        2867        2866
         4        2816        2817        2868        2867
         4        2817        2818        2869        2868
         4        2818        2819        2870        2869
         4        2819        2820        2871        2870
         4        2820        2821        2872        2871
         4        2821        2822        2873        2872
         4        2822        2823        2874        2873
         4        2823        2824        2875        2874
         4        2824        2825        2876        2875
         4        2825        2826        2877        2876
         4        2826        2827        2878        2877
         4        2827        2828        2879        2878
         4        2828        2829        2880        2879
         4        2829        2830        2881        2880
         4        2830        2831        2882        2881
         4        2831        2832        2883        2882
         4        2832        2833        2884        2883
         4        2833        2834        2885        2884
         4        2834        2835        2886        2885
         4        2835        2836        2887        2886
         4        2836        2837        2888        2887
         4        2837        2838        2889        2888
         4        2838        2839        2890        2889
         4        2839        2840        2891        2890
         4        2840        2841        2892        2891
         4        2841        2842        2893        2892
         4        2842        2843        2894        2893
         4        2843        2844        2895        2894
         4        2844        2845        2896        2895
         4        2845        2846        2897        2896
         4        2846        2847        2898        2897
         4        2847        2848        2899        2898
         4        2848        2849        2900        2899
         4        2849        2850        2901        2900
         4        2850        2851        2902        2901
         4        2851        2852        2903        2902
         4        2852        2853        2904        2903
         4        2853        2854        2905        2904
         4        2854        2855        2906        2905
         4        2856        2857        2908        2907
         4        2857        2858        2909        2908
         4        2858        2859        2910        2909
         4        2859        2860        2911        2910
         4        2860        2861        2912        2911
         4        2861        2862        2913        2912
         4        2862        2863        2914        2913
         4        2863        2864        2915        2914
         4        2864        2865        2916        2915
         4        2865        2866        2917        2916
         4        2866        2867        2918        2917
         4        2867        2868        2919        2918
         4        2868        2869        2920        2919
         4        2869        2870        2921        2920
         4        2870        2871        2922        2921
         4        2871        2872        2923        2922
         4        2872        2873        2924        2923
         4        2873        2874        2925        2924
         4        2874        2875        2926        2925
         4        2875        2876        2927        2926
         4        2876        2877        2928        2927
         4        2877        2878        2929        2928
         4        2878        2879        2930        2929
         4        2879        2880        2931        2930
         4        2880        2881        2932        2931
         4        2881        2882        2933        2932
         4        2882        2883        2934        2933
         4        2883        2884        2935        2934
         4        2884        2885        2936        2935
         4        2885        2886        2937        2936
         4        2886        2887        2938        2937
         4        2887        2888        2939        2938
         4        2888        2889        2940        2939
         4        2889        2890        2941        2940
         4        2890        2891        2942        2941
         4        2891        2892        2943        2942
         4        2892        2893        2944        2943
         4        2893        2894        2945        2944
         4        2894        2895        2946        2945
         4        2895        2896        2947        2946
         4        2896        2897        2948        2947
         4        2897        2898        2949        2948
         4        2898        2899        2950        2949
         4        2899        2900        2951        2950
         4        2900        2901        2952        2951
         4        2901        2902        2953        2952
         4        2902        2903        2954        2953
         4        2903        2904        2955        2954
         4        2904        2905        2956        2955
         4        2905        2906        2957        2956
         4        2907        2908        2959        2958
         4        2908        2909        2960        2959
         4        2909        2910        2961        2960
         4        2910        2911        2962        2961
         4        2911        2912        2963        2962
         4        2912        2913        2964        2963
         4        2913        2914        2965        2964
         4        2914        2915        2966        2965
         4        2915        2916        2967        2966
         4        2916        2917        2968        2967
         4        2917        2918        2969        2968
         4        2918        2919        2970        2969
         4        2919        2920        2971        2970
         4        2920        2921        2972        2971
         4        2921        2922        2973        2972
         4        2922        2923        2974        2973
         4        2923        2924        2975        2974
         4        2924        2925        2976        2975
         4        2925        2926        2977        2976
         4        2926        2927        2978        2977
         4        2927        2928        2979        2978
         4        2928        2929        2980        2979
         4        2929        2930        2981        2980
         4        2930        2931        2982        2981
         4        2931        2932        2983        2982
         4        2932        2933        2984        2983
         4        2933        2934        2985        2984
         4        2934        2935        2986        2985
         4        2935        2936        2987        2986
         4        2936        2937        2988        2987
         4        2937        2938        2989        2988
         4        2938        2939        2990        2989
         4        2939        2940        2991        2990
         4        2940        2941        2992        2991
         4        2941        2942        2993        2992
         4        2942        2943        2994        2993
         4        2943        2944        2995        2994
         4        2944        2945        2996        2995
         4        2945        2946        2997        2996
         4        2946        2947        2998        2997
         4        2947        2948        2999        2998
         4        2948        2949        3000        2999
         4        2949        2950        3001        3000
         4        2950        2951        3002        3001
         4        2951        2952        3003        3002
         4        2952        2953        3004        3003
         4        2953        2954        3005        3004
         4        2954        2955        3006        3005
         4        2955        2956        3007        3006
         4        2956        2957        3008        3007
         4        2958        2959        3010        3009
         4        2959        2960        3011        3010
         4        2960        2961        3012        3011
         4        2961        2962        3013        3012
         4        2962        2963        3014        3013
         4        2963        2964        3015        3014
         4        2964        2965        3016        3015
         4        2965        2966        3017        3016
         4        2966        2967        3018        3017
         4        2967        2968        3019        3018
         4        2968        2969        3020        3019
         4        2969        2970        3021        3020
         4        2970        2971        3022        3021
         4        2971        2972        3023        3022
         4        2972        2973        3024        3023
         4        2973        2974        3025        3024
         4        2974        2975        3026        3025
         4        2975        2976        3027        3026
         4        2976        2977        3028        3027
         4        2977        2978        3029        3028
         4        2978        2979        3030        3029
         4        2979        2980        3031        3030
         4        2980        2981        3032        3031
         4        2981        2982        3033        3032
         4        2982        2983        3034        3033
         4        2983        2984        3035        3034
         4        2984        2985        3036        3035
         4        2985        2986        3037        3036
         4        2986        2987        3038        3037
         4        2987        2988        3039        3038
         4        2988        2989        3040        3039
         4        2989        2990        3041        3040
         4        2990        2991        3042        3041
         4        2991        2992        3043        3042
         4        2992        2993        3044        3043
         4        2993        2994        3045        3044
         4        2994        2995        3046        3045
         4        2995        2996        3047        3046
         4        2996        2997        3048        3047
         4        2997        2998        3049        3048
         4        2998        2999        3050        3049
         4        2999        3000        3051        3050
         4        3000        3001        3052        3051
         4        3001        3002        3053        3052
         4        3002        3003        3054        3053
         4        3003        3004        3055        3054
         4        3004        3005        3056        3055
         4        3005        3006        3057        3056
         4        3006        3007        3058        3057
         4        3007        3008        3059        3058
         4        3009        3010        3061        3060
         4        3010        3011        3062        3061
         4        3011        3012        3063        3062
         4        3012        3013        3064        3063
         4        3013        3014        3065        3064
         4        3014        3015        3066        3065
         4        3015        3016        3067        3066
         4        3016        3017        3068        3067
         4        3017        3018        3069        3068
         4        3018        3019        3070        3069
         4        3019        3020        3071        3070
         4        3020        3021        3072        3071
         4        3021        3022        3073        3072
         4        3022        3023        3074        3073
         4        3023        3024        3075        3074
         4        3024        3025        3076        3075
         4        3025        3026        3077        3076
         4        3026        3027        3078        3077
         4        3027        3028        3079        3078
         4        3028        3029        3080        3079
         4        3029        3030        3081        3080
         4        3030        3031        3082        3081
         4        3031        3032        3083        3082
         4        3032        3033        3084        3083
         4        3033        3034        3085        3084
         4        3034        3035        3086        3085
         4        3035        3036        3087        3086
         4        3036        3037        3088        3087
         4        3037        3038        3089        3088
         4        3038        3039        3090        3089
         4        3039        3040        3091        3090
         4        3040        3041        3092        3091
         4        3041        3042        3093        3092
         4        3042        3043        3094        3093
         4        3043        3044        3095        3094
         4        3044        3045        3096        3095
         4        3045        3046        3097        3096
         4        3046        3047        3098        3097
         4        3047        3048        3099        3098
         4        3048        3049        3100        3099
         4        3049        3050        3101        3100
         4        3050        3051        3102        3101
         4        3051        3052        3103        3102
         4        3052        3053        3104        3103
         4        3053        3054        3105        3104
         4        3054        3055        3106        3105
         4        3055        3056        3107        3106
         4        3056        3057        3108        3107
         4        3057        3058        3109        3108
         4        3058        3059        3110        3109
         4        3060        3061        3112        3111
         4        3061        3062        3113        3112
         4        3062        3063        3114        3113
         4        3063        3064        3115        3114
         4        3064        3065        3116        3115
         4        3065        3066        3117        3116
         4        3066        3067        3118        3117
         4        3067        3068        3119        3118
         4        3068        3069        3120        3119
         4        3069        3070        3121        3120
         4        3070        3071        3122        3121
         4        3071        3072        3123        3122
         4        3072        3073        3124        3123
         4        3073        3074        3125        3124
         4        3074        3075        3126        3125
         4        3075        3076        3127        3126
         4        3076        3077        3128        3127
         4        3077        3078        3129        3128
         4        3078        3079        3130        3129
         4        3079        3080        3131        3130
         4        3080        3081        3132        3131
         4        3081        3082        3133        3132
         4        3082        3083        3134        3133
         4        3083        3084        3135        3134
         4        3084        3085        3136        3135
         4        3085        3086        3137        3136
         4        3086        3087        3138        3137
         4        3087        3088        3139        3138
         4        3088        3089        3140        3139
         4        3089        3090        3141        3140
         4        3090        3091        3142        3141
         4        3091        3092        3143        3142
         4        3092        3093        3144        3143
         4        3093        3094        3145        3144
         4        3094        3095        3146        3145
         4        3095        3096        3147        3146
         4        3096        3097        3148        3147
         4        3097        3098        3149        3148
         4        3098        3099        3150        3149
         4        3099        3100        3151        3150
         4        3100        3101        3152        3151
         4        3101        3102        3153        3152
         4        3102        3103        3154        3153
         4        3103        3104        3155        3154
         4        3104        3105        3156        3155
         4        3105        3106        3157        3156
         4        3106        3107        3158        3157
         4        3107        3108        3159        3158
         4        3108        3109        3160        3159
         4        3109        3110        3161        3160
         4        3111        3112        3163        3162
         4        3112        3113        3164        3163
         4        3113        3114        3165        3164
         4        3114        3115        3166        3165
         4        3115        3116        3167        3166
         4        3116        3117        3168        3167
         4        3117        3118        3169        3168
         4        3118        3119        3170        3169
         4        3119        3120        3171        3170
         4        3120        3121        3172        3171
         4        3121        3122        3173        3172
         4        3122        3123        3174        3173
         4        3123        3124        3175        3174
         4        3124        3125        3176        3175
         4        3125        3126        3177        3176
         4        3126        3127        3178        3177
         4        3127        3128        3179        3178
         4        3128        3129        3180        3179
         4        3129        3130        3181        3180
         4        3130        3131        3182        3181
         4        3131        3132        3183        3182
         4        3132        3133        3184        3183
         4        3133        3134        3185        3184
         4        3134        3135        3186        3185
         4        3135        3136        3187        3186
         4        3136        3137        3188        3187
         4        3137        3138        3189        3188
         4        3138        3139        3190        3189
         4        3139        3140        3191        3190
         4        3140        3141        3192        3191
         4        3141        3142        3193        3192
         4        3142        3143        3194        3193
         4        3143        3144        3195        3194
         4        3144        3145        3196        3195
         4        3145        3146        3197        3196
         4        3146        3147        3198        3197
         4        3147        3148        3199        3198
         4        3148        3149        3200        3199
         4        3149        3150        3201        3200
         4        3150        3151        3202        3201
         4        3151        3152        3203        3202
         4        3152        3153        3204        3203
         4        3153        3154        3205        3204
         4        3154        3155        3206        3205
         4        3155        3156        3207        3206
         4        3156        3157        3208        3207
         4        3157        3158        3209        3208
         4        3158        3159        3210        3209
         4        3159        3160        3211        3210
         4        3160        3161        3212        3211
         4        3162        3163        3214        3213
         4        3163        3164        3215        3214
         4        3164        3165        3216        3215
         4        3165        3166        3217        3216
         4        3166        3167        3218        3217
         4        3167        3168        3219        3218
         4        3168        3169        3220        3219
         4        3169        3170        3221        3220
         4        3170        3171        3222        3221
         4        3171        3172        3223        3222
         4        3172        3173        3224        3223
         4        3173        3174        3225        3224
         4        3174        3175        3226        3225
         4        3175        3176        3227        3226
         4        3176        3177        3228        3227
         4        3177        3178        3229        3228
         4        3178        3179        3230        3229
         4        3179        3180        3231        3230
         4        3180        3181        3232        3231
         4        3181        3182        3233        3232
         4        3182        3183        3234        3233
         4        3183        3184        3235        3234
         4        3184        3185        3236        3235
         4        3185        3186        3237        3236
         4        3186        3187        3238        3237
         4        3187        3188        3239        3238
         4        3188        3189        3240        3239
         4        3189        3190        3241        3240
         4        3190        3191        3242        3241
         4        3191        3192        3243        3242
         4        3192        3193        3244        3243
         4        3193        3194        3245        3244
         4        3194        3195        3246        3245
         4        3195        3196        3247        3246
         4        3196        3197        3248        3247
         4        3197        3198        3249        3248
         4        3198        3199        3250        3249
         4        3199        3200        3251        3250
         4        3200        3201        3252        3251
         4        3201        3202        3253        3252
         4        3202        3203        3254        3253
         4        3203        3204        3255        3254
         4        3204        3205        3256        3255
         4        3205        3206        3257        3256
         4        3206        3207        3258        3257
         4        3207        3208        3259        3258
         4        3208        3209        3260        3259
         4        3209        3210        3261        3260
         4        3210        3211        3262        3261
         4        3211        3212        3263        3262
         4        3213        3214        3265        3264
         4        3214        3215        3266        3265
         4        3215        3216        3267        3266
         4        3216        3217        3268        3267
         4        3217        3218        3269        3268
         4        3218        3219        3270        3269
         4        3219        3220        3271        3270
         4        3220        3221        3272        3271
         4        3221        3222        3273        3272
         4        3222        3223        3274        3273
         4        3223        3224        3275        3274
         4        3224        3225        3276        3275
         4        3225        3226        3277        3276
         4        3226        3227        3278        3277
         4        3227        3228        3279        3278
         4        3228        3229        3280        3279
         4        3229        3230        3281        3280
         4        3230        3231        3282        3281
         4        3231        3232        3283        3282
         4        3232        3233        3284        3283
         4        3233        3234        3285        3284
         4        3234        3235        3286        3285
         4        3235        3236        3287        3286
         4        3236        3237        3288        3287
         4        3237        3238        3289        3288
         4        3238        3239        3290        3289
         4        3239        3240        3291        3290
         4        3240        3241        3292        3291
         4        3241        3242        3293        3292
         4        3242        3243        3294        3293
         4        3243        3244        3295        3294
         4        3244        3245        3296        3295
         4        3245        3246        3297        3296
         4        3246        3247        3298        3297
         4        3247        3248        3299        3298
         4        3248        3249        3300        3299
         4        3249        3250        3301        3300
         4        3250        3251        3302        3301
         4        3251        3252        3303        3302
         4        3252        3253        3304        3303
         4        3253        3254        3305        3304
         4        3254        3255        3306        3305
         4        3255        3256        3307        3306
         4        3256        3257        3308        3307
         4        3257        3258        3309        3308
         4        3258        3259        3310        3309
         4        3259        3260        3311        3310
         4        3260        3261        3312        3311
         4        3261        3262        3313        3312
         4        3262        3263        3314        3313
         4        3264        3265        3316        3315
         4        3265        3266        3317        3316
         4        3266        3267        3318        3317
         4        3267        3268        3319        3318
         4        3268        3269        3320        3319
         4        3269        3270        3321        3320
         4        3270        3271        3322        3321
         4        3271        3272        3323        3322
         4        3272        3273        3324        3323
         4        3273        3274        3325        3324
         4        3274        3275        3326        3325
         4        3275        3276        3327        3326
         4        3276        3277        3328        3327
         4        3277        3278        3329        3328
         4        3278        3279        3330        3329
         4        3279        3280        3331        3330
         4        3280        3281        3332        3331
         4        3281        3282        3333        3332
         4        3282        3283        3334        3333
         4        3283        3284        3335        3334
         4        3284        3285        3336        3335
         4        3285        3286        3337        3336
         4        3286        3287        3338        3337
         4        3287        3288        3339        3338
         4        3288        3289        3340        3339
         4        3289        3290        3341        3340
         4        3290        3291        3342        3341
         4        3291        3292        3343        3342
         4        3292        3293        3344        3343
         4        3293        3294        3345        3344
         4        3294        3295        3346        3345
         4        3295        3296        3347        3346
         4        3296        3297        3348        3347
         4        3297        3298        3349        3348
         4        3298        3299        3350        3349
         4        3299        3300        3351        3350
         4        3300        3301        3352        3351
         4        3301        3302        3353        3352
         4        3302        3303        3354        3353
         4        3303        3304        3355        3354
         4        3304        3305        3356        3355
         4        3305        3306        3357        3356
         4        3306        3307        3358        3357
         4        3307        3308        3359        3358
         4        3308        3309        3360        3359
         4        3309        3310        3361        3360
         4        3310        3311        3362        3361
         4        3311        3312        3363        3362
         4        3312        3313        3364        3363
         4        3313        3314        3365        3364
         4        3315        3316        3367        3366
         4        3316        3317        3368        3367
         4        3317        3318        3369        3368
         4        3318        3319        3370        3369
         4        3319        3320        3371        3370
         4        3320        3321        3372        3371
         4        3321        3322        3373        3372
         4        3322        3323        3374        3373
         4        3323        3324        3375        3374
         4        3324        3325        3376        3375
         4        3325        3326        3377        3376
         4        3326        3327        3378        3377
         4        3327        3328        3379        3378
         4        3328        3329        3380        3379
         4        3329        3330        3381        3380
         4        3330        3331        3382        3381
         4        3331        3332        3383        3382
         4        3332        3333        3384        3383
         4        3333        3334        3385        3384
         4        3334        3335        3386        3385
         4        3335        3336        3387        3386
         4        3336        3337        3388        3387
         4        3337        3338        3389        3388
         4        3338        3339        3390        3389
         4        3339        3340        3391        3390
         4        3340        3341        3392        3391
         4        3341        3342        3393        3392
         4        3342        3343        3394        3393
         4        3343        3344        3395        3394
         4        3344        3345        3396        3395
         4        3345        3346        3397        3396
         4        3346        3347        3398        3397
         4        3347        3348        3399        3398
         4        3348        3349        3400        3399
         4        3349        3350        3401        3400
         4        3350        3351        3402        3401
         4        3351        3352        3403        3402
         4        3352        3353        3404        3403
         4        3353        3354        3405        3404
         4        3354        3355        3406        3405
         4        3355        3356        3407        3406
         4        3356        3357        3408        3407
         4        3357        3358        3409        3408
         4        3358        3359        3410        3409
         4        3359        3360        3411        3410
         4        3360        3361        3412        3411
         4        3361        3362        3413        3412
         4        3362        3363        3414        3413
         4        3363        3364        3415        3414
         4        3364        3365        3416        3415
         4        3366        3367        3418        3417
         4        3367        3368        3419        3418
         4        3368        3369        3420        3419
         4        3369        3370        3421        3420
         4        3370        3371        3422        3421
         4        3371        3372        3423        3422
         4        3372        3373        3424        3423
         4        3373        3374        3425        3424
         4        3374        3375        3426        3425
         4        3375        3376        3427        3426
         4        3376        3377        3428        3427
         4        3377        3378        3429        3428
         4        3378        3379        3430        3429
         4        3379        3380        3431        3430
         4        3380        3381        3432        3431
         4        3381        3382        3433        3432
         4        3382        3383        3434        3433
         4        3383        3384        3435        3434
         4        3384        3385        3436        3435
         4        3385        3386        3437        3436
         4        3386        3387        3438        3437
         4        3387        3388        3439        3438
         4        3388        3389        3440        3439
         4        3389        3390        3441        3440
         4        3390        3391        3442        3441
         4        3391        3392        3443        3442
         4        3392        3393        3444        3443
         4        3393        3394        3445        3444
         4        3394        3395        3446        3445
         4        3395        3396        3447        3446
         4        3396        3397        3448        3447
         4        3397        3398        3449        3448
         4        3398        3399        3450        3449
         4        3399        3400        3451        3450
         4        3400        3401        3452        3451
         4        3401        3402        3453        3452
         4        3402        3403        3454        3453
         4        3403        3404        3455        3454
         4        3404        3405        3456        3455
         4        3405        3406        3457        3456
         4        3406        3407        3458        3457
         4        3407        3408        3459        3458
         4        3408        3409        3460        3459
         4        3409        3410        3461        3460
         4        3410        3411        3462        3461
         4        3411        3412        3463        3462
         4        3412        3413        3464        3463
         4        3413        3414        3465        3464
         4        3414        3415        3466        3465
         4        3415        3416        3467        3466
         4        3417        3418        3469        3468
         4        3418        3419        3470        3469
         4        3419        3420        3471        3470
         4        3420        3421        3472        3471
         4        3421        3422        3473        3472
         4        3422        3423        3474        3473
         4        3423        3424        3475        3474
         4        3424        3425        3476        3475
         4        3425        3426        3477        3476
         4        3426        3427        3478        3477
         4        3427        3428        3479        3478
         4        3428        3429        3480        3479
         4        3429        3430        3481        3480
         4        3430        3431        3482        3481
         4        3431        3432        3483        3482
         4        3432        3433        3484        3483
         4        3433        3434        3485        3484
         4        3434        3435        3486        3485
         4        3435        3436        3487        3486
         4        3436        3437        3488        3487
         4        3437        3438        3489        3488
         4        3438        3439        3490        3489
         4        3439        3440        3491        3490
         4        3440        3441        3492        3491
         4        3441        3442        3493        3492
         4        3442        3443        3494        3493
         4        3443        3444        3495        3494
         4        3444        3445        3496        3495
         4        3445        3446        3497        3496
         4        3446        3447        3498        3497
         4        3447        3448        3499        3498
         4        3448        3449        3500        3499
         4        3449        3450        3501        3500
         4        3450        3451        3502        3501
         4        3451        3452        3503        3502
         4        3452        3453        3504        3503
         4        3453        3454        3505        3504
         4        3454        3455        3506        3505
         4        3455        3456        3507        3506
         4        3456        3457        3508        3507
         4        3457        3458        3509        3508
         4        3458        3459        3510        3509
         4        3459        3460        3511        3510
         4        3460        3461        3512        3511
         4        3461        3462        3513        3512
         4        3462        3463        3514        3513
         4        3463        3464        3515        3514
         4        3464        3465        3516        3515
         4        3465        3466        3517        3516
         4        3466        3467        3518        3517
         4        3468        3469        3520        3519
         4        3469        3470        3521        3520
         4        3470        3471        3522        3521
         4        3471        3472        3523        3522
         4        3472        3473        3524        3523
         4        3473        3474        3525        3524
         4        3474        3475        3526        3525
         4        3475        3476        3527        3526
         4        3476        3477        3528        3527
         4        3477        3478        3529        3528
         4        3478        3479        3530        3529
         4        3479        3480        3531        3530
         4        3480        3481        3532        3531
         4        3481        3482        3533        3532
         4        3482        3483        3534        3533
         4        3483        3484        3535        3534
         4        3484        3485        3536        3535
         4        3485        3486        3537        3536
         4        3486        3487        3538        3537
         4        3487        3488        3539        3538
         4        3488        3489        3540        3539
         4        3489        3490        3541        3540
         4        3490        3491        3542        3541
         4        3491        3492        3543        3542
         4        3492        3493        3544        3543
         4        3493        3494        3545        3544
         4        3494        3495        3546        3545
         4        3495        3496        3547        3546
         4        3496        3497        3548        3547
         4        3497        3498        3549        3548
         4        3498        3499        3550        3549
         4        3499        3500        3551        3550
         4        3500        3501        3552        3551
         4        3501        3502        3553        3552
         4        3502        3503        3554        3553
         4        3503        3504        3555        3554
         4        3504        3505        3556        3555
         4        3505        3506        3557        3556
         4        3506        3507        3558        3557
         4        3507        3508        3559        3558
         4        3508        3509        3560        3559
         4        3509        3510        3561        3560
         4        3510        3511        3562        3561
         4        3511        3512        3563        3562
         4        3512        3513        3564        3563
         4        3513        3514        3565        3564
         4        3514        3515        3566        3565
         4        3515        3516        3567        3566
         4        3516        3517        3568        3567
         4        3517        3518        3569        3568
         4        3519        3520        3571        3570
         4        3520        3521        3572        3571
         4        3521        3522        3573        3572
         4        3522        3523        3574        3573
         4        3523        3524        3575        3574
         4        3524        3525        3576        3575
         4        3525        3526        3577        3576
         4        3526        3527        3578        3577
         4        3527        3528        3579        3578
         4        3528        3529        3580        3579
         4        3529        3530        3581        3580
         4        3530        3531        3582        3581
         4        3531        3532        3583        3582
         4        3532        3533        3584        3583
         4        3533        3534        3585        3584
         4        3534        3535        3586        3585
         4        3535        3536        3587        3586
         4        3536        3537        3588        3587
         4        3537        3538        3589        3588
         4        3538        3539        3590        3589
         4        3539        3540        3591        3590
         4        3540        3541        3592        3591
         4        3541        3542        3593        3592
         4        3542        3543        3594        3593
         4        3543        3544        3595        3594
         4        3544        3545        3596        3595
         4        3545        3546        3597        3596
         4        3546        3547        3598        3597
         4        3547        3548        3599        3598
         4        3548        3549        3600        3599
         4        3549        3550        3601        3600
         4        3550        3551        3602        3601
         4        3551        3552        3603        3602
         4        3552        3553        3604        3603
         4        3553        3554        3605        3604
         4        3554        3555        3606        3605
         4        3555        3556        3607        3606
         4        3556        3557        3608        3607
         4        3557        3558        3609        3608
         4        3558        3559        3610        3609
         4        3559        3560        3611        3610
         4        3560        3561        3612        3611
         4        3561        3562        3613        3612
         4        3562        3563        3614        3613
         4        3563        3564        3615        3614
         4        3564        3565        3616        3615
         4        3565        3566        3617        3616
         4        3566        3567        3618        3617
         4        3567        3568        3619        3618
         4        3568        3569        3620        3619
         4        3570        3571        3622        3621
         4        3571        3572        3623        3622
         4        3572        3573        3624        3623
         4        3573        3574        3625        3624
         4        3574        3575        3626        3625
         4        3575        3576        3627        3626
         4        3576        3577        3628        3627
         4        3577        3578        3629        3628
         4        3578        3579        3630        3629
         4        3579        3580        3631        3630
         4        3580        3581        3632        3631
         4        3581        3582        3633        3632
         4        3582        3583        3634        3633
         4        3583        3584        3635        3634
         4        3584        3585        3636        3635
         4        3585        3586        3637        3636
         4        3586        3587        3638        3637
         4        3587        3588        3639        3638
         4        3588        3589        3640        3639
         4        3589        3590        3641        3640
         4        3590        3591        3642        3641
         4        3591        3592        3643        3642
         4        3592        3593        3644        3643
         4        3593        3594        3645        3644
         4        3594        3595        3646        3645
         4        3595        3596        3647        3646
         4        3596        3597        3648        3647
         4        3597        3598        3649        3648
         4        3598        3599        3650        3649
         4        3599        3600        3651        3650
         4        3600        3601        3652        3651
         4        3601        3602        3653        3652
         4        3602        3603        3654        3653
         4        3603        3604        3655        3654
         4        3604        3605        3656        3655
         4        3605        3606        3657        3656
         4        3606        3607        3658        3657
         4        3607        3608        3659        3658
         4        3608        3609        3660        3659
         4        3609        3610        3661        3660
         4        3610        3611        3662        3661
         4        3611        3612        3663        3662
         4        3612        3613        3664        3663
         4        3613        3614        3665        3664
         4        3614        3615        3666        3665
         4        3615        3616        3667        3666
         4        3616        3617        3668        3667
         4        3617        3618        3669        3668
         4        3618        3619        3670        3669
         4        3619        3620        3671        3670
         4        3621        3622        3673        3672
         4        3622        3623        3674        3673
         4        3623        3624        3675        3674
         4        3624        3625        3676        3675
         4        3625        3626        3677        3676
         4        3626        3627        3678        3677
         4        3627        3628        3679        3678
         4        3628        3629        3680        3679
         4        3629        3630        3681        3680
         4        3630        3631        3682        3681
         4        3631        3632        3683        3682
         4        3632        3633        3684        3683
         4        3633        3634        3685        3684
         4        3634        3635        3686        3685
         4        3635        3636        3687        3686
         4        3636        3637        3688        3687
         4        3637        3638        3689        3688
         4        3638        3639        3690        3689
         4        3639        3640        3691        3690
         4        3640        3641        3692        3691
         4        3641        3642        3693        3692
         4        3642        3643        3694        3693
         4        3643        3644        3695        3694
         4        3644        3645        3696        3695
         4        3645        3646        3697        3696
         4        3646        3647        3698        3697
         4        3647        3648        3699        3698
         4        3648        3649        3700        3699
         4        3649        3650        3701        3700
         4        3650        3651        3702        3701
         4        3651        3652        3703        3702
         4        3652        3653        3704        3703
         4        3653        3654        3705        3704
         4        3654        3655        3706        3705
         4        3655        3656        3707        3706
         4        3656        3657        3708        3707
         4        3657        3658        3709        3708
         4        3658        3659        3710        3709
         4        3659        3660        3711        3710
         4        3660        3661        3712        3711
         4        3661        3662        3713        3712
         4        3662        3663        3714        3713
         4        3663        3664        3715        3714
         4        3664        3665        3716        3715
         4        3665        3666        3717        3716
         4        3666        3667        3718        3717
         4        3667        3668        3719        3718
         4        3668        3669        3720        3719
         4        3669        3670        3721        3720
         4        3670        3671        3722        3721
         4        3672        3673        3724        3723
         4        3673        3674        3725        3724
         4        3674        3675        3726        3725
         4        3675        3676        3727        3726
         4        3676        3677        3728        3727
         4        3677        3678        3729        3728
         4        3678        3679        3730        3729
         4        3679        3680        3731        3730
         4        3680        3681        3732        3731
         4        3681        3682        3733        3732
         4        3682        3683        3734        3733
         4        3683        3684        3735        3734
         4        3684        3685        3736        3735
         4        3685        3686        3737        3736
         4        3686        3687        3738        3737
         4        3687        3688        3739        3738
         4        3688        3689        3740        3739
         4        3689        3690        3741        3740
         4        3690        3691        3742        3741
         4        3691        3692        3743        3742
         4        3692        3693        3744        3743
         4        3693        3694        3745        3744
         4        3694        3695        3746        3745
         4        3695        3696        3747        3746
         4        3696        3697        3748        3747
         4        3697        3698        3749        3748
         4        3698        3699        3750        3749
         4        3699        3700        3751        3750
         4        3700        3701        3752        3751
         4        3701        3702        3753        3752
         4        3702        3703        3754        3753
         4        3703        3704        3755        3754
         4        3704        3705        3756        3755
         4        3705        3706        3757        3756
         4        3706        3707        3758        3757
         4        3707        3708        3759        3758
         4        3708        3709        3760        3759
         4        3709        3710        3761        3760
         4        3710        3711        3762        3761
         4        3711        3712        3763        3762
         4        3712        3713        3764        3763
         4        3713        3714        3765        3764
         4        3714        3715        3766        3765
         4        3715        3716        3767        3766
         4        3716        3717        3768        3767
         4        3717        3718        3769        3768
         4        3718        3719        3770        3769
         4        3719        3720        3771        3770
         4        3720        3721        3772        3771
         4        3721        3722        3773        3772
         4        3723        3724        3775        3774
         4        3724        3725        3776        3775
         4        3725        3726        3777        3776
         4        3726        3727        3778        3777
         4        3727        3728        3779        3778
         4        3728        3729        3780        3779
         4        3729        3730        3781        3780
         4        3730        3731        3782        3781
         4        3731        3732        3783        3782
         4        3732        3733        3784        3783
         4        3733        3734        3785        3784
         4        3734        3735        3786        3785
         4        3735        3736        3787        3786
         4        3736        3737        3788        3787
         4        3737        3738        3789        3788
         4        3738        3739        3790        3789
         4        3739        3740        3791        3790
         4        3740        3741        3792        3791
         4        3741        3742        3793        3792
         4        3742        3743        3794        3793
         4        3743        3744        3795        3794
         4        3744        3745        3796        3795
         4        3745        3746        3797        3796
         4        3746        3747        3798        3797
         4        3747        3748        3799        3798
         4        3748        3749        3800        3799
         4        3749        3750        3801        3800
         4        3750        3751        3802        3801
         4        3751        3752        3803        3802
         4        3752        3753        3804        3803
         4        3753        3754        3805        3804
         4        3754        3755        3806        3805
         4        3755        3756        3807        3806
         4        3756        3757        3808        3807
         4        3757        3758        3809        3808
         4        3758        3759        3810        3809
         4        3759        3760        3811        3810
         4        3760        3761        3812        3811
         4        3761        3762        3813        3812
         4        3762        3763        3814        3813
         4        3763        3764        3815        3814
         4        3764        3765        3816        3815
         4        3765        3766        3817        3816
         4        3766        3767        3818        3817
         4        3767        3768        3819        3818
         4        3768        3769        3820        3819
         4        3769        3770        3821        3820
         4        3770        3771        3822        3821
         4        3771        3772        3823        3822
         4        3772        3773        3824        3823
         4        3774        3775        3826        3825
         4        3775        3776        3827        3826
         4        3776        3777        3828        3827
         4        3777        3778        3829        3828
         4        3778        3779        3830        3829
         4        3779        3780        3831        3830
         4        3780        3781        3832        3831
         4        3781        3782        3833        3832
         4        3782        3783        3834        3833
         4        3783        3784        3835        3834
         4        3784        3785        3836        3835
         4        3785        3786        3837        3836
         4        3786        3787        3838        3837
         4        3787        3788        3839        3838
         4        3788        3789        3840        3839
         4        3789        3790        3841        3840
         4        3790        3791        3842        3841
         4        3791        3792        3843        3842
         4        3792        3793        3844        3843
         4        3793        3794        3845        3844
         4        3794        3795        3846        3845
         4        3795        3796        3847        3846
         4        3796        3797        3848        3847
         4        3797        3798        3849        3848
         4        3798        3799        3850        3849
         4        3799        3800        3851        3850
         4        3800        3801        3852        3851
         4        3801        3802        3853        3852
         4        3802        3803        3854        3853
         4        3803        3804        3855        3854
         4        3804        3805        3856        3855
         4        3805        3806        3857        3856
         4        3806        3807        3858        3857
         4        3807        3808        3859        3858
         4        3808        3809        3860        3859
         4        3809        3810        3861        3860
         4        3810        3811        3862        3861
         4        3811        3812        3863        3862
         4        3812        3813        3864        3863
         4        3813        3814        3865        3864
         4        3814        3815        3866        3865
         4        3815        3816        3867        3866
         4        3816        3817        3868        3867
         4        3817        3818        3869        3868
         4        3818        3819        3870        3869
         4        3819        3820        3871        3870
         4        3820        3821        3872        3871
         4        3821        3822        3873        3872
         4        3822        3823        3874        3873
         4        3823        3824        3875        3874
         4        3825        3826        3877        3876
         4        3826        3827        3878        3877
         4        3827        3828        3879        3878
         4        3828        3829        3880        3879
         4        3829        3830        3881        3880
         4        3830        3831        3882        3881
         4        3831        3832        3883        3882
         4        3832        3833        3884        3883
         4        3833        3834        3885        3884
         4        3834        3835        3886        3885
         4        3835        3836        3887        3886
         4        3836        3837        3888        3887
         4        3837        3838        3889        3888
         4        3838        3839        3890        3889
         4        3839        3840        3891        3890
         4        3840        3841        3892        3891
         4        3841        3842        3893        3892
         4        3842        3843        3894        3893
         4        3843        3844        3895        3894
         4        3844        3845        3896        3895
         4        3845        3846        3897        3896
         4        3846        3847        3898        3897
         4        3847        3848        3899        3898
         4        3848        3849        3900        3899
         4        3849        3850        3901        3900
         4        3850        3851        3902        3901
         4        3851        3852        3903        3902
         4        3852        3853        3904        3903
         4        3853        3854        3905        3904
         4        3854        3855        3906        3905
         4        3855        3856        3907        3906
         4        3856        3857        3908        3907
         4        3857        3858        3909        3908
         4        3858        3859        3910        3909
         4        3859        3860        3911        3910
         4        3860        3861        3912        3911
         4        3861        3862        3913        3912
         4        3862        3863        3914        3913
         4        3863        3864        3915        3914
         4        3864        3865        3916        3915
         4        3865        3866        3917        3916
         4        3866        3867        3918        3917
         4        3867        3868        3919        3918
         4        3868        3869        3920        3919
         4        3869        3870        3921        3920
         4        3870        3871        3922        3921
         4        3871        3872        3923        3922
         4        3872        3873        3924        3923
         4        3873        3874        3925        3924
         4        3874        3875        3926        3925
         4        3876        3877        3928        3927
         4        3877        3878        3929        3928
         4        3878        3879        3930        3929
         4        3879        3880        3931        3930
         4        3880        3881        3932        3931
         4        3881        3882        3933        3932
         4        3882        3883        3934        3933
         4        3883        3884        3935        3934
         4        3884        3885        3936        3935
         4        3885        3886        3937        3936
         4        3886        3887        3938        3937
         4        3887        3888        3939        3938
         4        3888        3889        3940        3939
         4        3889        3890        3941        3940
         4        3890        3891        3942        3941
         4        3891        3892        3943        3942
         4        3892        3893        3944        3943
         4        3893        3894        3945        3944
         4        3894        3895        3946        3945
         4        3895        3896        3947        3946
         4        3896        3897        3948        3947
         4        3897        3898        3949        3948
         4        3898        3899        3950        3949
         4        3899        3900        3951        3950
         4        3900        3901        3952        3951
         4        3901        3902        3953        3952
         4        3902        3903        3954        3953
         4        3903        3904        3955        3954
         4        3904        3905        3956        3955
         4        3905        3906        3957        3956
         4        3906        3907        3958        3957
         4        3907        3908        3959        3958
         4        3908        3909        3960        3959
         4        3909        3910        3961        3960
         4        3910        3911        3962        3961
         4        3911        3912        3963        3962
         4        3912        3913        3964        3963
         4        3913        3914        3965        3964
         4        3914        3915        3966        3965
         4        3915        3916        3967        3966
         4        3916        3917        3968        3967
         4        3917        3918        3969        3968
         4        3918        3919        3970        3969
         4        3919        3920        3971        3970
         4        3920        3921        3972        3971
         4        3921        3922        3973        3972
         4        3922        3923        3974        3973
         4        3923        3924        3975        3974
         4        3924        3925        3976        3975
         4        3925        3926        3977        3976
         4        3927        3928        3979        3978
         4        3928        3929        3980        3979
         4        3929        3930        3981        3980
         4        3930        3931        3982        3981
         4        3931        3932        3983        3982
         4        3932        3933        3984        3983
         4        3933        3934        3985        3984
         4        3934        3935        3986        3985
         4        3935        3936        3987        3986
         4        3936        3937        3988        3987
         4        3937        3938        3989        3988
         4        3938        3939        3990        3989
         4        3939        3940        3991        3990
         4        3940        3941        3992        3991
         4        3941        3942        3993        3992
         4        3942        3943        3994        3993
         4        3943        3944        3995        3994
         4        3944        3945        3996        3995
         4        3945        3946        3997        3996
         4        3946        3947        3998        3997
         4        3947        3948        3999        3998
         4        3948        3949        4000        3999
         4        3949        3950        4001        4000
         4        3950        3951        4002        4001
         4        3951        3952        4003        4002
         4        3952        3953        4004        4003
         4        3953        3954        4005        4004
         4        3954        3955        4006        4005
         4        3955        3956        4007        4006
         4        3956        3957        4008        4007
         4        3957        3958        4009        4008
         4        3958        3959        4010        4009
         4        3959        3960        4011        4010
         4        3960        3961        4012        4011
         4        3961        3962        4013        4012
         4        3962        3963        4014        4013
         4        3963        3964        4015        4014
         4        3964        3965        4016        4015
         4        3965        3966        4017        4016
         4        3966        3967        4018        4017
         4        3967        3968        4019        4018
         4        3968        3969        4020        4019
         4        3969        3970        4021        4020
         4        3970        3971        4022        4021
         4        3971        3972        4023        4022
         4        3972        3973        4024        4023
         4        3973        3974        4025        4024
         4        3974        3975        4026        4025
         4        3975        3976        4027        4026
         4        3976        3977        4028        4027
         4        3978        3979        4030        4029
         4        3979        3980        4031        4030
         4        3980        3981        4032        4031
         4        3981        3982        4033        4032
         4        3982        3983        4034        4033
         4        3983        3984        4035        4034
         4        3984        3985        4036        4035
         4        3985        3986        4037        4036
         4        3986        3987        4038        4037
         4        3987        3988        4039        4038
         4        3988        3989        4040        4039
         4        3989        3990        4041        4040
         4        3990        3991        4042        4041
         4        3991        3992        4043        4042
         4        3992        3993        4044        4043
         4        3993        3994        4045        4044
         4        3994        3995        4046        4045
         4        3995        3996        4047        4046
         4        3996        3997        4048        4047
         4        3997        3998        4049        4048
         4        3998        3999        4050        4049
         4        3999        4000        4051        4050
         4        4000        4001        4052        4051
         4        4001        4002        4053        4052
         4        4002        4003        4054        4053
         4        4003        4004        4055        4054
         4        4004        4005        4056        4055
         4        4005        4006        4057        4056
         4        4006        4007        4058        4057
         4        4007        4008        4059        4058
         4        4008        4009        4060        4059
         4        4009        4010        4061        4060
         4        4010        4011        4062        4061
         4        4011        4012        4063        4062
         4        4012        4013        4064        4063
         4        4013        4014        4065        4064
         4        4014        4015        4066        4065
         4        4015        4016        4067        4066
         4        4016        4017        4068        4067
         4        4017        4018        4069        4068
         4        4018        4019        4070        4069
         4        4019        4020        4071        4070
         4        4020        4021        4072        4071
         4        4021        4022        4073        4072
         4        4022        4023        4074        4073
         4        4023        4024        4075        4074
         4        4024        4025        4076        4075
         4        4025        4026        4077        4076
         4        4026        4027        4078        4077
         4        4027        4028        4079        4078
         4        4029        4030        4081        4080
         4        4030        4031        4082        4081
         4        4031        4032        4083        4082
         4        4032        4033        4084        4083
         4        4033        4034        4085        4084
         4        4034        4035        4086        4085
         4        4035        4036        4087        4086
         4        4036        4037        4088        4087
         4        4037        4038        4089        4088
         4        4038        4039        4090        4089
         4        4039        4040        4091        4090
         4        4040        4041        4092        4091
         4        4041        4042        4093        4092
         4        4042        4043        4094        4093
         4        4043        4044        4095        4094
         4        4044        4045        4096        4095
         4        4045        4046        4097        4096
         4        4046        4047        4098        4097
         4        4047        4048        4099        4098
         4        4048        4049        4100        4099
         4        4049        4050        4101        4100
         4        4050        4051        4102        4101
         4        4051        4052        4103        4102
         4        4052        4053        4104        4103
         4        4053        4054        4105        4104
         4        4054        4055        4106        4105
         4        4055        4056        4107        4106
         4        4056        4057        4108        4107
         4        4057        4058        4109        4108
         4        4058        4059        4110        4109
         4        4059        4060        4111        4110
         4        4060        4061        4112        4111
         4        4061        4062        4113        4112
         4        4062        4063        4114        4113
         4        4063        4064        4115        4114
         4        4064        4065        4116        4115
         4        4065        4066        4117        4116
         4        4066        4067        4118        4117
         4        4067        4068        4119        4118
         4        4068        4069        4120        4119
         4        4069        4070        4121        4120
         4        4070        4071        4122        4121
         4        4071        4072        4123        4122
         4        4072        4073        4124        4123
         4        4073        4074        4125        4124
         4        4074        4075        4126        4125
         4        4075        4076        4127        4126
         4        4076        4077        4128        4127
         4        4077        4078        4129        4128
         4        4078        4079        4130        4129
         4        4080        4081        4132        4131
         4        4081        4082        4133        4132
         4        4082        4083        4134        4133
         4        4083        4084        4135        4134
         4        4084        4085        4136        4135
         4        4085        4086        4137        4136
         4        4086        4087        4138        4137
         4        4087        4088        4139        4138
         4        4088        4089        4140        4139
         4        4089        4090        4141        4140
         4        4090        4091        4142        4141
         4        4091        4092        4143        4142
         4        4092        4093        4144        4143
         4        4093        4094        4145        4144
         4        4094        4095        4146        4145
         4        4095        4096        4147        4146
         4        4096        4097        4148        4147
         4        4097        4098        4149        4148
         4        4098        4099        4150        4149
         4        4099        4100        4151        4150
         4        4100        4101        4152        4151
         4        4101        4102        4153        4152
         4        4102        4103        4154        4153
         4        4103        4104        4155        4154
         4        4104        4105        4156        4155
         4        4105        4106        4157        4156
         4        4106        4107        4158        4157
         4        4107        4108        4159        4158
         4        4108        4109        4160        4159
         4        4109        4110        4161        4160
         4        4110        4111        4162        4161
         4        4111        4112        4163        4162
         4        4112        4113        4164        4163
         4        4113        4114        4165        4164
         4        4114        4115        4166        4165
         4        4115        4116        4167        4166
         4        4116        4117        4168        4167
         4        4117        4118        4169        4168
         4        4118        4119        4170        4169
         4        4119        4120        4171        4170
         4        4120        4121        4172        4171
         4        4121        4122        4173        4172
         4        4122        4123        4174        4173
         4        4123        4124        4175        4174
         4        4124        4125        4176        4175
         4        4125        4126        4177        4176
         4        4126        4127        4178        4177
         4        4127        4128        4179        4178
         4        4128        4129        4180        4179
         4        4129        4130        4181        4180
         4        4131        4132        4183        4182
         4        4132        4133        4184        4183
         4        4133        4134        4185        4184
         4        4134        4135        4186        4185
         4        4135        4136        4187        4186
         4        4136        4137        4188        4187
         4        4137        4138        4189        4188
         4        4138        4139        4190        4189
         4        4139        4140        4191        4190
         4        4140        4141        4192        4191
         4        4141        4142        4193        4192
         4        4142        4143        4194        4193
         4        4143        4144        4195        4194
         4        4144        4145        4196        4195
         4        4145        4146        4197        4196
         4        4146        4147        4198        4197
         4        4147        4148        4199        4198
         4        4148        4149        4200        4199
         4        4149        4150        4201        4200
         4        4150        4151        4202        4201
         4        4151        4152        4203        4202
         4        4152        4153        4204        4203
         4        4153        4154        4205        4204
         4        4154        4155        4206        4205
         4        4155        4156        4207        4206
         4        4156        4157        4208        4207
         4        4157        4158        4209        4208
         4        4158        4159        4210        4209
         4        4159        4160        4211        4210
         4        4160        4161        4212        4211
         4        4161        4162        4213        4212
         4        4162        4163        4214        4213
         4        4163        4164        4215        4214
         4        4164        4165        4216        4215
         4        4165        4166        4217        4216
         4        4166        4167        4218        4217
         4        4167        4168        4219        4218
         4        4168        4169        4220        4219
         4        4169        4170        4221        4220
         4        4170        4171        4222        4221
         4        4171        4172        4223        4222
         4        4172        4173        4224        4223
         4        4173        4174        4225        4224
         4        4174        4175        4226        4225
         4        4175        4176        4227        4226
         4        4176        4177        4228        4227
         4        4177        4178        4229        4228
         4        4178        4179        4230        4229
         4        4179        4180        4231        4230
         4        4180        4181        4232        4231
         4        4182        4183        4234        4233
         4        4183        4184        4235        4234
         4        4184        4185        4236        4235
         4        4185        4186        4237        4236
         4        4186        4187        4238        4237
         4        4187        4188        4239        4238
         4        4188        4189        4240        4239
         4        4189        4190        4241        4240
         4        4190        4191        4242        4241
         4        4191        4192        4243        4242
         4        4192        4193        4244        4243
         4        4193        4194        4245        4244
         4        4194        4195        4246        4245
         4        4195        4196        4247        4246
         4        4196        4197        4248        4247
         4        4197        4198        4249        4248
         4        4198        4199        4250        4249
         4        4199        4200        4251        4250
         4        4200        4201        4252        4251
         4        4201        4202        4253        4252
         4        4202        4203        4254        4253
         4        4203        4204        4255        4254
         4        4204        4205        4256        4255
         4        4205        4206        4257        4256
         4        4206        4207        4258        4257
         4        4207        4208        4259        4258
         4        4208        4209        4260        4259
         4        4209        4210        4261        4260
         4        4210        4211        4262        4261
         4        4211        4212        4263        4262
         4        4212        4213        4264        4263
         4        4213        4214        4265        4264
         4        4214        4215        4266        4265
         4        4215        4216        4267        4266
         4        4216        4217        4268        4267
         4        4217        4218        4269        4268
         4        4218        4219        4270        4269
         4        4219        4220        4271        4270
         4        4220        4221        4272        4271
         4        4221        4222        4273        4272
         4        4222        4223        4274        4273
         4        4223        4224        4275        4274
         4        4224        4225        4276        4275
         4        4225        4226        4277        4276
         4        4226        4227        4278        4277
         4        4227        4228        4279        4278
         4        4228        4229        4280        4279
         4        4229        4230        4281        4280
         4        4230        4231        4282        4281
         4        4231        4232        4283        4282
         4        4233        4234        4285        4284
         4        4234        4235        4286        4285
         4        4235        4236        4287        4286
         4        4236        4237        4288        4287
         4        4237        4238        4289        4288
         4        4238        4239        4290        4289
         4        4239        4240        4291        4290
         4        4240        4241        4292        4291
         4        4241        4242        4293        4292
         4        4242        4243        4294        4293
         4        4243        4244        4295        4294
         4        4244        4245        4296        4295
         4        4245        4246        4297        4296
         4        4246        4247        4298        4297
         4        4247        4248        4299        4298
         4        4248        4249        4300        4299
         4        4249        4250        4301        4300
         4        4250        4251        4302        4301
         4        4251        4252        4303        4302
         4        4252        4253        4304        4303
         4        4253        4254        4305        4304
         4        4254        4255        4306        4305
         4        4255        4256        4307        4306
         4        4256        4257        4308        4307
         4        4257        4258        4309        4308
         4        4258        4259        4310        4309
         4        4259        4260        4311        4310
         4        4260        4261        4312        4311
         4        4261        4262        4313        4312
         4        4262        4263        4314        4313
         4        4263        4264        4315        4314
         4        4264        4265        4316        4315
         4        4265        4266        4317        4316
         4        4266        4267        4318        4317
         4        4267        4268        4319        4318
         4        4268        4269        4320        4319
         4        4269        4270        4321        4320
         4        4270        4271        4322        4321
         4        4271        4272        4323        4322
         4        4272        4273        4324        4323
         4        4273        4274        4325        4324
         4        4274        4275        4326        4325
         4        4275        4276        4327        4326
         4        4276        4277        4328        4327
         4        4277        4278        4329        4328
         4        4278        4279        4330        4329
         4        4279        4280        4331        4330
         4        4280        4281        4332        4331
         4        4281        4282        4333        4332
         4        4282        4283        4334        4333
         4        4284        4285        4336        4335
         4        4285        4286        4337        4336
         4        4286        4287        4338        4337
         4        4287        4288        4339        4338
         4        4288        4289        4340        4339
         4        4289        4290        4341        4340
         4        4290        4291        4342        4341
         4        4291        4292        4343        4342
         4        4292        4293        4344        4343
         4        4293        4294        4345        4344
         4        4294        4295        4346        4345
         4        4295        4296        4347        4346
         4        4296        4297        4348        4347
         4        4297        4298        4349        4348
         4        4298        4299        4350        4349
         4        4299        4300        4351        4350
         4        4300        4301        4352        4351
         4        4301        4302        4353        4352
         4        4302        4303        4354        4353
         4        4303        4304        4355        4354
         4        4304        4305        4356        4355
         4        4305        4306        4357        4356
         4        4306        4307        4358        4357
         4        4307        4308        4359        4358
         4        4308        4309        4360        4359
         4        4309        4310        4361        4360
         4        4310        4311        4362        4361
         4        4311        4312        4363        4362
         4        4312        4313        4364        4363
         4        4313        4314        4365        4364
         4        4314        4315        4366        4365
         4        4315        4316        4367        4366
         4        4316        4317        4368        4367
         4        4317        4318        4369        4368
         4        4318        4319        4370        4369
         4        4319        4320        4371        4370
         4        4320        4321        4372        4371
         4        4321        4322        4373        4372
         4        4322        4323        4374        4373
         4        4323        4324        4375        4374
         4        4324        4325        4376        4375
         4        4325        4326        4377        4376
         4        4326        4327        4378        4377
         4        4327        4328        4379        4378
         4        4328        4329        4380        4379
         4        4329        4330        4381        4380
         4        4330        4331        4382        4381
         4        4331        4332        4383        4382
         4        4332        4333        4384        4383
         4        4333        4334        4385        4384
         4        4335        4336        4387        4386
         4        4336        4337        4388        4387
         4        4337        4338        4389        4388
         4        4338        4339        4390        4389
         4        4339        4340        4391        4390
         4        4340        4341        4392        4391
         4        4341        4342        4393        4392
         4        4342        4343        4394        4393
         4        4343        4344        4395        4394
         4        4344        4345        4396        4395
         4        4345        4346        4397        4396
         4        4346        4347        4398        4397
         4        4347        4348        4399        4398
         4        4348        4349        4400        4399
         4        4349        4350        4401        4400
         4        4350        4351        4402        4401
         4        4351        4352        4403        4402
         4        4352        4353        4404        4403
         4        4353        4354        4405        4404
         4        4354        4355        4406        4405
         4        4355        4356        4407        4406
         4        4356        4357        4408        4407
         4        4357        4358        4409        4408
         4        4358        4359        4410        4409
         4        4359        4360        4411        4410
         4        4360        4361        4412        4411
         4        4361        4362        4413        4412
         4        4362        4363        4414        4413
         4        4363        4364        4415        4414
         4        4364        4365        4416        4415
         4        4365        4366        4417        4416
         4        4366        4367        4418        4417
         4        4367        4368        4419        4418
         4        4368        4369        4420        4419
         4        4369        4370        4421        4420
         4        4370        4371        4422        4421
         4        4371        4372        4423        4422
         4        4372        4373        4424        4423
         4        4373        4374        4425        4424
         4        4374        4375        4426        4425
         4        4375        4376        4427        4426
         4        4376        4377        4428        4427
         4        4377        4378        4429        4428
         4        4378        4379        4430        4429
         4        4379        4380        4431        4430
         4        4380        4381        4432        4431
         4        4381        4382        4433        4432
         4        4382        4383        4434        4433
         4        4383        4384        4435        4434
         4        4384        4385        4436        4435
         4        4386        4387        4438        4437
         4        4387        4388        4439        4438
         4        4388        4389        4440        4439
         4        4389        4390        4441        4440
         4        4390        4391        4442        4441
         4        4391        4392        4443        4442
         4        4392        4393        4444        4443
         4        4393        4394        4445        4444
         4        4394        4395        4446        4445
         4        4395        4396        4447        4446
         4        4396        4397        4448        4447
         4        4397        4398        4449        4448
         4        4398        4399        4450        4449
         4        4399        4400        4451        4450
         4        4400        4401        4452        4451
         4        4401        4402        4453        4452
         4        4402        4403        4454        4453
         4        4403        4404        4455        4454
         4        4404        4405        4456        4455
         4        4405        4406        4457        4456
         4        4406        4407        4458        4457
         4        4407        4408        4459        4458
         4        4408        4409        4460        4459
         4        4409        4410        4461        4460
         4        4410        4411        4462        4461
         4        4411        4412        4463        4462
         4        4412        4413        4464        4463
         4        4413        4414        4465        4464
         4        4414        4415        4466        4465
         4        4415        4416        4467        4466
         4        4416        4417        4468        4467
         4        4417        4418        4469        4468
         4        4418        4419        4470        4469
         4        4419        4420        4471        4470
         4        4420        4421        4472        4471
         4        4421        4422        4473        4472
         4        4422        4423        4474        4473
         4        4423        4424        4475        4474
         4        4424        4425        4476        4475
         4        4425        4426        4477        4476
         4        4426        4427        4478        4477
         4        4427        4428        4479        4478
         4        4428        4429        4480        4479
         4        4429        4430        4481        4480
         4        4430        4431        4482        4481
         4        4431        4432        4483        4482
         4        4432        4433        4484        4483
         4        4433        4434        4485        4484
         4        4434        4435        4486        4485
         4        4435        4436        4487        4486
         4        4437        4438        4489        4488
         4        4438        4439        4490        4489
         4        4439        4440        4491        4490
         4        4440        4441        4492        4491
         4        4441        4442        4493        4492
         4        4442        4443        4494        4493
         4        4443        4444        4495        4494
         4        4444        4445        4496        4495
         4        4445        4446        4497        4496
         4        4446        4447        4498        4497
         4        4447        4448        4499        4498
         4        4448        4449        4500        4499
         4        4449        4450        4501        4500
         4        4450        4451        4502        4501
         4        4451        4452        4503        4502
         4        4452        4453        4504        4503
         4        4453        4454        4505        4504
         4        4454        4455        4506        4505
         4        4455        4456        4507        4506
         4        4456        4457        4508        4507
         4        4457        4458        4509        4508
         4        4458        4459        4510        4509
         4        4459        4460        4511        4510
         4        4460        4461        4512        4511
         4        4461        4462        4513        4512
         4        4462        4463        4514        4513
         4        4463        4464        4515        4514
         4        4464        4465        4516        4515
         4        4465        4466        4517        4516
         4        4466        4467        4518        4517
         4        4467        4468        4519        4518
         4        4468        4469        4520        4519
         4        4469        4470        4521        4520
         4        4470        4471        4522        4521
         4        4471        4472        4523        4522
         4        4472        4473        4524        4523
         4        4473        4474        4525        4524
         4        4474        4475        4526        4525
         4        4475        4476        4527        4526
         4        4476        4477        4528        4527
         4        4477        4478        4529        4528
         4        4478        4479        4530        4529
         4        4479        4480        4531        4530
         4        4480        4481        4532        4531
         4        4481        4482        4533        4532
         4        4482        4483        4534        4533
         4        4483        4484        4535        4534
         4        4484        4485        4536        4535
         4        4485        4486        4537        4536
         4        4486        4487        4538        4537
         4        4488        4489        4540        4539
         4        4489        4490        4541        4540
         4        4490        4491        4542        4541
         4        4491        4492        4543        4542
         4        4492        4493        4544        4543
         4        4493        4494        4545        4544
         4        4494        4495        4546        4545
         4        4495        4496        4547        4546
         4        4496        4497        4548        4547
         4        4497        4498        4549        4548
         4        4498        4499        4550        4549
         4        4499        4500        4551        4550
         4        4500        4501        4552        4551
         4        4501        4502        4553        4552
         4        4502        4503        4554        4553
         4        4503        4504        4555        4554
         4        4504        4505        4556        4555
         4        4505        4506        4557        4556
         4        4506        4507        4558        4557
         4        4507        4508        4559        4558
         4        4508        4509        4560        4559
         4        4509        4510        4561        4560
         4        4510        4511        4562        4561
         4        4511        4512        4563        4562
         4        4512        4513        4564        4563
         4        4513        4514        4565        4564
         4        4514        4515        4566        4565
         4        4515        4516        4567        4566
         4        4516        4517        4568        4567
         4        4517        4518        4569        4568
         4        4518        4519        4570        4569
         4        4519        4520        4571        4570
         4        4520        4521        4572        4571
         4        4521        4522        4573        4572
         4        4522        4523        4574        4573
         4        4523        4524        4575        4574
         4        4524        4525        4576        4575
         4        4525        4526        4577        4576
         4        4526        4527        4578        4577
         4        4527        4528        4579        4578
         4        4528        4529        4580        4579
         4        4529        4530        4581        4580
         4        4530        4531        4582        4581
         4        4531        4532        4583        4582
         4        4532        4533        4584        4583
         4        4533        4534        4585        4584
         4        4534        4535        4586        4585
         4        4535        4536        4587        4586
         4        4536        4537        4588        4587
         4        4537        4538        4589        4588
         4        4539        4540        4591        4590
         4        4540        4541        4592        4591
         4        4541        4542        4593        4592
         4        4542        4543        4594        4593
         4        4543        4544        4595        4594
         4        4544        4545        4596        4595
         4        4545        4546        4597        4596
         4        4546        4547        4598        4597
         4        4547        4548        4599        4598
         4        4548        4549        4600        4599
         4        4549        4550        4601        4600
         4        4550        4551        4602        4601
         4        4551        4552        4603        4602
         4        4552        4553        4604        4603
         4        4553        4554        4605        4604
         4        4554        4555        4606        4605
         4        4555        4556        4607        4606
         4        4556        4557        4608        4607
         4        4557        4558        4609        4608
         4        4558        4559        4610        4609
         4        4559        4560        4611        4610
         4        4560        4561        4612        4611
         4        4561        4562        4613        4612
         4        4562        4563        4614        4613
         4        4563        4564        4615        4614
         4        4564        4565        4616        4615
         4        4565        4566        4617        4616
         4        4566        4567        4618        4617
         4        4567        4568        4619        4618
         4        4568        4569        4620        4619
         4        4569        4570        4621        4620
         4        4570        4571        4622        4621
         4        4571        4572        4623        4622
         4        4572        4573        4624        4623
         4        4573        4574        4625        4624
         4        4574        4575        4626        4625
         4        4575        4576        4627        4626
         4        4576        4577        4628        4627
         4        4577        4578        4629        4628
         4        4578        4579        4630        4629
         4        4579        4580        4631        4630
         4        4580        4581        4632        4631
         4        4581        4582        4633        4632
         4        4582        4583        4634        4633
         4        4583        4584        4635        4634
         4        4584        4585        4636        4635
         4        4585        4586        4637        4636
         4        4586        4587        4638        4637
         4        4587        4588        4639        4638
         4        4588        4589        4640        4639
         4        4590        4591        4642        4641
         4        4591        4592        4643        4642
         4        4592        4593        4644        4643
         4        4593        4594        4645        4644
         4        4594        4595        4646        4645
         4        4595        4596        4647        4646
         4        4596        4597        4648        4647
         4        4597        4598        4649        4648
         4        4598        4599        4650        4649
         4        4599        4600        4651        4650
         4        4600        4601        4652        4651
         4        4601        4602        4653        4652
         4        4602        4603        4654        4653
         4        4603        4604        4655        4654
         4        4604        4605        4656        4655
         4        4605        4606        4657        4656
         4        4606        4607        4658        4657
         4        4607        4608        4659        4658
         4        4608        4609        4660        4659
         4        4609        4610        4661        4660
         4        4610        4611        4662        4661
         4        4611        4612        4663        4662
         4        4612        4613        4664        4663
         4        4613        4614        4665        4664
         4        4614        4615        4666        4665
         4        4615        4616        4667        4666
         4        4616        4617        4668        4667
         4        4617        4618        4669        4668
         4        4618        4619        4670        4669
         4        4619        4620        4671        4670
         4        4620        4621        4672        4671
         4        4621        4622        4673        4672
         4        4622        4623        4674        4673
         4        4623        4624        4675        4674
         4        4624        4625        4676        4675
         4        4625        4626        4677        4676
         4        4626        4627        4678        4677
         4        4627        4628        4679        4678
         4        4628        4629        4680        4679
         4        4629        4630        4681        4680
         4        4630        4631        4682        4681
         4        4631        4632        4683        4682
         4        4632        4633        4684        4683
         4        4633        4634        4685        4684
         4        4634        4635        4686        4685
         4        4635        4636        4687        4686
         4        4636        4637        4688        4687
         4        4637        4638        4689        4688
         4        4638        4639        4690        4689
         4        4639        4640        4691        4690
         4        4641        4642        4693        4692
         4        4642        4643        4694        4693
         4        4643        4644        4695        4694
         4        4644        4645        4696        4695
         4        4645        4646        4697        4696
         4        4646        4647        4698        4697
         4        4647        4648        4699        4698
         4        4648        4649        4700        4699
         4        4649        4650        4701        4700
         4        4650        4651        4702        4701
         4        4651        4652        4703        4702
         4        4652        4653        4704        4703
         4        4653        4654        4705        4704
         4        4654        4655        4706        4705
         4        4655        4656        4707        4706
         4        4656        4657        4708        4707
         4        4657        4658        4709        4708
         4        4658        4659        4710        4709
         4        4659        4660        4711        4710
         4        4660        4661        4712        4711
         4        4661        4662        4713        4712
         4        4662        4663        4714        4713
         4        4663        4664        4715        4714
         4        4664        4665        4716        4715
         4        4665        4666        4717        4716
         4        4666        4667        4718        4717
         4        4667        4668        4719        4718
         4        4668        4669        4720        4719
         4        4669        4670        4721        4720
         4        4670        4671        4722        4721
         4        4671        4672        4723        4722
         4        4672        4673        4724        4723
         4        4673        4674        4725        4724
         4        4674        4675        4726        4725
         4        4675        4676        4727        4726
         4        4676        4677        4728        4727
         4        4677        4678        4729        4728
         4        4678        4679        4730        4729
         4        4679        4680        4731        4730
         4        4680        4681        4732        4731
         4        4681        4682        4733        4732
         4        4682        4683        4734        4733
         4        4683        4684        4735        4734
         4        4684        4685        4736        4735
         4        4685        4686        4737        4736
         4        4686        4687        4738        4737
         4        4687        4688        4739        4738
         4        4688        4689        4740        4739
         4        4689        4690        4741        4740
         4        4690        4691        4742        4741
         4        4692        4693        4744        4743
         4        4693        4694        4745        4744
         4        4694        4695        4746        4745
         4        4695        4696        4747        4746
         4        4696        4697        4748        4747
         4        4697        4698        4749        4748
         4        4698        4699        4750        4749
         4        4699        4700        4751        4750
         4        4700        4701        4752        4751
         4        4701        4702        4753        4752
         4        4702        4703        4754        4753
         4        4703        4704        4755        4754
         4        4704        4705        4756        4755
         4        4705        4706        4757        4756
         4        4706        4707        4758        4757
         4        4707        4708        4759        4758
         4        4708        4709        4760        4759
         4        4709        4710        4761        4760
         4        4710        4711        4762        4761
         4        4711        4712        4763        4762
         4        4712        4713        4764        4763
         4        4713        4714        4765        4764
         4        4714        4715        4766        4765
         4        4715        4716        4767        4766
         4        4716        4717        4768        4767
         4        4717        4718        4769        4768
         4        4718        4719        4770        4769
         4        4719        4720        4771        4770
         4        4720        4721        4772        4771
         4        4721        4722        4773        4772
         4        4722        4723        4774        4773
         4        4723        4724        4775        4774
         4        4724        4725        4776        4775
         4        4725        4726        4777        4776
         4        4726        4727        4778        4777
         4        4727        4728        4779        4778
         4        4728        4729        4780        4779
         4        4729        4730        4781        4780
         4        4730        4731        4782        4781
         4        4731        4732        4783        4782
         4        4732        4733        4784        4783
         4        4733        4734        4785        4784
         4        4734        4735        4786        4785
         4        4735        4736        4787        4786
         4        4736        4737        4788        4787
         4        4737        4738        4789        4788
         4        4738        4739        4790        4789
         4        4739        4740        4791        4790
         4        4740        4741        4792        4791
         4        4741        4742        4793        4792
         4        4743        4744        4795        4794
         4        4744        4745        4796        4795
         4        4745        4746        4797        4796
         4        4746        4747        4798        4797
         4        4747        4748        4799        4798
         4        4748        4749        4800        4799
         4        4749        4750        4801        4800
         4        4750        4751        4802        4801
         4        4751        4752        4803        4802
         4        4752        4753        4804        4803
         4        4753        4754        4805        4804
         4        4754        4755        4806        4805
         4        4755        4756        4807        4806
         4        4756        4757        4808        4807
         4        4757        4758        4809        4808
         4        4758        4759        4810        4809
         4        4759        4760        4811        4810
         4        4760        4761        4812        4811
         4        4761        4762        4813        4812
         4        4762        4763        4814        4813
         4        4763        4764        4815        4814
         4        4764        4765        4816        4815
         4        4765        4766        4817        4816
         4        4766        4767        4818        4817
         4        4767        4768        4819        4818
         4        4768        4769        4820        4819
         4        4769        4770        4821        4820
         4        4770        4771        4822        4821
         4        4771        4772        4823        4822
         4        4772        4773        4824        4823
         4        4773        4774        4825        4824
         4        4774        4775        4826        4825
         4        4775        4776        4827        4826
         4        4776        4777        4828        4827
         4        4777        4778        4829        4828
         4        4778        4779        4830        4829
         4        4779        4780        4831        4830
         4        4780        4781        4832        4831
         4        4781        4782        4833        4832
         4        4782        4783        4834        4833
         4        4783        4784        4835        4834
         4        4784        4785        4836        4835
         4        4785        4786        4837        4836
         4        4786        4787        4838        4837
         4        4787        4788        4839        4838
         4        4788        4789        4840        4839
         4        4789        4790        4841        4840
         4        4790        4791        4842        4841
         4        4791        4792        4843        4842
         4        4792        4793        4844        4843
         4        4794        4795        4846        4845
         4        4795        4796        4847        4846
         4        4796        4797        4848        4847
         4        4797        4798        4849        4848
         4        4798        4799        4850        4849
         4        4799        4800        4851        4850
         4        4800        4801        4852        4851
         4        4801        4802        4853        4852
         4        4802        4803        4854        4853
         4        4803        4804        4855        4854
         4        4804        4805        4856        4855
         4        4805        4806        4857        4856
         4        4806        4807        4858        4857
         4        4807        4808        4859        4858
         4        4808        4809        4860        4859
         4        4809        4810        4861        4860
         4        4810        4811        4862        4861
         4        4811        4812        4863        4862
         4        4812        4813        4864        4863
         4        4813        4814        4865        4864
         4        4814        4815        4866        4865
         4        4815        4816        4867        4866
         4        4816        4817        4868        4867
         4        4817        4818        4869        4868
         4        4818        4819        4870        4869
         4        4819        4820        4871        4870
         4        4820        4821        4872        4871
         4        4821        4822        4873        4872
         4        4822        4823        4874        4873
         4        4823        4824        4875        4874
         4        4824        4825        4876        4875
         4        4825        4826        4877        4876
         4        4826        4827        4878        4877
         4        4827        4828        4879        4878
         4        4828        4829        4880        4879
         4        4829        4830        4881        4880
         4        4830        4831        4882        4881
         4        4831        4832        4883        4882
         4        4832        4833        4884        4883
         4        4833        4834        4885        4884
         4        4834        4835        4886        4885
         4        4835        4836        4887        4886
         4        4836        4837        4888        4887
         4        4837        4838        4889        4888
         4        4838        4839        4890        4889
         4        4839        4840        4891        4890
         4        4840        4841        4892        4891
         4        4841        4842        4893        4892
         4        4842        4843        4894        4893
         4        4843        4844        4895        4894
         4        4845        4846        4897        4896
         4        4846        4847        4898        4897
         4        4847        4848        4899        4898
         4        4848        4849        4900        4899
         4        4849        4850        4901        4900
         4        4850        4851        4902        4901
         4        4851        4852        4903        4902
         4        4852        4853        4904        4903
         4        4853        4854        4905        4904
         4        4854        4855        4906        4905
         4        4855        4856        4907        4906
         4        4856        4857        4908        4907
         4        4857        4858        4909        4908
         4        4858        4859        4910        4909
         4        4859        4860        4911        4910
         4        4860        4861        4912        4911
         4        4861        4862        4913        4912
         4        4862        4863        4914        4913
         4        4863        4864        4915        4914
         4        4864        4865        4916        4915
         4        4865        4866        4917        4916
         4        4866        4867        4918        4917
         4        4867        4868        4919        4918
         4        4868        4869        4920        4919
         4        4869        4870        4921        4920
         4        4870        4871        4922        4921
         4        4871        4872        4923        4922
         4        4872        4873        4924        4923
         4        4873        4874        4925        4924
         4        4874        4875        4926        4925
         4        4875        4876        4927        4926
         4        4876        4877        4928        4927
         4        4877        4878        4929        4928
         4        4878        4879        4930        4929
         4        4879        4880        4931        4930
         4        4880        4881        4932        4931
         4        4881        4882        4933        4932
         4        4882        4883        4934        4933
         4        4883        4884        4935        4934
         4        4884        4885        4936        4935
         4        4885        4886        4937        4936
         4        4886        4887        4938        4937
         4        4887        4888        4939        4938
         4        4888        4889        4940        4939
         4        4889        4890        4941        4940
         4        4890        4891        4942        4941
         4        4891        4892        4943        4942
         4        4892        4893        4944        4943
         4        4893        4894        4945        4944
         4        4894        4895        4946        4945
         4        4896        4897        4948        4947
         4        4897        4898        4949        4948
         4        4898        4899        4950        4949
         4        4899        4900        4951        4950
         4        4900        4901        4952        4951
         4        4901        4902        4953        4952
         4        4902        4903        4954        4953
         4        4903        4904        4955        4954
         4        4904        4905        4956        4955
         4        4905        4906        4957        4956
         4        4906        4907        4958        4957
         4        4907        4908        4959        4958
         4        4908        4909        4960        4959
         4        4909        4910        4961        4960
         4        4910        4911        4962        4961
         4        4911        4912        4963        4962
         4        4912        4913        4964        4963
         4        4913        4914        4965        4964
         4        4914        4915        4966        4965
         4        4915        4916        4967        4966
         4        4916        4917        4968        4967
         4        4917        4918        4969        4968
         4        4918        4919        4970        4969
         4        4919        4920        4971        4970
         4        4920        4921        4972        4971
         4        4921        4922        4973        4972
         4        4922        4923        4974        4973
         4        4923        4924        4975        4974
         4        4924        4925        4976        4975
         4        4925        4926        4977        4976
         4        4926        4927        4978        4977
         4        4927        4928        4979        4978
         4        4928        4929        4980        4979
         4        4929        4930        4981        4980
         4        4930        4931        4982        4981
         4        4931        4932        4983        4982
         4        4932        4933        4984        4983
         4        4933        4934        4985        4984
         4        4934        4935        4986        4985
         4        4935        4936        4987        4986
         4        4936        4937        4988        4987
         4        4937        4938        4989        4988
         4        4938        4939        4990        4989
         4        4939        4940        4991        4990
         4        4940        4941        4992        4991
         4        4941        4942        4993        4992
         4        4942        4943        4994        4993
         4        4943        4944        4995        4994
         4        4944        4945        4996        4995
         4        4945        4946        4997        4996
         4        4947        4948        4999        4998
         4        4948        4949        5000        4999
         4        4949        4950        5001        5000
         4        4950        4951        5002        5001
         4        4951        4952        5003        5002
         4        4952        4953        5004        5003
         4        4953        4954        5005        5004
         4        4954        4955        5006        5005
         4        4955        4956        5007        5006
         4        4956        4957        5008        5007
         4        4957        4958        5009        5008
         4        4958        4959        5010        5009
         4        4959        4960        5011        5010
         4        4960        4961        5012        5011
         4        4961        4962        5013        5012
         4        4962        4963        5014        5013
         4        4963        4964        5015        5014
         4        4964        4965        5016        5015
         4        4965        4966        5017        5016
         4        4966        4967        5018        5017
         4        4967        4968        5019        5018
         4        4968        4969        5020        5019
         4        4969        4970        5021        5020
         4        4970        4971        5022        5021
         4        4971        4972        5023        5022
         4        4972        4973        5024        5023
         4        4973        4974        5025        5024
         4        4974        4975        5026        5025
         4        4975        4976        5027        5026
         4        4976        4977        5028        5027
         4        4977        4978        5029        5028
         4        4978        4979        5030        5029
         4        4979        4980        5031        5030
         4        4980        4981        5032        5031
         4        4981        4982        5033        5032
         4        4982        4983        5034        5033
         4        4983        4984        5035        5034
         4        4984        4985        5036        5035
         4        4985        4986        5037        5036
         4        4986        4987        5038        5037
         4        4987        4988        5039        5038
         4        4988        4989        5040        5039
         4        4989        4990        5041        5040
         4        4990        4991        5042        5041
         4        4991        4992        5043        5042
         4        4992        4993        5044        5043
         4        4993        4994        5045        5044
         4        4994        4995        5046        5045
         4        4995        4996        5047        5046
         4        4996        4997        5048        5047
         4        4998        4999        5050        5049
         4        4999        5000        5051        5050
         4        5000        5001        5052        5051
         4        5001        5002        5053        5052
         4        5002        5003        5054        5053
         4        5003        5004        5055        5054
         4        5004        5005        5056        5055
         4        5005        5006        5057        5056
         4        5006        5007        5058        5057
         4        5007        5008        5059        5058
         4        5008        5009        5060        5059
         4        5009        5010        5061        5060
         4        5010        5011        5062        5061
         4        5011        5012        5063        5062
         4        5012        5013        5064        5063
         4        5013        5014        5065        5064
         4        5014        5015        5066        5065
         4        5015        5016        5067        5066
         4        5016        5017        5068        5067
         4        5017        5018        5069        5068
         4        5018        5019        5070        5069
         4        5019        5020        5071        5070
         4        5020        5021        5072        5071
         4        5021        5022        5073        5072
         4        5022        5023        5074        5073
         4        5023        5024        5075        5074
         4        5024        5025        5076        5075
         4        5025        5026        5077        5076
         4        5026        5027        5078        5077
         4        5027        5028        5079        5078
         4        5028        5029        5080        5079
         4        5029        5030        5081        5080
         4        5030        5031        5082        5081
         4        5031        5032        5083        5082
         4        5032        5033        5084        5083
         4        5033        5034        5085        5084
         4        5034        5035        5086        5085
         4        5035        5036        5087        5086
         4        5036        5037        5088        5087
         4        5037        5038        5089        5088
         4        5038        5039        5090        5089
         4        5039        5040        5091        5090
         4        5040        5041        5092        5091
         4        5041        5042        5093        5092
         4        5042        5043        5094        5093
         4        5043        5044        5095        5094
         4        5044        5045        5096        5095
         4        5045        5046        5097        5096
         4        5046        5047        5098        5097
         4        5047        5048        5099        5098
         4        5049        5050        5101        5100
         4        5050        5051        5102        5101
         4        5051        5052        5103        5102
         4        5052        5053        5104        5103
         4        5053        5054        5105        5104
         4        5054        5055        5106        5105
         4        5055        5056        5107        5106
         4        5056        5057        5108        5107
         4        5057        5058        5109        5108
         4        5058        5059        5110        5109
         4        5059        5060        5111        5110
         4        5060        5061        5112        5111
         4        5061        5062        5113        5112
         4        5062        5063        5114        5113
         4        5063        5064        5115        5114
         4        5064        5065        5116        5115
         4        5065        5066        5117        5116
         4        5066        5067        5118        5117
         4        5067        5068        5119        5118
         4        5068        5069        5120        5119
         4        5069        5070        5121        5120
         4        5070        5071        5122        5121
         4        5071        5072        5123        5122
         4        5072        5073        5124        5123
         4        5073        5074        5125        5124
         4        5074        5075        5126        5125
         4        5075        5076        5127        5126
         4        5076        5077        5128        5127
         4        5077        5078        5129        5128
         4        5078        5079        5130        5129
         4        5079        5080        5131        5130
         4        5080        5081        5132        5131
         4        5081        5082        5133        5132
         4        5082        5083        5134        5133
         4        5083        5084        5135        5134
         4        5084        5085        5136        5135
         4        5085        5086        5137        5136
         4        5086        5087        5138        5137
         4        5087        5088        5139        5138
         4        5088        5089        5140        5139
         4        5089        5090        5141        5140
         4        5090        5091        5142        5141
         4        5091        5092        5143        5142
         4        5092        5093        5144        5143
         4        5093        5094        5145        5144
         4        5094        5095        5146        5145
         4        5095        5096        5147        5146
         4        5096        5097        5148        5147
         4        5097        5098        5149        5148
         4        5098        5099        5150        5149
CELL_TYPES       5000
9
9
9
9
9
9
9
9
9
9
9
9
9
9
9
9
9
9
9
9
9
9
9
9
9
9
9
9
9
9
9
9
9
9
9
9
9
9
9
9
9
9
9
9
9
9
9
9
9
9
9
9
9
9
9
9
9
9
9
9
9
9
9
9
9
9
9
9
9
9
9
9
9
9
9
9
9
9
9
9
9
9
9
9
9
9
9
9
9
9
9
9
9
9
9
9
9
9
9
9
9
9
9
9
9
9
9
9
9
9
9
9
9
9
9
9
9
9
9
9
9
9
9
9
9
9
9
9
9
9
9
9
9
9
9
9
9
9
9
9
9
9
9
9
9
9
9
9
9
9
9
9
9
9
9
9
9
9
9
9
9
9
9
9
9
9
9
9
9
9
9
9
9
9
9
9
9
9
9
9
9
9
9
9
9
9
9
9
9
9
9
9
9
9
9
9
9
9
9
9
9
9
9
9
9
9
9
9
9
9
9
9
9
9
9
9
9
9
9
9
9
9
9
9
9
9
9
9
9
9
9
9
9
9
9
9
9
9
9
9
9
9
9
9
9
9
9
9
9
9
9
9
9
9
9
9
9
9
9
9
9
9
9
9
9
9
9
9
9
9
9
9
9
9
9
9
9
9
9
9
9
9
9
9
9
9
9
9
9
9
9
9
9
9
9
9
9
9
9
9
9
9
9
9
9
9
9
9
9
9
9
9
9
9
9
9
9
9
9
9
9
9
9
9
9
9
9
9
9
9
9
9
9
9
9
9
9
9
9
9
9
9
9
9
9
9
9
9
9
9
9
9
9
9
9
9
9
9
9
9
9
9
9
9
9
9
9
9
9
9
9
9
9
9
9
9
9
9
9
9
9
9
9
9
9
9
9
9
9
9
9
9
9
9
9
9
9
9
9
9
9
9
9
9
9
9
9
9
9
9
9
9
9
9
9
9
9
9
9
9
9
9
9
9
9
9
9
9
9
9
9
9
9
9
9
9
9
9
9
9
9
9
9
9
9
9
9
9
9
9
9
9
9
9
9
9
9
9
9
9
9
9
9
9
9
9
9
9
9
9
9
9
9
9
9
9
9
9
9
9
9
9
9
9
9
9
9
9
9
9
9
9
9
9
9
9
9
9
9
9
9
9
9
9
9
9
9
9
9
9
9
9
9
9
9
9
9
9
9
9
9
9
9
9
9
9
9
9
9
9
9
9
9
9
9
9
9
9
9
9
9
9
9
9
9
9
9
9
9
9
9
9
9
9
9
9
9
9
9
9
9
9
9
9
9
9
9
9
9
9
9
9
9
9
9
9
9
9
9
9
9
9
9
9
9
9
9
9
9
9
9
9
9
9
9
9
9
9
9
9
9
9
9
9
9
9
9
9
9
9
9
9
9
9
9
9
9
9
9
9
9
9
9
9
9
9
9
9
9
9
9
9
9
9
9
9
9
9
9
9
9
9
9
9
9
9
9
9
9
9
9
9
9
9
9
9
9
9
9
9
9
9
9
9
9
9
9
9
9
9
9
9
9
9
9
9
9
9
9
9
9
9
9
9
9
9
9
9
9
9
9
9
9
9
9
9
9
9
9
9
9
9
9
9
9
9
9
9
9
9
9
9
9
9
9
9
9
9
9
9
9
9
9
9
9
9
9
9
9
9
9
9
9
9
9
9
9
9
9
9
9
9
9
9
9
9
9
9
9
9
9
9
9
9
9
9
9
9
9
9
9
9
9
9
9
9
9
9
9
9
9
9
9
9
9
9
9
9
9
9
9
9
9
9
9
9
9
9
9
9
9
9
9
9
9
9
9
9
9
9
9
9
9
9
9
9
9
9
9
9
9
9
9
9
9
9
9
9
9
9
9
9
9
9
9
9
9
9
9
9
9
9
9
9
9
9
9
9
9
9
9
9
9
9
9
9
9
9
9
9
9
9
9
9
9
9
9
9
9
9
9
9
9
9
9
9
9
9
9
9
9
9
9
9
9
9
9
9
9
9
9
9
9
9
9
9
9
9
9
9
9
9
9
9
9
9
9
9
9
9
9
9
9
9
9
9
9
9
9
9
9
9
9
9
9
9
9
9
9
9
9
9
9
9
9
9
9
9
9
9
9
9
9
9
9
9
9
9
9
9
9
9
9
9
9
9
9
9
9
9
9
9
9
9
9
9
9
9
9
9
9
9
9
9
9
9
9
9
9
9
9
9
9
9
9
9
9
9
9
9
9
9
9
9
9
9
9
9
9
9
9
9
9
9
9
9
9
9
9
9
9
9
9
9
9
9
9
9
9
9
9
9
9
9
9
9
9
9
9
9
9
9
9
9
9
9
9
9
9
9
9
9
9
9
9
9
9
9
9
9
9
9
9
9
9
9
9
9
9
9
9
9
9
9
9
9
9
9
9
9
9
9
9
9
9
9
9
9
9
9
9
9
9
9
9
9
9
9
9
9
9
9
9
9
9
9
9
9
9
9
9
9
9
9
9
9
9
9
9
9
9
9
9
9
9
9
9
9
9
9
9
9
9
9
9
9
9
9
9
9
9
9
9
9
9
9
9
9
9
9
9
9
9
9
9
9
9
9
9
9
9
9
9
9
9
9
9
9
9
9
9
9
9
9
9
9
9
9
9
9
9
9
9
9
9
9
9
9
9
9
9
9
9
9
9
9
9
9
9
9
9
9
9
9
9
9
9
9
9
9
9
9
9
9
9
9
9
9
9
9
9
9
9
9
9
9
9
9
9
9
9
9
9
9
9
9
9
9
9
9
9
9
9
9
9
9
9
9
9
9
9
9
9
9
9
9
9
9
9
9
9
9
9
9
9
9
9
9
9
9
9
9
9
9
9
9
9
9
9
9
9
9
9
9
9
9
9
9
9
9
9
9
9
9
9
9
9
9
9
9
9
9
9
9
9
9
9
9
9
9
9
9
9
9
9
9
9
9
9
9
9
9
9
9
9
9
9
9
9
9
9
9
9
9
9
9
9
9
9
9
9
9
9
9
9
9
9
9
9
9
9
9
9
9
9
9
9
9
9
9
9
9
9
9
9
9
9
9
9
9
9
9
9
9
9
9
9
9
9
9
9
9
9
9
9
9
9
9
9
9
9
9
9
9
9
9
9
9
9
9
9
9
9
9
9
9
9
9
9
9
9
9
9
9
9
9
9
9
9
9
9
9
9
9
9
9
9
9
9
9
9
9
9
9
9
9
9
9
9
9
9
9
9
9
9
9
9
9
9
9
9
9
9
9
9
9
9
9
9
9
9
9
9
9
9
9
9
9
9
9
9
9
9
9
9
9
9
9
9
9
9
9
9
9
9
9
9
9
9
9
9
9
9
9
9
9
9
9
9
9
9
9
9
9
9
9
9
9
9
9
9
9
9
9
9
9
9
9
9
9
9
9
9
9
9
9
9
9
9
9
9
9
9
9
9
9
9
9
9
9
9
9
9
9
9
9
9
9
9
9
9
9
9
9
9
9
9
9
9
9
9
9
9
9
9
9
9
9
9
9
9
9
9
9
9
9
9
9
9
9
9
9
9
9
9
9
9
9
9
9
9
9
9
9
9
9
9
9
9
9
9
9
9
9
9
9
9
9
9
9
9
9
9
9
9
9
9
9
9
9
9
9
9
9
9
9
9
9
9
9
9
9
9
9
9
9
9
9
9
9
9
9
9
9
9
9
9
9
9
9
9
9
9
9
9
9
9
9
9
9
9
9
9
9
9
9
9
9
9
9
9
9
9
9
9
9
9
9
9
9
9
9
9
9
9
9
9
9
9
9
9
9
9
9
9
9
9
9
9
9
9
9
9
9
9
9
9
9
9
9
9
9
9
9
9
9
9
9
9
9
9
9
9
9
9
9
9
9
9
9
9
9
9
9
9
9
9
9
9
9
9
9
9
9
9
9
9
9
9
9
9
9
9
9
9
9
9
9
9
9
9
9
9
9
9
9
9
9
9
9
9
9
9
9
9
9
9
9
9
9
9
9
9
9
9
9
9
9
9
9
9
9
9
9
9
9
9
9
9
9
9
9
9
9
9
9
9
9
9
9
9
9
9
9
9
9
9
9
9
9
9
9
9
9
9
9
9
9
9
9
9
9
9
9
9
9
9
9
9
9
9
9
9
9
9
9
9
9
9
9
9
9
9
9
9
9
9
9
9
9
9
9
9
9
9
9
9
9
9
9
9
9
9
9
9
9
9
9
9
9
9
9
9
9
9
9
9
9
9
9
9
9
9
9
9
9
9
9
9
9
9
9
9
9
9
9
9
9
9
9
9
9
9
9
9
9
9
9
9
9
9
9
9
9
9
9
9
9
9
9
9
9
9
9
9
9
9
9
9
9
9
9
9
9
9
9
9
9
9
9
9
9
9
9
9
9
9
9
9
9
9
9
9
9
9
9
9
9
9
9
9
9
9
9
9
9
9
9
9
9
9
9
9
9
9
9
9
9
9
9
9
9
9
9
9
9
9
9
9
9
9
9
9
9
9
9
9
9
9
9
9
9
9
9
9
9
9
9
9
9
9
9
9
9
9
9
9
9
9
9
9
9
9
9
9
9
9
9
9
9
9
9
9
9
9
9
9
9
9
9
9
9
9
9
9
9
9
9
9
9
9
9
9
9
9
9
9
9
9
9
9
9
9
9
9
9
9
9
9
9
9
9
9
9
9
9
9
9
9
9
9
9
9
9
9
9
9
9
9
9
9
9
9
9
9
9
9
9
9
9
9
9
9
9
9
9
9
9
9
9
9
9
9
9
9
9
9
9
9
9
9
9
9
9
9
9
9
9
9
9
9
9
9
9
9
9
9
9
9
9
9
9
9
9
9
9
9
9
9
9
9
9
9
9
9
9
9
9
9
9
9
9
9
9
9
9
9
9
9
9
9
9
9
9
9
9
9
9
9
9
9
9
9
9
9
9
9
9
9
9
9
9
9
9
9
9
9
9
9
9
9
9
9
9
9
9
9
9
9
9
9
9
9
9
9
9
9
9
9
9
9
9
9
9
9
9
9
9
9
9
9
9
9
9
9
9
9
9
9
9
9
9
9
9
9
9
9
9
9
9
9
9
9
9
9
9
9
9
9
9
9
9
9
9
9
9
9
9
9
9
9
9
9
9
9
9
9
9
9
9
9
9
9
9
9
9
9
9
9
9
9
9
9
9
9
9
9
9
9
9
9
9
9
9
9
9
9
9
9
9
9
9
9
9
9
9
9
9
9
9
9
9
9
9
9
9
9
9
9
9
9
9
9
9
9
9
9
9
9
9
9
9
9
9
9
9
9
9
9
9
9
9
9
9
9
9
9
9
9
9
9
9
9
9
9
9
9
9
9
9
9
9
9
9
9
9
9
9
9
9
9
9
9
9
9
9
9
9
9
9
9
9
9
9
9
9
9
9
9
9
9
9
9
9
9
9
9
9
9
9
9
9
9
9
9
9
9
9
9
9
9
9
9
9
9
9
9
9
9
9
9
9
9
9
9
9
9
9
9
9
9
9
9
9
9
9
9
9
9
9
9
9
9
9
9
9
9
9
9
9
9
9
9
9
9
9
9
9
9
9
9
9
9
9
9
9
9
9
9
9
9
9
9
9
9
9
9
9
9
9
9
9
9
9
9
9
9
9
9
9
9
9
9
9
9
9
9
9
9
9
9
9
9
9
9
9
9
9
9
9
9
9
9
9
9
9
9
9
9
9
9
9
9
9
9
9
9
9
9
9
9
9
9
9
9
9
9
9
9
9
9
9
9
9
9
9
9
9
9
9
9
9
9
9
9
9
9
9
9
9
9
9
9
9
9
9
9
9
9
9
9
9
9
9
9
9
9
9
9
9
9
9
9
9
9
9
9
9
9
9
9
9
9
9
9
9
9
9
9
9
9
9
9
9
9
9
9
9
9
9
9
9
9
9
9
9
9
9
9
9
9
9
9
9
9
9
9
9
9
9
9
9
9
9
9
9
9
9
9
9
9
9
9
9
9
9
9
9
9
9
9
9
9
9
9
9
9
9
9
9
9
9
9
9
9
9
9
9
9
9
9
9
9
9
9
9
9
9
9
9
9
9
9
9
9
9
9
9
9
9
9
9
9
9
9
9
9
9
9
9
9
9
9
9
9
9
9
9
9
9
9
9
9
9
9
9
9
9
9
9
9
9
9
9
9
9
9
9
9
9
9
9
9
9
9
9
9
9
9
9
9
9
9
9
9
9
9
9
9
9
9
9
9
9
9
9
9
9
9
9
9
9
9
9
9
9
9
9
9
9
9
9
9
9
9
9
9
9
9
9
9
9
9
9
9
9
9
9
9
9
9
9
9
9
9
9
9
9
9
9
9
9
9
9
9
9
9
9
9
9
9
9
9
9
9
9
9
9
9
9
9
9
9
9
9
9
9
9
9
9
9
9
9
9
9
9
9
9
9
9
9
9
9
9
9
9
9
9
9
9
9
9
9
9
9
9
9
9
9
9
9
9
9
9
9
9
9
9
9
9
9
9
9
9
9
9
9
9
9
9
9
9
9
9
9
9
9
9
9
9
9
9
9
9
9
9
9
9
9
9
9
9
9
9
9
9
9
9
9
9
9
9
9
9
9
9
9
9
9
9
9
9
9
9
9
9
9
9
9
9
9
9
9
9
9
9
9
9
9
9
9
9
9
9
9
9
9
9
9
9
9
9
9
9
9
9
9
9
9
9
9
9
9
9
9
9
9
9
9
9
9
9
9
9
9
9
9
9
9
9
9
9
9
9
9
9
9
9
9
9
9
9
9
9
9
9
9
9
9
9
9
9
9
9
9
9
9
9
9
9
9
9
9
9
9
9
9
9
9
9
9
9
9
9
9
9
9
9
9
9
9
9
9
9
9
9
9
9
9
9
9
9
9
9
9
9
9
9
9
9
9
9
9
9
9
9
9
9
9
9
9
9
9
9
9
9
9
9
9
9
9
9
9
9
9
9
9
9
9
9
9
9
9
9
9
9
9
9
9
9
9
9
9
9
9
9
9
9
9
9
9
9
9
9
9
9
9
9
9
9
9
9
9
9
9
9
9
9
9
9
9
9
9
9
9
9
9
9
9
9
9
9
9
9
9
9
9
9
9
9
9
9
9
9
9
9
9
9
9
9
9
9
9
9
9
9
9
9
9
9
9
9
9
9
9
9
9
9
9
9
9
9
9
9
9
9
9
9
9
9
9
9
9
9
9
9
9
9
9
9
9
9
9
9
9
9
9
9
9
9
9
9
9
9
9
9
9
9
9
9
9
9
9
9
9
9
9
9
9
9
9
9
9
9
9
9
9
9
9
9
9
9
9
9
9
9
9
9
9
9
9
9
9
9
9
9
9
9
9
9
9
9
9
9
9
9
9
9
9
9
9
9
9
9
9
9
9
9
9
9
9
9
9
9
9
9
9
9
9
9
9
9
9
9
9
9
9
9
9
9
9
9
9
9
9
9
9
9
9
9
9
9
9
9
9
9
9
9
9
9
9
9
9
9
9
9
9
9
9
9
9
9
9
9
9
9
9
9
9
9
9
9
9
9
9
9
9
9
9
9
9
9
9
9
9
9
9
9
9
9
9
9
9
9
9
9
9
9
9
9
9
9
9
9
9
9
9
9
9
9
9
9
9
9
9
9
9
9
9
9
9
9
9
9
9
9
9
9
9
9
9
9
9
9
9
9
9
9
9
9
9
9
9
9
9
9
9
9
9
9
9
9
9
9
9
9
9
9
9
9
9
9
9
9
9
9
9
9
9
9
9
9
9
9
9
9
9
9
9
9
9
9
9
9
9
9
9
9
9
9
9
9
9
9
9
9
9
9
9
9
9
9
9
9
9
9
9
9
9
9
9
9
9
9
9
9
9
9
9
9
9
9
9
9
9
9
9
9
9
9
9
9
9
9
9
9
9
9
9
9
9
9
9
9
9
9
9
9
9
9
9
9
9
9
9
9
9
9
9
9
9
9
9
9
9
9
9
9
9
9
9
9
9
9
9
9
9
9
9
9
9
9
9
9
9
9
9
9
9
9
9
9
9
9
9
9
9
9
9
9
9
9
9
9
9
9
9
9
9
9
9
9
9
9
9
9
9
9
9
9
9
9
9
9
9
9
9
9
9
9
9
9
9
9
9
9
9
9
9
9
9
9
9
9
9
9
9
9
9
9
9
9
9
9
9
9
9
9
9
9
9
9
9
9
9
9
9
9
9
9
9
9
9
9
9
9
9
9
9
9
9
9
9
9
9
9
9
9
9
9
9
9
9
9
9
9
9
9
9
9
9
9
9
9
9
9
9
9
9
9
9
9
9
9
9
9
9
9
9
9
9
9
9
9
9
9
9
9
9
9
9
9
9
9
9
9
9
9
9
9
9
9
9
9
9
9
9
9
9
9
9
9
9
9
9
9
9
9
9
9
9
9
9
9
9
9
9
9
9
9
9
9
9
9
9
9
9
9
9
9
9
9
9
9
9
9
9
9
9
9
9
9
9
9
9
9
9
9
9
9
9
9
9
9
9
9
9
9
9
9
9
9
9
9
9
9
9
9
9
9
9
9
9
9
9
9
9
9
9
9
9
9
9
9
9
9
9
9
9
9
9
9
9
9
9
9
9
9
9
9
9
9
9
9
9
9
9
9
9
9
9
9
9
9
9
9
9
9
9
9
9
9
9
9
9
9
9
9
9
9
9
9
9
9
9
9
9
9
9
9
9
9
9
9
9
9
9
9
9
9
9
9
9
9
9
9
9
9
9
9
9
9
9
9
9
9
9
9
9
9
9
9
9
9
9
9
9
9
9
9
9
9
9
9
9
9
9
9
9
9
9
9
9
9
9
9
9
9
9
9
9
9
9
9
9
9
9
9
9
9
9
9
9
9
9
9
9
9
9
9
9
9
9
9
9
9
9
9
9
9
9
9
9
9
9
9
9
9
9
9
9
9
9
9
9
9
9
9
9
9
9
9
9
9
9
9
9
9
9
9
9
9
9
9
9
9
9
9
9
9
9
9
9
9
9
9
9
9
9
9
9
9
9
9
9
9
9
9
9
9
9
9
9
9
9
9
9
9
9
9
9
9
9
9
9
9
9
9
9
9
9
9
9
9
9
9
9
9
9
9
9
9
9
9
9
9
9
9
9
9
9
9
9
9
9
9
9
9
9
9
9
9
9
9
9
9
9
9
9
9
9
9
9
9
9
9
9
9
9
9
9
9
9
9
9
9
9
9
9
9
9
9
9
9
9
9
9
9
9
9
9
9
9
9
9
9
9
9
9
9
9
9
9
9
9
9
9
9
9
9
9
9
9
9
9
9
9
9
9
9
9
9
9
9
9
9
9
9
9
9
9
9
9
9
9
9
9
9
9
9
9
9
9
9
9
9
9
9
9
9
9
9
9
9
9
9
9
9
9
9
9
9
9
9
9
9
9
9
9
9
9
9
9
9
9
9
9
9
9
9
9
9
9
9
9
9
9
9
9
9
9
9
9
9
9
9
9
9
9
9
9
9
9
9
9
9
9
9
9
9
9
9
9
9
9
9
9
9
9
9
9
9
9
9
9
9
9
9
9
9
9
9
9
9
9
9
9
9
9
9
9
9
9
9
9
9
9
9
9
9
9
9
9
9
9
9
9
9
9
9
9
9
9
9
9
9
9
9
9
9
9
9
9
9
9
9
9
9
9
9
9
9
9
9
9
9
9
9
9
9
9
9
9
9
9
9
9
9
9
9
9
9
9
9
9
9
9
9
9
9
9
9
9
9
9
9
9
9
9
9
9
9
9
9
9
9
9
9
9
9
9
9
9
9
9
9
9
9
9
9
9
9
9
9
9
9
9
9
9
9
9
9
9
9
9
9
9
9
9
9
9
9
9
9
9
9
9
9
9
9
9
9
9
9
9
9
9
9
9
9
9
9
9
9
9
9
9
9
9
9
9
9
9
9
9
9
9
9
9
9
9
9
9
9
9
9
9
9
9
9
9
9
9
9
9
9
9
9
9
9
9
9
9
9
9
9
9
9
9
9
9
9
9
9
9
9
9
9
9
9
9
9
9
9
9
9
9
9
9
9
9
9
9
9
9
9
9
9
9
9
9
9
9
9
9
9
9
9
9
9
9
9
9
9
9
9
9
9
9
9
9
9
9
9
9
9
9
9
9
9
9
9
9
9
9
9
9
9
9
9
9
9
9
9
9
9
9
9
9
9
9
9
9
9
9
9
9
9
9
9
9
9
9
9
9
9
9
9
9
9
9
9
9
9
9
9
9
9
9
9
9
9
9
9
9
9
9
9
9
9
9
9
9
9
9
9
9
9
9
9
9
9
9
9
9
9
9
9
9
9
9
9
9
9
9
9
9
9
9
9
9
9
9
9
9
9
9
9
9
9
9
9
9
9
9
9
9
9
9
9
9
9
9
9
9
9
9
9
9
9
9
9
9
9
9
9
9
9
9
9
9
9
9
9
9
9
9
9
9
9
9
9
9
9
9
9
9
9
9
9
9
9
9
9
9
9
9
9
9
9
9
9
9
9
9
9
9
9
9
9
9
9
9
9
9
9
9
9
9
9
9
9
9
9
9
9
9
9
9
9
9
9
9
9
9
9
9
9
9
9
9
9
9
9
9
9
9
9
9
9
9
9
9
9
9
9
9
9
9
9
9
9
9
9
9
9
9
9
9
9
9
9
9
9
9
9
9
9
9
9
9
9
9
9
9
9
9
9
9
9
9
9
9
9
9
9
9
9
9
9
9
9
9
9
9
9
9
9
9
9
9
9
9
9
9
9
9
9
9
9
9
9
9
9
9
9
9
9
9
9
9
9
9
9
9
9
9
9
9
9
9
9
9
9
9
9
9
9
9
9
9
9
9
9
9
9
9
9
9
9
9
9
9
9
9
9
9
9
9
9
9
9
9
9
9
9
9
9
9
9
9
9
9
9
9
9
9
9
9
9
9
9
9
9
9
9
9
9
9
9
9
9
9
9
9
9
9
9
9
9
9
9
9
9
9
9
9
9
9
9
9
9
9
9
9
9
9
9
9
9
9
9
9
9
9
9
9
9
9
9
9
9
9
9
9
9
9
9
9
9
9
9
9
9
9
9
9
9
9
9
9
9
9
9
9
9
9
9
9
9
9
9
9
9
9
9
9
9
9
9
9
9
9
9
9
9
9
9
9
9
9
9
9
9
9
9
9
9
9
9
9
9
9
9
9
9
9
9
9
9
9
9
9
9
9
9
9
9
9
9
9
9
9
9
9
9
9
9
9
9
9
9
9
9
9
9
9
9
9
9
9
9
9
9
9
9
9
9
9
9
POINT_DATA      5151
SCALARS p double 
LOOKUP_TABLE default
   70000000.0000000     
   70000000.0000000     
   70000000.0000000     
   70000000.0000000     
   70000000.0000000     
   70000000.0000000     
   70000000.0000000     
   70000000.0000000     
   70000000.0000000     
   70000000.0000000     
   70000000.0000000     
   70000000.0000000     
   70000000.0000000     
   70000000.0000000     
   70000000.0000000     
   70000000.0000000     
   70000000.0000000     
   70000000.0000000     
   70000000.0000000     
   70000000.0000000     
   70000000.0000000     
   70000000.0000000     
   70000000.0000000     
   70000000.0000000     
   70000000.0000000     
   70000000.0000000     
   70000000.0000000     
   70000000.0000000     
   70000000.0000000     
   70000000.0000000     
   70000000.0000000     
   70000000.0000000     
   70000000.0000000     
   70000000.0000000     
   70000000.0000000     
   70000000.0000000     
   70000000.0000000     
   70000000.0000000     
   70000000.0000000     
   70000000.0000000     
   70000000.0000000     
   70000000.0000000     
   70000000.0000000     
   70000000.0000000     
   70000000.0000000     
   70000000.0000000     
   70000000.0000000     
   70000000.0000000     
   70000000.0000000     
   70000000.0000000     
   70000000.0000000     
   69152376.8865185     
   69152376.8865185     
   69152376.8865185     
   69152376.8865185     
   69152376.8865185     
   69152376.8865184     
   69152376.8865184     
   69152376.8865184     
   69152376.8865183     
   69152376.8865183     
   69152376.8865183     
   69152376.8865183     
   69152376.8865183     
   69152376.8865183     
   69152376.8865183     
   69152376.8865183     
   69152376.8865183     
   69152376.8865183     
   69152376.8865182     
   69152376.8865182     
   69152376.8865182     
   69152376.8865182     
   69152376.8865182     
   69152376.8865182     
   69152376.8865181     
   69152376.8865181     
   69152376.8865181     
   69152376.8865181     
   69152376.8865181     
   69152376.8865181     
   69152376.8865180     
   69152376.8865180     
   69152376.8865180     
   69152376.8865180     
   69152376.8865180     
   69152376.8865180     
   69152376.8865180     
   69152376.8865179     
   69152376.8865179     
   69152376.8865179     
   69152376.8865179     
   69152376.8865178     
   69152376.8865178     
   69152376.8865178     
   69152376.8865178     
   69152376.8865178     
   69152376.8865178     
   69152376.8865178     
   69152376.8865178     
   69152376.8865177     
   69152376.8865177     
   68307531.2418444     
   68307531.2418445     
   68307531.2418444     
   68307531.2418444     
   68307531.2418443     
   68307531.2418443     
   68307531.2418443     
   68307531.2418443     
   68307531.2418443     
   68307531.2418442     
   68307531.2418441     
   68307531.2418441     
   68307531.2418441     
   68307531.2418441     
   68307531.2418441     
   68307531.2418440     
   68307531.2418440     
   68307531.2418439     
   68307531.2418439     
   68307531.2418439     
   68307531.2418438     
   68307531.2418438     
   68307531.2418437     
   68307531.2418437     
   68307531.2418437     
   68307531.2418437     
   68307531.2418437     
   68307531.2418437     
   68307531.2418436     
   68307531.2418436     
   68307531.2418435     
   68307531.2418435     
   68307531.2418435     
   68307531.2418434     
   68307531.2418434     
   68307531.2418434     
   68307531.2418434     
   68307531.2418434     
   68307531.2418434     
   68307531.2418433     
   68307531.2418432     
   68307531.2418432     
   68307531.2418432     
   68307531.2418431     
   68307531.2418431     
   68307531.2418431     
   68307531.2418431     
   68307531.2418431     
   68307531.2418430     
   68307531.2418431     
   68307531.2418431     
   67468205.4548157     
   67468205.4548157     
   67468205.4548156     
   67468205.4548156     
   67468205.4548155     
   67468205.4548155     
   67468205.4548154     
   67468205.4548153     
   67468205.4548153     
   67468205.4548153     
   67468205.4548153     
   67468205.4548152     
   67468205.4548151     
   67468205.4548150     
   67468205.4548148     
   67468205.4548148     
   67468205.4548148     
   67468205.4548147     
   67468205.4548147     
   67468205.4548146     
   67468205.4548146     
   67468205.4548146     
   67468205.4548145     
   67468205.4548145     
   67468205.4548144     
   67468205.4548143     
   67468205.4548143     
   67468205.4548143     
   67468205.4548142     
   67468205.4548142     
   67468205.4548142     
   67468205.4548142     
   67468205.4548142     
   67468205.4548142     
   67468205.4548142     
   67468205.4548141     
   67468205.4548141     
   67468205.4548141     
   67468205.4548140     
   67468205.4548141     
   67468205.4548141     
   67468205.4548141     
   67468205.4548140     
   67468205.4548140     
   67468205.4548139     
   67468205.4548139     
   67468205.4548139     
   67468205.4548138     
   67468205.4548139     
   67468205.4548139     
   67468205.4548139     
   66637072.7608912     
   66637072.7608912     
   66637072.7608911     
   66637072.7608911     
   66637072.7608911     
   66637072.7608912     
   66637072.7608912     
   66637072.7608911     
   66637072.7608911     
   66637072.7608910     
   66637072.7608910     
   66637072.7608909     
   66637072.7608908     
   66637072.7608908     
   66637072.7608906     
   66637072.7608905     
   66637072.7608905     
   66637072.7608904     
   66637072.7608903     
   66637072.7608902     
   66637072.7608901     
   66637072.7608900     
   66637072.7608900     
   66637072.7608899     
   66637072.7608899     
   66637072.7608898     
   66637072.7608898     
   66637072.7608897     
   66637072.7608896     
   66637072.7608896     
   66637072.7608895     
   66637072.7608896     
   66637072.7608895     
   66637072.7608895     
   66637072.7608894     
   66637072.7608893     
   66637072.7608892     
   66637072.7608892     
   66637072.7608892     
   66637072.7608891     
   66637072.7608892     
   66637072.7608892     
   66637072.7608892     
   66637072.7608892     
   66637072.7608892     
   66637072.7608892     
   66637072.7608892     
   66637072.7608892     
   66637072.7608892     
   66637072.7608892     
   66637072.7608891     
   65816705.1191900     
   65816705.1191900     
   65816705.1191900     
   65816705.1191900     
   65816705.1191900     
   65816705.1191899     
   65816705.1191899     
   65816705.1191899     
   65816705.1191899     
   65816705.1191898     
   65816705.1191898     
   65816705.1191897     
   65816705.1191896     
   65816705.1191895     
   65816705.1191895     
   65816705.1191894     
   65816705.1191893     
   65816705.1191892     
   65816705.1191891     
   65816705.1191890     
   65816705.1191889     
   65816705.1191889     
   65816705.1191887     
   65816705.1191887     
   65816705.1191886     
   65816705.1191885     
   65816705.1191885     
   65816705.1191884     
   65816705.1191884     
   65816705.1191883     
   65816705.1191882     
   65816705.1191882     
   65816705.1191881     
   65816705.1191881     
   65816705.1191880     
   65816705.1191879     
   65816705.1191879     
   65816705.1191878     
   65816705.1191878     
   65816705.1191877     
   65816705.1191877     
   65816705.1191877     
   65816705.1191876     
   65816705.1191876     
   65816705.1191876     
   65816705.1191876     
   65816705.1191876     
   65816705.1191876     
   65816705.1191876     
   65816705.1191876     
   65816705.1191876     
   65009543.8675870     
   65009543.8675870     
   65009543.8675869     
   65009543.8675869     
   65009543.8675869     
   65009543.8675869     
   65009543.8675868     
   65009543.8675867     
   65009543.8675867     
   65009543.8675866     
   65009543.8675865     
   65009543.8675865     
   65009543.8675865     
   65009543.8675864     
   65009543.8675863     
   65009543.8675862     
   65009543.8675862     
   65009543.8675861     
   65009543.8675860     
   65009543.8675859     
   65009543.8675859     
   65009543.8675858     
   65009543.8675857     
   65009543.8675856     
   65009543.8675855     
   65009543.8675854     
   65009543.8675853     
   65009543.8675853     
   65009543.8675852     
   65009543.8675852     
   65009543.8675851     
   65009543.8675851     
   65009543.8675850     
   65009543.8675849     
   65009543.8675849     
   65009543.8675849     
   65009543.8675848     
   65009543.8675847     
   65009543.8675847     
   65009543.8675847     
   65009543.8675846     
   65009543.8675846     
   65009543.8675846     
   65009543.8675846     
   65009543.8675845     
   65009543.8675844     
   65009543.8675844     
   65009543.8675844     
   65009543.8675843     
   65009543.8675843     
   65009543.8675843     
   64217873.8285643     
   64217873.8285643     
   64217873.8285643     
   64217873.8285643     
   64217873.8285642     
   64217873.8285641     
   64217873.8285641     
   64217873.8285640     
   64217873.8285640     
   64217873.8285639     
   64217873.8285639     
   64217873.8285638     
   64217873.8285637     
   64217873.8285636     
   64217873.8285636     
   64217873.8285636     
   64217873.8285635     
   64217873.8285633     
   64217873.8285632     
   64217873.8285631     
   64217873.8285630     
   64217873.8285629     
   64217873.8285629     
   64217873.8285628     
   64217873.8285627     
   64217873.8285626     
   64217873.8285626     
   64217873.8285624     
   64217873.8285624     
   64217873.8285622     
   64217873.8285622     
   64217873.8285622     
   64217873.8285621     
   64217873.8285620     
   64217873.8285620     
   64217873.8285619     
   64217873.8285619     
   64217873.8285620     
   64217873.8285620     
   64217873.8285620     
   64217873.8285619     
   64217873.8285618     
   64217873.8285618     
   64217873.8285617     
   64217873.8285617     
   64217873.8285617     
   64217873.8285617     
   64217873.8285617     
   64217873.8285617     
   64217873.8285617     
   64217873.8285617     
   63443801.3617529     
   63443801.3617529     
   63443801.3617528     
   63443801.3617527     
   63443801.3617527     
   63443801.3617526     
   63443801.3617526     
   63443801.3617525     
   63443801.3617525     
   63443801.3617524     
   63443801.3617524     
   63443801.3617523     
   63443801.3617523     
   63443801.3617522     
   63443801.3617522     
   63443801.3617521     
   63443801.3617520     
   63443801.3617520     
   63443801.3617520     
   63443801.3617518     
   63443801.3617517     
   63443801.3617516     
   63443801.3617515     
   63443801.3617514     
   63443801.3617513     
   63443801.3617513     
   63443801.3617512     
   63443801.3617512     
   63443801.3617511     
   63443801.3617510     
   63443801.3617509     
   63443801.3617509     
   63443801.3617509     
   63443801.3617508     
   63443801.3617508     
   63443801.3617507     
   63443801.3617507     
   63443801.3617506     
   63443801.3617506     
   63443801.3617505     
   63443801.3617505     
   63443801.3617504     
   63443801.3617503     
   63443801.3617503     
   63443801.3617503     
   63443801.3617503     
   63443801.3617503     
   63443801.3617503     
   63443801.3617504     
   63443801.3617504     
   63443801.3617504     
   62689236.6761220     
   62689236.6761220     
   62689236.6761220     
   62689236.6761220     
   62689236.6761219     
   62689236.6761219     
   62689236.6761219     
   62689236.6761218     
   62689236.6761218     
   62689236.6761217     
   62689236.6761217     
   62689236.6761217     
   62689236.6761217     
   62689236.6761217     
   62689236.6761216     
   62689236.6761215     
   62689236.6761215     
   62689236.6761214     
   62689236.6761213     
   62689236.6761213     
   62689236.6761212     
   62689236.6761211     
   62689236.6761210     
   62689236.6761210     
   62689236.6761209     
   62689236.6761209     
   62689236.6761208     
   62689236.6761207     
   62689236.6761206     
   62689236.6761206     
   62689236.6761205     
   62689236.6761204     
   62689236.6761203     
   62689236.6761202     
   62689236.6761202     
   62689236.6761201     
   62689236.6761200     
   62689236.6761200     
   62689236.6761199     
   62689236.6761200     
   62689236.6761199     
   62689236.6761199     
   62689236.6761198     
   62689236.6761198     
   62689236.6761197     
   62689236.6761197     
   62689236.6761198     
   62689236.6761198     
   62689236.6761198     
   62689236.6761198     
   62689236.6761199     
   61955880.5384308     
   61955880.5384308     
   61955880.5384309     
   61955880.5384309     
   61955880.5384310     
   61955880.5384309     
   61955880.5384309     
   61955880.5384309     
   61955880.5384309     
   61955880.5384310     
   61955880.5384309     
   61955880.5384308     
   61955880.5384308     
   61955880.5384307     
   61955880.5384307     
   61955880.5384307     
   61955880.5384306     
   61955880.5384305     
   61955880.5384304     
   61955880.5384302     
   61955880.5384302     
   61955880.5384301     
   61955880.5384300     
   61955880.5384300     
   61955880.5384300     
   61955880.5384299     
   61955880.5384299     
   61955880.5384298     
   61955880.5384298     
   61955880.5384298     
   61955880.5384297     
   61955880.5384296     
   61955880.5384295     
   61955880.5384295     
   61955880.5384293     
   61955880.5384292     
   61955880.5384291     
   61955880.5384290     
   61955880.5384289     
   61955880.5384288     
   61955880.5384287     
   61955880.5384288     
   61955880.5384287     
   61955880.5384287     
   61955880.5384287     
   61955880.5384287     
   61955880.5384288     
   61955880.5384288     
   61955880.5384287     
   61955880.5384287     
   61955880.5384287     
   61245215.3543393     
   61245215.3543393     
   61245215.3543393     
   61245215.3543393     
   61245215.3543393     
   61245215.3543393     
   61245215.3543393     
   61245215.3543393     
   61245215.3543393     
   61245215.3543393     
   61245215.3543393     
   61245215.3543393     
   61245215.3543392     
   61245215.3543392     
   61245215.3543392     
   61245215.3543392     
   61245215.3543391     
   61245215.3543390     
   61245215.3543389     
   61245215.3543389     
   61245215.3543387     
   61245215.3543387     
   61245215.3543386     
   61245215.3543385     
   61245215.3543384     
   61245215.3543384     
   61245215.3543384     
   61245215.3543383     
   61245215.3543383     
   61245215.3543383     
   61245215.3543382     
   61245215.3543382     
   61245215.3543380     
   61245215.3543379     
   61245215.3543378     
   61245215.3543377     
   61245215.3543376     
   61245215.3543374     
   61245215.3543374     
   61245215.3543374     
   61245215.3543374     
   61245215.3543373     
   61245215.3543372     
   61245215.3543372     
   61245215.3543372     
   61245215.3543372     
   61245215.3543371     
   61245215.3543371     
   61245215.3543371     
   61245215.3543371     
   61245215.3543371     
   60558500.4607112     
   60558500.4607112     
   60558500.4607112     
   60558500.4607112     
   60558500.4607112     
   60558500.4607112     
   60558500.4607112     
   60558500.4607111     
   60558500.4607111     
   60558500.4607111     
   60558500.4607110     
   60558500.4607110     
   60558500.4607110     
   60558500.4607109     
   60558500.4607108     
   60558500.4607108     
   60558500.4607108     
   60558500.4607107     
   60558500.4607107     
   60558500.4607107     
   60558500.4607107     
   60558500.4607106     
   60558500.4607105     
   60558500.4607104     
   60558500.4607103     
   60558500.4607102     
   60558500.4607101     
   60558500.4607101     
   60558500.4607100     
   60558500.4607099     
   60558500.4607099     
   60558500.4607097     
   60558500.4607097     
   60558500.4607096     
   60558500.4607095     
   60558500.4607094     
   60558500.4607094     
   60558500.4607095     
   60558500.4607095     
   60558500.4607094     
   60558500.4607094     
   60558500.4607094     
   60558500.4607093     
   60558500.4607093     
   60558500.4607093     
   60558500.4607093     
   60558500.4607093     
   60558500.4607092     
   60558500.4607092     
   60558500.4607091     
   60558500.4607091     
   59896771.3554445     
   59896771.3554445     
   59896771.3554445     
   59896771.3554444     
   59896771.3554444     
   59896771.3554443     
   59896771.3554443     
   59896771.3554443     
   59896771.3554442     
   59896771.3554441     
   59896771.3554441     
   59896771.3554440     
   59896771.3554439     
   59896771.3554438     
   59896771.3554438     
   59896771.3554438     
   59896771.3554437     
   59896771.3554437     
   59896771.3554436     
   59896771.3554436     
   59896771.3554435     
   59896771.3554434     
   59896771.3554434     
   59896771.3554433     
   59896771.3554432     
   59896771.3554431     
   59896771.3554431     
   59896771.3554430     
   59896771.3554429     
   59896771.3554429     
   59896771.3554428     
   59896771.3554428     
   59896771.3554427     
   59896771.3554426     
   59896771.3554425     
   59896771.3554425     
   59896771.3554425     
   59896771.3554424     
   59896771.3554424     
   59896771.3554424     
   59896771.3554424     
   59896771.3554424     
   59896771.3554424     
   59896771.3554424     
   59896771.3554424     
   59896771.3554423     
   59896771.3554423     
   59896771.3554423     
   59896771.3554423     
   59896771.3554424     
   59896771.3554424     
   59260842.5056018     
   59260842.5056018     
   59260842.5056017     
   59260842.5056017     
   59260842.5056017     
   59260842.5056017     
   59260842.5056016     
   59260842.5056016     
   59260842.5056015     
   59260842.5056015     
   59260842.5056015     
   59260842.5056015     
   59260842.5056015     
   59260842.5056014     
   59260842.5056013     
   59260842.5056013     
   59260842.5056012     
   59260842.5056011     
   59260842.5056010     
   59260842.5056009     
   59260842.5056009     
   59260842.5056008     
   59260842.5056008     
   59260842.5056007     
   59260842.5056007     
   59260842.5056006     
   59260842.5056006     
   59260842.5056005     
   59260842.5056004     
   59260842.5056004     
   59260842.5056003     
   59260842.5056003     
   59260842.5056003     
   59260842.5056002     
   59260842.5056002     
   59260842.5056002     
   59260842.5056002     
   59260842.5056001     
   59260842.5056001     
   59260842.5056001     
   59260842.5056001     
   59260842.5056001     
   59260842.5056000     
   59260842.5056000     
   59260842.5056000     
   59260842.5055999     
   59260842.5055999     
   59260842.5055999     
   59260842.5055999     
   59260842.5055999     
   59260842.5055999     
   58651313.3148980     
   58651313.3148980     
   58651313.3148980     
   58651313.3148980     
   58651313.3148980     
   58651313.3148979     
   58651313.3148979     
   58651313.3148978     
   58651313.3148978     
   58651313.3148978     
   58651313.3148977     
   58651313.3148977     
   58651313.3148976     
   58651313.3148976     
   58651313.3148976     
   58651313.3148976     
   58651313.3148975     
   58651313.3148975     
   58651313.3148974     
   58651313.3148974     
   58651313.3148973     
   58651313.3148972     
   58651313.3148971     
   58651313.3148971     
   58651313.3148970     
   58651313.3148969     
   58651313.3148969     
   58651313.3148969     
   58651313.3148969     
   58651313.3148968     
   58651313.3148967     
   58651313.3148967     
   58651313.3148966     
   58651313.3148966     
   58651313.3148965     
   58651313.3148964     
   58651313.3148964     
   58651313.3148963     
   58651313.3148963     
   58651313.3148963     
   58651313.3148962     
   58651313.3148962     
   58651313.3148962     
   58651313.3148961     
   58651313.3148961     
   58651313.3148961     
   58651313.3148961     
   58651313.3148961     
   58651313.3148960     
   58651313.3148960     
   58651313.3148960     
   58068576.7956352     
   58068576.7956352     
   58068576.7956352     
   58068576.7956352     
   58068576.7956352     
   58068576.7956351     
   58068576.7956351     
   58068576.7956350     
   58068576.7956350     
   58068576.7956350     
   58068576.7956349     
   58068576.7956349     
   58068576.7956349     
   58068576.7956348     
   58068576.7956347     
   58068576.7956346     
   58068576.7956346     
   58068576.7956345     
   58068576.7956345     
   58068576.7956345     
   58068576.7956344     
   58068576.7956344     
   58068576.7956344     
   58068576.7956344     
   58068576.7956343     
   58068576.7956343     
   58068576.7956343     
   58068576.7956342     
   58068576.7956342     
   58068576.7956341     
   58068576.7956340     
   58068576.7956339     
   58068576.7956339     
   58068576.7956338     
   58068576.7956338     
   58068576.7956337     
   58068576.7956337     
   58068576.7956336     
   58068576.7956336     
   58068576.7956335     
   58068576.7956334     
   58068576.7956333     
   58068576.7956333     
   58068576.7956333     
   58068576.7956333     
   58068576.7956333     
   58068576.7956332     
   58068576.7956332     
   58068576.7956332     
   58068576.7956332     
   58068576.7956332     
   57512830.4751510     
   57512830.4751510     
   57512830.4751510     
   57512830.4751510     
   57512830.4751510     
   57512830.4751510     
   57512830.4751510     
   57512830.4751510     
   57512830.4751509     
   57512830.4751509     
   57512830.4751509     
   57512830.4751509     
   57512830.4751509     
   57512830.4751508     
   57512830.4751508     
   57512830.4751508     
   57512830.4751507     
   57512830.4751507     
   57512830.4751506     
   57512830.4751505     
   57512830.4751505     
   57512830.4751504     
   57512830.4751503     
   57512830.4751503     
   57512830.4751503     
   57512830.4751503     
   57512830.4751502     
   57512830.4751501     
   57512830.4751501     
   57512830.4751500     
   57512830.4751500     
   57512830.4751499     
   57512830.4751499     
   57512830.4751498     
   57512830.4751497     
   57512830.4751497     
   57512830.4751497     
   57512830.4751497     
   57512830.4751496     
   57512830.4751496     
   57512830.4751495     
   57512830.4751494     
   57512830.4751493     
   57512830.4751493     
   57512830.4751492     
   57512830.4751493     
   57512830.4751493     
   57512830.4751493     
   57512830.4751493     
   57512830.4751493     
   57512830.4751493     
   56984089.0694625     
   56984089.0694625     
   56984089.0694625     
   56984089.0694626     
   56984089.0694626     
   56984089.0694626     
   56984089.0694626     
   56984089.0694626     
   56984089.0694626     
   56984089.0694626     
   56984089.0694626     
   56984089.0694626     
   56984089.0694625     
   56984089.0694625     
   56984089.0694624     
   56984089.0694624     
   56984089.0694623     
   56984089.0694623     
   56984089.0694624     
   56984089.0694624     
   56984089.0694623     
   56984089.0694622     
   56984089.0694622     
   56984089.0694621     
   56984089.0694620     
   56984089.0694619     
   56984089.0694619     
   56984089.0694618     
   56984089.0694617     
   56984089.0694617     
   56984089.0694616     
   56984089.0694615     
   56984089.0694615     
   56984089.0694614     
   56984089.0694613     
   56984089.0694612     
   56984089.0694611     
   56984089.0694611     
   56984089.0694611     
   56984089.0694610     
   56984089.0694610     
   56984089.0694610     
   56984089.0694610     
   56984089.0694609     
   56984089.0694609     
   56984089.0694609     
   56984089.0694609     
   56984089.0694609     
   56984089.0694608     
   56984089.0694608     
   56984089.0694608     
   56482198.4736735     
   56482198.4736735     
   56482198.4736736     
   56482198.4736736     
   56482198.4736736     
   56482198.4736736     
   56482198.4736736     
   56482198.4736736     
   56482198.4736736     
   56482198.4736736     
   56482198.4736736     
   56482198.4736737     
   56482198.4736737     
   56482198.4736737     
   56482198.4736737     
   56482198.4736737     
   56482198.4736737     
   56482198.4736737     
   56482198.4736736     
   56482198.4736735     
   56482198.4736735     
   56482198.4736734     
   56482198.4736734     
   56482198.4736733     
   56482198.4736733     
   56482198.4736732     
   56482198.4736731     
   56482198.4736731     
   56482198.4736730     
   56482198.4736729     
   56482198.4736727     
   56482198.4736726     
   56482198.4736725     
   56482198.4736725     
   56482198.4736724     
   56482198.4736724     
   56482198.4736724     
   56482198.4736723     
   56482198.4736722     
   56482198.4736721     
   56482198.4736721     
   56482198.4736720     
   56482198.4736720     
   56482198.4736720     
   56482198.4736719     
   56482198.4736719     
   56482198.4736719     
   56482198.4736719     
   56482198.4736719     
   56482198.4736719     
   56482198.4736719     
   56006850.6465738     
   56006850.6465738     
   56006850.6465738     
   56006850.6465737     
   56006850.6465738     
   56006850.6465738     
   56006850.6465738     
   56006850.6465738     
   56006850.6465738     
   56006850.6465738     
   56006850.6465738     
   56006850.6465738     
   56006850.6465738     
   56006850.6465739     
   56006850.6465739     
   56006850.6465739     
   56006850.6465739     
   56006850.6465739     
   56006850.6465738     
   56006850.6465738     
   56006850.6465738     
   56006850.6465737     
   56006850.6465737     
   56006850.6465737     
   56006850.6465736     
   56006850.6465735     
   56006850.6465734     
   56006850.6465733     
   56006850.6465732     
   56006850.6465731     
   56006850.6465730     
   56006850.6465730     
   56006850.6465729     
   56006850.6465729     
   56006850.6465728     
   56006850.6465727     
   56006850.6465727     
   56006850.6465726     
   56006850.6465725     
   56006850.6465725     
   56006850.6465725     
   56006850.6465724     
   56006850.6465724     
   56006850.6465725     
   56006850.6465724     
   56006850.6465724     
   56006850.6465724     
   56006850.6465724     
   56006850.6465724     
   56006850.6465724     
   56006850.6465724     
   55557599.0026217     
   55557599.0026217     
   55557599.0026218     
   55557599.0026218     
   55557599.0026218     
   55557599.0026217     
   55557599.0026217     
   55557599.0026217     
   55557599.0026217     
   55557599.0026217     
   55557599.0026217     
   55557599.0026217     
   55557599.0026217     
   55557599.0026217     
   55557599.0026218     
   55557599.0026218     
   55557599.0026218     
   55557599.0026218     
   55557599.0026218     
   55557599.0026218     
   55557599.0026218     
   55557599.0026217     
   55557599.0026216     
   55557599.0026215     
   55557599.0026214     
   55557599.0026214     
   55557599.0026213     
   55557599.0026213     
   55557599.0026212     
   55557599.0026211     
   55557599.0026211     
   55557599.0026210     
   55557599.0026209     
   55557599.0026208     
   55557599.0026207     
   55557599.0026206     
   55557599.0026206     
   55557599.0026205     
   55557599.0026205     
   55557599.0026205     
   55557599.0026204     
   55557599.0026204     
   55557599.0026203     
   55557599.0026203     
   55557599.0026203     
   55557599.0026203     
   55557599.0026204     
   55557599.0026204     
   55557599.0026204     
   55557599.0026203     
   55557599.0026203     
   55133873.9654477     
   55133873.9654477     
   55133873.9654477     
   55133873.9654477     
   55133873.9654478     
   55133873.9654478     
   55133873.9654478     
   55133873.9654478     
   55133873.9654478     
   55133873.9654478     
   55133873.9654479     
   55133873.9654479     
   55133873.9654479     
   55133873.9654479     
   55133873.9654479     
   55133873.9654479     
   55133873.9654478     
   55133873.9654478     
   55133873.9654478     
   55133873.9654478     
   55133873.9654477     
   55133873.9654477     
   55133873.9654476     
   55133873.9654475     
   55133873.9654474     
   55133873.9654473     
   55133873.9654473     
   55133873.9654472     
   55133873.9654471     
   55133873.9654470     
   55133873.9654469     
   55133873.9654468     
   55133873.9654467     
   55133873.9654467     
   55133873.9654466     
   55133873.9654466     
   55133873.9654465     
   55133873.9654465     
   55133873.9654465     
   55133873.9654464     
   55133873.9654464     
   55133873.9654464     
   55133873.9654464     
   55133873.9654464     
   55133873.9654464     
   55133873.9654463     
   55133873.9654463     
   55133873.9654463     
   55133873.9654463     
   55133873.9654464     
   55133873.9654463     
   54734998.3807851     
   54734998.3807851     
   54734998.3807851     
   54734998.3807851     
   54734998.3807851     
   54734998.3807850     
   54734998.3807850     
   54734998.3807851     
   54734998.3807851     
   54734998.3807851     
   54734998.3807851     
   54734998.3807851     
   54734998.3807851     
   54734998.3807850     
   54734998.3807850     
   54734998.3807849     
   54734998.3807849     
   54734998.3807848     
   54734998.3807848     
   54734998.3807847     
   54734998.3807847     
   54734998.3807847     
   54734998.3807846     
   54734998.3807846     
   54734998.3807846     
   54734998.3807845     
   54734998.3807845     
   54734998.3807843     
   54734998.3807843     
   54734998.3807842     
   54734998.3807842     
   54734998.3807841     
   54734998.3807841     
   54734998.3807840     
   54734998.3807839     
   54734998.3807838     
   54734998.3807838     
   54734998.3807838     
   54734998.3807838     
   54734998.3807838     
   54734998.3807837     
   54734998.3807837     
   54734998.3807837     
   54734998.3807837     
   54734998.3807837     
   54734998.3807837     
   54734998.3807837     
   54734998.3807837     
   54734998.3807836     
   54734998.3807836     
   54734998.3807837     
   54360202.5313761     
   54360202.5313761     
   54360202.5313761     
   54360202.5313761     
   54360202.5313761     
   54360202.5313760     
   54360202.5313760     
   54360202.5313760     
   54360202.5313760     
   54360202.5313760     
   54360202.5313760     
   54360202.5313759     
   54360202.5313758     
   54360202.5313758     
   54360202.5313758     
   54360202.5313758     
   54360202.5313757     
   54360202.5313757     
   54360202.5313756     
   54360202.5313756     
   54360202.5313756     
   54360202.5313755     
   54360202.5313755     
   54360202.5313754     
   54360202.5313754     
   54360202.5313754     
   54360202.5313754     
   54360202.5313754     
   54360202.5313754     
   54360202.5313754     
   54360202.5313754     
   54360202.5313754     
   54360202.5313753     
   54360202.5313752     
   54360202.5313752     
   54360202.5313751     
   54360202.5313751     
   54360202.5313750     
   54360202.5313750     
   54360202.5313750     
   54360202.5313750     
   54360202.5313750     
   54360202.5313750     
   54360202.5313750     
   54360202.5313750     
   54360202.5313750     
   54360202.5313750     
   54360202.5313751     
   54360202.5313751     
   54360202.5313751     
   54360202.5313750     
   54008638.5403324     
   54008638.5403324     
   54008638.5403324     
   54008638.5403323     
   54008638.5403323     
   54008638.5403324     
   54008638.5403325     
   54008638.5403324     
   54008638.5403324     
   54008638.5403324     
   54008638.5403323     
   54008638.5403323     
   54008638.5403323     
   54008638.5403322     
   54008638.5403322     
   54008638.5403322     
   54008638.5403321     
   54008638.5403321     
   54008638.5403321     
   54008638.5403321     
   54008638.5403320     
   54008638.5403320     
   54008638.5403320     
   54008638.5403320     
   54008638.5403319     
   54008638.5403319     
   54008638.5403318     
   54008638.5403318     
   54008638.5403318     
   54008638.5403318     
   54008638.5403318     
   54008638.5403318     
   54008638.5403318     
   54008638.5403318     
   54008638.5403317     
   54008638.5403317     
   54008638.5403317     
   54008638.5403317     
   54008638.5403316     
   54008638.5403316     
   54008638.5403316     
   54008638.5403316     
   54008638.5403316     
   54008638.5403316     
   54008638.5403316     
   54008638.5403317     
   54008638.5403317     
   54008638.5403317     
   54008638.5403317     
   54008638.5403316     
   54008638.5403316     
   53679393.9914373     
   53679393.9914373     
   53679393.9914373     
   53679393.9914373     
   53679393.9914373     
   53679393.9914373     
   53679393.9914373     
   53679393.9914372     
   53679393.9914372     
   53679393.9914371     
   53679393.9914371     
   53679393.9914371     
   53679393.9914371     
   53679393.9914370     
   53679393.9914370     
   53679393.9914370     
   53679393.9914370     
   53679393.9914369     
   53679393.9914369     
   53679393.9914369     
   53679393.9914370     
   53679393.9914370     
   53679393.9914370     
   53679393.9914370     
   53679393.9914370     
   53679393.9914370     
   53679393.9914370     
   53679393.9914369     
   53679393.9914368     
   53679393.9914367     
   53679393.9914367     
   53679393.9914367     
   53679393.9914367     
   53679393.9914366     
   53679393.9914367     
   53679393.9914367     
   53679393.9914367     
   53679393.9914367     
   53679393.9914366     
   53679393.9914366     
   53679393.9914365     
   53679393.9914365     
   53679393.9914365     
   53679393.9914365     
   53679393.9914366     
   53679393.9914366     
   53679393.9914366     
   53679393.9914367     
   53679393.9914367     
   53679393.9914367     
   53679393.9914367     
   53371504.6340747     
   53371504.6340747     
   53371504.6340747     
   53371504.6340746     
   53371504.6340746     
   53371504.6340746     
   53371504.6340746     
   53371504.6340746     
   53371504.6340746     
   53371504.6340746     
   53371504.6340746     
   53371504.6340746     
   53371504.6340745     
   53371504.6340745     
   53371504.6340745     
   53371504.6340746     
   53371504.6340746     
   53371504.6340746     
   53371504.6340746     
   53371504.6340746     
   53371504.6340745     
   53371504.6340745     
   53371504.6340745     
   53371504.6340745     
   53371504.6340746     
   53371504.6340746     
   53371504.6340746     
   53371504.6340746     
   53371504.6340746     
   53371504.6340746     
   53371504.6340745     
   53371504.6340745     
   53371504.6340745     
   53371504.6340744     
   53371504.6340743     
   53371504.6340743     
   53371504.6340742     
   53371504.6340742     
   53371504.6340742     
   53371504.6340742     
   53371504.6340742     
   53371504.6340741     
   53371504.6340741     
   53371504.6340741     
   53371504.6340742     
   53371504.6340742     
   53371504.6340742     
   53371504.6340742     
   53371504.6340742     
   53371504.6340742     
   53371504.6340742     
   53083966.0762539     
   53083966.0762539     
   53083966.0762539     
   53083966.0762538     
   53083966.0762538     
   53083966.0762537     
   53083966.0762537     
   53083966.0762537     
   53083966.0762537     
   53083966.0762537     
   53083966.0762537     
   53083966.0762538     
   53083966.0762538     
   53083966.0762538     
   53083966.0762539     
   53083966.0762539     
   53083966.0762539     
   53083966.0762540     
   53083966.0762540     
   53083966.0762540     
   53083966.0762541     
   53083966.0762541     
   53083966.0762541     
   53083966.0762540     
   53083966.0762540     
   53083966.0762540     
   53083966.0762539     
   53083966.0762539     
   53083966.0762539     
   53083966.0762539     
   53083966.0762539     
   53083966.0762539     
   53083966.0762539     
   53083966.0762539     
   53083966.0762539     
   53083966.0762538     
   53083966.0762538     
   53083966.0762538     
   53083966.0762537     
   53083966.0762536     
   53083966.0762535     
   53083966.0762535     
   53083966.0762535     
   53083966.0762535     
   53083966.0762535     
   53083966.0762535     
   53083966.0762535     
   53083966.0762536     
   53083966.0762536     
   53083966.0762536     
   53083966.0762536     
   52815744.4011855     
   52815744.4011855     
   52815744.4011855     
   52815744.4011856     
   52815744.4011856     
   52815744.4011856     
   52815744.4011857     
   52815744.4011857     
   52815744.4011858     
   52815744.4011858     
   52815744.4011858     
   52815744.4011858     
   52815744.4011858     
   52815744.4011858     
   52815744.4011859     
   52815744.4011859     
   52815744.4011859     
   52815744.4011860     
   52815744.4011860     
   52815744.4011861     
   52815744.4011861     
   52815744.4011861     
   52815744.4011862     
   52815744.4011862     
   52815744.4011861     
   52815744.4011861     
   52815744.4011861     
   52815744.4011860     
   52815744.4011860     
   52815744.4011860     
   52815744.4011860     
   52815744.4011859     
   52815744.4011858     
   52815744.4011858     
   52815744.4011859     
   52815744.4011858     
   52815744.4011858     
   52815744.4011858     
   52815744.4011858     
   52815744.4011858     
   52815744.4011858     
   52815744.4011859     
   52815744.4011859     
   52815744.4011858     
   52815744.4011858     
   52815744.4011858     
   52815744.4011858     
   52815744.4011858     
   52815744.4011858     
   52815744.4011858     
   52815744.4011857     
   52565785.6709181     
   52565785.6709181     
   52565785.6709181     
   52565785.6709181     
   52565785.6709182     
   52565785.6709181     
   52565785.6709181     
   52565785.6709182     
   52565785.6709182     
   52565785.6709183     
   52565785.6709183     
   52565785.6709183     
   52565785.6709183     
   52565785.6709183     
   52565785.6709183     
   52565785.6709184     
   52565785.6709184     
   52565785.6709184     
   52565785.6709185     
   52565785.6709185     
   52565785.6709186     
   52565785.6709185     
   52565785.6709185     
   52565785.6709186     
   52565785.6709185     
   52565785.6709185     
   52565785.6709185     
   52565785.6709185     
   52565785.6709185     
   52565785.6709185     
   52565785.6709185     
   52565785.6709185     
   52565785.6709185     
   52565785.6709184     
   52565785.6709184     
   52565785.6709184     
   52565785.6709185     
   52565785.6709185     
   52565785.6709185     
   52565785.6709185     
   52565785.6709186     
   52565785.6709186     
   52565785.6709186     
   52565785.6709186     
   52565785.6709186     
   52565785.6709186     
   52565785.6709185     
   52565785.6709185     
   52565785.6709184     
   52565785.6709184     
   52565785.6709184     
   52333024.3046254     
   52333024.3046254     
   52333024.3046254     
   52333024.3046254     
   52333024.3046254     
   52333024.3046254     
   52333024.3046254     
   52333024.3046254     
   52333024.3046255     
   52333024.3046254     
   52333024.3046254     
   52333024.3046254     
   52333024.3046254     
   52333024.3046254     
   52333024.3046255     
   52333024.3046256     
   52333024.3046257     
   52333024.3046257     
   52333024.3046258     
   52333024.3046258     
   52333024.3046257     
   52333024.3046257     
   52333024.3046257     
   52333024.3046256     
   52333024.3046256     
   52333024.3046257     
   52333024.3046257     
   52333024.3046257     
   52333024.3046257     
   52333024.3046257     
   52333024.3046256     
   52333024.3046256     
   52333024.3046257     
   52333024.3046257     
   52333024.3046257     
   52333024.3046257     
   52333024.3046256     
   52333024.3046256     
   52333024.3046256     
   52333024.3046256     
   52333024.3046256     
   52333024.3046257     
   52333024.3046257     
   52333024.3046257     
   52333024.3046257     
   52333024.3046258     
   52333024.3046258     
   52333024.3046259     
   52333024.3046259     
   52333024.3046259     
   52333024.3046258     
   52116390.3394009     
   52116390.3394009     
   52116390.3394009     
   52116390.3394009     
   52116390.3394009     
   52116390.3394010     
   52116390.3394010     
   52116390.3394010     
   52116390.3394010     
   52116390.3394011     
   52116390.3394011     
   52116390.3394011     
   52116390.3394012     
   52116390.3394012     
   52116390.3394012     
   52116390.3394012     
   52116390.3394012     
   52116390.3394012     
   52116390.3394011     
   52116390.3394011     
   52116390.3394011     
   52116390.3394011     
   52116390.3394012     
   52116390.3394012     
   52116390.3394012     
   52116390.3394012     
   52116390.3394012     
   52116390.3394012     
   52116390.3394012     
   52116390.3394012     
   52116390.3394013     
   52116390.3394013     
   52116390.3394013     
   52116390.3394013     
   52116390.3394013     
   52116390.3394013     
   52116390.3394013     
   52116390.3394013     
   52116390.3394013     
   52116390.3394013     
   52116390.3394013     
   52116390.3394013     
   52116390.3394013     
   52116390.3394013     
   52116390.3394014     
   52116390.3394014     
   52116390.3394014     
   52116390.3394014     
   52116390.3394014     
   52116390.3394014     
   52116390.3394013     
   51914815.5980349     
   51914815.5980349     
   51914815.5980349     
   51914815.5980349     
   51914815.5980349     
   51914815.5980349     
   51914815.5980349     
   51914815.5980349     
   51914815.5980349     
   51914815.5980349     
   51914815.5980350     
   51914815.5980350     
   51914815.5980350     
   51914815.5980351     
   51914815.5980351     
   51914815.5980351     
   51914815.5980351     
   51914815.5980351     
   51914815.5980351     
   51914815.5980351     
   51914815.5980351     
   51914815.5980352     
   51914815.5980352     
   51914815.5980352     
   51914815.5980352     
   51914815.5980353     
   51914815.5980353     
   51914815.5980354     
   51914815.5980354     
   51914815.5980354     
   51914815.5980353     
   51914815.5980353     
   51914815.5980353     
   51914815.5980353     
   51914815.5980352     
   51914815.5980352     
   51914815.5980352     
   51914815.5980352     
   51914815.5980351     
   51914815.5980351     
   51914815.5980351     
   51914815.5980351     
   51914815.5980352     
   51914815.5980352     
   51914815.5980352     
   51914815.5980353     
   51914815.5980353     
   51914815.5980353     
   51914815.5980353     
   51914815.5980353     
   51914815.5980353     
   51727238.8015362     
   51727238.8015362     
   51727238.8015362     
   51727238.8015362     
   51727238.8015362     
   51727238.8015361     
   51727238.8015361     
   51727238.8015361     
   51727238.8015361     
   51727238.8015361     
   51727238.8015361     
   51727238.8015361     
   51727238.8015361     
   51727238.8015360     
   51727238.8015361     
   51727238.8015361     
   51727238.8015362     
   51727238.8015363     
   51727238.8015363     
   51727238.8015363     
   51727238.8015363     
   51727238.8015364     
   51727238.8015364     
   51727238.8015364     
   51727238.8015364     
   51727238.8015364     
   51727238.8015364     
   51727238.8015364     
   51727238.8015364     
   51727238.8015364     
   51727238.8015364     
   51727238.8015364     
   51727238.8015364     
   51727238.8015364     
   51727238.8015364     
   51727238.8015364     
   51727238.8015364     
   51727238.8015364     
   51727238.8015364     
   51727238.8015363     
   51727238.8015363     
   51727238.8015364     
   51727238.8015364     
   51727238.8015364     
   51727238.8015363     
   51727238.8015364     
   51727238.8015363     
   51727238.8015364     
   51727238.8015364     
   51727238.8015364     
   51727238.8015364     
   51552609.6744171     
   51552609.6744171     
   51552609.6744171     
   51552609.6744171     
   51552609.6744171     
   51552609.6744171     
   51552609.6744171     
   51552609.6744171     
   51552609.6744171     
   51552609.6744170     
   51552609.6744170     
   51552609.6744170     
   51552609.6744170     
   51552609.6744170     
   51552609.6744170     
   51552609.6744170     
   51552609.6744170     
   51552609.6744170     
   51552609.6744171     
   51552609.6744172     
   51552609.6744172     
   51552609.6744173     
   51552609.6744172     
   51552609.6744172     
   51552609.6744172     
   51552609.6744172     
   51552609.6744172     
   51552609.6744172     
   51552609.6744172     
   51552609.6744172     
   51552609.6744171     
   51552609.6744171     
   51552609.6744171     
   51552609.6744171     
   51552609.6744171     
   51552609.6744171     
   51552609.6744171     
   51552609.6744171     
   51552609.6744171     
   51552609.6744171     
   51552609.6744170     
   51552609.6744171     
   51552609.6744170     
   51552609.6744170     
   51552609.6744171     
   51552609.6744171     
   51552609.6744171     
   51552609.6744171     
   51552609.6744171     
   51552609.6744171     
   51552609.6744171     
   51389892.0983274     
   51389892.0983274     
   51389892.0983274     
   51389892.0983274     
   51389892.0983274     
   51389892.0983274     
   51389892.0983273     
   51389892.0983273     
   51389892.0983273     
   51389892.0983273     
   51389892.0983273     
   51389892.0983273     
   51389892.0983273     
   51389892.0983273     
   51389892.0983273     
   51389892.0983273     
   51389892.0983273     
   51389892.0983273     
   51389892.0983274     
   51389892.0983274     
   51389892.0983274     
   51389892.0983273     
   51389892.0983273     
   51389892.0983273     
   51389892.0983274     
   51389892.0983274     
   51389892.0983274     
   51389892.0983274     
   51389892.0983273     
   51389892.0983273     
   51389892.0983273     
   51389892.0983272     
   51389892.0983272     
   51389892.0983272     
   51389892.0983272     
   51389892.0983272     
   51389892.0983273     
   51389892.0983273     
   51389892.0983272     
   51389892.0983272     
   51389892.0983272     
   51389892.0983272     
   51389892.0983273     
   51389892.0983273     
   51389892.0983273     
   51389892.0983274     
   51389892.0983274     
   51389892.0983274     
   51389892.0983274     
   51389892.0983275     
   51389892.0983275     
   51238066.3748590     
   51238066.3748590     
   51238066.3748589     
   51238066.3748589     
   51238066.3748590     
   51238066.3748590     
   51238066.3748590     
   51238066.3748590     
   51238066.3748590     
   51238066.3748590     
   51238066.3748589     
   51238066.3748589     
   51238066.3748589     
   51238066.3748589     
   51238066.3748589     
   51238066.3748589     
   51238066.3748589     
   51238066.3748589     
   51238066.3748588     
   51238066.3748588     
   51238066.3748588     
   51238066.3748588     
   51238066.3748589     
   51238066.3748589     
   51238066.3748589     
   51238066.3748589     
   51238066.3748588     
   51238066.3748588     
   51238066.3748589     
   51238066.3748588     
   51238066.3748588     
   51238066.3748588     
   51238066.3748588     
   51238066.3748588     
   51238066.3748588     
   51238066.3748588     
   51238066.3748588     
   51238066.3748588     
   51238066.3748588     
   51238066.3748588     
   51238066.3748588     
   51238066.3748589     
   51238066.3748588     
   51238066.3748588     
   51238066.3748588     
   51238066.3748588     
   51238066.3748589     
   51238066.3748589     
   51238066.3748589     
   51238066.3748589     
   51238066.3748589     
   51096130.6615966     
   51096130.6615966     
   51096130.6615966     
   51096130.6615965     
   51096130.6615965     
   51096130.6615965     
   51096130.6615965     
   51096130.6615965     
   51096130.6615966     
   51096130.6615966     
   51096130.6615966     
   51096130.6615966     
   51096130.6615965     
   51096130.6615965     
   51096130.6615965     
   51096130.6615965     
   51096130.6615964     
   51096130.6615964     
   51096130.6615964     
   51096130.6615963     
   51096130.6615963     
   51096130.6615962     
   51096130.6615962     
   51096130.6615962     
   51096130.6615962     
   51096130.6615962     
   51096130.6615962     
   51096130.6615963     
   51096130.6615962     
   51096130.6615962     
   51096130.6615962     
   51096130.6615962     
   51096130.6615962     
   51096130.6615961     
   51096130.6615961     
   51096130.6615962     
   51096130.6615962     
   51096130.6615962     
   51096130.6615962     
   51096130.6615962     
   51096130.6615963     
   51096130.6615963     
   51096130.6615963     
   51096130.6615963     
   51096130.6615963     
   51096130.6615963     
   51096130.6615963     
   51096130.6615963     
   51096130.6615963     
   51096130.6615962     
   51096130.6615963     
   50963101.6470895     
   50963101.6470895     
   50963101.6470895     
   50963101.6470895     
   50963101.6470895     
   50963101.6470895     
   50963101.6470895     
   50963101.6470895     
   50963101.6470895     
   50963101.6470895     
   50963101.6470895     
   50963101.6470895     
   50963101.6470895     
   50963101.6470895     
   50963101.6470895     
   50963101.6470895     
   50963101.6470895     
   50963101.6470895     
   50963101.6470894     
   50963101.6470894     
   50963101.6470894     
   50963101.6470894     
   50963101.6470893     
   50963101.6470893     
   50963101.6470894     
   50963101.6470894     
   50963101.6470893     
   50963101.6470893     
   50963101.6470892     
   50963101.6470893     
   50963101.6470892     
   50963101.6470892     
   50963101.6470892     
   50963101.6470892     
   50963101.6470892     
   50963101.6470892     
   50963101.6470892     
   50963101.6470891     
   50963101.6470891     
   50963101.6470891     
   50963101.6470890     
   50963101.6470890     
   50963101.6470890     
   50963101.6470890     
   50963101.6470890     
   50963101.6470890     
   50963101.6470890     
   50963101.6470890     
   50963101.6470889     
   50963101.6470890     
   50963101.6470890     
   50838014.5306952     
   50838014.5306952     
   50838014.5306952     
   50838014.5306951     
   50838014.5306951     
   50838014.5306952     
   50838014.5306952     
   50838014.5306952     
   50838014.5306953     
   50838014.5306953     
   50838014.5306953     
   50838014.5306953     
   50838014.5306953     
   50838014.5306953     
   50838014.5306953     
   50838014.5306953     
   50838014.5306952     
   50838014.5306952     
   50838014.5306951     
   50838014.5306951     
   50838014.5306950     
   50838014.5306950     
   50838014.5306950     
   50838014.5306950     
   50838014.5306950     
   50838014.5306950     
   50838014.5306950     
   50838014.5306950     
   50838014.5306950     
   50838014.5306949     
   50838014.5306948     
   50838014.5306948     
   50838014.5306947     
   50838014.5306947     
   50838014.5306946     
   50838014.5306946     
   50838014.5306946     
   50838014.5306946     
   50838014.5306946     
   50838014.5306946     
   50838014.5306946     
   50838014.5306946     
   50838014.5306945     
   50838014.5306945     
   50838014.5306945     
   50838014.5306945     
   50838014.5306945     
   50838014.5306945     
   50838014.5306945     
   50838014.5306946     
   50838014.5306946     
   50719922.3724771     
   50719922.3724771     
   50719922.3724772     
   50719922.3724772     
   50719922.3724772     
   50719922.3724772     
   50719922.3724772     
   50719922.3724772     
   50719922.3724772     
   50719922.3724773     
   50719922.3724773     
   50719922.3724773     
   50719922.3724773     
   50719922.3724773     
   50719922.3724773     
   50719922.3724772     
   50719922.3724772     
   50719922.3724772     
   50719922.3724771     
   50719922.3724771     
   50719922.3724771     
   50719922.3724770     
   50719922.3724770     
   50719922.3724770     
   50719922.3724769     
   50719922.3724768     
   50719922.3724768     
   50719922.3724768     
   50719922.3724767     
   50719922.3724767     
   50719922.3724767     
   50719922.3724767     
   50719922.3724766     
   50719922.3724766     
   50719922.3724766     
   50719922.3724766     
   50719922.3724765     
   50719922.3724765     
   50719922.3724765     
   50719922.3724765     
   50719922.3724765     
   50719922.3724766     
   50719922.3724765     
   50719922.3724765     
   50719922.3724765     
   50719922.3724765     
   50719922.3724765     
   50719922.3724765     
   50719922.3724765     
   50719922.3724765     
   50719922.3724766     
   50607894.8768175     
   50607894.8768174     
   50607894.8768174     
   50607894.8768174     
   50607894.8768174     
   50607894.8768174     
   50607894.8768174     
   50607894.8768175     
   50607894.8768176     
   50607894.8768176     
   50607894.8768176     
   50607894.8768175     
   50607894.8768175     
   50607894.8768175     
   50607894.8768175     
   50607894.8768175     
   50607894.8768174     
   50607894.8768174     
   50607894.8768174     
   50607894.8768174     
   50607894.8768174     
   50607894.8768174     
   50607894.8768173     
   50607894.8768173     
   50607894.8768172     
   50607894.8768171     
   50607894.8768170     
   50607894.8768170     
   50607894.8768170     
   50607894.8768170     
   50607894.8768169     
   50607894.8768169     
   50607894.8768169     
   50607894.8768169     
   50607894.8768169     
   50607894.8768169     
   50607894.8768169     
   50607894.8768169     
   50607894.8768168     
   50607894.8768168     
   50607894.8768167     
   50607894.8768167     
   50607894.8768167     
   50607894.8768167     
   50607894.8768167     
   50607894.8768167     
   50607894.8768167     
   50607894.8768167     
   50607894.8768167     
   50607894.8768166     
   50607894.8768166     
   50501016.6713522     
   50501016.6713522     
   50501016.6713522     
   50501016.6713522     
   50501016.6713523     
   50501016.6713523     
   50501016.6713523     
   50501016.6713523     
   50501016.6713523     
   50501016.6713524     
   50501016.6713523     
   50501016.6713523     
   50501016.6713523     
   50501016.6713523     
   50501016.6713523     
   50501016.6713524     
   50501016.6713524     
   50501016.6713524     
   50501016.6713524     
   50501016.6713523     
   50501016.6713523     
   50501016.6713523     
   50501016.6713522     
   50501016.6713521     
   50501016.6713520     
   50501016.6713520     
   50501016.6713519     
   50501016.6713519     
   50501016.6713518     
   50501016.6713518     
   50501016.6713518     
   50501016.6713517     
   50501016.6713517     
   50501016.6713517     
   50501016.6713517     
   50501016.6713517     
   50501016.6713517     
   50501016.6713517     
   50501016.6713516     
   50501016.6713517     
   50501016.6713517     
   50501016.6713517     
   50501016.6713516     
   50501016.6713517     
   50501016.6713516     
   50501016.6713516     
   50501016.6713516     
   50501016.6713516     
   50501016.6713516     
   50501016.6713516     
   50501016.6713516     
   50398385.1404936     
   50398385.1404936     
   50398385.1404936     
   50398385.1404936     
   50398385.1404936     
   50398385.1404936     
   50398385.1404937     
   50398385.1404937     
   50398385.1404938     
   50398385.1404938     
   50398385.1404938     
   50398385.1404938     
   50398385.1404938     
   50398385.1404938     
   50398385.1404938     
   50398385.1404939     
   50398385.1404938     
   50398385.1404938     
   50398385.1404938     
   50398385.1404938     
   50398385.1404938     
   50398385.1404938     
   50398385.1404937     
   50398385.1404937     
   50398385.1404937     
   50398385.1404936     
   50398385.1404935     
   50398385.1404935     
   50398385.1404934     
   50398385.1404934     
   50398385.1404934     
   50398385.1404934     
   50398385.1404933     
   50398385.1404933     
   50398385.1404933     
   50398385.1404933     
   50398385.1404932     
   50398385.1404932     
   50398385.1404932     
   50398385.1404932     
   50398385.1404932     
   50398385.1404932     
   50398385.1404932     
   50398385.1404932     
   50398385.1404932     
   50398385.1404932     
   50398385.1404932     
   50398385.1404931     
   50398385.1404931     
   50398385.1404931     
   50398385.1404931     
   50299107.8703381     
   50299107.8703380     
   50299107.8703380     
   50299107.8703380     
   50299107.8703380     
   50299107.8703381     
   50299107.8703381     
   50299107.8703381     
   50299107.8703380     
   50299107.8703381     
   50299107.8703381     
   50299107.8703381     
   50299107.8703382     
   50299107.8703382     
   50299107.8703382     
   50299107.8703381     
   50299107.8703381     
   50299107.8703381     
   50299107.8703381     
   50299107.8703381     
   50299107.8703381     
   50299107.8703382     
   50299107.8703381     
   50299107.8703381     
   50299107.8703380     
   50299107.8703380     
   50299107.8703380     
   50299107.8703380     
   50299107.8703380     
   50299107.8703380     
   50299107.8703380     
   50299107.8703380     
   50299107.8703380     
   50299107.8703380     
   50299107.8703380     
   50299107.8703380     
   50299107.8703380     
   50299107.8703379     
   50299107.8703379     
   50299107.8703379     
   50299107.8703378     
   50299107.8703378     
   50299107.8703378     
   50299107.8703378     
   50299107.8703378     
   50299107.8703378     
   50299107.8703378     
   50299107.8703379     
   50299107.8703379     
   50299107.8703379     
   50299107.8703379     
   50202299.7593640     
   50202299.7593641     
   50202299.7593641     
   50202299.7593641     
   50202299.7593641     
   50202299.7593641     
   50202299.7593641     
   50202299.7593641     
   50202299.7593641     
   50202299.7593641     
   50202299.7593641     
   50202299.7593640     
   50202299.7593640     
   50202299.7593641     
   50202299.7593641     
   50202299.7593641     
   50202299.7593641     
   50202299.7593640     
   50202299.7593640     
   50202299.7593641     
   50202299.7593641     
   50202299.7593641     
   50202299.7593641     
   50202299.7593642     
   50202299.7593642     
   50202299.7593642     
   50202299.7593642     
   50202299.7593642     
   50202299.7593642     
   50202299.7593642     
   50202299.7593642     
   50202299.7593642     
   50202299.7593642     
   50202299.7593641     
   50202299.7593642     
   50202299.7593641     
   50202299.7593641     
   50202299.7593641     
   50202299.7593641     
   50202299.7593641     
   50202299.7593641     
   50202299.7593642     
   50202299.7593642     
   50202299.7593642     
   50202299.7593641     
   50202299.7593641     
   50202299.7593641     
   50202299.7593641     
   50202299.7593641     
   50202299.7593641     
   50202299.7593641     
   50107079.8471234     
   50107079.8471234     
   50107079.8471233     
   50107079.8471233     
   50107079.8471233     
   50107079.8471233     
   50107079.8471233     
   50107079.8471232     
   50107079.8471232     
   50107079.8471231     
   50107079.8471231     
   50107079.8471231     
   50107079.8471231     
   50107079.8471231     
   50107079.8471232     
   50107079.8471232     
   50107079.8471232     
   50107079.8471232     
   50107079.8471232     
   50107079.8471232     
   50107079.8471232     
   50107079.8471233     
   50107079.8471233     
   50107079.8471232     
   50107079.8471232     
   50107079.8471233     
   50107079.8471233     
   50107079.8471233     
   50107079.8471233     
   50107079.8471233     
   50107079.8471234     
   50107079.8471234     
   50107079.8471234     
   50107079.8471234     
   50107079.8471234     
   50107079.8471234     
   50107079.8471234     
   50107079.8471235     
   50107079.8471235     
   50107079.8471235     
   50107079.8471235     
   50107079.8471235     
   50107079.8471235     
   50107079.8471235     
   50107079.8471235     
   50107079.8471236     
   50107079.8471236     
   50107079.8471236     
   50107079.8471236     
   50107079.8471236     
   50107079.8471236     
   50012567.9112523     
   50012567.9112523     
   50012567.9112523     
   50012567.9112523     
   50012567.9112523     
   50012567.9112523     
   50012567.9112523     
   50012567.9112522     
   50012567.9112522     
   50012567.9112521     
   50012567.9112521     
   50012567.9112521     
   50012567.9112521     
   50012567.9112521     
   50012567.9112521     
   50012567.9112521     
   50012567.9112521     
   50012567.9112520     
   50012567.9112520     
   50012567.9112520     
   50012567.9112520     
   50012567.9112521     
   50012567.9112521     
   50012567.9112521     
   50012567.9112521     
   50012567.9112521     
   50012567.9112521     
   50012567.9112521     
   50012567.9112521     
   50012567.9112521     
   50012567.9112521     
   50012567.9112521     
   50012567.9112521     
   50012567.9112521     
   50012567.9112521     
   50012567.9112521     
   50012567.9112521     
   50012567.9112522     
   50012567.9112522     
   50012567.9112523     
   50012567.9112523     
   50012567.9112523     
   50012567.9112523     
   50012567.9112523     
   50012567.9112524     
   50012567.9112524     
   50012567.9112525     
   50012567.9112525     
   50012567.9112525     
   50012567.9112525     
   50012567.9112525     
   49917880.8816871     
   49917880.8816871     
   49917880.8816871     
   49917880.8816871     
   49917880.8816870     
   49917880.8816870     
   49917880.8816870     
   49917880.8816870     
   49917880.8816869     
   49917880.8816868     
   49917880.8816868     
   49917880.8816867     
   49917880.8816867     
   49917880.8816866     
   49917880.8816867     
   49917880.8816867     
   49917880.8816867     
   49917880.8816868     
   49917880.8816867     
   49917880.8816867     
   49917880.8816867     
   49917880.8816867     
   49917880.8816867     
   49917880.8816867     
   49917880.8816866     
   49917880.8816866     
   49917880.8816866     
   49917880.8816866     
   49917880.8816866     
   49917880.8816866     
   49917880.8816866     
   49917880.8816867     
   49917880.8816868     
   49917880.8816868     
   49917880.8816869     
   49917880.8816869     
   49917880.8816869     
   49917880.8816870     
   49917880.8816870     
   49917880.8816870     
   49917880.8816870     
   49917880.8816870     
   49917880.8816870     
   49917880.8816871     
   49917880.8816871     
   49917880.8816872     
   49917880.8816872     
   49917880.8816872     
   49917880.8816873     
   49917880.8816873     
   49917880.8816872     
   49822129.1200229     
   49822129.1200229     
   49822129.1200228     
   49822129.1200229     
   49822129.1200229     
   49822129.1200229     
   49822129.1200229     
   49822129.1200228     
   49822129.1200228     
   49822129.1200227     
   49822129.1200227     
   49822129.1200228     
   49822129.1200228     
   49822129.1200228     
   49822129.1200227     
   49822129.1200227     
   49822129.1200227     
   49822129.1200226     
   49822129.1200226     
   49822129.1200226     
   49822129.1200225     
   49822129.1200225     
   49822129.1200225     
   49822129.1200225     
   49822129.1200225     
   49822129.1200225     
   49822129.1200226     
   49822129.1200226     
   49822129.1200226     
   49822129.1200227     
   49822129.1200227     
   49822129.1200228     
   49822129.1200228     
   49822129.1200228     
   49822129.1200229     
   49822129.1200229     
   49822129.1200230     
   49822129.1200230     
   49822129.1200230     
   49822129.1200230     
   49822129.1200231     
   49822129.1200231     
   49822129.1200231     
   49822129.1200232     
   49822129.1200232     
   49822129.1200231     
   49822129.1200231     
   49822129.1200231     
   49822129.1200230     
   49822129.1200230     
   49822129.1200230     
   49724412.6115961     
   49724412.6115961     
   49724412.6115962     
   49724412.6115961     
   49724412.6115961     
   49724412.6115961     
   49724412.6115960     
   49724412.6115961     
   49724412.6115961     
   49724412.6115962     
   49724412.6115962     
   49724412.6115961     
   49724412.6115961     
   49724412.6115961     
   49724412.6115960     
   49724412.6115960     
   49724412.6115960     
   49724412.6115960     
   49724412.6115960     
   49724412.6115960     
   49724412.6115959     
   49724412.6115959     
   49724412.6115960     
   49724412.6115960     
   49724412.6115960     
   49724412.6115960     
   49724412.6115960     
   49724412.6115961     
   49724412.6115962     
   49724412.6115962     
   49724412.6115962     
   49724412.6115962     
   49724412.6115963     
   49724412.6115963     
   49724412.6115963     
   49724412.6115963     
   49724412.6115963     
   49724412.6115963     
   49724412.6115964     
   49724412.6115964     
   49724412.6115964     
   49724412.6115965     
   49724412.6115965     
   49724412.6115965     
   49724412.6115965     
   49724412.6115966     
   49724412.6115966     
   49724412.6115966     
   49724412.6115965     
   49724412.6115965     
   49724412.6115965     
   49623817.1181179     
   49623817.1181179     
   49623817.1181178     
   49623817.1181178     
   49623817.1181178     
   49623817.1181179     
   49623817.1181179     
   49623817.1181179     
   49623817.1181179     
   49623817.1181179     
   49623817.1181179     
   49623817.1181179     
   49623817.1181179     
   49623817.1181179     
   49623817.1181178     
   49623817.1181178     
   49623817.1181178     
   49623817.1181178     
   49623817.1181178     
   49623817.1181178     
   49623817.1181178     
   49623817.1181178     
   49623817.1181178     
   49623817.1181178     
   49623817.1181179     
   49623817.1181179     
   49623817.1181180     
   49623817.1181180     
   49623817.1181180     
   49623817.1181180     
   49623817.1181181     
   49623817.1181181     
   49623817.1181181     
   49623817.1181181     
   49623817.1181181     
   49623817.1181181     
   49623817.1181182     
   49623817.1181182     
   49623817.1181183     
   49623817.1181183     
   49623817.1181183     
   49623817.1181183     
   49623817.1181184     
   49623817.1181184     
   49623817.1181185     
   49623817.1181185     
   49623817.1181185     
   49623817.1181185     
   49623817.1181186     
   49623817.1181186     
   49623817.1181186     
   49519410.3395993     
   49519410.3395993     
   49519410.3395992     
   49519410.3395992     
   49519410.3395992     
   49519410.3395992     
   49519410.3395993     
   49519410.3395993     
   49519410.3395993     
   49519410.3395994     
   49519410.3395993     
   49519410.3395993     
   49519410.3395992     
   49519410.3395991     
   49519410.3395991     
   49519410.3395991     
   49519410.3395991     
   49519410.3395991     
   49519410.3395991     
   49519410.3395992     
   49519410.3395992     
   49519410.3395993     
   49519410.3395993     
   49519410.3395993     
   49519410.3395993     
   49519410.3395994     
   49519410.3395994     
   49519410.3395994     
   49519410.3395995     
   49519410.3395996     
   49519410.3395995     
   49519410.3395995     
   49519410.3395995     
   49519410.3395995     
   49519410.3395995     
   49519410.3395996     
   49519410.3395996     
   49519410.3395996     
   49519410.3395996     
   49519410.3395997     
   49519410.3395997     
   49519410.3395998     
   49519410.3395998     
   49519410.3395999     
   49519410.3395999     
   49519410.3396000     
   49519410.3396001     
   49519410.3396001     
   49519410.3396001     
   49519410.3396001     
   49519410.3396001     
   49410238.1358782     
   49410238.1358782     
   49410238.1358782     
   49410238.1358783     
   49410238.1358783     
   49410238.1358783     
   49410238.1358784     
   49410238.1358784     
   49410238.1358783     
   49410238.1358783     
   49410238.1358783     
   49410238.1358783     
   49410238.1358783     
   49410238.1358783     
   49410238.1358783     
   49410238.1358783     
   49410238.1358783     
   49410238.1358783     
   49410238.1358783     
   49410238.1358784     
   49410238.1358784     
   49410238.1358785     
   49410238.1358785     
   49410238.1358785     
   49410238.1358785     
   49410238.1358786     
   49410238.1358786     
   49410238.1358786     
   49410238.1358786     
   49410238.1358785     
   49410238.1358786     
   49410238.1358787     
   49410238.1358787     
   49410238.1358787     
   49410238.1358787     
   49410238.1358787     
   49410238.1358787     
   49410238.1358787     
   49410238.1358788     
   49410238.1358788     
   49410238.1358789     
   49410238.1358790     
   49410238.1358791     
   49410238.1358791     
   49410238.1358791     
   49410238.1358792     
   49410238.1358792     
   49410238.1358792     
   49410238.1358792     
   49410238.1358792     
   49410238.1358792     
   49295320.8602957     
   49295320.8602957     
   49295320.8602957     
   49295320.8602957     
   49295320.8602957     
   49295320.8602958     
   49295320.8602958     
   49295320.8602958     
   49295320.8602958     
   49295320.8602958     
   49295320.8602958     
   49295320.8602958     
   49295320.8602958     
   49295320.8602959     
   49295320.8602959     
   49295320.8602959     
   49295320.8602960     
   49295320.8602960     
   49295320.8602961     
   49295320.8602961     
   49295320.8602961     
   49295320.8602962     
   49295320.8602962     
   49295320.8602961     
   49295320.8602961     
   49295320.8602962     
   49295320.8602962     
   49295320.8602962     
   49295320.8602962     
   49295320.8602962     
   49295320.8602962     
   49295320.8602963     
   49295320.8602962     
   49295320.8602962     
   49295320.8602962     
   49295320.8602963     
   49295320.8602964     
   49295320.8602964     
   49295320.8602964     
   49295320.8602963     
   49295320.8602964     
   49295320.8602964     
   49295320.8602965     
   49295320.8602965     
   49295320.8602965     
   49295320.8602965     
   49295320.8602966     
   49295320.8602966     
   49295320.8602966     
   49295320.8602966     
   49295320.8602966     
   49173649.8609430     
   49173649.8609430     
   49173649.8609430     
   49173649.8609429     
   49173649.8609430     
   49173649.8609430     
   49173649.8609429     
   49173649.8609429     
   49173649.8609429     
   49173649.8609429     
   49173649.8609429     
   49173649.8609429     
   49173649.8609429     
   49173649.8609429     
   49173649.8609429     
   49173649.8609430     
   49173649.8609430     
   49173649.8609430     
   49173649.8609431     
   49173649.8609431     
   49173649.8609432     
   49173649.8609432     
   49173649.8609433     
   49173649.8609433     
   49173649.8609433     
   49173649.8609434     
   49173649.8609434     
   49173649.8609434     
   49173649.8609434     
   49173649.8609434     
   49173649.8609434     
   49173649.8609434     
   49173649.8609435     
   49173649.8609435     
   49173649.8609435     
   49173649.8609435     
   49173649.8609435     
   49173649.8609435     
   49173649.8609434     
   49173649.8609435     
   49173649.8609435     
   49173649.8609435     
   49173649.8609435     
   49173649.8609435     
   49173649.8609435     
   49173649.8609435     
   49173649.8609435     
   49173649.8609435     
   49173649.8609435     
   49173649.8609435     
   49173649.8609435     
   49044184.2083878     
   49044184.2083878     
   49044184.2083879     
   49044184.2083879     
   49044184.2083878     
   49044184.2083878     
   49044184.2083878     
   49044184.2083877     
   49044184.2083877     
   49044184.2083878     
   49044184.2083878     
   49044184.2083878     
   49044184.2083879     
   49044184.2083879     
   49044184.2083879     
   49044184.2083879     
   49044184.2083879     
   49044184.2083879     
   49044184.2083880     
   49044184.2083880     
   49044184.2083881     
   49044184.2083881     
   49044184.2083881     
   49044184.2083882     
   49044184.2083882     
   49044184.2083882     
   49044184.2083882     
   49044184.2083882     
   49044184.2083882     
   49044184.2083882     
   49044184.2083883     
   49044184.2083883     
   49044184.2083883     
   49044184.2083883     
   49044184.2083883     
   49044184.2083882     
   49044184.2083882     
   49044184.2083882     
   49044184.2083882     
   49044184.2083881     
   49044184.2083881     
   49044184.2083881     
   49044184.2083881     
   49044184.2083882     
   49044184.2083882     
   49044184.2083882     
   49044184.2083882     
   49044184.2083882     
   49044184.2083881     
   49044184.2083881     
   49044184.2083881     
   48905847.7128125     
   48905847.7128124     
   48905847.7128123     
   48905847.7128123     
   48905847.7128123     
   48905847.7128122     
   48905847.7128123     
   48905847.7128123     
   48905847.7128123     
   48905847.7128123     
   48905847.7128123     
   48905847.7128124     
   48905847.7128124     
   48905847.7128124     
   48905847.7128124     
   48905847.7128124     
   48905847.7128124     
   48905847.7128124     
   48905847.7128124     
   48905847.7128124     
   48905847.7128124     
   48905847.7128124     
   48905847.7128124     
   48905847.7128124     
   48905847.7128124     
   48905847.7128125     
   48905847.7128125     
   48905847.7128125     
   48905847.7128125     
   48905847.7128125     
   48905847.7128125     
   48905847.7128125     
   48905847.7128125     
   48905847.7128124     
   48905847.7128124     
   48905847.7128125     
   48905847.7128125     
   48905847.7128125     
   48905847.7128125     
   48905847.7128124     
   48905847.7128124     
   48905847.7128125     
   48905847.7128125     
   48905847.7128124     
   48905847.7128124     
   48905847.7128124     
   48905847.7128124     
   48905847.7128124     
   48905847.7128124     
   48905847.7128124     
   48905847.7128124     
   48757526.2979816     
   48757526.2979816     
   48757526.2979817     
   48757526.2979817     
   48757526.2979817     
   48757526.2979816     
   48757526.2979816     
   48757526.2979816     
   48757526.2979816     
   48757526.2979815     
   48757526.2979814     
   48757526.2979814     
   48757526.2979814     
   48757526.2979814     
   48757526.2979814     
   48757526.2979815     
   48757526.2979815     
   48757526.2979815     
   48757526.2979815     
   48757526.2979816     
   48757526.2979816     
   48757526.2979816     
   48757526.2979816     
   48757526.2979816     
   48757526.2979816     
   48757526.2979816     
   48757526.2979816     
   48757526.2979817     
   48757526.2979816     
   48757526.2979817     
   48757526.2979817     
   48757526.2979817     
   48757526.2979816     
   48757526.2979816     
   48757526.2979816     
   48757526.2979816     
   48757526.2979816     
   48757526.2979816     
   48757526.2979817     
   48757526.2979817     
   48757526.2979817     
   48757526.2979816     
   48757526.2979816     
   48757526.2979816     
   48757526.2979816     
   48757526.2979815     
   48757526.2979815     
   48757526.2979815     
   48757526.2979815     
   48757526.2979815     
   48757526.2979814     
   48598065.8043099     
   48598065.8043099     
   48598065.8043099     
   48598065.8043098     
   48598065.8043099     
   48598065.8043098     
   48598065.8043098     
   48598065.8043098     
   48598065.8043097     
   48598065.8043098     
   48598065.8043098     
   48598065.8043098     
   48598065.8043097     
   48598065.8043097     
   48598065.8043097     
   48598065.8043097     
   48598065.8043097     
   48598065.8043097     
   48598065.8043096     
   48598065.8043096     
   48598065.8043096     
   48598065.8043096     
   48598065.8043096     
   48598065.8043097     
   48598065.8043097     
   48598065.8043097     
   48598065.8043098     
   48598065.8043098     
   48598065.8043098     
   48598065.8043098     
   48598065.8043099     
   48598065.8043099     
   48598065.8043099     
   48598065.8043098     
   48598065.8043098     
   48598065.8043099     
   48598065.8043099     
   48598065.8043098     
   48598065.8043098     
   48598065.8043098     
   48598065.8043098     
   48598065.8043098     
   48598065.8043098     
   48598065.8043097     
   48598065.8043097     
   48598065.8043096     
   48598065.8043096     
   48598065.8043096     
   48598065.8043096     
   48598065.8043096     
   48598065.8043096     
   48426270.2983576     
   48426270.2983576     
   48426270.2983576     
   48426270.2983576     
   48426270.2983576     
   48426270.2983576     
   48426270.2983576     
   48426270.2983576     
   48426270.2983576     
   48426270.2983575     
   48426270.2983575     
   48426270.2983575     
   48426270.2983576     
   48426270.2983576     
   48426270.2983576     
   48426270.2983576     
   48426270.2983575     
   48426270.2983575     
   48426270.2983575     
   48426270.2983575     
   48426270.2983575     
   48426270.2983575     
   48426270.2983575     
   48426270.2983575     
   48426270.2983575     
   48426270.2983575     
   48426270.2983576     
   48426270.2983576     
   48426270.2983576     
   48426270.2983576     
   48426270.2983577     
   48426270.2983577     
   48426270.2983577     
   48426270.2983577     
   48426270.2983577     
   48426270.2983576     
   48426270.2983576     
   48426270.2983576     
   48426270.2983576     
   48426270.2983576     
   48426270.2983576     
   48426270.2983575     
   48426270.2983575     
   48426270.2983575     
   48426270.2983574     
   48426270.2983574     
   48426270.2983574     
   48426270.2983573     
   48426270.2983573     
   48426270.2983573     
   48426270.2983573     
   48240900.9712223     
   48240900.9712223     
   48240900.9712224     
   48240900.9712224     
   48240900.9712224     
   48240900.9712223     
   48240900.9712223     
   48240900.9712224     
   48240900.9712224     
   48240900.9712225     
   48240900.9712225     
   48240900.9712225     
   48240900.9712225     
   48240900.9712225     
   48240900.9712225     
   48240900.9712225     
   48240900.9712225     
   48240900.9712225     
   48240900.9712225     
   48240900.9712225     
   48240900.9712225     
   48240900.9712225     
   48240900.9712225     
   48240900.9712225     
   48240900.9712225     
   48240900.9712225     
   48240900.9712225     
   48240900.9712224     
   48240900.9712224     
   48240900.9712223     
   48240900.9712223     
   48240900.9712223     
   48240900.9712224     
   48240900.9712224     
   48240900.9712224     
   48240900.9712224     
   48240900.9712224     
   48240900.9712224     
   48240900.9712224     
   48240900.9712224     
   48240900.9712223     
   48240900.9712223     
   48240900.9712223     
   48240900.9712223     
   48240900.9712223     
   48240900.9712222     
   48240900.9712222     
   48240900.9712222     
   48240900.9712222     
   48240900.9712221     
   48240900.9712221     
   48040675.7132767     
   48040675.7132767     
   48040675.7132767     
   48040675.7132767     
   48040675.7132767     
   48040675.7132767     
   48040675.7132767     
   48040675.7132767     
   48040675.7132768     
   48040675.7132768     
   48040675.7132768     
   48040675.7132768     
   48040675.7132768     
   48040675.7132768     
   48040675.7132768     
   48040675.7132768     
   48040675.7132768     
   48040675.7132768     
   48040675.7132768     
   48040675.7132768     
   48040675.7132768     
   48040675.7132768     
   48040675.7132769     
   48040675.7132768     
   48040675.7132768     
   48040675.7132768     
   48040675.7132768     
   48040675.7132768     
   48040675.7132767     
   48040675.7132767     
   48040675.7132767     
   48040675.7132767     
   48040675.7132768     
   48040675.7132768     
   48040675.7132768     
   48040675.7132768     
   48040675.7132768     
   48040675.7132768     
   48040675.7132768     
   48040675.7132768     
   48040675.7132768     
   48040675.7132767     
   48040675.7132767     
   48040675.7132767     
   48040675.7132767     
   48040675.7132767     
   48040675.7132767     
   48040675.7132767     
   48040675.7132767     
   48040675.7132767     
   48040675.7132767     
   47824269.4573364     
   47824269.4573364     
   47824269.4573364     
   47824269.4573364     
   47824269.4573364     
   47824269.4573364     
   47824269.4573364     
   47824269.4573364     
   47824269.4573364     
   47824269.4573364     
   47824269.4573364     
   47824269.4573364     
   47824269.4573364     
   47824269.4573364     
   47824269.4573364     
   47824269.4573364     
   47824269.4573364     
   47824269.4573364     
   47824269.4573364     
   47824269.4573364     
   47824269.4573364     
   47824269.4573364     
   47824269.4573364     
   47824269.4573365     
   47824269.4573365     
   47824269.4573365     
   47824269.4573364     
   47824269.4573364     
   47824269.4573364     
   47824269.4573364     
   47824269.4573364     
   47824269.4573365     
   47824269.4573365     
   47824269.4573365     
   47824269.4573365     
   47824269.4573365     
   47824269.4573365     
   47824269.4573365     
   47824269.4573365     
   47824269.4573365     
   47824269.4573365     
   47824269.4573365     
   47824269.4573365     
   47824269.4573365     
   47824269.4573365     
   47824269.4573365     
   47824269.4573365     
   47824269.4573365     
   47824269.4573365     
   47824269.4573365     
   47824269.4573365     
   47590315.3863310     
   47590315.3863310     
   47590315.3863310     
   47590315.3863310     
   47590315.3863310     
   47590315.3863310     
   47590315.3863310     
   47590315.3863310     
   47590315.3863310     
   47590315.3863310     
   47590315.3863310     
   47590315.3863310     
   47590315.3863310     
   47590315.3863310     
   47590315.3863310     
   47590315.3863311     
   47590315.3863311     
   47590315.3863311     
   47590315.3863311     
   47590315.3863311     
   47590315.3863311     
   47590315.3863312     
   47590315.3863312     
   47590315.3863312     
   47590315.3863311     
   47590315.3863311     
   47590315.3863311     
   47590315.3863311     
   47590315.3863311     
   47590315.3863312     
   47590315.3863311     
   47590315.3863311     
   47590315.3863312     
   47590315.3863312     
   47590315.3863312     
   47590315.3863312     
   47590315.3863312     
   47590315.3863312     
   47590315.3863312     
   47590315.3863312     
   47590315.3863312     
   47590315.3863312     
   47590315.3863313     
   47590315.3863312     
   47590315.3863312     
   47590315.3863312     
   47590315.3863313     
   47590315.3863313     
   47590315.3863313     
   47590315.3863314     
   47590315.3863314     
   47337407.1045987     
   47337407.1045987     
   47337407.1045987     
   47337407.1045988     
   47337407.1045988     
   47337407.1045988     
   47337407.1045988     
   47337407.1045988     
   47337407.1045988     
   47337407.1045989     
   47337407.1045989     
   47337407.1045989     
   47337407.1045989     
   47337407.1045989     
   47337407.1045989     
   47337407.1045989     
   47337407.1045989     
   47337407.1045989     
   47337407.1045989     
   47337407.1045989     
   47337407.1045989     
   47337407.1045989     
   47337407.1045989     
   47337407.1045989     
   47337407.1045989     
   47337407.1045989     
   47337407.1045989     
   47337407.1045989     
   47337407.1045990     
   47337407.1045990     
   47337407.1045990     
   47337407.1045990     
   47337407.1045991     
   47337407.1045991     
   47337407.1045991     
   47337407.1045991     
   47337407.1045991     
   47337407.1045992     
   47337407.1045992     
   47337407.1045993     
   47337407.1045993     
   47337407.1045993     
   47337407.1045993     
   47337407.1045993     
   47337407.1045993     
   47337407.1045994     
   47337407.1045994     
   47337407.1045994     
   47337407.1045995     
   47337407.1045995     
   47337407.1045995     
   47064101.8736868     
   47064101.8736868     
   47064101.8736868     
   47064101.8736868     
   47064101.8736868     
   47064101.8736868     
   47064101.8736868     
   47064101.8736868     
   47064101.8736868     
   47064101.8736867     
   47064101.8736867     
   47064101.8736867     
   47064101.8736867     
   47064101.8736868     
   47064101.8736868     
   47064101.8736867     
   47064101.8736867     
   47064101.8736867     
   47064101.8736867     
   47064101.8736867     
   47064101.8736866     
   47064101.8736866     
   47064101.8736866     
   47064101.8736866     
   47064101.8736866     
   47064101.8736867     
   47064101.8736867     
   47064101.8736868     
   47064101.8736868     
   47064101.8736868     
   47064101.8736868     
   47064101.8736868     
   47064101.8736869     
   47064101.8736869     
   47064101.8736870     
   47064101.8736870     
   47064101.8736871     
   47064101.8736871     
   47064101.8736872     
   47064101.8736872     
   47064101.8736873     
   47064101.8736873     
   47064101.8736873     
   47064101.8736874     
   47064101.8736874     
   47064101.8736874     
   47064101.8736874     
   47064101.8736875     
   47064101.8736875     
   47064101.8736875     
   47064101.8736875     
   46768925.0136133     
   46768925.0136133     
   46768925.0136133     
   46768925.0136133     
   46768925.0136133     
   46768925.0136133     
   46768925.0136133     
   46768925.0136133     
   46768925.0136134     
   46768925.0136134     
   46768925.0136134     
   46768925.0136134     
   46768925.0136134     
   46768925.0136133     
   46768925.0136133     
   46768925.0136133     
   46768925.0136133     
   46768925.0136133     
   46768925.0136133     
   46768925.0136133     
   46768925.0136134     
   46768925.0136134     
   46768925.0136134     
   46768925.0136134     
   46768925.0136134     
   46768925.0136134     
   46768925.0136134     
   46768925.0136134     
   46768925.0136134     
   46768925.0136134     
   46768925.0136135     
   46768925.0136135     
   46768925.0136135     
   46768925.0136136     
   46768925.0136136     
   46768925.0136137     
   46768925.0136137     
   46768925.0136137     
   46768925.0136138     
   46768925.0136139     
   46768925.0136139     
   46768925.0136139     
   46768925.0136139     
   46768925.0136140     
   46768925.0136140     
   46768925.0136140     
   46768925.0136140     
   46768925.0136140     
   46768925.0136140     
   46768925.0136140     
   46768925.0136140     
   46450375.5685246     
   46450375.5685246     
   46450375.5685246     
   46450375.5685246     
   46450375.5685247     
   46450375.5685247     
   46450375.5685247     
   46450375.5685247     
   46450375.5685247     
   46450375.5685247     
   46450375.5685247     
   46450375.5685247     
   46450375.5685246     
   46450375.5685246     
   46450375.5685246     
   46450375.5685247     
   46450375.5685247     
   46450375.5685247     
   46450375.5685247     
   46450375.5685247     
   46450375.5685247     
   46450375.5685247     
   46450375.5685247     
   46450375.5685247     
   46450375.5685247     
   46450375.5685247     
   46450375.5685247     
   46450375.5685247     
   46450375.5685247     
   46450375.5685247     
   46450375.5685246     
   46450375.5685247     
   46450375.5685247     
   46450375.5685247     
   46450375.5685248     
   46450375.5685249     
   46450375.5685250     
   46450375.5685251     
   46450375.5685251     
   46450375.5685251     
   46450375.5685252     
   46450375.5685252     
   46450375.5685252     
   46450375.5685252     
   46450375.5685253     
   46450375.5685253     
   46450375.5685253     
   46450375.5685253     
   46450375.5685253     
   46450375.5685253     
   46450375.5685253     
   46106933.3310713     
   46106933.3310713     
   46106933.3310713     
   46106933.3310713     
   46106933.3310713     
   46106933.3310713     
   46106933.3310713     
   46106933.3310713     
   46106933.3310713     
   46106933.3310713     
   46106933.3310714     
   46106933.3310714     
   46106933.3310714     
   46106933.3310714     
   46106933.3310714     
   46106933.3310714     
   46106933.3310714     
   46106933.3310714     
   46106933.3310714     
   46106933.3310715     
   46106933.3310714     
   46106933.3310714     
   46106933.3310714     
   46106933.3310714     
   46106933.3310714     
   46106933.3310713     
   46106933.3310713     
   46106933.3310713     
   46106933.3310713     
   46106933.3310713     
   46106933.3310713     
   46106933.3310714     
   46106933.3310714     
   46106933.3310715     
   46106933.3310716     
   46106933.3310716     
   46106933.3310717     
   46106933.3310717     
   46106933.3310717     
   46106933.3310717     
   46106933.3310717     
   46106933.3310717     
   46106933.3310718     
   46106933.3310718     
   46106933.3310718     
   46106933.3310718     
   46106933.3310717     
   46106933.3310717     
   46106933.3310717     
   46106933.3310717     
   46106933.3310717     
   45737067.3121803     
   45737067.3121803     
   45737067.3121803     
   45737067.3121803     
   45737067.3121803     
   45737067.3121803     
   45737067.3121803     
   45737067.3121802     
   45737067.3121802     
   45737067.3121802     
   45737067.3121802     
   45737067.3121802     
   45737067.3121802     
   45737067.3121802     
   45737067.3121802     
   45737067.3121802     
   45737067.3121802     
   45737067.3121802     
   45737067.3121802     
   45737067.3121802     
   45737067.3121802     
   45737067.3121801     
   45737067.3121801     
   45737067.3121801     
   45737067.3121801     
   45737067.3121800     
   45737067.3121800     
   45737067.3121800     
   45737067.3121799     
   45737067.3121799     
   45737067.3121799     
   45737067.3121799     
   45737067.3121800     
   45737067.3121800     
   45737067.3121800     
   45737067.3121800     
   45737067.3121801     
   45737067.3121801     
   45737067.3121802     
   45737067.3121802     
   45737067.3121802     
   45737067.3121802     
   45737067.3121803     
   45737067.3121803     
   45737067.3121803     
   45737067.3121803     
   45737067.3121802     
   45737067.3121802     
   45737067.3121801     
   45737067.3121801     
   45737067.3121801     
   45339245.7316580     
   45339245.7316580     
   45339245.7316580     
   45339245.7316580     
   45339245.7316580     
   45339245.7316580     
   45339245.7316580     
   45339245.7316579     
   45339245.7316579     
   45339245.7316579     
   45339245.7316579     
   45339245.7316579     
   45339245.7316579     
   45339245.7316579     
   45339245.7316580     
   45339245.7316579     
   45339245.7316579     
   45339245.7316579     
   45339245.7316579     
   45339245.7316578     
   45339245.7316578     
   45339245.7316577     
   45339245.7316577     
   45339245.7316577     
   45339245.7316576     
   45339245.7316575     
   45339245.7316575     
   45339245.7316575     
   45339245.7316574     
   45339245.7316574     
   45339245.7316574     
   45339245.7316574     
   45339245.7316574     
   45339245.7316574     
   45339245.7316575     
   45339245.7316575     
   45339245.7316575     
   45339245.7316576     
   45339245.7316576     
   45339245.7316576     
   45339245.7316576     
   45339245.7316576     
   45339245.7316576     
   45339245.7316576     
   45339245.7316576     
   45339245.7316575     
   45339245.7316575     
   45339245.7316575     
   45339245.7316575     
   45339245.7316575     
   45339245.7316575     
   44911947.5897516     
   44911947.5897516     
   44911947.5897516     
   44911947.5897516     
   44911947.5897516     
   44911947.5897516     
   44911947.5897516     
   44911947.5897516     
   44911947.5897516     
   44911947.5897515     
   44911947.5897515     
   44911947.5897515     
   44911947.5897515     
   44911947.5897515     
   44911947.5897516     
   44911947.5897516     
   44911947.5897516     
   44911947.5897516     
   44911947.5897515     
   44911947.5897515     
   44911947.5897514     
   44911947.5897514     
   44911947.5897514     
   44911947.5897514     
   44911947.5897514     
   44911947.5897513     
   44911947.5897513     
   44911947.5897512     
   44911947.5897512     
   44911947.5897511     
   44911947.5897511     
   44911947.5897510     
   44911947.5897511     
   44911947.5897511     
   44911947.5897511     
   44911947.5897511     
   44911947.5897511     
   44911947.5897511     
   44911947.5897511     
   44911947.5897511     
   44911947.5897511     
   44911947.5897511     
   44911947.5897511     
   44911947.5897511     
   44911947.5897510     
   44911947.5897510     
   44911947.5897510     
   44911947.5897509     
   44911947.5897509     
   44911947.5897509     
   44911947.5897509     
   44453675.8598774     
   44453675.8598774     
   44453675.8598774     
   44453675.8598773     
   44453675.8598773     
   44453675.8598773     
   44453675.8598773     
   44453675.8598773     
   44453675.8598774     
   44453675.8598773     
   44453675.8598774     
   44453675.8598773     
   44453675.8598773     
   44453675.8598774     
   44453675.8598773     
   44453675.8598773     
   44453675.8598773     
   44453675.8598773     
   44453675.8598773     
   44453675.8598773     
   44453675.8598772     
   44453675.8598772     
   44453675.8598771     
   44453675.8598771     
   44453675.8598770     
   44453675.8598770     
   44453675.8598769     
   44453675.8598768     
   44453675.8598768     
   44453675.8598768     
   44453675.8598768     
   44453675.8598767     
   44453675.8598767     
   44453675.8598767     
   44453675.8598767     
   44453675.8598767     
   44453675.8598767     
   44453675.8598767     
   44453675.8598767     
   44453675.8598768     
   44453675.8598768     
   44453675.8598768     
   44453675.8598768     
   44453675.8598768     
   44453675.8598768     
   44453675.8598767     
   44453675.8598767     
   44453675.8598767     
   44453675.8598767     
   44453675.8598766     
   44453675.8598766     
   43962972.3177585     
   43962972.3177585     
   43962972.3177586     
   43962972.3177586     
   43962972.3177586     
   43962972.3177586     
   43962972.3177586     
   43962972.3177586     
   43962972.3177586     
   43962972.3177586     
   43962972.3177586     
   43962972.3177586     
   43962972.3177586     
   43962972.3177586     
   43962972.3177586     
   43962972.3177586     
   43962972.3177586     
   43962972.3177586     
   43962972.3177586     
   43962972.3177585     
   43962972.3177585     
   43962972.3177584     
   43962972.3177583     
   43962972.3177583     
   43962972.3177583     
   43962972.3177582     
   43962972.3177581     
   43962972.3177581     
   43962972.3177580     
   43962972.3177580     
   43962972.3177580     
   43962972.3177580     
   43962972.3177580     
   43962972.3177580     
   43962972.3177580     
   43962972.3177580     
   43962972.3177579     
   43962972.3177579     
   43962972.3177579     
   43962972.3177579     
   43962972.3177580     
   43962972.3177580     
   43962972.3177580     
   43962972.3177580     
   43962972.3177580     
   43962972.3177580     
   43962972.3177580     
   43962972.3177579     
   43962972.3177579     
   43962972.3177579     
   43962972.3177579     
   43438433.9917732     
   43438433.9917732     
   43438433.9917732     
   43438433.9917732     
   43438433.9917732     
   43438433.9917732     
   43438433.9917732     
   43438433.9917732     
   43438433.9917732     
   43438433.9917732     
   43438433.9917732     
   43438433.9917732     
   43438433.9917731     
   43438433.9917732     
   43438433.9917732     
   43438433.9917732     
   43438433.9917732     
   43438433.9917732     
   43438433.9917731     
   43438433.9917731     
   43438433.9917730     
   43438433.9917730     
   43438433.9917729     
   43438433.9917729     
   43438433.9917729     
   43438433.9917728     
   43438433.9917728     
   43438433.9917727     
   43438433.9917727     
   43438433.9917727     
   43438433.9917727     
   43438433.9917727     
   43438433.9917727     
   43438433.9917726     
   43438433.9917726     
   43438433.9917726     
   43438433.9917726     
   43438433.9917726     
   43438433.9917726     
   43438433.9917726     
   43438433.9917726     
   43438433.9917726     
   43438433.9917726     
   43438433.9917726     
   43438433.9917726     
   43438433.9917726     
   43438433.9917726     
   43438433.9917726     
   43438433.9917725     
   43438433.9917725     
   43438433.9917725     
   42878731.1830852     
   42878731.1830852     
   42878731.1830852     
   42878731.1830852     
   42878731.1830852     
   42878731.1830852     
   42878731.1830852     
   42878731.1830852     
   42878731.1830852     
   42878731.1830851     
   42878731.1830851     
   42878731.1830851     
   42878731.1830851     
   42878731.1830851     
   42878731.1830851     
   42878731.1830851     
   42878731.1830851     
   42878731.1830851     
   42878731.1830851     
   42878731.1830851     
   42878731.1830850     
   42878731.1830849     
   42878731.1830849     
   42878731.1830849     
   42878731.1830848     
   42878731.1830847     
   42878731.1830847     
   42878731.1830847     
   42878731.1830846     
   42878731.1830846     
   42878731.1830846     
   42878731.1830846     
   42878731.1830846     
   42878731.1830846     
   42878731.1830846     
   42878731.1830846     
   42878731.1830846     
   42878731.1830846     
   42878731.1830845     
   42878731.1830845     
   42878731.1830845     
   42878731.1830845     
   42878731.1830845     
   42878731.1830845     
   42878731.1830845     
   42878731.1830845     
   42878731.1830845     
   42878731.1830845     
   42878731.1830845     
   42878731.1830845     
   42878731.1830845     
   42282626.9619620     
   42282626.9619620     
   42282626.9619620     
   42282626.9619619     
   42282626.9619619     
   42282626.9619619     
   42282626.9619619     
   42282626.9619619     
   42282626.9619619     
   42282626.9619619     
   42282626.9619619     
   42282626.9619619     
   42282626.9619619     
   42282626.9619619     
   42282626.9619619     
   42282626.9619619     
   42282626.9619619     
   42282626.9619618     
   42282626.9619618     
   42282626.9619618     
   42282626.9619618     
   42282626.9619617     
   42282626.9619616     
   42282626.9619616     
   42282626.9619615     
   42282626.9619615     
   42282626.9619614     
   42282626.9619614     
   42282626.9619614     
   42282626.9619614     
   42282626.9619614     
   42282626.9619614     
   42282626.9619614     
   42282626.9619614     
   42282626.9619614     
   42282626.9619614     
   42282626.9619614     
   42282626.9619614     
   42282626.9619614     
   42282626.9619614     
   42282626.9619614     
   42282626.9619614     
   42282626.9619614     
   42282626.9619613     
   42282626.9619614     
   42282626.9619614     
   42282626.9619614     
   42282626.9619613     
   42282626.9619613     
   42282626.9619613     
   42282626.9619613     
   41648997.9985620     
   41648997.9985620     
   41648997.9985620     
   41648997.9985620     
   41648997.9985620     
   41648997.9985620     
   41648997.9985619     
   41648997.9985620     
   41648997.9985620     
   41648997.9985620     
   41648997.9985620     
   41648997.9985620     
   41648997.9985620     
   41648997.9985620     
   41648997.9985620     
   41648997.9985620     
   41648997.9985619     
   41648997.9985619     
   41648997.9985618     
   41648997.9985618     
   41648997.9985618     
   41648997.9985617     
   41648997.9985617     
   41648997.9985617     
   41648997.9985617     
   41648997.9985616     
   41648997.9985616     
   41648997.9985616     
   41648997.9985616     
   41648997.9985615     
   41648997.9985615     
   41648997.9985615     
   41648997.9985615     
   41648997.9985615     
   41648997.9985615     
   41648997.9985615     
   41648997.9985615     
   41648997.9985616     
   41648997.9985616     
   41648997.9985616     
   41648997.9985616     
   41648997.9985616     
   41648997.9985615     
   41648997.9985615     
   41648997.9985615     
   41648997.9985615     
   41648997.9985615     
   41648997.9985615     
   41648997.9985615     
   41648997.9985615     
   41648997.9985615     
   40976856.5326742     
   40976856.5326742     
   40976856.5326742     
   40976856.5326742     
   40976856.5326742     
   40976856.5326742     
   40976856.5326742     
   40976856.5326741     
   40976856.5326741     
   40976856.5326741     
   40976856.5326741     
   40976856.5326741     
   40976856.5326741     
   40976856.5326741     
   40976856.5326741     
   40976856.5326741     
   40976856.5326741     
   40976856.5326740     
   40976856.5326740     
   40976856.5326740     
   40976856.5326739     
   40976856.5326739     
   40976856.5326738     
   40976856.5326738     
   40976856.5326738     
   40976856.5326737     
   40976856.5326737     
   40976856.5326737     
   40976856.5326737     
   40976856.5326737     
   40976856.5326737     
   40976856.5326737     
   40976856.5326737     
   40976856.5326737     
   40976856.5326737     
   40976856.5326737     
   40976856.5326737     
   40976856.5326737     
   40976856.5326737     
   40976856.5326738     
   40976856.5326737     
   40976856.5326737     
   40976856.5326737     
   40976856.5326737     
   40976856.5326737     
   40976856.5326737     
   40976856.5326737     
   40976856.5326737     
   40976856.5326736     
   40976856.5326736     
   40976856.5326736     
   40265373.2279513     
   40265373.2279513     
   40265373.2279513     
   40265373.2279513     
   40265373.2279513     
   40265373.2279512     
   40265373.2279512     
   40265373.2279512     
   40265373.2279511     
   40265373.2279511     
   40265373.2279511     
   40265373.2279511     
   40265373.2279511     
   40265373.2279511     
   40265373.2279511     
   40265373.2279510     
   40265373.2279510     
   40265373.2279509     
   40265373.2279509     
   40265373.2279509     
   40265373.2279509     
   40265373.2279508     
   40265373.2279508     
   40265373.2279508     
   40265373.2279507     
   40265373.2279507     
   40265373.2279507     
   40265373.2279507     
   40265373.2279508     
   40265373.2279508     
   40265373.2279508     
   40265373.2279508     
   40265373.2279508     
   40265373.2279508     
   40265373.2279508     
   40265373.2279508     
   40265373.2279508     
   40265373.2279509     
   40265373.2279509     
   40265373.2279509     
   40265373.2279509     
   40265373.2279508     
   40265373.2279508     
   40265373.2279508     
   40265373.2279508     
   40265373.2279508     
   40265373.2279508     
   40265373.2279507     
   40265373.2279507     
   40265373.2279507     
   40265373.2279507     
   39513900.5930211     
   39513900.5930211     
   39513900.5930211     
   39513900.5930211     
   39513900.5930211     
   39513900.5930210     
   39513900.5930210     
   39513900.5930210     
   39513900.5930210     
   39513900.5930209     
   39513900.5930209     
   39513900.5930209     
   39513900.5930209     
   39513900.5930209     
   39513900.5930209     
   39513900.5930209     
   39513900.5930208     
   39513900.5930208     
   39513900.5930208     
   39513900.5930208     
   39513900.5930208     
   39513900.5930207     
   39513900.5930207     
   39513900.5930206     
   39513900.5930206     
   39513900.5930206     
   39513900.5930206     
   39513900.5930206     
   39513900.5930206     
   39513900.5930206     
   39513900.5930206     
   39513900.5930206     
   39513900.5930206     
   39513900.5930206     
   39513900.5930207     
   39513900.5930207     
   39513900.5930207     
   39513900.5930207     
   39513900.5930208     
   39513900.5930208     
   39513900.5930208     
   39513900.5930208     
   39513900.5930207     
   39513900.5930207     
   39513900.5930207     
   39513900.5930207     
   39513900.5930207     
   39513900.5930206     
   39513900.5930206     
   39513900.5930206     
   39513900.5930206     
   38721996.5858115     
   38721996.5858115     
   38721996.5858115     
   38721996.5858115     
   38721996.5858115     
   38721996.5858115     
   38721996.5858114     
   38721996.5858114     
   38721996.5858114     
   38721996.5858114     
   38721996.5858114     
   38721996.5858113     
   38721996.5858114     
   38721996.5858114     
   38721996.5858113     
   38721996.5858113     
   38721996.5858113     
   38721996.5858113     
   38721996.5858112     
   38721996.5858112     
   38721996.5858112     
   38721996.5858111     
   38721996.5858111     
   38721996.5858111     
   38721996.5858111     
   38721996.5858110     
   38721996.5858110     
   38721996.5858110     
   38721996.5858110     
   38721996.5858110     
   38721996.5858110     
   38721996.5858110     
   38721996.5858110     
   38721996.5858111     
   38721996.5858111     
   38721996.5858111     
   38721996.5858111     
   38721996.5858112     
   38721996.5858112     
   38721996.5858112     
   38721996.5858112     
   38721996.5858112     
   38721996.5858112     
   38721996.5858111     
   38721996.5858111     
   38721996.5858111     
   38721996.5858111     
   38721996.5858111     
   38721996.5858110     
   38721996.5858110     
   38721996.5858110     
   37889447.9503201     
   37889447.9503201     
   37889447.9503201     
   37889447.9503201     
   37889447.9503200     
   37889447.9503200     
   37889447.9503200     
   37889447.9503200     
   37889447.9503199     
   37889447.9503199     
   37889447.9503199     
   37889447.9503198     
   37889447.9503198     
   37889447.9503198     
   37889447.9503198     
   37889447.9503198     
   37889447.9503198     
   37889447.9503197     
   37889447.9503197     
   37889447.9503197     
   37889447.9503197     
   37889447.9503196     
   37889447.9503196     
   37889447.9503195     
   37889447.9503195     
   37889447.9503195     
   37889447.9503195     
   37889447.9503195     
   37889447.9503195     
   37889447.9503195     
   37889447.9503195     
   37889447.9503195     
   37889447.9503195     
   37889447.9503195     
   37889447.9503195     
   37889447.9503195     
   37889447.9503196     
   37889447.9503196     
   37889447.9503196     
   37889447.9503196     
   37889447.9503196     
   37889447.9503196     
   37889447.9503196     
   37889447.9503196     
   37889447.9503196     
   37889447.9503195     
   37889447.9503195     
   37889447.9503195     
   37889447.9503195     
   37889447.9503195     
   37889447.9503195     
   37016292.7692593     
   37016292.7692593     
   37016292.7692594     
   37016292.7692594     
   37016292.7692593     
   37016292.7692593     
   37016292.7692593     
   37016292.7692593     
   37016292.7692592     
   37016292.7692592     
   37016292.7692592     
   37016292.7692592     
   37016292.7692591     
   37016292.7692591     
   37016292.7692591     
   37016292.7692591     
   37016292.7692590     
   37016292.7692590     
   37016292.7692590     
   37016292.7692590     
   37016292.7692590     
   37016292.7692589     
   37016292.7692589     
   37016292.7692588     
   37016292.7692588     
   37016292.7692588     
   37016292.7692588     
   37016292.7692588     
   37016292.7692587     
   37016292.7692587     
   37016292.7692587     
   37016292.7692587     
   37016292.7692587     
   37016292.7692587     
   37016292.7692587     
   37016292.7692587     
   37016292.7692587     
   37016292.7692587     
   37016292.7692587     
   37016292.7692587     
   37016292.7692587     
   37016292.7692587     
   37016292.7692587     
   37016292.7692587     
   37016292.7692587     
   37016292.7692587     
   37016292.7692587     
   37016292.7692587     
   37016292.7692587     
   37016292.7692587     
   37016292.7692587     
   36102841.6544525     
   36102841.6544525     
   36102841.6544526     
   36102841.6544526     
   36102841.6544526     
   36102841.6544525     
   36102841.6544525     
   36102841.6544525     
   36102841.6544525     
   36102841.6544525     
   36102841.6544524     
   36102841.6544524     
   36102841.6544524     
   36102841.6544524     
   36102841.6544524     
   36102841.6544523     
   36102841.6544523     
   36102841.6544522     
   36102841.6544522     
   36102841.6544522     
   36102841.6544522     
   36102841.6544521     
   36102841.6544521     
   36102841.6544520     
   36102841.6544520     
   36102841.6544520     
   36102841.6544520     
   36102841.6544520     
   36102841.6544520     
   36102841.6544520     
   36102841.6544520     
   36102841.6544519     
   36102841.6544519     
   36102841.6544519     
   36102841.6544519     
   36102841.6544519     
   36102841.6544519     
   36102841.6544519     
   36102841.6544519     
   36102841.6544519     
   36102841.6544519     
   36102841.6544519     
   36102841.6544519     
   36102841.6544518     
   36102841.6544518     
   36102841.6544518     
   36102841.6544518     
   36102841.6544518     
   36102841.6544518     
   36102841.6544518     
   36102841.6544518     
   35149696.9430667     
   35149696.9430667     
   35149696.9430667     
   35149696.9430667     
   35149696.9430667     
   35149696.9430667     
   35149696.9430666     
   35149696.9430666     
   35149696.9430666     
   35149696.9430666     
   35149696.9430666     
   35149696.9430666     
   35149696.9430666     
   35149696.9430666     
   35149696.9430666     
   35149696.9430665     
   35149696.9430665     
   35149696.9430665     
   35149696.9430664     
   35149696.9430664     
   35149696.9430664     
   35149696.9430663     
   35149696.9430663     
   35149696.9430662     
   35149696.9430662     
   35149696.9430662     
   35149696.9430662     
   35149696.9430661     
   35149696.9430661     
   35149696.9430661     
   35149696.9430662     
   35149696.9430661     
   35149696.9430661     
   35149696.9430661     
   35149696.9430661     
   35149696.9430661     
   35149696.9430661     
   35149696.9430661     
   35149696.9430661     
   35149696.9430661     
   35149696.9430661     
   35149696.9430661     
   35149696.9430660     
   35149696.9430660     
   35149696.9430660     
   35149696.9430660     
   35149696.9430660     
   35149696.9430660     
   35149696.9430659     
   35149696.9430660     
   35149696.9430660     
   34157769.2258614     
   34157769.2258614     
   34157769.2258614     
   34157769.2258614     
   34157769.2258614     
   34157769.2258614     
   34157769.2258614     
   34157769.2258613     
   34157769.2258613     
   34157769.2258613     
   34157769.2258613     
   34157769.2258613     
   34157769.2258612     
   34157769.2258612     
   34157769.2258612     
   34157769.2258612     
   34157769.2258611     
   34157769.2258611     
   34157769.2258611     
   34157769.2258610     
   34157769.2258610     
   34157769.2258610     
   34157769.2258609     
   34157769.2258609     
   34157769.2258609     
   34157769.2258608     
   34157769.2258608     
   34157769.2258608     
   34157769.2258608     
   34157769.2258607     
   34157769.2258607     
   34157769.2258607     
   34157769.2258607     
   34157769.2258607     
   34157769.2258608     
   34157769.2258608     
   34157769.2258607     
   34157769.2258607     
   34157769.2258607     
   34157769.2258607     
   34157769.2258607     
   34157769.2258607     
   34157769.2258607     
   34157769.2258607     
   34157769.2258607     
   34157769.2258607     
   34157769.2258607     
   34157769.2258607     
   34157769.2258607     
   34157769.2258607     
   34157769.2258607     
   33128290.5081754     
   33128290.5081754     
   33128290.5081754     
   33128290.5081754     
   33128290.5081754     
   33128290.5081754     
   33128290.5081753     
   33128290.5081753     
   33128290.5081753     
   33128290.5081753     
   33128290.5081753     
   33128290.5081752     
   33128290.5081752     
   33128290.5081752     
   33128290.5081752     
   33128290.5081751     
   33128290.5081751     
   33128290.5081751     
   33128290.5081750     
   33128290.5081750     
   33128290.5081749     
   33128290.5081749     
   33128290.5081749     
   33128290.5081748     
   33128290.5081748     
   33128290.5081748     
   33128290.5081748     
   33128290.5081748     
   33128290.5081748     
   33128290.5081748     
   33128290.5081748     
   33128290.5081747     
   33128290.5081747     
   33128290.5081748     
   33128290.5081747     
   33128290.5081747     
   33128290.5081747     
   33128290.5081747     
   33128290.5081747     
   33128290.5081747     
   33128290.5081747     
   33128290.5081747     
   33128290.5081747     
   33128290.5081747     
   33128290.5081747     
   33128290.5081747     
   33128290.5081747     
   33128290.5081747     
   33128290.5081747     
   33128290.5081747     
   33128290.5081747     
   32062823.3003292     
   32062823.3003292     
   32062823.3003292     
   32062823.3003292     
   32062823.3003292     
   32062823.3003292     
   32062823.3003292     
   32062823.3003291     
   32062823.3003291     
   32062823.3003291     
   32062823.3003291     
   32062823.3003291     
   32062823.3003290     
   32062823.3003290     
   32062823.3003290     
   32062823.3003290     
   32062823.3003289     
   32062823.3003289     
   32062823.3003289     
   32062823.3003288     
   32062823.3003288     
   32062823.3003287     
   32062823.3003287     
   32062823.3003287     
   32062823.3003287     
   32062823.3003286     
   32062823.3003286     
   32062823.3003286     
   32062823.3003286     
   32062823.3003286     
   32062823.3003286     
   32062823.3003285     
   32062823.3003285     
   32062823.3003285     
   32062823.3003285     
   32062823.3003285     
   32062823.3003285     
   32062823.3003285     
   32062823.3003285     
   32062823.3003285     
   32062823.3003286     
   32062823.3003286     
   32062823.3003285     
   32062823.3003285     
   32062823.3003285     
   32062823.3003285     
   32062823.3003285     
   32062823.3003285     
   32062823.3003285     
   32062823.3003285     
   32062823.3003285     
   30963264.9565659     
   30963264.9565659     
   30963264.9565659     
   30963264.9565659     
   30963264.9565659     
   30963264.9565659     
   30963264.9565659     
   30963264.9565659     
   30963264.9565658     
   30963264.9565658     
   30963264.9565658     
   30963264.9565658     
   30963264.9565658     
   30963264.9565658     
   30963264.9565658     
   30963264.9565658     
   30963264.9565657     
   30963264.9565657     
   30963264.9565656     
   30963264.9565656     
   30963264.9565655     
   30963264.9565655     
   30963264.9565654     
   30963264.9565654     
   30963264.9565654     
   30963264.9565654     
   30963264.9565654     
   30963264.9565653     
   30963264.9565653     
   30963264.9565653     
   30963264.9565653     
   30963264.9565653     
   30963264.9565653     
   30963264.9565653     
   30963264.9565653     
   30963264.9565653     
   30963264.9565653     
   30963264.9565653     
   30963264.9565653     
   30963264.9565653     
   30963264.9565653     
   30963264.9565653     
   30963264.9565653     
   30963264.9565653     
   30963264.9565653     
   30963264.9565653     
   30963264.9565653     
   30963264.9565653     
   30963264.9565653     
   30963264.9565653     
   30963264.9565653     
   29831846.6354870     
   29831846.6354870     
   29831846.6354870     
   29831846.6354871     
   29831846.6354870     
   29831846.6354870     
   29831846.6354870     
   29831846.6354870     
   29831846.6354870     
   29831846.6354869     
   29831846.6354869     
   29831846.6354869     
   29831846.6354869     
   29831846.6354869     
   29831846.6354869     
   29831846.6354869     
   29831846.6354869     
   29831846.6354868     
   29831846.6354868     
   29831846.6354868     
   29831846.6354867     
   29831846.6354867     
   29831846.6354866     
   29831846.6354866     
   29831846.6354866     
   29831846.6354865     
   29831846.6354865     
   29831846.6354865     
   29831846.6354865     
   29831846.6354865     
   29831846.6354865     
   29831846.6354865     
   29831846.6354865     
   29831846.6354865     
   29831846.6354865     
   29831846.6354865     
   29831846.6354865     
   29831846.6354865     
   29831846.6354865     
   29831846.6354865     
   29831846.6354865     
   29831846.6354865     
   29831846.6354865     
   29831846.6354865     
   29831846.6354865     
   29831846.6354865     
   29831846.6354865     
   29831846.6354865     
   29831846.6354865     
   29831846.6354865     
   29831846.6354865     
   28671126.3444375     
   28671126.3444375     
   28671126.3444375     
   28671126.3444375     
   28671126.3444375     
   28671126.3444375     
   28671126.3444374     
   28671126.3444374     
   28671126.3444374     
   28671126.3444374     
   28671126.3444374     
   28671126.3444373     
   28671126.3444373     
   28671126.3444373     
   28671126.3444373     
   28671126.3444373     
   28671126.3444372     
   28671126.3444372     
   28671126.3444371     
   28671126.3444371     
   28671126.3444371     
   28671126.3444371     
   28671126.3444370     
   28671126.3444370     
   28671126.3444370     
   28671126.3444369     
   28671126.3444370     
   28671126.3444370     
   28671126.3444369     
   28671126.3444370     
   28671126.3444370     
   28671126.3444370     
   28671126.3444370     
   28671126.3444370     
   28671126.3444370     
   28671126.3444370     
   28671126.3444370     
   28671126.3444370     
   28671126.3444370     
   28671126.3444370     
   28671126.3444370     
   28671126.3444370     
   28671126.3444369     
   28671126.3444369     
   28671126.3444369     
   28671126.3444369     
   28671126.3444369     
   28671126.3444369     
   28671126.3444369     
   28671126.3444369     
   28671126.3444369     
   27483975.6585478     
   27483975.6585478     
   27483975.6585478     
   27483975.6585478     
   27483975.6585477     
   27483975.6585477     
   27483975.6585477     
   27483975.6585477     
   27483975.6585477     
   27483975.6585476     
   27483975.6585476     
   27483975.6585476     
   27483975.6585476     
   27483975.6585476     
   27483975.6585476     
   27483975.6585476     
   27483975.6585476     
   27483975.6585475     
   27483975.6585475     
   27483975.6585474     
   27483975.6585474     
   27483975.6585473     
   27483975.6585473     
   27483975.6585473     
   27483975.6585473     
   27483975.6585473     
   27483975.6585473     
   27483975.6585473     
   27483975.6585472     
   27483975.6585472     
   27483975.6585473     
   27483975.6585473     
   27483975.6585473     
   27483975.6585473     
   27483975.6585473     
   27483975.6585473     
   27483975.6585473     
   27483975.6585473     
   27483975.6585473     
   27483975.6585473     
   27483975.6585473     
   27483975.6585472     
   27483975.6585472     
   27483975.6585472     
   27483975.6585472     
   27483975.6585471     
   27483975.6585471     
   27483975.6585471     
   27483975.6585471     
   27483975.6585471     
   27483975.6585471     
   26273559.8733655     
   26273559.8733655     
   26273559.8733654     
   26273559.8733654     
   26273559.8733654     
   26273559.8733654     
   26273559.8733654     
   26273559.8733654     
   26273559.8733653     
   26273559.8733653     
   26273559.8733653     
   26273559.8733652     
   26273559.8733652     
   26273559.8733652     
   26273559.8733652     
   26273559.8733652     
   26273559.8733651     
   26273559.8733651     
   26273559.8733651     
   26273559.8733651     
   26273559.8733650     
   26273559.8733650     
   26273559.8733650     
   26273559.8733649     
   26273559.8733649     
   26273559.8733649     
   26273559.8733649     
   26273559.8733649     
   26273559.8733649     
   26273559.8733649     
   26273559.8733649     
   26273559.8733649     
   26273559.8733649     
   26273559.8733649     
   26273559.8733649     
   26273559.8733649     
   26273559.8733650     
   26273559.8733649     
   26273559.8733649     
   26273559.8733649     
   26273559.8733649     
   26273559.8733649     
   26273559.8733649     
   26273559.8733649     
   26273559.8733649     
   26273559.8733649     
   26273559.8733649     
   26273559.8733649     
   26273559.8733649     
   26273559.8733649     
   26273559.8733649     
   25043311.5567429     
   25043311.5567429     
   25043311.5567429     
   25043311.5567429     
   25043311.5567429     
   25043311.5567429     
   25043311.5567428     
   25043311.5567428     
   25043311.5567428     
   25043311.5567428     
   25043311.5567427     
   25043311.5567427     
   25043311.5567427     
   25043311.5567427     
   25043311.5567427     
   25043311.5567427     
   25043311.5567426     
   25043311.5567426     
   25043311.5567425     
   25043311.5567425     
   25043311.5567425     
   25043311.5567425     
   25043311.5567425     
   25043311.5567424     
   25043311.5567424     
   25043311.5567424     
   25043311.5567424     
   25043311.5567424     
   25043311.5567424     
   25043311.5567424     
   25043311.5567424     
   25043311.5567424     
   25043311.5567424     
   25043311.5567424     
   25043311.5567424     
   25043311.5567424     
   25043311.5567424     
   25043311.5567424     
   25043311.5567424     
   25043311.5567424     
   25043311.5567424     
   25043311.5567424     
   25043311.5567424     
   25043311.5567424     
   25043311.5567424     
   25043311.5567424     
   25043311.5567424     
   25043311.5567424     
   25043311.5567424     
   25043311.5567424     
   25043311.5567424     
   23796897.7059129     
   23796897.7059129     
   23796897.7059129     
   23796897.7059129     
   23796897.7059128     
   23796897.7059128     
   23796897.7059128     
   23796897.7059128     
   23796897.7059128     
   23796897.7059127     
   23796897.7059127     
   23796897.7059127     
   23796897.7059126     
   23796897.7059126     
   23796897.7059126     
   23796897.7059126     
   23796897.7059126     
   23796897.7059125     
   23796897.7059125     
   23796897.7059125     
   23796897.7059125     
   23796897.7059124     
   23796897.7059124     
   23796897.7059124     
   23796897.7059124     
   23796897.7059124     
   23796897.7059124     
   23796897.7059124     
   23796897.7059124     
   23796897.7059124     
   23796897.7059124     
   23796897.7059124     
   23796897.7059124     
   23796897.7059124     
   23796897.7059124     
   23796897.7059124     
   23796897.7059124     
   23796897.7059124     
   23796897.7059124     
   23796897.7059125     
   23796897.7059124     
   23796897.7059125     
   23796897.7059125     
   23796897.7059124     
   23796897.7059124     
   23796897.7059124     
   23796897.7059124     
   23796897.7059124     
   23796897.7059124     
   23796897.7059124     
   23796897.7059124     
   22538180.9801525     
   22538180.9801525     
   22538180.9801525     
   22538180.9801525     
   22538180.9801525     
   22538180.9801525     
   22538180.9801525     
   22538180.9801524     
   22538180.9801524     
   22538180.9801524     
   22538180.9801524     
   22538180.9801524     
   22538180.9801524     
   22538180.9801524     
   22538180.9801523     
   22538180.9801523     
   22538180.9801523     
   22538180.9801523     
   22538180.9801522     
   22538180.9801522     
   22538180.9801522     
   22538180.9801522     
   22538180.9801521     
   22538180.9801521     
   22538180.9801522     
   22538180.9801522     
   22538180.9801522     
   22538180.9801522     
   22538180.9801522     
   22538180.9801522     
   22538180.9801522     
   22538180.9801522     
   22538180.9801522     
   22538180.9801522     
   22538180.9801522     
   22538180.9801522     
   22538180.9801522     
   22538180.9801522     
   22538180.9801522     
   22538180.9801523     
   22538180.9801523     
   22538180.9801523     
   22538180.9801523     
   22538180.9801523     
   22538180.9801523     
   22538180.9801523     
   22538180.9801523     
   22538180.9801523     
   22538180.9801523     
   22538180.9801523     
   22538180.9801523     
   21271175.7538632     
   21271175.7538632     
   21271175.7538632     
   21271175.7538632     
   21271175.7538632     
   21271175.7538632     
   21271175.7538632     
   21271175.7538631     
   21271175.7538632     
   21271175.7538632     
   21271175.7538632     
   21271175.7538631     
   21271175.7538631     
   21271175.7538631     
   21271175.7538631     
   21271175.7538631     
   21271175.7538631     
   21271175.7538631     
   21271175.7538631     
   21271175.7538631     
   21271175.7538631     
   21271175.7538630     
   21271175.7538630     
   21271175.7538630     
   21271175.7538630     
   21271175.7538630     
   21271175.7538630     
   21271175.7538631     
   21271175.7538631     
   21271175.7538631     
   21271175.7538631     
   21271175.7538631     
   21271175.7538631     
   21271175.7538631     
   21271175.7538631     
   21271175.7538631     
   21271175.7538631     
   21271175.7538631     
   21271175.7538631     
   21271175.7538631     
   21271175.7538631     
   21271175.7538631     
   21271175.7538631     
   21271175.7538631     
   21271175.7538631     
   21271175.7538631     
   21271175.7538631     
   21271175.7538631     
   21271175.7538631     
   21271175.7538631     
   21271175.7538631     
   20000000.0000000     
   20000000.0000000     
   20000000.0000000     
   20000000.0000000     
   20000000.0000000     
   20000000.0000000     
   20000000.0000000     
   20000000.0000000     
   20000000.0000000     
   20000000.0000000     
   20000000.0000000     
   20000000.0000000     
   20000000.0000000     
   20000000.0000000     
   20000000.0000000     
   20000000.0000000     
   20000000.0000000     
   20000000.0000000     
   20000000.0000000     
   20000000.0000000     
   20000000.0000000     
   20000000.0000000     
   20000000.0000000     
   20000000.0000000     
   20000000.0000000     
   20000000.0000000     
   20000000.0000000     
   20000000.0000000     
   20000000.0000000     
   20000000.0000000     
   20000000.0000000     
   20000000.0000000     
   20000000.0000000     
   20000000.0000000     
   20000000.0000000     
   20000000.0000000     
   20000000.0000000     
   20000000.0000000     
   20000000.0000000     
   20000000.0000000     
   20000000.0000000     
   20000000.0000000     
   20000000.0000000     
   20000000.0000000     
   20000000.0000000     
   20000000.0000000     
   20000000.0000000     
   20000000.0000000     
   20000000.0000000     
   20000000.0000000     
   20000000.0000000     
VECTORS u double 
    0.00000E+00         0.70311E-01         0.00000E+00
    0.00000E+00         0.68835E-01         0.00000E+00
    0.00000E+00         0.67375E-01         0.00000E+00
    0.00000E+00         0.65936E-01         0.00000E+00
    0.00000E+00         0.64518E-01         0.00000E+00
    0.00000E+00         0.63124E-01         0.00000E+00
    0.00000E+00         0.61748E-01         0.00000E+00
    0.00000E+00         0.60376E-01         0.00000E+00
    0.00000E+00         0.59003E-01         0.00000E+00
    0.00000E+00         0.57635E-01         0.00000E+00
    0.00000E+00         0.56273E-01         0.00000E+00
    0.00000E+00         0.54919E-01         0.00000E+00
    0.00000E+00         0.53574E-01         0.00000E+00
    0.00000E+00         0.52238E-01         0.00000E+00
    0.00000E+00         0.50909E-01         0.00000E+00
    0.00000E+00         0.49586E-01         0.00000E+00
    0.00000E+00         0.48266E-01         0.00000E+00
    0.00000E+00         0.46948E-01         0.00000E+00
    0.00000E+00         0.45631E-01         0.00000E+00
    0.00000E+00         0.44315E-01         0.00000E+00
    0.00000E+00         0.42999E-01         0.00000E+00
    0.00000E+00         0.41683E-01         0.00000E+00
    0.00000E+00         0.40367E-01         0.00000E+00
    0.00000E+00         0.39052E-01         0.00000E+00
    0.00000E+00         0.37737E-01         0.00000E+00
    0.00000E+00         0.36422E-01         0.00000E+00
    0.00000E+00         0.35106E-01         0.00000E+00
    0.00000E+00         0.33790E-01         0.00000E+00
    0.00000E+00         0.32474E-01         0.00000E+00
    0.00000E+00         0.31156E-01         0.00000E+00
    0.00000E+00         0.29837E-01         0.00000E+00
    0.00000E+00         0.28516E-01         0.00000E+00
    0.00000E+00         0.27194E-01         0.00000E+00
    0.00000E+00         0.25869E-01         0.00000E+00
    0.00000E+00         0.24541E-01         0.00000E+00
    0.00000E+00         0.23210E-01         0.00000E+00
    0.00000E+00         0.21873E-01         0.00000E+00
    0.00000E+00         0.20522E-01         0.00000E+00
    0.00000E+00         0.19148E-01         0.00000E+00
    0.00000E+00         0.17752E-01         0.00000E+00
    0.00000E+00         0.16330E-01         0.00000E+00
    0.00000E+00         0.14882E-01         0.00000E+00
    0.00000E+00         0.13406E-01         0.00000E+00
    0.00000E+00         0.11899E-01         0.00000E+00
    0.00000E+00         0.10357E-01         0.00000E+00
    0.00000E+00         0.87762E-02         0.00000E+00
    0.00000E+00         0.71512E-02         0.00000E+00
    0.00000E+00         0.54741E-02         0.00000E+00
    0.00000E+00         0.37345E-02         0.00000E+00
    0.00000E+00         0.19176E-02         0.00000E+00
    0.00000E+00         0.00000E+00         0.00000E+00
    0.50058E-02         0.69077E-01         0.00000E+00
    0.46740E-02         0.67763E-01         0.00000E+00
    0.43897E-02         0.66443E-01         0.00000E+00
    0.41444E-02         0.65122E-01         0.00000E+00
    0.39318E-02         0.63804E-01         0.00000E+00
    0.37469E-02         0.62488E-01         0.00000E+00
    0.35850E-02         0.61169E-01         0.00000E+00
    0.34431E-02         0.59846E-01         0.00000E+00
    0.33187E-02         0.58522E-01         0.00000E+00
    0.32095E-02         0.57198E-01         0.00000E+00
    0.31124E-02         0.55877E-01         0.00000E+00
    0.30251E-02         0.54558E-01         0.00000E+00
    0.29453E-02         0.53240E-01         0.00000E+00
    0.28713E-02         0.51924E-01         0.00000E+00
    0.28017E-02         0.50611E-01         0.00000E+00
    0.27353E-02         0.49299E-01         0.00000E+00
    0.26713E-02         0.47988E-01         0.00000E+00
    0.26094E-02         0.46677E-01         0.00000E+00
    0.25491E-02         0.45367E-01         0.00000E+00
    0.24902E-02         0.44058E-01         0.00000E+00
    0.24324E-02         0.42749E-01         0.00000E+00
    0.23757E-02         0.41440E-01         0.00000E+00
    0.23196E-02         0.40131E-01         0.00000E+00
    0.22640E-02         0.38822E-01         0.00000E+00
    0.22086E-02         0.37513E-01         0.00000E+00
    0.21533E-02         0.36204E-01         0.00000E+00
    0.20977E-02         0.34894E-01         0.00000E+00
    0.20416E-02         0.33583E-01         0.00000E+00
    0.19849E-02         0.32271E-01         0.00000E+00
    0.19272E-02         0.30958E-01         0.00000E+00
    0.18682E-02         0.29643E-01         0.00000E+00
    0.18077E-02         0.28327E-01         0.00000E+00
    0.17453E-02         0.27008E-01         0.00000E+00
    0.16806E-02         0.25687E-01         0.00000E+00
    0.16131E-02         0.24363E-01         0.00000E+00
    0.15423E-02         0.23035E-01         0.00000E+00
    0.14677E-02         0.21704E-01         0.00000E+00
    0.13900E-02         0.20366E-01         0.00000E+00
    0.13113E-02         0.19010E-01         0.00000E+00
    0.12343E-02         0.17628E-01         0.00000E+00
    0.11591E-02         0.16219E-01         0.00000E+00
    0.10839E-02         0.14781E-01         0.00000E+00
    0.10071E-02         0.13313E-01         0.00000E+00
    0.92721E-03         0.11811E-01         0.00000E+00
    0.84208E-03         0.10274E-01         0.00000E+00
    0.74924E-03         0.86970E-02         0.00000E+00
    0.64556E-03         0.70750E-02         0.00000E+00
    0.52653E-03         0.54023E-02         0.00000E+00
    0.38743E-03         0.36713E-02         0.00000E+00
    0.21737E-03         0.18736E-02         0.00000E+00
    0.00000E+00         0.00000E+00         0.00000E+00
    0.85427E-02         0.67323E-01         0.00000E+00
    0.81876E-02         0.66088E-01         0.00000E+00
    0.78515E-02         0.64851E-01         0.00000E+00
    0.75387E-02         0.63610E-01         0.00000E+00
    0.72494E-02         0.62365E-01         0.00000E+00
    0.69823E-02         0.61115E-01         0.00000E+00
    0.67360E-02         0.59861E-01         0.00000E+00
    0.65092E-02         0.58604E-01         0.00000E+00
    0.63003E-02         0.57344E-01         0.00000E+00
    0.61073E-02         0.56080E-01         0.00000E+00
    0.59284E-02         0.54813E-01         0.00000E+00
    0.57617E-02         0.53543E-01         0.00000E+00
    0.56055E-02         0.52269E-01         0.00000E+00
    0.54581E-02         0.50994E-01         0.00000E+00
    0.53182E-02         0.49716E-01         0.00000E+00
    0.51843E-02         0.48436E-01         0.00000E+00
    0.50555E-02         0.47155E-01         0.00000E+00
    0.49311E-02         0.45873E-01         0.00000E+00
    0.48102E-02         0.44589E-01         0.00000E+00
    0.46923E-02         0.43304E-01         0.00000E+00
    0.45768E-02         0.42019E-01         0.00000E+00
    0.44632E-02         0.40732E-01         0.00000E+00
    0.43510E-02         0.39444E-01         0.00000E+00
    0.42397E-02         0.38154E-01         0.00000E+00
    0.41290E-02         0.36864E-01         0.00000E+00
    0.40183E-02         0.35572E-01         0.00000E+00
    0.39073E-02         0.34278E-01         0.00000E+00
    0.37955E-02         0.32983E-01         0.00000E+00
    0.36825E-02         0.31686E-01         0.00000E+00
    0.35679E-02         0.30386E-01         0.00000E+00
    0.34512E-02         0.29085E-01         0.00000E+00
    0.33318E-02         0.27781E-01         0.00000E+00
    0.32092E-02         0.26474E-01         0.00000E+00
    0.30829E-02         0.25164E-01         0.00000E+00
    0.29522E-02         0.23851E-01         0.00000E+00
    0.28164E-02         0.22535E-01         0.00000E+00
    0.26748E-02         0.21215E-01         0.00000E+00
    0.25266E-02         0.19891E-01         0.00000E+00
    0.23721E-02         0.18564E-01         0.00000E+00
    0.22134E-02         0.17225E-01         0.00000E+00
    0.20534E-02         0.15858E-01         0.00000E+00
    0.18943E-02         0.14455E-01         0.00000E+00
    0.17352E-02         0.13017E-01         0.00000E+00
    0.15723E-02         0.11541E-01         0.00000E+00
    0.14020E-02         0.10025E-01         0.00000E+00
    0.12205E-02         0.84672E-02         0.00000E+00
    0.10241E-02         0.68659E-02         0.00000E+00
    0.80785E-03         0.52189E-02         0.00000E+00
    0.56661E-03         0.35245E-02         0.00000E+00
    0.29948E-03         0.17836E-02         0.00000E+00
    0.00000E+00         0.00000E+00         0.00000E+00
    0.11739E-01         0.65353E-01         0.00000E+00
    0.11322E-01         0.64157E-01         0.00000E+00
    0.10928E-01         0.62958E-01         0.00000E+00
    0.10554E-01         0.61758E-01         0.00000E+00
    0.10201E-01         0.60555E-01         0.00000E+00
    0.98675E-02         0.59349E-01         0.00000E+00
    0.95530E-02         0.58141E-01         0.00000E+00
    0.92564E-02         0.56930E-01         0.00000E+00
    0.89765E-02         0.55715E-01         0.00000E+00
    0.87119E-02         0.54497E-01         0.00000E+00
    0.84614E-02         0.53276E-01         0.00000E+00
    0.82236E-02         0.52051E-01         0.00000E+00
    0.79974E-02         0.50823E-01         0.00000E+00
    0.77815E-02         0.49591E-01         0.00000E+00
    0.75746E-02         0.48357E-01         0.00000E+00
    0.73757E-02         0.47119E-01         0.00000E+00
    0.71838E-02         0.45878E-01         0.00000E+00
    0.69978E-02         0.44634E-01         0.00000E+00
    0.68169E-02         0.43388E-01         0.00000E+00
    0.66402E-02         0.42139E-01         0.00000E+00
    0.64669E-02         0.40887E-01         0.00000E+00
    0.62965E-02         0.39632E-01         0.00000E+00
    0.61281E-02         0.38375E-01         0.00000E+00
    0.59613E-02         0.37115E-01         0.00000E+00
    0.57953E-02         0.35853E-01         0.00000E+00
    0.56297E-02         0.34588E-01         0.00000E+00
    0.54638E-02         0.33320E-01         0.00000E+00
    0.52971E-02         0.32049E-01         0.00000E+00
    0.51291E-02         0.30775E-01         0.00000E+00
    0.49591E-02         0.29498E-01         0.00000E+00
    0.47865E-02         0.28218E-01         0.00000E+00
    0.46108E-02         0.26935E-01         0.00000E+00
    0.44314E-02         0.25647E-01         0.00000E+00
    0.42474E-02         0.24356E-01         0.00000E+00
    0.40584E-02         0.23062E-01         0.00000E+00
    0.38634E-02         0.21763E-01         0.00000E+00
    0.36618E-02         0.20460E-01         0.00000E+00
    0.34526E-02         0.19152E-01         0.00000E+00
    0.32346E-02         0.17840E-01         0.00000E+00
    0.30064E-02         0.16524E-01         0.00000E+00
    0.27689E-02         0.15204E-01         0.00000E+00
    0.25250E-02         0.13867E-01         0.00000E+00
    0.22770E-02         0.12494E-01         0.00000E+00
    0.20271E-02         0.11077E-01         0.00000E+00
    0.17744E-02         0.96167E-02         0.00000E+00
    0.15152E-02         0.81127E-02         0.00000E+00
    0.12451E-02         0.65660E-02         0.00000E+00
    0.96109E-03         0.49786E-02         0.00000E+00
    0.66092E-03         0.33539E-02         0.00000E+00
    0.34046E-03         0.16939E-02         0.00000E+00
    0.00000E+00         0.00000E+00         0.00000E+00
    0.14537E-01         0.63056E-01         0.00000E+00
    0.14063E-01         0.61905E-01         0.00000E+00
    0.13613E-01         0.60751E-01         0.00000E+00
    0.13185E-01         0.59594E-01         0.00000E+00
    0.12778E-01         0.58435E-01         0.00000E+00
    0.12390E-01         0.57273E-01         0.00000E+00
    0.12019E-01         0.56108E-01         0.00000E+00
    0.11666E-01         0.54941E-01         0.00000E+00
    0.11328E-01         0.53770E-01         0.00000E+00
    0.11005E-01         0.52596E-01         0.00000E+00
    0.10695E-01         0.51419E-01         0.00000E+00
    0.10398E-01         0.50238E-01         0.00000E+00
    0.10113E-01         0.49055E-01         0.00000E+00
    0.98377E-02         0.47867E-01         0.00000E+00
    0.95720E-02         0.46676E-01         0.00000E+00
    0.93147E-02         0.45482E-01         0.00000E+00
    0.90649E-02         0.44284E-01         0.00000E+00
    0.88217E-02         0.43082E-01         0.00000E+00
    0.85842E-02         0.41877E-01         0.00000E+00
    0.83516E-02         0.40668E-01         0.00000E+00
    0.81230E-02         0.39456E-01         0.00000E+00
    0.78978E-02         0.38240E-01         0.00000E+00
    0.76751E-02         0.37020E-01         0.00000E+00
    0.74544E-02         0.35797E-01         0.00000E+00
    0.72348E-02         0.34569E-01         0.00000E+00
    0.70158E-02         0.33339E-01         0.00000E+00
    0.67967E-02         0.32104E-01         0.00000E+00
    0.65769E-02         0.30865E-01         0.00000E+00
    0.63557E-02         0.29622E-01         0.00000E+00
    0.61325E-02         0.28375E-01         0.00000E+00
    0.59067E-02         0.27124E-01         0.00000E+00
    0.56776E-02         0.25869E-01         0.00000E+00
    0.54446E-02         0.24608E-01         0.00000E+00
    0.52069E-02         0.23344E-01         0.00000E+00
    0.49639E-02         0.22074E-01         0.00000E+00
    0.47149E-02         0.20800E-01         0.00000E+00
    0.44589E-02         0.19520E-01         0.00000E+00
    0.41952E-02         0.18235E-01         0.00000E+00
    0.39230E-02         0.16945E-01         0.00000E+00
    0.36411E-02         0.15650E-01         0.00000E+00
    0.33479E-02         0.14348E-01         0.00000E+00
    0.30419E-02         0.13043E-01         0.00000E+00
    0.27245E-02         0.11734E-01         0.00000E+00
    0.23991E-02         0.10409E-01         0.00000E+00
    0.20681E-02         0.90472E-02         0.00000E+00
    0.17341E-02         0.76413E-02         0.00000E+00
    0.13989E-02         0.61897E-02         0.00000E+00
    0.10618E-02         0.46967E-02         0.00000E+00
    0.71841E-03         0.31640E-02         0.00000E+00
    0.36571E-03         0.15970E-02         0.00000E+00
    0.00000E+00         0.00000E+00         0.00000E+00
    0.16921E-01         0.60526E-01         0.00000E+00
    0.16408E-01         0.59418E-01         0.00000E+00
    0.15917E-01         0.58307E-01         0.00000E+00
    0.15447E-01         0.57195E-01         0.00000E+00
    0.14997E-01         0.56081E-01         0.00000E+00
    0.14564E-01         0.54964E-01         0.00000E+00
    0.14148E-01         0.53844E-01         0.00000E+00
    0.13749E-01         0.52722E-01         0.00000E+00
    0.13364E-01         0.51596E-01         0.00000E+00
    0.12993E-01         0.50468E-01         0.00000E+00
    0.12635E-01         0.49336E-01         0.00000E+00
    0.12289E-01         0.48201E-01         0.00000E+00
    0.11954E-01         0.47063E-01         0.00000E+00
    0.11629E-01         0.45921E-01         0.00000E+00
    0.11313E-01         0.44775E-01         0.00000E+00
    0.11005E-01         0.43626E-01         0.00000E+00
    0.10704E-01         0.42473E-01         0.00000E+00
    0.10410E-01         0.41316E-01         0.00000E+00
    0.10122E-01         0.40155E-01         0.00000E+00
    0.98385E-02         0.38990E-01         0.00000E+00
    0.95594E-02         0.37821E-01         0.00000E+00
    0.92836E-02         0.36647E-01         0.00000E+00
    0.90106E-02         0.35470E-01         0.00000E+00
    0.87395E-02         0.34288E-01         0.00000E+00
    0.84698E-02         0.33102E-01         0.00000E+00
    0.82007E-02         0.31912E-01         0.00000E+00
    0.79315E-02         0.30717E-01         0.00000E+00
    0.76617E-02         0.29517E-01         0.00000E+00
    0.73906E-02         0.28313E-01         0.00000E+00
    0.71175E-02         0.27104E-01         0.00000E+00
    0.68418E-02         0.25890E-01         0.00000E+00
    0.65629E-02         0.24670E-01         0.00000E+00
    0.62802E-02         0.23446E-01         0.00000E+00
    0.59929E-02         0.22217E-01         0.00000E+00
    0.57005E-02         0.20982E-01         0.00000E+00
    0.54022E-02         0.19741E-01         0.00000E+00
    0.50975E-02         0.18495E-01         0.00000E+00
    0.47857E-02         0.17243E-01         0.00000E+00
    0.44659E-02         0.15985E-01         0.00000E+00
    0.41375E-02         0.14721E-01         0.00000E+00
    0.38001E-02         0.13452E-01         0.00000E+00
    0.34528E-02         0.12175E-01         0.00000E+00
    0.30941E-02         0.10893E-01         0.00000E+00
    0.27229E-02         0.96064E-02         0.00000E+00
    0.23409E-02         0.83175E-02         0.00000E+00
    0.19517E-02         0.70183E-02         0.00000E+00
    0.15597E-02         0.56990E-02         0.00000E+00
    0.11653E-02         0.43388E-02         0.00000E+00
    0.77348E-03         0.29356E-02         0.00000E+00
    0.38493E-03         0.14869E-02         0.00000E+00
    0.00000E+00         0.00000E+00         0.00000E+00
    0.18910E-01         0.57842E-01         0.00000E+00
    0.18372E-01         0.56777E-01         0.00000E+00
    0.17855E-01         0.55711E-01         0.00000E+00
    0.17355E-01         0.54643E-01         0.00000E+00
    0.16874E-01         0.53574E-01         0.00000E+00
    0.16408E-01         0.52502E-01         0.00000E+00
    0.15959E-01         0.51428E-01         0.00000E+00
    0.15523E-01         0.50352E-01         0.00000E+00
    0.15102E-01         0.49273E-01         0.00000E+00
    0.14693E-01         0.48191E-01         0.00000E+00
    0.14295E-01         0.47106E-01         0.00000E+00
    0.13909E-01         0.46018E-01         0.00000E+00
    0.13533E-01         0.44926E-01         0.00000E+00
    0.13166E-01         0.43831E-01         0.00000E+00
    0.12808E-01         0.42733E-01         0.00000E+00
    0.12457E-01         0.41630E-01         0.00000E+00
    0.12113E-01         0.40524E-01         0.00000E+00
    0.11775E-01         0.39414E-01         0.00000E+00
    0.11443E-01         0.38300E-01         0.00000E+00
    0.11115E-01         0.37182E-01         0.00000E+00
    0.10791E-01         0.36060E-01         0.00000E+00
    0.10471E-01         0.34933E-01         0.00000E+00
    0.10153E-01         0.33803E-01         0.00000E+00
    0.98367E-02         0.32667E-01         0.00000E+00
    0.95218E-02         0.31527E-01         0.00000E+00
    0.92074E-02         0.30383E-01         0.00000E+00
    0.88930E-02         0.29234E-01         0.00000E+00
    0.85779E-02         0.28080E-01         0.00000E+00
    0.82616E-02         0.26921E-01         0.00000E+00
    0.79433E-02         0.25758E-01         0.00000E+00
    0.76225E-02         0.24589E-01         0.00000E+00
    0.72987E-02         0.23416E-01         0.00000E+00
    0.69711E-02         0.22237E-01         0.00000E+00
    0.66394E-02         0.21052E-01         0.00000E+00
    0.63029E-02         0.19863E-01         0.00000E+00
    0.59610E-02         0.18668E-01         0.00000E+00
    0.56132E-02         0.17467E-01         0.00000E+00
    0.52590E-02         0.16261E-01         0.00000E+00
    0.48980E-02         0.15049E-01         0.00000E+00
    0.45296E-02         0.13832E-01         0.00000E+00
    0.41534E-02         0.12608E-01         0.00000E+00
    0.37691E-02         0.11379E-01         0.00000E+00
    0.33767E-02         0.10144E-01         0.00000E+00
    0.29762E-02         0.89030E-02         0.00000E+00
    0.25668E-02         0.76549E-02         0.00000E+00
    0.21477E-02         0.64017E-02         0.00000E+00
    0.17193E-02         0.51441E-02         0.00000E+00
    0.12853E-02         0.38834E-02         0.00000E+00
    0.85047E-03         0.26133E-02         0.00000E+00
    0.42086E-03         0.13246E-02         0.00000E+00
    0.00000E+00         0.00000E+00         0.00000E+00
    0.20534E-01         0.55072E-01         0.00000E+00
    0.19984E-01         0.54050E-01         0.00000E+00
    0.19451E-01         0.53028E-01         0.00000E+00
    0.18933E-01         0.52005E-01         0.00000E+00
    0.18431E-01         0.50981E-01         0.00000E+00
    0.17943E-01         0.49955E-01         0.00000E+00
    0.17469E-01         0.48927E-01         0.00000E+00
    0.17008E-01         0.47897E-01         0.00000E+00
    0.16559E-01         0.46865E-01         0.00000E+00
    0.16121E-01         0.45830E-01         0.00000E+00
    0.15693E-01         0.44793E-01         0.00000E+00
    0.15276E-01         0.43752E-01         0.00000E+00
    0.14867E-01         0.42709E-01         0.00000E+00
    0.14467E-01         0.41662E-01         0.00000E+00
    0.14074E-01         0.40612E-01         0.00000E+00
    0.13688E-01         0.39558E-01         0.00000E+00
    0.13308E-01         0.38501E-01         0.00000E+00
    0.12934E-01         0.37441E-01         0.00000E+00
    0.12564E-01         0.36376E-01         0.00000E+00
    0.12199E-01         0.35307E-01         0.00000E+00
    0.11837E-01         0.34235E-01         0.00000E+00
    0.11478E-01         0.33158E-01         0.00000E+00
    0.11121E-01         0.32077E-01         0.00000E+00
    0.10766E-01         0.30992E-01         0.00000E+00
    0.10412E-01         0.29903E-01         0.00000E+00
    0.10059E-01         0.28809E-01         0.00000E+00
    0.97049E-02         0.27711E-01         0.00000E+00
    0.93505E-02         0.26609E-01         0.00000E+00
    0.89948E-02         0.25501E-01         0.00000E+00
    0.86373E-02         0.24390E-01         0.00000E+00
    0.82775E-02         0.23273E-01         0.00000E+00
    0.79148E-02         0.22152E-01         0.00000E+00
    0.75487E-02         0.21027E-01         0.00000E+00
    0.71787E-02         0.19896E-01         0.00000E+00
    0.68044E-02         0.18761E-01         0.00000E+00
    0.64253E-02         0.17621E-01         0.00000E+00
    0.60410E-02         0.16477E-01         0.00000E+00
    0.56511E-02         0.15328E-01         0.00000E+00
    0.52552E-02         0.14174E-01         0.00000E+00
    0.48530E-02         0.13015E-01         0.00000E+00
    0.44442E-02         0.11852E-01         0.00000E+00
    0.40287E-02         0.10685E-01         0.00000E+00
    0.36062E-02         0.95127E-02         0.00000E+00
    0.31767E-02         0.83366E-02         0.00000E+00
    0.27404E-02         0.71565E-02         0.00000E+00
    0.22978E-02         0.59723E-02         0.00000E+00
    0.18493E-02         0.47840E-02         0.00000E+00
    0.13947E-02         0.35913E-02         0.00000E+00
    0.93399E-03         0.23955E-02         0.00000E+00
    0.46813E-03         0.11983E-02         0.00000E+00
    0.00000E+00         0.00000E+00         0.00000E+00
    0.21828E-01         0.52267E-01         0.00000E+00
    0.21274E-01         0.51290E-01         0.00000E+00
    0.20734E-01         0.50313E-01         0.00000E+00
    0.20208E-01         0.49335E-01         0.00000E+00
    0.19695E-01         0.48356E-01         0.00000E+00
    0.19193E-01         0.47376E-01         0.00000E+00
    0.18704E-01         0.46394E-01         0.00000E+00
    0.18225E-01         0.45411E-01         0.00000E+00
    0.17757E-01         0.44425E-01         0.00000E+00
    0.17298E-01         0.43438E-01         0.00000E+00
    0.16848E-01         0.42448E-01         0.00000E+00
    0.16407E-01         0.41456E-01         0.00000E+00
    0.15974E-01         0.40461E-01         0.00000E+00
    0.15548E-01         0.39463E-01         0.00000E+00
    0.15128E-01         0.38463E-01         0.00000E+00
    0.14714E-01         0.37459E-01         0.00000E+00
    0.14306E-01         0.36452E-01         0.00000E+00
    0.13902E-01         0.35441E-01         0.00000E+00
    0.13502E-01         0.34427E-01         0.00000E+00
    0.13106E-01         0.33410E-01         0.00000E+00
    0.12713E-01         0.32389E-01         0.00000E+00
    0.12323E-01         0.31364E-01         0.00000E+00
    0.11934E-01         0.30336E-01         0.00000E+00
    0.11547E-01         0.29304E-01         0.00000E+00
    0.11160E-01         0.28268E-01         0.00000E+00
    0.10774E-01         0.27228E-01         0.00000E+00
    0.10387E-01         0.26184E-01         0.00000E+00
    0.10000E-01         0.25136E-01         0.00000E+00
    0.96115E-02         0.24084E-01         0.00000E+00
    0.92213E-02         0.23028E-01         0.00000E+00
    0.88289E-02         0.21968E-01         0.00000E+00
    0.84339E-02         0.20904E-01         0.00000E+00
    0.80358E-02         0.19836E-01         0.00000E+00
    0.76342E-02         0.18764E-01         0.00000E+00
    0.72288E-02         0.17688E-01         0.00000E+00
    0.68191E-02         0.16609E-01         0.00000E+00
    0.64048E-02         0.15525E-01         0.00000E+00
    0.59856E-02         0.14438E-01         0.00000E+00
    0.55612E-02         0.13347E-01         0.00000E+00
    0.51313E-02         0.12252E-01         0.00000E+00
    0.46958E-02         0.11154E-01         0.00000E+00
    0.42543E-02         0.10053E-01         0.00000E+00
    0.38068E-02         0.89481E-02         0.00000E+00
    0.33533E-02         0.78403E-02         0.00000E+00
    0.28936E-02         0.67293E-02         0.00000E+00
    0.24276E-02         0.56153E-02         0.00000E+00
    0.19553E-02         0.44985E-02         0.00000E+00
    0.14767E-02         0.33789E-02         0.00000E+00
    0.99183E-03         0.22562E-02         0.00000E+00
    0.50016E-03         0.11301E-02         0.00000E+00
    0.00000E+00         0.00000E+00         0.00000E+00
    0.22827E-01         0.49470E-01         0.00000E+00
    0.22276E-01         0.48537E-01         0.00000E+00
    0.21737E-01         0.47604E-01         0.00000E+00
    0.21209E-01         0.46671E-01         0.00000E+00
    0.20692E-01         0.45737E-01         0.00000E+00
    0.20184E-01         0.44803E-01         0.00000E+00
    0.19686E-01         0.43868E-01         0.00000E+00
    0.19198E-01         0.42931E-01         0.00000E+00
    0.18718E-01         0.41992E-01         0.00000E+00
    0.18245E-01         0.41052E-01         0.00000E+00
    0.17781E-01         0.40111E-01         0.00000E+00
    0.17323E-01         0.39167E-01         0.00000E+00
    0.16872E-01         0.38220E-01         0.00000E+00
    0.16427E-01         0.37272E-01         0.00000E+00
    0.15988E-01         0.36320E-01         0.00000E+00
    0.15553E-01         0.35367E-01         0.00000E+00
    0.15123E-01         0.34410E-01         0.00000E+00
    0.14696E-01         0.33451E-01         0.00000E+00
    0.14273E-01         0.32488E-01         0.00000E+00
    0.13854E-01         0.31523E-01         0.00000E+00
    0.13436E-01         0.30554E-01         0.00000E+00
    0.13020E-01         0.29582E-01         0.00000E+00
    0.12606E-01         0.28607E-01         0.00000E+00
    0.12193E-01         0.27629E-01         0.00000E+00
    0.11780E-01         0.26647E-01         0.00000E+00
    0.11368E-01         0.25662E-01         0.00000E+00
    0.10955E-01         0.24673E-01         0.00000E+00
    0.10541E-01         0.23682E-01         0.00000E+00
    0.10126E-01         0.22686E-01         0.00000E+00
    0.97093E-02         0.21688E-01         0.00000E+00
    0.92905E-02         0.20685E-01         0.00000E+00
    0.88694E-02         0.19680E-01         0.00000E+00
    0.84454E-02         0.18671E-01         0.00000E+00
    0.80182E-02         0.17659E-01         0.00000E+00
    0.75875E-02         0.16644E-01         0.00000E+00
    0.71529E-02         0.15625E-01         0.00000E+00
    0.67143E-02         0.14603E-01         0.00000E+00
    0.62711E-02         0.13578E-01         0.00000E+00
    0.58233E-02         0.12550E-01         0.00000E+00
    0.53705E-02         0.11520E-01         0.00000E+00
    0.49125E-02         0.10486E-01         0.00000E+00
    0.44491E-02         0.94493E-02         0.00000E+00
    0.39800E-02         0.84099E-02         0.00000E+00
    0.35052E-02         0.73678E-02         0.00000E+00
    0.30243E-02         0.63231E-02         0.00000E+00
    0.25373E-02         0.52757E-02         0.00000E+00
    0.20438E-02         0.42257E-02         0.00000E+00
    0.15436E-02         0.31731E-02         0.00000E+00
    0.10363E-02         0.21178E-02         0.00000E+00
    0.52174E-03         0.10601E-02         0.00000E+00
    0.00000E+00         0.00000E+00         0.00000E+00
    0.23564E-01         0.46709E-01         0.00000E+00
    0.23022E-01         0.45821E-01         0.00000E+00
    0.22489E-01         0.44932E-01         0.00000E+00
    0.21965E-01         0.44044E-01         0.00000E+00
    0.21449E-01         0.43156E-01         0.00000E+00
    0.20942E-01         0.42267E-01         0.00000E+00
    0.20442E-01         0.41377E-01         0.00000E+00
    0.19949E-01         0.40486E-01         0.00000E+00
    0.19463E-01         0.39595E-01         0.00000E+00
    0.18984E-01         0.38702E-01         0.00000E+00
    0.18511E-01         0.37807E-01         0.00000E+00
    0.18043E-01         0.36911E-01         0.00000E+00
    0.17581E-01         0.36013E-01         0.00000E+00
    0.17123E-01         0.35113E-01         0.00000E+00
    0.16670E-01         0.34211E-01         0.00000E+00
    0.16221E-01         0.33307E-01         0.00000E+00
    0.15775E-01         0.32401E-01         0.00000E+00
    0.15332E-01         0.31492E-01         0.00000E+00
    0.14892E-01         0.30581E-01         0.00000E+00
    0.14454E-01         0.29667E-01         0.00000E+00
    0.14018E-01         0.28751E-01         0.00000E+00
    0.13584E-01         0.27831E-01         0.00000E+00
    0.13150E-01         0.26910E-01         0.00000E+00
    0.12717E-01         0.25985E-01         0.00000E+00
    0.12284E-01         0.25057E-01         0.00000E+00
    0.11851E-01         0.24127E-01         0.00000E+00
    0.11418E-01         0.23194E-01         0.00000E+00
    0.10983E-01         0.22258E-01         0.00000E+00
    0.10547E-01         0.21319E-01         0.00000E+00
    0.10110E-01         0.20377E-01         0.00000E+00
    0.96703E-02         0.19433E-01         0.00000E+00
    0.92283E-02         0.18485E-01         0.00000E+00
    0.87837E-02         0.17535E-01         0.00000E+00
    0.83360E-02         0.16582E-01         0.00000E+00
    0.78850E-02         0.15626E-01         0.00000E+00
    0.74304E-02         0.14668E-01         0.00000E+00
    0.69718E-02         0.13707E-01         0.00000E+00
    0.65091E-02         0.12743E-01         0.00000E+00
    0.60419E-02         0.11777E-01         0.00000E+00
    0.55700E-02         0.10808E-01         0.00000E+00
    0.50932E-02         0.98370E-02         0.00000E+00
    0.46111E-02         0.88633E-02         0.00000E+00
    0.41237E-02         0.78874E-02         0.00000E+00
    0.36305E-02         0.69091E-02         0.00000E+00
    0.31315E-02         0.59285E-02         0.00000E+00
    0.26263E-02         0.49457E-02         0.00000E+00
    0.21147E-02         0.39608E-02         0.00000E+00
    0.15965E-02         0.29737E-02         0.00000E+00
    0.10715E-02         0.19845E-02         0.00000E+00
    0.53946E-03         0.99325E-03         0.00000E+00
    0.00000E+00         0.00000E+00         0.00000E+00
    0.24072E-01         0.44008E-01         0.00000E+00
    0.23542E-01         0.43163E-01         0.00000E+00
    0.23020E-01         0.42319E-01         0.00000E+00
    0.22504E-01         0.41475E-01         0.00000E+00
    0.21994E-01         0.40631E-01         0.00000E+00
    0.21491E-01         0.39787E-01         0.00000E+00
    0.20994E-01         0.38943E-01         0.00000E+00
    0.20502E-01         0.38098E-01         0.00000E+00
    0.20016E-01         0.37252E-01         0.00000E+00
    0.19535E-01         0.36406E-01         0.00000E+00
    0.19058E-01         0.35558E-01         0.00000E+00
    0.18586E-01         0.34709E-01         0.00000E+00
    0.18117E-01         0.33859E-01         0.00000E+00
    0.17653E-01         0.33007E-01         0.00000E+00
    0.17191E-01         0.32154E-01         0.00000E+00
    0.16733E-01         0.31298E-01         0.00000E+00
    0.16277E-01         0.30441E-01         0.00000E+00
    0.15823E-01         0.29582E-01         0.00000E+00
    0.15372E-01         0.28721E-01         0.00000E+00
    0.14922E-01         0.27858E-01         0.00000E+00
    0.14473E-01         0.26993E-01         0.00000E+00
    0.14024E-01         0.26126E-01         0.00000E+00
    0.13577E-01         0.25256E-01         0.00000E+00
    0.13129E-01         0.24384E-01         0.00000E+00
    0.12682E-01         0.23510E-01         0.00000E+00
    0.12233E-01         0.22634E-01         0.00000E+00
    0.11784E-01         0.21755E-01         0.00000E+00
    0.11334E-01         0.20873E-01         0.00000E+00
    0.10882E-01         0.19990E-01         0.00000E+00
    0.10429E-01         0.19104E-01         0.00000E+00
    0.99733E-02         0.18215E-01         0.00000E+00
    0.95153E-02         0.17325E-01         0.00000E+00
    0.90546E-02         0.16432E-01         0.00000E+00
    0.85908E-02         0.15536E-01         0.00000E+00
    0.81238E-02         0.14639E-01         0.00000E+00
    0.76533E-02         0.13739E-01         0.00000E+00
    0.71790E-02         0.12837E-01         0.00000E+00
    0.67005E-02         0.11933E-01         0.00000E+00
    0.62178E-02         0.11026E-01         0.00000E+00
    0.57305E-02         0.10118E-01         0.00000E+00
    0.52383E-02         0.92073E-02         0.00000E+00
    0.47411E-02         0.82948E-02         0.00000E+00
    0.42386E-02         0.73803E-02         0.00000E+00
    0.37305E-02         0.64640E-02         0.00000E+00
    0.32167E-02         0.55457E-02         0.00000E+00
    0.26969E-02         0.46257E-02         0.00000E+00
    0.21709E-02         0.37039E-02         0.00000E+00
    0.16384E-02         0.27803E-02         0.00000E+00
    0.10992E-02         0.18551E-02         0.00000E+00
    0.55316E-03         0.92834E-03         0.00000E+00
    0.00000E+00         0.00000E+00         0.00000E+00
    0.24379E-01         0.41381E-01         0.00000E+00
    0.23865E-01         0.40580E-01         0.00000E+00
    0.23355E-01         0.39779E-01         0.00000E+00
    0.22851E-01         0.38979E-01         0.00000E+00
    0.22351E-01         0.38179E-01         0.00000E+00
    0.21856E-01         0.37380E-01         0.00000E+00
    0.21365E-01         0.36580E-01         0.00000E+00
    0.20879E-01         0.35780E-01         0.00000E+00
    0.20396E-01         0.34979E-01         0.00000E+00
    0.19917E-01         0.34178E-01         0.00000E+00
    0.19441E-01         0.33376E-01         0.00000E+00
    0.18969E-01         0.32574E-01         0.00000E+00
    0.18499E-01         0.31770E-01         0.00000E+00
    0.18032E-01         0.30965E-01         0.00000E+00
    0.17567E-01         0.30159E-01         0.00000E+00
    0.17104E-01         0.29352E-01         0.00000E+00
    0.16642E-01         0.28543E-01         0.00000E+00
    0.16183E-01         0.27732E-01         0.00000E+00
    0.15724E-01         0.26921E-01         0.00000E+00
    0.15266E-01         0.26107E-01         0.00000E+00
    0.14809E-01         0.25292E-01         0.00000E+00
    0.14352E-01         0.24475E-01         0.00000E+00
    0.13895E-01         0.23656E-01         0.00000E+00
    0.13438E-01         0.22836E-01         0.00000E+00
    0.12980E-01         0.22013E-01         0.00000E+00
    0.12521E-01         0.21189E-01         0.00000E+00
    0.12061E-01         0.20363E-01         0.00000E+00
    0.11600E-01         0.19534E-01         0.00000E+00
    0.11137E-01         0.18704E-01         0.00000E+00
    0.10671E-01         0.17872E-01         0.00000E+00
    0.10204E-01         0.17039E-01         0.00000E+00
    0.97342E-02         0.16203E-01         0.00000E+00
    0.92615E-02         0.15365E-01         0.00000E+00
    0.87857E-02         0.14526E-01         0.00000E+00
    0.83067E-02         0.13684E-01         0.00000E+00
    0.78241E-02         0.12841E-01         0.00000E+00
    0.73377E-02         0.11996E-01         0.00000E+00
    0.68473E-02         0.11149E-01         0.00000E+00
    0.63526E-02         0.10301E-01         0.00000E+00
    0.58533E-02         0.94507E-02         0.00000E+00
    0.53494E-02         0.85989E-02         0.00000E+00
    0.48404E-02         0.77454E-02         0.00000E+00
    0.43263E-02         0.68904E-02         0.00000E+00
    0.38067E-02         0.60339E-02         0.00000E+00
    0.32816E-02         0.51759E-02         0.00000E+00
    0.27505E-02         0.43165E-02         0.00000E+00
    0.22134E-02         0.34557E-02         0.00000E+00
    0.16700E-02         0.25936E-02         0.00000E+00
    0.11201E-02         0.17303E-02         0.00000E+00
    0.56351E-03         0.86570E-03         0.00000E+00
    0.00000E+00         0.00000E+00         0.00000E+00
    0.24511E-01         0.38839E-01         0.00000E+00
    0.24014E-01         0.38081E-01         0.00000E+00
    0.23520E-01         0.37323E-01         0.00000E+00
    0.23029E-01         0.36566E-01         0.00000E+00
    0.22542E-01         0.35810E-01         0.00000E+00
    0.22058E-01         0.35054E-01         0.00000E+00
    0.21577E-01         0.34297E-01         0.00000E+00
    0.21098E-01         0.33541E-01         0.00000E+00
    0.20622E-01         0.32785E-01         0.00000E+00
    0.20149E-01         0.32028E-01         0.00000E+00
    0.19678E-01         0.31271E-01         0.00000E+00
    0.19208E-01         0.30513E-01         0.00000E+00
    0.18741E-01         0.29755E-01         0.00000E+00
    0.18275E-01         0.28996E-01         0.00000E+00
    0.17810E-01         0.28236E-01         0.00000E+00
    0.17347E-01         0.27475E-01         0.00000E+00
    0.16884E-01         0.26713E-01         0.00000E+00
    0.16422E-01         0.25950E-01         0.00000E+00
    0.15961E-01         0.25185E-01         0.00000E+00
    0.15499E-01         0.24420E-01         0.00000E+00
    0.15038E-01         0.23653E-01         0.00000E+00
    0.14576E-01         0.22885E-01         0.00000E+00
    0.14114E-01         0.22115E-01         0.00000E+00
    0.13651E-01         0.21344E-01         0.00000E+00
    0.13187E-01         0.20572E-01         0.00000E+00
    0.12721E-01         0.19798E-01         0.00000E+00
    0.12255E-01         0.19023E-01         0.00000E+00
    0.11786E-01         0.18246E-01         0.00000E+00
    0.11315E-01         0.17468E-01         0.00000E+00
    0.10843E-01         0.16688E-01         0.00000E+00
    0.10367E-01         0.15906E-01         0.00000E+00
    0.98892E-02         0.15124E-01         0.00000E+00
    0.94083E-02         0.14339E-01         0.00000E+00
    0.89242E-02         0.13554E-01         0.00000E+00
    0.84367E-02         0.12766E-01         0.00000E+00
    0.79456E-02         0.11978E-01         0.00000E+00
    0.74507E-02         0.11187E-01         0.00000E+00
    0.69517E-02         0.10396E-01         0.00000E+00
    0.64484E-02         0.96032E-02         0.00000E+00
    0.59407E-02         0.88091E-02         0.00000E+00
    0.54282E-02         0.80137E-02         0.00000E+00
    0.49109E-02         0.72170E-02         0.00000E+00
    0.43884E-02         0.64192E-02         0.00000E+00
    0.38606E-02         0.56203E-02         0.00000E+00
    0.33273E-02         0.48202E-02         0.00000E+00
    0.27882E-02         0.40192E-02         0.00000E+00
    0.22433E-02         0.32171E-02         0.00000E+00
    0.16921E-02         0.24141E-02         0.00000E+00
    0.11347E-02         0.16102E-02         0.00000E+00
    0.57070E-03         0.80547E-03         0.00000E+00
    0.00000E+00         0.00000E+00         0.00000E+00
    0.24492E-01         0.36390E-01         0.00000E+00
    0.24013E-01         0.35674E-01         0.00000E+00
    0.23536E-01         0.34959E-01         0.00000E+00
    0.23061E-01         0.34244E-01         0.00000E+00
    0.22588E-01         0.33529E-01         0.00000E+00
    0.22117E-01         0.32816E-01         0.00000E+00
    0.21647E-01         0.32102E-01         0.00000E+00
    0.21180E-01         0.31389E-01         0.00000E+00
    0.20713E-01         0.30675E-01         0.00000E+00
    0.20248E-01         0.29962E-01         0.00000E+00
    0.19784E-01         0.29248E-01         0.00000E+00
    0.19321E-01         0.28534E-01         0.00000E+00
    0.18859E-01         0.27820E-01         0.00000E+00
    0.18397E-01         0.27105E-01         0.00000E+00
    0.17936E-01         0.26389E-01         0.00000E+00
    0.17475E-01         0.25673E-01         0.00000E+00
    0.17015E-01         0.24957E-01         0.00000E+00
    0.16554E-01         0.24239E-01         0.00000E+00
    0.16093E-01         0.23521E-01         0.00000E+00
    0.15631E-01         0.22802E-01         0.00000E+00
    0.15169E-01         0.22081E-01         0.00000E+00
    0.14706E-01         0.21360E-01         0.00000E+00
    0.14242E-01         0.20638E-01         0.00000E+00
    0.13777E-01         0.19915E-01         0.00000E+00
    0.13310E-01         0.19191E-01         0.00000E+00
    0.12842E-01         0.18465E-01         0.00000E+00
    0.12372E-01         0.17739E-01         0.00000E+00
    0.11899E-01         0.17011E-01         0.00000E+00
    0.11424E-01         0.16283E-01         0.00000E+00
    0.10947E-01         0.15553E-01         0.00000E+00
    0.10468E-01         0.14822E-01         0.00000E+00
    0.99848E-02         0.14090E-01         0.00000E+00
    0.94990E-02         0.13357E-01         0.00000E+00
    0.90098E-02         0.12622E-01         0.00000E+00
    0.85172E-02         0.11887E-01         0.00000E+00
    0.80209E-02         0.11150E-01         0.00000E+00
    0.75207E-02         0.10413E-01         0.00000E+00
    0.70164E-02         0.96745E-02         0.00000E+00
    0.65077E-02         0.89350E-02         0.00000E+00
    0.59946E-02         0.81946E-02         0.00000E+00
    0.54769E-02         0.74533E-02         0.00000E+00
    0.49542E-02         0.67111E-02         0.00000E+00
    0.44265E-02         0.59681E-02         0.00000E+00
    0.38935E-02         0.52243E-02         0.00000E+00
    0.33551E-02         0.44798E-02         0.00000E+00
    0.28111E-02         0.37345E-02         0.00000E+00
    0.22612E-02         0.29887E-02         0.00000E+00
    0.17054E-02         0.22422E-02         0.00000E+00
    0.11433E-02         0.14953E-02         0.00000E+00
    0.57494E-03         0.74783E-03         0.00000E+00
    0.00000E+00         0.00000E+00         0.00000E+00
    0.24341E-01         0.34040E-01         0.00000E+00
    0.23882E-01         0.33364E-01         0.00000E+00
    0.23423E-01         0.32689E-01         0.00000E+00
    0.22965E-01         0.32016E-01         0.00000E+00
    0.22508E-01         0.31342E-01         0.00000E+00
    0.22051E-01         0.30670E-01         0.00000E+00
    0.21595E-01         0.29997E-01         0.00000E+00
    0.21140E-01         0.29325E-01         0.00000E+00
    0.20685E-01         0.28654E-01         0.00000E+00
    0.20230E-01         0.27982E-01         0.00000E+00
    0.19775E-01         0.27311E-01         0.00000E+00
    0.19321E-01         0.26639E-01         0.00000E+00
    0.18866E-01         0.25967E-01         0.00000E+00
    0.18412E-01         0.25295E-01         0.00000E+00
    0.17957E-01         0.24623E-01         0.00000E+00
    0.17502E-01         0.23950E-01         0.00000E+00
    0.17046E-01         0.23277E-01         0.00000E+00
    0.16589E-01         0.22603E-01         0.00000E+00
    0.16131E-01         0.21929E-01         0.00000E+00
    0.15673E-01         0.21255E-01         0.00000E+00
    0.15213E-01         0.20579E-01         0.00000E+00
    0.14751E-01         0.19903E-01         0.00000E+00
    0.14289E-01         0.19227E-01         0.00000E+00
    0.13824E-01         0.18549E-01         0.00000E+00
    0.13358E-01         0.17871E-01         0.00000E+00
    0.12889E-01         0.17193E-01         0.00000E+00
    0.12419E-01         0.16513E-01         0.00000E+00
    0.11945E-01         0.15833E-01         0.00000E+00
    0.11470E-01         0.15151E-01         0.00000E+00
    0.10991E-01         0.14469E-01         0.00000E+00
    0.10510E-01         0.13787E-01         0.00000E+00
    0.10026E-01         0.13103E-01         0.00000E+00
    0.95380E-02         0.12419E-01         0.00000E+00
    0.90468E-02         0.11734E-01         0.00000E+00
    0.85520E-02         0.11048E-01         0.00000E+00
    0.80535E-02         0.10361E-01         0.00000E+00
    0.75509E-02         0.96742E-02         0.00000E+00
    0.70442E-02         0.89863E-02         0.00000E+00
    0.65331E-02         0.82977E-02         0.00000E+00
    0.60176E-02         0.76086E-02         0.00000E+00
    0.54974E-02         0.69189E-02         0.00000E+00
    0.49723E-02         0.62286E-02         0.00000E+00
    0.44422E-02         0.55379E-02         0.00000E+00
    0.39069E-02         0.48467E-02         0.00000E+00
    0.33662E-02         0.41551E-02         0.00000E+00
    0.28200E-02         0.34631E-02         0.00000E+00
    0.22681E-02         0.27709E-02         0.00000E+00
    0.17103E-02         0.20784E-02         0.00000E+00
    0.11465E-02         0.13857E-02         0.00000E+00
    0.57643E-03         0.69289E-03         0.00000E+00
    0.00000E+00         0.00000E+00         0.00000E+00
    0.24079E-01         0.31789E-01         0.00000E+00
    0.23639E-01         0.31154E-01         0.00000E+00
    0.23198E-01         0.30519E-01         0.00000E+00
    0.22758E-01         0.29884E-01         0.00000E+00
    0.22318E-01         0.29251E-01         0.00000E+00
    0.21877E-01         0.28618E-01         0.00000E+00
    0.21436E-01         0.27986E-01         0.00000E+00
    0.20994E-01         0.27354E-01         0.00000E+00
    0.20552E-01         0.26723E-01         0.00000E+00
    0.20109E-01         0.26092E-01         0.00000E+00
    0.19666E-01         0.25461E-01         0.00000E+00
    0.19222E-01         0.24830E-01         0.00000E+00
    0.18777E-01         0.24199E-01         0.00000E+00
    0.18332E-01         0.23568E-01         0.00000E+00
    0.17885E-01         0.22937E-01         0.00000E+00
    0.17437E-01         0.22307E-01         0.00000E+00
    0.16988E-01         0.21675E-01         0.00000E+00
    0.16538E-01         0.21044E-01         0.00000E+00
    0.16086E-01         0.20412E-01         0.00000E+00
    0.15633E-01         0.19780E-01         0.00000E+00
    0.15177E-01         0.19148E-01         0.00000E+00
    0.14720E-01         0.18516E-01         0.00000E+00
    0.14261E-01         0.17883E-01         0.00000E+00
    0.13800E-01         0.17249E-01         0.00000E+00
    0.13337E-01         0.16615E-01         0.00000E+00
    0.12871E-01         0.15981E-01         0.00000E+00
    0.12402E-01         0.15346E-01         0.00000E+00
    0.11931E-01         0.14711E-01         0.00000E+00
    0.11457E-01         0.14075E-01         0.00000E+00
    0.10980E-01         0.13438E-01         0.00000E+00
    0.10500E-01         0.12802E-01         0.00000E+00
    0.10017E-01         0.12164E-01         0.00000E+00
    0.95298E-02         0.11527E-01         0.00000E+00
    0.90393E-02         0.10889E-01         0.00000E+00
    0.85450E-02         0.10250E-01         0.00000E+00
    0.80469E-02         0.96111E-02         0.00000E+00
    0.75446E-02         0.89717E-02         0.00000E+00
    0.70381E-02         0.83320E-02         0.00000E+00
    0.65273E-02         0.76919E-02         0.00000E+00
    0.60119E-02         0.70515E-02         0.00000E+00
    0.54919E-02         0.64109E-02         0.00000E+00
    0.49670E-02         0.57701E-02         0.00000E+00
    0.44371E-02         0.51290E-02         0.00000E+00
    0.39021E-02         0.44879E-02         0.00000E+00
    0.33618E-02         0.38466E-02         0.00000E+00
    0.28160E-02         0.32053E-02         0.00000E+00
    0.22646E-02         0.25640E-02         0.00000E+00
    0.17075E-02         0.19228E-02         0.00000E+00
    0.11445E-02         0.12817E-02         0.00000E+00
    0.57534E-03         0.64071E-03         0.00000E+00
    0.00000E+00         0.00000E+00         0.00000E+00
    0.23720E-01         0.29641E-01         0.00000E+00
    0.23300E-01         0.29044E-01         0.00000E+00
    0.22879E-01         0.28447E-01         0.00000E+00
    0.22457E-01         0.27852E-01         0.00000E+00
    0.22034E-01         0.27257E-01         0.00000E+00
    0.21609E-01         0.26662E-01         0.00000E+00
    0.21184E-01         0.26069E-01         0.00000E+00
    0.20757E-01         0.25476E-01         0.00000E+00
    0.20329E-01         0.24883E-01         0.00000E+00
    0.19900E-01         0.24291E-01         0.00000E+00
    0.19469E-01         0.23699E-01         0.00000E+00
    0.19037E-01         0.23108E-01         0.00000E+00
    0.18604E-01         0.22516E-01         0.00000E+00
    0.18169E-01         0.21925E-01         0.00000E+00
    0.17732E-01         0.21334E-01         0.00000E+00
    0.17294E-01         0.20743E-01         0.00000E+00
    0.16853E-01         0.20152E-01         0.00000E+00
    0.16411E-01         0.19561E-01         0.00000E+00
    0.15967E-01         0.18970E-01         0.00000E+00
    0.15521E-01         0.18379E-01         0.00000E+00
    0.15072E-01         0.17788E-01         0.00000E+00
    0.14622E-01         0.17197E-01         0.00000E+00
    0.14169E-01         0.16606E-01         0.00000E+00
    0.13713E-01         0.16014E-01         0.00000E+00
    0.13255E-01         0.15422E-01         0.00000E+00
    0.12794E-01         0.14830E-01         0.00000E+00
    0.12330E-01         0.14238E-01         0.00000E+00
    0.11863E-01         0.13646E-01         0.00000E+00
    0.11393E-01         0.13053E-01         0.00000E+00
    0.10920E-01         0.12460E-01         0.00000E+00
    0.10443E-01         0.11867E-01         0.00000E+00
    0.99628E-02         0.11274E-01         0.00000E+00
    0.94790E-02         0.10681E-01         0.00000E+00
    0.89915E-02         0.10087E-01         0.00000E+00
    0.85001E-02         0.94935E-02         0.00000E+00
    0.80047E-02         0.88997E-02         0.00000E+00
    0.75052E-02         0.83058E-02         0.00000E+00
    0.70013E-02         0.77118E-02         0.00000E+00
    0.64931E-02         0.71177E-02         0.00000E+00
    0.59803E-02         0.65237E-02         0.00000E+00
    0.54628E-02         0.59296E-02         0.00000E+00
    0.49405E-02         0.53356E-02         0.00000E+00
    0.44132E-02         0.47418E-02         0.00000E+00
    0.38808E-02         0.41480E-02         0.00000E+00
    0.33432E-02         0.35545E-02         0.00000E+00
    0.28002E-02         0.29611E-02         0.00000E+00
    0.22518E-02         0.23681E-02         0.00000E+00
    0.16976E-02         0.17754E-02         0.00000E+00
    0.11377E-02         0.11831E-02         0.00000E+00
    0.57189E-03         0.59131E-03         0.00000E+00
    0.00000E+00         0.00000E+00         0.00000E+00
    0.23280E-01         0.27596E-01         0.00000E+00
    0.22880E-01         0.27035E-01         0.00000E+00
    0.22479E-01         0.26476E-01         0.00000E+00
    0.22075E-01         0.25917E-01         0.00000E+00
    0.21670E-01         0.25359E-01         0.00000E+00
    0.21262E-01         0.24802E-01         0.00000E+00
    0.20853E-01         0.24245E-01         0.00000E+00
    0.20442E-01         0.23690E-01         0.00000E+00
    0.20029E-01         0.23134E-01         0.00000E+00
    0.19614E-01         0.22580E-01         0.00000E+00
    0.19197E-01         0.22025E-01         0.00000E+00
    0.18778E-01         0.21472E-01         0.00000E+00
    0.18357E-01         0.20918E-01         0.00000E+00
    0.17934E-01         0.20365E-01         0.00000E+00
    0.17508E-01         0.19812E-01         0.00000E+00
    0.17081E-01         0.19260E-01         0.00000E+00
    0.16651E-01         0.18707E-01         0.00000E+00
    0.16219E-01         0.18155E-01         0.00000E+00
    0.15784E-01         0.17603E-01         0.00000E+00
    0.15346E-01         0.17051E-01         0.00000E+00
    0.14906E-01         0.16499E-01         0.00000E+00
    0.14464E-01         0.15947E-01         0.00000E+00
    0.14018E-01         0.15396E-01         0.00000E+00
    0.13570E-01         0.14844E-01         0.00000E+00
    0.13119E-01         0.14292E-01         0.00000E+00
    0.12665E-01         0.13741E-01         0.00000E+00
    0.12207E-01         0.13189E-01         0.00000E+00
    0.11746E-01         0.12638E-01         0.00000E+00
    0.11282E-01         0.12086E-01         0.00000E+00
    0.10815E-01         0.11535E-01         0.00000E+00
    0.10344E-01         0.10983E-01         0.00000E+00
    0.98688E-02         0.10432E-01         0.00000E+00
    0.93903E-02         0.98805E-02         0.00000E+00
    0.89078E-02         0.93293E-02         0.00000E+00
    0.84214E-02         0.87782E-02         0.00000E+00
    0.79308E-02         0.82272E-02         0.00000E+00
    0.74361E-02         0.76763E-02         0.00000E+00
    0.69369E-02         0.71256E-02         0.00000E+00
    0.64334E-02         0.65751E-02         0.00000E+00
    0.59252E-02         0.60249E-02         0.00000E+00
    0.54124E-02         0.54749E-02         0.00000E+00
    0.48948E-02         0.49252E-02         0.00000E+00
    0.43722E-02         0.43759E-02         0.00000E+00
    0.38446E-02         0.38270E-02         0.00000E+00
    0.33118E-02         0.32786E-02         0.00000E+00
    0.27738E-02         0.27306E-02         0.00000E+00
    0.22303E-02         0.21832E-02         0.00000E+00
    0.16814E-02         0.16363E-02         0.00000E+00
    0.11267E-02         0.10902E-02         0.00000E+00
    0.56631E-03         0.54470E-03         0.00000E+00
    0.00000E+00         0.00000E+00         0.00000E+00
    0.22773E-01         0.25652E-01         0.00000E+00
    0.22393E-01         0.25127E-01         0.00000E+00
    0.22011E-01         0.24603E-01         0.00000E+00
    0.21626E-01         0.24080E-01         0.00000E+00
    0.21238E-01         0.23558E-01         0.00000E+00
    0.20848E-01         0.23036E-01         0.00000E+00
    0.20456E-01         0.22515E-01         0.00000E+00
    0.20061E-01         0.21995E-01         0.00000E+00
    0.19663E-01         0.21476E-01         0.00000E+00
    0.19263E-01         0.20957E-01         0.00000E+00
    0.18861E-01         0.20439E-01         0.00000E+00
    0.18456E-01         0.19921E-01         0.00000E+00
    0.18048E-01         0.19404E-01         0.00000E+00
    0.17638E-01         0.18887E-01         0.00000E+00
    0.17225E-01         0.18371E-01         0.00000E+00
    0.16809E-01         0.17855E-01         0.00000E+00
    0.16390E-01         0.17339E-01         0.00000E+00
    0.15969E-01         0.16824E-01         0.00000E+00
    0.15545E-01         0.16309E-01         0.00000E+00
    0.15118E-01         0.15794E-01         0.00000E+00
    0.14688E-01         0.15280E-01         0.00000E+00
    0.14254E-01         0.14765E-01         0.00000E+00
    0.13818E-01         0.14251E-01         0.00000E+00
    0.13379E-01         0.13738E-01         0.00000E+00
    0.12936E-01         0.13224E-01         0.00000E+00
    0.12490E-01         0.12711E-01         0.00000E+00
    0.12041E-01         0.12198E-01         0.00000E+00
    0.11588E-01         0.11685E-01         0.00000E+00
    0.11131E-01         0.11173E-01         0.00000E+00
    0.10671E-01         0.10661E-01         0.00000E+00
    0.10207E-01         0.10149E-01         0.00000E+00
    0.97396E-02         0.96368E-02         0.00000E+00
    0.92680E-02         0.91253E-02         0.00000E+00
    0.87924E-02         0.86141E-02         0.00000E+00
    0.83127E-02         0.81033E-02         0.00000E+00
    0.78288E-02         0.75928E-02         0.00000E+00
    0.73407E-02         0.70826E-02         0.00000E+00
    0.68481E-02         0.65729E-02         0.00000E+00
    0.63511E-02         0.60636E-02         0.00000E+00
    0.58494E-02         0.55547E-02         0.00000E+00
    0.53431E-02         0.50464E-02         0.00000E+00
    0.48320E-02         0.45385E-02         0.00000E+00
    0.43161E-02         0.40313E-02         0.00000E+00
    0.37951E-02         0.35247E-02         0.00000E+00
    0.32691E-02         0.30187E-02         0.00000E+00
    0.27378E-02         0.25135E-02         0.00000E+00
    0.22013E-02         0.20091E-02         0.00000E+00
    0.16593E-02         0.15054E-02         0.00000E+00
    0.11119E-02         0.10027E-02         0.00000E+00
    0.55881E-03         0.50083E-03         0.00000E+00
    0.00000E+00         0.00000E+00         0.00000E+00
    0.22211E-01         0.23809E-01         0.00000E+00
    0.21851E-01         0.23318E-01         0.00000E+00
    0.21487E-01         0.22828E-01         0.00000E+00
    0.21121E-01         0.22339E-01         0.00000E+00
    0.20751E-01         0.21851E-01         0.00000E+00
    0.20379E-01         0.21364E-01         0.00000E+00
    0.20003E-01         0.20877E-01         0.00000E+00
    0.19625E-01         0.20391E-01         0.00000E+00
    0.19243E-01         0.19906E-01         0.00000E+00
    0.18858E-01         0.19422E-01         0.00000E+00
    0.18471E-01         0.18938E-01         0.00000E+00
    0.18080E-01         0.18454E-01         0.00000E+00
    0.17686E-01         0.17972E-01         0.00000E+00
    0.17290E-01         0.17490E-01         0.00000E+00
    0.16890E-01         0.17008E-01         0.00000E+00
    0.16487E-01         0.16527E-01         0.00000E+00
    0.16081E-01         0.16046E-01         0.00000E+00
    0.15671E-01         0.15566E-01         0.00000E+00
    0.15259E-01         0.15087E-01         0.00000E+00
    0.14843E-01         0.14607E-01         0.00000E+00
    0.14424E-01         0.14128E-01         0.00000E+00
    0.14001E-01         0.13650E-01         0.00000E+00
    0.13575E-01         0.13172E-01         0.00000E+00
    0.13146E-01         0.12694E-01         0.00000E+00
    0.12713E-01         0.12217E-01         0.00000E+00
    0.12277E-01         0.11740E-01         0.00000E+00
    0.11837E-01         0.11264E-01         0.00000E+00
    0.11393E-01         0.10788E-01         0.00000E+00
    0.10946E-01         0.10312E-01         0.00000E+00
    0.10494E-01         0.98371E-02         0.00000E+00
    0.10039E-01         0.93623E-02         0.00000E+00
    0.95800E-02         0.88880E-02         0.00000E+00
    0.91168E-02         0.84142E-02         0.00000E+00
    0.86496E-02         0.79409E-02         0.00000E+00
    0.81781E-02         0.74681E-02         0.00000E+00
    0.77024E-02         0.69958E-02         0.00000E+00
    0.72224E-02         0.65241E-02         0.00000E+00
    0.67380E-02         0.60529E-02         0.00000E+00
    0.62490E-02         0.55824E-02         0.00000E+00
    0.57555E-02         0.51126E-02         0.00000E+00
    0.52573E-02         0.46434E-02         0.00000E+00
    0.47544E-02         0.41750E-02         0.00000E+00
    0.42467E-02         0.37074E-02         0.00000E+00
    0.37340E-02         0.32406E-02         0.00000E+00
    0.32163E-02         0.27746E-02         0.00000E+00
    0.26935E-02         0.23096E-02         0.00000E+00
    0.21656E-02         0.18455E-02         0.00000E+00
    0.16323E-02         0.13825E-02         0.00000E+00
    0.10937E-02         0.92050E-03         0.00000E+00
    0.54963E-03         0.45965E-03         0.00000E+00
    0.00000E+00         0.00000E+00         0.00000E+00
    0.21604E-01         0.22065E-01         0.00000E+00
    0.21263E-01         0.21607E-01         0.00000E+00
    0.20919E-01         0.21149E-01         0.00000E+00
    0.20571E-01         0.20693E-01         0.00000E+00
    0.20219E-01         0.20237E-01         0.00000E+00
    0.19864E-01         0.19783E-01         0.00000E+00
    0.19506E-01         0.19329E-01         0.00000E+00
    0.19143E-01         0.18875E-01         0.00000E+00
    0.18778E-01         0.18423E-01         0.00000E+00
    0.18409E-01         0.17971E-01         0.00000E+00
    0.18037E-01         0.17520E-01         0.00000E+00
    0.17661E-01         0.17070E-01         0.00000E+00
    0.17281E-01         0.16620E-01         0.00000E+00
    0.16899E-01         0.16171E-01         0.00000E+00
    0.16512E-01         0.15723E-01         0.00000E+00
    0.16123E-01         0.15275E-01         0.00000E+00
    0.15730E-01         0.14827E-01         0.00000E+00
    0.15333E-01         0.14381E-01         0.00000E+00
    0.14933E-01         0.13935E-01         0.00000E+00
    0.14529E-01         0.13489E-01         0.00000E+00
    0.14122E-01         0.13044E-01         0.00000E+00
    0.13711E-01         0.12599E-01         0.00000E+00
    0.13296E-01         0.12155E-01         0.00000E+00
    0.12878E-01         0.11712E-01         0.00000E+00
    0.12456E-01         0.11269E-01         0.00000E+00
    0.12030E-01         0.10827E-01         0.00000E+00
    0.11601E-01         0.10385E-01         0.00000E+00
    0.11167E-01         0.99435E-02         0.00000E+00
    0.10730E-01         0.95028E-02         0.00000E+00
    0.10289E-01         0.90627E-02         0.00000E+00
    0.98436E-02         0.86232E-02         0.00000E+00
    0.93943E-02         0.81843E-02         0.00000E+00
    0.89408E-02         0.77460E-02         0.00000E+00
    0.84832E-02         0.73084E-02         0.00000E+00
    0.80213E-02         0.68714E-02         0.00000E+00
    0.75551E-02         0.64351E-02         0.00000E+00
    0.70846E-02         0.59996E-02         0.00000E+00
    0.66096E-02         0.55649E-02         0.00000E+00
    0.61301E-02         0.51309E-02         0.00000E+00
    0.56461E-02         0.46977E-02         0.00000E+00
    0.51574E-02         0.42655E-02         0.00000E+00
    0.46640E-02         0.38341E-02         0.00000E+00
    0.41659E-02         0.34036E-02         0.00000E+00
    0.36629E-02         0.29742E-02         0.00000E+00
    0.31550E-02         0.25458E-02         0.00000E+00
    0.26421E-02         0.21185E-02         0.00000E+00
    0.21241E-02         0.16923E-02         0.00000E+00
    0.16010E-02         0.12673E-02         0.00000E+00
    0.10726E-02         0.84355E-03         0.00000E+00
    0.53901E-03         0.42109E-03         0.00000E+00
    0.00000E+00         0.00000E+00         0.00000E+00
    0.20964E-01         0.20418E-01         0.00000E+00
    0.20642E-01         0.19991E-01         0.00000E+00
    0.20316E-01         0.19564E-01         0.00000E+00
    0.19986E-01         0.19139E-01         0.00000E+00
    0.19652E-01         0.18714E-01         0.00000E+00
    0.19314E-01         0.18291E-01         0.00000E+00
    0.18972E-01         0.17868E-01         0.00000E+00
    0.18626E-01         0.17446E-01         0.00000E+00
    0.18277E-01         0.17024E-01         0.00000E+00
    0.17924E-01         0.16604E-01         0.00000E+00
    0.17567E-01         0.16184E-01         0.00000E+00
    0.17206E-01         0.15765E-01         0.00000E+00
    0.16841E-01         0.15347E-01         0.00000E+00
    0.16473E-01         0.14929E-01         0.00000E+00
    0.16101E-01         0.14512E-01         0.00000E+00
    0.15725E-01         0.14096E-01         0.00000E+00
    0.15345E-01         0.13680E-01         0.00000E+00
    0.14962E-01         0.13265E-01         0.00000E+00
    0.14575E-01         0.12851E-01         0.00000E+00
    0.14184E-01         0.12437E-01         0.00000E+00
    0.13789E-01         0.12024E-01         0.00000E+00
    0.13390E-01         0.11612E-01         0.00000E+00
    0.12988E-01         0.11200E-01         0.00000E+00
    0.12581E-01         0.10789E-01         0.00000E+00
    0.12171E-01         0.10378E-01         0.00000E+00
    0.11757E-01         0.99684E-02         0.00000E+00
    0.11339E-01         0.95593E-02         0.00000E+00
    0.10916E-01         0.91508E-02         0.00000E+00
    0.10490E-01         0.87431E-02         0.00000E+00
    0.10060E-01         0.83360E-02         0.00000E+00
    0.96255E-02         0.79297E-02         0.00000E+00
    0.91870E-02         0.75241E-02         0.00000E+00
    0.87442E-02         0.71193E-02         0.00000E+00
    0.82972E-02         0.67153E-02         0.00000E+00
    0.78459E-02         0.63121E-02         0.00000E+00
    0.73903E-02         0.59097E-02         0.00000E+00
    0.69303E-02         0.55082E-02         0.00000E+00
    0.64659E-02         0.51076E-02         0.00000E+00
    0.59970E-02         0.47080E-02         0.00000E+00
    0.55236E-02         0.43093E-02         0.00000E+00
    0.50456E-02         0.39116E-02         0.00000E+00
    0.45629E-02         0.35150E-02         0.00000E+00
    0.40755E-02         0.31194E-02         0.00000E+00
    0.35834E-02         0.27250E-02         0.00000E+00
    0.30864E-02         0.23318E-02         0.00000E+00
    0.25845E-02         0.19398E-02         0.00000E+00
    0.20778E-02         0.15491E-02         0.00000E+00
    0.15660E-02         0.11597E-02         0.00000E+00
    0.10491E-02         0.77165E-03         0.00000E+00
    0.52716E-03         0.38508E-03         0.00000E+00
    0.00000E+00         0.00000E+00         0.00000E+00
    0.20298E-01         0.18864E-01         0.00000E+00
    0.19994E-01         0.18467E-01         0.00000E+00
    0.19686E-01         0.18070E-01         0.00000E+00
    0.19374E-01         0.17674E-01         0.00000E+00
    0.19057E-01         0.17279E-01         0.00000E+00
    0.18736E-01         0.16885E-01         0.00000E+00
    0.18411E-01         0.16492E-01         0.00000E+00
    0.18082E-01         0.16100E-01         0.00000E+00
    0.17748E-01         0.15708E-01         0.00000E+00
    0.17411E-01         0.15317E-01         0.00000E+00
    0.17069E-01         0.14927E-01         0.00000E+00
    0.16723E-01         0.14538E-01         0.00000E+00
    0.16374E-01         0.14149E-01         0.00000E+00
    0.16020E-01         0.13761E-01         0.00000E+00
    0.15662E-01         0.13374E-01         0.00000E+00
    0.15300E-01         0.12988E-01         0.00000E+00
    0.14934E-01         0.12602E-01         0.00000E+00
    0.14565E-01         0.12217E-01         0.00000E+00
    0.14191E-01         0.11833E-01         0.00000E+00
    0.13813E-01         0.11449E-01         0.00000E+00
    0.13431E-01         0.11067E-01         0.00000E+00
    0.13045E-01         0.10684E-01         0.00000E+00
    0.12655E-01         0.10303E-01         0.00000E+00
    0.12261E-01         0.99226E-02         0.00000E+00
    0.11863E-01         0.95428E-02         0.00000E+00
    0.11461E-01         0.91637E-02         0.00000E+00
    0.11055E-01         0.87854E-02         0.00000E+00
    0.10645E-01         0.84079E-02         0.00000E+00
    0.10230E-01         0.80312E-02         0.00000E+00
    0.98118E-02         0.76553E-02         0.00000E+00
    0.93890E-02         0.72802E-02         0.00000E+00
    0.89620E-02         0.69060E-02         0.00000E+00
    0.85308E-02         0.65327E-02         0.00000E+00
    0.80953E-02         0.61603E-02         0.00000E+00
    0.76554E-02         0.57888E-02         0.00000E+00
    0.72113E-02         0.54182E-02         0.00000E+00
    0.67627E-02         0.50487E-02         0.00000E+00
    0.63098E-02         0.46802E-02         0.00000E+00
    0.58524E-02         0.43127E-02         0.00000E+00
    0.53904E-02         0.39463E-02         0.00000E+00
    0.49240E-02         0.35810E-02         0.00000E+00
    0.44529E-02         0.32169E-02         0.00000E+00
    0.39773E-02         0.28540E-02         0.00000E+00
    0.34969E-02         0.24924E-02         0.00000E+00
    0.30119E-02         0.21321E-02         0.00000E+00
    0.25221E-02         0.17730E-02         0.00000E+00
    0.20275E-02         0.14154E-02         0.00000E+00
    0.15280E-02         0.10593E-02         0.00000E+00
    0.10236E-02         0.70461E-03         0.00000E+00
    0.51433E-03         0.35150E-03         0.00000E+00
    0.00000E+00         0.00000E+00         0.00000E+00
    0.19615E-01         0.17402E-01         0.00000E+00
    0.19329E-01         0.17033E-01         0.00000E+00
    0.19039E-01         0.16664E-01         0.00000E+00
    0.18743E-01         0.16297E-01         0.00000E+00
    0.18444E-01         0.15930E-01         0.00000E+00
    0.18139E-01         0.15564E-01         0.00000E+00
    0.17831E-01         0.15199E-01         0.00000E+00
    0.17517E-01         0.14834E-01         0.00000E+00
    0.17200E-01         0.14471E-01         0.00000E+00
    0.16878E-01         0.14108E-01         0.00000E+00
    0.16551E-01         0.13746E-01         0.00000E+00
    0.16221E-01         0.13385E-01         0.00000E+00
    0.15886E-01         0.13025E-01         0.00000E+00
    0.15547E-01         0.12665E-01         0.00000E+00
    0.15203E-01         0.12306E-01         0.00000E+00
    0.14855E-01         0.11948E-01         0.00000E+00
    0.14504E-01         0.11591E-01         0.00000E+00
    0.14148E-01         0.11234E-01         0.00000E+00
    0.13787E-01         0.10878E-01         0.00000E+00
    0.13423E-01         0.10523E-01         0.00000E+00
    0.13054E-01         0.10169E-01         0.00000E+00
    0.12681E-01         0.98159E-02         0.00000E+00
    0.12305E-01         0.94633E-02         0.00000E+00
    0.11923E-01         0.91115E-02         0.00000E+00
    0.11538E-01         0.87606E-02         0.00000E+00
    0.11149E-01         0.84105E-02         0.00000E+00
    0.10755E-01         0.80612E-02         0.00000E+00
    0.10357E-01         0.77129E-02         0.00000E+00
    0.99550E-02         0.73654E-02         0.00000E+00
    0.95487E-02         0.70188E-02         0.00000E+00
    0.91381E-02         0.66731E-02         0.00000E+00
    0.87233E-02         0.63284E-02         0.00000E+00
    0.83042E-02         0.59846E-02         0.00000E+00
    0.78808E-02         0.56418E-02         0.00000E+00
    0.74531E-02         0.53001E-02         0.00000E+00
    0.70210E-02         0.49594E-02         0.00000E+00
    0.65846E-02         0.46198E-02         0.00000E+00
    0.61438E-02         0.42813E-02         0.00000E+00
    0.56986E-02         0.39439E-02         0.00000E+00
    0.52489E-02         0.36077E-02         0.00000E+00
    0.47947E-02         0.32728E-02         0.00000E+00
    0.43361E-02         0.29391E-02         0.00000E+00
    0.38729E-02         0.26067E-02         0.00000E+00
    0.34051E-02         0.22757E-02         0.00000E+00
    0.29327E-02         0.19460E-02         0.00000E+00
    0.24557E-02         0.16178E-02         0.00000E+00
    0.19741E-02         0.12911E-02         0.00000E+00
    0.14877E-02         0.96585E-03         0.00000E+00
    0.99659E-03         0.64224E-03         0.00000E+00
    0.50070E-03         0.32027E-03         0.00000E+00
    0.00000E+00         0.00000E+00         0.00000E+00
    0.18923E-01         0.16028E-01         0.00000E+00
    0.18654E-01         0.15686E-01         0.00000E+00
    0.18380E-01         0.15344E-01         0.00000E+00
    0.18102E-01         0.15003E-01         0.00000E+00
    0.17818E-01         0.14663E-01         0.00000E+00
    0.17530E-01         0.14323E-01         0.00000E+00
    0.17237E-01         0.13985E-01         0.00000E+00
    0.16940E-01         0.13647E-01         0.00000E+00
    0.16638E-01         0.13310E-01         0.00000E+00
    0.16331E-01         0.12974E-01         0.00000E+00
    0.16020E-01         0.12639E-01         0.00000E+00
    0.15704E-01         0.12304E-01         0.00000E+00
    0.15384E-01         0.11970E-01         0.00000E+00
    0.15059E-01         0.11637E-01         0.00000E+00
    0.14730E-01         0.11305E-01         0.00000E+00
    0.14396E-01         0.10974E-01         0.00000E+00
    0.14059E-01         0.10643E-01         0.00000E+00
    0.13716E-01         0.10314E-01         0.00000E+00
    0.13370E-01         0.99849E-02         0.00000E+00
    0.13019E-01         0.96569E-02         0.00000E+00
    0.12664E-01         0.93297E-02         0.00000E+00
    0.12304E-01         0.90034E-02         0.00000E+00
    0.11940E-01         0.86779E-02         0.00000E+00
    0.11572E-01         0.83532E-02         0.00000E+00
    0.11200E-01         0.80295E-02         0.00000E+00
    0.10824E-01         0.77066E-02         0.00000E+00
    0.10443E-01         0.73847E-02         0.00000E+00
    0.10058E-01         0.70637E-02         0.00000E+00
    0.96682E-02         0.67437E-02         0.00000E+00
    0.92745E-02         0.64246E-02         0.00000E+00
    0.88765E-02         0.61065E-02         0.00000E+00
    0.84743E-02         0.57894E-02         0.00000E+00
    0.80678E-02         0.54734E-02         0.00000E+00
    0.76570E-02         0.51584E-02         0.00000E+00
    0.72419E-02         0.48445E-02         0.00000E+00
    0.68224E-02         0.45317E-02         0.00000E+00
    0.63986E-02         0.42201E-02         0.00000E+00
    0.59705E-02         0.39097E-02         0.00000E+00
    0.55379E-02         0.36005E-02         0.00000E+00
    0.51010E-02         0.32926E-02         0.00000E+00
    0.46597E-02         0.29859E-02         0.00000E+00
    0.42140E-02         0.26806E-02         0.00000E+00
    0.37638E-02         0.23767E-02         0.00000E+00
    0.33092E-02         0.20741E-02         0.00000E+00
    0.28501E-02         0.17731E-02         0.00000E+00
    0.23865E-02         0.14735E-02         0.00000E+00
    0.19183E-02         0.11755E-02         0.00000E+00
    0.14456E-02         0.87908E-03         0.00000E+00
    0.96837E-03         0.58433E-03         0.00000E+00
    0.48650E-03         0.29129E-03         0.00000E+00
    0.00000E+00         0.00000E+00         0.00000E+00
    0.18228E-01         0.14739E-01         0.00000E+00
    0.17975E-01         0.14421E-01         0.00000E+00
    0.17718E-01         0.14105E-01         0.00000E+00
    0.17455E-01         0.13789E-01         0.00000E+00
    0.17188E-01         0.13474E-01         0.00000E+00
    0.16915E-01         0.13160E-01         0.00000E+00
    0.16638E-01         0.12847E-01         0.00000E+00
    0.16356E-01         0.12534E-01         0.00000E+00
    0.16069E-01         0.12222E-01         0.00000E+00
    0.15777E-01         0.11911E-01         0.00000E+00
    0.15481E-01         0.11601E-01         0.00000E+00
    0.15179E-01         0.11292E-01         0.00000E+00
    0.14874E-01         0.10983E-01         0.00000E+00
    0.14563E-01         0.10676E-01         0.00000E+00
    0.14248E-01         0.10369E-01         0.00000E+00
    0.13929E-01         0.10063E-01         0.00000E+00
    0.13605E-01         0.97577E-02         0.00000E+00
    0.13276E-01         0.94533E-02         0.00000E+00
    0.12944E-01         0.91498E-02         0.00000E+00
    0.12606E-01         0.88472E-02         0.00000E+00
    0.12264E-01         0.85454E-02         0.00000E+00
    0.11918E-01         0.82445E-02         0.00000E+00
    0.11568E-01         0.79445E-02         0.00000E+00
    0.11213E-01         0.76454E-02         0.00000E+00
    0.10854E-01         0.73472E-02         0.00000E+00
    0.10490E-01         0.70500E-02         0.00000E+00
    0.10122E-01         0.67537E-02         0.00000E+00
    0.97501E-02         0.64584E-02         0.00000E+00
    0.93736E-02         0.61641E-02         0.00000E+00
    0.89929E-02         0.58708E-02         0.00000E+00
    0.86078E-02         0.55786E-02         0.00000E+00
    0.82184E-02         0.52874E-02         0.00000E+00
    0.78248E-02         0.49973E-02         0.00000E+00
    0.74268E-02         0.47083E-02         0.00000E+00
    0.70246E-02         0.44205E-02         0.00000E+00
    0.66180E-02         0.41339E-02         0.00000E+00
    0.62072E-02         0.38484E-02         0.00000E+00
    0.57921E-02         0.35642E-02         0.00000E+00
    0.53726E-02         0.32813E-02         0.00000E+00
    0.49489E-02         0.29997E-02         0.00000E+00
    0.45208E-02         0.27194E-02         0.00000E+00
    0.40884E-02         0.24405E-02         0.00000E+00
    0.36516E-02         0.21631E-02         0.00000E+00
    0.32105E-02         0.18871E-02         0.00000E+00
    0.27650E-02         0.16126E-02         0.00000E+00
    0.23152E-02         0.13397E-02         0.00000E+00
    0.18610E-02         0.10683E-02         0.00000E+00
    0.14024E-02         0.79865E-03         0.00000E+00
    0.93934E-03         0.53067E-03         0.00000E+00
    0.47189E-03         0.26443E-03         0.00000E+00
    0.00000E+00         0.00000E+00         0.00000E+00
    0.17536E-01         0.13530E-01         0.00000E+00
    0.17299E-01         0.13237E-01         0.00000E+00
    0.17057E-01         0.12944E-01         0.00000E+00
    0.16810E-01         0.12652E-01         0.00000E+00
    0.16558E-01         0.12361E-01         0.00000E+00
    0.16301E-01         0.12071E-01         0.00000E+00
    0.16038E-01         0.11781E-01         0.00000E+00
    0.15771E-01         0.11493E-01         0.00000E+00
    0.15499E-01         0.11205E-01         0.00000E+00
    0.15221E-01         0.10918E-01         0.00000E+00
    0.14939E-01         0.10631E-01         0.00000E+00
    0.14652E-01         0.10346E-01         0.00000E+00
    0.14361E-01         0.10061E-01         0.00000E+00
    0.14064E-01         0.97772E-02         0.00000E+00
    0.13763E-01         0.94941E-02         0.00000E+00
    0.13458E-01         0.92119E-02         0.00000E+00
    0.13147E-01         0.89306E-02         0.00000E+00
    0.12833E-01         0.86500E-02         0.00000E+00
    0.12513E-01         0.83704E-02         0.00000E+00
    0.12189E-01         0.80916E-02         0.00000E+00
    0.11861E-01         0.78137E-02         0.00000E+00
    0.11528E-01         0.75368E-02         0.00000E+00
    0.11191E-01         0.72607E-02         0.00000E+00
    0.10849E-01         0.69856E-02         0.00000E+00
    0.10503E-01         0.67114E-02         0.00000E+00
    0.10152E-01         0.64382E-02         0.00000E+00
    0.97975E-02         0.61660E-02         0.00000E+00
    0.94384E-02         0.58948E-02         0.00000E+00
    0.90749E-02         0.56246E-02         0.00000E+00
    0.87071E-02         0.53555E-02         0.00000E+00
    0.83350E-02         0.50875E-02         0.00000E+00
    0.79586E-02         0.48205E-02         0.00000E+00
    0.75780E-02         0.45547E-02         0.00000E+00
    0.71930E-02         0.42901E-02         0.00000E+00
    0.68039E-02         0.40266E-02         0.00000E+00
    0.64104E-02         0.37643E-02         0.00000E+00
    0.60127E-02         0.35033E-02         0.00000E+00
    0.56108E-02         0.32435E-02         0.00000E+00
    0.52046E-02         0.29851E-02         0.00000E+00
    0.47942E-02         0.27280E-02         0.00000E+00
    0.43796E-02         0.24723E-02         0.00000E+00
    0.39607E-02         0.22180E-02         0.00000E+00
    0.35376E-02         0.19651E-02         0.00000E+00
    0.31102E-02         0.17138E-02         0.00000E+00
    0.26786E-02         0.14640E-02         0.00000E+00
    0.22428E-02         0.12158E-02         0.00000E+00
    0.18027E-02         0.96916E-03         0.00000E+00
    0.13584E-02         0.72424E-03         0.00000E+00
    0.90986E-03         0.48104E-03         0.00000E+00
    0.45706E-03         0.23961E-03         0.00000E+00
    0.00000E+00         0.00000E+00         0.00000E+00
    0.16852E-01         0.12399E-01         0.00000E+00
    0.16631E-01         0.12128E-01         0.00000E+00
    0.16404E-01         0.11858E-01         0.00000E+00
    0.16172E-01         0.11589E-01         0.00000E+00
    0.15934E-01         0.11320E-01         0.00000E+00
    0.15691E-01         0.11052E-01         0.00000E+00
    0.15443E-01         0.10785E-01         0.00000E+00
    0.15190E-01         0.10519E-01         0.00000E+00
    0.14932E-01         0.10254E-01         0.00000E+00
    0.14669E-01         0.99891E-02         0.00000E+00
    0.14401E-01         0.97252E-02         0.00000E+00
    0.14128E-01         0.94622E-02         0.00000E+00
    0.13850E-01         0.91999E-02         0.00000E+00
    0.13567E-01         0.89385E-02         0.00000E+00
    0.13280E-01         0.86779E-02         0.00000E+00
    0.12987E-01         0.84181E-02         0.00000E+00
    0.12690E-01         0.81591E-02         0.00000E+00
    0.12389E-01         0.79011E-02         0.00000E+00
    0.12083E-01         0.76439E-02         0.00000E+00
    0.11772E-01         0.73875E-02         0.00000E+00
    0.11457E-01         0.71321E-02         0.00000E+00
    0.11137E-01         0.68776E-02         0.00000E+00
    0.10813E-01         0.66241E-02         0.00000E+00
    0.10484E-01         0.63714E-02         0.00000E+00
    0.10151E-01         0.61198E-02         0.00000E+00
    0.98137E-02         0.58691E-02         0.00000E+00
    0.94718E-02         0.56195E-02         0.00000E+00
    0.91256E-02         0.53708E-02         0.00000E+00
    0.87751E-02         0.51233E-02         0.00000E+00
    0.84202E-02         0.48768E-02         0.00000E+00
    0.80611E-02         0.46313E-02         0.00000E+00
    0.76977E-02         0.43870E-02         0.00000E+00
    0.73300E-02         0.41439E-02         0.00000E+00
    0.69582E-02         0.39019E-02         0.00000E+00
    0.65821E-02         0.36611E-02         0.00000E+00
    0.62017E-02         0.34216E-02         0.00000E+00
    0.58172E-02         0.31833E-02         0.00000E+00
    0.54286E-02         0.29463E-02         0.00000E+00
    0.50357E-02         0.27107E-02         0.00000E+00
    0.46387E-02         0.24764E-02         0.00000E+00
    0.42376E-02         0.22435E-02         0.00000E+00
    0.38323E-02         0.20120E-02         0.00000E+00
    0.34229E-02         0.17820E-02         0.00000E+00
    0.30094E-02         0.15535E-02         0.00000E+00
    0.25917E-02         0.13266E-02         0.00000E+00
    0.21700E-02         0.11013E-02         0.00000E+00
    0.17442E-02         0.87755E-03         0.00000E+00
    0.13142E-02         0.65552E-03         0.00000E+00
    0.88024E-03         0.43523E-03         0.00000E+00
    0.44215E-03         0.21670E-03         0.00000E+00
    0.00000E+00         0.00000E+00         0.00000E+00
    0.16183E-01         0.11341E-01         0.00000E+00
    0.15975E-01         0.11091E-01         0.00000E+00
    0.15762E-01         0.10843E-01         0.00000E+00
    0.15544E-01         0.10595E-01         0.00000E+00
    0.15321E-01         0.10348E-01         0.00000E+00
    0.15092E-01         0.10101E-01         0.00000E+00
    0.14857E-01         0.98554E-02         0.00000E+00
    0.14618E-01         0.96104E-02         0.00000E+00
    0.14373E-01         0.93661E-02         0.00000E+00
    0.14124E-01         0.91226E-02         0.00000E+00
    0.13869E-01         0.88799E-02         0.00000E+00
    0.13609E-01         0.86380E-02         0.00000E+00
    0.13345E-01         0.83969E-02         0.00000E+00
    0.13075E-01         0.81566E-02         0.00000E+00
    0.12801E-01         0.79171E-02         0.00000E+00
    0.12522E-01         0.76784E-02         0.00000E+00
    0.12238E-01         0.74406E-02         0.00000E+00
    0.11950E-01         0.72036E-02         0.00000E+00
    0.11657E-01         0.69675E-02         0.00000E+00
    0.11359E-01         0.67322E-02         0.00000E+00
    0.11056E-01         0.64979E-02         0.00000E+00
    0.10750E-01         0.62645E-02         0.00000E+00
    0.10438E-01         0.60320E-02         0.00000E+00
    0.10122E-01         0.58005E-02         0.00000E+00
    0.98020E-02         0.55700E-02         0.00000E+00
    0.94773E-02         0.53404E-02         0.00000E+00
    0.91482E-02         0.51119E-02         0.00000E+00
    0.88148E-02         0.48844E-02         0.00000E+00
    0.84770E-02         0.46579E-02         0.00000E+00
    0.81350E-02         0.44325E-02         0.00000E+00
    0.77887E-02         0.42082E-02         0.00000E+00
    0.74381E-02         0.39851E-02         0.00000E+00
    0.70834E-02         0.37631E-02         0.00000E+00
    0.67244E-02         0.35423E-02         0.00000E+00
    0.63613E-02         0.33226E-02         0.00000E+00
    0.59941E-02         0.31043E-02         0.00000E+00
    0.56227E-02         0.28871E-02         0.00000E+00
    0.52472E-02         0.26713E-02         0.00000E+00
    0.48676E-02         0.24568E-02         0.00000E+00
    0.44839E-02         0.22437E-02         0.00000E+00
    0.40962E-02         0.20320E-02         0.00000E+00
    0.37045E-02         0.18217E-02         0.00000E+00
    0.33088E-02         0.16129E-02         0.00000E+00
    0.29090E-02         0.14056E-02         0.00000E+00
    0.25053E-02         0.11998E-02         0.00000E+00
    0.20975E-02         0.99561E-03         0.00000E+00
    0.16859E-02         0.79305E-03         0.00000E+00
    0.12703E-02         0.59217E-03         0.00000E+00
    0.85076E-03         0.39301E-03         0.00000E+00
    0.42733E-03         0.19560E-03         0.00000E+00
    0.00000E+00         0.00000E+00         0.00000E+00
    0.15530E-01         0.10352E-01         0.00000E+00
    0.15337E-01         0.10123E-01         0.00000E+00
    0.15137E-01         0.98946E-02         0.00000E+00
    0.14932E-01         0.96668E-02         0.00000E+00
    0.14722E-01         0.94397E-02         0.00000E+00
    0.14506E-01         0.92133E-02         0.00000E+00
    0.14285E-01         0.89876E-02         0.00000E+00
    0.14059E-01         0.87626E-02         0.00000E+00
    0.13827E-01         0.85383E-02         0.00000E+00
    0.13590E-01         0.83148E-02         0.00000E+00
    0.13349E-01         0.80920E-02         0.00000E+00
    0.13102E-01         0.78700E-02         0.00000E+00
    0.12850E-01         0.76488E-02         0.00000E+00
    0.12593E-01         0.74284E-02         0.00000E+00
    0.12332E-01         0.72087E-02         0.00000E+00
    0.12065E-01         0.69899E-02         0.00000E+00
    0.11794E-01         0.67719E-02         0.00000E+00
    0.11518E-01         0.65547E-02         0.00000E+00
    0.11238E-01         0.63384E-02         0.00000E+00
    0.10953E-01         0.61230E-02         0.00000E+00
    0.10663E-01         0.59085E-02         0.00000E+00
    0.10368E-01         0.56948E-02         0.00000E+00
    0.10069E-01         0.54821E-02         0.00000E+00
    0.97661E-02         0.52704E-02         0.00000E+00
    0.94583E-02         0.50596E-02         0.00000E+00
    0.91461E-02         0.48498E-02         0.00000E+00
    0.88295E-02         0.46410E-02         0.00000E+00
    0.85086E-02         0.44332E-02         0.00000E+00
    0.81834E-02         0.42265E-02         0.00000E+00
    0.78539E-02         0.40208E-02         0.00000E+00
    0.75202E-02         0.38163E-02         0.00000E+00
    0.71823E-02         0.36128E-02         0.00000E+00
    0.68402E-02         0.34105E-02         0.00000E+00
    0.64940E-02         0.32094E-02         0.00000E+00
    0.61437E-02         0.30095E-02         0.00000E+00
    0.57892E-02         0.28108E-02         0.00000E+00
    0.54308E-02         0.26133E-02         0.00000E+00
    0.50683E-02         0.24172E-02         0.00000E+00
    0.47017E-02         0.22224E-02         0.00000E+00
    0.43313E-02         0.20289E-02         0.00000E+00
    0.39568E-02         0.18368E-02         0.00000E+00
    0.35784E-02         0.16461E-02         0.00000E+00
    0.31961E-02         0.14569E-02         0.00000E+00
    0.28100E-02         0.12691E-02         0.00000E+00
    0.24200E-02         0.10829E-02         0.00000E+00
    0.20261E-02         0.89830E-03         0.00000E+00
    0.16284E-02         0.71526E-03         0.00000E+00
    0.12269E-02         0.53387E-03         0.00000E+00
    0.82170E-03         0.35417E-03         0.00000E+00
    0.41271E-03         0.17620E-03         0.00000E+00
    0.00000E+00         0.00000E+00         0.00000E+00
    0.14900E-01         0.94294E-02         0.00000E+00
    0.14719E-01         0.92193E-02         0.00000E+00
    0.14532E-01         0.90099E-02         0.00000E+00
    0.14340E-01         0.88011E-02         0.00000E+00
    0.14142E-01         0.85929E-02         0.00000E+00
    0.13939E-01         0.83854E-02         0.00000E+00
    0.13730E-01         0.81786E-02         0.00000E+00
    0.13516E-01         0.79724E-02         0.00000E+00
    0.13297E-01         0.77670E-02         0.00000E+00
    0.13073E-01         0.75622E-02         0.00000E+00
    0.12843E-01         0.73582E-02         0.00000E+00
    0.12609E-01         0.71550E-02         0.00000E+00
    0.12369E-01         0.69524E-02         0.00000E+00
    0.12125E-01         0.67507E-02         0.00000E+00
    0.11875E-01         0.65497E-02         0.00000E+00
    0.11621E-01         0.63495E-02         0.00000E+00
    0.11362E-01         0.61502E-02         0.00000E+00
    0.11098E-01         0.59516E-02         0.00000E+00
    0.10830E-01         0.57539E-02         0.00000E+00
    0.10557E-01         0.55571E-02         0.00000E+00
    0.10279E-01         0.53611E-02         0.00000E+00
    0.99965E-02         0.51660E-02         0.00000E+00
    0.97097E-02         0.49718E-02         0.00000E+00
    0.94184E-02         0.47786E-02         0.00000E+00
    0.91227E-02         0.45863E-02         0.00000E+00
    0.88226E-02         0.43949E-02         0.00000E+00
    0.85182E-02         0.42046E-02         0.00000E+00
    0.82095E-02         0.40153E-02         0.00000E+00
    0.78964E-02         0.38270E-02         0.00000E+00
    0.75792E-02         0.36397E-02         0.00000E+00
    0.72578E-02         0.34535E-02         0.00000E+00
    0.69322E-02         0.32685E-02         0.00000E+00
    0.66025E-02         0.30845E-02         0.00000E+00
    0.62687E-02         0.29017E-02         0.00000E+00
    0.59308E-02         0.27201E-02         0.00000E+00
    0.55889E-02         0.25397E-02         0.00000E+00
    0.52431E-02         0.23606E-02         0.00000E+00
    0.48933E-02         0.21827E-02         0.00000E+00
    0.45395E-02         0.20061E-02         0.00000E+00
    0.41819E-02         0.18308E-02         0.00000E+00
    0.38204E-02         0.16568E-02         0.00000E+00
    0.34551E-02         0.14843E-02         0.00000E+00
    0.30860E-02         0.13132E-02         0.00000E+00
    0.27131E-02         0.11436E-02         0.00000E+00
    0.23365E-02         0.97541E-03         0.00000E+00
    0.19562E-02         0.80879E-03         0.00000E+00
    0.15722E-02         0.64374E-03         0.00000E+00
    0.11846E-02         0.48029E-03         0.00000E+00
    0.79329E-03         0.31849E-03         0.00000E+00
    0.39843E-03         0.15838E-03         0.00000E+00
    0.00000E+00         0.00000E+00         0.00000E+00
    0.14294E-01         0.85683E-02         0.00000E+00
    0.14125E-01         0.83761E-02         0.00000E+00
    0.13950E-01         0.81846E-02         0.00000E+00
    0.13770E-01         0.79937E-02         0.00000E+00
    0.13584E-01         0.78034E-02         0.00000E+00
    0.13392E-01         0.76137E-02         0.00000E+00
    0.13195E-01         0.74247E-02         0.00000E+00
    0.12993E-01         0.72363E-02         0.00000E+00
    0.12786E-01         0.70486E-02         0.00000E+00
    0.12573E-01         0.68615E-02         0.00000E+00
    0.12355E-01         0.66752E-02         0.00000E+00
    0.12133E-01         0.64895E-02         0.00000E+00
    0.11905E-01         0.63046E-02         0.00000E+00
    0.11672E-01         0.61204E-02         0.00000E+00
    0.11434E-01         0.59370E-02         0.00000E+00
    0.11191E-01         0.57544E-02         0.00000E+00
    0.10944E-01         0.55725E-02         0.00000E+00
    0.10692E-01         0.53914E-02         0.00000E+00
    0.10435E-01         0.52112E-02         0.00000E+00
    0.10173E-01         0.50317E-02         0.00000E+00
    0.99073E-02         0.48531E-02         0.00000E+00
    0.96366E-02         0.46754E-02         0.00000E+00
    0.93614E-02         0.44986E-02         0.00000E+00
    0.90818E-02         0.43227E-02         0.00000E+00
    0.87978E-02         0.41477E-02         0.00000E+00
    0.85093E-02         0.39736E-02         0.00000E+00
    0.82166E-02         0.38005E-02         0.00000E+00
    0.79196E-02         0.36284E-02         0.00000E+00
    0.76184E-02         0.34573E-02         0.00000E+00
    0.73129E-02         0.32872E-02         0.00000E+00
    0.70034E-02         0.31182E-02         0.00000E+00
    0.66897E-02         0.29502E-02         0.00000E+00
    0.63719E-02         0.27833E-02         0.00000E+00
    0.60501E-02         0.26176E-02         0.00000E+00
    0.57244E-02         0.24530E-02         0.00000E+00
    0.53947E-02         0.22896E-02         0.00000E+00
    0.50610E-02         0.21274E-02         0.00000E+00
    0.47235E-02         0.19664E-02         0.00000E+00
    0.43822E-02         0.18067E-02         0.00000E+00
    0.40370E-02         0.16483E-02         0.00000E+00
    0.36881E-02         0.14912E-02         0.00000E+00
    0.33355E-02         0.13354E-02         0.00000E+00
    0.29792E-02         0.11811E-02         0.00000E+00
    0.26192E-02         0.10281E-02         0.00000E+00
    0.22556E-02         0.87660E-03         0.00000E+00
    0.18884E-02         0.72657E-03         0.00000E+00
    0.15177E-02         0.57807E-03         0.00000E+00
    0.11435E-02         0.43113E-03         0.00000E+00
    0.76574E-03         0.28577E-03         0.00000E+00
    0.38458E-03         0.14205E-03         0.00000E+00
    0.00000E+00         0.00000E+00         0.00000E+00
    0.13716E-01         0.77648E-02         0.00000E+00
    0.13558E-01         0.75896E-02         0.00000E+00
    0.13395E-01         0.74150E-02         0.00000E+00
    0.13225E-01         0.72409E-02         0.00000E+00
    0.13050E-01         0.70675E-02         0.00000E+00
    0.12870E-01         0.68946E-02         0.00000E+00
    0.12684E-01         0.67223E-02         0.00000E+00
    0.12493E-01         0.65506E-02         0.00000E+00
    0.12297E-01         0.63796E-02         0.00000E+00
    0.12095E-01         0.62092E-02         0.00000E+00
    0.11888E-01         0.60395E-02         0.00000E+00
    0.11677E-01         0.58705E-02         0.00000E+00
    0.11460E-01         0.57021E-02         0.00000E+00
    0.11238E-01         0.55345E-02         0.00000E+00
    0.11011E-01         0.53676E-02         0.00000E+00
    0.10780E-01         0.52014E-02         0.00000E+00
    0.10543E-01         0.50359E-02         0.00000E+00
    0.10302E-01         0.48713E-02         0.00000E+00
    0.10056E-01         0.47074E-02         0.00000E+00
    0.98057E-02         0.45443E-02         0.00000E+00
    0.95506E-02         0.43820E-02         0.00000E+00
    0.92910E-02         0.42206E-02         0.00000E+00
    0.90269E-02         0.40600E-02         0.00000E+00
    0.87584E-02         0.39003E-02         0.00000E+00
    0.84855E-02         0.37414E-02         0.00000E+00
    0.82083E-02         0.35835E-02         0.00000E+00
    0.79268E-02         0.34265E-02         0.00000E+00
    0.76410E-02         0.32705E-02         0.00000E+00
    0.73510E-02         0.31154E-02         0.00000E+00
    0.70569E-02         0.29613E-02         0.00000E+00
    0.67587E-02         0.28083E-02         0.00000E+00
    0.64565E-02         0.26563E-02         0.00000E+00
    0.61502E-02         0.25053E-02         0.00000E+00
    0.58400E-02         0.23554E-02         0.00000E+00
    0.55258E-02         0.22067E-02         0.00000E+00
    0.52078E-02         0.20590E-02         0.00000E+00
    0.48859E-02         0.19125E-02         0.00000E+00
    0.45602E-02         0.17673E-02         0.00000E+00
    0.42308E-02         0.16232E-02         0.00000E+00
    0.38977E-02         0.14804E-02         0.00000E+00
    0.35609E-02         0.13388E-02         0.00000E+00
    0.32204E-02         0.11985E-02         0.00000E+00
    0.28764E-02         0.10596E-02         0.00000E+00
    0.25288E-02         0.92205E-03         0.00000E+00
    0.21778E-02         0.78588E-03         0.00000E+00
    0.18232E-02         0.65114E-03         0.00000E+00
    0.14653E-02         0.51785E-03         0.00000E+00
    0.11039E-02         0.38606E-03         0.00000E+00
    0.73925E-03         0.25580E-03         0.00000E+00
    0.37125E-03         0.12710E-03         0.00000E+00
    0.00000E+00         0.00000E+00         0.00000E+00
    0.13169E-01         0.70150E-02         0.00000E+00
    0.13021E-01         0.68558E-02         0.00000E+00
    0.12868E-01         0.66971E-02         0.00000E+00
    0.12709E-01         0.65390E-02         0.00000E+00
    0.12545E-01         0.63814E-02         0.00000E+00
    0.12375E-01         0.62244E-02         0.00000E+00
    0.12199E-01         0.60679E-02         0.00000E+00
    0.12018E-01         0.59120E-02         0.00000E+00
    0.11832E-01         0.57567E-02         0.00000E+00
    0.11641E-01         0.56021E-02         0.00000E+00
    0.11445E-01         0.54480E-02         0.00000E+00
    0.11243E-01         0.52946E-02         0.00000E+00
    0.11037E-01         0.51418E-02         0.00000E+00
    0.10825E-01         0.49897E-02         0.00000E+00
    0.10609E-01         0.48383E-02         0.00000E+00
    0.10388E-01         0.46876E-02         0.00000E+00
    0.10162E-01         0.45376E-02         0.00000E+00
    0.99310E-02         0.43883E-02         0.00000E+00
    0.96956E-02         0.42398E-02         0.00000E+00
    0.94555E-02         0.40920E-02         0.00000E+00
    0.92109E-02         0.39451E-02         0.00000E+00
    0.89618E-02         0.37989E-02         0.00000E+00
    0.87083E-02         0.36535E-02         0.00000E+00
    0.84503E-02         0.35090E-02         0.00000E+00
    0.81879E-02         0.33653E-02         0.00000E+00
    0.79213E-02         0.32224E-02         0.00000E+00
    0.76504E-02         0.30805E-02         0.00000E+00
    0.73754E-02         0.29395E-02         0.00000E+00
    0.70961E-02         0.27994E-02         0.00000E+00
    0.68128E-02         0.26603E-02         0.00000E+00
    0.65254E-02         0.25221E-02         0.00000E+00
    0.62341E-02         0.23849E-02         0.00000E+00
    0.59387E-02         0.22487E-02         0.00000E+00
    0.56395E-02         0.21136E-02         0.00000E+00
    0.53364E-02         0.19795E-02         0.00000E+00
    0.50295E-02         0.18465E-02         0.00000E+00
    0.47188E-02         0.17146E-02         0.00000E+00
    0.44044E-02         0.15839E-02         0.00000E+00
    0.40864E-02         0.14543E-02         0.00000E+00
    0.37647E-02         0.13259E-02         0.00000E+00
    0.34394E-02         0.11987E-02         0.00000E+00
    0.31106E-02         0.10728E-02         0.00000E+00
    0.27784E-02         0.94811E-03         0.00000E+00
    0.24426E-02         0.82473E-03         0.00000E+00
    0.21035E-02         0.70268E-03         0.00000E+00
    0.17610E-02         0.58198E-03         0.00000E+00
    0.14153E-02         0.46268E-03         0.00000E+00
    0.10662E-02         0.34480E-03         0.00000E+00
    0.71398E-03         0.22837E-03         0.00000E+00
    0.35855E-03         0.11342E-03         0.00000E+00
    0.00000E+00         0.00000E+00         0.00000E+00
    0.12655E-01         0.63149E-02         0.00000E+00
    0.12517E-01         0.61709E-02         0.00000E+00
    0.12373E-01         0.60273E-02         0.00000E+00
    0.12224E-01         0.58842E-02         0.00000E+00
    0.12069E-01         0.57416E-02         0.00000E+00
    0.11908E-01         0.55995E-02         0.00000E+00
    0.11742E-01         0.54580E-02         0.00000E+00
    0.11571E-01         0.53170E-02         0.00000E+00
    0.11395E-01         0.51765E-02         0.00000E+00
    0.11213E-01         0.50366E-02         0.00000E+00
    0.11027E-01         0.48973E-02         0.00000E+00
    0.10835E-01         0.47586E-02         0.00000E+00
    0.10638E-01         0.46205E-02         0.00000E+00
    0.10436E-01         0.44831E-02         0.00000E+00
    0.10229E-01         0.43463E-02         0.00000E+00
    0.10018E-01         0.42101E-02         0.00000E+00
    0.98017E-02         0.40746E-02         0.00000E+00
    0.95808E-02         0.39398E-02         0.00000E+00
    0.93551E-02         0.38057E-02         0.00000E+00
    0.91249E-02         0.36724E-02         0.00000E+00
    0.88901E-02         0.35397E-02         0.00000E+00
    0.86509E-02         0.34079E-02         0.00000E+00
    0.84072E-02         0.32767E-02         0.00000E+00
    0.81591E-02         0.31464E-02         0.00000E+00
    0.79068E-02         0.30169E-02         0.00000E+00
    0.76501E-02         0.28882E-02         0.00000E+00
    0.73893E-02         0.27604E-02         0.00000E+00
    0.71243E-02         0.26334E-02         0.00000E+00
    0.68552E-02         0.25072E-02         0.00000E+00
    0.65820E-02         0.23820E-02         0.00000E+00
    0.63048E-02         0.22577E-02         0.00000E+00
    0.60237E-02         0.21344E-02         0.00000E+00
    0.57387E-02         0.20120E-02         0.00000E+00
    0.54499E-02         0.18906E-02         0.00000E+00
    0.51573E-02         0.17701E-02         0.00000E+00
    0.48609E-02         0.16508E-02         0.00000E+00
    0.45608E-02         0.15324E-02         0.00000E+00
    0.42571E-02         0.14151E-02         0.00000E+00
    0.39498E-02         0.12990E-02         0.00000E+00
    0.36389E-02         0.11839E-02         0.00000E+00
    0.33246E-02         0.10700E-02         0.00000E+00
    0.30068E-02         0.95729E-03         0.00000E+00
    0.26856E-02         0.84576E-03         0.00000E+00
    0.23611E-02         0.73545E-03         0.00000E+00
    0.20333E-02         0.62639E-03         0.00000E+00
    0.17022E-02         0.51862E-03         0.00000E+00
    0.13680E-02         0.41216E-03         0.00000E+00
    0.10306E-02         0.30703E-03         0.00000E+00
    0.69008E-03         0.20328E-03         0.00000E+00
    0.34654E-03         0.10092E-03         0.00000E+00
    0.00000E+00         0.00000E+00         0.00000E+00
    0.12175E-01         0.56608E-02         0.00000E+00
    0.12046E-01         0.55310E-02         0.00000E+00
    0.11911E-01         0.54017E-02         0.00000E+00
    0.11770E-01         0.52728E-02         0.00000E+00
    0.11624E-01         0.51444E-02         0.00000E+00
    0.11473E-01         0.50164E-02         0.00000E+00
    0.11316E-01         0.48889E-02         0.00000E+00
    0.11154E-01         0.47620E-02         0.00000E+00
    0.10986E-01         0.46355E-02         0.00000E+00
    0.10814E-01         0.45096E-02         0.00000E+00
    0.10636E-01         0.43843E-02         0.00000E+00
    0.10453E-01         0.42594E-02         0.00000E+00
    0.10265E-01         0.41352E-02         0.00000E+00
    0.10072E-01         0.40115E-02         0.00000E+00
    0.98747E-02         0.38885E-02         0.00000E+00
    0.96722E-02         0.37660E-02         0.00000E+00
    0.94650E-02         0.36442E-02         0.00000E+00
    0.92531E-02         0.35230E-02         0.00000E+00
    0.90366E-02         0.34025E-02         0.00000E+00
    0.88155E-02         0.32827E-02         0.00000E+00
    0.85899E-02         0.31635E-02         0.00000E+00
    0.83598E-02         0.30451E-02         0.00000E+00
    0.81254E-02         0.29274E-02         0.00000E+00
    0.78866E-02         0.28104E-02         0.00000E+00
    0.76435E-02         0.26941E-02         0.00000E+00
    0.73962E-02         0.25787E-02         0.00000E+00
    0.71447E-02         0.24640E-02         0.00000E+00
    0.68891E-02         0.23501E-02         0.00000E+00
    0.66295E-02         0.22371E-02         0.00000E+00
    0.63658E-02         0.21248E-02         0.00000E+00
    0.60982E-02         0.20135E-02         0.00000E+00
    0.58267E-02         0.19030E-02         0.00000E+00
    0.55514E-02         0.17935E-02         0.00000E+00
    0.52723E-02         0.16848E-02         0.00000E+00
    0.49894E-02         0.15771E-02         0.00000E+00
    0.47029E-02         0.14703E-02         0.00000E+00
    0.44128E-02         0.13646E-02         0.00000E+00
    0.41190E-02         0.12598E-02         0.00000E+00
    0.38218E-02         0.11561E-02         0.00000E+00
    0.35211E-02         0.10534E-02         0.00000E+00
    0.32170E-02         0.95174E-03         0.00000E+00
    0.29095E-02         0.85122E-03         0.00000E+00
    0.25987E-02         0.75182E-03         0.00000E+00
    0.22847E-02         0.65356E-03         0.00000E+00
    0.19675E-02         0.55647E-03         0.00000E+00
    0.16471E-02         0.46057E-03         0.00000E+00
    0.13237E-02         0.36590E-03         0.00000E+00
    0.99719E-03         0.27248E-03         0.00000E+00
    0.66771E-03         0.18034E-03         0.00000E+00
    0.33529E-03         0.89503E-04         0.00000E+00
    0.00000E+00         0.00000E+00         0.00000E+00
    0.11733E-01         0.50487E-02         0.00000E+00
    0.11611E-01         0.49324E-02         0.00000E+00
    0.11484E-01         0.48166E-02         0.00000E+00
    0.11352E-01         0.47011E-02         0.00000E+00
    0.11214E-01         0.45861E-02         0.00000E+00
    0.11070E-01         0.44715E-02         0.00000E+00
    0.10922E-01         0.43574E-02         0.00000E+00
    0.10768E-01         0.42437E-02         0.00000E+00
    0.10608E-01         0.41305E-02         0.00000E+00
    0.10444E-01         0.40178E-02         0.00000E+00
    0.10274E-01         0.39056E-02         0.00000E+00
    0.10100E-01         0.37939E-02         0.00000E+00
    0.99200E-02         0.36827E-02         0.00000E+00
    0.97355E-02         0.35721E-02         0.00000E+00
    0.95462E-02         0.34620E-02         0.00000E+00
    0.93521E-02         0.33525E-02         0.00000E+00
    0.91532E-02         0.32436E-02         0.00000E+00
    0.89497E-02         0.31353E-02         0.00000E+00
    0.87416E-02         0.30275E-02         0.00000E+00
    0.85289E-02         0.29204E-02         0.00000E+00
    0.83117E-02         0.28139E-02         0.00000E+00
    0.80902E-02         0.27081E-02         0.00000E+00
    0.78642E-02         0.26030E-02         0.00000E+00
    0.76340E-02         0.24985E-02         0.00000E+00
    0.73995E-02         0.23947E-02         0.00000E+00
    0.71608E-02         0.22917E-02         0.00000E+00
    0.69180E-02         0.21893E-02         0.00000E+00
    0.66711E-02         0.20878E-02         0.00000E+00
    0.64202E-02         0.19869E-02         0.00000E+00
    0.61654E-02         0.18869E-02         0.00000E+00
    0.59067E-02         0.17876E-02         0.00000E+00
    0.56441E-02         0.16892E-02         0.00000E+00
    0.53777E-02         0.15916E-02         0.00000E+00
    0.51076E-02         0.14948E-02         0.00000E+00
    0.48338E-02         0.13989E-02         0.00000E+00
    0.45564E-02         0.13040E-02         0.00000E+00
    0.42755E-02         0.12099E-02         0.00000E+00
    0.39910E-02         0.11167E-02         0.00000E+00
    0.37031E-02         0.10245E-02         0.00000E+00
    0.34118E-02         0.93325E-03         0.00000E+00
    0.31172E-02         0.84300E-03         0.00000E+00
    0.28193E-02         0.75376E-03         0.00000E+00
    0.25182E-02         0.66555E-03         0.00000E+00
    0.22139E-02         0.57841E-03         0.00000E+00
    0.19065E-02         0.49234E-03         0.00000E+00
    0.15961E-02         0.40738E-03         0.00000E+00
    0.12826E-02         0.32355E-03         0.00000E+00
    0.96623E-03         0.24087E-03         0.00000E+00
    0.64696E-03         0.15937E-03         0.00000E+00
    0.32487E-03         0.79068E-04         0.00000E+00
    0.00000E+00         0.00000E+00         0.00000E+00
    0.11328E-01         0.44747E-02         0.00000E+00
    0.11214E-01         0.43713E-02         0.00000E+00
    0.11094E-01         0.42683E-02         0.00000E+00
    0.10969E-01         0.41656E-02         0.00000E+00
    0.10838E-01         0.40633E-02         0.00000E+00
    0.10702E-01         0.39614E-02         0.00000E+00
    0.10561E-01         0.38599E-02         0.00000E+00
    0.10414E-01         0.37589E-02         0.00000E+00
    0.10262E-01         0.36582E-02         0.00000E+00
    0.10105E-01         0.35580E-02         0.00000E+00
    0.99434E-02         0.34583E-02         0.00000E+00
    0.97762E-02         0.33590E-02         0.00000E+00
    0.96042E-02         0.32602E-02         0.00000E+00
    0.94272E-02         0.31619E-02         0.00000E+00
    0.92455E-02         0.30641E-02         0.00000E+00
    0.90589E-02         0.29668E-02         0.00000E+00
    0.88677E-02         0.28700E-02         0.00000E+00
    0.86718E-02         0.27738E-02         0.00000E+00
    0.84714E-02         0.26782E-02         0.00000E+00
    0.82664E-02         0.25831E-02         0.00000E+00
    0.80570E-02         0.24885E-02         0.00000E+00
    0.78432E-02         0.23946E-02         0.00000E+00
    0.76250E-02         0.23013E-02         0.00000E+00
    0.74026E-02         0.22086E-02         0.00000E+00
    0.71760E-02         0.21166E-02         0.00000E+00
    0.69452E-02         0.20252E-02         0.00000E+00
    0.67103E-02         0.19344E-02         0.00000E+00
    0.64714E-02         0.18444E-02         0.00000E+00
    0.62285E-02         0.17550E-02         0.00000E+00
    0.59817E-02         0.16664E-02         0.00000E+00
    0.57311E-02         0.15784E-02         0.00000E+00
    0.54767E-02         0.14913E-02         0.00000E+00
    0.52185E-02         0.14048E-02         0.00000E+00
    0.49567E-02         0.13192E-02         0.00000E+00
    0.46912E-02         0.12343E-02         0.00000E+00
    0.44222E-02         0.11503E-02         0.00000E+00
    0.41497E-02         0.10671E-02         0.00000E+00
    0.38737E-02         0.98473E-03         0.00000E+00
    0.35944E-02         0.90323E-03         0.00000E+00
    0.33117E-02         0.82261E-03         0.00000E+00
    0.30258E-02         0.74290E-03         0.00000E+00
    0.27366E-02         0.66411E-03         0.00000E+00
    0.24444E-02         0.58626E-03         0.00000E+00
    0.21490E-02         0.50938E-03         0.00000E+00
    0.18506E-02         0.43348E-03         0.00000E+00
    0.15493E-02         0.35859E-03         0.00000E+00
    0.12450E-02         0.28472E-03         0.00000E+00
    0.93787E-03         0.21191E-03         0.00000E+00
    0.62795E-03         0.14017E-03         0.00000E+00
    0.31531E-03         0.69525E-04         0.00000E+00
    0.00000E+00         0.00000E+00         0.00000E+00
    0.10963E-01         0.39353E-02         0.00000E+00
    0.10855E-01         0.38441E-02         0.00000E+00
    0.10742E-01         0.37532E-02         0.00000E+00
    0.10624E-01         0.36627E-02         0.00000E+00
    0.10500E-01         0.35725E-02         0.00000E+00
    0.10370E-01         0.34827E-02         0.00000E+00
    0.10235E-01         0.33932E-02         0.00000E+00
    0.10095E-01         0.33041E-02         0.00000E+00
    0.99502E-02         0.32154E-02         0.00000E+00
    0.97999E-02         0.31271E-02         0.00000E+00
    0.96445E-02         0.30392E-02         0.00000E+00
    0.94842E-02         0.29517E-02         0.00000E+00
    0.93189E-02         0.28646E-02         0.00000E+00
    0.91487E-02         0.27780E-02         0.00000E+00
    0.89738E-02         0.26918E-02         0.00000E+00
    0.87941E-02         0.26061E-02         0.00000E+00
    0.86097E-02         0.25209E-02         0.00000E+00
    0.84208E-02         0.24361E-02         0.00000E+00
    0.82272E-02         0.23519E-02         0.00000E+00
    0.80292E-02         0.22682E-02         0.00000E+00
    0.78268E-02         0.21849E-02         0.00000E+00
    0.76200E-02         0.21023E-02         0.00000E+00
    0.74088E-02         0.20201E-02         0.00000E+00
    0.71935E-02         0.19386E-02         0.00000E+00
    0.69740E-02         0.18576E-02         0.00000E+00
    0.67503E-02         0.17771E-02         0.00000E+00
    0.65226E-02         0.16973E-02         0.00000E+00
    0.62909E-02         0.16181E-02         0.00000E+00
    0.60553E-02         0.15395E-02         0.00000E+00
    0.58158E-02         0.14616E-02         0.00000E+00
    0.55725E-02         0.13843E-02         0.00000E+00
    0.53254E-02         0.13077E-02         0.00000E+00
    0.50746E-02         0.12317E-02         0.00000E+00
    0.48203E-02         0.11565E-02         0.00000E+00
    0.45623E-02         0.10819E-02         0.00000E+00
    0.43009E-02         0.10081E-02         0.00000E+00
    0.40360E-02         0.93507E-03         0.00000E+00
    0.37677E-02         0.86276E-03         0.00000E+00
    0.34961E-02         0.79123E-03         0.00000E+00
    0.32212E-02         0.72050E-03         0.00000E+00
    0.29431E-02         0.65058E-03         0.00000E+00
    0.26619E-02         0.58148E-03         0.00000E+00
    0.23777E-02         0.51324E-03         0.00000E+00
    0.20904E-02         0.44585E-03         0.00000E+00
    0.18001E-02         0.37935E-03         0.00000E+00
    0.15070E-02         0.31375E-03         0.00000E+00
    0.12110E-02         0.24908E-03         0.00000E+00
    0.91224E-03         0.18535E-03         0.00000E+00
    0.61078E-03         0.12257E-03         0.00000E+00
    0.30668E-03         0.60785E-04         0.00000E+00
    0.00000E+00         0.00000E+00         0.00000E+00
    0.10638E-01         0.34266E-02         0.00000E+00
    0.10537E-01         0.33470E-02         0.00000E+00
    0.10429E-01         0.32678E-02         0.00000E+00
    0.10316E-01         0.31889E-02         0.00000E+00
    0.10198E-01         0.31102E-02         0.00000E+00
    0.10075E-01         0.30319E-02         0.00000E+00
    0.99459E-02         0.29539E-02         0.00000E+00
    0.98119E-02         0.28762E-02         0.00000E+00
    0.96726E-02         0.27988E-02         0.00000E+00
    0.95283E-02         0.27218E-02         0.00000E+00
    0.93789E-02         0.26452E-02         0.00000E+00
    0.92246E-02         0.25689E-02         0.00000E+00
    0.90653E-02         0.24931E-02         0.00000E+00
    0.89012E-02         0.24176E-02         0.00000E+00
    0.87323E-02         0.23425E-02         0.00000E+00
    0.85587E-02         0.22678E-02         0.00000E+00
    0.83805E-02         0.21935E-02         0.00000E+00
    0.81976E-02         0.21197E-02         0.00000E+00
    0.80102E-02         0.20462E-02         0.00000E+00
    0.78184E-02         0.19733E-02         0.00000E+00
    0.76221E-02         0.19008E-02         0.00000E+00
    0.74216E-02         0.18288E-02         0.00000E+00
    0.72167E-02         0.17572E-02         0.00000E+00
    0.70076E-02         0.16862E-02         0.00000E+00
    0.67944E-02         0.16156E-02         0.00000E+00
    0.65771E-02         0.15456E-02         0.00000E+00
    0.63558E-02         0.14761E-02         0.00000E+00
    0.61305E-02         0.14071E-02         0.00000E+00
    0.59013E-02         0.13387E-02         0.00000E+00
    0.56683E-02         0.12708E-02         0.00000E+00
    0.54315E-02         0.12035E-02         0.00000E+00
    0.51909E-02         0.11368E-02         0.00000E+00
    0.49468E-02         0.10707E-02         0.00000E+00
    0.46990E-02         0.10053E-02         0.00000E+00
    0.44478E-02         0.94041E-03         0.00000E+00
    0.41930E-02         0.87619E-03         0.00000E+00
    0.39349E-02         0.81262E-03         0.00000E+00
    0.36735E-02         0.74973E-03         0.00000E+00
    0.34087E-02         0.68752E-03         0.00000E+00
    0.31408E-02         0.62601E-03         0.00000E+00
    0.28697E-02         0.56521E-03         0.00000E+00
    0.25956E-02         0.50513E-03         0.00000E+00
    0.23184E-02         0.44581E-03         0.00000E+00
    0.20383E-02         0.38724E-03         0.00000E+00
    0.17552E-02         0.32945E-03         0.00000E+00
    0.14694E-02         0.27246E-03         0.00000E+00
    0.11808E-02         0.21627E-03         0.00000E+00
    0.88947E-03         0.16092E-03         0.00000E+00
    0.59552E-03         0.10641E-03         0.00000E+00
    0.29901E-03         0.52763E-04         0.00000E+00
    0.00000E+00         0.00000E+00         0.00000E+00
    0.10355E-01         0.29450E-02         0.00000E+00
    0.10259E-01         0.28766E-02         0.00000E+00
    0.10157E-01         0.28085E-02         0.00000E+00
    0.10049E-01         0.27407E-02         0.00000E+00
    0.99358E-02         0.26731E-02         0.00000E+00
    0.98174E-02         0.26057E-02         0.00000E+00
    0.96938E-02         0.25387E-02         0.00000E+00
    0.95649E-02         0.24719E-02         0.00000E+00
    0.94308E-02         0.24055E-02         0.00000E+00
    0.92917E-02         0.23393E-02         0.00000E+00
    0.91476E-02         0.22735E-02         0.00000E+00
    0.89985E-02         0.22079E-02         0.00000E+00
    0.88445E-02         0.21427E-02         0.00000E+00
    0.86856E-02         0.20778E-02         0.00000E+00
    0.85220E-02         0.20133E-02         0.00000E+00
    0.83538E-02         0.19491E-02         0.00000E+00
    0.81808E-02         0.18853E-02         0.00000E+00
    0.80033E-02         0.18219E-02         0.00000E+00
    0.78213E-02         0.17588E-02         0.00000E+00
    0.76349E-02         0.16961E-02         0.00000E+00
    0.74440E-02         0.16338E-02         0.00000E+00
    0.72489E-02         0.15719E-02         0.00000E+00
    0.70495E-02         0.15104E-02         0.00000E+00
    0.68459E-02         0.14494E-02         0.00000E+00
    0.66381E-02         0.13887E-02         0.00000E+00
    0.64264E-02         0.13286E-02         0.00000E+00
    0.62106E-02         0.12688E-02         0.00000E+00
    0.59909E-02         0.12096E-02         0.00000E+00
    0.57673E-02         0.11508E-02         0.00000E+00
    0.55399E-02         0.10924E-02         0.00000E+00
    0.53088E-02         0.10346E-02         0.00000E+00
    0.50740E-02         0.97730E-03         0.00000E+00
    0.48355E-02         0.92050E-03         0.00000E+00
    0.45936E-02         0.86422E-03         0.00000E+00
    0.43481E-02         0.80847E-03         0.00000E+00
    0.40993E-02         0.75328E-03         0.00000E+00
    0.38470E-02         0.69864E-03         0.00000E+00
    0.35915E-02         0.64458E-03         0.00000E+00
    0.33328E-02         0.59110E-03         0.00000E+00
    0.30709E-02         0.53823E-03         0.00000E+00
    0.28059E-02         0.48596E-03         0.00000E+00
    0.25378E-02         0.43432E-03         0.00000E+00
    0.22668E-02         0.38332E-03         0.00000E+00
    0.19929E-02         0.33297E-03         0.00000E+00
    0.17162E-02         0.28328E-03         0.00000E+00
    0.14367E-02         0.23428E-03         0.00000E+00
    0.11545E-02         0.18597E-03         0.00000E+00
    0.86966E-03         0.13837E-03         0.00000E+00
    0.58226E-03         0.91502E-04         0.00000E+00
    0.29235E-03         0.45372E-04         0.00000E+00
    0.00000E+00         0.00000E+00         0.00000E+00
    0.10115E-01         0.24869E-02         0.00000E+00
    0.10023E-01         0.24293E-02         0.00000E+00
    0.99249E-02         0.23719E-02         0.00000E+00
    0.98217E-02         0.23147E-02         0.00000E+00
    0.97130E-02         0.22577E-02         0.00000E+00
    0.95990E-02         0.22010E-02         0.00000E+00
    0.94798E-02         0.21445E-02         0.00000E+00
    0.93553E-02         0.20883E-02         0.00000E+00
    0.92257E-02         0.20322E-02         0.00000E+00
    0.90910E-02         0.19765E-02         0.00000E+00
    0.89514E-02         0.19210E-02         0.00000E+00
    0.88067E-02         0.18657E-02         0.00000E+00
    0.86572E-02         0.18108E-02         0.00000E+00
    0.85029E-02         0.17561E-02         0.00000E+00
    0.83438E-02         0.17017E-02         0.00000E+00
    0.81801E-02         0.16476E-02         0.00000E+00
    0.80117E-02         0.15938E-02         0.00000E+00
    0.78387E-02         0.15403E-02         0.00000E+00
    0.76613E-02         0.14871E-02         0.00000E+00
    0.74794E-02         0.14342E-02         0.00000E+00
    0.72932E-02         0.13817E-02         0.00000E+00
    0.71027E-02         0.13295E-02         0.00000E+00
    0.69079E-02         0.12776E-02         0.00000E+00
    0.67089E-02         0.12261E-02         0.00000E+00
    0.65059E-02         0.11750E-02         0.00000E+00
    0.62988E-02         0.11242E-02         0.00000E+00
    0.60877E-02         0.10738E-02         0.00000E+00
    0.58728E-02         0.10237E-02         0.00000E+00
    0.56539E-02         0.97407E-03         0.00000E+00
    0.54313E-02         0.92482E-03         0.00000E+00
    0.52050E-02         0.87598E-03         0.00000E+00
    0.49750E-02         0.82756E-03         0.00000E+00
    0.47415E-02         0.77956E-03         0.00000E+00
    0.45044E-02         0.73200E-03         0.00000E+00
    0.42639E-02         0.68488E-03         0.00000E+00
    0.40200E-02         0.63821E-03         0.00000E+00
    0.37727E-02         0.59201E-03         0.00000E+00
    0.35222E-02         0.54628E-03         0.00000E+00
    0.32685E-02         0.50104E-03         0.00000E+00
    0.30117E-02         0.45629E-03         0.00000E+00
    0.27519E-02         0.41204E-03         0.00000E+00
    0.24890E-02         0.36832E-03         0.00000E+00
    0.22233E-02         0.32512E-03         0.00000E+00
    0.19546E-02         0.28246E-03         0.00000E+00
    0.16832E-02         0.24035E-03         0.00000E+00
    0.14091E-02         0.19881E-03         0.00000E+00
    0.11323E-02         0.15784E-03         0.00000E+00
    0.85293E-03         0.11747E-03         0.00000E+00
    0.57104E-03         0.77692E-04         0.00000E+00
    0.28671E-03         0.38532E-04         0.00000E+00
    0.00000E+00         0.00000E+00         0.00000E+00
    0.99181E-02         0.20488E-02         0.00000E+00
    0.98294E-02         0.20015E-02         0.00000E+00
    0.97353E-02         0.19545E-02         0.00000E+00
    0.96357E-02         0.19076E-02         0.00000E+00
    0.95307E-02         0.18610E-02         0.00000E+00
    0.94204E-02         0.18145E-02         0.00000E+00
    0.93048E-02         0.17681E-02         0.00000E+00
    0.91840E-02         0.17220E-02         0.00000E+00
    0.90581E-02         0.16761E-02         0.00000E+00
    0.89271E-02         0.16304E-02         0.00000E+00
    0.87912E-02         0.15849E-02         0.00000E+00
    0.86502E-02         0.15396E-02         0.00000E+00
    0.85045E-02         0.14945E-02         0.00000E+00
    0.83539E-02         0.14496E-02         0.00000E+00
    0.81985E-02         0.14050E-02         0.00000E+00
    0.80385E-02         0.13606E-02         0.00000E+00
    0.78738E-02         0.13164E-02         0.00000E+00
    0.77046E-02         0.12725E-02         0.00000E+00
    0.75310E-02         0.12288E-02         0.00000E+00
    0.73529E-02         0.11854E-02         0.00000E+00
    0.71704E-02         0.11423E-02         0.00000E+00
    0.69836E-02         0.10994E-02         0.00000E+00
    0.67927E-02         0.10567E-02         0.00000E+00
    0.65975E-02         0.10144E-02         0.00000E+00
    0.63983E-02         0.97230E-03         0.00000E+00
    0.61951E-02         0.93052E-03         0.00000E+00
    0.59878E-02         0.88902E-03         0.00000E+00
    0.57767E-02         0.84782E-03         0.00000E+00
    0.55618E-02         0.80693E-03         0.00000E+00
    0.53431E-02         0.76636E-03         0.00000E+00
    0.51207E-02         0.72610E-03         0.00000E+00
    0.48947E-02         0.68616E-03         0.00000E+00
    0.46651E-02         0.64656E-03         0.00000E+00
    0.44320E-02         0.60730E-03         0.00000E+00
    0.41954E-02         0.56839E-03         0.00000E+00
    0.39556E-02         0.52984E-03         0.00000E+00
    0.37124E-02         0.49164E-03         0.00000E+00
    0.34660E-02         0.45382E-03         0.00000E+00
    0.32164E-02         0.41638E-03         0.00000E+00
    0.29637E-02         0.37932E-03         0.00000E+00
    0.27080E-02         0.34267E-03         0.00000E+00
    0.24494E-02         0.30642E-03         0.00000E+00
    0.21879E-02         0.27058E-03         0.00000E+00
    0.19235E-02         0.23517E-03         0.00000E+00
    0.16564E-02         0.20019E-03         0.00000E+00
    0.13867E-02         0.16566E-03         0.00000E+00
    0.11143E-02         0.13158E-03         0.00000E+00
    0.83934E-03         0.97960E-04         0.00000E+00
    0.56194E-03         0.64818E-04         0.00000E+00
    0.28213E-03         0.32161E-04         0.00000E+00
    0.00000E+00         0.00000E+00         0.00000E+00
    0.97652E-02         0.16271E-02         0.00000E+00
    0.96795E-02         0.15900E-02         0.00000E+00
    0.95883E-02         0.15530E-02         0.00000E+00
    0.94916E-02         0.15162E-02         0.00000E+00
    0.93896E-02         0.14794E-02         0.00000E+00
    0.92822E-02         0.14429E-02         0.00000E+00
    0.91695E-02         0.14065E-02         0.00000E+00
    0.90517E-02         0.13702E-02         0.00000E+00
    0.89287E-02         0.13341E-02         0.00000E+00
    0.88007E-02         0.12981E-02         0.00000E+00
    0.86677E-02         0.12623E-02         0.00000E+00
    0.85297E-02         0.12266E-02         0.00000E+00
    0.83868E-02         0.11911E-02         0.00000E+00
    0.82391E-02         0.11558E-02         0.00000E+00
    0.80867E-02         0.11206E-02         0.00000E+00
    0.79296E-02         0.10856E-02         0.00000E+00
    0.77679E-02         0.10508E-02         0.00000E+00
    0.76017E-02         0.10162E-02         0.00000E+00
    0.74309E-02         0.98169E-03         0.00000E+00
    0.72558E-02         0.94741E-03         0.00000E+00
    0.70762E-02         0.91331E-03         0.00000E+00
    0.68924E-02         0.87941E-03         0.00000E+00
    0.67044E-02         0.84569E-03         0.00000E+00
    0.65122E-02         0.81218E-03         0.00000E+00
    0.63160E-02         0.77887E-03         0.00000E+00
    0.61157E-02         0.74576E-03         0.00000E+00
    0.59114E-02         0.71286E-03         0.00000E+00
    0.57033E-02         0.68018E-03         0.00000E+00
    0.54914E-02         0.64772E-03         0.00000E+00
    0.52757E-02         0.61548E-03         0.00000E+00
    0.50563E-02         0.58347E-03         0.00000E+00
    0.48333E-02         0.55169E-03         0.00000E+00
    0.46067E-02         0.52015E-03         0.00000E+00
    0.43767E-02         0.48885E-03         0.00000E+00
    0.41432E-02         0.45780E-03         0.00000E+00
    0.39064E-02         0.42701E-03         0.00000E+00
    0.36663E-02         0.39648E-03         0.00000E+00
    0.34230E-02         0.36621E-03         0.00000E+00
    0.31766E-02         0.33622E-03         0.00000E+00
    0.29271E-02         0.30650E-03         0.00000E+00
    0.26746E-02         0.27707E-03         0.00000E+00
    0.24192E-02         0.24793E-03         0.00000E+00
    0.21609E-02         0.21909E-03         0.00000E+00
    0.18998E-02         0.19055E-03         0.00000E+00
    0.16360E-02         0.16233E-03         0.00000E+00
    0.13696E-02         0.13443E-03         0.00000E+00
    0.11005E-02         0.10686E-03         0.00000E+00
    0.82898E-03         0.79617E-04         0.00000E+00
    0.55499E-03         0.52723E-04         0.00000E+00
    0.27864E-03         0.26181E-04         0.00000E+00
    0.00000E+00         0.00000E+00         0.00000E+00
    0.96570E-02         0.12184E-02         0.00000E+00
    0.95736E-02         0.11911E-02         0.00000E+00
    0.94846E-02         0.11640E-02         0.00000E+00
    0.93901E-02         0.11369E-02         0.00000E+00
    0.92903E-02         0.11100E-02         0.00000E+00
    0.91851E-02         0.10831E-02         0.00000E+00
    0.90747E-02         0.10564E-02         0.00000E+00
    0.89590E-02         0.10297E-02         0.00000E+00
    0.88382E-02         0.10032E-02         0.00000E+00
    0.87124E-02         0.97671E-03         0.00000E+00
    0.85815E-02         0.95036E-03         0.00000E+00
    0.84457E-02         0.92411E-03         0.00000E+00
    0.83050E-02         0.89797E-03         0.00000E+00
    0.81594E-02         0.87193E-03         0.00000E+00
    0.80091E-02         0.84599E-03         0.00000E+00
    0.78542E-02         0.82016E-03         0.00000E+00
    0.76946E-02         0.79444E-03         0.00000E+00
    0.75304E-02         0.76883E-03         0.00000E+00
    0.73618E-02         0.74334E-03         0.00000E+00
    0.71887E-02         0.71795E-03         0.00000E+00
    0.70113E-02         0.69268E-03         0.00000E+00
    0.68296E-02         0.66752E-03         0.00000E+00
    0.66436E-02         0.64248E-03         0.00000E+00
    0.64536E-02         0.61756E-03         0.00000E+00
    0.62594E-02         0.59276E-03         0.00000E+00
    0.60612E-02         0.56808E-03         0.00000E+00
    0.58590E-02         0.54353E-03         0.00000E+00
    0.56530E-02         0.51910E-03         0.00000E+00
    0.54431E-02         0.49481E-03         0.00000E+00
    0.52295E-02         0.47064E-03         0.00000E+00
    0.50122E-02         0.44662E-03         0.00000E+00
    0.47913E-02         0.42273E-03         0.00000E+00
    0.45668E-02         0.39898E-03         0.00000E+00
    0.43389E-02         0.37538E-03         0.00000E+00
    0.41075E-02         0.35192E-03         0.00000E+00
    0.38729E-02         0.32862E-03         0.00000E+00
    0.36349E-02         0.30547E-03         0.00000E+00
    0.33938E-02         0.28247E-03         0.00000E+00
    0.31495E-02         0.25965E-03         0.00000E+00
    0.29022E-02         0.23698E-03         0.00000E+00
    0.26518E-02         0.21449E-03         0.00000E+00
    0.23986E-02         0.19217E-03         0.00000E+00
    0.21425E-02         0.17003E-03         0.00000E+00
    0.18837E-02         0.14808E-03         0.00000E+00
    0.16221E-02         0.12631E-03         0.00000E+00
    0.13579E-02         0.10474E-03         0.00000E+00
    0.10912E-02         0.83373E-04         0.00000E+00
    0.82191E-03         0.62208E-04         0.00000E+00
    0.55026E-03         0.41253E-04         0.00000E+00
    0.27626E-03         0.20515E-04         0.00000E+00
    0.00000E+00         0.00000E+00         0.00000E+00
    0.95942E-02         0.81916E-03         0.00000E+00
    0.95122E-02         0.80163E-03         0.00000E+00
    0.94248E-02         0.78416E-03         0.00000E+00
    0.93318E-02         0.76674E-03         0.00000E+00
    0.92335E-02         0.74938E-03         0.00000E+00
    0.91298E-02         0.73207E-03         0.00000E+00
    0.90208E-02         0.71482E-03         0.00000E+00
    0.89066E-02         0.69762E-03         0.00000E+00
    0.87872E-02         0.68047E-03         0.00000E+00
    0.86628E-02         0.66337E-03         0.00000E+00
    0.85333E-02         0.64632E-03         0.00000E+00
    0.83988E-02         0.62931E-03         0.00000E+00
    0.82595E-02         0.61235E-03         0.00000E+00
    0.81153E-02         0.59544E-03         0.00000E+00
    0.79663E-02         0.57856E-03         0.00000E+00
    0.78126E-02         0.56174E-03         0.00000E+00
    0.76543E-02         0.54495E-03         0.00000E+00
    0.74914E-02         0.52820E-03         0.00000E+00
    0.73241E-02         0.51150E-03         0.00000E+00
    0.71522E-02         0.49483E-03         0.00000E+00
    0.69761E-02         0.47821E-03         0.00000E+00
    0.67956E-02         0.46162E-03         0.00000E+00
    0.66108E-02         0.44507E-03         0.00000E+00
    0.64220E-02         0.42856E-03         0.00000E+00
    0.62290E-02         0.41209E-03         0.00000E+00
    0.60319E-02         0.39566E-03         0.00000E+00
    0.58310E-02         0.37927E-03         0.00000E+00
    0.56261E-02         0.36291E-03         0.00000E+00
    0.54174E-02         0.34660E-03         0.00000E+00
    0.52049E-02         0.33032E-03         0.00000E+00
    0.49888E-02         0.31408E-03         0.00000E+00
    0.47690E-02         0.29789E-03         0.00000E+00
    0.45457E-02         0.28174E-03         0.00000E+00
    0.43189E-02         0.26563E-03         0.00000E+00
    0.40887E-02         0.24956E-03         0.00000E+00
    0.38552E-02         0.23354E-03         0.00000E+00
    0.36183E-02         0.21757E-03         0.00000E+00
    0.33783E-02         0.20164E-03         0.00000E+00
    0.31352E-02         0.18577E-03         0.00000E+00
    0.28890E-02         0.16995E-03         0.00000E+00
    0.26399E-02         0.15418E-03         0.00000E+00
    0.23878E-02         0.13846E-03         0.00000E+00
    0.21329E-02         0.12281E-03         0.00000E+00
    0.18752E-02         0.10722E-03         0.00000E+00
    0.16148E-02         0.91686E-04         0.00000E+00
    0.13518E-02         0.76222E-04         0.00000E+00
    0.10862E-02         0.60826E-04         0.00000E+00
    0.81820E-03         0.45503E-04         0.00000E+00
    0.54777E-03         0.30255E-04         0.00000E+00
    0.27501E-03         0.15087E-04         0.00000E+00
    0.00000E+00         0.00000E+00         0.00000E+00
    0.95772E-02         0.42599E-03         0.00000E+00
    0.94961E-02         0.41807E-03         0.00000E+00
    0.94094E-02         0.41017E-03         0.00000E+00
    0.93173E-02         0.40230E-03         0.00000E+00
    0.92197E-02         0.39443E-03         0.00000E+00
    0.91168E-02         0.38658E-03         0.00000E+00
    0.90085E-02         0.37873E-03         0.00000E+00
    0.88950E-02         0.37089E-03         0.00000E+00
    0.87762E-02         0.36304E-03         0.00000E+00
    0.86524E-02         0.35520E-03         0.00000E+00
    0.85235E-02         0.34734E-03         0.00000E+00
    0.83896E-02         0.33948E-03         0.00000E+00
    0.82508E-02         0.33161E-03         0.00000E+00
    0.81071E-02         0.32371E-03         0.00000E+00
    0.79587E-02         0.31580E-03         0.00000E+00
    0.78055E-02         0.30787E-03         0.00000E+00
    0.76476E-02         0.29991E-03         0.00000E+00
    0.74852E-02         0.29192E-03         0.00000E+00
    0.73182E-02         0.28391E-03         0.00000E+00
    0.71468E-02         0.27585E-03         0.00000E+00
    0.69710E-02         0.26777E-03         0.00000E+00
    0.67908E-02         0.25964E-03         0.00000E+00
    0.66064E-02         0.25147E-03         0.00000E+00
    0.64179E-02         0.24326E-03         0.00000E+00
    0.62252E-02         0.23501E-03         0.00000E+00
    0.60284E-02         0.22671E-03         0.00000E+00
    0.58277E-02         0.21835E-03         0.00000E+00
    0.56231E-02         0.20995E-03         0.00000E+00
    0.54146E-02         0.20149E-03         0.00000E+00
    0.52023E-02         0.19298E-03         0.00000E+00
    0.49864E-02         0.18441E-03         0.00000E+00
    0.47668E-02         0.17579E-03         0.00000E+00
    0.45437E-02         0.16710E-03         0.00000E+00
    0.43170E-02         0.15836E-03         0.00000E+00
    0.40870E-02         0.14955E-03         0.00000E+00
    0.38536E-02         0.14068E-03         0.00000E+00
    0.36169E-02         0.13175E-03         0.00000E+00
    0.33770E-02         0.12276E-03         0.00000E+00
    0.31340E-02         0.11370E-03         0.00000E+00
    0.28879E-02         0.10458E-03         0.00000E+00
    0.26389E-02         0.95394E-04         0.00000E+00
    0.23869E-02         0.86142E-04         0.00000E+00
    0.21321E-02         0.76825E-04         0.00000E+00
    0.18745E-02         0.67444E-04         0.00000E+00
    0.16142E-02         0.57998E-04         0.00000E+00
    0.13513E-02         0.48488E-04         0.00000E+00
    0.10858E-02         0.38914E-04         0.00000E+00
    0.81789E-03         0.29278E-04         0.00000E+00
    0.54756E-03         0.19579E-04         0.00000E+00
    0.27490E-03         0.98197E-05         0.00000E+00
    0.00000E+00         0.00000E+00         0.00000E+00
    0.96065E-02         0.35402E-04         0.00000E+00
    0.95256E-02         0.37065E-04         0.00000E+00
    0.94391E-02         0.38714E-04         0.00000E+00
    0.93470E-02         0.40341E-04         0.00000E+00
    0.92495E-02         0.41941E-04         0.00000E+00
    0.91465E-02         0.43507E-04         0.00000E+00
    0.90382E-02         0.45035E-04         0.00000E+00
    0.89246E-02         0.46518E-04         0.00000E+00
    0.88057E-02         0.47950E-04         0.00000E+00
    0.86817E-02         0.49326E-04         0.00000E+00
    0.85527E-02         0.50640E-04         0.00000E+00
    0.84186E-02         0.51887E-04         0.00000E+00
    0.82795E-02         0.53062E-04         0.00000E+00
    0.81355E-02         0.54158E-04         0.00000E+00
    0.79867E-02         0.55171E-04         0.00000E+00
    0.78332E-02         0.56096E-04         0.00000E+00
    0.76750E-02         0.56927E-04         0.00000E+00
    0.75121E-02         0.57660E-04         0.00000E+00
    0.73447E-02         0.58289E-04         0.00000E+00
    0.71728E-02         0.58811E-04         0.00000E+00
    0.69964E-02         0.59220E-04         0.00000E+00
    0.68158E-02         0.59511E-04         0.00000E+00
    0.66308E-02         0.59681E-04         0.00000E+00
    0.64416E-02         0.59725E-04         0.00000E+00
    0.62483E-02         0.59638E-04         0.00000E+00
    0.60509E-02         0.59416E-04         0.00000E+00
    0.58495E-02         0.59056E-04         0.00000E+00
    0.56442E-02         0.58553E-04         0.00000E+00
    0.54350E-02         0.57903E-04         0.00000E+00
    0.52220E-02         0.57103E-04         0.00000E+00
    0.50053E-02         0.56148E-04         0.00000E+00
    0.47849E-02         0.55036E-04         0.00000E+00
    0.45609E-02         0.53763E-04         0.00000E+00
    0.43335E-02         0.52325E-04         0.00000E+00
    0.41026E-02         0.50720E-04         0.00000E+00
    0.38683E-02         0.48943E-04         0.00000E+00
    0.36307E-02         0.46993E-04         0.00000E+00
    0.33900E-02         0.44866E-04         0.00000E+00
    0.31460E-02         0.42559E-04         0.00000E+00
    0.28990E-02         0.40069E-04         0.00000E+00
    0.26490E-02         0.37395E-04         0.00000E+00
    0.23961E-02         0.34534E-04         0.00000E+00
    0.21403E-02         0.31483E-04         0.00000E+00
    0.18817E-02         0.28239E-04         0.00000E+00
    0.16204E-02         0.24802E-04         0.00000E+00
    0.13565E-02         0.21169E-04         0.00000E+00
    0.10900E-02         0.17337E-04         0.00000E+00
    0.82103E-03         0.13307E-04         0.00000E+00
    0.54966E-03         0.90743E-05         0.00000E+00
    0.27596E-03         0.46393E-05         0.00000E+00
    0.00000E+00         0.00000E+00         0.00000E+00
    0.96828E-02        -0.35608E-03         0.00000E+00
    0.96013E-02        -0.34480E-03         0.00000E+00
    0.95142E-02        -0.33357E-03         0.00000E+00
    0.94214E-02        -0.32240E-03         0.00000E+00
    0.93232E-02        -0.31130E-03         0.00000E+00
    0.92195E-02        -0.30027E-03         0.00000E+00
    0.91103E-02        -0.28934E-03         0.00000E+00
    0.89959E-02        -0.27849E-03         0.00000E+00
    0.88762E-02        -0.26775E-03         0.00000E+00
    0.87512E-02        -0.25712E-03         0.00000E+00
    0.86212E-02        -0.24661E-03         0.00000E+00
    0.84860E-02        -0.23622E-03         0.00000E+00
    0.83459E-02        -0.22596E-03         0.00000E+00
    0.82008E-02        -0.21585E-03         0.00000E+00
    0.80509E-02        -0.20588E-03         0.00000E+00
    0.78962E-02        -0.19607E-03         0.00000E+00
    0.77367E-02        -0.18642E-03         0.00000E+00
    0.75725E-02        -0.17694E-03         0.00000E+00
    0.74038E-02        -0.16763E-03         0.00000E+00
    0.72305E-02        -0.15851E-03         0.00000E+00
    0.70528E-02        -0.14958E-03         0.00000E+00
    0.68707E-02        -0.14085E-03         0.00000E+00
    0.66843E-02        -0.13231E-03         0.00000E+00
    0.64936E-02        -0.12399E-03         0.00000E+00
    0.62987E-02        -0.11589E-03         0.00000E+00
    0.60997E-02        -0.10801E-03         0.00000E+00
    0.58967E-02        -0.10036E-03         0.00000E+00
    0.56897E-02        -0.92942E-04         0.00000E+00
    0.54789E-02        -0.85767E-04         0.00000E+00
    0.52642E-02        -0.78839E-04         0.00000E+00
    0.50457E-02        -0.72164E-04         0.00000E+00
    0.48236E-02        -0.65748E-04         0.00000E+00
    0.45978E-02        -0.59597E-04         0.00000E+00
    0.43685E-02        -0.53716E-04         0.00000E+00
    0.41357E-02        -0.48110E-04         0.00000E+00
    0.38996E-02        -0.42786E-04         0.00000E+00
    0.36601E-02        -0.37748E-04         0.00000E+00
    0.34174E-02        -0.33001E-04         0.00000E+00
    0.31715E-02        -0.28551E-04         0.00000E+00
    0.29224E-02        -0.24403E-04         0.00000E+00
    0.26704E-02        -0.20560E-04         0.00000E+00
    0.24154E-02        -0.17030E-04         0.00000E+00
    0.21576E-02        -0.13815E-04         0.00000E+00
    0.18969E-02        -0.10920E-04         0.00000E+00
    0.16335E-02        -0.83510E-05         0.00000E+00
    0.13674E-02        -0.61111E-05         0.00000E+00
    0.10988E-02        -0.42050E-05         0.00000E+00
    0.82766E-03        -0.26367E-05         0.00000E+00
    0.55409E-03        -0.14105E-05         0.00000E+00
    0.27818E-03        -0.53030E-06         0.00000E+00
    0.00000E+00         0.00000E+00         0.00000E+00
    0.98063E-02        -0.75196E-03         0.00000E+00
    0.97236E-02        -0.73095E-03         0.00000E+00
    0.96351E-02        -0.71004E-03         0.00000E+00
    0.95410E-02        -0.68922E-03         0.00000E+00
    0.94413E-02        -0.66852E-03         0.00000E+00
    0.93361E-02        -0.64793E-03         0.00000E+00
    0.92254E-02        -0.62749E-03         0.00000E+00
    0.91093E-02        -0.60718E-03         0.00000E+00
    0.89879E-02        -0.58703E-03         0.00000E+00
    0.88613E-02        -0.56704E-03         0.00000E+00
    0.87294E-02        -0.54723E-03         0.00000E+00
    0.85925E-02        -0.52760E-03         0.00000E+00
    0.84504E-02        -0.50816E-03         0.00000E+00
    0.83034E-02        -0.48893E-03         0.00000E+00
    0.81515E-02        -0.46991E-03         0.00000E+00
    0.79947E-02        -0.45111E-03         0.00000E+00
    0.78331E-02        -0.43255E-03         0.00000E+00
    0.76668E-02        -0.41422E-03         0.00000E+00
    0.74959E-02        -0.39615E-03         0.00000E+00
    0.73204E-02        -0.37834E-03         0.00000E+00
    0.71404E-02        -0.36079E-03         0.00000E+00
    0.69559E-02        -0.34352E-03         0.00000E+00
    0.67671E-02        -0.32654E-03         0.00000E+00
    0.65740E-02        -0.30985E-03         0.00000E+00
    0.63766E-02        -0.29346E-03         0.00000E+00
    0.61752E-02        -0.27739E-03         0.00000E+00
    0.59696E-02        -0.26164E-03         0.00000E+00
    0.57600E-02        -0.24621E-03         0.00000E+00
    0.55465E-02        -0.23113E-03         0.00000E+00
    0.53291E-02        -0.21638E-03         0.00000E+00
    0.51079E-02        -0.20199E-03         0.00000E+00
    0.48830E-02        -0.18796E-03         0.00000E+00
    0.46544E-02        -0.17430E-03         0.00000E+00
    0.44222E-02        -0.16102E-03         0.00000E+00
    0.41866E-02        -0.14812E-03         0.00000E+00
    0.39475E-02        -0.13561E-03         0.00000E+00
    0.37051E-02        -0.12351E-03         0.00000E+00
    0.34593E-02        -0.11181E-03         0.00000E+00
    0.32104E-02        -0.10052E-03         0.00000E+00
    0.29583E-02        -0.89657E-04         0.00000E+00
    0.27032E-02        -0.79222E-04         0.00000E+00
    0.24451E-02        -0.69223E-04         0.00000E+00
    0.21840E-02        -0.59667E-04         0.00000E+00
    0.19202E-02        -0.50562E-04         0.00000E+00
    0.16535E-02        -0.41914E-04         0.00000E+00
    0.13842E-02        -0.33729E-04         0.00000E+00
    0.11123E-02        -0.26016E-04         0.00000E+00
    0.83781E-03        -0.18779E-04         0.00000E+00
    0.56089E-03        -0.12027E-04         0.00000E+00
    0.28160E-03        -0.57650E-05         0.00000E+00
    0.00000E+00         0.00000E+00         0.00000E+00
    0.99776E-02        -0.11558E-02         0.00000E+00
    0.98929E-02        -0.11249E-02         0.00000E+00
    0.98024E-02        -0.10941E-02         0.00000E+00
    0.97061E-02        -0.10635E-02         0.00000E+00
    0.96043E-02        -0.10330E-02         0.00000E+00
    0.94968E-02        -0.10027E-02         0.00000E+00
    0.93838E-02        -0.97255E-03         0.00000E+00
    0.92653E-02        -0.94261E-03         0.00000E+00
    0.91414E-02        -0.91289E-03         0.00000E+00
    0.90122E-02        -0.88337E-03         0.00000E+00
    0.88778E-02        -0.85409E-03         0.00000E+00
    0.87381E-02        -0.82506E-03         0.00000E+00
    0.85934E-02        -0.79628E-03         0.00000E+00
    0.84436E-02        -0.76776E-03         0.00000E+00
    0.82888E-02        -0.73952E-03         0.00000E+00
    0.81291E-02        -0.71158E-03         0.00000E+00
    0.79646E-02        -0.68393E-03         0.00000E+00
    0.77953E-02        -0.65660E-03         0.00000E+00
    0.76212E-02        -0.62959E-03         0.00000E+00
    0.74426E-02        -0.60292E-03         0.00000E+00
    0.72594E-02        -0.57660E-03         0.00000E+00
    0.70717E-02        -0.55063E-03         0.00000E+00
    0.68795E-02        -0.52503E-03         0.00000E+00
    0.66831E-02        -0.49982E-03         0.00000E+00
    0.64823E-02        -0.47499E-03         0.00000E+00
    0.62774E-02        -0.45056E-03         0.00000E+00
    0.60683E-02        -0.42655E-03         0.00000E+00
    0.58551E-02        -0.40296E-03         0.00000E+00
    0.56379E-02        -0.37980E-03         0.00000E+00
    0.54169E-02        -0.35709E-03         0.00000E+00
    0.51920E-02        -0.33482E-03         0.00000E+00
    0.49633E-02        -0.31302E-03         0.00000E+00
    0.47309E-02        -0.29170E-03         0.00000E+00
    0.44949E-02        -0.27086E-03         0.00000E+00
    0.42553E-02        -0.25051E-03         0.00000E+00
    0.40123E-02        -0.23067E-03         0.00000E+00
    0.37658E-02        -0.21134E-03         0.00000E+00
    0.35160E-02        -0.19253E-03         0.00000E+00
    0.32630E-02        -0.17426E-03         0.00000E+00
    0.30068E-02        -0.15653E-03         0.00000E+00
    0.27474E-02        -0.13935E-03         0.00000E+00
    0.24851E-02        -0.12273E-03         0.00000E+00
    0.22198E-02        -0.10668E-03         0.00000E+00
    0.19516E-02        -0.91219E-04         0.00000E+00
    0.16806E-02        -0.76344E-04         0.00000E+00
    0.14068E-02        -0.62068E-04         0.00000E+00
    0.11305E-02        -0.48401E-04         0.00000E+00
    0.85151E-03        -0.35351E-04         0.00000E+00
    0.57007E-03        -0.22929E-04         0.00000E+00
    0.28620E-03        -0.11142E-04         0.00000E+00
    0.00000E+00         0.00000E+00         0.00000E+00
    0.10197E-01        -0.15711E-02         0.00000E+00
    0.10110E-01        -0.15301E-02         0.00000E+00
    0.10016E-01        -0.14892E-02         0.00000E+00
    0.99172E-02        -0.14485E-02         0.00000E+00
    0.98124E-02        -0.14080E-02         0.00000E+00
    0.97018E-02        -0.13678E-02         0.00000E+00
    0.95857E-02        -0.13277E-02         0.00000E+00
    0.94640E-02        -0.12879E-02         0.00000E+00
    0.93369E-02        -0.12484E-02         0.00000E+00
    0.92044E-02        -0.12091E-02         0.00000E+00
    0.90665E-02        -0.11701E-02         0.00000E+00
    0.89234E-02        -0.11314E-02         0.00000E+00
    0.87751E-02        -0.10931E-02         0.00000E+00
    0.86216E-02        -0.10550E-02         0.00000E+00
    0.84631E-02        -0.10174E-02         0.00000E+00
    0.82997E-02        -0.98002E-03         0.00000E+00
    0.81313E-02        -0.94307E-03         0.00000E+00
    0.79580E-02        -0.90649E-03         0.00000E+00
    0.77801E-02        -0.87032E-03         0.00000E+00
    0.75974E-02        -0.83456E-03         0.00000E+00
    0.74100E-02        -0.79923E-03         0.00000E+00
    0.72182E-02        -0.76433E-03         0.00000E+00
    0.70218E-02        -0.72989E-03         0.00000E+00
    0.68210E-02        -0.69591E-03         0.00000E+00
    0.66159E-02        -0.66241E-03         0.00000E+00
    0.64065E-02        -0.62940E-03         0.00000E+00
    0.61929E-02        -0.59690E-03         0.00000E+00
    0.59752E-02        -0.56491E-03         0.00000E+00
    0.57535E-02        -0.53345E-03         0.00000E+00
    0.55277E-02        -0.50253E-03         0.00000E+00
    0.52981E-02        -0.47217E-03         0.00000E+00
    0.50646E-02        -0.44237E-03         0.00000E+00
    0.48274E-02        -0.41315E-03         0.00000E+00
    0.45865E-02        -0.38452E-03         0.00000E+00
    0.43420E-02        -0.35650E-03         0.00000E+00
    0.40939E-02        -0.32909E-03         0.00000E+00
    0.38424E-02        -0.30231E-03         0.00000E+00
    0.35875E-02        -0.27617E-03         0.00000E+00
    0.33293E-02        -0.25068E-03         0.00000E+00
    0.30678E-02        -0.22585E-03         0.00000E+00
    0.28032E-02        -0.20171E-03         0.00000E+00
    0.25355E-02        -0.17824E-03         0.00000E+00
    0.22648E-02        -0.15548E-03         0.00000E+00
    0.19912E-02        -0.13343E-03         0.00000E+00
    0.17147E-02        -0.11211E-03         0.00000E+00
    0.14354E-02        -0.91516E-04         0.00000E+00
    0.11534E-02        -0.71673E-04         0.00000E+00
    0.86879E-03        -0.52587E-04         0.00000E+00
    0.58164E-03        -0.34272E-04         0.00000E+00
    0.29201E-03        -0.16739E-04         0.00000E+00
    0.00000E+00         0.00000E+00         0.00000E+00
    0.10465E-01        -0.20017E-02         0.00000E+00
    0.10374E-01        -0.19502E-02         0.00000E+00
    0.10277E-01        -0.18989E-02         0.00000E+00
    0.10175E-01        -0.18479E-02         0.00000E+00
    0.10066E-01        -0.17970E-02         0.00000E+00
    0.99516E-02        -0.17465E-02         0.00000E+00
    0.98315E-02        -0.16962E-02         0.00000E+00
    0.97059E-02        -0.16462E-02         0.00000E+00
    0.95747E-02        -0.15966E-02         0.00000E+00
    0.94380E-02        -0.15473E-02         0.00000E+00
    0.92958E-02        -0.14983E-02         0.00000E+00
    0.91484E-02        -0.14496E-02         0.00000E+00
    0.89957E-02        -0.14014E-02         0.00000E+00
    0.88377E-02        -0.13535E-02         0.00000E+00
    0.86747E-02        -0.13061E-02         0.00000E+00
    0.85065E-02        -0.12591E-02         0.00000E+00
    0.83334E-02        -0.12125E-02         0.00000E+00
    0.81554E-02        -0.11664E-02         0.00000E+00
    0.79725E-02        -0.11207E-02         0.00000E+00
    0.77849E-02        -0.10756E-02         0.00000E+00
    0.75925E-02        -0.10309E-02         0.00000E+00
    0.73955E-02        -0.98681E-03         0.00000E+00
    0.71940E-02        -0.94322E-03         0.00000E+00
    0.69880E-02        -0.90018E-03         0.00000E+00
    0.67775E-02        -0.85771E-03         0.00000E+00
    0.65628E-02        -0.81581E-03         0.00000E+00
    0.63437E-02        -0.77451E-03         0.00000E+00
    0.61205E-02        -0.73382E-03         0.00000E+00
    0.58932E-02        -0.69376E-03         0.00000E+00
    0.56618E-02        -0.65433E-03         0.00000E+00
    0.54264E-02        -0.61556E-03         0.00000E+00
    0.51871E-02        -0.57746E-03         0.00000E+00
    0.49440E-02        -0.54005E-03         0.00000E+00
    0.46972E-02        -0.50333E-03         0.00000E+00
    0.44467E-02        -0.46733E-03         0.00000E+00
    0.41925E-02        -0.43205E-03         0.00000E+00
    0.39349E-02        -0.39752E-03         0.00000E+00
    0.36738E-02        -0.36374E-03         0.00000E+00
    0.34093E-02        -0.33073E-03         0.00000E+00
    0.31416E-02        -0.29851E-03         0.00000E+00
    0.28705E-02        -0.26709E-03         0.00000E+00
    0.25964E-02        -0.23648E-03         0.00000E+00
    0.23192E-02        -0.20670E-03         0.00000E+00
    0.20390E-02        -0.17776E-03         0.00000E+00
    0.17558E-02        -0.14968E-03         0.00000E+00
    0.14698E-02        -0.12247E-03         0.00000E+00
    0.11811E-02        -0.96150E-04         0.00000E+00
    0.88965E-03        -0.70727E-04         0.00000E+00
    0.59561E-03        -0.46218E-04         0.00000E+00
    0.29903E-03        -0.22638E-04         0.00000E+00
    0.00000E+00         0.00000E+00         0.00000E+00
    0.10782E-01        -0.24512E-02         0.00000E+00
    0.10687E-01        -0.23888E-02         0.00000E+00
    0.10586E-01        -0.23268E-02         0.00000E+00
    0.10478E-01        -0.22650E-02         0.00000E+00
    0.10365E-01        -0.22035E-02         0.00000E+00
    0.10246E-01        -0.21423E-02         0.00000E+00
    0.10122E-01        -0.20814E-02         0.00000E+00
    0.99910E-02        -0.20209E-02         0.00000E+00
    0.98549E-02        -0.19607E-02         0.00000E+00
    0.97132E-02        -0.19009E-02         0.00000E+00
    0.95660E-02        -0.18416E-02         0.00000E+00
    0.94133E-02        -0.17826E-02         0.00000E+00
    0.92553E-02        -0.17241E-02         0.00000E+00
    0.90920E-02        -0.16661E-02         0.00000E+00
    0.89235E-02        -0.16085E-02         0.00000E+00
    0.87499E-02        -0.15514E-02         0.00000E+00
    0.85711E-02        -0.14948E-02         0.00000E+00
    0.83874E-02        -0.14388E-02         0.00000E+00
    0.81987E-02        -0.13833E-02         0.00000E+00
    0.80052E-02        -0.13284E-02         0.00000E+00
    0.78069E-02        -0.12741E-02         0.00000E+00
    0.76039E-02        -0.12203E-02         0.00000E+00
    0.73962E-02        -0.11672E-02         0.00000E+00
    0.71840E-02        -0.11147E-02         0.00000E+00
    0.69673E-02        -0.10629E-02         0.00000E+00
    0.67462E-02        -0.10117E-02         0.00000E+00
    0.65207E-02        -0.96127E-03         0.00000E+00
    0.62910E-02        -0.91151E-03         0.00000E+00
    0.60570E-02        -0.86246E-03         0.00000E+00
    0.58190E-02        -0.81415E-03         0.00000E+00
    0.55769E-02        -0.76660E-03         0.00000E+00
    0.53308E-02        -0.71982E-03         0.00000E+00
    0.50808E-02        -0.67383E-03         0.00000E+00
    0.48270E-02        -0.62864E-03         0.00000E+00
    0.45694E-02        -0.58427E-03         0.00000E+00
    0.43082E-02        -0.54075E-03         0.00000E+00
    0.40434E-02        -0.49808E-03         0.00000E+00
    0.37750E-02        -0.45628E-03         0.00000E+00
    0.35032E-02        -0.41538E-03         0.00000E+00
    0.32280E-02        -0.37537E-03         0.00000E+00
    0.29495E-02        -0.33630E-03         0.00000E+00
    0.26678E-02        -0.29816E-03         0.00000E+00
    0.23829E-02        -0.26098E-03         0.00000E+00
    0.20950E-02        -0.22477E-03         0.00000E+00
    0.18041E-02        -0.18955E-03         0.00000E+00
    0.15102E-02        -0.15535E-03         0.00000E+00
    0.12135E-02        -0.12216E-03         0.00000E+00
    0.91411E-03        -0.90016E-04         0.00000E+00
    0.61198E-03        -0.58930E-04         0.00000E+00
    0.30726E-03        -0.28919E-04         0.00000E+00
    0.00000E+00         0.00000E+00         0.00000E+00
    0.11148E-01        -0.29234E-02         0.00000E+00
    0.11048E-01        -0.28498E-02         0.00000E+00
    0.10941E-01        -0.27765E-02         0.00000E+00
    0.10829E-01        -0.27035E-02         0.00000E+00
    0.10710E-01        -0.26309E-02         0.00000E+00
    0.10586E-01        -0.25586E-02         0.00000E+00
    0.10456E-01        -0.24866E-02         0.00000E+00
    0.10320E-01        -0.24151E-02         0.00000E+00
    0.10178E-01        -0.23440E-02         0.00000E+00
    0.10030E-01        -0.22733E-02         0.00000E+00
    0.98770E-02        -0.22031E-02         0.00000E+00
    0.97183E-02        -0.21334E-02         0.00000E+00
    0.95542E-02        -0.20642E-02         0.00000E+00
    0.93846E-02        -0.19955E-02         0.00000E+00
    0.92098E-02        -0.19274E-02         0.00000E+00
    0.90297E-02        -0.18598E-02         0.00000E+00
    0.88444E-02        -0.17928E-02         0.00000E+00
    0.86541E-02        -0.17264E-02         0.00000E+00
    0.84587E-02        -0.16606E-02         0.00000E+00
    0.82584E-02        -0.15954E-02         0.00000E+00
    0.80532E-02        -0.15310E-02         0.00000E+00
    0.78432E-02        -0.14672E-02         0.00000E+00
    0.76285E-02        -0.14041E-02         0.00000E+00
    0.74091E-02        -0.13417E-02         0.00000E+00
    0.71852E-02        -0.12801E-02         0.00000E+00
    0.69567E-02        -0.12192E-02         0.00000E+00
    0.67239E-02        -0.11591E-02         0.00000E+00
    0.64866E-02        -0.10998E-02         0.00000E+00
    0.62451E-02        -0.10413E-02         0.00000E+00
    0.59994E-02        -0.98369E-03         0.00000E+00
    0.57495E-02        -0.92690E-03         0.00000E+00
    0.54956E-02        -0.87098E-03         0.00000E+00
    0.52377E-02        -0.81595E-03         0.00000E+00
    0.49759E-02        -0.76184E-03         0.00000E+00
    0.47102E-02        -0.70865E-03         0.00000E+00
    0.44408E-02        -0.65642E-03         0.00000E+00
    0.41677E-02        -0.60516E-03         0.00000E+00
    0.38910E-02        -0.55488E-03         0.00000E+00
    0.36108E-02        -0.50561E-03         0.00000E+00
    0.33271E-02        -0.45737E-03         0.00000E+00
    0.30400E-02        -0.41017E-03         0.00000E+00
    0.27496E-02        -0.36404E-03         0.00000E+00
    0.24560E-02        -0.31899E-03         0.00000E+00
    0.21593E-02        -0.27505E-03         0.00000E+00
    0.18594E-02        -0.23223E-03         0.00000E+00
    0.15566E-02        -0.19056E-03         0.00000E+00
    0.12508E-02        -0.15004E-03         0.00000E+00
    0.94216E-03        -0.11071E-03         0.00000E+00
    0.63077E-03        -0.72579E-04         0.00000E+00
    0.31669E-03        -0.35669E-04         0.00000E+00
    0.00000E+00         0.00000E+00         0.00000E+00
    0.11563E-01        -0.34224E-02         0.00000E+00
    0.11457E-01        -0.33370E-02         0.00000E+00
    0.11345E-01        -0.32519E-02         0.00000E+00
    0.11226E-01        -0.31672E-02         0.00000E+00
    0.11102E-01        -0.30829E-02         0.00000E+00
    0.10971E-01        -0.29990E-02         0.00000E+00
    0.10834E-01        -0.29155E-02         0.00000E+00
    0.10692E-01        -0.28324E-02         0.00000E+00
    0.10543E-01        -0.27498E-02         0.00000E+00
    0.10389E-01        -0.26678E-02         0.00000E+00
    0.10229E-01        -0.25862E-02         0.00000E+00
    0.10063E-01        -0.25052E-02         0.00000E+00
    0.98922E-02        -0.24247E-02         0.00000E+00
    0.97155E-02        -0.23449E-02         0.00000E+00
    0.95335E-02        -0.22656E-02         0.00000E+00
    0.93460E-02        -0.21870E-02         0.00000E+00
    0.91533E-02        -0.21090E-02         0.00000E+00
    0.89555E-02        -0.20317E-02         0.00000E+00
    0.87525E-02        -0.19551E-02         0.00000E+00
    0.85444E-02        -0.18793E-02         0.00000E+00
    0.83314E-02        -0.18041E-02         0.00000E+00
    0.81135E-02        -0.17298E-02         0.00000E+00
    0.78908E-02        -0.16562E-02         0.00000E+00
    0.76633E-02        -0.15834E-02         0.00000E+00
    0.74311E-02        -0.15114E-02         0.00000E+00
    0.71944E-02        -0.14403E-02         0.00000E+00
    0.69531E-02        -0.13700E-02         0.00000E+00
    0.67074E-02        -0.13007E-02         0.00000E+00
    0.64573E-02        -0.12322E-02         0.00000E+00
    0.62029E-02        -0.11647E-02         0.00000E+00
    0.59443E-02        -0.10981E-02         0.00000E+00
    0.56815E-02        -0.10325E-02         0.00000E+00
    0.54147E-02        -0.96795E-03         0.00000E+00
    0.51438E-02        -0.90437E-03         0.00000E+00
    0.48691E-02        -0.84182E-03         0.00000E+00
    0.45904E-02        -0.78034E-03         0.00000E+00
    0.43080E-02        -0.71994E-03         0.00000E+00
    0.40219E-02        -0.66064E-03         0.00000E+00
    0.37322E-02        -0.60246E-03         0.00000E+00
    0.34389E-02        -0.54543E-03         0.00000E+00
    0.31421E-02        -0.48957E-03         0.00000E+00
    0.28419E-02        -0.43490E-03         0.00000E+00
    0.25385E-02        -0.38144E-03         0.00000E+00
    0.22317E-02        -0.32921E-03         0.00000E+00
    0.19218E-02        -0.27824E-03         0.00000E+00
    0.16088E-02        -0.22854E-03         0.00000E+00
    0.12928E-02        -0.18015E-03         0.00000E+00
    0.97379E-03        -0.13307E-03         0.00000E+00
    0.65195E-03        -0.87340E-04         0.00000E+00
    0.32733E-03        -0.42975E-04         0.00000E+00
    0.00000E+00         0.00000E+00         0.00000E+00
    0.12028E-01        -0.39522E-02         0.00000E+00
    0.11915E-01        -0.38543E-02         0.00000E+00
    0.11796E-01        -0.37569E-02         0.00000E+00
    0.11671E-01        -0.36599E-02         0.00000E+00
    0.11539E-01        -0.35633E-02         0.00000E+00
    0.11401E-01        -0.34671E-02         0.00000E+00
    0.11257E-01        -0.33714E-02         0.00000E+00
    0.11107E-01        -0.32763E-02         0.00000E+00
    0.10951E-01        -0.31816E-02         0.00000E+00
    0.10790E-01        -0.30875E-02         0.00000E+00
    0.10622E-01        -0.29940E-02         0.00000E+00
    0.10448E-01        -0.29011E-02         0.00000E+00
    0.10269E-01        -0.28089E-02         0.00000E+00
    0.10085E-01        -0.27172E-02         0.00000E+00
    0.98944E-02        -0.26263E-02         0.00000E+00
    0.96988E-02        -0.25360E-02         0.00000E+00
    0.94977E-02        -0.24465E-02         0.00000E+00
    0.92914E-02        -0.23577E-02         0.00000E+00
    0.90798E-02        -0.22697E-02         0.00000E+00
    0.88631E-02        -0.21825E-02         0.00000E+00
    0.86413E-02        -0.20961E-02         0.00000E+00
    0.84146E-02        -0.20105E-02         0.00000E+00
    0.81829E-02        -0.19258E-02         0.00000E+00
    0.79463E-02        -0.18420E-02         0.00000E+00
    0.77050E-02        -0.17591E-02         0.00000E+00
    0.74590E-02        -0.16771E-02         0.00000E+00
    0.72084E-02        -0.15961E-02         0.00000E+00
    0.69532E-02        -0.15161E-02         0.00000E+00
    0.66935E-02        -0.14370E-02         0.00000E+00
    0.64295E-02        -0.13590E-02         0.00000E+00
    0.61611E-02        -0.12821E-02         0.00000E+00
    0.58884E-02        -0.12062E-02         0.00000E+00
    0.56116E-02        -0.11314E-02         0.00000E+00
    0.53307E-02        -0.10577E-02         0.00000E+00
    0.50458E-02        -0.98519E-03         0.00000E+00
    0.47569E-02        -0.91383E-03         0.00000E+00
    0.44641E-02        -0.84366E-03         0.00000E+00
    0.41675E-02        -0.77471E-03         0.00000E+00
    0.38672E-02        -0.70700E-03         0.00000E+00
    0.35632E-02        -0.64055E-03         0.00000E+00
    0.32557E-02        -0.57539E-03         0.00000E+00
    0.29446E-02        -0.51154E-03         0.00000E+00
    0.26302E-02        -0.44903E-03         0.00000E+00
    0.23123E-02        -0.38788E-03         0.00000E+00
    0.19912E-02        -0.32811E-03         0.00000E+00
    0.16669E-02        -0.26975E-03         0.00000E+00
    0.13395E-02        -0.21283E-03         0.00000E+00
    0.10090E-02        -0.15737E-03         0.00000E+00
    0.67552E-03        -0.10340E-03         0.00000E+00
    0.33917E-03        -0.50930E-04         0.00000E+00
    0.00000E+00         0.00000E+00         0.00000E+00
    0.12542E-01        -0.45168E-02         0.00000E+00
    0.12422E-01        -0.44059E-02         0.00000E+00
    0.12295E-01        -0.42955E-02         0.00000E+00
    0.12162E-01        -0.41854E-02         0.00000E+00
    0.12023E-01        -0.40759E-02         0.00000E+00
    0.11877E-01        -0.39668E-02         0.00000E+00
    0.11725E-01        -0.38583E-02         0.00000E+00
    0.11566E-01        -0.37503E-02         0.00000E+00
    0.11402E-01        -0.36430E-02         0.00000E+00
    0.11232E-01        -0.35362E-02         0.00000E+00
    0.11055E-01        -0.34301E-02         0.00000E+00
    0.10873E-01        -0.33246E-02         0.00000E+00
    0.10685E-01        -0.32198E-02         0.00000E+00
    0.10492E-01        -0.31157E-02         0.00000E+00
    0.10292E-01        -0.30124E-02         0.00000E+00
    0.10088E-01        -0.29099E-02         0.00000E+00
    0.98773E-02        -0.28081E-02         0.00000E+00
    0.96616E-02        -0.27071E-02         0.00000E+00
    0.94406E-02        -0.26070E-02         0.00000E+00
    0.92143E-02        -0.25078E-02         0.00000E+00
    0.89828E-02        -0.24094E-02         0.00000E+00
    0.87462E-02        -0.23120E-02         0.00000E+00
    0.85046E-02        -0.22155E-02         0.00000E+00
    0.82580E-02        -0.21200E-02         0.00000E+00
    0.80066E-02        -0.20254E-02         0.00000E+00
    0.77504E-02        -0.19319E-02         0.00000E+00
    0.74894E-02        -0.18394E-02         0.00000E+00
    0.72237E-02        -0.17480E-02         0.00000E+00
    0.69535E-02        -0.16577E-02         0.00000E+00
    0.66788E-02        -0.15685E-02         0.00000E+00
    0.63997E-02        -0.14805E-02         0.00000E+00
    0.61161E-02        -0.13936E-02         0.00000E+00
    0.58283E-02        -0.13079E-02         0.00000E+00
    0.55363E-02        -0.12234E-02         0.00000E+00
    0.52402E-02        -0.11402E-02         0.00000E+00
    0.49400E-02        -0.10583E-02         0.00000E+00
    0.46358E-02        -0.97762E-03         0.00000E+00
    0.43277E-02        -0.89830E-03         0.00000E+00
    0.40157E-02        -0.82033E-03         0.00000E+00
    0.37000E-02        -0.74374E-03         0.00000E+00
    0.33806E-02        -0.66856E-03         0.00000E+00
    0.30576E-02        -0.59481E-03         0.00000E+00
    0.27310E-02        -0.52252E-03         0.00000E+00
    0.24010E-02        -0.45171E-03         0.00000E+00
    0.20676E-02        -0.38242E-03         0.00000E+00
    0.17308E-02        -0.31467E-03         0.00000E+00
    0.13908E-02        -0.24848E-03         0.00000E+00
    0.10477E-02        -0.18390E-03         0.00000E+00
    0.70145E-03        -0.12094E-03         0.00000E+00
    0.35220E-03        -0.59627E-04         0.00000E+00
    0.00000E+00         0.00000E+00         0.00000E+00
    0.13105E-01        -0.51208E-02         0.00000E+00
    0.12977E-01        -0.49960E-02         0.00000E+00
    0.12842E-01        -0.48718E-02         0.00000E+00
    0.12700E-01        -0.47480E-02         0.00000E+00
    0.12552E-01        -0.46247E-02         0.00000E+00
    0.12397E-01        -0.45020E-02         0.00000E+00
    0.12236E-01        -0.43799E-02         0.00000E+00
    0.12068E-01        -0.42584E-02         0.00000E+00
    0.11895E-01        -0.41375E-02         0.00000E+00
    0.11715E-01        -0.40173E-02         0.00000E+00
    0.11529E-01        -0.38978E-02         0.00000E+00
    0.11338E-01        -0.37790E-02         0.00000E+00
    0.11140E-01        -0.36610E-02         0.00000E+00
    0.10936E-01        -0.35437E-02         0.00000E+00
    0.10727E-01        -0.34272E-02         0.00000E+00
    0.10512E-01        -0.33116E-02         0.00000E+00
    0.10292E-01        -0.31968E-02         0.00000E+00
    0.10066E-01        -0.30830E-02         0.00000E+00
    0.98344E-02        -0.29700E-02         0.00000E+00
    0.95975E-02        -0.28580E-02         0.00000E+00
    0.93554E-02        -0.27469E-02         0.00000E+00
    0.91081E-02        -0.26368E-02         0.00000E+00
    0.88556E-02        -0.25277E-02         0.00000E+00
    0.85981E-02        -0.24197E-02         0.00000E+00
    0.83355E-02        -0.23128E-02         0.00000E+00
    0.80681E-02        -0.22069E-02         0.00000E+00
    0.77958E-02        -0.21022E-02         0.00000E+00
    0.75187E-02        -0.19987E-02         0.00000E+00
    0.72370E-02        -0.18963E-02         0.00000E+00
    0.69506E-02        -0.17951E-02         0.00000E+00
    0.66597E-02        -0.16952E-02         0.00000E+00
    0.63643E-02        -0.15965E-02         0.00000E+00
    0.60645E-02        -0.14992E-02         0.00000E+00
    0.57604E-02        -0.14031E-02         0.00000E+00
    0.54521E-02        -0.13084E-02         0.00000E+00
    0.51395E-02        -0.12151E-02         0.00000E+00
    0.48229E-02        -0.11231E-02         0.00000E+00
    0.45022E-02        -0.10326E-02         0.00000E+00
    0.41776E-02        -0.94360E-03         0.00000E+00
    0.38491E-02        -0.85606E-03         0.00000E+00
    0.35168E-02        -0.77004E-03         0.00000E+00
    0.31807E-02        -0.68557E-03         0.00000E+00
    0.28410E-02        -0.60267E-03         0.00000E+00
    0.24976E-02        -0.52139E-03         0.00000E+00
    0.21508E-02        -0.44174E-03         0.00000E+00
    0.18005E-02        -0.36377E-03         0.00000E+00
    0.14468E-02        -0.28749E-03         0.00000E+00
    0.10899E-02        -0.21294E-03         0.00000E+00
    0.72972E-03        -0.14016E-03         0.00000E+00
    0.36639E-03        -0.69168E-04         0.00000E+00
    0.00000E+00         0.00000E+00         0.00000E+00
    0.13717E-01        -0.57684E-02         0.00000E+00
    0.13580E-01        -0.56290E-02         0.00000E+00
    0.13435E-01        -0.54901E-02         0.00000E+00
    0.13284E-01        -0.53517E-02         0.00000E+00
    0.13126E-01        -0.52139E-02         0.00000E+00
    0.12962E-01        -0.50767E-02         0.00000E+00
    0.12791E-01        -0.49402E-02         0.00000E+00
    0.12613E-01        -0.48043E-02         0.00000E+00
    0.12429E-01        -0.46691E-02         0.00000E+00
    0.12239E-01        -0.45346E-02         0.00000E+00
    0.12043E-01        -0.44009E-02         0.00000E+00
    0.11841E-01        -0.42679E-02         0.00000E+00
    0.11633E-01        -0.41358E-02         0.00000E+00
    0.11418E-01        -0.40045E-02         0.00000E+00
    0.11198E-01        -0.38741E-02         0.00000E+00
    0.10972E-01        -0.37445E-02         0.00000E+00
    0.10741E-01        -0.36159E-02         0.00000E+00
    0.10503E-01        -0.34883E-02         0.00000E+00
    0.10261E-01        -0.33616E-02         0.00000E+00
    0.10012E-01        -0.32359E-02         0.00000E+00
    0.97587E-02        -0.31113E-02         0.00000E+00
    0.94996E-02        -0.29877E-02         0.00000E+00
    0.92353E-02        -0.28652E-02         0.00000E+00
    0.89659E-02        -0.27439E-02         0.00000E+00
    0.86913E-02        -0.26237E-02         0.00000E+00
    0.84117E-02        -0.25046E-02         0.00000E+00
    0.81272E-02        -0.23868E-02         0.00000E+00
    0.78377E-02        -0.22703E-02         0.00000E+00
    0.75435E-02        -0.21549E-02         0.00000E+00
    0.72445E-02        -0.20409E-02         0.00000E+00
    0.69409E-02        -0.19282E-02         0.00000E+00
    0.66326E-02        -0.18169E-02         0.00000E+00
    0.63199E-02        -0.17069E-02         0.00000E+00
    0.60027E-02        -0.15984E-02         0.00000E+00
    0.56811E-02        -0.14913E-02         0.00000E+00
    0.53552E-02        -0.13857E-02         0.00000E+00
    0.50251E-02        -0.12816E-02         0.00000E+00
    0.46909E-02        -0.11790E-02         0.00000E+00
    0.43525E-02        -0.10780E-02         0.00000E+00
    0.40102E-02        -0.97861E-03         0.00000E+00
    0.36639E-02        -0.88084E-03         0.00000E+00
    0.33137E-02        -0.78473E-03         0.00000E+00
    0.29598E-02        -0.69031E-03         0.00000E+00
    0.26021E-02        -0.59763E-03         0.00000E+00
    0.22407E-02        -0.50670E-03         0.00000E+00
    0.18758E-02        -0.41757E-03         0.00000E+00
    0.15074E-02        -0.33027E-03         0.00000E+00
    0.11355E-02        -0.24482E-03         0.00000E+00
    0.76026E-03        -0.16127E-03         0.00000E+00
    0.38174E-03        -0.79655E-04         0.00000E+00
    0.00000E+00         0.00000E+00         0.00000E+00
    0.14378E-01        -0.64644E-02         0.00000E+00
    0.14230E-01        -0.63094E-02         0.00000E+00
    0.14076E-01        -0.61549E-02         0.00000E+00
    0.13914E-01        -0.60010E-02         0.00000E+00
    0.13745E-01        -0.58478E-02         0.00000E+00
    0.13570E-01        -0.56952E-02         0.00000E+00
    0.13388E-01        -0.55433E-02         0.00000E+00
    0.13200E-01        -0.53921E-02         0.00000E+00
    0.13005E-01        -0.52416E-02         0.00000E+00
    0.12804E-01        -0.50920E-02         0.00000E+00
    0.12596E-01        -0.49431E-02         0.00000E+00
    0.12383E-01        -0.47951E-02         0.00000E+00
    0.12163E-01        -0.46479E-02         0.00000E+00
    0.11937E-01        -0.45017E-02         0.00000E+00
    0.11705E-01        -0.43564E-02         0.00000E+00
    0.11467E-01        -0.42120E-02         0.00000E+00
    0.11223E-01        -0.40686E-02         0.00000E+00
    0.10974E-01        -0.39262E-02         0.00000E+00
    0.10719E-01        -0.37849E-02         0.00000E+00
    0.10458E-01        -0.36447E-02         0.00000E+00
    0.10192E-01        -0.35055E-02         0.00000E+00
    0.99203E-02        -0.33675E-02         0.00000E+00
    0.96432E-02        -0.32307E-02         0.00000E+00
    0.93609E-02        -0.30951E-02         0.00000E+00
    0.90734E-02        -0.29606E-02         0.00000E+00
    0.87807E-02        -0.28275E-02         0.00000E+00
    0.84829E-02        -0.26956E-02         0.00000E+00
    0.81802E-02        -0.25650E-02         0.00000E+00
    0.78725E-02        -0.24358E-02         0.00000E+00
    0.75599E-02        -0.23080E-02         0.00000E+00
    0.72426E-02        -0.21816E-02         0.00000E+00
    0.69206E-02        -0.20566E-02         0.00000E+00
    0.65939E-02        -0.19331E-02         0.00000E+00
    0.62626E-02        -0.18111E-02         0.00000E+00
    0.59269E-02        -0.16906E-02         0.00000E+00
    0.55867E-02        -0.15717E-02         0.00000E+00
    0.52421E-02        -0.14544E-02         0.00000E+00
    0.48933E-02        -0.13388E-02         0.00000E+00
    0.45402E-02        -0.12248E-02         0.00000E+00
    0.41830E-02        -0.11125E-02         0.00000E+00
    0.38217E-02        -0.10020E-02         0.00000E+00
    0.34564E-02        -0.89324E-03         0.00000E+00
    0.30872E-02        -0.78628E-03         0.00000E+00
    0.27141E-02        -0.68117E-03         0.00000E+00
    0.23372E-02        -0.57793E-03         0.00000E+00
    0.19566E-02        -0.47661E-03         0.00000E+00
    0.15723E-02        -0.37724E-03         0.00000E+00
    0.11844E-02        -0.27985E-03         0.00000E+00
    0.79304E-03        -0.18449E-03         0.00000E+00
    0.39821E-03        -0.91198E-04         0.00000E+00
    0.00000E+00         0.00000E+00         0.00000E+00
    0.15087E-01        -0.72134E-02         0.00000E+00
    0.14928E-01        -0.70418E-02         0.00000E+00
    0.14762E-01        -0.68707E-02         0.00000E+00
    0.14589E-01        -0.67003E-02         0.00000E+00
    0.14409E-01        -0.65306E-02         0.00000E+00
    0.14222E-01        -0.63616E-02         0.00000E+00
    0.14028E-01        -0.61934E-02         0.00000E+00
    0.13828E-01        -0.60259E-02         0.00000E+00
    0.13621E-01        -0.58592E-02         0.00000E+00
    0.13408E-01        -0.56933E-02         0.00000E+00
    0.13188E-01        -0.55284E-02         0.00000E+00
    0.12962E-01        -0.53643E-02         0.00000E+00
    0.12729E-01        -0.52011E-02         0.00000E+00
    0.12491E-01        -0.50389E-02         0.00000E+00
    0.12246E-01        -0.48776E-02         0.00000E+00
    0.11995E-01        -0.47174E-02         0.00000E+00
    0.11739E-01        -0.45583E-02         0.00000E+00
    0.11476E-01        -0.44002E-02         0.00000E+00
    0.11208E-01        -0.42432E-02         0.00000E+00
    0.10934E-01        -0.40874E-02         0.00000E+00
    0.10654E-01        -0.39327E-02         0.00000E+00
    0.10369E-01        -0.37792E-02         0.00000E+00
    0.10078E-01        -0.36270E-02         0.00000E+00
    0.97824E-02        -0.34760E-02         0.00000E+00
    0.94810E-02        -0.33263E-02         0.00000E+00
    0.91743E-02        -0.31780E-02         0.00000E+00
    0.88624E-02        -0.30310E-02         0.00000E+00
    0.85454E-02        -0.28854E-02         0.00000E+00
    0.82233E-02        -0.27413E-02         0.00000E+00
    0.78963E-02        -0.25985E-02         0.00000E+00
    0.75643E-02        -0.24573E-02         0.00000E+00
    0.72275E-02        -0.23176E-02         0.00000E+00
    0.68860E-02        -0.21795E-02         0.00000E+00
    0.65397E-02        -0.20429E-02         0.00000E+00
    0.61888E-02        -0.19080E-02         0.00000E+00
    0.58333E-02        -0.17748E-02         0.00000E+00
    0.54734E-02        -0.16432E-02         0.00000E+00
    0.51090E-02        -0.15134E-02         0.00000E+00
    0.47402E-02        -0.13853E-02         0.00000E+00
    0.43672E-02        -0.12590E-02         0.00000E+00
    0.39900E-02        -0.11346E-02         0.00000E+00
    0.36085E-02        -0.10121E-02         0.00000E+00
    0.32230E-02        -0.89146E-03         0.00000E+00
    0.28335E-02        -0.77278E-03         0.00000E+00
    0.24400E-02        -0.65610E-03         0.00000E+00
    0.20427E-02        -0.54144E-03         0.00000E+00
    0.16415E-02        -0.42886E-03         0.00000E+00
    0.12366E-02        -0.31838E-03         0.00000E+00
    0.82799E-03        -0.21005E-03         0.00000E+00
    0.41577E-03        -0.10391E-03         0.00000E+00
    0.00000E+00         0.00000E+00         0.00000E+00
    0.15843E-01        -0.80203E-02         0.00000E+00
    0.15672E-01        -0.78310E-02         0.00000E+00
    0.15493E-01        -0.76423E-02         0.00000E+00
    0.15308E-01        -0.74543E-02         0.00000E+00
    0.15115E-01        -0.72671E-02         0.00000E+00
    0.14916E-01        -0.70806E-02         0.00000E+00
    0.14709E-01        -0.68949E-02         0.00000E+00
    0.14496E-01        -0.67100E-02         0.00000E+00
    0.14276E-01        -0.65260E-02         0.00000E+00
    0.14050E-01        -0.63429E-02         0.00000E+00
    0.13817E-01        -0.61607E-02         0.00000E+00
    0.13577E-01        -0.59794E-02         0.00000E+00
    0.13331E-01        -0.57991E-02         0.00000E+00
    0.13079E-01        -0.56198E-02         0.00000E+00
    0.12821E-01        -0.54416E-02         0.00000E+00
    0.12556E-01        -0.52644E-02         0.00000E+00
    0.12286E-01        -0.50884E-02         0.00000E+00
    0.12009E-01        -0.49135E-02         0.00000E+00
    0.11727E-01        -0.47397E-02         0.00000E+00
    0.11439E-01        -0.45672E-02         0.00000E+00
    0.11145E-01        -0.43958E-02         0.00000E+00
    0.10845E-01        -0.42258E-02         0.00000E+00
    0.10540E-01        -0.40570E-02         0.00000E+00
    0.10229E-01        -0.38896E-02         0.00000E+00
    0.99131E-02        -0.37236E-02         0.00000E+00
    0.95915E-02        -0.35589E-02         0.00000E+00
    0.92646E-02        -0.33956E-02         0.00000E+00
    0.89324E-02        -0.32339E-02         0.00000E+00
    0.85951E-02        -0.30736E-02         0.00000E+00
    0.82527E-02        -0.29148E-02         0.00000E+00
    0.79052E-02        -0.27577E-02         0.00000E+00
    0.75527E-02        -0.26021E-02         0.00000E+00
    0.71954E-02        -0.24481E-02         0.00000E+00
    0.68332E-02        -0.22959E-02         0.00000E+00
    0.64663E-02        -0.21453E-02         0.00000E+00
    0.60946E-02        -0.19965E-02         0.00000E+00
    0.57183E-02        -0.18494E-02         0.00000E+00
    0.53375E-02        -0.17042E-02         0.00000E+00
    0.49521E-02        -0.15608E-02         0.00000E+00
    0.45623E-02        -0.14194E-02         0.00000E+00
    0.41681E-02        -0.12799E-02         0.00000E+00
    0.37696E-02        -0.11423E-02         0.00000E+00
    0.33669E-02        -0.10068E-02         0.00000E+00
    0.29600E-02        -0.87328E-03         0.00000E+00
    0.25490E-02        -0.74190E-03         0.00000E+00
    0.21339E-02        -0.61265E-03         0.00000E+00
    0.17148E-02        -0.48559E-03         0.00000E+00
    0.12918E-02        -0.36074E-03         0.00000E+00
    0.86500E-03        -0.23817E-03         0.00000E+00
    0.43437E-03        -0.11791E-03         0.00000E+00
    0.00000E+00         0.00000E+00         0.00000E+00
    0.16644E-01        -0.88902E-02         0.00000E+00
    0.16460E-01        -0.86820E-02         0.00000E+00
    0.16268E-01        -0.84745E-02         0.00000E+00
    0.16069E-01        -0.82677E-02         0.00000E+00
    0.15863E-01        -0.80618E-02         0.00000E+00
    0.15650E-01        -0.78566E-02         0.00000E+00
    0.15430E-01        -0.76523E-02         0.00000E+00
    0.15203E-01        -0.74489E-02         0.00000E+00
    0.14969E-01        -0.72464E-02         0.00000E+00
    0.14729E-01        -0.70448E-02         0.00000E+00
    0.14481E-01        -0.68442E-02         0.00000E+00
    0.14228E-01        -0.66445E-02         0.00000E+00
    0.13968E-01        -0.64460E-02         0.00000E+00
    0.13701E-01        -0.62484E-02         0.00000E+00
    0.13428E-01        -0.60520E-02         0.00000E+00
    0.13149E-01        -0.58567E-02         0.00000E+00
    0.12864E-01        -0.56626E-02         0.00000E+00
    0.12572E-01        -0.54696E-02         0.00000E+00
    0.12275E-01        -0.52779E-02         0.00000E+00
    0.11972E-01        -0.50874E-02         0.00000E+00
    0.11662E-01        -0.48983E-02         0.00000E+00
    0.11347E-01        -0.47104E-02         0.00000E+00
    0.11027E-01        -0.45239E-02         0.00000E+00
    0.10701E-01        -0.43388E-02         0.00000E+00
    0.10369E-01        -0.41551E-02         0.00000E+00
    0.10031E-01        -0.39729E-02         0.00000E+00
    0.96885E-02        -0.37922E-02         0.00000E+00
    0.93403E-02        -0.36130E-02         0.00000E+00
    0.89868E-02        -0.34353E-02         0.00000E+00
    0.86281E-02        -0.32593E-02         0.00000E+00
    0.82643E-02        -0.30848E-02         0.00000E+00
    0.78953E-02        -0.29121E-02         0.00000E+00
    0.75213E-02        -0.27411E-02         0.00000E+00
    0.71424E-02        -0.25718E-02         0.00000E+00
    0.67585E-02        -0.24043E-02         0.00000E+00
    0.63698E-02        -0.22386E-02         0.00000E+00
    0.59763E-02        -0.20747E-02         0.00000E+00
    0.55781E-02        -0.19128E-02         0.00000E+00
    0.51752E-02        -0.17528E-02         0.00000E+00
    0.47677E-02        -0.15948E-02         0.00000E+00
    0.43558E-02        -0.14389E-02         0.00000E+00
    0.39393E-02        -0.12850E-02         0.00000E+00
    0.35184E-02        -0.11332E-02         0.00000E+00
    0.30932E-02        -0.98351E-03         0.00000E+00
    0.26637E-02        -0.83605E-03         0.00000E+00
    0.22300E-02        -0.69084E-03         0.00000E+00
    0.17921E-02        -0.54792E-03         0.00000E+00
    0.13500E-02        -0.40732E-03         0.00000E+00
    0.90399E-03        -0.26911E-03         0.00000E+00
    0.45396E-03        -0.13332E-03         0.00000E+00
    0.00000E+00         0.00000E+00         0.00000E+00
    0.17489E-01        -0.98281E-02         0.00000E+00
    0.17291E-01        -0.95998E-02         0.00000E+00
    0.17085E-01        -0.93722E-02         0.00000E+00
    0.16872E-01        -0.91455E-02         0.00000E+00
    0.16651E-01        -0.89195E-02         0.00000E+00
    0.16423E-01        -0.86945E-02         0.00000E+00
    0.16189E-01        -0.84703E-02         0.00000E+00
    0.15947E-01        -0.82470E-02         0.00000E+00
    0.15698E-01        -0.80247E-02         0.00000E+00
    0.15443E-01        -0.78034E-02         0.00000E+00
    0.15180E-01        -0.75832E-02         0.00000E+00
    0.14911E-01        -0.73639E-02         0.00000E+00
    0.14636E-01        -0.71458E-02         0.00000E+00
    0.14354E-01        -0.69287E-02         0.00000E+00
    0.14066E-01        -0.67128E-02         0.00000E+00
    0.13771E-01        -0.64981E-02         0.00000E+00
    0.13470E-01        -0.62846E-02         0.00000E+00
    0.13163E-01        -0.60723E-02         0.00000E+00
    0.12850E-01        -0.58613E-02         0.00000E+00
    0.12530E-01        -0.56516E-02         0.00000E+00
    0.12205E-01        -0.54433E-02         0.00000E+00
    0.11874E-01        -0.52363E-02         0.00000E+00
    0.11537E-01        -0.50308E-02         0.00000E+00
    0.11195E-01        -0.48267E-02         0.00000E+00
    0.10846E-01        -0.46240E-02         0.00000E+00
    0.10492E-01        -0.44229E-02         0.00000E+00
    0.10133E-01        -0.42233E-02         0.00000E+00
    0.97677E-02        -0.40253E-02         0.00000E+00
    0.93973E-02        -0.38289E-02         0.00000E+00
    0.90215E-02        -0.36342E-02         0.00000E+00
    0.86405E-02        -0.34412E-02         0.00000E+00
    0.82542E-02        -0.32499E-02         0.00000E+00
    0.78627E-02        -0.30604E-02         0.00000E+00
    0.74662E-02        -0.28727E-02         0.00000E+00
    0.70646E-02        -0.26868E-02         0.00000E+00
    0.66580E-02        -0.25029E-02         0.00000E+00
    0.62464E-02        -0.23208E-02         0.00000E+00
    0.58300E-02        -0.21408E-02         0.00000E+00
    0.54088E-02        -0.19627E-02         0.00000E+00
    0.49829E-02        -0.17868E-02         0.00000E+00
    0.45522E-02        -0.16129E-02         0.00000E+00
    0.41169E-02        -0.14412E-02         0.00000E+00
    0.36771E-02        -0.12716E-02         0.00000E+00
    0.32327E-02        -0.11043E-02         0.00000E+00
    0.27838E-02        -0.93932E-03         0.00000E+00
    0.23305E-02        -0.77665E-03         0.00000E+00
    0.18729E-02        -0.61636E-03         0.00000E+00
    0.14110E-02        -0.45850E-03         0.00000E+00
    0.94483E-03        -0.30312E-03         0.00000E+00
    0.47448E-03        -0.15027E-03         0.00000E+00
    0.00000E+00         0.00000E+00         0.00000E+00
    0.18377E-01        -0.10840E-01         0.00000E+00
    0.18163E-01        -0.10590E-01         0.00000E+00
    0.17942E-01        -0.10341E-01         0.00000E+00
    0.17713E-01        -0.10093E-01         0.00000E+00
    0.17477E-01        -0.98453E-02         0.00000E+00
    0.17234E-01        -0.95990E-02         0.00000E+00
    0.16983E-01        -0.93536E-02         0.00000E+00
    0.16726E-01        -0.91092E-02         0.00000E+00
    0.16461E-01        -0.88657E-02         0.00000E+00
    0.16190E-01        -0.86234E-02         0.00000E+00
    0.15912E-01        -0.83820E-02         0.00000E+00
    0.15627E-01        -0.81418E-02         0.00000E+00
    0.15335E-01        -0.79027E-02         0.00000E+00
    0.15037E-01        -0.76648E-02         0.00000E+00
    0.14732E-01        -0.74280E-02         0.00000E+00
    0.14421E-01        -0.71925E-02         0.00000E+00
    0.14103E-01        -0.69583E-02         0.00000E+00
    0.13780E-01        -0.67253E-02         0.00000E+00
    0.13450E-01        -0.64936E-02         0.00000E+00
    0.13114E-01        -0.62633E-02         0.00000E+00
    0.12772E-01        -0.60344E-02         0.00000E+00
    0.12424E-01        -0.58069E-02         0.00000E+00
    0.12070E-01        -0.55809E-02         0.00000E+00
    0.11710E-01        -0.53563E-02         0.00000E+00
    0.11344E-01        -0.51333E-02         0.00000E+00
    0.10973E-01        -0.49118E-02         0.00000E+00
    0.10596E-01        -0.46919E-02         0.00000E+00
    0.10213E-01        -0.44737E-02         0.00000E+00
    0.98251E-02        -0.42571E-02         0.00000E+00
    0.94315E-02        -0.40423E-02         0.00000E+00
    0.90324E-02        -0.38292E-02         0.00000E+00
    0.86280E-02        -0.36178E-02         0.00000E+00
    0.82184E-02        -0.34083E-02         0.00000E+00
    0.78034E-02        -0.32007E-02         0.00000E+00
    0.73833E-02        -0.29950E-02         0.00000E+00
    0.69581E-02        -0.27912E-02         0.00000E+00
    0.65278E-02        -0.25895E-02         0.00000E+00
    0.60924E-02        -0.23897E-02         0.00000E+00
    0.56521E-02        -0.21921E-02         0.00000E+00
    0.52069E-02        -0.19965E-02         0.00000E+00
    0.47568E-02        -0.18032E-02         0.00000E+00
    0.43019E-02        -0.16121E-02         0.00000E+00
    0.38423E-02        -0.14232E-02         0.00000E+00
    0.33779E-02        -0.12367E-02         0.00000E+00
    0.29089E-02        -0.10525E-02         0.00000E+00
    0.24353E-02        -0.87072E-03         0.00000E+00
    0.19572E-02        -0.69143E-03         0.00000E+00
    0.14745E-02        -0.51466E-03         0.00000E+00
    0.98738E-03        -0.34046E-03         0.00000E+00
    0.49586E-03        -0.16889E-03         0.00000E+00
    0.00000E+00         0.00000E+00         0.00000E+00
    0.19304E-01        -0.11930E-01         0.00000E+00
    0.19074E-01        -0.11657E-01         0.00000E+00
    0.18836E-01        -0.11385E-01         0.00000E+00
    0.18591E-01        -0.11114E-01         0.00000E+00
    0.18339E-01        -0.10844E-01         0.00000E+00
    0.18079E-01        -0.10575E-01         0.00000E+00
    0.17812E-01        -0.10307E-01         0.00000E+00
    0.17537E-01        -0.10040E-01         0.00000E+00
    0.17256E-01        -0.97740E-02         0.00000E+00
    0.16968E-01        -0.95091E-02         0.00000E+00
    0.16672E-01        -0.92453E-02         0.00000E+00
    0.16370E-01        -0.89826E-02         0.00000E+00
    0.16062E-01        -0.87212E-02         0.00000E+00
    0.15746E-01        -0.84609E-02         0.00000E+00
    0.15425E-01        -0.82018E-02         0.00000E+00
    0.15096E-01        -0.79440E-02         0.00000E+00
    0.14761E-01        -0.76875E-02         0.00000E+00
    0.14420E-01        -0.74323E-02         0.00000E+00
    0.14073E-01        -0.71785E-02         0.00000E+00
    0.13719E-01        -0.69261E-02         0.00000E+00
    0.13360E-01        -0.66751E-02         0.00000E+00
    0.12994E-01        -0.64256E-02         0.00000E+00
    0.12622E-01        -0.61775E-02         0.00000E+00
    0.12244E-01        -0.59310E-02         0.00000E+00
    0.11861E-01        -0.56861E-02         0.00000E+00
    0.11471E-01        -0.54427E-02         0.00000E+00
    0.11076E-01        -0.52010E-02         0.00000E+00
    0.10675E-01        -0.49609E-02         0.00000E+00
    0.10268E-01        -0.47226E-02         0.00000E+00
    0.98563E-02        -0.44860E-02         0.00000E+00
    0.94386E-02        -0.42512E-02         0.00000E+00
    0.90154E-02        -0.40183E-02         0.00000E+00
    0.85868E-02        -0.37872E-02         0.00000E+00
    0.81529E-02        -0.35580E-02         0.00000E+00
    0.77136E-02        -0.33308E-02         0.00000E+00
    0.72690E-02        -0.31056E-02         0.00000E+00
    0.68192E-02        -0.28824E-02         0.00000E+00
    0.63642E-02        -0.26613E-02         0.00000E+00
    0.59041E-02        -0.24424E-02         0.00000E+00
    0.54390E-02        -0.22256E-02         0.00000E+00
    0.49687E-02        -0.20111E-02         0.00000E+00
    0.44936E-02        -0.17989E-02         0.00000E+00
    0.40134E-02        -0.15890E-02         0.00000E+00
    0.35284E-02        -0.13814E-02         0.00000E+00
    0.30385E-02        -0.11763E-02         0.00000E+00
    0.25439E-02        -0.97374E-03         0.00000E+00
    0.20444E-02        -0.77369E-03         0.00000E+00
    0.15403E-02        -0.57623E-03         0.00000E+00
    0.10315E-02        -0.38142E-03         0.00000E+00
    0.51802E-03        -0.18933E-03         0.00000E+00
    0.00000E+00         0.00000E+00         0.00000E+00
    0.20268E-01        -0.13104E-01         0.00000E+00
    0.20021E-01        -0.12807E-01         0.00000E+00
    0.19766E-01        -0.12511E-01         0.00000E+00
    0.19503E-01        -0.12216E-01         0.00000E+00
    0.19233E-01        -0.11921E-01         0.00000E+00
    0.18955E-01        -0.11628E-01         0.00000E+00
    0.18670E-01        -0.11336E-01         0.00000E+00
    0.18378E-01        -0.11044E-01         0.00000E+00
    0.18079E-01        -0.10754E-01         0.00000E+00
    0.17773E-01        -0.10465E-01         0.00000E+00
    0.17460E-01        -0.10178E-01         0.00000E+00
    0.17141E-01        -0.98909E-02         0.00000E+00
    0.16814E-01        -0.96055E-02         0.00000E+00
    0.16481E-01        -0.93213E-02         0.00000E+00
    0.16141E-01        -0.90384E-02         0.00000E+00
    0.15794E-01        -0.87567E-02         0.00000E+00
    0.15441E-01        -0.84764E-02         0.00000E+00
    0.15082E-01        -0.81975E-02         0.00000E+00
    0.14716E-01        -0.79199E-02         0.00000E+00
    0.14345E-01        -0.76438E-02         0.00000E+00
    0.13966E-01        -0.73691E-02         0.00000E+00
    0.13582E-01        -0.70959E-02         0.00000E+00
    0.13192E-01        -0.68242E-02         0.00000E+00
    0.12796E-01        -0.65541E-02         0.00000E+00
    0.12393E-01        -0.62856E-02         0.00000E+00
    0.11985E-01        -0.60187E-02         0.00000E+00
    0.11571E-01        -0.57534E-02         0.00000E+00
    0.11151E-01        -0.54899E-02         0.00000E+00
    0.10725E-01        -0.52281E-02         0.00000E+00
    0.10294E-01        -0.49681E-02         0.00000E+00
    0.98572E-02        -0.47100E-02         0.00000E+00
    0.94146E-02        -0.44537E-02         0.00000E+00
    0.89665E-02        -0.41992E-02         0.00000E+00
    0.85128E-02        -0.39468E-02         0.00000E+00
    0.80537E-02        -0.36963E-02         0.00000E+00
    0.75892E-02        -0.34479E-02         0.00000E+00
    0.71194E-02        -0.32016E-02         0.00000E+00
    0.66442E-02        -0.29573E-02         0.00000E+00
    0.61637E-02        -0.27153E-02         0.00000E+00
    0.56780E-02        -0.24755E-02         0.00000E+00
    0.51870E-02        -0.22380E-02         0.00000E+00
    0.46909E-02        -0.20028E-02         0.00000E+00
    0.41897E-02        -0.17700E-02         0.00000E+00
    0.36834E-02        -0.15396E-02         0.00000E+00
    0.31720E-02        -0.13117E-02         0.00000E+00
    0.26557E-02        -0.10864E-02         0.00000E+00
    0.21343E-02        -0.86369E-03         0.00000E+00
    0.16080E-02        -0.64362E-03         0.00000E+00
    0.10769E-02        -0.42628E-03         0.00000E+00
    0.54085E-03        -0.21172E-03         0.00000E+00
    0.00000E+00         0.00000E+00         0.00000E+00
    0.21266E-01        -0.14369E-01         0.00000E+00
    0.21000E-01        -0.14045E-01         0.00000E+00
    0.20726E-01        -0.13723E-01         0.00000E+00
    0.20445E-01        -0.13402E-01         0.00000E+00
    0.20156E-01        -0.13082E-01         0.00000E+00
    0.19860E-01        -0.12763E-01         0.00000E+00
    0.19557E-01        -0.12444E-01         0.00000E+00
    0.19246E-01        -0.12128E-01         0.00000E+00
    0.18928E-01        -0.11812E-01         0.00000E+00
    0.18604E-01        -0.11497E-01         0.00000E+00
    0.18272E-01        -0.11184E-01         0.00000E+00
    0.17933E-01        -0.10871E-01         0.00000E+00
    0.17588E-01        -0.10560E-01         0.00000E+00
    0.17236E-01        -0.10250E-01         0.00000E+00
    0.16877E-01        -0.99420E-02         0.00000E+00
    0.16512E-01        -0.96348E-02         0.00000E+00
    0.16140E-01        -0.93291E-02         0.00000E+00
    0.15762E-01        -0.90246E-02         0.00000E+00
    0.15378E-01        -0.87216E-02         0.00000E+00
    0.14987E-01        -0.84201E-02         0.00000E+00
    0.14590E-01        -0.81200E-02         0.00000E+00
    0.14186E-01        -0.78214E-02         0.00000E+00
    0.13777E-01        -0.75244E-02         0.00000E+00
    0.13361E-01        -0.72290E-02         0.00000E+00
    0.12940E-01        -0.69351E-02         0.00000E+00
    0.12512E-01        -0.66429E-02         0.00000E+00
    0.12079E-01        -0.63524E-02         0.00000E+00
    0.11639E-01        -0.60636E-02         0.00000E+00
    0.11194E-01        -0.57766E-02         0.00000E+00
    0.10743E-01        -0.54914E-02         0.00000E+00
    0.10286E-01        -0.52080E-02         0.00000E+00
    0.98236E-02        -0.49265E-02         0.00000E+00
    0.93554E-02        -0.46469E-02         0.00000E+00
    0.88816E-02        -0.43693E-02         0.00000E+00
    0.84022E-02        -0.40937E-02         0.00000E+00
    0.79173E-02        -0.38202E-02         0.00000E+00
    0.74268E-02        -0.35488E-02         0.00000E+00
    0.69309E-02        -0.32796E-02         0.00000E+00
    0.64295E-02        -0.30125E-02         0.00000E+00
    0.59227E-02        -0.27477E-02         0.00000E+00
    0.54105E-02        -0.24852E-02         0.00000E+00
    0.48930E-02        -0.22251E-02         0.00000E+00
    0.43702E-02        -0.19674E-02         0.00000E+00
    0.38421E-02        -0.17122E-02         0.00000E+00
    0.33087E-02        -0.14595E-02         0.00000E+00
    0.27702E-02        -0.12095E-02         0.00000E+00
    0.22264E-02        -0.96201E-03         0.00000E+00
    0.16775E-02        -0.71728E-03         0.00000E+00
    0.11234E-02        -0.47533E-03         0.00000E+00
    0.56424E-03        -0.23621E-03         0.00000E+00
    0.00000E+00         0.00000E+00         0.00000E+00
    0.22293E-01        -0.15729E-01         0.00000E+00
    0.22007E-01        -0.15378E-01         0.00000E+00
    0.21714E-01        -0.15028E-01         0.00000E+00
    0.21413E-01        -0.14679E-01         0.00000E+00
    0.21105E-01        -0.14331E-01         0.00000E+00
    0.20789E-01        -0.13984E-01         0.00000E+00
    0.20466E-01        -0.13639E-01         0.00000E+00
    0.20136E-01        -0.13294E-01         0.00000E+00
    0.19799E-01        -0.12951E-01         0.00000E+00
    0.19454E-01        -0.12609E-01         0.00000E+00
    0.19103E-01        -0.12268E-01         0.00000E+00
    0.18745E-01        -0.11928E-01         0.00000E+00
    0.18380E-01        -0.11590E-01         0.00000E+00
    0.18009E-01        -0.11253E-01         0.00000E+00
    0.17631E-01        -0.10917E-01         0.00000E+00
    0.17246E-01        -0.10583E-01         0.00000E+00
    0.16855E-01        -0.10250E-01         0.00000E+00
    0.16457E-01        -0.99180E-02         0.00000E+00
    0.16053E-01        -0.95877E-02         0.00000E+00
    0.15642E-01        -0.92590E-02         0.00000E+00
    0.15226E-01        -0.89317E-02         0.00000E+00
    0.14803E-01        -0.86059E-02         0.00000E+00
    0.14373E-01        -0.82817E-02         0.00000E+00
    0.13938E-01        -0.79591E-02         0.00000E+00
    0.13497E-01        -0.76380E-02         0.00000E+00
    0.13049E-01        -0.73187E-02         0.00000E+00
    0.12596E-01        -0.70010E-02         0.00000E+00
    0.12136E-01        -0.66851E-02         0.00000E+00
    0.11671E-01        -0.63709E-02         0.00000E+00
    0.11200E-01        -0.60585E-02         0.00000E+00
    0.10723E-01        -0.57480E-02         0.00000E+00
    0.10240E-01        -0.54394E-02         0.00000E+00
    0.97514E-02        -0.51327E-02         0.00000E+00
    0.92571E-02        -0.48280E-02         0.00000E+00
    0.87570E-02        -0.45253E-02         0.00000E+00
    0.82512E-02        -0.42246E-02         0.00000E+00
    0.77398E-02        -0.39261E-02         0.00000E+00
    0.72227E-02        -0.36298E-02         0.00000E+00
    0.67001E-02        -0.33357E-02         0.00000E+00
    0.61718E-02        -0.30438E-02         0.00000E+00
    0.56381E-02        -0.27543E-02         0.00000E+00
    0.50988E-02        -0.24672E-02         0.00000E+00
    0.45540E-02        -0.21825E-02         0.00000E+00
    0.40037E-02        -0.19003E-02         0.00000E+00
    0.34479E-02        -0.16206E-02         0.00000E+00
    0.28867E-02        -0.13436E-02         0.00000E+00
    0.23201E-02        -0.10693E-02         0.00000E+00
    0.17482E-02        -0.79766E-03         0.00000E+00
    0.11708E-02        -0.52888E-03         0.00000E+00
    0.58806E-03        -0.26296E-03         0.00000E+00
    0.00000E+00         0.00000E+00         0.00000E+00
    0.23345E-01        -0.17190E-01         0.00000E+00
    0.23039E-01        -0.16809E-01         0.00000E+00
    0.22725E-01        -0.16430E-01         0.00000E+00
    0.22403E-01        -0.16051E-01         0.00000E+00
    0.22074E-01        -0.15674E-01         0.00000E+00
    0.21738E-01        -0.15298E-01         0.00000E+00
    0.21394E-01        -0.14923E-01         0.00000E+00
    0.21044E-01        -0.14549E-01         0.00000E+00
    0.20686E-01        -0.14177E-01         0.00000E+00
    0.20321E-01        -0.13806E-01         0.00000E+00
    0.19950E-01        -0.13436E-01         0.00000E+00
    0.19572E-01        -0.13067E-01         0.00000E+00
    0.19187E-01        -0.12699E-01         0.00000E+00
    0.18795E-01        -0.12333E-01         0.00000E+00
    0.18397E-01        -0.11968E-01         0.00000E+00
    0.17992E-01        -0.11605E-01         0.00000E+00
    0.17580E-01        -0.11242E-01         0.00000E+00
    0.17163E-01        -0.10882E-01         0.00000E+00
    0.16738E-01        -0.10522E-01         0.00000E+00
    0.16308E-01        -0.10164E-01         0.00000E+00
    0.15871E-01        -0.98079E-02         0.00000E+00
    0.15428E-01        -0.94530E-02         0.00000E+00
    0.14978E-01        -0.90997E-02         0.00000E+00
    0.14523E-01        -0.87479E-02         0.00000E+00
    0.14061E-01        -0.83978E-02         0.00000E+00
    0.13594E-01        -0.80493E-02         0.00000E+00
    0.13120E-01        -0.77024E-02         0.00000E+00
    0.12640E-01        -0.73573E-02         0.00000E+00
    0.12154E-01        -0.70140E-02         0.00000E+00
    0.11663E-01        -0.66724E-02         0.00000E+00
    0.11165E-01        -0.63327E-02         0.00000E+00
    0.10662E-01        -0.59949E-02         0.00000E+00
    0.10152E-01        -0.56590E-02         0.00000E+00
    0.96370E-02        -0.53250E-02         0.00000E+00
    0.91159E-02        -0.49931E-02         0.00000E+00
    0.85890E-02        -0.46632E-02         0.00000E+00
    0.80564E-02        -0.43355E-02         0.00000E+00
    0.75179E-02        -0.40099E-02         0.00000E+00
    0.69737E-02        -0.36865E-02         0.00000E+00
    0.64238E-02        -0.33654E-02         0.00000E+00
    0.58682E-02        -0.30466E-02         0.00000E+00
    0.53068E-02        -0.27302E-02         0.00000E+00
    0.47398E-02        -0.24163E-02         0.00000E+00
    0.41671E-02        -0.21048E-02         0.00000E+00
    0.35887E-02        -0.17959E-02         0.00000E+00
    0.30047E-02        -0.14896E-02         0.00000E+00
    0.24150E-02        -0.11860E-02         0.00000E+00
    0.18197E-02        -0.88522E-03         0.00000E+00
    0.12187E-02        -0.58723E-03         0.00000E+00
    0.61217E-03        -0.29213E-03         0.00000E+00
    0.00000E+00         0.00000E+00         0.00000E+00
    0.24417E-01        -0.18758E-01         0.00000E+00
    0.24088E-01        -0.18346E-01         0.00000E+00
    0.23752E-01        -0.17935E-01         0.00000E+00
    0.23409E-01        -0.17525E-01         0.00000E+00
    0.23059E-01        -0.17117E-01         0.00000E+00
    0.22701E-01        -0.16710E-01         0.00000E+00
    0.22336E-01        -0.16303E-01         0.00000E+00
    0.21964E-01        -0.15899E-01         0.00000E+00
    0.21585E-01        -0.15495E-01         0.00000E+00
    0.21200E-01        -0.15092E-01         0.00000E+00
    0.20807E-01        -0.14691E-01         0.00000E+00
    0.20408E-01        -0.14291E-01         0.00000E+00
    0.20002E-01        -0.13893E-01         0.00000E+00
    0.19590E-01        -0.13495E-01         0.00000E+00
    0.19170E-01        -0.13099E-01         0.00000E+00
    0.18745E-01        -0.12705E-01         0.00000E+00
    0.18313E-01        -0.12311E-01         0.00000E+00
    0.17874E-01        -0.11920E-01         0.00000E+00
    0.17430E-01        -0.11529E-01         0.00000E+00
    0.16979E-01        -0.11140E-01         0.00000E+00
    0.16521E-01        -0.10753E-01         0.00000E+00
    0.16058E-01        -0.10367E-01         0.00000E+00
    0.15588E-01        -0.99821E-02         0.00000E+00
    0.15112E-01        -0.95991E-02         0.00000E+00
    0.14630E-01        -0.92178E-02         0.00000E+00
    0.14141E-01        -0.88380E-02         0.00000E+00
    0.13647E-01        -0.84599E-02         0.00000E+00
    0.13147E-01        -0.80835E-02         0.00000E+00
    0.12640E-01        -0.77089E-02         0.00000E+00
    0.12128E-01        -0.73360E-02         0.00000E+00
    0.11610E-01        -0.69649E-02         0.00000E+00
    0.11085E-01        -0.65957E-02         0.00000E+00
    0.10555E-01        -0.62284E-02         0.00000E+00
    0.10019E-01        -0.58630E-02         0.00000E+00
    0.94765E-02        -0.54996E-02         0.00000E+00
    0.89284E-02        -0.51382E-02         0.00000E+00
    0.83744E-02        -0.47789E-02         0.00000E+00
    0.78144E-02        -0.44218E-02         0.00000E+00
    0.72486E-02        -0.40668E-02         0.00000E+00
    0.66769E-02        -0.37141E-02         0.00000E+00
    0.60993E-02        -0.33637E-02         0.00000E+00
    0.55158E-02        -0.30156E-02         0.00000E+00
    0.49265E-02        -0.26700E-02         0.00000E+00
    0.43313E-02        -0.23269E-02         0.00000E+00
    0.37301E-02        -0.19863E-02         0.00000E+00
    0.31232E-02        -0.16483E-02         0.00000E+00
    0.25103E-02        -0.13130E-02         0.00000E+00
    0.18915E-02        -0.98042E-03         0.00000E+00
    0.12669E-02        -0.65069E-03         0.00000E+00
    0.63640E-03        -0.32386E-03         0.00000E+00
    0.00000E+00         0.00000E+00         0.00000E+00
    0.25502E-01        -0.20438E-01         0.00000E+00
    0.25150E-01        -0.19993E-01         0.00000E+00
    0.24791E-01        -0.19549E-01         0.00000E+00
    0.24426E-01        -0.19106E-01         0.00000E+00
    0.24053E-01        -0.18664E-01         0.00000E+00
    0.23672E-01        -0.18224E-01         0.00000E+00
    0.23285E-01        -0.17784E-01         0.00000E+00
    0.22892E-01        -0.17346E-01         0.00000E+00
    0.22491E-01        -0.16910E-01         0.00000E+00
    0.22083E-01        -0.16474E-01         0.00000E+00
    0.21669E-01        -0.16040E-01         0.00000E+00
    0.21248E-01        -0.15607E-01         0.00000E+00
    0.20821E-01        -0.15175E-01         0.00000E+00
    0.20387E-01        -0.14745E-01         0.00000E+00
    0.19947E-01        -0.14315E-01         0.00000E+00
    0.19500E-01        -0.13888E-01         0.00000E+00
    0.19047E-01        -0.13461E-01         0.00000E+00
    0.18588E-01        -0.13036E-01         0.00000E+00
    0.18122E-01        -0.12613E-01         0.00000E+00
    0.17650E-01        -0.12190E-01         0.00000E+00
    0.17172E-01        -0.11770E-01         0.00000E+00
    0.16687E-01        -0.11350E-01         0.00000E+00
    0.16197E-01        -0.10932E-01         0.00000E+00
    0.15700E-01        -0.10516E-01         0.00000E+00
    0.15197E-01        -0.10101E-01         0.00000E+00
    0.14688E-01        -0.96883E-02         0.00000E+00
    0.14173E-01        -0.92767E-02         0.00000E+00
    0.13652E-01        -0.88668E-02         0.00000E+00
    0.13125E-01        -0.84586E-02         0.00000E+00
    0.12592E-01        -0.80521E-02         0.00000E+00
    0.12053E-01        -0.76474E-02         0.00000E+00
    0.11508E-01        -0.72444E-02         0.00000E+00
    0.10957E-01        -0.68434E-02         0.00000E+00
    0.10399E-01        -0.64442E-02         0.00000E+00
    0.98360E-02        -0.60469E-02         0.00000E+00
    0.92667E-02        -0.56517E-02         0.00000E+00
    0.86914E-02        -0.52584E-02         0.00000E+00
    0.81100E-02        -0.48673E-02         0.00000E+00
    0.75226E-02        -0.44783E-02         0.00000E+00
    0.69292E-02        -0.40915E-02         0.00000E+00
    0.63297E-02        -0.37070E-02         0.00000E+00
    0.57242E-02        -0.33248E-02         0.00000E+00
    0.51126E-02        -0.29449E-02         0.00000E+00
    0.44949E-02        -0.25675E-02         0.00000E+00
    0.38712E-02        -0.21926E-02         0.00000E+00
    0.32413E-02        -0.18203E-02         0.00000E+00
    0.26053E-02        -0.14507E-02         0.00000E+00
    0.19632E-02        -0.10837E-02         0.00000E+00
    0.13150E-02        -0.71960E-03         0.00000E+00
    0.66057E-03        -0.35833E-03         0.00000E+00
    0.00000E+00         0.00000E+00         0.00000E+00
    0.26593E-01        -0.22236E-01         0.00000E+00
    0.26217E-01        -0.21756E-01         0.00000E+00
    0.25835E-01        -0.21276E-01         0.00000E+00
    0.25445E-01        -0.20798E-01         0.00000E+00
    0.25049E-01        -0.20321E-01         0.00000E+00
    0.24646E-01        -0.19846E-01         0.00000E+00
    0.24236E-01        -0.19371E-01         0.00000E+00
    0.23819E-01        -0.18898E-01         0.00000E+00
    0.23396E-01        -0.18426E-01         0.00000E+00
    0.22966E-01        -0.17955E-01         0.00000E+00
    0.22529E-01        -0.17486E-01         0.00000E+00
    0.22087E-01        -0.17018E-01         0.00000E+00
    0.21637E-01        -0.16551E-01         0.00000E+00
    0.21182E-01        -0.16085E-01         0.00000E+00
    0.20720E-01        -0.15621E-01         0.00000E+00
    0.20252E-01        -0.15158E-01         0.00000E+00
    0.19777E-01        -0.14696E-01         0.00000E+00
    0.19296E-01        -0.14236E-01         0.00000E+00
    0.18810E-01        -0.13777E-01         0.00000E+00
    0.18317E-01        -0.13319E-01         0.00000E+00
    0.17817E-01        -0.12863E-01         0.00000E+00
    0.17312E-01        -0.12408E-01         0.00000E+00
    0.16801E-01        -0.11955E-01         0.00000E+00
    0.16283E-01        -0.11503E-01         0.00000E+00
    0.15760E-01        -0.11052E-01         0.00000E+00
    0.15230E-01        -0.10603E-01         0.00000E+00
    0.14695E-01        -0.10156E-01         0.00000E+00
    0.14153E-01        -0.97103E-02         0.00000E+00
    0.13605E-01        -0.92661E-02         0.00000E+00
    0.13051E-01        -0.88236E-02         0.00000E+00
    0.12492E-01        -0.83828E-02         0.00000E+00
    0.11926E-01        -0.79438E-02         0.00000E+00
    0.11354E-01        -0.75065E-02         0.00000E+00
    0.10776E-01        -0.70711E-02         0.00000E+00
    0.10191E-01        -0.66375E-02         0.00000E+00
    0.96011E-02        -0.62058E-02         0.00000E+00
    0.90047E-02        -0.57761E-02         0.00000E+00
    0.84021E-02        -0.53484E-02         0.00000E+00
    0.77934E-02        -0.49228E-02         0.00000E+00
    0.71785E-02        -0.44993E-02         0.00000E+00
    0.65574E-02        -0.40780E-02         0.00000E+00
    0.59301E-02        -0.36590E-02         0.00000E+00
    0.52965E-02        -0.32422E-02         0.00000E+00
    0.46567E-02        -0.28279E-02         0.00000E+00
    0.40105E-02        -0.24160E-02         0.00000E+00
    0.33581E-02        -0.20066E-02         0.00000E+00
    0.26993E-02        -0.15998E-02         0.00000E+00
    0.20341E-02        -0.11957E-02         0.00000E+00
    0.13625E-02        -0.79426E-03         0.00000E+00
    0.68449E-03        -0.39568E-03         0.00000E+00
    0.00000E+00         0.00000E+00         0.00000E+00
    0.27683E-01        -0.24158E-01         0.00000E+00
    0.27282E-01        -0.23640E-01         0.00000E+00
    0.26875E-01        -0.23123E-01         0.00000E+00
    0.26461E-01        -0.22608E-01         0.00000E+00
    0.26040E-01        -0.22093E-01         0.00000E+00
    0.25613E-01        -0.21580E-01         0.00000E+00
    0.25180E-01        -0.21069E-01         0.00000E+00
    0.24739E-01        -0.20558E-01         0.00000E+00
    0.24293E-01        -0.20049E-01         0.00000E+00
    0.23840E-01        -0.19541E-01         0.00000E+00
    0.23381E-01        -0.19034E-01         0.00000E+00
    0.22916E-01        -0.18529E-01         0.00000E+00
    0.22444E-01        -0.18024E-01         0.00000E+00
    0.21966E-01        -0.17521E-01         0.00000E+00
    0.21483E-01        -0.17019E-01         0.00000E+00
    0.20993E-01        -0.16519E-01         0.00000E+00
    0.20497E-01        -0.16020E-01         0.00000E+00
    0.19995E-01        -0.15522E-01         0.00000E+00
    0.19487E-01        -0.15025E-01         0.00000E+00
    0.18973E-01        -0.14530E-01         0.00000E+00
    0.18452E-01        -0.14036E-01         0.00000E+00
    0.17926E-01        -0.13543E-01         0.00000E+00
    0.17394E-01        -0.13052E-01         0.00000E+00
    0.16856E-01        -0.12562E-01         0.00000E+00
    0.16312E-01        -0.12074E-01         0.00000E+00
    0.15762E-01        -0.11587E-01         0.00000E+00
    0.15206E-01        -0.11101E-01         0.00000E+00
    0.14644E-01        -0.10617E-01         0.00000E+00
    0.14076E-01        -0.10134E-01         0.00000E+00
    0.13502E-01        -0.96535E-02         0.00000E+00
    0.12921E-01        -0.91741E-02         0.00000E+00
    0.12335E-01        -0.86964E-02         0.00000E+00
    0.11743E-01        -0.82204E-02         0.00000E+00
    0.11144E-01        -0.77460E-02         0.00000E+00
    0.10539E-01        -0.72735E-02         0.00000E+00
    0.99285E-02        -0.68028E-02         0.00000E+00
    0.93114E-02        -0.63339E-02         0.00000E+00
    0.86880E-02        -0.58670E-02         0.00000E+00
    0.80584E-02        -0.54020E-02         0.00000E+00
    0.74225E-02        -0.49391E-02         0.00000E+00
    0.67802E-02        -0.44783E-02         0.00000E+00
    0.61316E-02        -0.40196E-02         0.00000E+00
    0.54765E-02        -0.35632E-02         0.00000E+00
    0.48150E-02        -0.31090E-02         0.00000E+00
    0.41470E-02        -0.26572E-02         0.00000E+00
    0.34724E-02        -0.22078E-02         0.00000E+00
    0.27913E-02        -0.17609E-02         0.00000E+00
    0.21035E-02        -0.13166E-02         0.00000E+00
    0.14091E-02        -0.87499E-03         0.00000E+00
    0.70792E-03        -0.43608E-03         0.00000E+00
    0.00000E+00         0.00000E+00         0.00000E+00
    0.28762E-01        -0.26208E-01         0.00000E+00
    0.28336E-01        -0.25650E-01         0.00000E+00
    0.27903E-01        -0.25094E-01         0.00000E+00
    0.27464E-01        -0.24539E-01         0.00000E+00
    0.27018E-01        -0.23985E-01         0.00000E+00
    0.26566E-01        -0.23433E-01         0.00000E+00
    0.26108E-01        -0.22882E-01         0.00000E+00
    0.25644E-01        -0.22332E-01         0.00000E+00
    0.25174E-01        -0.21783E-01         0.00000E+00
    0.24698E-01        -0.21235E-01         0.00000E+00
    0.24216E-01        -0.20689E-01         0.00000E+00
    0.23728E-01        -0.20144E-01         0.00000E+00
    0.23234E-01        -0.19600E-01         0.00000E+00
    0.22734E-01        -0.19057E-01         0.00000E+00
    0.22228E-01        -0.18516E-01         0.00000E+00
    0.21716E-01        -0.17976E-01         0.00000E+00
    0.21199E-01        -0.17437E-01         0.00000E+00
    0.20675E-01        -0.16899E-01         0.00000E+00
    0.20146E-01        -0.16362E-01         0.00000E+00
    0.19611E-01        -0.15827E-01         0.00000E+00
    0.19070E-01        -0.15293E-01         0.00000E+00
    0.18523E-01        -0.14760E-01         0.00000E+00
    0.17971E-01        -0.14228E-01         0.00000E+00
    0.17413E-01        -0.13698E-01         0.00000E+00
    0.16848E-01        -0.13169E-01         0.00000E+00
    0.16278E-01        -0.12641E-01         0.00000E+00
    0.15702E-01        -0.12115E-01         0.00000E+00
    0.15120E-01        -0.11590E-01         0.00000E+00
    0.14532E-01        -0.11067E-01         0.00000E+00
    0.13938E-01        -0.10544E-01         0.00000E+00
    0.13338E-01        -0.10024E-01         0.00000E+00
    0.12731E-01        -0.95048E-02         0.00000E+00
    0.12119E-01        -0.89874E-02         0.00000E+00
    0.11501E-01        -0.84715E-02         0.00000E+00
    0.10876E-01        -0.79572E-02         0.00000E+00
    0.10245E-01        -0.74447E-02         0.00000E+00
    0.96082E-02        -0.69339E-02         0.00000E+00
    0.89647E-02        -0.64249E-02         0.00000E+00
    0.83149E-02        -0.59178E-02         0.00000E+00
    0.76586E-02        -0.54125E-02         0.00000E+00
    0.69959E-02        -0.49092E-02         0.00000E+00
    0.63266E-02        -0.44080E-02         0.00000E+00
    0.56508E-02        -0.39089E-02         0.00000E+00
    0.49683E-02        -0.34119E-02         0.00000E+00
    0.42791E-02        -0.29172E-02         0.00000E+00
    0.35832E-02        -0.24247E-02         0.00000E+00
    0.28804E-02        -0.19347E-02         0.00000E+00
    0.21708E-02        -0.14471E-02         0.00000E+00
    0.14542E-02        -0.96210E-03         0.00000E+00
    0.73063E-03        -0.47969E-03         0.00000E+00
    0.00000E+00         0.00000E+00         0.00000E+00
    0.29821E-01        -0.28391E-01         0.00000E+00
    0.29368E-01        -0.27792E-01         0.00000E+00
    0.28909E-01        -0.27194E-01         0.00000E+00
    0.28443E-01        -0.26597E-01         0.00000E+00
    0.27972E-01        -0.26002E-01         0.00000E+00
    0.27495E-01        -0.25407E-01         0.00000E+00
    0.27013E-01        -0.24815E-01         0.00000E+00
    0.26524E-01        -0.24223E-01         0.00000E+00
    0.26030E-01        -0.23632E-01         0.00000E+00
    0.25530E-01        -0.23043E-01         0.00000E+00
    0.25025E-01        -0.22455E-01         0.00000E+00
    0.24514E-01        -0.21868E-01         0.00000E+00
    0.23997E-01        -0.21282E-01         0.00000E+00
    0.23475E-01        -0.20698E-01         0.00000E+00
    0.22947E-01        -0.20114E-01         0.00000E+00
    0.22414E-01        -0.19532E-01         0.00000E+00
    0.21875E-01        -0.18951E-01         0.00000E+00
    0.21331E-01        -0.18370E-01         0.00000E+00
    0.20781E-01        -0.17791E-01         0.00000E+00
    0.20225E-01        -0.17214E-01         0.00000E+00
    0.19664E-01        -0.16637E-01         0.00000E+00
    0.19097E-01        -0.16061E-01         0.00000E+00
    0.18524E-01        -0.15487E-01         0.00000E+00
    0.17946E-01        -0.14913E-01         0.00000E+00
    0.17362E-01        -0.14341E-01         0.00000E+00
    0.16772E-01        -0.13770E-01         0.00000E+00
    0.16177E-01        -0.13201E-01         0.00000E+00
    0.15575E-01        -0.12632E-01         0.00000E+00
    0.14968E-01        -0.12065E-01         0.00000E+00
    0.14355E-01        -0.11499E-01         0.00000E+00
    0.13736E-01        -0.10935E-01         0.00000E+00
    0.13110E-01        -0.10372E-01         0.00000E+00
    0.12479E-01        -0.98099E-02         0.00000E+00
    0.11841E-01        -0.92497E-02         0.00000E+00
    0.11198E-01        -0.86909E-02         0.00000E+00
    0.10548E-01        -0.81336E-02         0.00000E+00
    0.98916E-02        -0.75780E-02         0.00000E+00
    0.92289E-02        -0.70240E-02         0.00000E+00
    0.85598E-02        -0.64717E-02         0.00000E+00
    0.78841E-02        -0.59211E-02         0.00000E+00
    0.72018E-02        -0.53723E-02         0.00000E+00
    0.65129E-02        -0.48255E-02         0.00000E+00
    0.58172E-02        -0.42806E-02         0.00000E+00
    0.51147E-02        -0.37377E-02         0.00000E+00
    0.44053E-02        -0.31968E-02         0.00000E+00
    0.36890E-02        -0.26582E-02         0.00000E+00
    0.29656E-02        -0.21217E-02         0.00000E+00
    0.22351E-02        -0.15876E-02         0.00000E+00
    0.14974E-02        -0.10559E-02         0.00000E+00
    0.75236E-03        -0.52666E-03         0.00000E+00
    0.00000E+00         0.00000E+00         0.00000E+00
    0.30849E-01        -0.30712E-01         0.00000E+00
    0.30368E-01        -0.30069E-01         0.00000E+00
    0.29881E-01        -0.29427E-01         0.00000E+00
    0.29390E-01        -0.28786E-01         0.00000E+00
    0.28892E-01        -0.28147E-01         0.00000E+00
    0.28390E-01        -0.27509E-01         0.00000E+00
    0.27882E-01        -0.26872E-01         0.00000E+00
    0.27369E-01        -0.26236E-01         0.00000E+00
    0.26851E-01        -0.25602E-01         0.00000E+00
    0.26327E-01        -0.24968E-01         0.00000E+00
    0.25798E-01        -0.24336E-01         0.00000E+00
    0.25265E-01        -0.23705E-01         0.00000E+00
    0.24725E-01        -0.23075E-01         0.00000E+00
    0.24181E-01        -0.22446E-01         0.00000E+00
    0.23632E-01        -0.21818E-01         0.00000E+00
    0.23077E-01        -0.21191E-01         0.00000E+00
    0.22517E-01        -0.20565E-01         0.00000E+00
    0.21952E-01        -0.19940E-01         0.00000E+00
    0.21382E-01        -0.19316E-01         0.00000E+00
    0.20806E-01        -0.18694E-01         0.00000E+00
    0.20225E-01        -0.18072E-01         0.00000E+00
    0.19638E-01        -0.17451E-01         0.00000E+00
    0.19047E-01        -0.16831E-01         0.00000E+00
    0.18449E-01        -0.16212E-01         0.00000E+00
    0.17846E-01        -0.15594E-01         0.00000E+00
    0.17238E-01        -0.14977E-01         0.00000E+00
    0.16624E-01        -0.14361E-01         0.00000E+00
    0.16004E-01        -0.13747E-01         0.00000E+00
    0.15378E-01        -0.13133E-01         0.00000E+00
    0.14747E-01        -0.12521E-01         0.00000E+00
    0.14110E-01        -0.11909E-01         0.00000E+00
    0.13466E-01        -0.11299E-01         0.00000E+00
    0.12817E-01        -0.10690E-01         0.00000E+00
    0.12162E-01        -0.10083E-01         0.00000E+00
    0.11500E-01        -0.94765E-02         0.00000E+00
    0.10832E-01        -0.88715E-02         0.00000E+00
    0.10158E-01        -0.82680E-02         0.00000E+00
    0.94771E-02        -0.76659E-02         0.00000E+00
    0.87898E-02        -0.70653E-02         0.00000E+00
    0.80960E-02        -0.64663E-02         0.00000E+00
    0.73954E-02        -0.58689E-02         0.00000E+00
    0.66880E-02        -0.52733E-02         0.00000E+00
    0.59737E-02        -0.46793E-02         0.00000E+00
    0.52524E-02        -0.40872E-02         0.00000E+00
    0.45241E-02        -0.34970E-02         0.00000E+00
    0.37886E-02        -0.29087E-02         0.00000E+00
    0.30458E-02        -0.23226E-02         0.00000E+00
    0.22956E-02        -0.17385E-02         0.00000E+00
    0.15380E-02        -0.11567E-02         0.00000E+00
    0.77284E-03        -0.57714E-03         0.00000E+00
    0.00000E+00         0.00000E+00         0.00000E+00
    0.31833E-01        -0.33175E-01         0.00000E+00
    0.31323E-01        -0.32485E-01         0.00000E+00
    0.30809E-01        -0.31797E-01         0.00000E+00
    0.30290E-01        -0.31110E-01         0.00000E+00
    0.29766E-01        -0.30425E-01         0.00000E+00
    0.29238E-01        -0.29740E-01         0.00000E+00
    0.28705E-01        -0.29057E-01         0.00000E+00
    0.28167E-01        -0.28375E-01         0.00000E+00
    0.27625E-01        -0.27695E-01         0.00000E+00
    0.27077E-01        -0.27015E-01         0.00000E+00
    0.26526E-01        -0.26336E-01         0.00000E+00
    0.25969E-01        -0.25659E-01         0.00000E+00
    0.25408E-01        -0.24982E-01         0.00000E+00
    0.24842E-01        -0.24306E-01         0.00000E+00
    0.24271E-01        -0.23631E-01         0.00000E+00
    0.23696E-01        -0.22957E-01         0.00000E+00
    0.23116E-01        -0.22284E-01         0.00000E+00
    0.22531E-01        -0.21612E-01         0.00000E+00
    0.21941E-01        -0.20941E-01         0.00000E+00
    0.21346E-01        -0.20270E-01         0.00000E+00
    0.20746E-01        -0.19600E-01         0.00000E+00
    0.20141E-01        -0.18931E-01         0.00000E+00
    0.19530E-01        -0.18263E-01         0.00000E+00
    0.18915E-01        -0.17596E-01         0.00000E+00
    0.18294E-01        -0.16930E-01         0.00000E+00
    0.17668E-01        -0.16264E-01         0.00000E+00
    0.17037E-01        -0.15600E-01         0.00000E+00
    0.16400E-01        -0.14936E-01         0.00000E+00
    0.15757E-01        -0.14273E-01         0.00000E+00
    0.15109E-01        -0.13611E-01         0.00000E+00
    0.14454E-01        -0.12950E-01         0.00000E+00
    0.13794E-01        -0.12290E-01         0.00000E+00
    0.13128E-01        -0.11631E-01         0.00000E+00
    0.12456E-01        -0.10973E-01         0.00000E+00
    0.11778E-01        -0.10316E-01         0.00000E+00
    0.11094E-01        -0.96603E-02         0.00000E+00
    0.10403E-01        -0.90057E-02         0.00000E+00
    0.97055E-02        -0.83524E-02         0.00000E+00
    0.90016E-02        -0.77003E-02         0.00000E+00
    0.82910E-02        -0.70496E-02         0.00000E+00
    0.75736E-02        -0.64003E-02         0.00000E+00
    0.68492E-02        -0.57525E-02         0.00000E+00
    0.61178E-02        -0.51062E-02         0.00000E+00
    0.53793E-02        -0.44615E-02         0.00000E+00
    0.46336E-02        -0.38184E-02         0.00000E+00
    0.38804E-02        -0.31772E-02         0.00000E+00
    0.31198E-02        -0.25377E-02         0.00000E+00
    0.23515E-02        -0.19002E-02         0.00000E+00
    0.15756E-02        -0.12647E-02         0.00000E+00
    0.79176E-03        -0.63125E-03         0.00000E+00
    0.00000E+00         0.00000E+00         0.00000E+00
    0.32759E-01        -0.35783E-01         0.00000E+00
    0.32221E-01        -0.35045E-01         0.00000E+00
    0.31678E-01        -0.34308E-01         0.00000E+00
    0.31132E-01        -0.33573E-01         0.00000E+00
    0.30581E-01        -0.32839E-01         0.00000E+00
    0.30027E-01        -0.32106E-01         0.00000E+00
    0.29468E-01        -0.31374E-01         0.00000E+00
    0.28906E-01        -0.30644E-01         0.00000E+00
    0.28340E-01        -0.29914E-01         0.00000E+00
    0.27769E-01        -0.29186E-01         0.00000E+00
    0.27195E-01        -0.28458E-01         0.00000E+00
    0.26616E-01        -0.27732E-01         0.00000E+00
    0.26033E-01        -0.27006E-01         0.00000E+00
    0.25446E-01        -0.26281E-01         0.00000E+00
    0.24855E-01        -0.25557E-01         0.00000E+00
    0.24260E-01        -0.24833E-01         0.00000E+00
    0.23660E-01        -0.24110E-01         0.00000E+00
    0.23056E-01        -0.23388E-01         0.00000E+00
    0.22447E-01        -0.22667E-01         0.00000E+00
    0.21834E-01        -0.21946E-01         0.00000E+00
    0.21216E-01        -0.21226E-01         0.00000E+00
    0.20594E-01        -0.20506E-01         0.00000E+00
    0.19967E-01        -0.19787E-01         0.00000E+00
    0.19334E-01        -0.19069E-01         0.00000E+00
    0.18697E-01        -0.18351E-01         0.00000E+00
    0.18055E-01        -0.17634E-01         0.00000E+00
    0.17408E-01        -0.16918E-01         0.00000E+00
    0.16755E-01        -0.16202E-01         0.00000E+00
    0.16097E-01        -0.15487E-01         0.00000E+00
    0.15433E-01        -0.14772E-01         0.00000E+00
    0.14764E-01        -0.14059E-01         0.00000E+00
    0.14088E-01        -0.13346E-01         0.00000E+00
    0.13408E-01        -0.12633E-01         0.00000E+00
    0.12721E-01        -0.11922E-01         0.00000E+00
    0.12027E-01        -0.11211E-01         0.00000E+00
    0.11328E-01        -0.10502E-01         0.00000E+00
    0.10622E-01        -0.97927E-02         0.00000E+00
    0.99103E-02        -0.90848E-02         0.00000E+00
    0.91914E-02        -0.83780E-02         0.00000E+00
    0.84659E-02        -0.76722E-02         0.00000E+00
    0.77334E-02        -0.69676E-02         0.00000E+00
    0.69939E-02        -0.62642E-02         0.00000E+00
    0.62473E-02        -0.55621E-02         0.00000E+00
    0.54933E-02        -0.48613E-02         0.00000E+00
    0.47320E-02        -0.41619E-02         0.00000E+00
    0.39630E-02        -0.34640E-02         0.00000E+00
    0.31864E-02        -0.27677E-02         0.00000E+00
    0.24019E-02        -0.20731E-02         0.00000E+00
    0.16094E-02        -0.13802E-02         0.00000E+00
    0.80884E-03        -0.68913E-03         0.00000E+00
    0.00000E+00         0.00000E+00         0.00000E+00
    0.33612E-01        -0.38538E-01         0.00000E+00
    0.33044E-01        -0.37749E-01         0.00000E+00
    0.32474E-01        -0.36962E-01         0.00000E+00
    0.31900E-01        -0.36176E-01         0.00000E+00
    0.31323E-01        -0.35392E-01         0.00000E+00
    0.30742E-01        -0.34608E-01         0.00000E+00
    0.30159E-01        -0.33826E-01         0.00000E+00
    0.29572E-01        -0.33044E-01         0.00000E+00
    0.28982E-01        -0.32264E-01         0.00000E+00
    0.28389E-01        -0.31484E-01         0.00000E+00
    0.27792E-01        -0.30705E-01         0.00000E+00
    0.27192E-01        -0.29927E-01         0.00000E+00
    0.26589E-01        -0.29150E-01         0.00000E+00
    0.25982E-01        -0.28373E-01         0.00000E+00
    0.25371E-01        -0.27597E-01         0.00000E+00
    0.24757E-01        -0.26821E-01         0.00000E+00
    0.24139E-01        -0.26046E-01         0.00000E+00
    0.23517E-01        -0.25272E-01         0.00000E+00
    0.22892E-01        -0.24497E-01         0.00000E+00
    0.22262E-01        -0.23724E-01         0.00000E+00
    0.21628E-01        -0.22950E-01         0.00000E+00
    0.20989E-01        -0.22177E-01         0.00000E+00
    0.20346E-01        -0.21405E-01         0.00000E+00
    0.19699E-01        -0.20633E-01         0.00000E+00
    0.19047E-01        -0.19861E-01         0.00000E+00
    0.18390E-01        -0.19089E-01         0.00000E+00
    0.17729E-01        -0.18318E-01         0.00000E+00
    0.17062E-01        -0.17547E-01         0.00000E+00
    0.16390E-01        -0.16777E-01         0.00000E+00
    0.15713E-01        -0.16007E-01         0.00000E+00
    0.15031E-01        -0.15237E-01         0.00000E+00
    0.14342E-01        -0.14468E-01         0.00000E+00
    0.13648E-01        -0.13700E-01         0.00000E+00
    0.12949E-01        -0.12931E-01         0.00000E+00
    0.12243E-01        -0.12164E-01         0.00000E+00
    0.11531E-01        -0.11397E-01         0.00000E+00
    0.10812E-01        -0.10630E-01         0.00000E+00
    0.10087E-01        -0.98645E-02         0.00000E+00
    0.93555E-02        -0.90995E-02         0.00000E+00
    0.86171E-02        -0.83352E-02         0.00000E+00
    0.78717E-02        -0.75718E-02         0.00000E+00
    0.71192E-02        -0.68093E-02         0.00000E+00
    0.63594E-02        -0.60478E-02         0.00000E+00
    0.55922E-02        -0.52873E-02         0.00000E+00
    0.48174E-02        -0.45280E-02         0.00000E+00
    0.40348E-02        -0.37698E-02         0.00000E+00
    0.32443E-02        -0.30130E-02         0.00000E+00
    0.24458E-02        -0.22574E-02         0.00000E+00
    0.16390E-02        -0.15034E-02         0.00000E+00
    0.82376E-03        -0.75088E-03         0.00000E+00
    0.00000E+00         0.00000E+00         0.00000E+00
    0.34375E-01        -0.41443E-01         0.00000E+00
    0.33778E-01        -0.40602E-01         0.00000E+00
    0.33179E-01        -0.39762E-01         0.00000E+00
    0.32578E-01        -0.38923E-01         0.00000E+00
    0.31974E-01        -0.38085E-01         0.00000E+00
    0.31368E-01        -0.37249E-01         0.00000E+00
    0.30760E-01        -0.36413E-01         0.00000E+00
    0.30150E-01        -0.35578E-01         0.00000E+00
    0.29537E-01        -0.34744E-01         0.00000E+00
    0.28922E-01        -0.33911E-01         0.00000E+00
    0.28305E-01        -0.33079E-01         0.00000E+00
    0.27684E-01        -0.32247E-01         0.00000E+00
    0.27061E-01        -0.31416E-01         0.00000E+00
    0.26436E-01        -0.30585E-01         0.00000E+00
    0.25807E-01        -0.29754E-01         0.00000E+00
    0.25176E-01        -0.28924E-01         0.00000E+00
    0.24541E-01        -0.28094E-01         0.00000E+00
    0.23903E-01        -0.27264E-01         0.00000E+00
    0.23262E-01        -0.26435E-01         0.00000E+00
    0.22617E-01        -0.25605E-01         0.00000E+00
    0.21968E-01        -0.24776E-01         0.00000E+00
    0.21316E-01        -0.23947E-01         0.00000E+00
    0.20660E-01        -0.23118E-01         0.00000E+00
    0.19999E-01        -0.22289E-01         0.00000E+00
    0.19335E-01        -0.21460E-01         0.00000E+00
    0.18666E-01        -0.20631E-01         0.00000E+00
    0.17992E-01        -0.19802E-01         0.00000E+00
    0.17314E-01        -0.18973E-01         0.00000E+00
    0.16630E-01        -0.18145E-01         0.00000E+00
    0.15942E-01        -0.17316E-01         0.00000E+00
    0.15249E-01        -0.16487E-01         0.00000E+00
    0.14550E-01        -0.15659E-01         0.00000E+00
    0.13845E-01        -0.14831E-01         0.00000E+00
    0.13135E-01        -0.14002E-01         0.00000E+00
    0.12418E-01        -0.13175E-01         0.00000E+00
    0.11696E-01        -0.12347E-01         0.00000E+00
    0.10967E-01        -0.11519E-01         0.00000E+00
    0.10232E-01        -0.10692E-01         0.00000E+00
    0.94898E-02        -0.98657E-02         0.00000E+00
    0.87410E-02        -0.90394E-02         0.00000E+00
    0.79852E-02        -0.82137E-02         0.00000E+00
    0.72222E-02        -0.73885E-02         0.00000E+00
    0.64517E-02        -0.65640E-02         0.00000E+00
    0.56737E-02        -0.57402E-02         0.00000E+00
    0.48879E-02        -0.49171E-02         0.00000E+00
    0.40942E-02        -0.40950E-02         0.00000E+00
    0.32923E-02        -0.32737E-02         0.00000E+00
    0.24822E-02        -0.24535E-02         0.00000E+00
    0.16635E-02        -0.16344E-02         0.00000E+00
    0.83619E-03        -0.81657E-03         0.00000E+00
    0.00000E+00         0.00000E+00         0.00000E+00
    0.35030E-01        -0.44499E-01         0.00000E+00
    0.34403E-01        -0.43602E-01         0.00000E+00
    0.33776E-01        -0.42707E-01         0.00000E+00
    0.33147E-01        -0.41813E-01         0.00000E+00
    0.32518E-01        -0.40920E-01         0.00000E+00
    0.31888E-01        -0.40029E-01         0.00000E+00
    0.31256E-01        -0.39138E-01         0.00000E+00
    0.30623E-01        -0.38247E-01         0.00000E+00
    0.29989E-01        -0.37358E-01         0.00000E+00
    0.29353E-01        -0.36469E-01         0.00000E+00
    0.28716E-01        -0.35580E-01         0.00000E+00
    0.28077E-01        -0.34692E-01         0.00000E+00
    0.27436E-01        -0.33804E-01         0.00000E+00
    0.26793E-01        -0.32917E-01         0.00000E+00
    0.26149E-01        -0.32029E-01         0.00000E+00
    0.25502E-01        -0.31142E-01         0.00000E+00
    0.24852E-01        -0.30254E-01         0.00000E+00
    0.24200E-01        -0.29367E-01         0.00000E+00
    0.23545E-01        -0.28479E-01         0.00000E+00
    0.22888E-01        -0.27592E-01         0.00000E+00
    0.22227E-01        -0.26704E-01         0.00000E+00
    0.21563E-01        -0.25816E-01         0.00000E+00
    0.20896E-01        -0.24927E-01         0.00000E+00
    0.20225E-01        -0.24039E-01         0.00000E+00
    0.19550E-01        -0.23150E-01         0.00000E+00
    0.18871E-01        -0.22260E-01         0.00000E+00
    0.18188E-01        -0.21371E-01         0.00000E+00
    0.17501E-01        -0.20481E-01         0.00000E+00
    0.16809E-01        -0.19591E-01         0.00000E+00
    0.16112E-01        -0.18700E-01         0.00000E+00
    0.15410E-01        -0.17810E-01         0.00000E+00
    0.14703E-01        -0.16919E-01         0.00000E+00
    0.13991E-01        -0.16028E-01         0.00000E+00
    0.13273E-01        -0.15136E-01         0.00000E+00
    0.12549E-01        -0.14245E-01         0.00000E+00
    0.11819E-01        -0.13353E-01         0.00000E+00
    0.11082E-01        -0.12461E-01         0.00000E+00
    0.10340E-01        -0.11569E-01         0.00000E+00
    0.95903E-02        -0.10677E-01         0.00000E+00
    0.88340E-02        -0.97854E-02         0.00000E+00
    0.80705E-02        -0.88938E-02         0.00000E+00
    0.72998E-02        -0.80023E-02         0.00000E+00
    0.65215E-02        -0.71111E-02         0.00000E+00
    0.57355E-02        -0.62202E-02         0.00000E+00
    0.49416E-02        -0.53297E-02         0.00000E+00
    0.41396E-02        -0.44397E-02         0.00000E+00
    0.33292E-02        -0.35502E-02         0.00000E+00
    0.25102E-02        -0.26615E-02         0.00000E+00
    0.16825E-02        -0.17734E-02         0.00000E+00
    0.84583E-03        -0.88625E-03         0.00000E+00
    0.00000E+00         0.00000E+00         0.00000E+00
    0.35555E-01        -0.47704E-01         0.00000E+00
    0.34900E-01        -0.46750E-01         0.00000E+00
    0.34244E-01        -0.45798E-01         0.00000E+00
    0.33590E-01        -0.44847E-01         0.00000E+00
    0.32935E-01        -0.43897E-01         0.00000E+00
    0.32281E-01        -0.42947E-01         0.00000E+00
    0.31627E-01        -0.41999E-01         0.00000E+00
    0.30973E-01        -0.41051E-01         0.00000E+00
    0.30319E-01        -0.40104E-01         0.00000E+00
    0.29664E-01        -0.39157E-01         0.00000E+00
    0.29009E-01        -0.38210E-01         0.00000E+00
    0.28353E-01        -0.37263E-01         0.00000E+00
    0.27697E-01        -0.36316E-01         0.00000E+00
    0.27039E-01        -0.35370E-01         0.00000E+00
    0.26381E-01        -0.34423E-01         0.00000E+00
    0.25720E-01        -0.33476E-01         0.00000E+00
    0.25059E-01        -0.32528E-01         0.00000E+00
    0.24395E-01        -0.31580E-01         0.00000E+00
    0.23730E-01        -0.30632E-01         0.00000E+00
    0.23062E-01        -0.29683E-01         0.00000E+00
    0.22392E-01        -0.28734E-01         0.00000E+00
    0.21720E-01        -0.27784E-01         0.00000E+00
    0.21044E-01        -0.26833E-01         0.00000E+00
    0.20365E-01        -0.25882E-01         0.00000E+00
    0.19683E-01        -0.24930E-01         0.00000E+00
    0.18998E-01        -0.23978E-01         0.00000E+00
    0.18309E-01        -0.23025E-01         0.00000E+00
    0.17615E-01        -0.22071E-01         0.00000E+00
    0.16918E-01        -0.21116E-01         0.00000E+00
    0.16215E-01        -0.20161E-01         0.00000E+00
    0.15509E-01        -0.19205E-01         0.00000E+00
    0.14797E-01        -0.18248E-01         0.00000E+00
    0.14079E-01        -0.17290E-01         0.00000E+00
    0.13357E-01        -0.16332E-01         0.00000E+00
    0.12628E-01        -0.15374E-01         0.00000E+00
    0.11894E-01        -0.14415E-01         0.00000E+00
    0.11154E-01        -0.13455E-01         0.00000E+00
    0.10407E-01        -0.12495E-01         0.00000E+00
    0.96528E-02        -0.11534E-01         0.00000E+00
    0.88922E-02        -0.10573E-01         0.00000E+00
    0.81243E-02        -0.96121E-02         0.00000E+00
    0.73491E-02        -0.86506E-02         0.00000E+00
    0.65662E-02        -0.76890E-02         0.00000E+00
    0.57754E-02        -0.67273E-02         0.00000E+00
    0.49766E-02        -0.57656E-02         0.00000E+00
    0.41693E-02        -0.48040E-02         0.00000E+00
    0.33535E-02        -0.38425E-02         0.00000E+00
    0.25289E-02        -0.28813E-02         0.00000E+00
    0.16953E-02        -0.19204E-02         0.00000E+00
    0.85237E-03        -0.95993E-03         0.00000E+00
    0.00000E+00         0.00000E+00         0.00000E+00
    0.35928E-01        -0.51055E-01         0.00000E+00
    0.35244E-01        -0.50043E-01         0.00000E+00
    0.34563E-01        -0.49032E-01         0.00000E+00
    0.33883E-01        -0.48021E-01         0.00000E+00
    0.33205E-01        -0.47012E-01         0.00000E+00
    0.32529E-01        -0.46003E-01         0.00000E+00
    0.31854E-01        -0.44995E-01         0.00000E+00
    0.31181E-01        -0.43988E-01         0.00000E+00
    0.30508E-01        -0.42980E-01         0.00000E+00
    0.29837E-01        -0.41973E-01         0.00000E+00
    0.29167E-01        -0.40965E-01         0.00000E+00
    0.28496E-01        -0.39958E-01         0.00000E+00
    0.27827E-01        -0.38950E-01         0.00000E+00
    0.27157E-01        -0.37942E-01         0.00000E+00
    0.26487E-01        -0.36933E-01         0.00000E+00
    0.25817E-01        -0.35924E-01         0.00000E+00
    0.25146E-01        -0.34914E-01         0.00000E+00
    0.24474E-01        -0.33903E-01         0.00000E+00
    0.23801E-01        -0.32891E-01         0.00000E+00
    0.23127E-01        -0.31879E-01         0.00000E+00
    0.22451E-01        -0.30865E-01         0.00000E+00
    0.21773E-01        -0.29851E-01         0.00000E+00
    0.21092E-01        -0.28836E-01         0.00000E+00
    0.20409E-01        -0.27819E-01         0.00000E+00
    0.19724E-01        -0.26801E-01         0.00000E+00
    0.19035E-01        -0.25783E-01         0.00000E+00
    0.18343E-01        -0.24763E-01         0.00000E+00
    0.17647E-01        -0.23742E-01         0.00000E+00
    0.16948E-01        -0.22719E-01         0.00000E+00
    0.16244E-01        -0.21696E-01         0.00000E+00
    0.15535E-01        -0.20671E-01         0.00000E+00
    0.14822E-01        -0.19646E-01         0.00000E+00
    0.14104E-01        -0.18619E-01         0.00000E+00
    0.13381E-01        -0.17591E-01         0.00000E+00
    0.12652E-01        -0.16562E-01         0.00000E+00
    0.11916E-01        -0.15532E-01         0.00000E+00
    0.11175E-01        -0.14501E-01         0.00000E+00
    0.10428E-01        -0.13469E-01         0.00000E+00
    0.96733E-02        -0.12436E-01         0.00000E+00
    0.89119E-02        -0.11403E-01         0.00000E+00
    0.81433E-02        -0.10368E-01         0.00000E+00
    0.73671E-02        -0.93333E-02         0.00000E+00
    0.65832E-02        -0.82976E-02         0.00000E+00
    0.57911E-02        -0.72614E-02         0.00000E+00
    0.49908E-02        -0.62248E-02         0.00000E+00
    0.41819E-02        -0.51877E-02         0.00000E+00
    0.33642E-02        -0.41504E-02         0.00000E+00
    0.25374E-02        -0.31128E-02         0.00000E+00
    0.17012E-02        -0.20752E-02         0.00000E+00
    0.85551E-03        -0.10376E-02         0.00000E+00
    0.00000E+00         0.00000E+00         0.00000E+00
    0.36123E-01        -0.54549E-01         0.00000E+00
    0.35413E-01        -0.53476E-01         0.00000E+00
    0.34706E-01        -0.52404E-01         0.00000E+00
    0.34003E-01        -0.51333E-01         0.00000E+00
    0.33304E-01        -0.50262E-01         0.00000E+00
    0.32607E-01        -0.49192E-01         0.00000E+00
    0.31914E-01        -0.48123E-01         0.00000E+00
    0.31224E-01        -0.47053E-01         0.00000E+00
    0.30537E-01        -0.45983E-01         0.00000E+00
    0.29851E-01        -0.44914E-01         0.00000E+00
    0.29168E-01        -0.43843E-01         0.00000E+00
    0.28487E-01        -0.42773E-01         0.00000E+00
    0.27807E-01        -0.41702E-01         0.00000E+00
    0.27129E-01        -0.40630E-01         0.00000E+00
    0.26451E-01        -0.39557E-01         0.00000E+00
    0.25774E-01        -0.38483E-01         0.00000E+00
    0.25098E-01        -0.37408E-01         0.00000E+00
    0.24421E-01        -0.36332E-01         0.00000E+00
    0.23745E-01        -0.35254E-01         0.00000E+00
    0.23067E-01        -0.34176E-01         0.00000E+00
    0.22389E-01        -0.33096E-01         0.00000E+00
    0.21709E-01        -0.32014E-01         0.00000E+00
    0.21028E-01        -0.30931E-01         0.00000E+00
    0.20345E-01        -0.29846E-01         0.00000E+00
    0.19660E-01        -0.28760E-01         0.00000E+00
    0.18972E-01        -0.27672E-01         0.00000E+00
    0.18281E-01        -0.26583E-01         0.00000E+00
    0.17588E-01        -0.25492E-01         0.00000E+00
    0.16890E-01        -0.24399E-01         0.00000E+00
    0.16189E-01        -0.23304E-01         0.00000E+00
    0.15483E-01        -0.22208E-01         0.00000E+00
    0.14773E-01        -0.21110E-01         0.00000E+00
    0.14058E-01        -0.20011E-01         0.00000E+00
    0.13338E-01        -0.18910E-01         0.00000E+00
    0.12612E-01        -0.17807E-01         0.00000E+00
    0.11880E-01        -0.16703E-01         0.00000E+00
    0.11143E-01        -0.15598E-01         0.00000E+00
    0.10399E-01        -0.14491E-01         0.00000E+00
    0.96475E-02        -0.13382E-01         0.00000E+00
    0.88895E-02        -0.12272E-01         0.00000E+00
    0.81241E-02        -0.11161E-01         0.00000E+00
    0.73510E-02        -0.10049E-01         0.00000E+00
    0.65699E-02        -0.89360E-02         0.00000E+00
    0.57805E-02        -0.78217E-02         0.00000E+00
    0.49826E-02        -0.67065E-02         0.00000E+00
    0.41758E-02        -0.55903E-02         0.00000E+00
    0.33600E-02        -0.44734E-02         0.00000E+00
    0.25347E-02        -0.33558E-02         0.00000E+00
    0.16998E-02        -0.22377E-02         0.00000E+00
    0.85500E-03        -0.11190E-02         0.00000E+00
    0.00000E+00         0.00000E+00         0.00000E+00
    0.36113E-01        -0.58178E-01         0.00000E+00
    0.35378E-01        -0.57043E-01         0.00000E+00
    0.34648E-01        -0.55908E-01         0.00000E+00
    0.33924E-01        -0.54774E-01         0.00000E+00
    0.33206E-01        -0.53641E-01         0.00000E+00
    0.32493E-01        -0.52507E-01         0.00000E+00
    0.31784E-01        -0.51374E-01         0.00000E+00
    0.31081E-01        -0.50241E-01         0.00000E+00
    0.30381E-01        -0.49107E-01         0.00000E+00
    0.29685E-01        -0.47973E-01         0.00000E+00
    0.28993E-01        -0.46838E-01         0.00000E+00
    0.28305E-01        -0.45703E-01         0.00000E+00
    0.27619E-01        -0.44566E-01         0.00000E+00
    0.26936E-01        -0.43428E-01         0.00000E+00
    0.26255E-01        -0.42289E-01         0.00000E+00
    0.25575E-01        -0.41148E-01         0.00000E+00
    0.24897E-01        -0.40006E-01         0.00000E+00
    0.24221E-01        -0.38862E-01         0.00000E+00
    0.23545E-01        -0.37717E-01         0.00000E+00
    0.22869E-01        -0.36569E-01         0.00000E+00
    0.22193E-01        -0.35420E-01         0.00000E+00
    0.21516E-01        -0.34269E-01         0.00000E+00
    0.20839E-01        -0.33115E-01         0.00000E+00
    0.20161E-01        -0.31960E-01         0.00000E+00
    0.19481E-01        -0.30802E-01         0.00000E+00
    0.18798E-01        -0.29643E-01         0.00000E+00
    0.18114E-01        -0.28481E-01         0.00000E+00
    0.17426E-01        -0.27317E-01         0.00000E+00
    0.16736E-01        -0.26151E-01         0.00000E+00
    0.16042E-01        -0.24982E-01         0.00000E+00
    0.15344E-01        -0.23811E-01         0.00000E+00
    0.14641E-01        -0.22639E-01         0.00000E+00
    0.13934E-01        -0.21464E-01         0.00000E+00
    0.13222E-01        -0.20286E-01         0.00000E+00
    0.12504E-01        -0.19107E-01         0.00000E+00
    0.11780E-01        -0.17926E-01         0.00000E+00
    0.11051E-01        -0.16742E-01         0.00000E+00
    0.10315E-01        -0.15557E-01         0.00000E+00
    0.95715E-02        -0.14370E-01         0.00000E+00
    0.88212E-02        -0.13181E-01         0.00000E+00
    0.80634E-02        -0.11990E-01         0.00000E+00
    0.72977E-02        -0.10797E-01         0.00000E+00
    0.65238E-02        -0.96028E-02         0.00000E+00
    0.57414E-02        -0.84069E-02         0.00000E+00
    0.49501E-02        -0.72096E-02         0.00000E+00
    0.41497E-02        -0.60109E-02         0.00000E+00
    0.33398E-02        -0.48109E-02         0.00000E+00
    0.25202E-02        -0.36097E-02         0.00000E+00
    0.16905E-02        -0.24074E-02         0.00000E+00
    0.85057E-03        -0.12042E-02         0.00000E+00
    0.00000E+00         0.00000E+00         0.00000E+00
    0.35868E-01        -0.61931E-01         0.00000E+00
    0.35110E-01        -0.60732E-01         0.00000E+00
    0.34360E-01        -0.59533E-01         0.00000E+00
    0.33619E-01        -0.58335E-01         0.00000E+00
    0.32885E-01        -0.57137E-01         0.00000E+00
    0.32158E-01        -0.55939E-01         0.00000E+00
    0.31438E-01        -0.54741E-01         0.00000E+00
    0.30725E-01        -0.53542E-01         0.00000E+00
    0.30018E-01        -0.52343E-01         0.00000E+00
    0.29316E-01        -0.51143E-01         0.00000E+00
    0.28620E-01        -0.49941E-01         0.00000E+00
    0.27928E-01        -0.48738E-01         0.00000E+00
    0.27241E-01        -0.47534E-01         0.00000E+00
    0.26558E-01        -0.46328E-01         0.00000E+00
    0.25878E-01        -0.45121E-01         0.00000E+00
    0.25201E-01        -0.43911E-01         0.00000E+00
    0.24527E-01        -0.42700E-01         0.00000E+00
    0.23855E-01        -0.41486E-01         0.00000E+00
    0.23185E-01        -0.40270E-01         0.00000E+00
    0.22516E-01        -0.39051E-01         0.00000E+00
    0.21848E-01        -0.37831E-01         0.00000E+00
    0.21180E-01        -0.36607E-01         0.00000E+00
    0.20512E-01        -0.35381E-01         0.00000E+00
    0.19843E-01        -0.34153E-01         0.00000E+00
    0.19174E-01        -0.32921E-01         0.00000E+00
    0.18502E-01        -0.31687E-01         0.00000E+00
    0.17829E-01        -0.30451E-01         0.00000E+00
    0.17154E-01        -0.29211E-01         0.00000E+00
    0.16476E-01        -0.27969E-01         0.00000E+00
    0.15794E-01        -0.26724E-01         0.00000E+00
    0.15109E-01        -0.25476E-01         0.00000E+00
    0.14419E-01        -0.24225E-01         0.00000E+00
    0.13725E-01        -0.22972E-01         0.00000E+00
    0.13026E-01        -0.21716E-01         0.00000E+00
    0.12321E-01        -0.20457E-01         0.00000E+00
    0.11611E-01        -0.19196E-01         0.00000E+00
    0.10894E-01        -0.17931E-01         0.00000E+00
    0.10171E-01        -0.16665E-01         0.00000E+00
    0.94411E-02        -0.15396E-01         0.00000E+00
    0.87036E-02        -0.14124E-01         0.00000E+00
    0.79582E-02        -0.12850E-01         0.00000E+00
    0.72047E-02        -0.11574E-01         0.00000E+00
    0.64427E-02        -0.10296E-01         0.00000E+00
    0.56718E-02        -0.90151E-02         0.00000E+00
    0.48918E-02        -0.77325E-02         0.00000E+00
    0.41022E-02        -0.64480E-02         0.00000E+00
    0.33027E-02        -0.51617E-02         0.00000E+00
    0.24931E-02        -0.38736E-02         0.00000E+00
    0.16729E-02        -0.25839E-02         0.00000E+00
    0.84201E-03        -0.12927E-02         0.00000E+00
    0.00000E+00         0.00000E+00         0.00000E+00
    0.35353E-01        -0.65793E-01         0.00000E+00
    0.34577E-01        -0.64529E-01         0.00000E+00
    0.33811E-01        -0.63265E-01         0.00000E+00
    0.33056E-01        -0.62001E-01         0.00000E+00
    0.32311E-01        -0.60737E-01         0.00000E+00
    0.31575E-01        -0.59473E-01         0.00000E+00
    0.30849E-01        -0.58209E-01         0.00000E+00
    0.30131E-01        -0.56943E-01         0.00000E+00
    0.29421E-01        -0.55676E-01         0.00000E+00
    0.28718E-01        -0.54408E-01         0.00000E+00
    0.28023E-01        -0.53139E-01         0.00000E+00
    0.27334E-01        -0.51867E-01         0.00000E+00
    0.26651E-01        -0.50594E-01         0.00000E+00
    0.25974E-01        -0.49318E-01         0.00000E+00
    0.25301E-01        -0.48040E-01         0.00000E+00
    0.24633E-01        -0.46760E-01         0.00000E+00
    0.23969E-01        -0.45477E-01         0.00000E+00
    0.23308E-01        -0.44191E-01         0.00000E+00
    0.22649E-01        -0.42903E-01         0.00000E+00
    0.21993E-01        -0.41612E-01         0.00000E+00
    0.21339E-01        -0.40317E-01         0.00000E+00
    0.20685E-01        -0.39020E-01         0.00000E+00
    0.20033E-01        -0.37719E-01         0.00000E+00
    0.19380E-01        -0.36415E-01         0.00000E+00
    0.18727E-01        -0.35108E-01         0.00000E+00
    0.18073E-01        -0.33797E-01         0.00000E+00
    0.17417E-01        -0.32483E-01         0.00000E+00
    0.16760E-01        -0.31166E-01         0.00000E+00
    0.16100E-01        -0.29845E-01         0.00000E+00
    0.15436E-01        -0.28521E-01         0.00000E+00
    0.14770E-01        -0.27194E-01         0.00000E+00
    0.14099E-01        -0.25863E-01         0.00000E+00
    0.13424E-01        -0.24529E-01         0.00000E+00
    0.12744E-01        -0.23191E-01         0.00000E+00
    0.12058E-01        -0.21851E-01         0.00000E+00
    0.11367E-01        -0.20506E-01         0.00000E+00
    0.10669E-01        -0.19159E-01         0.00000E+00
    0.99641E-02        -0.17809E-01         0.00000E+00
    0.92523E-02        -0.16455E-01         0.00000E+00
    0.85327E-02        -0.15099E-01         0.00000E+00
    0.78051E-02        -0.13739E-01         0.00000E+00
    0.70690E-02        -0.12377E-01         0.00000E+00
    0.63240E-02        -0.11011E-01         0.00000E+00
    0.55698E-02        -0.96433E-02         0.00000E+00
    0.48059E-02        -0.82727E-02         0.00000E+00
    0.40319E-02        -0.68996E-02         0.00000E+00
    0.32476E-02        -0.55241E-02         0.00000E+00
    0.24526E-02        -0.41462E-02         0.00000E+00
    0.16466E-02        -0.27662E-02         0.00000E+00
    0.82912E-03        -0.13841E-02         0.00000E+00
    0.00000E+00         0.00000E+00         0.00000E+00
    0.34533E-01        -0.69744E-01         0.00000E+00
    0.33743E-01        -0.68413E-01         0.00000E+00
    0.32966E-01        -0.67083E-01         0.00000E+00
    0.32203E-01        -0.65753E-01         0.00000E+00
    0.31452E-01        -0.64422E-01         0.00000E+00
    0.30714E-01        -0.63091E-01         0.00000E+00
    0.29986E-01        -0.61759E-01         0.00000E+00
    0.29270E-01        -0.60425E-01         0.00000E+00
    0.28564E-01        -0.59089E-01         0.00000E+00
    0.27867E-01        -0.57752E-01         0.00000E+00
    0.27179E-01        -0.56413E-01         0.00000E+00
    0.26499E-01        -0.55071E-01         0.00000E+00
    0.25827E-01        -0.53727E-01         0.00000E+00
    0.25162E-01        -0.52380E-01         0.00000E+00
    0.24504E-01        -0.51030E-01         0.00000E+00
    0.23851E-01        -0.49678E-01         0.00000E+00
    0.23203E-01        -0.48322E-01         0.00000E+00
    0.22560E-01        -0.46963E-01         0.00000E+00
    0.21920E-01        -0.45600E-01         0.00000E+00
    0.21284E-01        -0.44234E-01         0.00000E+00
    0.20650E-01        -0.42864E-01         0.00000E+00
    0.20018E-01        -0.41491E-01         0.00000E+00
    0.19387E-01        -0.40113E-01         0.00000E+00
    0.18757E-01        -0.38732E-01         0.00000E+00
    0.18128E-01        -0.37347E-01         0.00000E+00
    0.17497E-01        -0.35958E-01         0.00000E+00
    0.16866E-01        -0.34565E-01         0.00000E+00
    0.16233E-01        -0.33169E-01         0.00000E+00
    0.15598E-01        -0.31768E-01         0.00000E+00
    0.14960E-01        -0.30363E-01         0.00000E+00
    0.14318E-01        -0.28954E-01         0.00000E+00
    0.13673E-01        -0.27541E-01         0.00000E+00
    0.13023E-01        -0.26124E-01         0.00000E+00
    0.12368E-01        -0.24703E-01         0.00000E+00
    0.11708E-01        -0.23279E-01         0.00000E+00
    0.11041E-01        -0.21850E-01         0.00000E+00
    0.10368E-01        -0.20418E-01         0.00000E+00
    0.96881E-02        -0.18981E-01         0.00000E+00
    0.90005E-02        -0.17541E-01         0.00000E+00
    0.83049E-02        -0.16098E-01         0.00000E+00
    0.76008E-02        -0.14650E-01         0.00000E+00
    0.68877E-02        -0.13199E-01         0.00000E+00
    0.61653E-02        -0.11745E-01         0.00000E+00
    0.54331E-02        -0.10288E-01         0.00000E+00
    0.46907E-02        -0.88268E-02         0.00000E+00
    0.39376E-02        -0.73628E-02         0.00000E+00
    0.31736E-02        -0.58959E-02         0.00000E+00
    0.23981E-02        -0.44260E-02         0.00000E+00
    0.16109E-02        -0.29533E-02         0.00000E+00
    0.81168E-03        -0.14779E-02         0.00000E+00
    0.00000E+00         0.00000E+00         0.00000E+00
    0.33369E-01        -0.73756E-01         0.00000E+00
    0.32571E-01        -0.72359E-01         0.00000E+00
    0.31790E-01        -0.70962E-01         0.00000E+00
    0.31025E-01        -0.69565E-01         0.00000E+00
    0.30276E-01        -0.68166E-01         0.00000E+00
    0.29541E-01        -0.66767E-01         0.00000E+00
    0.28820E-01        -0.65366E-01         0.00000E+00
    0.28113E-01        -0.63962E-01         0.00000E+00
    0.27417E-01        -0.62557E-01         0.00000E+00
    0.26734E-01        -0.61150E-01         0.00000E+00
    0.26061E-01        -0.59740E-01         0.00000E+00
    0.25398E-01        -0.58326E-01         0.00000E+00
    0.24745E-01        -0.56910E-01         0.00000E+00
    0.24100E-01        -0.55491E-01         0.00000E+00
    0.23464E-01        -0.54068E-01         0.00000E+00
    0.22834E-01        -0.52641E-01         0.00000E+00
    0.22210E-01        -0.51211E-01         0.00000E+00
    0.21592E-01        -0.49777E-01         0.00000E+00
    0.20979E-01        -0.48339E-01         0.00000E+00
    0.20370E-01        -0.46897E-01         0.00000E+00
    0.19765E-01        -0.45450E-01         0.00000E+00
    0.19162E-01        -0.44000E-01         0.00000E+00
    0.18561E-01        -0.42544E-01         0.00000E+00
    0.17962E-01        -0.41085E-01         0.00000E+00
    0.17363E-01        -0.39621E-01         0.00000E+00
    0.16764E-01        -0.38152E-01         0.00000E+00
    0.16164E-01        -0.36679E-01         0.00000E+00
    0.15563E-01        -0.35202E-01         0.00000E+00
    0.14960E-01        -0.33719E-01         0.00000E+00
    0.14354E-01        -0.32233E-01         0.00000E+00
    0.13745E-01        -0.30741E-01         0.00000E+00
    0.13132E-01        -0.29245E-01         0.00000E+00
    0.12514E-01        -0.27744E-01         0.00000E+00
    0.11891E-01        -0.26239E-01         0.00000E+00
    0.11263E-01        -0.24729E-01         0.00000E+00
    0.10628E-01        -0.23215E-01         0.00000E+00
    0.99867E-02        -0.21696E-01         0.00000E+00
    0.93377E-02        -0.20172E-01         0.00000E+00
    0.86808E-02        -0.18645E-01         0.00000E+00
    0.80155E-02        -0.17113E-01         0.00000E+00
    0.73412E-02        -0.15576E-01         0.00000E+00
    0.66573E-02        -0.14036E-01         0.00000E+00
    0.59635E-02        -0.12491E-01         0.00000E+00
    0.52592E-02        -0.10943E-01         0.00000E+00
    0.45441E-02        -0.93902E-02         0.00000E+00
    0.38175E-02        -0.78340E-02         0.00000E+00
    0.30792E-02        -0.62741E-02         0.00000E+00
    0.23287E-02        -0.47106E-02         0.00000E+00
    0.15655E-02        -0.31436E-02         0.00000E+00
    0.78943E-03        -0.15734E-02         0.00000E+00
    0.00000E+00         0.00000E+00         0.00000E+00
    0.31818E-01        -0.77795E-01         0.00000E+00
    0.31020E-01        -0.76332E-01         0.00000E+00
    0.30243E-01        -0.74867E-01         0.00000E+00
    0.29485E-01        -0.73402E-01         0.00000E+00
    0.28746E-01        -0.71935E-01         0.00000E+00
    0.28024E-01        -0.70467E-01         0.00000E+00
    0.27318E-01        -0.68996E-01         0.00000E+00
    0.26628E-01        -0.67523E-01         0.00000E+00
    0.25953E-01        -0.66047E-01         0.00000E+00
    0.25292E-01        -0.64569E-01         0.00000E+00
    0.24643E-01        -0.63087E-01         0.00000E+00
    0.24007E-01        -0.61601E-01         0.00000E+00
    0.23381E-01        -0.60112E-01         0.00000E+00
    0.22765E-01        -0.58619E-01         0.00000E+00
    0.22159E-01        -0.57122E-01         0.00000E+00
    0.21561E-01        -0.55621E-01         0.00000E+00
    0.20971E-01        -0.54115E-01         0.00000E+00
    0.20387E-01        -0.52605E-01         0.00000E+00
    0.19809E-01        -0.51091E-01         0.00000E+00
    0.19236E-01        -0.49572E-01         0.00000E+00
    0.18668E-01        -0.48048E-01         0.00000E+00
    0.18102E-01        -0.46519E-01         0.00000E+00
    0.17539E-01        -0.44985E-01         0.00000E+00
    0.16978E-01        -0.43447E-01         0.00000E+00
    0.16418E-01        -0.41903E-01         0.00000E+00
    0.15858E-01        -0.40355E-01         0.00000E+00
    0.15298E-01        -0.38801E-01         0.00000E+00
    0.14737E-01        -0.37242E-01         0.00000E+00
    0.14174E-01        -0.35678E-01         0.00000E+00
    0.13608E-01        -0.34109E-01         0.00000E+00
    0.13039E-01        -0.32534E-01         0.00000E+00
    0.12465E-01        -0.30955E-01         0.00000E+00
    0.11888E-01        -0.29370E-01         0.00000E+00
    0.11304E-01        -0.27780E-01         0.00000E+00
    0.10715E-01        -0.26185E-01         0.00000E+00
    0.10120E-01        -0.24585E-01         0.00000E+00
    0.95168E-02        -0.22979E-01         0.00000E+00
    0.89061E-02        -0.21369E-01         0.00000E+00
    0.82870E-02        -0.19753E-01         0.00000E+00
    0.76589E-02        -0.18132E-01         0.00000E+00
    0.70212E-02        -0.16507E-01         0.00000E+00
    0.63733E-02        -0.14877E-01         0.00000E+00
    0.57147E-02        -0.13241E-01         0.00000E+00
    0.50448E-02        -0.11602E-01         0.00000E+00
    0.43632E-02        -0.99571E-02         0.00000E+00
    0.36694E-02        -0.83081E-02         0.00000E+00
    0.29628E-02        -0.66548E-02         0.00000E+00
    0.22430E-02        -0.49971E-02         0.00000E+00
    0.15095E-02        -0.33354E-02         0.00000E+00
    0.76200E-03        -0.16696E-02         0.00000E+00
    0.00000E+00         0.00000E+00         0.00000E+00
    0.29836E-01        -0.81817E-01         0.00000E+00
    0.29049E-01        -0.80287E-01         0.00000E+00
    0.28286E-01        -0.78755E-01         0.00000E+00
    0.27546E-01        -0.77222E-01         0.00000E+00
    0.26826E-01        -0.75686E-01         0.00000E+00
    0.26128E-01        -0.74148E-01         0.00000E+00
    0.25448E-01        -0.72608E-01         0.00000E+00
    0.24786E-01        -0.71064E-01         0.00000E+00
    0.24142E-01        -0.69517E-01         0.00000E+00
    0.23513E-01        -0.67966E-01         0.00000E+00
    0.22899E-01        -0.66412E-01         0.00000E+00
    0.22299E-01        -0.64854E-01         0.00000E+00
    0.21711E-01        -0.63291E-01         0.00000E+00
    0.21135E-01        -0.61724E-01         0.00000E+00
    0.20569E-01        -0.60152E-01         0.00000E+00
    0.20013E-01        -0.58576E-01         0.00000E+00
    0.19465E-01        -0.56994E-01         0.00000E+00
    0.18925E-01        -0.55408E-01         0.00000E+00
    0.18392E-01        -0.53817E-01         0.00000E+00
    0.17864E-01        -0.52221E-01         0.00000E+00
    0.17341E-01        -0.50620E-01         0.00000E+00
    0.16822E-01        -0.49013E-01         0.00000E+00
    0.16306E-01        -0.47401E-01         0.00000E+00
    0.15792E-01        -0.45783E-01         0.00000E+00
    0.15279E-01        -0.44161E-01         0.00000E+00
    0.14767E-01        -0.42532E-01         0.00000E+00
    0.14255E-01        -0.40898E-01         0.00000E+00
    0.13742E-01        -0.39259E-01         0.00000E+00
    0.13226E-01        -0.37614E-01         0.00000E+00
    0.12709E-01        -0.35963E-01         0.00000E+00
    0.12187E-01        -0.34307E-01         0.00000E+00
    0.11662E-01        -0.32645E-01         0.00000E+00
    0.11132E-01        -0.30977E-01         0.00000E+00
    0.10596E-01        -0.29304E-01         0.00000E+00
    0.10054E-01        -0.27625E-01         0.00000E+00
    0.95055E-02        -0.25940E-01         0.00000E+00
    0.89491E-02        -0.24249E-01         0.00000E+00
    0.83843E-02        -0.22553E-01         0.00000E+00
    0.78106E-02        -0.20850E-01         0.00000E+00
    0.72273E-02        -0.19143E-01         0.00000E+00
    0.66337E-02        -0.17429E-01         0.00000E+00
    0.60291E-02        -0.15710E-01         0.00000E+00
    0.54131E-02        -0.13986E-01         0.00000E+00
    0.47849E-02        -0.12255E-01         0.00000E+00
    0.41440E-02        -0.10520E-01         0.00000E+00
    0.34897E-02        -0.87792E-02         0.00000E+00
    0.28216E-02        -0.70332E-02         0.00000E+00
    0.21391E-02        -0.52821E-02         0.00000E+00
    0.14416E-02        -0.35262E-02         0.00000E+00
    0.72877E-03        -0.17654E-02         0.00000E+00
    0.00000E+00         0.00000E+00         0.00000E+00
    0.27377E-01        -0.85766E-01         0.00000E+00
    0.26614E-01        -0.84168E-01         0.00000E+00
    0.25877E-01        -0.82569E-01         0.00000E+00
    0.25167E-01        -0.80968E-01         0.00000E+00
    0.24481E-01        -0.79364E-01         0.00000E+00
    0.23818E-01        -0.77756E-01         0.00000E+00
    0.23177E-01        -0.76145E-01         0.00000E+00
    0.22557E-01        -0.74531E-01         0.00000E+00
    0.21955E-01        -0.72912E-01         0.00000E+00
    0.21371E-01        -0.71289E-01         0.00000E+00
    0.20804E-01        -0.69662E-01         0.00000E+00
    0.20251E-01        -0.68030E-01         0.00000E+00
    0.19713E-01        -0.66394E-01         0.00000E+00
    0.19187E-01        -0.64752E-01         0.00000E+00
    0.18673E-01        -0.63106E-01         0.00000E+00
    0.18169E-01        -0.61454E-01         0.00000E+00
    0.17675E-01        -0.59798E-01         0.00000E+00
    0.17188E-01        -0.58136E-01         0.00000E+00
    0.16709E-01        -0.56468E-01         0.00000E+00
    0.16236E-01        -0.54796E-01         0.00000E+00
    0.15769E-01        -0.53117E-01         0.00000E+00
    0.15305E-01        -0.51434E-01         0.00000E+00
    0.14845E-01        -0.49745E-01         0.00000E+00
    0.14387E-01        -0.48050E-01         0.00000E+00
    0.13930E-01        -0.46349E-01         0.00000E+00
    0.13474E-01        -0.44643E-01         0.00000E+00
    0.13018E-01        -0.42931E-01         0.00000E+00
    0.12561E-01        -0.41213E-01         0.00000E+00
    0.12102E-01        -0.39490E-01         0.00000E+00
    0.11641E-01        -0.37760E-01         0.00000E+00
    0.11176E-01        -0.36024E-01         0.00000E+00
    0.10706E-01        -0.34283E-01         0.00000E+00
    0.10232E-01        -0.32535E-01         0.00000E+00
    0.97521E-02        -0.30781E-01         0.00000E+00
    0.92656E-02        -0.29021E-01         0.00000E+00
    0.87718E-02        -0.27254E-01         0.00000E+00
    0.82701E-02        -0.25481E-01         0.00000E+00
    0.77595E-02        -0.23702E-01         0.00000E+00
    0.72396E-02        -0.21917E-01         0.00000E+00
    0.67094E-02        -0.20125E-01         0.00000E+00
    0.61682E-02        -0.18327E-01         0.00000E+00
    0.56154E-02        -0.16522E-01         0.00000E+00
    0.50501E-02        -0.14711E-01         0.00000E+00
    0.44718E-02        -0.12893E-01         0.00000E+00
    0.38797E-02        -0.11069E-01         0.00000E+00
    0.32731E-02        -0.92395E-02         0.00000E+00
    0.26513E-02        -0.74033E-02         0.00000E+00
    0.20138E-02        -0.55612E-02         0.00000E+00
    0.13598E-02        -0.37132E-02         0.00000E+00
    0.68869E-03        -0.18594E-02         0.00000E+00
    0.00000E+00         0.00000E+00         0.00000E+00
    0.24394E-01        -0.89569E-01         0.00000E+00
    0.23669E-01        -0.87906E-01         0.00000E+00
    0.22976E-01        -0.86240E-01         0.00000E+00
    0.22311E-01        -0.84570E-01         0.00000E+00
    0.21674E-01        -0.82897E-01         0.00000E+00
    0.21063E-01        -0.81220E-01         0.00000E+00
    0.20476E-01        -0.79539E-01         0.00000E+00
    0.19911E-01        -0.77854E-01         0.00000E+00
    0.19367E-01        -0.76163E-01         0.00000E+00
    0.18842E-01        -0.74468E-01         0.00000E+00
    0.18334E-01        -0.72768E-01         0.00000E+00
    0.17843E-01        -0.71063E-01         0.00000E+00
    0.17367E-01        -0.69352E-01         0.00000E+00
    0.16904E-01        -0.67637E-01         0.00000E+00
    0.16453E-01        -0.65916E-01         0.00000E+00
    0.16012E-01        -0.64190E-01         0.00000E+00
    0.15582E-01        -0.62459E-01         0.00000E+00
    0.15160E-01        -0.60722E-01         0.00000E+00
    0.14745E-01        -0.58980E-01         0.00000E+00
    0.14336E-01        -0.57233E-01         0.00000E+00
    0.13933E-01        -0.55480E-01         0.00000E+00
    0.13534E-01        -0.53722E-01         0.00000E+00
    0.13138E-01        -0.51958E-01         0.00000E+00
    0.12744E-01        -0.50189E-01         0.00000E+00
    0.12352E-01        -0.48414E-01         0.00000E+00
    0.11961E-01        -0.46633E-01         0.00000E+00
    0.11569E-01        -0.44847E-01         0.00000E+00
    0.11176E-01        -0.43055E-01         0.00000E+00
    0.10781E-01        -0.41257E-01         0.00000E+00
    0.10384E-01        -0.39452E-01         0.00000E+00
    0.99830E-02        -0.37642E-01         0.00000E+00
    0.95779E-02        -0.35826E-01         0.00000E+00
    0.91676E-02        -0.34003E-01         0.00000E+00
    0.87516E-02        -0.32174E-01         0.00000E+00
    0.83289E-02        -0.30338E-01         0.00000E+00
    0.78988E-02        -0.28496E-01         0.00000E+00
    0.74605E-02        -0.26646E-01         0.00000E+00
    0.70131E-02        -0.24790E-01         0.00000E+00
    0.65560E-02        -0.22927E-01         0.00000E+00
    0.60881E-02        -0.21056E-01         0.00000E+00
    0.56088E-02        -0.19178E-01         0.00000E+00
    0.51172E-02        -0.17293E-01         0.00000E+00
    0.46124E-02        -0.15401E-01         0.00000E+00
    0.40936E-02        -0.13501E-01         0.00000E+00
    0.35600E-02        -0.11594E-01         0.00000E+00
    0.30106E-02        -0.96799E-02         0.00000E+00
    0.24448E-02        -0.77581E-02         0.00000E+00
    0.18616E-02        -0.58291E-02         0.00000E+00
    0.12603E-02        -0.38930E-02         0.00000E+00
    0.63999E-03        -0.19499E-02         0.00000E+00
    0.00000E+00         0.00000E+00         0.00000E+00
    0.20839E-01        -0.93139E-01         0.00000E+00
    0.20173E-01        -0.91410E-01         0.00000E+00
    0.19542E-01        -0.89678E-01         0.00000E+00
    0.18943E-01        -0.87941E-01         0.00000E+00
    0.18374E-01        -0.86199E-01         0.00000E+00
    0.17833E-01        -0.84453E-01         0.00000E+00
    0.17317E-01        -0.82701E-01         0.00000E+00
    0.16826E-01        -0.80944E-01         0.00000E+00
    0.16355E-01        -0.79182E-01         0.00000E+00
    0.15905E-01        -0.77415E-01         0.00000E+00
    0.15473E-01        -0.75642E-01         0.00000E+00
    0.15058E-01        -0.73864E-01         0.00000E+00
    0.14657E-01        -0.72080E-01         0.00000E+00
    0.14269E-01        -0.70292E-01         0.00000E+00
    0.13893E-01        -0.68498E-01         0.00000E+00
    0.13528E-01        -0.66699E-01         0.00000E+00
    0.13171E-01        -0.64895E-01         0.00000E+00
    0.12823E-01        -0.63087E-01         0.00000E+00
    0.12482E-01        -0.61273E-01         0.00000E+00
    0.12146E-01        -0.59454E-01         0.00000E+00
    0.11816E-01        -0.57630E-01         0.00000E+00
    0.11489E-01        -0.55802E-01         0.00000E+00
    0.11165E-01        -0.53968E-01         0.00000E+00
    0.10843E-01        -0.52129E-01         0.00000E+00
    0.10523E-01        -0.50285E-01         0.00000E+00
    0.10203E-01        -0.48436E-01         0.00000E+00
    0.98825E-02        -0.46582E-01         0.00000E+00
    0.95610E-02        -0.44722E-01         0.00000E+00
    0.92377E-02        -0.42856E-01         0.00000E+00
    0.89117E-02        -0.40984E-01         0.00000E+00
    0.85823E-02        -0.39107E-01         0.00000E+00
    0.82488E-02        -0.37224E-01         0.00000E+00
    0.79104E-02        -0.35334E-01         0.00000E+00
    0.75663E-02        -0.33437E-01         0.00000E+00
    0.72158E-02        -0.31534E-01         0.00000E+00
    0.68581E-02        -0.29624E-01         0.00000E+00
    0.64923E-02        -0.27707E-01         0.00000E+00
    0.61176E-02        -0.25782E-01         0.00000E+00
    0.57331E-02        -0.23849E-01         0.00000E+00
    0.53379E-02        -0.21909E-01         0.00000E+00
    0.49311E-02        -0.19960E-01         0.00000E+00
    0.45118E-02        -0.18003E-01         0.00000E+00
    0.40788E-02        -0.16038E-01         0.00000E+00
    0.36313E-02        -0.14064E-01         0.00000E+00
    0.31681E-02        -0.12081E-01         0.00000E+00
    0.26881E-02        -0.10090E-01         0.00000E+00
    0.21904E-02        -0.80892E-02         0.00000E+00
    0.16739E-02        -0.60800E-02         0.00000E+00
    0.11373E-02        -0.40619E-02         0.00000E+00
    0.57969E-03        -0.20352E-02         0.00000E+00
    0.00000E+00         0.00000E+00         0.00000E+00
    0.16665E-01        -0.96362E-01         0.00000E+00
    0.16084E-01        -0.94569E-01         0.00000E+00
    0.15540E-01        -0.92770E-01         0.00000E+00
    0.15031E-01        -0.90966E-01         0.00000E+00
    0.14554E-01        -0.89156E-01         0.00000E+00
    0.14106E-01        -0.87339E-01         0.00000E+00
    0.13684E-01        -0.85517E-01         0.00000E+00
    0.13286E-01        -0.83689E-01         0.00000E+00
    0.12909E-01        -0.81855E-01         0.00000E+00
    0.12551E-01        -0.80016E-01         0.00000E+00
    0.12211E-01        -0.78171E-01         0.00000E+00
    0.11885E-01        -0.76322E-01         0.00000E+00
    0.11573E-01        -0.74467E-01         0.00000E+00
    0.11273E-01        -0.72608E-01         0.00000E+00
    0.10983E-01        -0.70744E-01         0.00000E+00
    0.10703E-01        -0.68876E-01         0.00000E+00
    0.10430E-01        -0.67004E-01         0.00000E+00
    0.10164E-01        -0.65128E-01         0.00000E+00
    0.99036E-02        -0.63248E-01         0.00000E+00
    0.96483E-02        -0.61364E-01         0.00000E+00
    0.93969E-02        -0.59476E-01         0.00000E+00
    0.91487E-02        -0.57584E-01         0.00000E+00
    0.89028E-02        -0.55688E-01         0.00000E+00
    0.86585E-02        -0.53787E-01         0.00000E+00
    0.84151E-02        -0.51883E-01         0.00000E+00
    0.81720E-02        -0.49974E-01         0.00000E+00
    0.79284E-02        -0.48060E-01         0.00000E+00
    0.76837E-02        -0.46142E-01         0.00000E+00
    0.74373E-02        -0.44218E-01         0.00000E+00
    0.71885E-02        -0.42290E-01         0.00000E+00
    0.69367E-02        -0.40356E-01         0.00000E+00
    0.66813E-02        -0.38416E-01         0.00000E+00
    0.64215E-02        -0.36470E-01         0.00000E+00
    0.61567E-02        -0.34518E-01         0.00000E+00
    0.58861E-02        -0.32559E-01         0.00000E+00
    0.56091E-02        -0.30592E-01         0.00000E+00
    0.53249E-02        -0.28619E-01         0.00000E+00
    0.50326E-02        -0.26637E-01         0.00000E+00
    0.47313E-02        -0.24648E-01         0.00000E+00
    0.44201E-02        -0.22649E-01         0.00000E+00
    0.40980E-02        -0.20642E-01         0.00000E+00
    0.37639E-02        -0.18625E-01         0.00000E+00
    0.34166E-02        -0.16599E-01         0.00000E+00
    0.30549E-02        -0.14562E-01         0.00000E+00
    0.26774E-02        -0.12514E-01         0.00000E+00
    0.22827E-02        -0.10456E-01         0.00000E+00
    0.18694E-02        -0.83871E-02         0.00000E+00
    0.14360E-02        -0.63070E-02         0.00000E+00
    0.98098E-03        -0.42157E-02         0.00000E+00
    0.50296E-03        -0.21134E-02         0.00000E+00
    0.00000E+00         0.00000E+00         0.00000E+00
    0.11827E-01        -0.99089E-01         0.00000E+00
    0.11365E-01        -0.97232E-01         0.00000E+00
    0.10942E-01        -0.95368E-01         0.00000E+00
    0.10556E-01        -0.93497E-01         0.00000E+00
    0.10202E-01        -0.91618E-01         0.00000E+00
    0.98751E-02        -0.89731E-01         0.00000E+00
    0.95729E-02        -0.87838E-01         0.00000E+00
    0.92916E-02        -0.85939E-01         0.00000E+00
    0.90284E-02        -0.84034E-01         0.00000E+00
    0.87808E-02        -0.82125E-01         0.00000E+00
    0.85468E-02        -0.80211E-01         0.00000E+00
    0.83245E-02        -0.78294E-01         0.00000E+00
    0.81125E-02        -0.76373E-01         0.00000E+00
    0.79093E-02        -0.74450E-01         0.00000E+00
    0.77138E-02        -0.72523E-01         0.00000E+00
    0.75249E-02        -0.70594E-01         0.00000E+00
    0.73417E-02        -0.68662E-01         0.00000E+00
    0.71633E-02        -0.66728E-01         0.00000E+00
    0.69890E-02        -0.64792E-01         0.00000E+00
    0.68180E-02        -0.62853E-01         0.00000E+00
    0.66498E-02        -0.60911E-01         0.00000E+00
    0.64836E-02        -0.58967E-01         0.00000E+00
    0.63190E-02        -0.57020E-01         0.00000E+00
    0.61554E-02        -0.55070E-01         0.00000E+00
    0.59924E-02        -0.53117E-01         0.00000E+00
    0.58294E-02        -0.51161E-01         0.00000E+00
    0.56659E-02        -0.49201E-01         0.00000E+00
    0.55015E-02        -0.47237E-01         0.00000E+00
    0.53358E-02        -0.45269E-01         0.00000E+00
    0.51682E-02        -0.43296E-01         0.00000E+00
    0.49984E-02        -0.41319E-01         0.00000E+00
    0.48257E-02        -0.39337E-01         0.00000E+00
    0.46498E-02        -0.37349E-01         0.00000E+00
    0.44701E-02        -0.35355E-01         0.00000E+00
    0.42861E-02        -0.33354E-01         0.00000E+00
    0.40971E-02        -0.31347E-01         0.00000E+00
    0.39025E-02        -0.29332E-01         0.00000E+00
    0.37017E-02        -0.27309E-01         0.00000E+00
    0.34939E-02        -0.25278E-01         0.00000E+00
    0.32782E-02        -0.23237E-01         0.00000E+00
    0.30537E-02        -0.21187E-01         0.00000E+00
    0.28193E-02        -0.19126E-01         0.00000E+00
    0.25739E-02        -0.17054E-01         0.00000E+00
    0.23159E-02        -0.14970E-01         0.00000E+00
    0.20439E-02        -0.12874E-01         0.00000E+00
    0.17560E-02        -0.10764E-01         0.00000E+00
    0.14501E-02        -0.86408E-02         0.00000E+00
    0.11239E-02        -0.65027E-02         0.00000E+00
    0.77478E-03        -0.43498E-02         0.00000E+00
    0.40055E-03        -0.21820E-02         0.00000E+00
    0.00000E+00         0.00000E+00         0.00000E+00
    0.62821E-02        -0.10111E+00         0.00000E+00
    0.59896E-02        -0.99193E-01         0.00000E+00
    0.57416E-02        -0.97260E-01         0.00000E+00
    0.55259E-02        -0.95317E-01         0.00000E+00
    0.53347E-02        -0.93366E-01         0.00000E+00
    0.51625E-02        -0.91409E-01         0.00000E+00
    0.50056E-02        -0.89448E-01         0.00000E+00
    0.48613E-02        -0.87483E-01         0.00000E+00
    0.47273E-02        -0.85515E-01         0.00000E+00
    0.46020E-02        -0.83546E-01         0.00000E+00
    0.44841E-02        -0.81575E-01         0.00000E+00
    0.43725E-02        -0.79604E-01         0.00000E+00
    0.42662E-02        -0.77631E-01         0.00000E+00
    0.41646E-02        -0.75658E-01         0.00000E+00
    0.40669E-02        -0.73685E-01         0.00000E+00
    0.39725E-02        -0.71711E-01         0.00000E+00
    0.38811E-02        -0.69736E-01         0.00000E+00
    0.37921E-02        -0.67761E-01         0.00000E+00
    0.37051E-02        -0.65785E-01         0.00000E+00
    0.36197E-02        -0.63808E-01         0.00000E+00
    0.35357E-02        -0.61830E-01         0.00000E+00
    0.34528E-02        -0.59850E-01         0.00000E+00
    0.33705E-02        -0.57869E-01         0.00000E+00
    0.32887E-02        -0.55886E-01         0.00000E+00
    0.32072E-02        -0.53902E-01         0.00000E+00
    0.31256E-02        -0.51914E-01         0.00000E+00
    0.30437E-02        -0.49925E-01         0.00000E+00
    0.29613E-02        -0.47932E-01         0.00000E+00
    0.28781E-02        -0.45935E-01         0.00000E+00
    0.27939E-02        -0.43935E-01         0.00000E+00
    0.27085E-02        -0.41931E-01         0.00000E+00
    0.26215E-02        -0.39922E-01         0.00000E+00
    0.25328E-02        -0.37908E-01         0.00000E+00
    0.24421E-02        -0.35889E-01         0.00000E+00
    0.23489E-02        -0.33863E-01         0.00000E+00
    0.22531E-02        -0.31831E-01         0.00000E+00
    0.21543E-02        -0.29791E-01         0.00000E+00
    0.20520E-02        -0.27744E-01         0.00000E+00
    0.19459E-02        -0.25688E-01         0.00000E+00
    0.18353E-02        -0.23623E-01         0.00000E+00
    0.17198E-02        -0.21548E-01         0.00000E+00
    0.15985E-02        -0.19462E-01         0.00000E+00
    0.14708E-02        -0.17364E-01         0.00000E+00
    0.13354E-02        -0.15253E-01         0.00000E+00
    0.11913E-02        -0.13128E-01         0.00000E+00
    0.10368E-02        -0.10988E-01         0.00000E+00
    0.86985E-03        -0.88306E-02         0.00000E+00
    0.68763E-03        -0.66551E-02         0.00000E+00
    0.48626E-03        -0.44595E-02         0.00000E+00
    0.26001E-03        -0.22417E-02         0.00000E+00
    0.00000E+00         0.00000E+00         0.00000E+00
    0.00000E+00        -0.10203E+00         0.00000E+00
    0.00000E+00        -0.10004E+00         0.00000E+00
    0.00000E+00        -0.98046E-01         0.00000E+00
    0.00000E+00        -0.96049E-01         0.00000E+00
    0.00000E+00        -0.94050E-01         0.00000E+00
    0.00000E+00        -0.92050E-01         0.00000E+00
    0.00000E+00        -0.90052E-01         0.00000E+00
    0.00000E+00        -0.88053E-01         0.00000E+00
    0.00000E+00        -0.86056E-01         0.00000E+00
    0.00000E+00        -0.84060E-01         0.00000E+00
    0.00000E+00        -0.82064E-01         0.00000E+00
    0.00000E+00        -0.80070E-01         0.00000E+00
    0.00000E+00        -0.78076E-01         0.00000E+00
    0.00000E+00        -0.76084E-01         0.00000E+00
    0.00000E+00        -0.74092E-01         0.00000E+00
    0.00000E+00        -0.72101E-01         0.00000E+00
    0.00000E+00        -0.70110E-01         0.00000E+00
    0.00000E+00        -0.68119E-01         0.00000E+00
    0.00000E+00        -0.66129E-01         0.00000E+00
    0.00000E+00        -0.64138E-01         0.00000E+00
    0.00000E+00        -0.62147E-01         0.00000E+00
    0.00000E+00        -0.60155E-01         0.00000E+00
    0.00000E+00        -0.58162E-01         0.00000E+00
    0.00000E+00        -0.56167E-01         0.00000E+00
    0.00000E+00        -0.54171E-01         0.00000E+00
    0.00000E+00        -0.52174E-01         0.00000E+00
    0.00000E+00        -0.50173E-01         0.00000E+00
    0.00000E+00        -0.48170E-01         0.00000E+00
    0.00000E+00        -0.46164E-01         0.00000E+00
    0.00000E+00        -0.44155E-01         0.00000E+00
    0.00000E+00        -0.42141E-01         0.00000E+00
    0.00000E+00        -0.40124E-01         0.00000E+00
    0.00000E+00        -0.38101E-01         0.00000E+00
    0.00000E+00        -0.36073E-01         0.00000E+00
    0.00000E+00        -0.34039E-01         0.00000E+00
    0.00000E+00        -0.31998E-01         0.00000E+00
    0.00000E+00        -0.29951E-01         0.00000E+00
    0.00000E+00        -0.27896E-01         0.00000E+00
    0.00000E+00        -0.25832E-01         0.00000E+00
    0.00000E+00        -0.23759E-01         0.00000E+00
    0.00000E+00        -0.21676E-01         0.00000E+00
    0.00000E+00        -0.19582E-01         0.00000E+00
    0.00000E+00        -0.17476E-01         0.00000E+00
    0.00000E+00        -0.15357E-01         0.00000E+00
    0.00000E+00        -0.13223E-01         0.00000E+00
    0.00000E+00        -0.11074E-01         0.00000E+00
    0.00000E+00        -0.89061E-02         0.00000E+00
    0.00000E+00        -0.67184E-02         0.00000E+00
    0.00000E+00        -0.45077E-02         0.00000E+00
    0.00000E+00        -0.22700E-02         0.00000E+00
    0.00000E+00         0.00000E+00         0.00000E+00
CELL_DATA       5000
VECTORS vDarcy double 
    0.84762E-07         0.00000E+00         0.00000E+00
    0.84762E-07        -0.69849E-20         0.00000E+00
    0.84762E-07        -0.27940E-20         0.00000E+00
    0.84762E-07        -0.83819E-20         0.00000E+00
    0.84762E-07        -0.10245E-19         0.00000E+00
    0.84762E-07        -0.97789E-20         0.00000E+00
    0.84762E-07        -0.23283E-20         0.00000E+00
    0.84762E-07        -0.11642E-19         0.00000E+00
    0.84762E-07        -0.69849E-20         0.00000E+00
    0.84762E-07         0.41910E-20         0.00000E+00
    0.84762E-07        -0.74506E-20         0.00000E+00
    0.84762E-07        -0.11642E-20         0.00000E+00
    0.84762E-07         0.46566E-21         0.00000E+00
    0.84762E-07        -0.60536E-20         0.00000E+00
    0.84762E-07         0.46566E-21         0.00000E+00
    0.84762E-07         0.00000E+00         0.00000E+00
    0.84762E-07        -0.46566E-20         0.00000E+00
    0.84762E-07        -0.11642E-19         0.00000E+00
    0.84762E-07        -0.69849E-20         0.00000E+00
    0.84762E-07         0.00000E+00         0.00000E+00
    0.84762E-07         0.00000E+00         0.00000E+00
    0.84762E-07        -0.88476E-20         0.00000E+00
    0.84762E-07         0.00000E+00         0.00000E+00
    0.84762E-07        -0.41910E-20         0.00000E+00
    0.84762E-07         0.00000E+00         0.00000E+00
    0.84762E-07        -0.27940E-20         0.00000E+00
    0.84762E-07        -0.55879E-20         0.00000E+00
    0.84762E-07        -0.93132E-20         0.00000E+00
    0.84762E-07         0.00000E+00         0.00000E+00
    0.84762E-07        -0.46566E-20         0.00000E+00
    0.84762E-07        -0.69849E-20         0.00000E+00
    0.84762E-07        -0.27940E-20         0.00000E+00
    0.84762E-07         0.00000E+00         0.00000E+00
    0.84762E-07         0.00000E+00         0.00000E+00
    0.84762E-07        -0.93132E-20         0.00000E+00
    0.84762E-07         0.00000E+00         0.00000E+00
    0.84762E-07        -0.88476E-20         0.00000E+00
    0.84762E-07        -0.69849E-20         0.00000E+00
    0.84762E-07        -0.27940E-20         0.00000E+00
    0.84762E-07        -0.11642E-19         0.00000E+00
    0.84762E-07        -0.74506E-20         0.00000E+00
    0.84762E-07        -0.69849E-20         0.00000E+00
    0.84762E-07         0.00000E+00         0.00000E+00
    0.84762E-07        -0.46566E-21         0.00000E+00
    0.84762E-07        -0.69849E-20         0.00000E+00
    0.84762E-07         0.27940E-20         0.00000E+00
    0.84762E-07         0.46566E-21         0.00000E+00
    0.84762E-07         0.00000E+00         0.00000E+00
    0.84762E-07        -0.74506E-20         0.00000E+00
    0.84762E-07        -0.46566E-20         0.00000E+00
    0.84485E-07         0.27940E-20         0.00000E+00
    0.84485E-07        -0.21420E-19         0.00000E+00
    0.84485E-07        -0.18161E-19         0.00000E+00
    0.84485E-07        -0.20955E-19         0.00000E+00
    0.84485E-07        -0.19558E-19         0.00000E+00
    0.84485E-07        -0.67521E-20         0.00000E+00
    0.84485E-07        -0.44238E-20         0.00000E+00
    0.84485E-07        -0.93132E-20         0.00000E+00
    0.84485E-07        -0.14901E-19         0.00000E+00
    0.84485E-07        -0.26543E-19         0.00000E+00
    0.84485E-07        -0.14901E-19         0.00000E+00
    0.84485E-07        -0.18626E-20         0.00000E+00
    0.84485E-07        -0.53551E-20         0.00000E+00
    0.84485E-07         0.41910E-20         0.00000E+00
    0.84485E-07        -0.16298E-19         0.00000E+00
    0.84485E-07        -0.19092E-19         0.00000E+00
    0.84485E-07        -0.88476E-20         0.00000E+00
    0.84485E-07        -0.69849E-20         0.00000E+00
    0.84485E-07        -0.14435E-19         0.00000E+00
    0.84485E-07        -0.26077E-19         0.00000E+00
    0.84485E-07        -0.11642E-19         0.00000E+00
    0.84485E-07        -0.12107E-19         0.00000E+00
    0.84485E-07        -0.97789E-20         0.00000E+00
    0.84485E-07        -0.93132E-21         0.00000E+00
    0.84485E-07        -0.46566E-21         0.00000E+00
    0.84485E-07        -0.79162E-20         0.00000E+00
    0.84485E-07        -0.10943E-19         0.00000E+00
    0.84485E-07        -0.19092E-19         0.00000E+00
    0.84485E-07        -0.16764E-19         0.00000E+00
    0.84485E-07        -0.17229E-19         0.00000E+00
    0.84485E-07        -0.74506E-20         0.00000E+00
    0.84485E-07        -0.10710E-19         0.00000E+00
    0.84485E-07        -0.15832E-19         0.00000E+00
    0.84485E-07        -0.74506E-20         0.00000E+00
    0.84485E-07        -0.46566E-20         0.00000E+00
    0.84485E-07        -0.46566E-20         0.00000E+00
    0.84485E-07        -0.69849E-20         0.00000E+00
    0.84485E-07        -0.14435E-19         0.00000E+00
    0.84485E-07        -0.23283E-19         0.00000E+00
    0.84485E-07        -0.25611E-19         0.00000E+00
    0.84485E-07        -0.13970E-19         0.00000E+00
    0.84485E-07        -0.19092E-19         0.00000E+00
    0.84485E-07        -0.69849E-20         0.00000E+00
    0.84485E-07        -0.46566E-20         0.00000E+00
    0.84485E-07        -0.10943E-19         0.00000E+00
    0.84485E-07        -0.46566E-21         0.00000E+00
    0.84485E-07        -0.37253E-20         0.00000E+00
    0.84485E-07        -0.69849E-20         0.00000E+00
    0.84485E-07        -0.46566E-21         0.00000E+00
    0.84485E-07         0.69849E-20         0.00000E+00
    0.83933E-07         0.37253E-20         0.00000E+00
    0.83933E-07        -0.16298E-19         0.00000E+00
    0.83933E-07        -0.32596E-19         0.00000E+00
    0.83933E-07        -0.23283E-19         0.00000E+00
    0.83933E-07        -0.20489E-19         0.00000E+00
    0.83933E-07        -0.19092E-19         0.00000E+00
    0.83933E-07        -0.18626E-19         0.00000E+00
    0.83933E-07        -0.19092E-19         0.00000E+00
    0.83933E-07        -0.27940E-20         0.00000E+00
    0.83933E-07        -0.22817E-19         0.00000E+00
    0.83933E-07        -0.37719E-19         0.00000E+00
    0.83933E-07        -0.23749E-19         0.00000E+00
    0.83933E-07        -0.37719E-19         0.00000E+00
    0.83933E-07        -0.33062E-19         0.00000E+00
    0.83933E-07        -0.17462E-19         0.00000E+00
    0.83933E-07        -0.25611E-19         0.00000E+00
    0.83933E-07        -0.19092E-19         0.00000E+00
    0.83933E-07        -0.10710E-19         0.00000E+00
    0.83933E-07        -0.17229E-19         0.00000E+00
    0.83933E-07        -0.21420E-19         0.00000E+00
    0.83933E-07        -0.20023E-19         0.00000E+00
    0.83933E-07        -0.27008E-19         0.00000E+00
    0.83933E-07        -0.15367E-19         0.00000E+00
    0.83933E-07        -0.24214E-19         0.00000E+00
    0.83933E-07        -0.14901E-19         0.00000E+00
    0.83933E-07        -0.17462E-19         0.00000E+00
    0.83933E-07        -0.79162E-20         0.00000E+00
    0.83933E-07        -0.20955E-19         0.00000E+00
    0.83933E-07        -0.18626E-19         0.00000E+00
    0.83933E-07        -0.93132E-20         0.00000E+00
    0.83933E-07        -0.97789E-20         0.00000E+00
    0.83933E-07        -0.74506E-20         0.00000E+00
    0.83933E-07        -0.19558E-19         0.00000E+00
    0.83933E-07        -0.74506E-20         0.00000E+00
    0.83933E-07        -0.37253E-20         0.00000E+00
    0.83933E-07        -0.11176E-19         0.00000E+00
    0.83933E-07        -0.51223E-20         0.00000E+00
    0.83933E-07        -0.19092E-19         0.00000E+00
    0.83933E-07        -0.83819E-20         0.00000E+00
    0.83933E-07        -0.83819E-20         0.00000E+00
    0.83933E-07        -0.11176E-19         0.00000E+00
    0.83933E-07        -0.24214E-19         0.00000E+00
    0.83933E-07        -0.19092E-19         0.00000E+00
    0.83933E-07        -0.23749E-19         0.00000E+00
    0.83933E-07        -0.16764E-19         0.00000E+00
    0.83933E-07        -0.65193E-20         0.00000E+00
    0.83933E-07        -0.79162E-20         0.00000E+00
    0.83933E-07        -0.46566E-21         0.00000E+00
    0.83933E-07         0.12107E-19         0.00000E+00
    0.83933E-07         0.55879E-20         0.00000E+00
    0.83113E-07        -0.46566E-20         0.00000E+00
    0.83113E-07        -0.21420E-19         0.00000E+00
    0.83113E-07        -0.21420E-19         0.00000E+00
    0.83113E-07        -0.18626E-20         0.00000E+00
    0.83113E-07        -0.51223E-20         0.00000E+00
    0.83113E-07        -0.21420E-19         0.00000E+00
    0.83113E-07        -0.22817E-19         0.00000E+00
    0.83113E-07        -0.32596E-19         0.00000E+00
    0.83113E-07        -0.83819E-20         0.00000E+00
    0.83113E-07        -0.11642E-19         0.00000E+00
    0.83113E-07        -0.44238E-19         0.00000E+00
    0.83113E-07        -0.40978E-19         0.00000E+00
    0.83113E-07        -0.47032E-19         0.00000E+00
    0.83113E-07        -0.66590E-19         0.00000E+00
    0.83113E-07        -0.31432E-19         0.00000E+00
    0.83113E-07        -0.21420E-19         0.00000E+00
    0.83113E-07        -0.25611E-19         0.00000E+00
    0.83113E-07        -0.34925E-19         0.00000E+00
    0.83113E-07        -0.33993E-19         0.00000E+00
    0.83113E-07        -0.27008E-19         0.00000E+00
    0.83113E-07        -0.27940E-19         0.00000E+00
    0.83113E-07        -0.29337E-19         0.00000E+00
    0.83113E-07        -0.20023E-19         0.00000E+00
    0.83113E-07        -0.46799E-19         0.00000E+00
    0.83113E-07        -0.36787E-19         0.00000E+00
    0.83113E-07        -0.19092E-19         0.00000E+00
    0.83113E-07        -0.11176E-19         0.00000E+00
    0.83113E-07        -0.30268E-19         0.00000E+00
    0.83113E-07        -0.19092E-19         0.00000E+00
    0.83113E-07        -0.69849E-20         0.00000E+00
    0.83113E-07        -0.88476E-20         0.00000E+00
    0.83113E-07        -0.74506E-20         0.00000E+00
    0.83113E-07        -0.18161E-19         0.00000E+00
    0.83113E-07        -0.28405E-19         0.00000E+00
    0.83113E-07        -0.17229E-19         0.00000E+00
    0.83113E-07        -0.21886E-19         0.00000E+00
    0.83113E-07        -0.26543E-19         0.00000E+00
    0.83113E-07        -0.12107E-19         0.00000E+00
    0.83113E-07         0.37253E-20         0.00000E+00
    0.83113E-07         0.13039E-19         0.00000E+00
    0.83113E-07         0.46566E-21         0.00000E+00
    0.83113E-07        -0.69849E-20         0.00000E+00
    0.83113E-07        -0.18161E-19         0.00000E+00
    0.83113E-07        -0.25611E-19         0.00000E+00
    0.83113E-07        -0.83819E-20         0.00000E+00
    0.83113E-07         0.93132E-21         0.00000E+00
    0.83113E-07         0.18626E-20         0.00000E+00
    0.83113E-07         0.46566E-21         0.00000E+00
    0.83113E-07        -0.51223E-20         0.00000E+00
    0.83113E-07        -0.11642E-19         0.00000E+00
    0.82037E-07        -0.37253E-20         0.00000E+00
    0.82037E-07        -0.17229E-19         0.00000E+00
    0.82037E-07        -0.15832E-19         0.00000E+00
    0.82037E-07        -0.37253E-20         0.00000E+00
    0.82037E-07        -0.72177E-20         0.00000E+00
    0.82037E-07        -0.79162E-20         0.00000E+00
    0.82037E-07        -0.69849E-20         0.00000E+00
    0.82037E-07        -0.19558E-19         0.00000E+00
    0.82037E-07        -0.22352E-19         0.00000E+00
    0.82037E-07        -0.28405E-19         0.00000E+00
    0.82037E-07        -0.34925E-19         0.00000E+00
    0.82037E-07        -0.50524E-19         0.00000E+00
    0.82037E-07        -0.31432E-19         0.00000E+00
    0.82037E-07        -0.34925E-19         0.00000E+00
    0.82037E-07        -0.46799E-19         0.00000E+00
    0.82037E-07        -0.40513E-19         0.00000E+00
    0.82037E-07        -0.38650E-19         0.00000E+00
    0.82037E-07        -0.41910E-19         0.00000E+00
    0.82037E-07        -0.48429E-19         0.00000E+00
    0.82037E-07        -0.55414E-19         0.00000E+00
    0.82037E-07        -0.34925E-19         0.00000E+00
    0.82037E-07        -0.35856E-19         0.00000E+00
    0.82037E-07        -0.40047E-19         0.00000E+00
    0.82037E-07        -0.38650E-19         0.00000E+00
    0.82037E-07        -0.33295E-19         0.00000E+00
    0.82037E-07        -0.23283E-19         0.00000E+00
    0.82037E-07        -0.17695E-19         0.00000E+00
    0.82037E-07        -0.30268E-19         0.00000E+00
    0.82037E-07        -0.40047E-19         0.00000E+00
    0.82037E-07        -0.26543E-19         0.00000E+00
    0.82037E-07        -0.97789E-20         0.00000E+00
    0.82037E-07        -0.19092E-19         0.00000E+00
    0.82037E-07        -0.26543E-19         0.00000E+00
    0.82037E-07        -0.37719E-19         0.00000E+00
    0.82037E-07        -0.39581E-19         0.00000E+00
    0.82037E-07        -0.31665E-19         0.00000E+00
    0.82037E-07        -0.29337E-19         0.00000E+00
    0.82037E-07        -0.13504E-19         0.00000E+00
    0.82037E-07        -0.20955E-19         0.00000E+00
    0.82037E-07         0.18626E-20         0.00000E+00
    0.82037E-07         0.16298E-20         0.00000E+00
    0.82037E-07         0.13970E-20         0.00000E+00
    0.82037E-07        -0.55879E-20         0.00000E+00
    0.82037E-07        -0.41910E-20         0.00000E+00
    0.82037E-07        -0.86147E-20         0.00000E+00
    0.82037E-07         0.18626E-20         0.00000E+00
    0.82037E-07         0.15832E-19         0.00000E+00
    0.82037E-07        -0.51223E-20         0.00000E+00
    0.82037E-07        -0.51223E-20         0.00000E+00
    0.82037E-07        -0.74506E-20         0.00000E+00
    0.80716E-07        -0.93132E-20         0.00000E+00
    0.80716E-07        -0.10710E-19         0.00000E+00
    0.80716E-07        -0.16065E-19         0.00000E+00
    0.80716E-07        -0.10012E-19         0.00000E+00
    0.80716E-07        -0.14901E-19         0.00000E+00
    0.80716E-07        -0.30268E-19         0.00000E+00
    0.80716E-07        -0.15367E-19         0.00000E+00
    0.80716E-07        -0.19092E-19         0.00000E+00
    0.80716E-07        -0.21653E-19         0.00000E+00
    0.80716E-07        -0.33993E-19         0.00000E+00
    0.80716E-07        -0.27707E-19         0.00000E+00
    0.80716E-07        -0.34459E-19         0.00000E+00
    0.80716E-07        -0.32596E-19         0.00000E+00
    0.80716E-07        -0.29802E-19         0.00000E+00
    0.80716E-07        -0.41444E-19         0.00000E+00
    0.80716E-07        -0.40513E-19         0.00000E+00
    0.80716E-07        -0.42841E-19         0.00000E+00
    0.80716E-07        -0.41444E-19         0.00000E+00
    0.80716E-07        -0.45635E-19         0.00000E+00
    0.80716E-07        -0.40047E-19         0.00000E+00
    0.80716E-07        -0.47032E-19         0.00000E+00
    0.80716E-07        -0.50757E-19         0.00000E+00
    0.80716E-07        -0.46566E-19         0.00000E+00
    0.80716E-07        -0.41910E-19         0.00000E+00
    0.80716E-07        -0.39814E-19         0.00000E+00
    0.80716E-07        -0.37253E-19         0.00000E+00
    0.80716E-07        -0.17229E-19         0.00000E+00
    0.80716E-07        -0.21886E-19         0.00000E+00
    0.80716E-07        -0.27474E-19         0.00000E+00
    0.80716E-07        -0.36089E-19         0.00000E+00
    0.80716E-07        -0.21420E-19         0.00000E+00
    0.80716E-07        -0.24680E-19         0.00000E+00
    0.80716E-07        -0.26543E-19         0.00000E+00
    0.80716E-07        -0.20955E-19         0.00000E+00
    0.80716E-07        -0.27940E-19         0.00000E+00
    0.80716E-07        -0.31199E-19         0.00000E+00
    0.80716E-07        -0.35390E-19         0.00000E+00
    0.80716E-07        -0.27474E-19         0.00000E+00
    0.80716E-07        -0.15367E-19         0.00000E+00
    0.80716E-07        -0.16298E-19         0.00000E+00
    0.80716E-07        -0.15832E-19         0.00000E+00
    0.80716E-07        -0.41910E-20         0.00000E+00
    0.80716E-07        -0.93132E-20         0.00000E+00
    0.80716E-07        -0.21420E-19         0.00000E+00
    0.80716E-07        -0.25844E-19         0.00000E+00
    0.80716E-07        -0.81491E-20         0.00000E+00
    0.80716E-07         0.37253E-20         0.00000E+00
    0.80716E-07        -0.41910E-20         0.00000E+00
    0.80716E-07         0.18626E-20         0.00000E+00
    0.80716E-07        -0.39581E-20         0.00000E+00
    0.79167E-07        -0.90804E-20         0.00000E+00
    0.79167E-07        -0.39581E-20         0.00000E+00
    0.79167E-07        -0.16298E-19         0.00000E+00
    0.79167E-07        -0.22817E-19         0.00000E+00
    0.79167E-07        -0.27940E-19         0.00000E+00
    0.79167E-07        -0.33062E-19         0.00000E+00
    0.79167E-07        -0.21420E-19         0.00000E+00
    0.79167E-07        -0.20023E-19         0.00000E+00
    0.79167E-07        -0.32131E-19         0.00000E+00
    0.79167E-07        -0.36322E-19         0.00000E+00
    0.79167E-07        -0.27940E-19         0.00000E+00
    0.79167E-07        -0.30734E-19         0.00000E+00
    0.79167E-07        -0.34692E-19         0.00000E+00
    0.79167E-07        -0.19791E-19         0.00000E+00
    0.79167E-07        -0.37719E-19         0.00000E+00
    0.79167E-07        -0.43306E-19         0.00000E+00
    0.79167E-07        -0.54017E-19         0.00000E+00
    0.79167E-07        -0.51921E-19         0.00000E+00
    0.79167E-07        -0.37486E-19         0.00000E+00
    0.79167E-07        -0.36322E-19         0.00000E+00
    0.79167E-07        -0.53085E-19         0.00000E+00
    0.79167E-07        -0.39581E-19         0.00000E+00
    0.79167E-07        -0.43306E-19         0.00000E+00
    0.79167E-07        -0.49826E-19         0.00000E+00
    0.79167E-07        -0.40513E-19         0.00000E+00
    0.79167E-07        -0.38650E-19         0.00000E+00
    0.79167E-07        -0.42375E-19         0.00000E+00
    0.79167E-07        -0.30268E-19         0.00000E+00
    0.79167E-07        -0.35856E-19         0.00000E+00
    0.79167E-07        -0.30268E-19         0.00000E+00
    0.79167E-07        -0.18626E-19         0.00000E+00
    0.79167E-07        -0.33528E-19         0.00000E+00
    0.79167E-07        -0.29337E-19         0.00000E+00
    0.79167E-07        -0.20955E-19         0.00000E+00
    0.79167E-07        -0.11642E-19         0.00000E+00
    0.79167E-07        -0.19092E-19         0.00000E+00
    0.79167E-07        -0.19092E-19         0.00000E+00
    0.79167E-07        -0.13039E-19         0.00000E+00
    0.79167E-07        -0.27940E-20         0.00000E+00
    0.79167E-07        -0.23749E-19         0.00000E+00
    0.79167E-07        -0.20722E-19         0.00000E+00
    0.79167E-07        -0.22817E-19         0.00000E+00
    0.79167E-07        -0.16298E-19         0.00000E+00
    0.79167E-07        -0.29337E-19         0.00000E+00
    0.79167E-07        -0.18161E-19         0.00000E+00
    0.79167E-07        -0.27940E-20         0.00000E+00
    0.79167E-07        -0.25611E-20         0.00000E+00
    0.79167E-07        -0.10477E-19         0.00000E+00
    0.79167E-07        -0.18626E-20         0.00000E+00
    0.79167E-07         0.18626E-20         0.00000E+00
    0.77407E-07        -0.51223E-20         0.00000E+00
    0.77407E-07        -0.10710E-19         0.00000E+00
    0.77407E-07        -0.31199E-19         0.00000E+00
    0.77407E-07        -0.31432E-19         0.00000E+00
    0.77407E-07        -0.31199E-19         0.00000E+00
    0.77407E-07        -0.29104E-19         0.00000E+00
    0.77407E-07        -0.12107E-19         0.00000E+00
    0.77407E-07        -0.23283E-19         0.00000E+00
    0.77407E-07        -0.28405E-19         0.00000E+00
    0.77407E-07        -0.28405E-19         0.00000E+00
    0.77407E-07        -0.30268E-19         0.00000E+00
    0.77407E-07        -0.38417E-19         0.00000E+00
    0.77407E-07        -0.28638E-19         0.00000E+00
    0.77407E-07        -0.12573E-19         0.00000E+00
    0.77407E-07        -0.31898E-19         0.00000E+00
    0.77407E-07        -0.53085E-19         0.00000E+00
    0.77407E-07        -0.48894E-19         0.00000E+00
    0.77407E-07        -0.33993E-19         0.00000E+00
    0.77407E-07        -0.51223E-19         0.00000E+00
    0.77407E-07        -0.44238E-19         0.00000E+00
    0.77407E-07        -0.53551E-19         0.00000E+00
    0.77407E-07        -0.47497E-19         0.00000E+00
    0.77407E-07        -0.34459E-19         0.00000E+00
    0.77407E-07        -0.44703E-19         0.00000E+00
    0.77407E-07        -0.34925E-19         0.00000E+00
    0.77407E-07        -0.27940E-19         0.00000E+00
    0.77407E-07        -0.47963E-19         0.00000E+00
    0.77407E-07        -0.43772E-19         0.00000E+00
    0.77407E-07        -0.40513E-19         0.00000E+00
    0.77407E-07        -0.34459E-19         0.00000E+00
    0.77407E-07        -0.19092E-19         0.00000E+00
    0.77407E-07        -0.16764E-19         0.00000E+00
    0.77407E-07        -0.29337E-19         0.00000E+00
    0.77407E-07        -0.20955E-19         0.00000E+00
    0.77407E-07        -0.18161E-19         0.00000E+00
    0.77407E-07        -0.11176E-19         0.00000E+00
    0.77407E-07        -0.11176E-19         0.00000E+00
    0.77407E-07        -0.12573E-19         0.00000E+00
    0.77407E-07        -0.24214E-19         0.00000E+00
    0.77407E-07        -0.27008E-19         0.00000E+00
    0.77407E-07        -0.27707E-19         0.00000E+00
    0.77407E-07        -0.32131E-19         0.00000E+00
    0.77407E-07        -0.17229E-19         0.00000E+00
    0.77407E-07        -0.10710E-19         0.00000E+00
    0.77407E-07        -0.53551E-20         0.00000E+00
    0.77407E-07         0.32596E-20         0.00000E+00
    0.77407E-07         0.13970E-19         0.00000E+00
    0.77407E-07         0.10477E-19         0.00000E+00
    0.77407E-07         0.74506E-20         0.00000E+00
    0.77407E-07        -0.11642E-20         0.00000E+00
    0.75456E-07        -0.53551E-20         0.00000E+00
    0.75456E-07        -0.21188E-19         0.00000E+00
    0.75456E-07        -0.26077E-19         0.00000E+00
    0.75456E-07        -0.14203E-19         0.00000E+00
    0.75456E-07        -0.88476E-20         0.00000E+00
    0.75456E-07        -0.32829E-19         0.00000E+00
    0.75456E-07        -0.18394E-19         0.00000E+00
    0.75456E-07        -0.25146E-19         0.00000E+00
    0.75456E-07        -0.25146E-19         0.00000E+00
    0.75456E-07        -0.23283E-20         0.00000E+00
    0.75456E-07        -0.15367E-19         0.00000E+00
    0.75456E-07        -0.23283E-19         0.00000E+00
    0.75456E-07        -0.21886E-19         0.00000E+00
    0.75456E-07        -0.31199E-19         0.00000E+00
    0.75456E-07        -0.44703E-19         0.00000E+00
    0.75456E-07        -0.31199E-19         0.00000E+00
    0.75456E-07        -0.32596E-19         0.00000E+00
    0.75456E-07        -0.20489E-19         0.00000E+00
    0.75456E-07        -0.39581E-19         0.00000E+00
    0.75456E-07        -0.50291E-19         0.00000E+00
    0.75456E-07        -0.45635E-19         0.00000E+00
    0.75456E-07        -0.43772E-19         0.00000E+00
    0.75456E-07        -0.28871E-19         0.00000E+00
    0.75456E-07        -0.33993E-19         0.00000E+00
    0.75456E-07        -0.27008E-19         0.00000E+00
    0.75456E-07        -0.37253E-19         0.00000E+00
    0.75456E-07        -0.39814E-19         0.00000E+00
    0.75456E-07        -0.39581E-19         0.00000E+00
    0.75456E-07        -0.31665E-19         0.00000E+00
    0.75456E-07        -0.31665E-19         0.00000E+00
    0.75456E-07        -0.36787E-19         0.00000E+00
    0.75456E-07        -0.37020E-19         0.00000E+00
    0.75456E-07        -0.33760E-19         0.00000E+00
    0.75456E-07        -0.27474E-19         0.00000E+00
    0.75456E-07        -0.26077E-19         0.00000E+00
    0.75456E-07        -0.33062E-19         0.00000E+00
    0.75456E-07        -0.26077E-19         0.00000E+00
    0.75456E-07        -0.19558E-19         0.00000E+00
    0.75456E-07        -0.10245E-19         0.00000E+00
    0.75456E-07        -0.22119E-19         0.00000E+00
    0.75456E-07        -0.27241E-19         0.00000E+00
    0.75456E-07        -0.18626E-19         0.00000E+00
    0.75456E-07        -0.24680E-19         0.00000E+00
    0.75456E-07        -0.16764E-19         0.00000E+00
    0.75456E-07        -0.86147E-20         0.00000E+00
    0.75456E-07         0.16764E-19         0.00000E+00
    0.75456E-07         0.19092E-19         0.00000E+00
    0.75456E-07         0.20955E-19         0.00000E+00
    0.75456E-07         0.93132E-20         0.00000E+00
    0.75456E-07        -0.39581E-20         0.00000E+00
    0.73336E-07         0.23283E-20         0.00000E+00
    0.73336E-07         0.12340E-19         0.00000E+00
    0.73336E-07         0.14901E-19         0.00000E+00
    0.73336E-07         0.48894E-20         0.00000E+00
    0.73336E-07        -0.19791E-19         0.00000E+00
    0.73336E-07        -0.16997E-19         0.00000E+00
    0.73336E-07        -0.11642E-19         0.00000E+00
    0.73336E-07        -0.37253E-20         0.00000E+00
    0.73336E-07        -0.27940E-20         0.00000E+00
    0.73336E-07        -0.21653E-19         0.00000E+00
    0.73336E-07        -0.17229E-19         0.00000E+00
    0.73336E-07        -0.17695E-19         0.00000E+00
    0.73336E-07        -0.20955E-19         0.00000E+00
    0.73336E-07        -0.14901E-19         0.00000E+00
    0.73336E-07        -0.38184E-19         0.00000E+00
    0.73336E-07        -0.32596E-19         0.00000E+00
    0.73336E-07        -0.47497E-19         0.00000E+00
    0.73336E-07        -0.48894E-19         0.00000E+00
    0.73336E-07        -0.40047E-19         0.00000E+00
    0.73336E-07        -0.42375E-19         0.00000E+00
    0.73336E-07        -0.38184E-19         0.00000E+00
    0.73336E-07        -0.35856E-19         0.00000E+00
    0.73336E-07        -0.13970E-19         0.00000E+00
    0.73336E-07        -0.17695E-19         0.00000E+00
    0.73336E-07        -0.24214E-19         0.00000E+00
    0.73336E-07        -0.32596E-19         0.00000E+00
    0.73336E-07        -0.33993E-19         0.00000E+00
    0.73336E-07        -0.33062E-19         0.00000E+00
    0.73336E-07        -0.23749E-19         0.00000E+00
    0.73336E-07        -0.28871E-19         0.00000E+00
    0.73336E-07        -0.44703E-19         0.00000E+00
    0.73336E-07        -0.50291E-19         0.00000E+00
    0.73336E-07        -0.41677E-19         0.00000E+00
    0.73336E-07        -0.42841E-19         0.00000E+00
    0.73336E-07        -0.52154E-19         0.00000E+00
    0.73336E-07        -0.54948E-19         0.00000E+00
    0.73336E-07        -0.24447E-19         0.00000E+00
    0.73336E-07        -0.31665E-19         0.00000E+00
    0.73336E-07        -0.18161E-19         0.00000E+00
    0.73336E-07        -0.32131E-19         0.00000E+00
    0.73336E-07        -0.51223E-20         0.00000E+00
    0.73336E-07        -0.20489E-19         0.00000E+00
    0.73336E-07        -0.14435E-19         0.00000E+00
    0.73336E-07        -0.15367E-19         0.00000E+00
    0.73336E-07        -0.93132E-21         0.00000E+00
    0.73336E-07         0.27940E-19         0.00000E+00
    0.73336E-07         0.13970E-19         0.00000E+00
    0.73336E-07         0.11642E-20         0.00000E+00
    0.73336E-07        -0.69849E-20         0.00000E+00
    0.73336E-07        -0.37253E-20         0.00000E+00
    0.71067E-07         0.12573E-19         0.00000E+00
    0.71067E-07         0.28405E-19         0.00000E+00
    0.71067E-07         0.11409E-19         0.00000E+00
    0.71067E-07        -0.25611E-20         0.00000E+00
    0.71067E-07        -0.13504E-19         0.00000E+00
    0.71067E-07        -0.25611E-20         0.00000E+00
    0.71067E-07         0.93132E-20         0.00000E+00
    0.71067E-07         0.16298E-20         0.00000E+00
    0.71067E-07         0.55879E-20         0.00000E+00
    0.71067E-07        -0.18859E-19         0.00000E+00
    0.71067E-07        -0.20489E-19         0.00000E+00
    0.71067E-07        -0.23050E-19         0.00000E+00
    0.71067E-07        -0.19092E-19         0.00000E+00
    0.71067E-07        -0.46566E-20         0.00000E+00
    0.71067E-07        -0.21886E-19         0.00000E+00
    0.71067E-07        -0.35157E-19         0.00000E+00
    0.71067E-07        -0.41211E-19         0.00000E+00
    0.71067E-07        -0.51223E-19         0.00000E+00
    0.71067E-07        -0.51223E-19         0.00000E+00
    0.71067E-07        -0.50059E-19         0.00000E+00
    0.71067E-07        -0.38650E-19         0.00000E+00
    0.71067E-07        -0.48429E-19         0.00000E+00
    0.71067E-07        -0.27940E-19         0.00000E+00
    0.71067E-07        -0.21886E-19         0.00000E+00
    0.71067E-07        -0.23749E-19         0.00000E+00
    0.71067E-07        -0.58208E-20         0.00000E+00
    0.71067E-07        -0.19558E-19         0.00000E+00
    0.71067E-07        -0.14901E-19         0.00000E+00
    0.71067E-07        -0.15367E-19         0.00000E+00
    0.71067E-07        -0.38184E-19         0.00000E+00
    0.71067E-07        -0.33993E-19         0.00000E+00
    0.71067E-07        -0.47963E-19         0.00000E+00
    0.71067E-07        -0.61933E-19         0.00000E+00
    0.71067E-07        -0.49826E-19         0.00000E+00
    0.71067E-07        -0.64261E-19         0.00000E+00
    0.71067E-07        -0.57742E-19         0.00000E+00
    0.71067E-07        -0.46333E-19         0.00000E+00
    0.71067E-07        -0.37253E-19         0.00000E+00
    0.71067E-07        -0.24913E-19         0.00000E+00
    0.71067E-07        -0.26077E-19         0.00000E+00
    0.71067E-07        -0.18161E-19         0.00000E+00
    0.71067E-07        -0.18161E-19         0.00000E+00
    0.71067E-07        -0.11642E-19         0.00000E+00
    0.71067E-07        -0.55879E-20         0.00000E+00
    0.71067E-07        -0.25611E-20         0.00000E+00
    0.71067E-07        -0.51223E-20         0.00000E+00
    0.71067E-07        -0.32596E-20         0.00000E+00
    0.71067E-07        -0.74506E-20         0.00000E+00
    0.71067E-07        -0.79162E-20         0.00000E+00
    0.71067E-07        -0.37253E-20         0.00000E+00
    0.68671E-07         0.93132E-20         0.00000E+00
    0.68671E-07         0.18626E-20         0.00000E+00
    0.68671E-07        -0.58208E-20         0.00000E+00
    0.68671E-07        -0.46566E-20         0.00000E+00
    0.68671E-07        -0.93132E-20         0.00000E+00
    0.68671E-07        -0.23283E-20         0.00000E+00
    0.68671E-07        -0.46566E-21         0.00000E+00
    0.68671E-07        -0.13970E-19         0.00000E+00
    0.68671E-07        -0.11642E-19         0.00000E+00
    0.68671E-07        -0.25611E-20         0.00000E+00
    0.68671E-07        -0.83819E-20         0.00000E+00
    0.68671E-07        -0.18161E-19         0.00000E+00
    0.68671E-07        -0.19791E-19         0.00000E+00
    0.68671E-07        -0.25146E-19         0.00000E+00
    0.68671E-07        -0.21886E-19         0.00000E+00
    0.68671E-07        -0.11874E-19         0.00000E+00
    0.68671E-07        -0.25611E-19         0.00000E+00
    0.68671E-07        -0.23749E-19         0.00000E+00
    0.68671E-07        -0.30035E-19         0.00000E+00
    0.68671E-07        -0.44238E-19         0.00000E+00
    0.68671E-07        -0.42841E-19         0.00000E+00
    0.68671E-07        -0.47963E-19         0.00000E+00
    0.68671E-07        -0.31432E-19         0.00000E+00
    0.68671E-07        -0.43306E-19         0.00000E+00
    0.68671E-07        -0.38417E-19         0.00000E+00
    0.68671E-07        -0.20722E-19         0.00000E+00
    0.68671E-07        -0.21188E-19         0.00000E+00
    0.68671E-07        -0.11642E-19         0.00000E+00
    0.68671E-07        -0.34459E-19         0.00000E+00
    0.68671E-07        -0.36322E-19         0.00000E+00
    0.68671E-07        -0.47730E-19         0.00000E+00
    0.68671E-07        -0.51921E-19         0.00000E+00
    0.68671E-07        -0.49593E-19         0.00000E+00
    0.68671E-07        -0.50291E-19         0.00000E+00
    0.68671E-07        -0.41910E-19         0.00000E+00
    0.68671E-07        -0.30734E-19         0.00000E+00
    0.68671E-07        -0.20489E-19         0.00000E+00
    0.68671E-07        -0.11874E-19         0.00000E+00
    0.68671E-07        -0.13504E-19         0.00000E+00
    0.68671E-07        -0.14901E-19         0.00000E+00
    0.68671E-07        -0.25844E-19         0.00000E+00
    0.68671E-07        -0.19092E-19         0.00000E+00
    0.68671E-07        -0.16764E-19         0.00000E+00
    0.68671E-07         0.69849E-20         0.00000E+00
    0.68671E-07        -0.15832E-19         0.00000E+00
    0.68671E-07        -0.21886E-19         0.00000E+00
    0.68671E-07        -0.23749E-19         0.00000E+00
    0.68671E-07        -0.11874E-19         0.00000E+00
    0.68671E-07        -0.81491E-20         0.00000E+00
    0.68671E-07        -0.93132E-21         0.00000E+00
    0.66173E-07        -0.51223E-20         0.00000E+00
    0.66173E-07        -0.16764E-19         0.00000E+00
    0.66173E-07        -0.10710E-19         0.00000E+00
    0.66173E-07        -0.13039E-19         0.00000E+00
    0.66173E-07        -0.15832E-19         0.00000E+00
    0.66173E-07        -0.16298E-19         0.00000E+00
    0.66173E-07        -0.15832E-19         0.00000E+00
    0.66173E-07        -0.24214E-19         0.00000E+00
    0.66173E-07        -0.25146E-19         0.00000E+00
    0.66173E-07        -0.33062E-19         0.00000E+00
    0.66173E-07        -0.28405E-19         0.00000E+00
    0.66173E-07        -0.30734E-19         0.00000E+00
    0.66173E-07        -0.23283E-19         0.00000E+00
    0.66173E-07        -0.25611E-19         0.00000E+00
    0.66173E-07        -0.28405E-19         0.00000E+00
    0.66173E-07        -0.17229E-19         0.00000E+00
    0.66173E-07        -0.14901E-19         0.00000E+00
    0.66173E-07        -0.97789E-20         0.00000E+00
    0.66173E-07        -0.26776E-19         0.00000E+00
    0.66173E-07        -0.33295E-19         0.00000E+00
    0.66173E-07        -0.37719E-19         0.00000E+00
    0.66173E-07        -0.34459E-19         0.00000E+00
    0.66173E-07        -0.29337E-19         0.00000E+00
    0.66173E-07        -0.45169E-19         0.00000E+00
    0.66173E-07        -0.49360E-19         0.00000E+00
    0.66173E-07        -0.36787E-19         0.00000E+00
    0.66173E-07        -0.28871E-19         0.00000E+00
    0.66173E-07        -0.35856E-19         0.00000E+00
    0.66173E-07        -0.29802E-19         0.00000E+00
    0.66173E-07        -0.37719E-19         0.00000E+00
    0.66173E-07        -0.45169E-19         0.00000E+00
    0.66173E-07        -0.47032E-19         0.00000E+00
    0.66173E-07        -0.31199E-19         0.00000E+00
    0.66173E-07        -0.42841E-19         0.00000E+00
    0.66173E-07        -0.18161E-19         0.00000E+00
    0.66173E-07        -0.11642E-19         0.00000E+00
    0.66173E-07         0.69849E-20         0.00000E+00
    0.66173E-07        -0.27940E-20         0.00000E+00
    0.66173E-07        -0.12573E-19         0.00000E+00
    0.66173E-07        -0.14901E-19         0.00000E+00
    0.66173E-07        -0.83819E-20         0.00000E+00
    0.66173E-07        -0.10710E-19         0.00000E+00
    0.66173E-07        -0.12107E-19         0.00000E+00
    0.66173E-07         0.00000E+00         0.00000E+00
    0.66173E-07        -0.15367E-19         0.00000E+00
    0.66173E-07        -0.32596E-20         0.00000E+00
    0.66173E-07        -0.11176E-19         0.00000E+00
    0.66173E-07        -0.13504E-19         0.00000E+00
    0.66173E-07        -0.46566E-21         0.00000E+00
    0.66173E-07        -0.37253E-20         0.00000E+00
    0.63593E-07        -0.15832E-19         0.00000E+00
    0.63593E-07        -0.14668E-19         0.00000E+00
    0.63593E-07        -0.25611E-19         0.00000E+00
    0.63593E-07        -0.20955E-19         0.00000E+00
    0.63593E-07        -0.10477E-19         0.00000E+00
    0.63593E-07        -0.14901E-19         0.00000E+00
    0.63593E-07        -0.69849E-20         0.00000E+00
    0.63593E-07        -0.35390E-19         0.00000E+00
    0.63593E-07        -0.27008E-19         0.00000E+00
    0.63593E-07        -0.24214E-19         0.00000E+00
    0.63593E-07        -0.30734E-19         0.00000E+00
    0.63593E-07        -0.33062E-19         0.00000E+00
    0.63593E-07        -0.22817E-19         0.00000E+00
    0.63593E-07        -0.20489E-19         0.00000E+00
    0.63593E-07        -0.27474E-19         0.00000E+00
    0.63593E-07        -0.35390E-19         0.00000E+00
    0.63593E-07        -0.33993E-19         0.00000E+00
    0.63593E-07        -0.33062E-19         0.00000E+00
    0.63593E-07        -0.33993E-19         0.00000E+00
    0.63593E-07        -0.32363E-19         0.00000E+00
    0.63593E-07        -0.33062E-19         0.00000E+00
    0.63593E-07        -0.17229E-19         0.00000E+00
    0.63593E-07        -0.36787E-19         0.00000E+00
    0.63593E-07        -0.25611E-19         0.00000E+00
    0.63593E-07        -0.33993E-19         0.00000E+00
    0.63593E-07        -0.26543E-19         0.00000E+00
    0.63593E-07        -0.32596E-19         0.00000E+00
    0.63593E-07        -0.41910E-19         0.00000E+00
    0.63593E-07        -0.23749E-19         0.00000E+00
    0.63593E-07        -0.32596E-19         0.00000E+00
    0.63593E-07        -0.20489E-19         0.00000E+00
    0.63593E-07        -0.32596E-19         0.00000E+00
    0.63593E-07        -0.21420E-19         0.00000E+00
    0.63593E-07        -0.26543E-19         0.00000E+00
    0.63593E-07        -0.14901E-19         0.00000E+00
    0.63593E-07        -0.13970E-19         0.00000E+00
    0.63593E-07        -0.15832E-19         0.00000E+00
    0.63593E-07        -0.12107E-19         0.00000E+00
    0.63593E-07         0.25611E-20         0.00000E+00
    0.63593E-07        -0.83819E-20         0.00000E+00
    0.63593E-07        -0.37253E-20         0.00000E+00
    0.63593E-07        -0.55879E-20         0.00000E+00
    0.63593E-07        -0.16298E-19         0.00000E+00
    0.63593E-07        -0.13970E-19         0.00000E+00
    0.63593E-07        -0.12107E-19         0.00000E+00
    0.63593E-07        -0.97789E-20         0.00000E+00
    0.63593E-07        -0.13970E-20         0.00000E+00
    0.63593E-07         0.39581E-20         0.00000E+00
    0.63593E-07         0.74506E-20         0.00000E+00
    0.63593E-07         0.46566E-20         0.00000E+00
    0.60953E-07        -0.11642E-19         0.00000E+00
    0.60953E-07        -0.83819E-20         0.00000E+00
    0.60953E-07        -0.88476E-20         0.00000E+00
    0.60953E-07        -0.11642E-19         0.00000E+00
    0.60953E-07        -0.24913E-19         0.00000E+00
    0.60953E-07        -0.21420E-19         0.00000E+00
    0.60953E-07        -0.20955E-19         0.00000E+00
    0.60953E-07        -0.16298E-19         0.00000E+00
    0.60953E-07        -0.15367E-19         0.00000E+00
    0.60953E-07        -0.16298E-19         0.00000E+00
    0.60953E-07        -0.97789E-20         0.00000E+00
    0.60953E-07        -0.22817E-19         0.00000E+00
    0.60953E-07        -0.25146E-19         0.00000E+00
    0.60953E-07        -0.19558E-19         0.00000E+00
    0.60953E-07        -0.16298E-19         0.00000E+00
    0.60953E-07        -0.31199E-19         0.00000E+00
    0.60953E-07        -0.30268E-19         0.00000E+00
    0.60953E-07        -0.46566E-19         0.00000E+00
    0.60953E-07        -0.27008E-19         0.00000E+00
    0.60953E-07        -0.25146E-19         0.00000E+00
    0.60953E-07        -0.39814E-19         0.00000E+00
    0.60953E-07        -0.22817E-19         0.00000E+00
    0.60953E-07        -0.21886E-19         0.00000E+00
    0.60953E-07        -0.37719E-19         0.00000E+00
    0.60953E-07        -0.32596E-19         0.00000E+00
    0.60953E-07        -0.23283E-19         0.00000E+00
    0.60953E-07        -0.24680E-19         0.00000E+00
    0.60953E-07        -0.20489E-19         0.00000E+00
    0.60953E-07        -0.35856E-19         0.00000E+00
    0.60953E-07        -0.31898E-19         0.00000E+00
    0.60953E-07        -0.13039E-19         0.00000E+00
    0.60953E-07        -0.15367E-19         0.00000E+00
    0.60953E-07        -0.24214E-19         0.00000E+00
    0.60953E-07        -0.35390E-19         0.00000E+00
    0.60953E-07        -0.20955E-19         0.00000E+00
    0.60953E-07        -0.13504E-19         0.00000E+00
    0.60953E-07        -0.18626E-19         0.00000E+00
    0.60953E-07        -0.20489E-19         0.00000E+00
    0.60953E-07        -0.41910E-20         0.00000E+00
    0.60953E-07        -0.13039E-19         0.00000E+00
    0.60953E-07        -0.10943E-19         0.00000E+00
    0.60953E-07        -0.12107E-19         0.00000E+00
    0.60953E-07        -0.26776E-19         0.00000E+00
    0.60953E-07        -0.11642E-19         0.00000E+00
    0.60953E-07        -0.60536E-20         0.00000E+00
    0.60953E-07        -0.10710E-19         0.00000E+00
    0.60953E-07        -0.93132E-20         0.00000E+00
    0.60953E-07        -0.32596E-20         0.00000E+00
    0.60953E-07        -0.46566E-20         0.00000E+00
    0.60953E-07         0.55879E-20         0.00000E+00
    0.58274E-07         0.41910E-20         0.00000E+00
    0.58274E-07        -0.51223E-20         0.00000E+00
    0.58274E-07         0.74506E-20         0.00000E+00
    0.58274E-07        -0.79162E-20         0.00000E+00
    0.58274E-07        -0.34459E-19         0.00000E+00
    0.58274E-07        -0.22817E-19         0.00000E+00
    0.58274E-07        -0.25611E-19         0.00000E+00
    0.58274E-07        -0.13970E-19         0.00000E+00
    0.58274E-07        -0.20489E-19         0.00000E+00
    0.58274E-07        -0.19092E-19         0.00000E+00
    0.58274E-07        -0.16764E-19         0.00000E+00
    0.58274E-07        -0.16764E-19         0.00000E+00
    0.58274E-07        -0.33062E-19         0.00000E+00
    0.58274E-07        -0.25611E-19         0.00000E+00
    0.58274E-07        -0.18626E-19         0.00000E+00
    0.58274E-07        -0.27707E-19         0.00000E+00
    0.58274E-07        -0.18161E-19         0.00000E+00
    0.58274E-07        -0.30734E-19         0.00000E+00
    0.58274E-07        -0.13504E-19         0.00000E+00
    0.58274E-07        -0.26543E-19         0.00000E+00
    0.58274E-07        -0.16764E-19         0.00000E+00
    0.58274E-07        -0.15832E-19         0.00000E+00
    0.58274E-07        -0.23749E-19         0.00000E+00
    0.58274E-07        -0.40513E-19         0.00000E+00
    0.58274E-07        -0.25379E-19         0.00000E+00
    0.58274E-07        -0.17229E-19         0.00000E+00
    0.58274E-07        -0.81491E-20         0.00000E+00
    0.58274E-07        -0.26077E-19         0.00000E+00
    0.58274E-07        -0.35390E-19         0.00000E+00
    0.58274E-07        -0.44703E-19         0.00000E+00
    0.58274E-07        -0.28405E-19         0.00000E+00
    0.58274E-07        -0.22817E-19         0.00000E+00
    0.58274E-07        -0.33528E-19         0.00000E+00
    0.58274E-07        -0.33062E-19         0.00000E+00
    0.58274E-07        -0.27940E-19         0.00000E+00
    0.58274E-07        -0.13970E-19         0.00000E+00
    0.58274E-07        -0.17229E-19         0.00000E+00
    0.58274E-07        -0.23050E-19         0.00000E+00
    0.58274E-07        -0.33062E-19         0.00000E+00
    0.58274E-07        -0.31199E-19         0.00000E+00
    0.58274E-07        -0.25611E-19         0.00000E+00
    0.58274E-07        -0.12107E-19         0.00000E+00
    0.58274E-07        -0.22817E-19         0.00000E+00
    0.58274E-07        -0.88476E-20         0.00000E+00
    0.58274E-07        -0.93132E-20         0.00000E+00
    0.58274E-07        -0.97789E-20         0.00000E+00
    0.58274E-07        -0.12107E-19         0.00000E+00
    0.58274E-07        -0.13970E-19         0.00000E+00
    0.58274E-07        -0.93132E-21         0.00000E+00
    0.58274E-07        -0.46566E-21         0.00000E+00
    0.55575E-07         0.55879E-20         0.00000E+00
    0.55575E-07        -0.60536E-20         0.00000E+00
    0.55575E-07        -0.93132E-20         0.00000E+00
    0.55575E-07         0.23283E-20         0.00000E+00
    0.55575E-07        -0.16997E-19         0.00000E+00
    0.55575E-07        -0.10710E-19         0.00000E+00
    0.55575E-07        -0.18626E-19         0.00000E+00
    0.55575E-07        -0.21886E-19         0.00000E+00
    0.55575E-07        -0.55879E-20         0.00000E+00
    0.55575E-07        -0.12107E-19         0.00000E+00
    0.55575E-07        -0.14435E-19         0.00000E+00
    0.55575E-07        -0.11642E-19         0.00000E+00
    0.55575E-07        -0.26543E-19         0.00000E+00
    0.55575E-07        -0.27940E-19         0.00000E+00
    0.55575E-07        -0.31898E-19         0.00000E+00
    0.55575E-07        -0.26543E-19         0.00000E+00
    0.55575E-07        -0.29569E-19         0.00000E+00
    0.55575E-07        -0.27241E-19         0.00000E+00
    0.55575E-07        -0.24680E-19         0.00000E+00
    0.55575E-07        -0.23050E-19         0.00000E+00
    0.55575E-07        -0.97789E-20         0.00000E+00
    0.55575E-07        -0.13970E-19         0.00000E+00
    0.55575E-07        -0.14435E-19         0.00000E+00
    0.55575E-07        -0.16065E-19         0.00000E+00
    0.55575E-07        -0.20023E-19         0.00000E+00
    0.55575E-07        -0.29569E-19         0.00000E+00
    0.55575E-07        -0.24913E-19         0.00000E+00
    0.55575E-07        -0.29802E-19         0.00000E+00
    0.55575E-07        -0.28405E-19         0.00000E+00
    0.55575E-07        -0.30035E-19         0.00000E+00
    0.55575E-07        -0.44238E-19         0.00000E+00
    0.55575E-07        -0.26776E-19         0.00000E+00
    0.55575E-07        -0.35856E-19         0.00000E+00
    0.55575E-07        -0.21653E-19         0.00000E+00
    0.55575E-07        -0.16764E-19         0.00000E+00
    0.55575E-07        -0.27940E-20         0.00000E+00
    0.55575E-07        -0.21420E-19         0.00000E+00
    0.55575E-07        -0.36322E-19         0.00000E+00
    0.55575E-07        -0.30268E-19         0.00000E+00
    0.55575E-07        -0.35856E-19         0.00000E+00
    0.55575E-07        -0.44005E-19         0.00000E+00
    0.55575E-07        -0.26310E-19         0.00000E+00
    0.55575E-07        -0.27474E-19         0.00000E+00
    0.55575E-07        -0.74506E-20         0.00000E+00
    0.55575E-07         0.30268E-20         0.00000E+00
    0.55575E-07        -0.69849E-20         0.00000E+00
    0.55575E-07        -0.81491E-20         0.00000E+00
    0.55575E-07        -0.44238E-20         0.00000E+00
    0.55575E-07         0.83819E-20         0.00000E+00
    0.55575E-07         0.46566E-21         0.00000E+00
    0.52874E-07        -0.30268E-20         0.00000E+00
    0.52874E-07         0.23283E-20         0.00000E+00
    0.52874E-07        -0.46566E-21         0.00000E+00
    0.52874E-07         0.10477E-19         0.00000E+00
    0.52874E-07         0.67521E-20         0.00000E+00
    0.52874E-07         0.32596E-20         0.00000E+00
    0.52874E-07        -0.86147E-20         0.00000E+00
    0.52874E-07        -0.23283E-20         0.00000E+00
    0.52874E-07         0.46566E-21         0.00000E+00
    0.52874E-07        -0.46566E-21         0.00000E+00
    0.52874E-07        -0.14435E-19         0.00000E+00
    0.52874E-07        -0.30734E-19         0.00000E+00
    0.52874E-07        -0.24214E-19         0.00000E+00
    0.52874E-07        -0.16298E-19         0.00000E+00
    0.52874E-07        -0.18626E-19         0.00000E+00
    0.52874E-07        -0.23749E-19         0.00000E+00
    0.52874E-07        -0.93132E-20         0.00000E+00
    0.52874E-07        -0.10943E-19         0.00000E+00
    0.52874E-07        -0.23749E-19         0.00000E+00
    0.52874E-07        -0.28871E-19         0.00000E+00
    0.52874E-07        -0.33528E-19         0.00000E+00
    0.52874E-07        -0.24680E-19         0.00000E+00
    0.52874E-07        -0.22817E-19         0.00000E+00
    0.52874E-07        -0.31199E-19         0.00000E+00
    0.52874E-07        -0.27940E-19         0.00000E+00
    0.52874E-07        -0.33528E-19         0.00000E+00
    0.52874E-07        -0.29802E-19         0.00000E+00
    0.52874E-07        -0.40047E-19         0.00000E+00
    0.52874E-07        -0.23283E-19         0.00000E+00
    0.52874E-07        -0.22817E-19         0.00000E+00
    0.52874E-07        -0.40978E-19         0.00000E+00
    0.52874E-07        -0.33760E-19         0.00000E+00
    0.52874E-07        -0.38650E-19         0.00000E+00
    0.52874E-07        -0.37020E-19         0.00000E+00
    0.52874E-07        -0.26077E-19         0.00000E+00
    0.52874E-07        -0.11176E-19         0.00000E+00
    0.52874E-07        -0.22352E-19         0.00000E+00
    0.52874E-07        -0.24680E-19         0.00000E+00
    0.52874E-07        -0.18626E-19         0.00000E+00
    0.52874E-07        -0.24680E-19         0.00000E+00
    0.52874E-07        -0.34925E-19         0.00000E+00
    0.52874E-07        -0.18859E-19         0.00000E+00
    0.52874E-07        -0.27008E-19         0.00000E+00
    0.52874E-07        -0.60536E-20         0.00000E+00
    0.52874E-07         0.16298E-20         0.00000E+00
    0.52874E-07        -0.27940E-20         0.00000E+00
    0.52874E-07        -0.46566E-21         0.00000E+00
    0.52874E-07        -0.97789E-20         0.00000E+00
    0.52874E-07         0.27940E-20         0.00000E+00
    0.52874E-07         0.93132E-21         0.00000E+00
    0.50189E-07        -0.25611E-20         0.00000E+00
    0.50189E-07         0.60536E-20         0.00000E+00
    0.50189E-07         0.13039E-19         0.00000E+00
    0.50189E-07         0.13970E-19         0.00000E+00
    0.50189E-07         0.76834E-20         0.00000E+00
    0.50189E-07        -0.74506E-20         0.00000E+00
    0.50189E-07         0.79162E-20         0.00000E+00
    0.50189E-07         0.79162E-20         0.00000E+00
    0.50189E-07         0.00000E+00         0.00000E+00
    0.50189E-07         0.46566E-21         0.00000E+00
    0.50189E-07         0.69849E-20         0.00000E+00
    0.50189E-07        -0.11642E-19         0.00000E+00
    0.50189E-07        -0.55879E-20         0.00000E+00
    0.50189E-07        -0.20023E-19         0.00000E+00
    0.50189E-07        -0.11642E-19         0.00000E+00
    0.50189E-07        -0.11642E-19         0.00000E+00
    0.50189E-07        -0.32596E-20         0.00000E+00
    0.50189E-07        -0.27940E-20         0.00000E+00
    0.50189E-07        -0.30734E-19         0.00000E+00
    0.50189E-07        -0.29802E-19         0.00000E+00
    0.50189E-07        -0.35390E-19         0.00000E+00
    0.50189E-07        -0.26077E-19         0.00000E+00
    0.50189E-07        -0.32131E-19         0.00000E+00
    0.50189E-07        -0.35856E-19         0.00000E+00
    0.50189E-07        -0.30268E-19         0.00000E+00
    0.50189E-07        -0.30966E-19         0.00000E+00
    0.50189E-07        -0.28173E-19         0.00000E+00
    0.50189E-07        -0.41444E-19         0.00000E+00
    0.50189E-07        -0.43772E-19         0.00000E+00
    0.50189E-07        -0.49360E-19         0.00000E+00
    0.50189E-07        -0.44703E-19         0.00000E+00
    0.50189E-07        -0.41211E-19         0.00000E+00
    0.50189E-07        -0.40745E-19         0.00000E+00
    0.50189E-07        -0.34459E-19         0.00000E+00
    0.50189E-07        -0.36787E-19         0.00000E+00
    0.50189E-07        -0.16764E-19         0.00000E+00
    0.50189E-07        -0.24680E-19         0.00000E+00
    0.50189E-07        -0.19092E-19         0.00000E+00
    0.50189E-07        -0.38184E-19         0.00000E+00
    0.50189E-07        -0.20955E-19         0.00000E+00
    0.50189E-07        -0.20955E-19         0.00000E+00
    0.50189E-07        -0.88476E-20         0.00000E+00
    0.50189E-07        -0.23749E-19         0.00000E+00
    0.50189E-07        -0.12573E-19         0.00000E+00
    0.50189E-07        -0.11409E-19         0.00000E+00
    0.50189E-07        -0.32596E-20         0.00000E+00
    0.50189E-07        -0.93132E-21         0.00000E+00
    0.50189E-07        -0.11874E-19         0.00000E+00
    0.50189E-07        -0.55879E-20         0.00000E+00
    0.50189E-07        -0.69849E-21         0.00000E+00
    0.47535E-07        -0.23283E-20         0.00000E+00
    0.47535E-07         0.13970E-20         0.00000E+00
    0.47535E-07        -0.23283E-21         0.00000E+00
    0.47535E-07         0.16997E-19         0.00000E+00
    0.47535E-07         0.69849E-21         0.00000E+00
    0.47535E-07        -0.51223E-20         0.00000E+00
    0.47535E-07        -0.18626E-20         0.00000E+00
    0.47535E-07         0.18626E-20         0.00000E+00
    0.47535E-07         0.27940E-20         0.00000E+00
    0.47535E-07         0.46566E-20         0.00000E+00
    0.47535E-07         0.17695E-19         0.00000E+00
    0.47535E-07         0.17462E-19         0.00000E+00
    0.47535E-07         0.16298E-19         0.00000E+00
    0.47535E-07         0.62864E-20         0.00000E+00
    0.47535E-07        -0.13970E-20         0.00000E+00
    0.47535E-07        -0.12340E-19         0.00000E+00
    0.47535E-07        -0.12573E-19         0.00000E+00
    0.47535E-07        -0.18626E-19         0.00000E+00
    0.47535E-07        -0.24214E-19         0.00000E+00
    0.47535E-07        -0.23283E-19         0.00000E+00
    0.47535E-07        -0.30734E-19         0.00000E+00
    0.47535E-07        -0.28405E-19         0.00000E+00
    0.47535E-07        -0.14435E-19         0.00000E+00
    0.47535E-07        -0.27940E-19         0.00000E+00
    0.47535E-07        -0.36787E-19         0.00000E+00
    0.47535E-07        -0.50291E-19         0.00000E+00
    0.47535E-07        -0.41444E-19         0.00000E+00
    0.47535E-07        -0.37719E-19         0.00000E+00
    0.47535E-07        -0.47963E-19         0.00000E+00
    0.47535E-07        -0.48894E-19         0.00000E+00
    0.47535E-07        -0.47963E-19         0.00000E+00
    0.47535E-07        -0.36322E-19         0.00000E+00
    0.47535E-07        -0.28405E-19         0.00000E+00
    0.47535E-07        -0.29802E-19         0.00000E+00
    0.47535E-07        -0.21886E-19         0.00000E+00
    0.47535E-07        -0.29104E-19         0.00000E+00
    0.47535E-07        -0.33062E-19         0.00000E+00
    0.47535E-07        -0.27940E-19         0.00000E+00
    0.47535E-07        -0.31432E-19         0.00000E+00
    0.47535E-07        -0.26543E-19         0.00000E+00
    0.47535E-07        -0.22352E-19         0.00000E+00
    0.47535E-07        -0.88476E-20         0.00000E+00
    0.47535E-07         0.00000E+00         0.00000E+00
    0.47535E-07        -0.19092E-19         0.00000E+00
    0.47535E-07        -0.67521E-20         0.00000E+00
    0.47535E-07        -0.51223E-20         0.00000E+00
    0.47535E-07        -0.51223E-20         0.00000E+00
    0.47535E-07        -0.10012E-19         0.00000E+00
    0.47535E-07         0.46566E-21         0.00000E+00
    0.47535E-07         0.00000E+00         0.00000E+00
    0.44925E-07         0.23283E-20         0.00000E+00
    0.44925E-07         0.46566E-20         0.00000E+00
    0.44925E-07        -0.60536E-20         0.00000E+00
    0.44925E-07         0.10245E-19         0.00000E+00
    0.44925E-07        -0.83819E-20         0.00000E+00
    0.44925E-07        -0.55879E-20         0.00000E+00
    0.44925E-07        -0.51223E-20         0.00000E+00
    0.44925E-07         0.65193E-20         0.00000E+00
    0.44925E-07         0.83819E-20         0.00000E+00
    0.44925E-07         0.37616E-36         0.00000E+00
    0.44925E-07         0.20955E-20         0.00000E+00
    0.44925E-07         0.30268E-20         0.00000E+00
    0.44925E-07         0.12107E-19         0.00000E+00
    0.44925E-07         0.18626E-19         0.00000E+00
    0.44925E-07         0.25611E-20         0.00000E+00
    0.44925E-07         0.10477E-19         0.00000E+00
    0.44925E-07        -0.10710E-19         0.00000E+00
    0.44925E-07        -0.16298E-19         0.00000E+00
    0.44925E-07        -0.23283E-20         0.00000E+00
    0.44925E-07        -0.18161E-19         0.00000E+00
    0.44925E-07        -0.22817E-19         0.00000E+00
    0.44925E-07        -0.29802E-19         0.00000E+00
    0.44925E-07        -0.27707E-19         0.00000E+00
    0.44925E-07        -0.45635E-19         0.00000E+00
    0.44925E-07        -0.45169E-19         0.00000E+00
    0.44925E-07        -0.40047E-19         0.00000E+00
    0.44925E-07        -0.41444E-19         0.00000E+00
    0.44925E-07        -0.30734E-19         0.00000E+00
    0.44925E-07        -0.35856E-19         0.00000E+00
    0.44925E-07        -0.39116E-19         0.00000E+00
    0.44925E-07        -0.44005E-19         0.00000E+00
    0.44925E-07        -0.35856E-19         0.00000E+00
    0.44925E-07        -0.34459E-19         0.00000E+00
    0.44925E-07        -0.37253E-19         0.00000E+00
    0.44925E-07        -0.37719E-19         0.00000E+00
    0.44925E-07        -0.34925E-19         0.00000E+00
    0.44925E-07        -0.30734E-19         0.00000E+00
    0.44925E-07        -0.11642E-19         0.00000E+00
    0.44925E-07        -0.19092E-19         0.00000E+00
    0.44925E-07        -0.22817E-19         0.00000E+00
    0.44925E-07        -0.22352E-19         0.00000E+00
    0.44925E-07        -0.14435E-19         0.00000E+00
    0.44925E-07         0.69849E-21         0.00000E+00
    0.44925E-07         0.46566E-21         0.00000E+00
    0.44925E-07         0.69849E-21         0.00000E+00
    0.44925E-07        -0.46566E-21         0.00000E+00
    0.44925E-07        -0.32596E-20         0.00000E+00
    0.44925E-07        -0.41910E-20         0.00000E+00
    0.44925E-07        -0.74506E-20         0.00000E+00
    0.44925E-07        -0.69849E-20         0.00000E+00
    0.42373E-07         0.55879E-20         0.00000E+00
    0.42373E-07         0.13271E-19         0.00000E+00
    0.42373E-07         0.93132E-20         0.00000E+00
    0.42373E-07        -0.34925E-20         0.00000E+00
    0.42373E-07        -0.32596E-20         0.00000E+00
    0.42373E-07        -0.13970E-20         0.00000E+00
    0.42373E-07         0.11176E-19         0.00000E+00
    0.42373E-07         0.10245E-19         0.00000E+00
    0.42373E-07         0.55879E-20         0.00000E+00
    0.42373E-07         0.60536E-20         0.00000E+00
    0.42373E-07         0.93132E-21         0.00000E+00
    0.42373E-07        -0.74506E-20         0.00000E+00
    0.42373E-07         0.32596E-20         0.00000E+00
    0.42373E-07         0.81491E-20         0.00000E+00
    0.42373E-07        -0.93132E-20         0.00000E+00
    0.42373E-07         0.11176E-19         0.00000E+00
    0.42373E-07        -0.11642E-20         0.00000E+00
    0.42373E-07        -0.12107E-19         0.00000E+00
    0.42373E-07        -0.12806E-19         0.00000E+00
    0.42373E-07        -0.18626E-19         0.00000E+00
    0.42373E-07        -0.27940E-19         0.00000E+00
    0.42373E-07        -0.30734E-19         0.00000E+00
    0.42373E-07        -0.39581E-19         0.00000E+00
    0.42373E-07        -0.52620E-19         0.00000E+00
    0.42373E-07        -0.45169E-19         0.00000E+00
    0.42373E-07        -0.31199E-19         0.00000E+00
    0.42373E-07        -0.19092E-19         0.00000E+00
    0.42373E-07        -0.34925E-19         0.00000E+00
    0.42373E-07        -0.44238E-19         0.00000E+00
    0.42373E-07        -0.52154E-19         0.00000E+00
    0.42373E-07        -0.51456E-19         0.00000E+00
    0.42373E-07        -0.30268E-19         0.00000E+00
    0.42373E-07        -0.33528E-19         0.00000E+00
    0.42373E-07        -0.37253E-19         0.00000E+00
    0.42373E-07        -0.33295E-19         0.00000E+00
    0.42373E-07        -0.21886E-19         0.00000E+00
    0.42373E-07        -0.18626E-19         0.00000E+00
    0.42373E-07        -0.11176E-19         0.00000E+00
    0.42373E-07        -0.13970E-19         0.00000E+00
    0.42373E-07        -0.10710E-19         0.00000E+00
    0.42373E-07        -0.83819E-20         0.00000E+00
    0.42373E-07        -0.27940E-19         0.00000E+00
    0.42373E-07        -0.11176E-19         0.00000E+00
    0.42373E-07        -0.27940E-20         0.00000E+00
    0.42373E-07        -0.69849E-20         0.00000E+00
    0.42373E-07        -0.23283E-20         0.00000E+00
    0.42373E-07         0.18626E-20         0.00000E+00
    0.42373E-07        -0.18808E-36         0.00000E+00
    0.42373E-07         0.27940E-20         0.00000E+00
    0.42373E-07        -0.11642E-19         0.00000E+00
    0.39888E-07         0.25611E-20         0.00000E+00
    0.39888E-07        -0.58208E-20         0.00000E+00
    0.39888E-07         0.41910E-20         0.00000E+00
    0.39888E-07         0.55879E-20         0.00000E+00
    0.39888E-07        -0.88476E-20         0.00000E+00
    0.39888E-07         0.39581E-20         0.00000E+00
    0.39888E-07         0.17229E-19         0.00000E+00
    0.39888E-07         0.11176E-19         0.00000E+00
    0.39888E-07         0.46566E-20         0.00000E+00
    0.39888E-07         0.23283E-20         0.00000E+00
    0.39888E-07         0.79162E-20         0.00000E+00
    0.39888E-07         0.18626E-20         0.00000E+00
    0.39888E-07        -0.18626E-19         0.00000E+00
    0.39888E-07        -0.22352E-19         0.00000E+00
    0.39888E-07        -0.74506E-20         0.00000E+00
    0.39888E-07        -0.20955E-19         0.00000E+00
    0.39888E-07        -0.11642E-19         0.00000E+00
    0.39888E-07        -0.15367E-19         0.00000E+00
    0.39888E-07        -0.28405E-19         0.00000E+00
    0.39888E-07        -0.20722E-19         0.00000E+00
    0.39888E-07        -0.15832E-19         0.00000E+00
    0.39888E-07        -0.24680E-19         0.00000E+00
    0.39888E-07        -0.18859E-19         0.00000E+00
    0.39888E-07        -0.39581E-19         0.00000E+00
    0.39888E-07        -0.41910E-19         0.00000E+00
    0.39888E-07        -0.33528E-19         0.00000E+00
    0.39888E-07        -0.40047E-19         0.00000E+00
    0.39888E-07        -0.32596E-19         0.00000E+00
    0.39888E-07        -0.43772E-19         0.00000E+00
    0.39888E-07        -0.47497E-19         0.00000E+00
    0.39888E-07        -0.44471E-19         0.00000E+00
    0.39888E-07        -0.25611E-19         0.00000E+00
    0.39888E-07        -0.31199E-19         0.00000E+00
    0.39888E-07        -0.37253E-19         0.00000E+00
    0.39888E-07        -0.26077E-19         0.00000E+00
    0.39888E-07        -0.13504E-19         0.00000E+00
    0.39888E-07        -0.93132E-20         0.00000E+00
    0.39888E-07        -0.21653E-19         0.00000E+00
    0.39888E-07        -0.13970E-20         0.00000E+00
    0.39888E-07        -0.69849E-20         0.00000E+00
    0.39888E-07        -0.74506E-20         0.00000E+00
    0.39888E-07        -0.46566E-20         0.00000E+00
    0.39888E-07         0.13970E-20         0.00000E+00
    0.39888E-07        -0.76834E-20         0.00000E+00
    0.39888E-07        -0.12107E-19         0.00000E+00
    0.39888E-07        -0.16764E-19         0.00000E+00
    0.39888E-07        -0.46566E-20         0.00000E+00
    0.39888E-07        -0.37253E-20         0.00000E+00
    0.39888E-07         0.10245E-19         0.00000E+00
    0.39888E-07         0.30268E-20         0.00000E+00
    0.37480E-07         0.53551E-20         0.00000E+00
    0.37480E-07        -0.62864E-20         0.00000E+00
    0.37480E-07        -0.20955E-20         0.00000E+00
    0.37480E-07        -0.97789E-20         0.00000E+00
    0.37480E-07        -0.17695E-19         0.00000E+00
    0.37480E-07        -0.13970E-19         0.00000E+00
    0.37480E-07         0.32596E-20         0.00000E+00
    0.37480E-07         0.69849E-21         0.00000E+00
    0.37480E-07         0.93132E-21         0.00000E+00
    0.37480E-07        -0.27940E-20         0.00000E+00
    0.37480E-07        -0.11642E-19         0.00000E+00
    0.37480E-07        -0.13504E-19         0.00000E+00
    0.37480E-07        -0.26077E-19         0.00000E+00
    0.37480E-07        -0.20489E-19         0.00000E+00
    0.37480E-07        -0.12806E-19         0.00000E+00
    0.37480E-07        -0.20489E-19         0.00000E+00
    0.37480E-07        -0.22352E-19         0.00000E+00
    0.37480E-07        -0.30268E-19         0.00000E+00
    0.37480E-07        -0.24447E-19         0.00000E+00
    0.37480E-07        -0.11642E-19         0.00000E+00
    0.37480E-07        -0.18161E-19         0.00000E+00
    0.37480E-07        -0.20955E-19         0.00000E+00
    0.37480E-07        -0.20023E-19         0.00000E+00
    0.37480E-07        -0.11642E-19         0.00000E+00
    0.37480E-07        -0.14203E-19         0.00000E+00
    0.37480E-07        -0.15134E-19         0.00000E+00
    0.37480E-07        -0.28871E-19         0.00000E+00
    0.37480E-07        -0.58208E-20         0.00000E+00
    0.37480E-07        -0.15367E-19         0.00000E+00
    0.37480E-07        -0.18626E-19         0.00000E+00
    0.37480E-07        -0.27241E-19         0.00000E+00
    0.37480E-07        -0.30268E-19         0.00000E+00
    0.37480E-07        -0.36322E-19         0.00000E+00
    0.37480E-07        -0.35157E-19         0.00000E+00
    0.37480E-07        -0.26077E-19         0.00000E+00
    0.37480E-07        -0.25146E-19         0.00000E+00
    0.37480E-07        -0.12806E-19         0.00000E+00
    0.37480E-07        -0.53551E-20         0.00000E+00
    0.37480E-07        -0.37253E-20         0.00000E+00
    0.37480E-07        -0.14901E-19         0.00000E+00
    0.37480E-07        -0.32596E-20         0.00000E+00
    0.37480E-07         0.93132E-21         0.00000E+00
    0.37480E-07        -0.23283E-20         0.00000E+00
    0.37480E-07         0.27940E-20         0.00000E+00
    0.37480E-07         0.18626E-20         0.00000E+00
    0.37480E-07        -0.32596E-20         0.00000E+00
    0.37480E-07         0.46566E-21         0.00000E+00
    0.37480E-07        -0.69849E-20         0.00000E+00
    0.37480E-07        -0.46566E-20         0.00000E+00
    0.37480E-07         0.00000E+00         0.00000E+00
    0.35156E-07        -0.55879E-20         0.00000E+00
    0.35156E-07        -0.93132E-21         0.00000E+00
    0.35156E-07        -0.97789E-20         0.00000E+00
    0.35156E-07        -0.32596E-20         0.00000E+00
    0.35156E-07         0.83819E-20         0.00000E+00
    0.35156E-07         0.18626E-20         0.00000E+00
    0.35156E-07        -0.16764E-19         0.00000E+00
    0.35156E-07        -0.93132E-20         0.00000E+00
    0.35156E-07        -0.12573E-19         0.00000E+00
    0.35156E-07        -0.79162E-20         0.00000E+00
    0.35156E-07        -0.16298E-19         0.00000E+00
    0.35156E-07        -0.24680E-19         0.00000E+00
    0.35156E-07        -0.21420E-19         0.00000E+00
    0.35156E-07        -0.12340E-19         0.00000E+00
    0.35156E-07        -0.13504E-19         0.00000E+00
    0.35156E-07        -0.16764E-19         0.00000E+00
    0.35156E-07        -0.11642E-19         0.00000E+00
    0.35156E-07        -0.15832E-19         0.00000E+00
    0.35156E-07        -0.23050E-19         0.00000E+00
    0.35156E-07        -0.20955E-19         0.00000E+00
    0.35156E-07        -0.25611E-19         0.00000E+00
    0.35156E-07        -0.39581E-20         0.00000E+00
    0.35156E-07        -0.22352E-19         0.00000E+00
    0.35156E-07        -0.27940E-20         0.00000E+00
    0.35156E-07        -0.65193E-20         0.00000E+00
    0.35156E-07        -0.20023E-19         0.00000E+00
    0.35156E-07        -0.65193E-20         0.00000E+00
    0.35156E-07        -0.37253E-20         0.00000E+00
    0.35156E-07         0.51223E-20         0.00000E+00
    0.35156E-07        -0.60536E-20         0.00000E+00
    0.35156E-07        -0.51223E-20         0.00000E+00
    0.35156E-07        -0.20955E-19         0.00000E+00
    0.35156E-07        -0.24447E-19         0.00000E+00
    0.35156E-07        -0.20023E-19         0.00000E+00
    0.35156E-07        -0.26543E-19         0.00000E+00
    0.35156E-07        -0.23749E-19         0.00000E+00
    0.35156E-07        -0.13504E-19         0.00000E+00
    0.35156E-07        -0.60536E-20         0.00000E+00
    0.35156E-07        -0.46566E-20         0.00000E+00
    0.35156E-07        -0.23283E-20         0.00000E+00
    0.35156E-07         0.46566E-20         0.00000E+00
    0.35156E-07        -0.18626E-20         0.00000E+00
    0.35156E-07         0.51223E-20         0.00000E+00
    0.35156E-07         0.18626E-20         0.00000E+00
    0.35156E-07         0.15367E-19         0.00000E+00
    0.35156E-07         0.44238E-20         0.00000E+00
    0.35156E-07         0.11176E-19         0.00000E+00
    0.35156E-07        -0.69849E-20         0.00000E+00
    0.35156E-07        -0.51223E-20         0.00000E+00
    0.35156E-07        -0.69849E-20         0.00000E+00
    0.32924E-07        -0.46566E-20         0.00000E+00
    0.32924E-07        -0.51223E-20         0.00000E+00
    0.32924E-07        -0.30268E-20         0.00000E+00
    0.32924E-07         0.86147E-20         0.00000E+00
    0.32924E-07         0.83819E-20         0.00000E+00
    0.32924E-07        -0.46566E-21         0.00000E+00
    0.32924E-07        -0.16298E-19         0.00000E+00
    0.32924E-07        -0.21886E-19         0.00000E+00
    0.32924E-07        -0.21420E-19         0.00000E+00
    0.32924E-07        -0.16298E-19         0.00000E+00
    0.32924E-07        -0.74506E-20         0.00000E+00
    0.32924E-07        -0.13970E-19         0.00000E+00
    0.32924E-07        -0.25611E-19         0.00000E+00
    0.32924E-07        -0.14435E-19         0.00000E+00
    0.32924E-07        -0.83819E-20         0.00000E+00
    0.32924E-07        -0.15367E-19         0.00000E+00
    0.32924E-07        -0.97789E-20         0.00000E+00
    0.32924E-07        -0.37253E-20         0.00000E+00
    0.32924E-07        -0.79162E-20         0.00000E+00
    0.32924E-07        -0.13737E-19         0.00000E+00
    0.32924E-07         0.00000E+00         0.00000E+00
    0.32924E-07         0.95461E-20         0.00000E+00
    0.32924E-07        -0.74506E-20         0.00000E+00
    0.32924E-07        -0.10710E-19         0.00000E+00
    0.32924E-07        -0.13970E-19         0.00000E+00
    0.32924E-07        -0.21420E-19         0.00000E+00
    0.32924E-07        -0.22817E-19         0.00000E+00
    0.32924E-07        -0.25611E-19         0.00000E+00
    0.32924E-07        -0.17928E-19         0.00000E+00
    0.32924E-07        -0.37253E-20         0.00000E+00
    0.32924E-07         0.18626E-20         0.00000E+00
    0.32924E-07        -0.16298E-19         0.00000E+00
    0.32924E-07        -0.15367E-19         0.00000E+00
    0.32924E-07        -0.46566E-21         0.00000E+00
    0.32924E-07         0.11642E-20         0.00000E+00
    0.32924E-07        -0.11642E-19         0.00000E+00
    0.32924E-07        -0.97789E-20         0.00000E+00
    0.32924E-07        -0.18626E-19         0.00000E+00
    0.32924E-07        -0.17695E-19         0.00000E+00
    0.32924E-07        -0.12107E-19         0.00000E+00
    0.32924E-07        -0.67521E-20         0.00000E+00
    0.32924E-07         0.88476E-20         0.00000E+00
    0.32924E-07         0.10710E-19         0.00000E+00
    0.32924E-07         0.93132E-20         0.00000E+00
    0.32924E-07         0.18161E-19         0.00000E+00
    0.32924E-07         0.86147E-20         0.00000E+00
    0.32924E-07         0.51223E-20         0.00000E+00
    0.32924E-07         0.65193E-20         0.00000E+00
    0.32924E-07        -0.79162E-20         0.00000E+00
    0.32924E-07        -0.74506E-20         0.00000E+00
    0.30789E-07         0.23283E-20         0.00000E+00
    0.30789E-07        -0.23283E-20         0.00000E+00
    0.30789E-07         0.46566E-21         0.00000E+00
    0.30789E-07        -0.46566E-20         0.00000E+00
    0.30789E-07        -0.16298E-19         0.00000E+00
    0.30789E-07        -0.20489E-19         0.00000E+00
    0.30789E-07        -0.32596E-20         0.00000E+00
    0.30789E-07        -0.12573E-19         0.00000E+00
    0.30789E-07        -0.13970E-19         0.00000E+00
    0.30789E-07        -0.23283E-20         0.00000E+00
    0.30789E-07        -0.65193E-20         0.00000E+00
    0.30789E-07        -0.69849E-20         0.00000E+00
    0.30789E-07        -0.93132E-20         0.00000E+00
    0.30789E-07        -0.51223E-20         0.00000E+00
    0.30789E-07         0.65193E-20         0.00000E+00
    0.30789E-07        -0.97789E-20         0.00000E+00
    0.30789E-07        -0.18859E-19         0.00000E+00
    0.30789E-07        -0.93132E-21         0.00000E+00
    0.30789E-07         0.79162E-20         0.00000E+00
    0.30789E-07        -0.46566E-21         0.00000E+00
    0.30789E-07         0.46566E-20         0.00000E+00
    0.30789E-07         0.23283E-20         0.00000E+00
    0.30789E-07         0.23283E-20         0.00000E+00
    0.30789E-07        -0.27940E-20         0.00000E+00
    0.30789E-07         0.27940E-20         0.00000E+00
    0.30789E-07        -0.46566E-21         0.00000E+00
    0.30789E-07        -0.14435E-19         0.00000E+00
    0.30789E-07        -0.17229E-19         0.00000E+00
    0.30789E-07        -0.23749E-19         0.00000E+00
    0.30789E-07        -0.14435E-19         0.00000E+00
    0.30789E-07        -0.10245E-19         0.00000E+00
    0.30789E-07        -0.24214E-19         0.00000E+00
    0.30789E-07        -0.21420E-19         0.00000E+00
    0.30789E-07        -0.11642E-19         0.00000E+00
    0.30789E-07        -0.74506E-20         0.00000E+00
    0.30789E-07        -0.17229E-19         0.00000E+00
    0.30789E-07        -0.93132E-20         0.00000E+00
    0.30789E-07        -0.12107E-19         0.00000E+00
    0.30789E-07        -0.17229E-19         0.00000E+00
    0.30789E-07        -0.18394E-19         0.00000E+00
    0.30789E-07        -0.53551E-20         0.00000E+00
    0.30789E-07         0.27940E-20         0.00000E+00
    0.30789E-07         0.65193E-20         0.00000E+00
    0.30789E-07         0.16764E-19         0.00000E+00
    0.30789E-07         0.46566E-20         0.00000E+00
    0.30789E-07         0.93132E-20         0.00000E+00
    0.30789E-07         0.37253E-20         0.00000E+00
    0.30789E-07         0.15367E-19         0.00000E+00
    0.30789E-07         0.90804E-20         0.00000E+00
    0.30789E-07        -0.79162E-20         0.00000E+00
    0.28754E-07        -0.16298E-20         0.00000E+00
    0.28754E-07        -0.16997E-19         0.00000E+00
    0.28754E-07        -0.19092E-19         0.00000E+00
    0.28754E-07        -0.15367E-19         0.00000E+00
    0.28754E-07        -0.12573E-19         0.00000E+00
    0.28754E-07        -0.16298E-19         0.00000E+00
    0.28754E-07        -0.83819E-20         0.00000E+00
    0.28754E-07        -0.18626E-20         0.00000E+00
    0.28754E-07        -0.46566E-21         0.00000E+00
    0.28754E-07         0.17229E-19         0.00000E+00
    0.28754E-07         0.12573E-19         0.00000E+00
    0.28754E-07         0.65193E-20         0.00000E+00
    0.28754E-07         0.00000E+00         0.00000E+00
    0.28754E-07         0.11176E-19         0.00000E+00
    0.28754E-07         0.83819E-20         0.00000E+00
    0.28754E-07         0.30268E-20         0.00000E+00
    0.28754E-07         0.11176E-19         0.00000E+00
    0.28754E-07         0.13039E-19         0.00000E+00
    0.28754E-07         0.27940E-20         0.00000E+00
    0.28754E-07         0.65193E-20         0.00000E+00
    0.28754E-07         0.74506E-20         0.00000E+00
    0.28754E-07         0.37253E-20         0.00000E+00
    0.28754E-07        -0.14435E-19         0.00000E+00
    0.28754E-07        -0.83819E-20         0.00000E+00
    0.28754E-07        -0.60536E-20         0.00000E+00
    0.28754E-07         0.41910E-20         0.00000E+00
    0.28754E-07         0.18626E-20         0.00000E+00
    0.28754E-07        -0.46566E-20         0.00000E+00
    0.28754E-07        -0.74506E-20         0.00000E+00
    0.28754E-07        -0.11642E-19         0.00000E+00
    0.28754E-07        -0.60536E-20         0.00000E+00
    0.28754E-07        -0.11642E-19         0.00000E+00
    0.28754E-07        -0.26543E-19         0.00000E+00
    0.28754E-07        -0.18626E-19         0.00000E+00
    0.28754E-07        -0.27940E-19         0.00000E+00
    0.28754E-07        -0.21886E-19         0.00000E+00
    0.28754E-07        -0.12107E-19         0.00000E+00
    0.28754E-07        -0.15832E-19         0.00000E+00
    0.28754E-07        -0.21188E-19         0.00000E+00
    0.28754E-07        -0.21188E-19         0.00000E+00
    0.28754E-07        -0.81491E-20         0.00000E+00
    0.28754E-07        -0.93132E-20         0.00000E+00
    0.28754E-07        -0.46566E-21         0.00000E+00
    0.28754E-07         0.46566E-20         0.00000E+00
    0.28754E-07         0.32596E-20         0.00000E+00
    0.28754E-07         0.51223E-20         0.00000E+00
    0.28754E-07         0.65193E-20         0.00000E+00
    0.28754E-07         0.41910E-20         0.00000E+00
    0.28754E-07         0.79162E-20         0.00000E+00
    0.28754E-07         0.46566E-21         0.00000E+00
    0.26822E-07        -0.18626E-20         0.00000E+00
    0.26822E-07        -0.65193E-20         0.00000E+00
    0.26822E-07         0.41910E-20         0.00000E+00
    0.26822E-07        -0.41910E-20         0.00000E+00
    0.26822E-07         0.34925E-20         0.00000E+00
    0.26822E-07         0.41910E-20         0.00000E+00
    0.26822E-07         0.23283E-21         0.00000E+00
    0.26822E-07         0.32596E-20         0.00000E+00
    0.26822E-07         0.30268E-20         0.00000E+00
    0.26822E-07         0.11176E-19         0.00000E+00
    0.26822E-07         0.20023E-19         0.00000E+00
    0.26822E-07         0.17928E-19         0.00000E+00
    0.26822E-07         0.14901E-19         0.00000E+00
    0.26822E-07         0.19791E-19         0.00000E+00
    0.26822E-07         0.46566E-21         0.00000E+00
    0.26822E-07         0.11642E-19         0.00000E+00
    0.26822E-07         0.30268E-19         0.00000E+00
    0.26822E-07         0.21420E-19         0.00000E+00
    0.26822E-07         0.10710E-19         0.00000E+00
    0.26822E-07         0.13039E-19         0.00000E+00
    0.26822E-07         0.23283E-19         0.00000E+00
    0.26822E-07         0.11642E-19         0.00000E+00
    0.26822E-07        -0.79162E-20         0.00000E+00
    0.26822E-07        -0.22352E-19         0.00000E+00
    0.26822E-07        -0.14901E-19         0.00000E+00
    0.26822E-07        -0.14435E-19         0.00000E+00
    0.26822E-07        -0.93132E-20         0.00000E+00
    0.26822E-07        -0.13039E-19         0.00000E+00
    0.26822E-07         0.23283E-21         0.00000E+00
    0.26822E-07        -0.60536E-20         0.00000E+00
    0.26822E-07        -0.16298E-19         0.00000E+00
    0.26822E-07        -0.15832E-19         0.00000E+00
    0.26822E-07        -0.13039E-19         0.00000E+00
    0.26822E-07         0.69849E-20         0.00000E+00
    0.26822E-07        -0.17695E-19         0.00000E+00
    0.26822E-07        -0.14901E-19         0.00000E+00
    0.26822E-07        -0.15832E-19         0.00000E+00
    0.26822E-07        -0.10245E-19         0.00000E+00
    0.26822E-07        -0.62864E-20         0.00000E+00
    0.26822E-07        -0.21188E-19         0.00000E+00
    0.26822E-07         0.44238E-20         0.00000E+00
    0.26822E-07        -0.18626E-20         0.00000E+00
    0.26822E-07        -0.83819E-20         0.00000E+00
    0.26822E-07        -0.88476E-20         0.00000E+00
    0.26822E-07        -0.46566E-20         0.00000E+00
    0.26822E-07         0.32596E-20         0.00000E+00
    0.26822E-07         0.62864E-20         0.00000E+00
    0.26822E-07         0.39581E-20         0.00000E+00
    0.26822E-07        -0.65193E-20         0.00000E+00
    0.26822E-07         0.18626E-20         0.00000E+00
    0.24996E-07         0.11176E-19         0.00000E+00
    0.24996E-07         0.55879E-20         0.00000E+00
    0.24996E-07         0.18394E-19         0.00000E+00
    0.24996E-07         0.14901E-19         0.00000E+00
    0.24996E-07         0.18626E-20         0.00000E+00
    0.24996E-07         0.16997E-19         0.00000E+00
    0.24996E-07         0.18859E-19         0.00000E+00
    0.24996E-07         0.18161E-19         0.00000E+00
    0.24996E-07         0.13504E-19         0.00000E+00
    0.24996E-07         0.48894E-20         0.00000E+00
    0.24996E-07         0.58208E-20         0.00000E+00
    0.24996E-07         0.20256E-19         0.00000E+00
    0.24996E-07         0.81491E-20         0.00000E+00
    0.24996E-07         0.53551E-20         0.00000E+00
    0.24996E-07         0.17229E-19         0.00000E+00
    0.24996E-07         0.65193E-20         0.00000E+00
    0.24996E-07         0.20955E-19         0.00000E+00
    0.24996E-07         0.30035E-19         0.00000E+00
    0.24996E-07         0.17229E-19         0.00000E+00
    0.24996E-07         0.83819E-20         0.00000E+00
    0.24996E-07         0.88476E-20         0.00000E+00
    0.24996E-07         0.69849E-20         0.00000E+00
    0.24996E-07         0.13970E-19         0.00000E+00
    0.24996E-07        -0.11642E-19         0.00000E+00
    0.24996E-07        -0.13271E-19         0.00000E+00
    0.24996E-07        -0.97789E-20         0.00000E+00
    0.24996E-07        -0.93132E-20         0.00000E+00
    0.24996E-07        -0.65193E-20         0.00000E+00
    0.24996E-07        -0.10012E-19         0.00000E+00
    0.24996E-07        -0.97789E-20         0.00000E+00
    0.24996E-07        -0.14435E-19         0.00000E+00
    0.24996E-07        -0.14435E-19         0.00000E+00
    0.24996E-07        -0.13504E-19         0.00000E+00
    0.24996E-07        -0.27940E-20         0.00000E+00
    0.24996E-07        -0.69849E-20         0.00000E+00
    0.24996E-07         0.69849E-20         0.00000E+00
    0.24996E-07        -0.69849E-21         0.00000E+00
    0.24996E-07         0.12107E-19         0.00000E+00
    0.24996E-07         0.15832E-19         0.00000E+00
    0.24996E-07         0.13970E-19         0.00000E+00
    0.24996E-07         0.10245E-19         0.00000E+00
    0.24996E-07         0.88476E-20         0.00000E+00
    0.24996E-07        -0.90804E-20         0.00000E+00
    0.24996E-07        -0.60536E-20         0.00000E+00
    0.24996E-07        -0.13039E-19         0.00000E+00
    0.24996E-07        -0.17695E-19         0.00000E+00
    0.24996E-07        -0.19558E-19         0.00000E+00
    0.24996E-07        -0.12340E-19         0.00000E+00
    0.24996E-07        -0.32596E-20         0.00000E+00
    0.24996E-07        -0.23283E-20         0.00000E+00
    0.23276E-07         0.27940E-20         0.00000E+00
    0.23276E-07         0.27940E-20         0.00000E+00
    0.23276E-07        -0.93132E-21         0.00000E+00
    0.23276E-07         0.93132E-20         0.00000E+00
    0.23276E-07         0.88476E-20         0.00000E+00
    0.23276E-07         0.76834E-20         0.00000E+00
    0.23276E-07         0.83819E-20         0.00000E+00
    0.23276E-07         0.10012E-19         0.00000E+00
    0.23276E-07         0.76834E-20         0.00000E+00
    0.23276E-07         0.27940E-20         0.00000E+00
    0.23276E-07         0.13970E-20         0.00000E+00
    0.23276E-07        -0.13970E-20         0.00000E+00
    0.23276E-07         0.10245E-19         0.00000E+00
    0.23276E-07         0.17695E-19         0.00000E+00
    0.23276E-07         0.27474E-19         0.00000E+00
    0.23276E-07         0.24447E-19         0.00000E+00
    0.23276E-07         0.22817E-19         0.00000E+00
    0.23276E-07         0.27241E-19         0.00000E+00
    0.23276E-07         0.13039E-19         0.00000E+00
    0.23276E-07        -0.69849E-21         0.00000E+00
    0.23276E-07        -0.37253E-20         0.00000E+00
    0.23276E-07        -0.17229E-19         0.00000E+00
    0.23276E-07        -0.32596E-20         0.00000E+00
    0.23276E-07        -0.18626E-20         0.00000E+00
    0.23276E-07         0.69849E-20         0.00000E+00
    0.23276E-07         0.81491E-20         0.00000E+00
    0.23276E-07         0.46566E-20         0.00000E+00
    0.23276E-07         0.46566E-20         0.00000E+00
    0.23276E-07        -0.20955E-19         0.00000E+00
    0.23276E-07        -0.18626E-19         0.00000E+00
    0.23276E-07         0.23283E-20         0.00000E+00
    0.23276E-07         0.93132E-20         0.00000E+00
    0.23276E-07        -0.14668E-19         0.00000E+00
    0.23276E-07        -0.88476E-20         0.00000E+00
    0.23276E-07        -0.32596E-20         0.00000E+00
    0.23276E-07         0.12573E-19         0.00000E+00
    0.23276E-07        -0.55879E-20         0.00000E+00
    0.23276E-07         0.97789E-20         0.00000E+00
    0.23276E-07         0.14435E-19         0.00000E+00
    0.23276E-07         0.13504E-19         0.00000E+00
    0.23276E-07         0.83819E-20         0.00000E+00
    0.23276E-07         0.93132E-20         0.00000E+00
    0.23276E-07         0.37253E-20         0.00000E+00
    0.23276E-07         0.12340E-19         0.00000E+00
    0.23276E-07         0.46566E-21         0.00000E+00
    0.23276E-07         0.86147E-20         0.00000E+00
    0.23276E-07        -0.10012E-19         0.00000E+00
    0.23276E-07        -0.10012E-19         0.00000E+00
    0.23276E-07        -0.55879E-20         0.00000E+00
    0.23276E-07        -0.37253E-20         0.00000E+00
    0.21663E-07        -0.60536E-20         0.00000E+00
    0.21663E-07         0.46566E-20         0.00000E+00
    0.21663E-07         0.60536E-20         0.00000E+00
    0.21663E-07        -0.34925E-20         0.00000E+00
    0.21663E-07         0.20955E-19         0.00000E+00
    0.21663E-07         0.11642E-19         0.00000E+00
    0.21663E-07         0.51223E-20         0.00000E+00
    0.21663E-07         0.46566E-20         0.00000E+00
    0.21663E-07         0.83819E-20         0.00000E+00
    0.21663E-07         0.10477E-19         0.00000E+00
    0.21663E-07        -0.13970E-20         0.00000E+00
    0.21663E-07        -0.41910E-20         0.00000E+00
    0.21663E-07         0.20489E-19         0.00000E+00
    0.21663E-07         0.30734E-19         0.00000E+00
    0.21663E-07         0.14668E-19         0.00000E+00
    0.21663E-07         0.21420E-19         0.00000E+00
    0.21663E-07         0.41910E-20         0.00000E+00
    0.21663E-07         0.00000E+00         0.00000E+00
    0.21663E-07        -0.76834E-20         0.00000E+00
    0.21663E-07        -0.39581E-20         0.00000E+00
    0.21663E-07        -0.65193E-20         0.00000E+00
    0.21663E-07        -0.11642E-20         0.00000E+00
    0.21663E-07         0.41910E-20         0.00000E+00
    0.21663E-07        -0.13970E-20         0.00000E+00
    0.21663E-07         0.79162E-20         0.00000E+00
    0.21663E-07         0.13039E-19         0.00000E+00
    0.21663E-07         0.20955E-20         0.00000E+00
    0.21663E-07        -0.93132E-21         0.00000E+00
    0.21663E-07         0.13970E-20         0.00000E+00
    0.21663E-07        -0.46566E-21         0.00000E+00
    0.21663E-07         0.11642E-19         0.00000E+00
    0.21663E-07         0.12573E-19         0.00000E+00
    0.21663E-07         0.37253E-20         0.00000E+00
    0.21663E-07        -0.46566E-21         0.00000E+00
    0.21663E-07        -0.10245E-19         0.00000E+00
    0.21663E-07        -0.14901E-19         0.00000E+00
    0.21663E-07        -0.11176E-19         0.00000E+00
    0.21663E-07         0.00000E+00         0.00000E+00
    0.21663E-07         0.93132E-21         0.00000E+00
    0.21663E-07         0.74506E-20         0.00000E+00
    0.21663E-07         0.83819E-20         0.00000E+00
    0.21663E-07         0.93132E-21         0.00000E+00
    0.21663E-07         0.19558E-19         0.00000E+00
    0.21663E-07         0.19092E-19         0.00000E+00
    0.21663E-07         0.97789E-20         0.00000E+00
    0.21663E-07         0.20955E-19         0.00000E+00
    0.21663E-07         0.10710E-19         0.00000E+00
    0.21663E-07        -0.18626E-20         0.00000E+00
    0.21663E-07        -0.74506E-20         0.00000E+00
    0.21663E-07        -0.55879E-20         0.00000E+00
    0.20157E-07        -0.51223E-20         0.00000E+00
    0.20157E-07         0.11642E-19         0.00000E+00
    0.20157E-07         0.37253E-20         0.00000E+00
    0.20157E-07        -0.41910E-20         0.00000E+00
    0.20157E-07         0.18626E-20         0.00000E+00
    0.20157E-07         0.86147E-20         0.00000E+00
    0.20157E-07         0.15367E-19         0.00000E+00
    0.20157E-07         0.88476E-20         0.00000E+00
    0.20157E-07         0.15832E-19         0.00000E+00
    0.20157E-07         0.13970E-19         0.00000E+00
    0.20157E-07         0.14435E-19         0.00000E+00
    0.20157E-07         0.19558E-19         0.00000E+00
    0.20157E-07         0.16298E-19         0.00000E+00
    0.20157E-07         0.14435E-19         0.00000E+00
    0.20157E-07         0.48894E-20         0.00000E+00
    0.20157E-07        -0.51223E-20         0.00000E+00
    0.20157E-07        -0.74506E-20         0.00000E+00
    0.20157E-07        -0.12573E-19         0.00000E+00
    0.20157E-07        -0.74506E-20         0.00000E+00
    0.20157E-07         0.79162E-20         0.00000E+00
    0.20157E-07        -0.93132E-21         0.00000E+00
    0.20157E-07         0.19558E-19         0.00000E+00
    0.20157E-07         0.11176E-19         0.00000E+00
    0.20157E-07         0.65193E-20         0.00000E+00
    0.20157E-07         0.11176E-19         0.00000E+00
    0.20157E-07         0.11874E-19         0.00000E+00
    0.20157E-07         0.11642E-19         0.00000E+00
    0.20157E-07         0.97789E-20         0.00000E+00
    0.20157E-07         0.74506E-20         0.00000E+00
    0.20157E-07         0.93132E-21         0.00000E+00
    0.20157E-07         0.88476E-20         0.00000E+00
    0.20157E-07        -0.79162E-20         0.00000E+00
    0.20157E-07        -0.18626E-20         0.00000E+00
    0.20157E-07        -0.11176E-19         0.00000E+00
    0.20157E-07        -0.60536E-20         0.00000E+00
    0.20157E-07        -0.15367E-19         0.00000E+00
    0.20157E-07        -0.65193E-20         0.00000E+00
    0.20157E-07        -0.11642E-19         0.00000E+00
    0.20157E-07        -0.97789E-20         0.00000E+00
    0.20157E-07         0.12107E-19         0.00000E+00
    0.20157E-07         0.32596E-20         0.00000E+00
    0.20157E-07         0.83819E-20         0.00000E+00
    0.20157E-07         0.10710E-19         0.00000E+00
    0.20157E-07         0.15134E-19         0.00000E+00
    0.20157E-07         0.17695E-19         0.00000E+00
    0.20157E-07         0.14435E-19         0.00000E+00
    0.20157E-07         0.41910E-20         0.00000E+00
    0.20157E-07        -0.51223E-20         0.00000E+00
    0.20157E-07        -0.51223E-20         0.00000E+00
    0.20157E-07        -0.97789E-20         0.00000E+00
    0.18758E-07        -0.18626E-20         0.00000E+00
    0.18758E-07         0.76834E-20         0.00000E+00
    0.18758E-07        -0.81491E-20         0.00000E+00
    0.18758E-07        -0.65193E-20         0.00000E+00
    0.18758E-07        -0.17695E-19         0.00000E+00
    0.18758E-07        -0.12107E-19         0.00000E+00
    0.18758E-07         0.18626E-20         0.00000E+00
    0.18758E-07         0.12573E-19         0.00000E+00
    0.18758E-07         0.74506E-20         0.00000E+00
    0.18758E-07         0.60536E-20         0.00000E+00
    0.18758E-07        -0.46566E-21         0.00000E+00
    0.18758E-07         0.14668E-19         0.00000E+00
    0.18758E-07         0.25611E-20         0.00000E+00
    0.18758E-07         0.22817E-19         0.00000E+00
    0.18758E-07         0.76834E-20         0.00000E+00
    0.18758E-07         0.10245E-19         0.00000E+00
    0.18758E-07         0.16531E-19         0.00000E+00
    0.18758E-07         0.17229E-19         0.00000E+00
    0.18758E-07         0.69849E-20         0.00000E+00
    0.18758E-07         0.23283E-20         0.00000E+00
    0.18758E-07         0.93132E-20         0.00000E+00
    0.18758E-07         0.55879E-20         0.00000E+00
    0.18758E-07         0.13970E-20         0.00000E+00
    0.18758E-07         0.14901E-19         0.00000E+00
    0.18758E-07         0.20023E-19         0.00000E+00
    0.18758E-07         0.16764E-19         0.00000E+00
    0.18758E-07         0.14901E-19         0.00000E+00
    0.18758E-07         0.79162E-20         0.00000E+00
    0.18758E-07        -0.46566E-20         0.00000E+00
    0.18758E-07        -0.60536E-20         0.00000E+00
    0.18758E-07        -0.60536E-20         0.00000E+00
    0.18758E-07        -0.16298E-19         0.00000E+00
    0.18758E-07        -0.13504E-19         0.00000E+00
    0.18758E-07        -0.93132E-21         0.00000E+00
    0.18758E-07        -0.79162E-20         0.00000E+00
    0.18758E-07        -0.13039E-19         0.00000E+00
    0.18758E-07        -0.95461E-20         0.00000E+00
    0.18758E-07        -0.88476E-20         0.00000E+00
    0.18758E-07        -0.14435E-19         0.00000E+00
    0.18758E-07         0.41910E-20         0.00000E+00
    0.18758E-07         0.11642E-19         0.00000E+00
    0.18758E-07         0.93132E-20         0.00000E+00
    0.18758E-07         0.18626E-20         0.00000E+00
    0.18758E-07         0.60536E-20         0.00000E+00
    0.18758E-07         0.11642E-19         0.00000E+00
    0.18758E-07         0.14435E-19         0.00000E+00
    0.18758E-07         0.97789E-20         0.00000E+00
    0.18758E-07         0.34925E-20         0.00000E+00
    0.18758E-07        -0.69849E-21         0.00000E+00
    0.18758E-07        -0.11642E-20         0.00000E+00
    0.17463E-07         0.00000E+00         0.00000E+00
    0.17463E-07        -0.12107E-19         0.00000E+00
    0.17463E-07        -0.60536E-20         0.00000E+00
    0.17463E-07        -0.10710E-19         0.00000E+00
    0.17463E-07        -0.12107E-19         0.00000E+00
    0.17463E-07        -0.65193E-20         0.00000E+00
    0.17463E-07        -0.41910E-20         0.00000E+00
    0.17463E-07         0.46566E-21         0.00000E+00
    0.17463E-07         0.00000E+00         0.00000E+00
    0.17463E-07        -0.34925E-20         0.00000E+00
    0.17463E-07        -0.30268E-20         0.00000E+00
    0.17463E-07         0.27940E-20         0.00000E+00
    0.17463E-07        -0.88476E-20         0.00000E+00
    0.17463E-07         0.11409E-19         0.00000E+00
    0.17463E-07         0.41910E-20         0.00000E+00
    0.17463E-07         0.18161E-19         0.00000E+00
    0.17463E-07         0.20023E-19         0.00000E+00
    0.17463E-07         0.31199E-19         0.00000E+00
    0.17463E-07         0.16764E-19         0.00000E+00
    0.17463E-07         0.18626E-19         0.00000E+00
    0.17463E-07         0.14435E-19         0.00000E+00
    0.17463E-07        -0.55879E-20         0.00000E+00
    0.17463E-07        -0.20955E-20         0.00000E+00
    0.17463E-07         0.16298E-20         0.00000E+00
    0.17463E-07         0.76834E-20         0.00000E+00
    0.17463E-07         0.93132E-20         0.00000E+00
    0.17463E-07         0.44238E-20         0.00000E+00
    0.17463E-07         0.00000E+00         0.00000E+00
    0.17463E-07        -0.15367E-19         0.00000E+00
    0.17463E-07        -0.62864E-20         0.00000E+00
    0.17463E-07        -0.72177E-20         0.00000E+00
    0.17463E-07        -0.15134E-19         0.00000E+00
    0.17463E-07        -0.55879E-20         0.00000E+00
    0.17463E-07         0.37253E-20         0.00000E+00
    0.17463E-07        -0.41910E-20         0.00000E+00
    0.17463E-07        -0.88476E-20         0.00000E+00
    0.17463E-07        -0.55879E-20         0.00000E+00
    0.17463E-07         0.10710E-19         0.00000E+00
    0.17463E-07        -0.18394E-19         0.00000E+00
    0.17463E-07        -0.51223E-20         0.00000E+00
    0.17463E-07         0.51223E-20         0.00000E+00
    0.17463E-07         0.46566E-21         0.00000E+00
    0.17463E-07         0.46566E-21         0.00000E+00
    0.17463E-07        -0.51223E-20         0.00000E+00
    0.17463E-07         0.46566E-20         0.00000E+00
    0.17463E-07        -0.23283E-20         0.00000E+00
    0.17463E-07         0.74506E-20         0.00000E+00
    0.17463E-07         0.25611E-20         0.00000E+00
    0.17463E-07         0.62864E-20         0.00000E+00
    0.17463E-07         0.16298E-20         0.00000E+00
    0.16272E-07         0.41910E-20         0.00000E+00
    0.16272E-07         0.13970E-20         0.00000E+00
    0.16272E-07        -0.46566E-20         0.00000E+00
    0.16272E-07        -0.15134E-19         0.00000E+00
    0.16272E-07        -0.65193E-20         0.00000E+00
    0.16272E-07        -0.20955E-20         0.00000E+00
    0.16272E-07         0.46566E-20         0.00000E+00
    0.16272E-07        -0.32596E-20         0.00000E+00
    0.16272E-07        -0.97789E-20         0.00000E+00
    0.16272E-07        -0.69849E-20         0.00000E+00
    0.16272E-07         0.12107E-19         0.00000E+00
    0.16272E-07        -0.32596E-20         0.00000E+00
    0.16272E-07         0.41910E-20         0.00000E+00
    0.16272E-07         0.23283E-20         0.00000E+00
    0.16272E-07        -0.60536E-20         0.00000E+00
    0.16272E-07         0.00000E+00         0.00000E+00
    0.16272E-07         0.79162E-20         0.00000E+00
    0.16272E-07         0.26077E-19         0.00000E+00
    0.16272E-07         0.11642E-19         0.00000E+00
    0.16272E-07         0.13970E-19         0.00000E+00
    0.16272E-07         0.46566E-20         0.00000E+00
    0.16272E-07        -0.12573E-19         0.00000E+00
    0.16272E-07         0.46566E-20         0.00000E+00
    0.16272E-07         0.37253E-20         0.00000E+00
    0.16272E-07         0.00000E+00         0.00000E+00
    0.16272E-07        -0.46566E-21         0.00000E+00
    0.16272E-07         0.46566E-21         0.00000E+00
    0.16272E-07        -0.55879E-20         0.00000E+00
    0.16272E-07        -0.11176E-19         0.00000E+00
    0.16272E-07        -0.27008E-19         0.00000E+00
    0.16272E-07        -0.13504E-19         0.00000E+00
    0.16272E-07        -0.93132E-20         0.00000E+00
    0.16272E-07         0.18626E-20         0.00000E+00
    0.16272E-07        -0.18626E-20         0.00000E+00
    0.16272E-07         0.37253E-20         0.00000E+00
    0.16272E-07         0.32596E-20         0.00000E+00
    0.16272E-07         0.23283E-20         0.00000E+00
    0.16272E-07         0.27940E-20         0.00000E+00
    0.16272E-07        -0.11642E-19         0.00000E+00
    0.16272E-07        -0.27940E-20         0.00000E+00
    0.16272E-07        -0.13970E-20         0.00000E+00
    0.16272E-07         0.53551E-20         0.00000E+00
    0.16272E-07         0.13271E-19         0.00000E+00
    0.16272E-07         0.79162E-20         0.00000E+00
    0.16272E-07         0.53551E-20         0.00000E+00
    0.16272E-07         0.10710E-19         0.00000E+00
    0.16272E-07         0.95461E-20         0.00000E+00
    0.16272E-07         0.46566E-21         0.00000E+00
    0.16272E-07         0.46566E-20         0.00000E+00
    0.16272E-07         0.00000E+00         0.00000E+00
    0.15183E-07         0.58208E-20         0.00000E+00
    0.15183E-07         0.23283E-20         0.00000E+00
    0.15183E-07         0.00000E+00         0.00000E+00
    0.15183E-07        -0.18626E-20         0.00000E+00
    0.15183E-07        -0.74506E-20         0.00000E+00
    0.15183E-07        -0.60536E-20         0.00000E+00
    0.15183E-07         0.51223E-20         0.00000E+00
    0.15183E-07        -0.51223E-20         0.00000E+00
    0.15183E-07        -0.55879E-20         0.00000E+00
    0.15183E-07        -0.74506E-20         0.00000E+00
    0.15183E-07        -0.27940E-20         0.00000E+00
    0.15183E-07         0.00000E+00         0.00000E+00
    0.15183E-07         0.18626E-20         0.00000E+00
    0.15183E-07        -0.46566E-21         0.00000E+00
    0.15183E-07        -0.23283E-20         0.00000E+00
    0.15183E-07         0.46566E-21         0.00000E+00
    0.15183E-07        -0.79162E-20         0.00000E+00
    0.15183E-07        -0.88476E-20         0.00000E+00
    0.15183E-07         0.13970E-20         0.00000E+00
    0.15183E-07         0.32596E-20         0.00000E+00
    0.15183E-07        -0.27940E-20         0.00000E+00
    0.15183E-07         0.55879E-20         0.00000E+00
    0.15183E-07         0.60536E-20         0.00000E+00
    0.15183E-07         0.23283E-20         0.00000E+00
    0.15183E-07        -0.25611E-20         0.00000E+00
    0.15183E-07        -0.93132E-20         0.00000E+00
    0.15183E-07         0.18626E-20         0.00000E+00
    0.15183E-07        -0.46566E-20         0.00000E+00
    0.15183E-07        -0.11642E-19         0.00000E+00
    0.15183E-07        -0.13970E-19         0.00000E+00
    0.15183E-07        -0.15832E-19         0.00000E+00
    0.15183E-07        -0.51223E-20         0.00000E+00
    0.15183E-07         0.23283E-20         0.00000E+00
    0.15183E-07        -0.46566E-21         0.00000E+00
    0.15183E-07         0.00000E+00         0.00000E+00
    0.15183E-07         0.10245E-19         0.00000E+00
    0.15183E-07        -0.69849E-21         0.00000E+00
    0.15183E-07        -0.55879E-20         0.00000E+00
    0.15183E-07         0.65193E-20         0.00000E+00
    0.15183E-07         0.15832E-19         0.00000E+00
    0.15183E-07         0.74506E-20         0.00000E+00
    0.15183E-07         0.46566E-20         0.00000E+00
    0.15183E-07         0.79162E-20         0.00000E+00
    0.15183E-07         0.72177E-20         0.00000E+00
    0.15183E-07         0.34925E-20         0.00000E+00
    0.15183E-07         0.13504E-19         0.00000E+00
    0.15183E-07         0.18626E-19         0.00000E+00
    0.15183E-07         0.62864E-20         0.00000E+00
    0.15183E-07         0.18626E-20         0.00000E+00
    0.15183E-07         0.20955E-20         0.00000E+00
    0.14194E-07        -0.23283E-20         0.00000E+00
    0.14194E-07        -0.12340E-19         0.00000E+00
    0.14194E-07        -0.76834E-20         0.00000E+00
    0.14194E-07        -0.27940E-20         0.00000E+00
    0.14194E-07        -0.46566E-21         0.00000E+00
    0.14194E-07         0.32596E-20         0.00000E+00
    0.14194E-07         0.10710E-19         0.00000E+00
    0.14194E-07         0.18626E-20         0.00000E+00
    0.14194E-07         0.00000E+00         0.00000E+00
    0.14194E-07        -0.93132E-21         0.00000E+00
    0.14194E-07        -0.23283E-20         0.00000E+00
    0.14194E-07        -0.10012E-19         0.00000E+00
    0.14194E-07        -0.74506E-20         0.00000E+00
    0.14194E-07        -0.62864E-20         0.00000E+00
    0.14194E-07        -0.60536E-20         0.00000E+00
    0.14194E-07        -0.74506E-20         0.00000E+00
    0.14194E-07        -0.20023E-19         0.00000E+00
    0.14194E-07        -0.14435E-19         0.00000E+00
    0.14194E-07        -0.20489E-19         0.00000E+00
    0.14194E-07        -0.15367E-19         0.00000E+00
    0.14194E-07        -0.51223E-20         0.00000E+00
    0.14194E-07        -0.27940E-20         0.00000E+00
    0.14194E-07         0.37253E-20         0.00000E+00
    0.14194E-07        -0.32596E-20         0.00000E+00
    0.14194E-07         0.76834E-20         0.00000E+00
    0.14194E-07        -0.48894E-20         0.00000E+00
    0.14194E-07         0.60536E-20         0.00000E+00
    0.14194E-07         0.93132E-21         0.00000E+00
    0.14194E-07        -0.15832E-19         0.00000E+00
    0.14194E-07        -0.37253E-20         0.00000E+00
    0.14194E-07        -0.60536E-20         0.00000E+00
    0.14194E-07        -0.14435E-19         0.00000E+00
    0.14194E-07        -0.18626E-20         0.00000E+00
    0.14194E-07        -0.27940E-20         0.00000E+00
    0.14194E-07         0.46566E-20         0.00000E+00
    0.14194E-07         0.18626E-20         0.00000E+00
    0.14194E-07         0.62864E-20         0.00000E+00
    0.14194E-07         0.46566E-21         0.00000E+00
    0.14194E-07         0.18161E-19         0.00000E+00
    0.14194E-07         0.19092E-19         0.00000E+00
    0.14194E-07         0.16065E-19         0.00000E+00
    0.14194E-07        -0.10710E-19         0.00000E+00
    0.14194E-07        -0.41910E-20         0.00000E+00
    0.14194E-07         0.18626E-20         0.00000E+00
    0.14194E-07         0.83819E-20         0.00000E+00
    0.14194E-07         0.18626E-20         0.00000E+00
    0.14194E-07         0.41910E-20         0.00000E+00
    0.14194E-07         0.23283E-20         0.00000E+00
    0.14194E-07        -0.41910E-20         0.00000E+00
    0.14194E-07         0.97789E-20         0.00000E+00
    0.13303E-07        -0.65193E-20         0.00000E+00
    0.13303E-07        -0.10710E-19         0.00000E+00
    0.13303E-07        -0.14435E-19         0.00000E+00
    0.13303E-07        -0.83819E-20         0.00000E+00
    0.13303E-07         0.00000E+00         0.00000E+00
    0.13303E-07        -0.39581E-20         0.00000E+00
    0.13303E-07         0.55879E-20         0.00000E+00
    0.13303E-07         0.93132E-20         0.00000E+00
    0.13303E-07         0.79162E-20         0.00000E+00
    0.13303E-07         0.32596E-20         0.00000E+00
    0.13303E-07         0.53551E-20         0.00000E+00
    0.13303E-07        -0.14203E-19         0.00000E+00
    0.13303E-07        -0.18626E-20         0.00000E+00
    0.13303E-07        -0.62864E-20         0.00000E+00
    0.13303E-07        -0.93132E-21         0.00000E+00
    0.13303E-07        -0.90804E-20         0.00000E+00
    0.13303E-07        -0.16531E-19         0.00000E+00
    0.13303E-07        -0.60536E-20         0.00000E+00
    0.13303E-07        -0.25611E-19         0.00000E+00
    0.13303E-07        -0.18626E-19         0.00000E+00
    0.13303E-07        -0.15832E-19         0.00000E+00
    0.13303E-07        -0.20955E-19         0.00000E+00
    0.13303E-07         0.18626E-20         0.00000E+00
    0.13303E-07         0.65193E-20         0.00000E+00
    0.13303E-07         0.93132E-20         0.00000E+00
    0.13303E-07        -0.93132E-21         0.00000E+00
    0.13303E-07        -0.79162E-20         0.00000E+00
    0.13303E-07        -0.21886E-19         0.00000E+00
    0.13303E-07        -0.13970E-20         0.00000E+00
    0.13303E-07        -0.46566E-20         0.00000E+00
    0.13303E-07        -0.88476E-20         0.00000E+00
    0.13303E-07        -0.74506E-20         0.00000E+00
    0.13303E-07        -0.97789E-20         0.00000E+00
    0.13303E-07         0.69849E-20         0.00000E+00
    0.13303E-07        -0.55879E-20         0.00000E+00
    0.13303E-07        -0.69849E-21         0.00000E+00
    0.13303E-07        -0.62864E-20         0.00000E+00
    0.13303E-07        -0.86147E-20         0.00000E+00
    0.13303E-07         0.10245E-19         0.00000E+00
    0.13303E-07        -0.55879E-20         0.00000E+00
    0.13303E-07         0.13970E-20         0.00000E+00
    0.13303E-07        -0.53551E-20         0.00000E+00
    0.13303E-07         0.18626E-20         0.00000E+00
    0.13303E-07        -0.93132E-20         0.00000E+00
    0.13303E-07        -0.27940E-20         0.00000E+00
    0.13303E-07         0.23283E-20         0.00000E+00
    0.13303E-07        -0.74506E-20         0.00000E+00
    0.13303E-07        -0.76834E-20         0.00000E+00
    0.13303E-07         0.13970E-20         0.00000E+00
    0.13303E-07         0.11642E-20         0.00000E+00
    0.12509E-07        -0.51223E-20         0.00000E+00
    0.12509E-07        -0.17695E-19         0.00000E+00
    0.12509E-07        -0.13039E-19         0.00000E+00
    0.12509E-07         0.37253E-20         0.00000E+00
    0.12509E-07         0.32596E-20         0.00000E+00
    0.12509E-07         0.12573E-19         0.00000E+00
    0.12509E-07         0.00000E+00         0.00000E+00
    0.12509E-07         0.97789E-20         0.00000E+00
    0.12509E-07         0.15367E-19         0.00000E+00
    0.12509E-07         0.93132E-21         0.00000E+00
    0.12509E-07         0.88476E-20         0.00000E+00
    0.12509E-07        -0.55879E-20         0.00000E+00
    0.12509E-07         0.27940E-20         0.00000E+00
    0.12509E-07        -0.41910E-20         0.00000E+00
    0.12509E-07        -0.32596E-20         0.00000E+00
    0.12509E-07        -0.13039E-19         0.00000E+00
    0.12509E-07        -0.16764E-19         0.00000E+00
    0.12509E-07        -0.22817E-19         0.00000E+00
    0.12509E-07        -0.17229E-19         0.00000E+00
    0.12509E-07        -0.93132E-20         0.00000E+00
    0.12509E-07        -0.11642E-19         0.00000E+00
    0.12509E-07        -0.46566E-20         0.00000E+00
    0.12509E-07        -0.60536E-20         0.00000E+00
    0.12509E-07         0.23283E-20         0.00000E+00
    0.12509E-07        -0.37253E-20         0.00000E+00
    0.12509E-07        -0.11176E-19         0.00000E+00
    0.12509E-07        -0.51223E-20         0.00000E+00
    0.12509E-07        -0.15367E-19         0.00000E+00
    0.12509E-07        -0.13039E-19         0.00000E+00
    0.12509E-07        -0.20955E-19         0.00000E+00
    0.12509E-07        -0.16298E-19         0.00000E+00
    0.12509E-07        -0.10710E-19         0.00000E+00
    0.12509E-07        -0.11642E-19         0.00000E+00
    0.12509E-07        -0.65193E-20         0.00000E+00
    0.12509E-07        -0.17695E-19         0.00000E+00
    0.12509E-07        -0.51223E-20         0.00000E+00
    0.12509E-07        -0.15832E-19         0.00000E+00
    0.12509E-07        -0.93132E-20         0.00000E+00
    0.12509E-07        -0.51223E-20         0.00000E+00
    0.12509E-07        -0.93132E-20         0.00000E+00
    0.12509E-07        -0.83819E-20         0.00000E+00
    0.12509E-07        -0.74506E-20         0.00000E+00
    0.12509E-07        -0.27940E-20         0.00000E+00
    0.12509E-07        -0.93132E-20         0.00000E+00
    0.12509E-07        -0.65193E-20         0.00000E+00
    0.12509E-07         0.41910E-20         0.00000E+00
    0.12509E-07        -0.55879E-20         0.00000E+00
    0.12509E-07         0.37253E-20         0.00000E+00
    0.12509E-07         0.10710E-19         0.00000E+00
    0.12509E-07        -0.18626E-20         0.00000E+00
    0.11809E-07         0.41910E-20         0.00000E+00
    0.11809E-07         0.32596E-20         0.00000E+00
    0.11809E-07        -0.93132E-21         0.00000E+00
    0.11809E-07         0.74506E-20         0.00000E+00
    0.11809E-07         0.27940E-20         0.00000E+00
    0.11809E-07         0.20023E-19         0.00000E+00
    0.11809E-07         0.37253E-20         0.00000E+00
    0.11809E-07         0.74506E-20         0.00000E+00
    0.11809E-07         0.14435E-19         0.00000E+00
    0.11809E-07         0.60536E-20         0.00000E+00
    0.11809E-07         0.14901E-19         0.00000E+00
    0.11809E-07         0.46566E-20         0.00000E+00
    0.11809E-07        -0.65193E-20         0.00000E+00
    0.11809E-07        -0.15832E-19         0.00000E+00
    0.11809E-07        -0.12340E-19         0.00000E+00
    0.11809E-07        -0.16764E-19         0.00000E+00
    0.11809E-07        -0.20955E-19         0.00000E+00
    0.11809E-07        -0.27008E-19         0.00000E+00
    0.11809E-07        -0.21420E-19         0.00000E+00
    0.11809E-07        -0.14435E-19         0.00000E+00
    0.11809E-07        -0.83819E-20         0.00000E+00
    0.11809E-07        -0.60536E-20         0.00000E+00
    0.11809E-07        -0.13504E-19         0.00000E+00
    0.11809E-07        -0.26543E-19         0.00000E+00
    0.11809E-07        -0.18161E-19         0.00000E+00
    0.11809E-07        -0.83819E-20         0.00000E+00
    0.11809E-07        -0.11642E-19         0.00000E+00
    0.11809E-07        -0.10710E-19         0.00000E+00
    0.11809E-07        -0.17229E-19         0.00000E+00
    0.11809E-07        -0.19092E-19         0.00000E+00
    0.11809E-07        -0.23749E-19         0.00000E+00
    0.11809E-07        -0.20489E-19         0.00000E+00
    0.11809E-07        -0.20023E-19         0.00000E+00
    0.11809E-07        -0.17695E-19         0.00000E+00
    0.11809E-07        -0.88476E-20         0.00000E+00
    0.11809E-07        -0.14901E-19         0.00000E+00
    0.11809E-07        -0.83819E-20         0.00000E+00
    0.11809E-07        -0.11642E-19         0.00000E+00
    0.11809E-07         0.93132E-20         0.00000E+00
    0.11809E-07         0.23283E-20         0.00000E+00
    0.11809E-07         0.18626E-20         0.00000E+00
    0.11809E-07        -0.12107E-19         0.00000E+00
    0.11809E-07        -0.81491E-20         0.00000E+00
    0.11809E-07        -0.32596E-20         0.00000E+00
    0.11809E-07        -0.51223E-20         0.00000E+00
    0.11809E-07        -0.18626E-20         0.00000E+00
    0.11809E-07         0.34925E-20         0.00000E+00
    0.11809E-07         0.11642E-19         0.00000E+00
    0.11809E-07         0.17229E-19         0.00000E+00
    0.11809E-07         0.13970E-20         0.00000E+00
    0.11203E-07        -0.74506E-20         0.00000E+00
    0.11203E-07         0.46566E-21         0.00000E+00
    0.11203E-07         0.69849E-21         0.00000E+00
    0.11203E-07         0.67521E-20         0.00000E+00
    0.11203E-07         0.34925E-20         0.00000E+00
    0.11203E-07         0.10012E-19         0.00000E+00
    0.11203E-07         0.19558E-19         0.00000E+00
    0.11203E-07         0.16065E-19         0.00000E+00
    0.11203E-07         0.15134E-19         0.00000E+00
    0.11203E-07         0.37253E-20         0.00000E+00
    0.11203E-07        -0.69849E-20         0.00000E+00
    0.11203E-07         0.13970E-20         0.00000E+00
    0.11203E-07        -0.32596E-20         0.00000E+00
    0.11203E-07        -0.15832E-19         0.00000E+00
    0.11203E-07        -0.13271E-19         0.00000E+00
    0.11203E-07        -0.93132E-20         0.00000E+00
    0.11203E-07        -0.11409E-19         0.00000E+00
    0.11203E-07        -0.18626E-19         0.00000E+00
    0.11203E-07        -0.65193E-20         0.00000E+00
    0.11203E-07        -0.14435E-19         0.00000E+00
    0.11203E-07        -0.11176E-19         0.00000E+00
    0.11203E-07        -0.22817E-19         0.00000E+00
    0.11203E-07        -0.23749E-19         0.00000E+00
    0.11203E-07        -0.31199E-19         0.00000E+00
    0.11203E-07        -0.38184E-19         0.00000E+00
    0.11203E-07        -0.27474E-19         0.00000E+00
    0.11203E-07        -0.21420E-19         0.00000E+00
    0.11203E-07        -0.97789E-20         0.00000E+00
    0.11203E-07        -0.88476E-20         0.00000E+00
    0.11203E-07        -0.16764E-19         0.00000E+00
    0.11203E-07        -0.11874E-19         0.00000E+00
    0.11203E-07        -0.10710E-19         0.00000E+00
    0.11203E-07        -0.51223E-20         0.00000E+00
    0.11203E-07        -0.55879E-20         0.00000E+00
    0.11203E-07        -0.23283E-20         0.00000E+00
    0.11203E-07        -0.11176E-19         0.00000E+00
    0.11203E-07        -0.65193E-20         0.00000E+00
    0.11203E-07        -0.13970E-19         0.00000E+00
    0.11203E-07         0.69849E-21         0.00000E+00
    0.11203E-07        -0.12107E-19         0.00000E+00
    0.11203E-07        -0.93132E-21         0.00000E+00
    0.11203E-07         0.16298E-20         0.00000E+00
    0.11203E-07        -0.55879E-20         0.00000E+00
    0.11203E-07         0.16298E-20         0.00000E+00
    0.11203E-07        -0.55879E-20         0.00000E+00
    0.11203E-07        -0.46566E-21         0.00000E+00
    0.11203E-07         0.23283E-21         0.00000E+00
    0.11203E-07        -0.46566E-21         0.00000E+00
    0.11203E-07        -0.12340E-19         0.00000E+00
    0.11203E-07        -0.16298E-20         0.00000E+00
    0.10688E-07        -0.65193E-20         0.00000E+00
    0.10688E-07        -0.30268E-20         0.00000E+00
    0.10688E-07        -0.13970E-20         0.00000E+00
    0.10688E-07         0.44238E-20         0.00000E+00
    0.10688E-07         0.11874E-19         0.00000E+00
    0.10688E-07         0.12573E-19         0.00000E+00
    0.10688E-07         0.14435E-19         0.00000E+00
    0.10688E-07         0.25146E-19         0.00000E+00
    0.10688E-07         0.11409E-19         0.00000E+00
    0.10688E-07        -0.23283E-20         0.00000E+00
    0.10688E-07        -0.15134E-19         0.00000E+00
    0.10688E-07        -0.13504E-19         0.00000E+00
    0.10688E-07         0.72177E-20         0.00000E+00
    0.10688E-07        -0.25611E-20         0.00000E+00
    0.10688E-07        -0.13970E-20         0.00000E+00
    0.10688E-07        -0.74506E-20         0.00000E+00
    0.10688E-07         0.55879E-20         0.00000E+00
    0.10688E-07        -0.81491E-20         0.00000E+00
    0.10688E-07        -0.11409E-19         0.00000E+00
    0.10688E-07        -0.12806E-19         0.00000E+00
    0.10688E-07        -0.13271E-19         0.00000E+00
    0.10688E-07        -0.22817E-19         0.00000E+00
    0.10688E-07        -0.43772E-19         0.00000E+00
    0.10688E-07        -0.32363E-19         0.00000E+00
    0.10688E-07        -0.29802E-19         0.00000E+00
    0.10688E-07        -0.31199E-19         0.00000E+00
    0.10688E-07        -0.21886E-19         0.00000E+00
    0.10688E-07        -0.16298E-19         0.00000E+00
    0.10688E-07        -0.19092E-19         0.00000E+00
    0.10688E-07        -0.24214E-19         0.00000E+00
    0.10688E-07        -0.88476E-20         0.00000E+00
    0.10688E-07        -0.11642E-19         0.00000E+00
    0.10688E-07         0.23283E-20         0.00000E+00
    0.10688E-07         0.32596E-20         0.00000E+00
    0.10688E-07        -0.18626E-20         0.00000E+00
    0.10688E-07        -0.10245E-19         0.00000E+00
    0.10688E-07        -0.60536E-20         0.00000E+00
    0.10688E-07        -0.11642E-19         0.00000E+00
    0.10688E-07        -0.76834E-20         0.00000E+00
    0.10688E-07        -0.83819E-20         0.00000E+00
    0.10688E-07        -0.12573E-19         0.00000E+00
    0.10688E-07        -0.46566E-21         0.00000E+00
    0.10688E-07         0.46566E-20         0.00000E+00
    0.10688E-07        -0.10943E-19         0.00000E+00
    0.10688E-07        -0.13970E-19         0.00000E+00
    0.10688E-07         0.41910E-20         0.00000E+00
    0.10688E-07         0.10245E-19         0.00000E+00
    0.10688E-07        -0.15832E-19         0.00000E+00
    0.10688E-07        -0.17462E-19         0.00000E+00
    0.10688E-07        -0.39581E-20         0.00000E+00
    0.10263E-07         0.65193E-20         0.00000E+00
    0.10263E-07         0.14435E-19         0.00000E+00
    0.10263E-07         0.86147E-20         0.00000E+00
    0.10263E-07         0.60536E-20         0.00000E+00
    0.10263E-07         0.93132E-20         0.00000E+00
    0.10263E-07         0.20256E-19         0.00000E+00
    0.10263E-07         0.83819E-20         0.00000E+00
    0.10263E-07         0.14435E-19         0.00000E+00
    0.10263E-07         0.46566E-20         0.00000E+00
    0.10263E-07         0.51223E-20         0.00000E+00
    0.10263E-07        -0.27940E-20         0.00000E+00
    0.10263E-07        -0.18626E-20         0.00000E+00
    0.10263E-07         0.23283E-20         0.00000E+00
    0.10263E-07         0.76834E-20         0.00000E+00
    0.10263E-07         0.13970E-19         0.00000E+00
    0.10263E-07        -0.30268E-20         0.00000E+00
    0.10263E-07        -0.67521E-20         0.00000E+00
    0.10263E-07        -0.39581E-20         0.00000E+00
    0.10263E-07        -0.10943E-19         0.00000E+00
    0.10263E-07        -0.32596E-20         0.00000E+00
    0.10263E-07        -0.17695E-19         0.00000E+00
    0.10263E-07        -0.23283E-19         0.00000E+00
    0.10263E-07        -0.32596E-19         0.00000E+00
    0.10263E-07        -0.39348E-19         0.00000E+00
    0.10263E-07        -0.19092E-19         0.00000E+00
    0.10263E-07        -0.23749E-19         0.00000E+00
    0.10263E-07        -0.21188E-19         0.00000E+00
    0.10263E-07        -0.31199E-19         0.00000E+00
    0.10263E-07        -0.17229E-19         0.00000E+00
    0.10263E-07        -0.18859E-19         0.00000E+00
    0.10263E-07        -0.72177E-20         0.00000E+00
    0.10263E-07        -0.13039E-19         0.00000E+00
    0.10263E-07        -0.17462E-19         0.00000E+00
    0.10263E-07        -0.13970E-20         0.00000E+00
    0.10263E-07        -0.32596E-20         0.00000E+00
    0.10263E-07        -0.18161E-19         0.00000E+00
    0.10263E-07        -0.51223E-20         0.00000E+00
    0.10263E-07        -0.34925E-20         0.00000E+00
    0.10263E-07         0.51223E-20         0.00000E+00
    0.10263E-07         0.83819E-20         0.00000E+00
    0.10263E-07        -0.27940E-20         0.00000E+00
    0.10263E-07        -0.46566E-20         0.00000E+00
    0.10263E-07        -0.97789E-20         0.00000E+00
    0.10263E-07        -0.46566E-20         0.00000E+00
    0.10263E-07        -0.11642E-20         0.00000E+00
    0.10263E-07         0.30268E-20         0.00000E+00
    0.10263E-07        -0.12573E-19         0.00000E+00
    0.10263E-07        -0.13271E-19         0.00000E+00
    0.10263E-07         0.27940E-20         0.00000E+00
    0.10263E-07         0.32596E-20         0.00000E+00
    0.99277E-08        -0.37253E-20         0.00000E+00
    0.99277E-08        -0.41910E-20         0.00000E+00
    0.99277E-08         0.67521E-20         0.00000E+00
    0.99277E-08         0.65193E-20         0.00000E+00
    0.99277E-08         0.14435E-19         0.00000E+00
    0.99277E-08         0.18626E-19         0.00000E+00
    0.99277E-08         0.83819E-20         0.00000E+00
    0.99277E-08        -0.69849E-21         0.00000E+00
    0.99277E-08        -0.37253E-20         0.00000E+00
    0.99277E-08         0.13970E-19         0.00000E+00
    0.99277E-08         0.10710E-19         0.00000E+00
    0.99277E-08         0.12573E-19         0.00000E+00
    0.99277E-08        -0.46566E-21         0.00000E+00
    0.99277E-08         0.93132E-20         0.00000E+00
    0.99277E-08        -0.18626E-20         0.00000E+00
    0.99277E-08         0.18626E-20         0.00000E+00
    0.99277E-08        -0.88476E-20         0.00000E+00
    0.99277E-08        -0.23283E-20         0.00000E+00
    0.99277E-08        -0.83819E-20         0.00000E+00
    0.99277E-08         0.58208E-20         0.00000E+00
    0.99277E-08        -0.13970E-20         0.00000E+00
    0.99277E-08        -0.20023E-19         0.00000E+00
    0.99277E-08        -0.15832E-19         0.00000E+00
    0.99277E-08        -0.29802E-19         0.00000E+00
    0.99277E-08        -0.17928E-19         0.00000E+00
    0.99277E-08        -0.15134E-19         0.00000E+00
    0.99277E-08        -0.12107E-19         0.00000E+00
    0.99277E-08        -0.15600E-19         0.00000E+00
    0.99277E-08        -0.55879E-20         0.00000E+00
    0.99277E-08        -0.11409E-19         0.00000E+00
    0.99277E-08        -0.74506E-20         0.00000E+00
    0.99277E-08        -0.37253E-20         0.00000E+00
    0.99277E-08        -0.93132E-20         0.00000E+00
    0.99277E-08        -0.69849E-20         0.00000E+00
    0.99277E-08        -0.83819E-20         0.00000E+00
    0.99277E-08        -0.14901E-19         0.00000E+00
    0.99277E-08        -0.13970E-19         0.00000E+00
    0.99277E-08        -0.37253E-20         0.00000E+00
    0.99277E-08        -0.58208E-20         0.00000E+00
    0.99277E-08        -0.83819E-20         0.00000E+00
    0.99277E-08        -0.41910E-20         0.00000E+00
    0.99277E-08         0.00000E+00         0.00000E+00
    0.99277E-08        -0.10245E-19         0.00000E+00
    0.99277E-08         0.10245E-19         0.00000E+00
    0.99277E-08         0.55879E-20         0.00000E+00
    0.99277E-08        -0.13970E-20         0.00000E+00
    0.99277E-08        -0.60536E-20         0.00000E+00
    0.99277E-08        -0.51223E-20         0.00000E+00
    0.99277E-08        -0.18626E-20         0.00000E+00
    0.99277E-08         0.11642E-20         0.00000E+00
    0.96808E-08         0.18626E-20         0.00000E+00
    0.96808E-08         0.39581E-20         0.00000E+00
    0.96808E-08         0.55879E-20         0.00000E+00
    0.96808E-08         0.60536E-20         0.00000E+00
    0.96808E-08         0.00000E+00         0.00000E+00
    0.96808E-08         0.51223E-20         0.00000E+00
    0.96808E-08         0.67521E-20         0.00000E+00
    0.96808E-08        -0.76834E-20         0.00000E+00
    0.96808E-08         0.13970E-20         0.00000E+00
    0.96808E-08         0.16298E-20         0.00000E+00
    0.96808E-08        -0.18626E-20         0.00000E+00
    0.96808E-08         0.60536E-20         0.00000E+00
    0.96808E-08         0.65193E-20         0.00000E+00
    0.96808E-08         0.23283E-20         0.00000E+00
    0.96808E-08         0.46566E-21         0.00000E+00
    0.96808E-08         0.25611E-20         0.00000E+00
    0.96808E-08        -0.12107E-19         0.00000E+00
    0.96808E-08        -0.37253E-20         0.00000E+00
    0.96808E-08        -0.37253E-20         0.00000E+00
    0.96808E-08         0.88476E-20         0.00000E+00
    0.96808E-08         0.14668E-19         0.00000E+00
    0.96808E-08        -0.46566E-20         0.00000E+00
    0.96808E-08        -0.74506E-20         0.00000E+00
    0.96808E-08        -0.46566E-20         0.00000E+00
    0.96808E-08        -0.86147E-20         0.00000E+00
    0.96808E-08         0.69849E-21         0.00000E+00
    0.96808E-08        -0.11642E-20         0.00000E+00
    0.96808E-08        -0.27940E-20         0.00000E+00
    0.96808E-08         0.83819E-20         0.00000E+00
    0.96808E-08        -0.25611E-20         0.00000E+00
    0.96808E-08        -0.27940E-20         0.00000E+00
    0.96808E-08        -0.13970E-20         0.00000E+00
    0.96808E-08        -0.37253E-20         0.00000E+00
    0.96808E-08         0.37253E-20         0.00000E+00
    0.96808E-08        -0.90804E-20         0.00000E+00
    0.96808E-08        -0.12107E-19         0.00000E+00
    0.96808E-08        -0.10710E-19         0.00000E+00
    0.96808E-08        -0.13504E-19         0.00000E+00
    0.96808E-08        -0.86147E-20         0.00000E+00
    0.96808E-08         0.20955E-20         0.00000E+00
    0.96808E-08        -0.58208E-20         0.00000E+00
    0.96808E-08         0.32596E-20         0.00000E+00
    0.96808E-08        -0.11642E-20         0.00000E+00
    0.96808E-08        -0.55879E-20         0.00000E+00
    0.96808E-08         0.93132E-21         0.00000E+00
    0.96808E-08        -0.46566E-20         0.00000E+00
    0.96808E-08         0.13504E-19         0.00000E+00
    0.96808E-08        -0.37253E-20         0.00000E+00
    0.96808E-08         0.69849E-20         0.00000E+00
    0.96808E-08         0.34925E-20         0.00000E+00
    0.95220E-08         0.41910E-20         0.00000E+00
    0.95220E-08        -0.23283E-21         0.00000E+00
    0.95220E-08         0.00000E+00         0.00000E+00
    0.95220E-08        -0.65193E-20         0.00000E+00
    0.95220E-08        -0.15367E-19         0.00000E+00
    0.95220E-08        -0.37253E-20         0.00000E+00
    0.95220E-08        -0.18626E-20         0.00000E+00
    0.95220E-08        -0.12573E-19         0.00000E+00
    0.95220E-08        -0.88476E-20         0.00000E+00
    0.95220E-08        -0.14901E-19         0.00000E+00
    0.95220E-08        -0.72177E-20         0.00000E+00
    0.95220E-08         0.18626E-20         0.00000E+00
    0.95220E-08         0.97789E-20         0.00000E+00
    0.95220E-08         0.10245E-19         0.00000E+00
    0.95220E-08         0.74506E-20         0.00000E+00
    0.95220E-08         0.23283E-20         0.00000E+00
    0.95220E-08        -0.39581E-20         0.00000E+00
    0.95220E-08        -0.13970E-20         0.00000E+00
    0.95220E-08         0.46566E-21         0.00000E+00
    0.95220E-08         0.79162E-20         0.00000E+00
    0.95220E-08         0.19558E-19         0.00000E+00
    0.95220E-08         0.32596E-20         0.00000E+00
    0.95220E-08         0.16298E-20         0.00000E+00
    0.95220E-08         0.32596E-20         0.00000E+00
    0.95220E-08         0.55879E-20         0.00000E+00
    0.95220E-08         0.69849E-20         0.00000E+00
    0.95220E-08         0.13970E-20         0.00000E+00
    0.95220E-08         0.13970E-20         0.00000E+00
    0.95220E-08         0.13970E-20         0.00000E+00
    0.95220E-08         0.13039E-19         0.00000E+00
    0.95220E-08         0.12806E-19         0.00000E+00
    0.95220E-08        -0.51223E-20         0.00000E+00
    0.95220E-08         0.25611E-20         0.00000E+00
    0.95220E-08         0.18626E-20         0.00000E+00
    0.95220E-08        -0.72177E-20         0.00000E+00
    0.95220E-08         0.34925E-20         0.00000E+00
    0.95220E-08         0.11874E-19         0.00000E+00
    0.95220E-08         0.23283E-20         0.00000E+00
    0.95220E-08         0.13970E-20         0.00000E+00
    0.95220E-08         0.37253E-20         0.00000E+00
    0.95220E-08         0.14901E-19         0.00000E+00
    0.95220E-08         0.34925E-20         0.00000E+00
    0.95220E-08         0.27940E-20         0.00000E+00
    0.95220E-08        -0.27940E-20         0.00000E+00
    0.95220E-08         0.41910E-20         0.00000E+00
    0.95220E-08        -0.41910E-20         0.00000E+00
    0.95220E-08         0.32596E-20         0.00000E+00
    0.95220E-08         0.44238E-20         0.00000E+00
    0.95220E-08         0.12573E-19         0.00000E+00
    0.95220E-08         0.23283E-20         0.00000E+00
    0.94512E-08        -0.90804E-20         0.00000E+00
    0.94512E-08        -0.95461E-20         0.00000E+00
    0.94512E-08         0.93132E-20         0.00000E+00
    0.94512E-08         0.37253E-20         0.00000E+00
    0.94512E-08        -0.69849E-20         0.00000E+00
    0.94512E-08        -0.13970E-19         0.00000E+00
    0.94512E-08        -0.25379E-19         0.00000E+00
    0.94512E-08        -0.25146E-19         0.00000E+00
    0.94512E-08        -0.23516E-19         0.00000E+00
    0.94512E-08        -0.21886E-19         0.00000E+00
    0.94512E-08         0.18626E-20         0.00000E+00
    0.94512E-08         0.53551E-20         0.00000E+00
    0.94512E-08         0.00000E+00         0.00000E+00
    0.94512E-08         0.44238E-20         0.00000E+00
    0.94512E-08         0.13970E-20         0.00000E+00
    0.94512E-08         0.23283E-20         0.00000E+00
    0.94512E-08         0.00000E+00         0.00000E+00
    0.94512E-08        -0.27940E-20         0.00000E+00
    0.94512E-08        -0.51223E-20         0.00000E+00
    0.94512E-08         0.00000E+00         0.00000E+00
    0.94512E-08         0.22817E-19         0.00000E+00
    0.94512E-08         0.27940E-20         0.00000E+00
    0.94512E-08        -0.32596E-20         0.00000E+00
    0.94512E-08        -0.46566E-20         0.00000E+00
    0.94512E-08         0.46566E-20         0.00000E+00
    0.94512E-08         0.55879E-20         0.00000E+00
    0.94512E-08        -0.32596E-20         0.00000E+00
    0.94512E-08         0.46566E-20         0.00000E+00
    0.94512E-08         0.10710E-19         0.00000E+00
    0.94512E-08         0.12340E-19         0.00000E+00
    0.94512E-08         0.11874E-19         0.00000E+00
    0.94512E-08         0.16298E-20         0.00000E+00
    0.94512E-08         0.10245E-19         0.00000E+00
    0.94512E-08        -0.11176E-19         0.00000E+00
    0.94512E-08        -0.27940E-20         0.00000E+00
    0.94512E-08         0.14901E-19         0.00000E+00
    0.94512E-08         0.15832E-19         0.00000E+00
    0.94512E-08         0.21653E-19         0.00000E+00
    0.94512E-08         0.12806E-19         0.00000E+00
    0.94512E-08         0.60536E-20         0.00000E+00
    0.94512E-08         0.27940E-20         0.00000E+00
    0.94512E-08         0.46566E-20         0.00000E+00
    0.94512E-08         0.10710E-19         0.00000E+00
    0.94512E-08         0.16531E-19         0.00000E+00
    0.94512E-08         0.97789E-20         0.00000E+00
    0.94512E-08         0.93132E-20         0.00000E+00
    0.94512E-08         0.14435E-19         0.00000E+00
    0.94512E-08         0.12340E-19         0.00000E+00
    0.94512E-08         0.30268E-20         0.00000E+00
    0.94512E-08         0.69849E-20         0.00000E+00
    0.94687E-08         0.41910E-20         0.00000E+00
    0.94687E-08         0.62864E-20         0.00000E+00
    0.94687E-08        -0.25611E-20         0.00000E+00
    0.94687E-08         0.62864E-20         0.00000E+00
    0.94687E-08        -0.88476E-20         0.00000E+00
    0.94687E-08        -0.19791E-19         0.00000E+00
    0.94687E-08        -0.20722E-19         0.00000E+00
    0.94687E-08        -0.23283E-19         0.00000E+00
    0.94687E-08        -0.35856E-19         0.00000E+00
    0.94687E-08        -0.33993E-19         0.00000E+00
    0.94687E-08        -0.19558E-19         0.00000E+00
    0.94687E-08        -0.44238E-20         0.00000E+00
    0.94687E-08        -0.41910E-20         0.00000E+00
    0.94687E-08         0.13970E-20         0.00000E+00
    0.94687E-08         0.51223E-20         0.00000E+00
    0.94687E-08         0.88476E-20         0.00000E+00
    0.94687E-08        -0.46566E-21         0.00000E+00
    0.94687E-08        -0.65193E-20         0.00000E+00
    0.94687E-08         0.37253E-20         0.00000E+00
    0.94687E-08        -0.11642E-19         0.00000E+00
    0.94687E-08         0.46566E-21         0.00000E+00
    0.94687E-08         0.27940E-20         0.00000E+00
    0.94687E-08         0.16298E-20         0.00000E+00
    0.94687E-08        -0.93132E-20         0.00000E+00
    0.94687E-08        -0.30268E-20         0.00000E+00
    0.94687E-08        -0.18626E-20         0.00000E+00
    0.94687E-08        -0.14901E-19         0.00000E+00
    0.94687E-08         0.51223E-20         0.00000E+00
    0.94687E-08         0.13504E-19         0.00000E+00
    0.94687E-08         0.97789E-20         0.00000E+00
    0.94687E-08         0.21420E-19         0.00000E+00
    0.94687E-08         0.16065E-19         0.00000E+00
    0.94687E-08         0.15832E-19         0.00000E+00
    0.94687E-08         0.18626E-20         0.00000E+00
    0.94687E-08         0.15832E-19         0.00000E+00
    0.94687E-08         0.69849E-20         0.00000E+00
    0.94687E-08         0.10710E-19         0.00000E+00
    0.94687E-08         0.17928E-19         0.00000E+00
    0.94687E-08         0.18161E-19         0.00000E+00
    0.94687E-08         0.13504E-19         0.00000E+00
    0.94687E-08         0.69849E-20         0.00000E+00
    0.94687E-08         0.93132E-20         0.00000E+00
    0.94687E-08         0.55879E-20         0.00000E+00
    0.94687E-08         0.28173E-19         0.00000E+00
    0.94687E-08         0.20256E-19         0.00000E+00
    0.94687E-08         0.10943E-19         0.00000E+00
    0.94687E-08         0.19558E-19         0.00000E+00
    0.94687E-08         0.13039E-19         0.00000E+00
    0.94687E-08        -0.93132E-21         0.00000E+00
    0.94687E-08         0.16298E-20         0.00000E+00
    0.95752E-08         0.65193E-20         0.00000E+00
    0.95752E-08        -0.37253E-20         0.00000E+00
    0.95752E-08        -0.37253E-20         0.00000E+00
    0.95752E-08         0.37253E-20         0.00000E+00
    0.95752E-08        -0.51223E-20         0.00000E+00
    0.95752E-08        -0.95461E-20         0.00000E+00
    0.95752E-08        -0.24680E-19         0.00000E+00
    0.95752E-08        -0.31199E-19         0.00000E+00
    0.95752E-08        -0.26077E-19         0.00000E+00
    0.95752E-08        -0.18626E-19         0.00000E+00
    0.95752E-08        -0.79162E-20         0.00000E+00
    0.95752E-08        -0.12573E-19         0.00000E+00
    0.95752E-08        -0.41910E-20         0.00000E+00
    0.95752E-08         0.27940E-20         0.00000E+00
    0.95752E-08        -0.13970E-20         0.00000E+00
    0.95752E-08        -0.46566E-21         0.00000E+00
    0.95752E-08        -0.46566E-20         0.00000E+00
    0.95752E-08        -0.14901E-19         0.00000E+00
    0.95752E-08        -0.83819E-20         0.00000E+00
    0.95752E-08        -0.21188E-19         0.00000E+00
    0.95752E-08        -0.41910E-20         0.00000E+00
    0.95752E-08        -0.60536E-20         0.00000E+00
    0.95752E-08         0.00000E+00         0.00000E+00
    0.95752E-08        -0.23283E-20         0.00000E+00
    0.95752E-08         0.00000E+00         0.00000E+00
    0.95752E-08         0.46566E-20         0.00000E+00
    0.95752E-08         0.23283E-20         0.00000E+00
    0.95752E-08         0.88476E-20         0.00000E+00
    0.95752E-08         0.13039E-19         0.00000E+00
    0.95752E-08         0.27474E-19         0.00000E+00
    0.95752E-08         0.27008E-19         0.00000E+00
    0.95752E-08         0.27474E-19         0.00000E+00
    0.95752E-08         0.16997E-19         0.00000E+00
    0.95752E-08         0.16531E-19         0.00000E+00
    0.95752E-08         0.20722E-19         0.00000E+00
    0.95752E-08         0.19092E-19         0.00000E+00
    0.95752E-08         0.19092E-19         0.00000E+00
    0.95752E-08         0.90804E-20         0.00000E+00
    0.95752E-08         0.69849E-20         0.00000E+00
    0.95752E-08         0.12107E-19         0.00000E+00
    0.95752E-08         0.79162E-20         0.00000E+00
    0.95752E-08         0.10943E-19         0.00000E+00
    0.95752E-08         0.13039E-19         0.00000E+00
    0.95752E-08         0.15367E-19         0.00000E+00
    0.95752E-08         0.65193E-20         0.00000E+00
    0.95752E-08         0.93132E-21         0.00000E+00
    0.95752E-08        -0.27940E-20         0.00000E+00
    0.95752E-08        -0.32596E-20         0.00000E+00
    0.95752E-08        -0.23283E-20         0.00000E+00
    0.95752E-08        -0.69849E-20         0.00000E+00
    0.97717E-08         0.00000E+00         0.00000E+00
    0.97717E-08         0.32596E-20         0.00000E+00
    0.97717E-08         0.55879E-20         0.00000E+00
    0.97717E-08        -0.60536E-20         0.00000E+00
    0.97717E-08        -0.83819E-20         0.00000E+00
    0.97717E-08        -0.23283E-21         0.00000E+00
    0.97717E-08        -0.97789E-20         0.00000E+00
    0.97717E-08        -0.27940E-20         0.00000E+00
    0.97717E-08        -0.34925E-20         0.00000E+00
    0.97717E-08         0.23283E-21         0.00000E+00
    0.97717E-08         0.46566E-21         0.00000E+00
    0.97717E-08        -0.55879E-20         0.00000E+00
    0.97717E-08        -0.55879E-20         0.00000E+00
    0.97717E-08        -0.10710E-19         0.00000E+00
    0.97717E-08        -0.12107E-19         0.00000E+00
    0.97717E-08        -0.10245E-19         0.00000E+00
    0.97717E-08        -0.21188E-19         0.00000E+00
    0.97717E-08        -0.17928E-19         0.00000E+00
    0.97717E-08        -0.12573E-19         0.00000E+00
    0.97717E-08        -0.97789E-20         0.00000E+00
    0.97717E-08        -0.60536E-20         0.00000E+00
    0.97717E-08         0.69849E-20         0.00000E+00
    0.97717E-08         0.74506E-20         0.00000E+00
    0.97717E-08         0.81491E-20         0.00000E+00
    0.97717E-08         0.37253E-20         0.00000E+00
    0.97717E-08         0.11642E-19         0.00000E+00
    0.97717E-08         0.27008E-19         0.00000E+00
    0.97717E-08         0.19092E-19         0.00000E+00
    0.97717E-08         0.20955E-19         0.00000E+00
    0.97717E-08         0.14901E-19         0.00000E+00
    0.97717E-08         0.20489E-19         0.00000E+00
    0.97717E-08         0.18626E-19         0.00000E+00
    0.97717E-08         0.15367E-19         0.00000E+00
    0.97717E-08        -0.41910E-20         0.00000E+00
    0.97717E-08         0.11642E-19         0.00000E+00
    0.97717E-08         0.15367E-19         0.00000E+00
    0.97717E-08         0.18394E-19         0.00000E+00
    0.97717E-08         0.19558E-19         0.00000E+00
    0.97717E-08         0.18161E-19         0.00000E+00
    0.97717E-08         0.17462E-19         0.00000E+00
    0.97717E-08         0.12107E-19         0.00000E+00
    0.97717E-08         0.74506E-20         0.00000E+00
    0.97717E-08         0.97789E-20         0.00000E+00
    0.97717E-08         0.39581E-20         0.00000E+00
    0.97717E-08         0.79162E-20         0.00000E+00
    0.97717E-08         0.00000E+00         0.00000E+00
    0.97717E-08        -0.12107E-19         0.00000E+00
    0.97717E-08        -0.18161E-19         0.00000E+00
    0.97717E-08        -0.12573E-19         0.00000E+00
    0.97717E-08        -0.16298E-20         0.00000E+00
    0.10060E-07        -0.93132E-20         0.00000E+00
    0.10060E-07        -0.93132E-21         0.00000E+00
    0.10060E-07        -0.46566E-20         0.00000E+00
    0.10060E-07        -0.15367E-19         0.00000E+00
    0.10060E-07        -0.18626E-20         0.00000E+00
    0.10060E-07         0.10710E-19         0.00000E+00
    0.10060E-07         0.14435E-19         0.00000E+00
    0.10060E-07         0.13504E-19         0.00000E+00
    0.10060E-07        -0.27940E-20         0.00000E+00
    0.10060E-07         0.00000E+00         0.00000E+00
    0.10060E-07        -0.74506E-20         0.00000E+00
    0.10060E-07        -0.65193E-20         0.00000E+00
    0.10060E-07        -0.14435E-19         0.00000E+00
    0.10060E-07        -0.10710E-19         0.00000E+00
    0.10060E-07        -0.17695E-19         0.00000E+00
    0.10060E-07        -0.88476E-20         0.00000E+00
    0.10060E-07        -0.12573E-19         0.00000E+00
    0.10060E-07         0.46566E-21         0.00000E+00
    0.10060E-07        -0.69849E-20         0.00000E+00
    0.10060E-07        -0.69849E-20         0.00000E+00
    0.10060E-07         0.13970E-20         0.00000E+00
    0.10060E-07         0.14901E-19         0.00000E+00
    0.10060E-07         0.13970E-19         0.00000E+00
    0.10060E-07         0.10245E-19         0.00000E+00
    0.10060E-07         0.16298E-19         0.00000E+00
    0.10060E-07         0.20955E-19         0.00000E+00
    0.10060E-07         0.21420E-19         0.00000E+00
    0.10060E-07         0.13504E-19         0.00000E+00
    0.10060E-07         0.18626E-19         0.00000E+00
    0.10060E-07         0.12340E-19         0.00000E+00
    0.10060E-07         0.18626E-19         0.00000E+00
    0.10060E-07         0.10245E-19         0.00000E+00
    0.10060E-07         0.18626E-20         0.00000E+00
    0.10060E-07         0.18626E-20         0.00000E+00
    0.10060E-07         0.93132E-21         0.00000E+00
    0.10060E-07         0.22585E-19         0.00000E+00
    0.10060E-07         0.14203E-19         0.00000E+00
    0.10060E-07         0.20955E-19         0.00000E+00
    0.10060E-07         0.17695E-19         0.00000E+00
    0.10060E-07         0.10245E-19         0.00000E+00
    0.10060E-07         0.20023E-19         0.00000E+00
    0.10060E-07         0.16764E-19         0.00000E+00
    0.10060E-07         0.88476E-20         0.00000E+00
    0.10060E-07         0.12340E-19         0.00000E+00
    0.10060E-07         0.72177E-20         0.00000E+00
    0.10060E-07        -0.46566E-21         0.00000E+00
    0.10060E-07         0.69849E-20         0.00000E+00
    0.10060E-07         0.79162E-20         0.00000E+00
    0.10060E-07         0.10710E-19         0.00000E+00
    0.10060E-07         0.93132E-21         0.00000E+00
    0.10441E-07        -0.51223E-20         0.00000E+00
    0.10441E-07        -0.27008E-19         0.00000E+00
    0.10441E-07         0.00000E+00         0.00000E+00
    0.10441E-07        -0.93132E-21         0.00000E+00
    0.10441E-07         0.55879E-20         0.00000E+00
    0.10441E-07         0.18161E-19         0.00000E+00
    0.10441E-07         0.15367E-19         0.00000E+00
    0.10441E-07         0.88476E-20         0.00000E+00
    0.10441E-07        -0.23283E-20         0.00000E+00
    0.10441E-07        -0.86147E-20         0.00000E+00
    0.10441E-07        -0.16531E-19         0.00000E+00
    0.10441E-07        -0.12573E-19         0.00000E+00
    0.10441E-07        -0.25844E-19         0.00000E+00
    0.10441E-07        -0.18859E-19         0.00000E+00
    0.10441E-07        -0.12107E-19         0.00000E+00
    0.10441E-07         0.13970E-20         0.00000E+00
    0.10441E-07         0.13970E-20         0.00000E+00
    0.10441E-07         0.88476E-20         0.00000E+00
    0.10441E-07         0.37253E-20         0.00000E+00
    0.10441E-07         0.18626E-20         0.00000E+00
    0.10441E-07         0.19325E-19         0.00000E+00
    0.10441E-07         0.21886E-19         0.00000E+00
    0.10441E-07         0.13039E-19         0.00000E+00
    0.10441E-07         0.93132E-20         0.00000E+00
    0.10441E-07         0.97789E-20         0.00000E+00
    0.10441E-07         0.18626E-19         0.00000E+00
    0.10441E-07         0.17229E-19         0.00000E+00
    0.10441E-07         0.20489E-19         0.00000E+00
    0.10441E-07         0.23749E-19         0.00000E+00
    0.10441E-07         0.32596E-20         0.00000E+00
    0.10441E-07         0.23283E-20         0.00000E+00
    0.10441E-07         0.32596E-20         0.00000E+00
    0.10441E-07        -0.37253E-20         0.00000E+00
    0.10441E-07         0.69849E-20         0.00000E+00
    0.10441E-07         0.88476E-20         0.00000E+00
    0.10441E-07         0.23982E-19         0.00000E+00
    0.10441E-07         0.79162E-20         0.00000E+00
    0.10441E-07         0.79162E-20         0.00000E+00
    0.10441E-07         0.24214E-19         0.00000E+00
    0.10441E-07         0.25611E-19         0.00000E+00
    0.10441E-07         0.21886E-19         0.00000E+00
    0.10441E-07         0.21420E-19         0.00000E+00
    0.10441E-07         0.23050E-19         0.00000E+00
    0.10441E-07         0.23749E-19         0.00000E+00
    0.10441E-07         0.10012E-19         0.00000E+00
    0.10441E-07         0.10477E-19         0.00000E+00
    0.10441E-07         0.14901E-19         0.00000E+00
    0.10441E-07         0.24680E-19         0.00000E+00
    0.10441E-07         0.10245E-19         0.00000E+00
    0.10441E-07        -0.23283E-20         0.00000E+00
    0.10917E-07         0.23283E-20         0.00000E+00
    0.10917E-07         0.88476E-20         0.00000E+00
    0.10917E-07         0.69849E-20         0.00000E+00
    0.10917E-07         0.13039E-19         0.00000E+00
    0.10917E-07         0.95461E-20         0.00000E+00
    0.10917E-07         0.14668E-19         0.00000E+00
    0.10917E-07         0.93132E-20         0.00000E+00
    0.10917E-07        -0.18626E-20         0.00000E+00
    0.10917E-07         0.93132E-21         0.00000E+00
    0.10917E-07        -0.14668E-19         0.00000E+00
    0.10917E-07        -0.17462E-19         0.00000E+00
    0.10917E-07        -0.12573E-19         0.00000E+00
    0.10917E-07        -0.88476E-20         0.00000E+00
    0.10917E-07        -0.76834E-20         0.00000E+00
    0.10917E-07         0.32596E-20         0.00000E+00
    0.10917E-07         0.88476E-20         0.00000E+00
    0.10917E-07         0.93132E-21         0.00000E+00
    0.10917E-07         0.39581E-20         0.00000E+00
    0.10917E-07         0.23749E-19         0.00000E+00
    0.10917E-07         0.21420E-19         0.00000E+00
    0.10917E-07         0.17695E-19         0.00000E+00
    0.10917E-07         0.19558E-19         0.00000E+00
    0.10917E-07         0.12107E-19         0.00000E+00
    0.10917E-07         0.12107E-19         0.00000E+00
    0.10917E-07         0.13504E-19         0.00000E+00
    0.10917E-07         0.12573E-19         0.00000E+00
    0.10917E-07         0.11176E-19         0.00000E+00
    0.10917E-07         0.11642E-19         0.00000E+00
    0.10917E-07         0.32596E-20         0.00000E+00
    0.10917E-07        -0.34925E-20         0.00000E+00
    0.10917E-07         0.93132E-20         0.00000E+00
    0.10917E-07         0.14901E-19         0.00000E+00
    0.10917E-07         0.74506E-20         0.00000E+00
    0.10917E-07        -0.27940E-20         0.00000E+00
    0.10917E-07         0.93132E-20         0.00000E+00
    0.10917E-07         0.83819E-20         0.00000E+00
    0.10917E-07         0.86147E-20         0.00000E+00
    0.10917E-07         0.97789E-20         0.00000E+00
    0.10917E-07         0.35390E-19         0.00000E+00
    0.10917E-07         0.35856E-19         0.00000E+00
    0.10917E-07         0.31665E-19         0.00000E+00
    0.10917E-07         0.20256E-19         0.00000E+00
    0.10917E-07         0.30966E-19         0.00000E+00
    0.10917E-07         0.22352E-19         0.00000E+00
    0.10917E-07         0.17695E-19         0.00000E+00
    0.10917E-07         0.21653E-19         0.00000E+00
    0.10917E-07         0.51223E-20         0.00000E+00
    0.10917E-07         0.74506E-20         0.00000E+00
    0.10917E-07        -0.32596E-20         0.00000E+00
    0.10917E-07        -0.41910E-20         0.00000E+00
    0.11492E-07         0.76834E-20         0.00000E+00
    0.11492E-07         0.13039E-19         0.00000E+00
    0.11492E-07         0.97789E-20         0.00000E+00
    0.11492E-07         0.18626E-19         0.00000E+00
    0.11492E-07         0.17229E-19         0.00000E+00
    0.11492E-07         0.65193E-20         0.00000E+00
    0.11492E-07        -0.46566E-21         0.00000E+00
    0.11492E-07        -0.69849E-20         0.00000E+00
    0.11492E-07        -0.60536E-20         0.00000E+00
    0.11492E-07        -0.51223E-20         0.00000E+00
    0.11492E-07         0.00000E+00         0.00000E+00
    0.11492E-07         0.12107E-19         0.00000E+00
    0.11492E-07         0.17229E-19         0.00000E+00
    0.11492E-07         0.15367E-19         0.00000E+00
    0.11492E-07         0.11176E-19         0.00000E+00
    0.11492E-07         0.55879E-20         0.00000E+00
    0.11492E-07         0.60536E-20         0.00000E+00
    0.11492E-07         0.19791E-19         0.00000E+00
    0.11492E-07         0.11176E-19         0.00000E+00
    0.11492E-07         0.22119E-19         0.00000E+00
    0.11492E-07         0.21420E-19         0.00000E+00
    0.11492E-07         0.10245E-19         0.00000E+00
    0.11492E-07        -0.10245E-19         0.00000E+00
    0.11492E-07         0.13504E-19         0.00000E+00
    0.11492E-07         0.20489E-19         0.00000E+00
    0.11492E-07         0.97789E-20         0.00000E+00
    0.11492E-07         0.93132E-20         0.00000E+00
    0.11492E-07        -0.97789E-20         0.00000E+00
    0.11492E-07        -0.88476E-20         0.00000E+00
    0.11492E-07         0.14435E-19         0.00000E+00
    0.11492E-07         0.19092E-19         0.00000E+00
    0.11492E-07         0.00000E+00         0.00000E+00
    0.11492E-07         0.18626E-20         0.00000E+00
    0.11492E-07         0.32596E-20         0.00000E+00
    0.11492E-07         0.19558E-19         0.00000E+00
    0.11492E-07         0.10245E-19         0.00000E+00
    0.11492E-07         0.27940E-20         0.00000E+00
    0.11492E-07         0.93132E-20         0.00000E+00
    0.11492E-07         0.12573E-19         0.00000E+00
    0.11492E-07         0.29337E-19         0.00000E+00
    0.11492E-07         0.27474E-19         0.00000E+00
    0.11492E-07         0.35623E-19         0.00000E+00
    0.11492E-07         0.21886E-19         0.00000E+00
    0.11492E-07         0.11176E-19         0.00000E+00
    0.11492E-07         0.53551E-20         0.00000E+00
    0.11492E-07         0.10245E-19         0.00000E+00
    0.11492E-07        -0.93132E-21         0.00000E+00
    0.11492E-07         0.51223E-20         0.00000E+00
    0.11492E-07         0.11409E-19         0.00000E+00
    0.11492E-07        -0.27940E-20         0.00000E+00
    0.12167E-07        -0.51223E-20         0.00000E+00
    0.12167E-07        -0.81491E-20         0.00000E+00
    0.12167E-07        -0.27940E-20         0.00000E+00
    0.12167E-07         0.10245E-19         0.00000E+00
    0.12167E-07         0.10245E-19         0.00000E+00
    0.12167E-07        -0.60536E-20         0.00000E+00
    0.12167E-07        -0.23283E-20         0.00000E+00
    0.12167E-07        -0.20955E-20         0.00000E+00
    0.12167E-07        -0.72177E-20         0.00000E+00
    0.12167E-07        -0.46566E-20         0.00000E+00
    0.12167E-07         0.23283E-20         0.00000E+00
    0.12167E-07         0.97789E-20         0.00000E+00
    0.12167E-07         0.10245E-19         0.00000E+00
    0.12167E-07         0.23749E-19         0.00000E+00
    0.12167E-07         0.19092E-19         0.00000E+00
    0.12167E-07         0.19558E-19         0.00000E+00
    0.12167E-07         0.13504E-19         0.00000E+00
    0.12167E-07         0.18161E-19         0.00000E+00
    0.12167E-07         0.16531E-19         0.00000E+00
    0.12167E-07         0.23516E-19         0.00000E+00
    0.12167E-07         0.20955E-19         0.00000E+00
    0.12167E-07         0.19092E-19         0.00000E+00
    0.12167E-07        -0.93132E-21         0.00000E+00
    0.12167E-07         0.65193E-20         0.00000E+00
    0.12167E-07         0.16298E-19         0.00000E+00
    0.12167E-07         0.15367E-19         0.00000E+00
    0.12167E-07         0.19092E-19         0.00000E+00
    0.12167E-07        -0.18626E-20         0.00000E+00
    0.12167E-07         0.18626E-20         0.00000E+00
    0.12167E-07        -0.18626E-20         0.00000E+00
    0.12167E-07         0.18626E-20         0.00000E+00
    0.12167E-07         0.46566E-20         0.00000E+00
    0.12167E-07         0.11176E-19         0.00000E+00
    0.12167E-07         0.12573E-19         0.00000E+00
    0.12167E-07         0.13504E-19         0.00000E+00
    0.12167E-07         0.11642E-19         0.00000E+00
    0.12167E-07        -0.83819E-20         0.00000E+00
    0.12167E-07        -0.93132E-20         0.00000E+00
    0.12167E-07         0.46566E-21         0.00000E+00
    0.12167E-07         0.12573E-19         0.00000E+00
    0.12167E-07         0.12107E-19         0.00000E+00
    0.12167E-07         0.13970E-19         0.00000E+00
    0.12167E-07         0.10710E-19         0.00000E+00
    0.12167E-07         0.14435E-19         0.00000E+00
    0.12167E-07         0.93132E-21         0.00000E+00
    0.12167E-07        -0.13970E-20         0.00000E+00
    0.12167E-07        -0.18626E-20         0.00000E+00
    0.12167E-07        -0.69849E-21         0.00000E+00
    0.12167E-07         0.51223E-20         0.00000E+00
    0.12167E-07         0.27940E-20         0.00000E+00
    0.12947E-07        -0.18626E-20         0.00000E+00
    0.12947E-07         0.51223E-20         0.00000E+00
    0.12947E-07        -0.27940E-20         0.00000E+00
    0.12947E-07        -0.37253E-20         0.00000E+00
    0.12947E-07        -0.41910E-20         0.00000E+00
    0.12947E-07        -0.18626E-19         0.00000E+00
    0.12947E-07        -0.46566E-20         0.00000E+00
    0.12947E-07        -0.32596E-20         0.00000E+00
    0.12947E-07         0.60536E-20         0.00000E+00
    0.12947E-07         0.13970E-20         0.00000E+00
    0.12947E-07         0.37253E-20         0.00000E+00
    0.12947E-07         0.69849E-20         0.00000E+00
    0.12947E-07         0.46566E-20         0.00000E+00
    0.12947E-07         0.97789E-20         0.00000E+00
    0.12947E-07         0.13970E-19         0.00000E+00
    0.12947E-07         0.16764E-19         0.00000E+00
    0.12947E-07         0.10710E-19         0.00000E+00
    0.12947E-07         0.20722E-19         0.00000E+00
    0.12947E-07         0.27008E-19         0.00000E+00
    0.12947E-07         0.20256E-19         0.00000E+00
    0.12947E-07         0.13504E-19         0.00000E+00
    0.12947E-07         0.23283E-19         0.00000E+00
    0.12947E-07         0.22352E-19         0.00000E+00
    0.12947E-07         0.13504E-19         0.00000E+00
    0.12947E-07         0.16764E-19         0.00000E+00
    0.12947E-07         0.41910E-20         0.00000E+00
    0.12947E-07         0.93132E-20         0.00000E+00
    0.12947E-07         0.23283E-20         0.00000E+00
    0.12947E-07         0.25611E-20         0.00000E+00
    0.12947E-07         0.69849E-21         0.00000E+00
    0.12947E-07         0.16298E-20         0.00000E+00
    0.12947E-07         0.14901E-19         0.00000E+00
    0.12947E-07         0.10245E-19         0.00000E+00
    0.12947E-07         0.46566E-20         0.00000E+00
    0.12947E-07        -0.16764E-19         0.00000E+00
    0.12947E-07        -0.14435E-19         0.00000E+00
    0.12947E-07        -0.83819E-20         0.00000E+00
    0.12947E-07        -0.69849E-20         0.00000E+00
    0.12947E-07        -0.13970E-20         0.00000E+00
    0.12947E-07        -0.37253E-20         0.00000E+00
    0.12947E-07         0.46566E-21         0.00000E+00
    0.12947E-07         0.51223E-20         0.00000E+00
    0.12947E-07         0.93132E-20         0.00000E+00
    0.12947E-07         0.16764E-19         0.00000E+00
    0.12947E-07        -0.27940E-20         0.00000E+00
    0.12947E-07        -0.69849E-20         0.00000E+00
    0.12947E-07        -0.79162E-20         0.00000E+00
    0.12947E-07        -0.93132E-20         0.00000E+00
    0.12947E-07        -0.74506E-20         0.00000E+00
    0.12947E-07        -0.13970E-20         0.00000E+00
    0.13834E-07         0.23283E-20         0.00000E+00
    0.13834E-07        -0.13039E-19         0.00000E+00
    0.13834E-07        -0.12573E-19         0.00000E+00
    0.13834E-07        -0.16065E-19         0.00000E+00
    0.13834E-07        -0.10710E-19         0.00000E+00
    0.13834E-07        -0.18626E-20         0.00000E+00
    0.13834E-07         0.32596E-20         0.00000E+00
    0.13834E-07        -0.51223E-20         0.00000E+00
    0.13834E-07         0.15367E-19         0.00000E+00
    0.13834E-07         0.18626E-19         0.00000E+00
    0.13834E-07         0.12107E-19         0.00000E+00
    0.13834E-07         0.14435E-19         0.00000E+00
    0.13834E-07         0.46566E-21         0.00000E+00
    0.13834E-07        -0.74506E-20         0.00000E+00
    0.13834E-07         0.55879E-20         0.00000E+00
    0.13834E-07         0.23283E-20         0.00000E+00
    0.13834E-07         0.15367E-19         0.00000E+00
    0.13834E-07         0.10245E-19         0.00000E+00
    0.13834E-07         0.10710E-19         0.00000E+00
    0.13834E-07         0.55879E-20         0.00000E+00
    0.13834E-07         0.51223E-20         0.00000E+00
    0.13834E-07         0.13039E-19         0.00000E+00
    0.13834E-07         0.20955E-19         0.00000E+00
    0.13834E-07         0.18161E-19         0.00000E+00
    0.13834E-07         0.19558E-19         0.00000E+00
    0.13834E-07         0.10710E-19         0.00000E+00
    0.13834E-07        -0.23283E-20         0.00000E+00
    0.13834E-07         0.18626E-20         0.00000E+00
    0.13834E-07         0.23283E-20         0.00000E+00
    0.13834E-07         0.60536E-20         0.00000E+00
    0.13834E-07        -0.27940E-20         0.00000E+00
    0.13834E-07        -0.55879E-20         0.00000E+00
    0.13834E-07        -0.93132E-20         0.00000E+00
    0.13834E-07        -0.41910E-20         0.00000E+00
    0.13834E-07         0.55879E-20         0.00000E+00
    0.13834E-07        -0.11642E-19         0.00000E+00
    0.13834E-07        -0.11176E-19         0.00000E+00
    0.13834E-07         0.93132E-21         0.00000E+00
    0.13834E-07        -0.13970E-19         0.00000E+00
    0.13834E-07        -0.79162E-20         0.00000E+00
    0.13834E-07         0.32596E-20         0.00000E+00
    0.13834E-07         0.88476E-20         0.00000E+00
    0.13834E-07         0.46566E-20         0.00000E+00
    0.13834E-07        -0.23283E-20         0.00000E+00
    0.13834E-07         0.32596E-20         0.00000E+00
    0.13834E-07         0.18626E-20         0.00000E+00
    0.13834E-07        -0.12340E-19         0.00000E+00
    0.13834E-07        -0.41910E-20         0.00000E+00
    0.13834E-07        -0.23283E-20         0.00000E+00
    0.13834E-07        -0.27940E-20         0.00000E+00
    0.14832E-07        -0.62864E-20         0.00000E+00
    0.14832E-07        -0.16298E-20         0.00000E+00
    0.14832E-07        -0.12806E-19         0.00000E+00
    0.14832E-07        -0.10710E-19         0.00000E+00
    0.14832E-07        -0.58208E-20         0.00000E+00
    0.14832E-07        -0.55879E-20         0.00000E+00
    0.14832E-07        -0.13970E-20         0.00000E+00
    0.14832E-07        -0.23283E-21         0.00000E+00
    0.14832E-07        -0.14435E-19         0.00000E+00
    0.14832E-07        -0.60536E-20         0.00000E+00
    0.14832E-07         0.41910E-20         0.00000E+00
    0.14832E-07         0.11642E-20         0.00000E+00
    0.14832E-07         0.93132E-21         0.00000E+00
    0.14832E-07         0.72177E-20         0.00000E+00
    0.14832E-07         0.32596E-20         0.00000E+00
    0.14832E-07         0.11176E-19         0.00000E+00
    0.14832E-07         0.55879E-20         0.00000E+00
    0.14832E-07         0.13970E-20         0.00000E+00
    0.14832E-07         0.12107E-19         0.00000E+00
    0.14832E-07         0.97789E-20         0.00000E+00
    0.14832E-07         0.00000E+00         0.00000E+00
    0.14832E-07         0.00000E+00         0.00000E+00
    0.14832E-07         0.23283E-20         0.00000E+00
    0.14832E-07         0.11642E-19         0.00000E+00
    0.14832E-07         0.15367E-19         0.00000E+00
    0.14832E-07         0.19558E-19         0.00000E+00
    0.14832E-07         0.93132E-21         0.00000E+00
    0.14832E-07        -0.37253E-20         0.00000E+00
    0.14832E-07         0.18626E-20         0.00000E+00
    0.14832E-07        -0.60536E-20         0.00000E+00
    0.14832E-07        -0.74506E-20         0.00000E+00
    0.14832E-07        -0.60536E-20         0.00000E+00
    0.14832E-07        -0.12340E-19         0.00000E+00
    0.14832E-07        -0.10943E-19         0.00000E+00
    0.14832E-07         0.53551E-20         0.00000E+00
    0.14832E-07         0.32596E-20         0.00000E+00
    0.14832E-07         0.65193E-20         0.00000E+00
    0.14832E-07         0.27940E-20         0.00000E+00
    0.14832E-07         0.13970E-20         0.00000E+00
    0.14832E-07        -0.32596E-20         0.00000E+00
    0.14832E-07        -0.27940E-20         0.00000E+00
    0.14832E-07        -0.41910E-20         0.00000E+00
    0.14832E-07         0.27940E-20         0.00000E+00
    0.14832E-07        -0.23050E-19         0.00000E+00
    0.14832E-07        -0.62864E-20         0.00000E+00
    0.14832E-07        -0.74506E-20         0.00000E+00
    0.14832E-07        -0.14901E-19         0.00000E+00
    0.14832E-07        -0.65193E-20         0.00000E+00
    0.14832E-07        -0.27940E-20         0.00000E+00
    0.14832E-07        -0.23283E-20         0.00000E+00
    0.15946E-07        -0.46566E-21         0.00000E+00
    0.15946E-07         0.11176E-19         0.00000E+00
    0.15946E-07         0.30268E-20         0.00000E+00
    0.15946E-07         0.13970E-20         0.00000E+00
    0.15946E-07        -0.10245E-19         0.00000E+00
    0.15946E-07        -0.21886E-19         0.00000E+00
    0.15946E-07        -0.19558E-19         0.00000E+00
    0.15946E-07        -0.11176E-19         0.00000E+00
    0.15946E-07        -0.79162E-20         0.00000E+00
    0.15946E-07        -0.12573E-19         0.00000E+00
    0.15946E-07        -0.10710E-19         0.00000E+00
    0.15946E-07        -0.10012E-19         0.00000E+00
    0.15946E-07        -0.46566E-20         0.00000E+00
    0.15946E-07         0.32596E-20         0.00000E+00
    0.15946E-07        -0.69849E-21         0.00000E+00
    0.15946E-07         0.67521E-20         0.00000E+00
    0.15946E-07        -0.23283E-20         0.00000E+00
    0.15946E-07        -0.12573E-19         0.00000E+00
    0.15946E-07         0.79162E-20         0.00000E+00
    0.15946E-07         0.93132E-20         0.00000E+00
    0.15946E-07         0.16298E-19         0.00000E+00
    0.15946E-07         0.30268E-20         0.00000E+00
    0.15946E-07         0.00000E+00         0.00000E+00
    0.15946E-07         0.12573E-19         0.00000E+00
    0.15946E-07         0.46566E-20         0.00000E+00
    0.15946E-07         0.20722E-19         0.00000E+00
    0.15946E-07         0.37253E-20         0.00000E+00
    0.15946E-07         0.93132E-20         0.00000E+00
    0.15946E-07         0.79162E-20         0.00000E+00
    0.15946E-07         0.10012E-19         0.00000E+00
    0.15946E-07         0.25611E-20         0.00000E+00
    0.15946E-07        -0.65193E-20         0.00000E+00
    0.15946E-07        -0.88476E-20         0.00000E+00
    0.15946E-07        -0.51223E-20         0.00000E+00
    0.15946E-07        -0.23283E-20         0.00000E+00
    0.15946E-07         0.39581E-20         0.00000E+00
    0.15946E-07         0.13970E-20         0.00000E+00
    0.15946E-07        -0.55879E-20         0.00000E+00
    0.15946E-07         0.46566E-20         0.00000E+00
    0.15946E-07        -0.27940E-20         0.00000E+00
    0.15946E-07        -0.39581E-20         0.00000E+00
    0.15946E-07        -0.97789E-20         0.00000E+00
    0.15946E-07        -0.60536E-20         0.00000E+00
    0.15946E-07        -0.28173E-19         0.00000E+00
    0.15946E-07        -0.21653E-19         0.00000E+00
    0.15946E-07        -0.21420E-19         0.00000E+00
    0.15946E-07        -0.88476E-20         0.00000E+00
    0.15946E-07        -0.18626E-20         0.00000E+00
    0.15946E-07        -0.58208E-20         0.00000E+00
    0.15946E-07        -0.41910E-20         0.00000E+00
    0.17180E-07        -0.65193E-20         0.00000E+00
    0.17180E-07        -0.88476E-20         0.00000E+00
    0.17180E-07        -0.18626E-20         0.00000E+00
    0.17180E-07        -0.23283E-20         0.00000E+00
    0.17180E-07        -0.69849E-20         0.00000E+00
    0.17180E-07        -0.23283E-20         0.00000E+00
    0.17180E-07        -0.13039E-19         0.00000E+00
    0.17180E-07        -0.81491E-20         0.00000E+00
    0.17180E-07         0.18626E-20         0.00000E+00
    0.17180E-07         0.32596E-20         0.00000E+00
    0.17180E-07        -0.13970E-20         0.00000E+00
    0.17180E-07         0.37253E-20         0.00000E+00
    0.17180E-07        -0.79162E-20         0.00000E+00
    0.17180E-07        -0.10245E-19         0.00000E+00
    0.17180E-07        -0.27940E-20         0.00000E+00
    0.17180E-07        -0.14901E-19         0.00000E+00
    0.17180E-07        -0.11642E-19         0.00000E+00
    0.17180E-07        -0.15367E-19         0.00000E+00
    0.17180E-07        -0.10710E-19         0.00000E+00
    0.17180E-07        -0.16298E-20         0.00000E+00
    0.17180E-07         0.17229E-19         0.00000E+00
    0.17180E-07         0.60536E-20         0.00000E+00
    0.17180E-07         0.74506E-20         0.00000E+00
    0.17180E-07         0.97789E-20         0.00000E+00
    0.17180E-07         0.16065E-19         0.00000E+00
    0.17180E-07         0.15134E-19         0.00000E+00
    0.17180E-07         0.74506E-20         0.00000E+00
    0.17180E-07         0.13504E-19         0.00000E+00
    0.17180E-07         0.13039E-19         0.00000E+00
    0.17180E-07         0.18626E-19         0.00000E+00
    0.17180E-07         0.55879E-20         0.00000E+00
    0.17180E-07         0.18626E-20         0.00000E+00
    0.17180E-07        -0.11409E-19         0.00000E+00
    0.17180E-07         0.93132E-21         0.00000E+00
    0.17180E-07        -0.23283E-20         0.00000E+00
    0.17180E-07        -0.18626E-20         0.00000E+00
    0.17180E-07        -0.53551E-20         0.00000E+00
    0.17180E-07        -0.18394E-19         0.00000E+00
    0.17180E-07        -0.74506E-20         0.00000E+00
    0.17180E-07        -0.27940E-20         0.00000E+00
    0.17180E-07        -0.37253E-20         0.00000E+00
    0.17180E-07        -0.14435E-19         0.00000E+00
    0.17180E-07        -0.22352E-19         0.00000E+00
    0.17180E-07        -0.24680E-19         0.00000E+00
    0.17180E-07        -0.17695E-19         0.00000E+00
    0.17180E-07        -0.24680E-19         0.00000E+00
    0.17180E-07        -0.10710E-19         0.00000E+00
    0.17180E-07        -0.79162E-20         0.00000E+00
    0.17180E-07         0.23283E-20         0.00000E+00
    0.17180E-07         0.27940E-20         0.00000E+00
    0.18537E-07         0.46566E-21         0.00000E+00
    0.18537E-07         0.32596E-20         0.00000E+00
    0.18537E-07         0.00000E+00         0.00000E+00
    0.18537E-07        -0.86147E-20         0.00000E+00
    0.18537E-07        -0.11176E-19         0.00000E+00
    0.18537E-07         0.39581E-20         0.00000E+00
    0.18537E-07         0.10477E-19         0.00000E+00
    0.18537E-07         0.81491E-20         0.00000E+00
    0.18537E-07         0.46566E-20         0.00000E+00
    0.18537E-07         0.93132E-21         0.00000E+00
    0.18537E-07         0.18626E-20         0.00000E+00
    0.18537E-07         0.13504E-19         0.00000E+00
    0.18537E-07         0.51223E-20         0.00000E+00
    0.18537E-07         0.69849E-21         0.00000E+00
    0.18537E-07        -0.62864E-20         0.00000E+00
    0.18537E-07        -0.14435E-19         0.00000E+00
    0.18537E-07        -0.46566E-20         0.00000E+00
    0.18537E-07        -0.18626E-20         0.00000E+00
    0.18537E-07         0.69849E-20         0.00000E+00
    0.18537E-07        -0.44238E-20         0.00000E+00
    0.18537E-07         0.00000E+00         0.00000E+00
    0.18537E-07        -0.41910E-20         0.00000E+00
    0.18537E-07         0.25611E-20         0.00000E+00
    0.18537E-07         0.41910E-20         0.00000E+00
    0.18537E-07         0.97789E-20         0.00000E+00
    0.18537E-07        -0.32596E-20         0.00000E+00
    0.18537E-07        -0.46566E-20         0.00000E+00
    0.18537E-07        -0.10943E-19         0.00000E+00
    0.18537E-07        -0.46566E-20         0.00000E+00
    0.18537E-07         0.46566E-20         0.00000E+00
    0.18537E-07         0.93132E-20         0.00000E+00
    0.18537E-07         0.10710E-19         0.00000E+00
    0.18537E-07         0.10245E-19         0.00000E+00
    0.18537E-07        -0.95461E-20         0.00000E+00
    0.18537E-07        -0.55879E-20         0.00000E+00
    0.18537E-07        -0.65193E-20         0.00000E+00
    0.18537E-07         0.69849E-21         0.00000E+00
    0.18537E-07        -0.55879E-20         0.00000E+00
    0.18537E-07        -0.18161E-19         0.00000E+00
    0.18537E-07        -0.13504E-19         0.00000E+00
    0.18537E-07        -0.46566E-20         0.00000E+00
    0.18537E-07        -0.12573E-19         0.00000E+00
    0.18537E-07        -0.10943E-19         0.00000E+00
    0.18537E-07        -0.24214E-19         0.00000E+00
    0.18537E-07        -0.10710E-19         0.00000E+00
    0.18537E-07        -0.11176E-19         0.00000E+00
    0.18537E-07        -0.95461E-20         0.00000E+00
    0.18537E-07        -0.17462E-19         0.00000E+00
    0.18537E-07        -0.97789E-20         0.00000E+00
    0.18537E-07         0.46566E-21         0.00000E+00
    0.20023E-07         0.51223E-20         0.00000E+00
    0.20023E-07         0.12107E-19         0.00000E+00
    0.20023E-07         0.46566E-21         0.00000E+00
    0.20023E-07        -0.37253E-20         0.00000E+00
    0.20023E-07        -0.32596E-20         0.00000E+00
    0.20023E-07         0.60536E-20         0.00000E+00
    0.20023E-07         0.14435E-19         0.00000E+00
    0.20023E-07         0.16298E-19         0.00000E+00
    0.20023E-07         0.97789E-20         0.00000E+00
    0.20023E-07         0.18161E-19         0.00000E+00
    0.20023E-07        -0.23283E-20         0.00000E+00
    0.20023E-07        -0.83819E-20         0.00000E+00
    0.20023E-07         0.32596E-20         0.00000E+00
    0.20023E-07         0.41910E-20         0.00000E+00
    0.20023E-07         0.60536E-20         0.00000E+00
    0.20023E-07        -0.13970E-20         0.00000E+00
    0.20023E-07        -0.27940E-20         0.00000E+00
    0.20023E-07         0.00000E+00         0.00000E+00
    0.20023E-07         0.11176E-19         0.00000E+00
    0.20023E-07        -0.23283E-20         0.00000E+00
    0.20023E-07         0.74506E-20         0.00000E+00
    0.20023E-07        -0.37253E-20         0.00000E+00
    0.20023E-07         0.93132E-21         0.00000E+00
    0.20023E-07         0.46566E-21         0.00000E+00
    0.20023E-07        -0.12573E-19         0.00000E+00
    0.20023E-07        -0.83819E-20         0.00000E+00
    0.20023E-07        -0.22817E-19         0.00000E+00
    0.20023E-07        -0.18161E-19         0.00000E+00
    0.20023E-07        -0.15367E-19         0.00000E+00
    0.20023E-07         0.46566E-21         0.00000E+00
    0.20023E-07         0.97789E-20         0.00000E+00
    0.20023E-07         0.93132E-20         0.00000E+00
    0.20023E-07         0.18859E-19         0.00000E+00
    0.20023E-07         0.18626E-20         0.00000E+00
    0.20023E-07         0.72177E-20         0.00000E+00
    0.20023E-07        -0.55879E-20         0.00000E+00
    0.20023E-07         0.00000E+00         0.00000E+00
    0.20023E-07        -0.93132E-21         0.00000E+00
    0.20023E-07        -0.97789E-20         0.00000E+00
    0.20023E-07        -0.20955E-19         0.00000E+00
    0.20023E-07        -0.88476E-20         0.00000E+00
    0.20023E-07        -0.97789E-20         0.00000E+00
    0.20023E-07        -0.12107E-19         0.00000E+00
    0.20023E-07        -0.11874E-19         0.00000E+00
    0.20023E-07        -0.51223E-20         0.00000E+00
    0.20023E-07        -0.23283E-20         0.00000E+00
    0.20023E-07        -0.41910E-20         0.00000E+00
    0.20023E-07        -0.27940E-20         0.00000E+00
    0.20023E-07        -0.65193E-20         0.00000E+00
    0.20023E-07         0.46566E-21         0.00000E+00
    0.21641E-07         0.51223E-20         0.00000E+00
    0.21641E-07         0.93132E-21         0.00000E+00
    0.21641E-07         0.69849E-20         0.00000E+00
    0.21641E-07        -0.18626E-20         0.00000E+00
    0.21641E-07         0.18626E-20         0.00000E+00
    0.21641E-07         0.65193E-20         0.00000E+00
    0.21641E-07         0.37253E-20         0.00000E+00
    0.21641E-07        -0.18626E-20         0.00000E+00
    0.21641E-07         0.32596E-20         0.00000E+00
    0.21641E-07         0.58208E-20         0.00000E+00
    0.21641E-07        -0.93132E-21         0.00000E+00
    0.21641E-07         0.46566E-21         0.00000E+00
    0.21641E-07         0.27940E-20         0.00000E+00
    0.21641E-07         0.23283E-20         0.00000E+00
    0.21641E-07         0.79162E-20         0.00000E+00
    0.21641E-07        -0.13970E-20         0.00000E+00
    0.21641E-07        -0.37253E-20         0.00000E+00
    0.21641E-07         0.62864E-20         0.00000E+00
    0.21641E-07         0.37253E-20         0.00000E+00
    0.21641E-07         0.46566E-21         0.00000E+00
    0.21641E-07         0.27940E-20         0.00000E+00
    0.21641E-07         0.15367E-19         0.00000E+00
    0.21641E-07         0.13970E-20         0.00000E+00
    0.21641E-07         0.46566E-21         0.00000E+00
    0.21641E-07        -0.88476E-20         0.00000E+00
    0.21641E-07        -0.86147E-20         0.00000E+00
    0.21641E-07        -0.16298E-19         0.00000E+00
    0.21641E-07        -0.69849E-20         0.00000E+00
    0.21641E-07         0.00000E+00         0.00000E+00
    0.21641E-07         0.41910E-20         0.00000E+00
    0.21641E-07         0.74506E-20         0.00000E+00
    0.21641E-07         0.30268E-20         0.00000E+00
    0.21641E-07         0.88476E-20         0.00000E+00
    0.21641E-07         0.51223E-20         0.00000E+00
    0.21641E-07         0.46566E-20         0.00000E+00
    0.21641E-07         0.23283E-20         0.00000E+00
    0.21641E-07         0.27940E-20         0.00000E+00
    0.21641E-07        -0.74506E-20         0.00000E+00
    0.21641E-07        -0.32596E-20         0.00000E+00
    0.21641E-07        -0.13504E-19         0.00000E+00
    0.21641E-07        -0.51223E-20         0.00000E+00
    0.21641E-07        -0.39581E-20         0.00000E+00
    0.21641E-07        -0.69849E-20         0.00000E+00
    0.21641E-07        -0.46566E-20         0.00000E+00
    0.21641E-07        -0.93132E-21         0.00000E+00
    0.21641E-07         0.60536E-20         0.00000E+00
    0.21641E-07        -0.23283E-20         0.00000E+00
    0.21641E-07         0.46566E-21         0.00000E+00
    0.21641E-07         0.55879E-20         0.00000E+00
    0.21641E-07        -0.46566E-21         0.00000E+00
    0.23395E-07         0.51223E-20         0.00000E+00
    0.23395E-07        -0.60536E-20         0.00000E+00
    0.23395E-07         0.12107E-19         0.00000E+00
    0.23395E-07         0.74506E-20         0.00000E+00
    0.23395E-07         0.86147E-20         0.00000E+00
    0.23395E-07        -0.69849E-21         0.00000E+00
    0.23395E-07        -0.18626E-20         0.00000E+00
    0.23395E-07        -0.11409E-19         0.00000E+00
    0.23395E-07        -0.18626E-20         0.00000E+00
    0.23395E-07        -0.16298E-20         0.00000E+00
    0.23395E-07        -0.13970E-20         0.00000E+00
    0.23395E-07         0.51223E-20         0.00000E+00
    0.23395E-07         0.55879E-20         0.00000E+00
    0.23395E-07         0.11642E-19         0.00000E+00
    0.23395E-07        -0.60536E-20         0.00000E+00
    0.23395E-07        -0.93132E-21         0.00000E+00
    0.23395E-07         0.62864E-20         0.00000E+00
    0.23395E-07         0.93132E-20         0.00000E+00
    0.23395E-07         0.41910E-20         0.00000E+00
    0.23395E-07         0.23283E-20         0.00000E+00
    0.23395E-07         0.18626E-20         0.00000E+00
    0.23395E-07         0.11176E-19         0.00000E+00
    0.23395E-07         0.48894E-20         0.00000E+00
    0.23395E-07        -0.46566E-21         0.00000E+00
    0.23395E-07        -0.18626E-20         0.00000E+00
    0.23395E-07        -0.13504E-19         0.00000E+00
    0.23395E-07         0.32596E-20         0.00000E+00
    0.23395E-07         0.41910E-20         0.00000E+00
    0.23395E-07         0.48894E-20         0.00000E+00
    0.23395E-07        -0.51223E-20         0.00000E+00
    0.23395E-07         0.93132E-20         0.00000E+00
    0.23395E-07         0.13970E-20         0.00000E+00
    0.23395E-07         0.65193E-20         0.00000E+00
    0.23395E-07         0.88476E-20         0.00000E+00
    0.23395E-07        -0.16298E-20         0.00000E+00
    0.23395E-07        -0.46566E-21         0.00000E+00
    0.23395E-07         0.13970E-20         0.00000E+00
    0.23395E-07        -0.27940E-20         0.00000E+00
    0.23395E-07         0.93132E-21         0.00000E+00
    0.23395E-07        -0.18626E-20         0.00000E+00
    0.23395E-07         0.93132E-20         0.00000E+00
    0.23395E-07         0.65193E-20         0.00000E+00
    0.23395E-07        -0.46566E-21         0.00000E+00
    0.23395E-07        -0.16298E-20         0.00000E+00
    0.23395E-07        -0.46566E-20         0.00000E+00
    0.23395E-07         0.93132E-20         0.00000E+00
    0.23395E-07         0.83819E-20         0.00000E+00
    0.23395E-07         0.51223E-20         0.00000E+00
    0.23395E-07         0.97789E-20         0.00000E+00
    0.23395E-07         0.37253E-20         0.00000E+00
    0.25291E-07         0.51223E-20         0.00000E+00
    0.25291E-07         0.65193E-20         0.00000E+00
    0.25291E-07         0.16764E-19         0.00000E+00
    0.25291E-07         0.97789E-20         0.00000E+00
    0.25291E-07         0.46566E-21         0.00000E+00
    0.25291E-07         0.11642E-20         0.00000E+00
    0.25291E-07         0.32596E-20         0.00000E+00
    0.25291E-07         0.13970E-20         0.00000E+00
    0.25291E-07         0.48894E-20         0.00000E+00
    0.25291E-07         0.60536E-20         0.00000E+00
    0.25291E-07        -0.39581E-20         0.00000E+00
    0.25291E-07        -0.46566E-21         0.00000E+00
    0.25291E-07         0.00000E+00         0.00000E+00
    0.25291E-07         0.53551E-20         0.00000E+00
    0.25291E-07         0.11409E-19         0.00000E+00
    0.25291E-07         0.13970E-19         0.00000E+00
    0.25291E-07         0.51223E-20         0.00000E+00
    0.25291E-07         0.83819E-20         0.00000E+00
    0.25291E-07        -0.18626E-20         0.00000E+00
    0.25291E-07         0.67521E-20         0.00000E+00
    0.25291E-07         0.46566E-20         0.00000E+00
    0.25291E-07        -0.23283E-20         0.00000E+00
    0.25291E-07        -0.15832E-19         0.00000E+00
    0.25291E-07         0.00000E+00         0.00000E+00
    0.25291E-07        -0.37253E-20         0.00000E+00
    0.25291E-07        -0.30268E-20         0.00000E+00
    0.25291E-07         0.15367E-19         0.00000E+00
    0.25291E-07         0.10245E-19         0.00000E+00
    0.25291E-07         0.23283E-20         0.00000E+00
    0.25291E-07         0.23283E-20         0.00000E+00
    0.25291E-07         0.46566E-20         0.00000E+00
    0.25291E-07         0.17229E-19         0.00000E+00
    0.25291E-07         0.55879E-20         0.00000E+00
    0.25291E-07         0.60536E-20         0.00000E+00
    0.25291E-07         0.88476E-20         0.00000E+00
    0.25291E-07         0.74506E-20         0.00000E+00
    0.25291E-07         0.11176E-19         0.00000E+00
    0.25291E-07         0.15367E-19         0.00000E+00
    0.25291E-07         0.12806E-19         0.00000E+00
    0.25291E-07         0.37253E-20         0.00000E+00
    0.25291E-07         0.46566E-20         0.00000E+00
    0.25291E-07         0.37253E-20         0.00000E+00
    0.25291E-07         0.58208E-20         0.00000E+00
    0.25291E-07         0.55879E-20         0.00000E+00
    0.25291E-07         0.14435E-19         0.00000E+00
    0.25291E-07         0.48894E-20         0.00000E+00
    0.25291E-07         0.11642E-19         0.00000E+00
    0.25291E-07         0.25146E-19         0.00000E+00
    0.25291E-07         0.17695E-19         0.00000E+00
    0.25291E-07         0.18626E-20         0.00000E+00
    0.27331E-07         0.00000E+00         0.00000E+00
    0.27331E-07         0.12107E-19         0.00000E+00
    0.27331E-07         0.81491E-20         0.00000E+00
    0.27331E-07        -0.46566E-20         0.00000E+00
    0.27331E-07        -0.27940E-20         0.00000E+00
    0.27331E-07         0.20955E-20         0.00000E+00
    0.27331E-07         0.32596E-20         0.00000E+00
    0.27331E-07        -0.11642E-20         0.00000E+00
    0.27331E-07        -0.46566E-21         0.00000E+00
    0.27331E-07         0.18626E-20         0.00000E+00
    0.27331E-07         0.27940E-20         0.00000E+00
    0.27331E-07         0.41910E-20         0.00000E+00
    0.27331E-07         0.23283E-20         0.00000E+00
    0.27331E-07        -0.32596E-20         0.00000E+00
    0.27331E-07         0.13970E-20         0.00000E+00
    0.27331E-07         0.12573E-19         0.00000E+00
    0.27331E-07        -0.88476E-20         0.00000E+00
    0.27331E-07        -0.20955E-20         0.00000E+00
    0.27331E-07        -0.83819E-20         0.00000E+00
    0.27331E-07        -0.11642E-20         0.00000E+00
    0.27331E-07        -0.14203E-19         0.00000E+00
    0.27331E-07        -0.41910E-20         0.00000E+00
    0.27331E-07        -0.60536E-20         0.00000E+00
    0.27331E-07         0.32596E-20         0.00000E+00
    0.27331E-07         0.12107E-19         0.00000E+00
    0.27331E-07         0.18161E-19         0.00000E+00
    0.27331E-07         0.14668E-19         0.00000E+00
    0.27331E-07         0.37253E-20         0.00000E+00
    0.27331E-07         0.79162E-20         0.00000E+00
    0.27331E-07         0.11642E-19         0.00000E+00
    0.27331E-07         0.14901E-19         0.00000E+00
    0.27331E-07         0.15832E-19         0.00000E+00
    0.27331E-07         0.19092E-19         0.00000E+00
    0.27331E-07         0.18161E-19         0.00000E+00
    0.27331E-07         0.21420E-19         0.00000E+00
    0.27331E-07         0.22817E-19         0.00000E+00
    0.27331E-07         0.19558E-19         0.00000E+00
    0.27331E-07         0.27940E-19         0.00000E+00
    0.27331E-07         0.20023E-19         0.00000E+00
    0.27331E-07         0.13970E-19         0.00000E+00
    0.27331E-07         0.12107E-19         0.00000E+00
    0.27331E-07         0.27940E-20         0.00000E+00
    0.27331E-07         0.13039E-19         0.00000E+00
    0.27331E-07         0.48894E-20         0.00000E+00
    0.27331E-07         0.20256E-19         0.00000E+00
    0.27331E-07         0.14435E-19         0.00000E+00
    0.27331E-07         0.10710E-19         0.00000E+00
    0.27331E-07         0.15367E-19         0.00000E+00
    0.27331E-07         0.23283E-20         0.00000E+00
    0.27331E-07         0.23283E-21         0.00000E+00
    0.29518E-07         0.00000E+00         0.00000E+00
    0.29518E-07        -0.46566E-20         0.00000E+00
    0.29518E-07        -0.34925E-20         0.00000E+00
    0.29518E-07        -0.79162E-20         0.00000E+00
    0.29518E-07         0.23283E-20         0.00000E+00
    0.29518E-07         0.46566E-20         0.00000E+00
    0.29518E-07        -0.32596E-20         0.00000E+00
    0.29518E-07        -0.23283E-21         0.00000E+00
    0.29518E-07        -0.65193E-20         0.00000E+00
    0.29518E-07         0.00000E+00         0.00000E+00
    0.29518E-07        -0.32596E-20         0.00000E+00
    0.29518E-07         0.18626E-20         0.00000E+00
    0.29518E-07        -0.13970E-20         0.00000E+00
    0.29518E-07        -0.23283E-20         0.00000E+00
    0.29518E-07        -0.41910E-20         0.00000E+00
    0.29518E-07        -0.67521E-20         0.00000E+00
    0.29518E-07        -0.74506E-20         0.00000E+00
    0.29518E-07        -0.76834E-20         0.00000E+00
    0.29518E-07        -0.13970E-20         0.00000E+00
    0.29518E-07         0.72177E-20         0.00000E+00
    0.29518E-07        -0.32596E-20         0.00000E+00
    0.29518E-07        -0.51223E-20         0.00000E+00
    0.29518E-07         0.18808E-36         0.00000E+00
    0.29518E-07         0.69849E-21         0.00000E+00
    0.29518E-07         0.20722E-19         0.00000E+00
    0.29518E-07         0.14668E-19         0.00000E+00
    0.29518E-07         0.10245E-19         0.00000E+00
    0.29518E-07         0.65193E-20         0.00000E+00
    0.29518E-07         0.10477E-19         0.00000E+00
    0.29518E-07         0.51223E-20         0.00000E+00
    0.29518E-07         0.13039E-19         0.00000E+00
    0.29518E-07         0.19092E-19         0.00000E+00
    0.29518E-07         0.26077E-19         0.00000E+00
    0.29518E-07         0.26077E-19         0.00000E+00
    0.29518E-07         0.30734E-19         0.00000E+00
    0.29518E-07         0.22585E-19         0.00000E+00
    0.29518E-07         0.16531E-19         0.00000E+00
    0.29518E-07         0.28405E-19         0.00000E+00
    0.29518E-07         0.28871E-19         0.00000E+00
    0.29518E-07         0.18626E-19         0.00000E+00
    0.29518E-07         0.15832E-19         0.00000E+00
    0.29518E-07         0.46566E-20         0.00000E+00
    0.29518E-07         0.16298E-19         0.00000E+00
    0.29518E-07         0.00000E+00         0.00000E+00
    0.29518E-07         0.67521E-20         0.00000E+00
    0.29518E-07         0.17462E-19         0.00000E+00
    0.29518E-07         0.27940E-20         0.00000E+00
    0.29518E-07         0.67521E-20         0.00000E+00
    0.29518E-07         0.46566E-20         0.00000E+00
    0.29518E-07         0.32596E-20         0.00000E+00
    0.31855E-07         0.18626E-20         0.00000E+00
    0.31855E-07        -0.93132E-21         0.00000E+00
    0.31855E-07        -0.13970E-20         0.00000E+00
    0.31855E-07         0.46566E-20         0.00000E+00
    0.31855E-07         0.16531E-19         0.00000E+00
    0.31855E-07         0.10710E-19         0.00000E+00
    0.31855E-07        -0.55879E-20         0.00000E+00
    0.31855E-07         0.13737E-19         0.00000E+00
    0.31855E-07        -0.69849E-21         0.00000E+00
    0.31855E-07        -0.69849E-20         0.00000E+00
    0.31855E-07        -0.13970E-20         0.00000E+00
    0.31855E-07        -0.13504E-19         0.00000E+00
    0.31855E-07        -0.58208E-20         0.00000E+00
    0.31855E-07        -0.74506E-20         0.00000E+00
    0.31855E-07         0.51223E-20         0.00000E+00
    0.31855E-07         0.11642E-20         0.00000E+00
    0.31855E-07         0.65193E-20         0.00000E+00
    0.31855E-07         0.00000E+00         0.00000E+00
    0.31855E-07        -0.46566E-21         0.00000E+00
    0.31855E-07         0.17462E-19         0.00000E+00
    0.31855E-07         0.55879E-20         0.00000E+00
    0.31855E-07        -0.37253E-20         0.00000E+00
    0.31855E-07        -0.72177E-20         0.00000E+00
    0.31855E-07         0.18808E-36         0.00000E+00
    0.31855E-07         0.41910E-20         0.00000E+00
    0.31855E-07         0.67521E-20         0.00000E+00
    0.31855E-07         0.39581E-20         0.00000E+00
    0.31855E-07        -0.32596E-20         0.00000E+00
    0.31855E-07        -0.93132E-21         0.00000E+00
    0.31855E-07         0.69849E-21         0.00000E+00
    0.31855E-07         0.11409E-19         0.00000E+00
    0.31855E-07         0.16298E-19         0.00000E+00
    0.31855E-07         0.20489E-19         0.00000E+00
    0.31855E-07         0.25611E-19         0.00000E+00
    0.31855E-07         0.31898E-19         0.00000E+00
    0.31855E-07         0.41910E-19         0.00000E+00
    0.31855E-07         0.30268E-19         0.00000E+00
    0.31855E-07         0.24447E-19         0.00000E+00
    0.31855E-07         0.27008E-19         0.00000E+00
    0.31855E-07         0.19558E-19         0.00000E+00
    0.31855E-07         0.10245E-19         0.00000E+00
    0.31855E-07         0.65193E-20         0.00000E+00
    0.31855E-07         0.88476E-20         0.00000E+00
    0.31855E-07         0.14901E-19         0.00000E+00
    0.31855E-07         0.93132E-20         0.00000E+00
    0.31855E-07         0.65193E-20         0.00000E+00
    0.31855E-07        -0.18626E-20         0.00000E+00
    0.31855E-07         0.72177E-20         0.00000E+00
    0.31855E-07         0.16298E-20         0.00000E+00
    0.31855E-07        -0.93132E-21         0.00000E+00
    0.34344E-07         0.55879E-20         0.00000E+00
    0.34344E-07        -0.39581E-20         0.00000E+00
    0.34344E-07         0.74506E-20         0.00000E+00
    0.34344E-07         0.51223E-20         0.00000E+00
    0.34344E-07         0.13504E-19         0.00000E+00
    0.34344E-07         0.93132E-20         0.00000E+00
    0.34344E-07         0.18626E-20         0.00000E+00
    0.34344E-07         0.55879E-20         0.00000E+00
    0.34344E-07        -0.10710E-19         0.00000E+00
    0.34344E-07         0.23283E-20         0.00000E+00
    0.34344E-07         0.11176E-19         0.00000E+00
    0.34344E-07        -0.55879E-20         0.00000E+00
    0.34344E-07         0.41910E-20         0.00000E+00
    0.34344E-07        -0.58208E-20         0.00000E+00
    0.34344E-07        -0.37253E-20         0.00000E+00
    0.34344E-07         0.32596E-20         0.00000E+00
    0.34344E-07         0.12107E-19         0.00000E+00
    0.34344E-07         0.41910E-20         0.00000E+00
    0.34344E-07         0.32596E-20         0.00000E+00
    0.34344E-07        -0.51223E-20         0.00000E+00
    0.34344E-07         0.46566E-20         0.00000E+00
    0.34344E-07        -0.46566E-20         0.00000E+00
    0.34344E-07        -0.65193E-20         0.00000E+00
    0.34344E-07        -0.18859E-19         0.00000E+00
    0.34344E-07        -0.60536E-20         0.00000E+00
    0.34344E-07         0.60536E-20         0.00000E+00
    0.34344E-07        -0.11642E-20         0.00000E+00
    0.34344E-07        -0.97789E-20         0.00000E+00
    0.34344E-07        -0.37253E-20         0.00000E+00
    0.34344E-07        -0.93132E-21         0.00000E+00
    0.34344E-07         0.20489E-19         0.00000E+00
    0.34344E-07         0.17695E-19         0.00000E+00
    0.34344E-07         0.34925E-19         0.00000E+00
    0.34344E-07         0.36787E-19         0.00000E+00
    0.34344E-07         0.29337E-19         0.00000E+00
    0.34344E-07         0.34925E-19         0.00000E+00
    0.34344E-07         0.22352E-19         0.00000E+00
    0.34344E-07         0.69849E-20         0.00000E+00
    0.34344E-07         0.13504E-19         0.00000E+00
    0.34344E-07         0.11176E-19         0.00000E+00
    0.34344E-07         0.11176E-19         0.00000E+00
    0.34344E-07         0.79162E-20         0.00000E+00
    0.34344E-07         0.69849E-20         0.00000E+00
    0.34344E-07         0.69849E-20         0.00000E+00
    0.34344E-07         0.88476E-20         0.00000E+00
    0.34344E-07         0.32596E-20         0.00000E+00
    0.34344E-07        -0.37253E-20         0.00000E+00
    0.34344E-07        -0.46566E-21         0.00000E+00
    0.34344E-07        -0.60536E-20         0.00000E+00
    0.34344E-07        -0.41910E-20         0.00000E+00
    0.36987E-07         0.46566E-20         0.00000E+00
    0.36987E-07        -0.46566E-21         0.00000E+00
    0.36987E-07         0.12573E-19         0.00000E+00
    0.36987E-07        -0.51223E-20         0.00000E+00
    0.36987E-07        -0.27940E-20         0.00000E+00
    0.36987E-07        -0.51223E-20         0.00000E+00
    0.36987E-07        -0.93132E-20         0.00000E+00
    0.36987E-07        -0.48894E-20         0.00000E+00
    0.36987E-07        -0.41910E-20         0.00000E+00
    0.36987E-07         0.55879E-20         0.00000E+00
    0.36987E-07         0.41910E-20         0.00000E+00
    0.36987E-07         0.12340E-19         0.00000E+00
    0.36987E-07         0.72177E-20         0.00000E+00
    0.36987E-07        -0.46566E-20         0.00000E+00
    0.36987E-07        -0.16298E-20         0.00000E+00
    0.36987E-07        -0.46566E-20         0.00000E+00
    0.36987E-07         0.86147E-20         0.00000E+00
    0.36987E-07         0.51223E-20         0.00000E+00
    0.36987E-07         0.93132E-21         0.00000E+00
    0.36987E-07        -0.12107E-19         0.00000E+00
    0.36987E-07        -0.51223E-20         0.00000E+00
    0.36987E-07        -0.11176E-19         0.00000E+00
    0.36987E-07        -0.11176E-19         0.00000E+00
    0.36987E-07        -0.16298E-19         0.00000E+00
    0.36987E-07        -0.15367E-19         0.00000E+00
    0.36987E-07        -0.10710E-19         0.00000E+00
    0.36987E-07        -0.11642E-19         0.00000E+00
    0.36987E-07        -0.88476E-20         0.00000E+00
    0.36987E-07        -0.46566E-20         0.00000E+00
    0.36987E-07         0.18626E-20         0.00000E+00
    0.36987E-07         0.93132E-20         0.00000E+00
    0.36987E-07         0.19558E-19         0.00000E+00
    0.36987E-07         0.29569E-19         0.00000E+00
    0.36987E-07         0.27474E-19         0.00000E+00
    0.36987E-07         0.26543E-19         0.00000E+00
    0.36987E-07         0.21886E-19         0.00000E+00
    0.36987E-07         0.13039E-19         0.00000E+00
    0.36987E-07         0.27940E-20         0.00000E+00
    0.36987E-07         0.12107E-19         0.00000E+00
    0.36987E-07         0.12107E-19         0.00000E+00
    0.36987E-07         0.13970E-19         0.00000E+00
    0.36987E-07         0.14435E-19         0.00000E+00
    0.36987E-07         0.27940E-20         0.00000E+00
    0.36987E-07        -0.88476E-20         0.00000E+00
    0.36987E-07        -0.51223E-20         0.00000E+00
    0.36987E-07        -0.11176E-19         0.00000E+00
    0.36987E-07        -0.15600E-19         0.00000E+00
    0.36987E-07        -0.13737E-19         0.00000E+00
    0.36987E-07         0.00000E+00         0.00000E+00
    0.36987E-07        -0.13970E-20         0.00000E+00
    0.39782E-07        -0.27940E-20         0.00000E+00
    0.39782E-07         0.74506E-20         0.00000E+00
    0.39782E-07         0.90804E-20         0.00000E+00
    0.39782E-07         0.23283E-21         0.00000E+00
    0.39782E-07        -0.88476E-20         0.00000E+00
    0.39782E-07        -0.93132E-20         0.00000E+00
    0.39782E-07        -0.14435E-19         0.00000E+00
    0.39782E-07        -0.12107E-19         0.00000E+00
    0.39782E-07        -0.88476E-20         0.00000E+00
    0.39782E-07         0.27940E-20         0.00000E+00
    0.39782E-07         0.55879E-20         0.00000E+00
    0.39782E-07         0.79162E-20         0.00000E+00
    0.39782E-07         0.18626E-20         0.00000E+00
    0.39782E-07         0.18626E-20         0.00000E+00
    0.39782E-07        -0.93132E-21         0.00000E+00
    0.39782E-07        -0.60536E-20         0.00000E+00
    0.39782E-07        -0.41910E-20         0.00000E+00
    0.39782E-07        -0.93132E-20         0.00000E+00
    0.39782E-07        -0.17229E-19         0.00000E+00
    0.39782E-07        -0.13039E-19         0.00000E+00
    0.39782E-07        -0.19092E-19         0.00000E+00
    0.39782E-07        -0.18161E-19         0.00000E+00
    0.39782E-07        -0.17229E-19         0.00000E+00
    0.39782E-07        -0.16298E-19         0.00000E+00
    0.39782E-07        -0.21886E-19         0.00000E+00
    0.39782E-07        -0.20489E-19         0.00000E+00
    0.39782E-07        -0.16065E-19         0.00000E+00
    0.39782E-07        -0.24214E-19         0.00000E+00
    0.39782E-07        -0.88476E-20         0.00000E+00
    0.39782E-07         0.00000E+00         0.00000E+00
    0.39782E-07         0.93132E-20         0.00000E+00
    0.39782E-07         0.37253E-20         0.00000E+00
    0.39782E-07         0.19558E-19         0.00000E+00
    0.39782E-07         0.19092E-19         0.00000E+00
    0.39782E-07         0.18394E-19         0.00000E+00
    0.39782E-07         0.19558E-19         0.00000E+00
    0.39782E-07         0.20955E-19         0.00000E+00
    0.39782E-07         0.14901E-19         0.00000E+00
    0.39782E-07         0.88476E-20         0.00000E+00
    0.39782E-07         0.12573E-19         0.00000E+00
    0.39782E-07         0.27940E-20         0.00000E+00
    0.39782E-07         0.30268E-20         0.00000E+00
    0.39782E-07        -0.32596E-20         0.00000E+00
    0.39782E-07        -0.83819E-20         0.00000E+00
    0.39782E-07        -0.14435E-19         0.00000E+00
    0.39782E-07        -0.10012E-19         0.00000E+00
    0.39782E-07        -0.23982E-19         0.00000E+00
    0.39782E-07        -0.15600E-19         0.00000E+00
    0.39782E-07         0.00000E+00         0.00000E+00
    0.39782E-07         0.41910E-20         0.00000E+00
    0.42730E-07        -0.30268E-20         0.00000E+00
    0.42730E-07        -0.41910E-20         0.00000E+00
    0.42730E-07         0.55879E-20         0.00000E+00
    0.42730E-07        -0.23283E-20         0.00000E+00
    0.42730E-07        -0.51223E-20         0.00000E+00
    0.42730E-07        -0.51223E-20         0.00000E+00
    0.42730E-07        -0.39581E-20         0.00000E+00
    0.42730E-07        -0.13504E-19         0.00000E+00
    0.42730E-07        -0.10710E-19         0.00000E+00
    0.42730E-07         0.00000E+00         0.00000E+00
    0.42730E-07         0.51223E-20         0.00000E+00
    0.42730E-07         0.00000E+00         0.00000E+00
    0.42730E-07         0.69849E-20         0.00000E+00
    0.42730E-07         0.79162E-20         0.00000E+00
    0.42730E-07        -0.65193E-20         0.00000E+00
    0.42730E-07        -0.18626E-20         0.00000E+00
    0.42730E-07        -0.83819E-20         0.00000E+00
    0.42730E-07        -0.13504E-19         0.00000E+00
    0.42730E-07        -0.20489E-19         0.00000E+00
    0.42730E-07        -0.21420E-19         0.00000E+00
    0.42730E-07        -0.18626E-19         0.00000E+00
    0.42730E-07        -0.74506E-20         0.00000E+00
    0.42730E-07        -0.16298E-19         0.00000E+00
    0.42730E-07        -0.16764E-19         0.00000E+00
    0.42730E-07        -0.33062E-19         0.00000E+00
    0.42730E-07        -0.27474E-19         0.00000E+00
    0.42730E-07        -0.24214E-19         0.00000E+00
    0.42730E-07        -0.19558E-19         0.00000E+00
    0.42730E-07        -0.19558E-19         0.00000E+00
    0.42730E-07        -0.88476E-20         0.00000E+00
    0.42730E-07         0.23283E-20         0.00000E+00
    0.42730E-07         0.11642E-20         0.00000E+00
    0.42730E-07         0.83819E-20         0.00000E+00
    0.42730E-07         0.15832E-19         0.00000E+00
    0.42730E-07         0.11874E-19         0.00000E+00
    0.42730E-07         0.10710E-19         0.00000E+00
    0.42730E-07         0.15832E-19         0.00000E+00
    0.42730E-07         0.93132E-20         0.00000E+00
    0.42730E-07         0.13970E-20         0.00000E+00
    0.42730E-07         0.18626E-20         0.00000E+00
    0.42730E-07        -0.93132E-21         0.00000E+00
    0.42730E-07        -0.79162E-20         0.00000E+00
    0.42730E-07        -0.11642E-19         0.00000E+00
    0.42730E-07        -0.13039E-19         0.00000E+00
    0.42730E-07        -0.24913E-19         0.00000E+00
    0.42730E-07        -0.11874E-19         0.00000E+00
    0.42730E-07        -0.20023E-19         0.00000E+00
    0.42730E-07        -0.23283E-20         0.00000E+00
    0.42730E-07         0.00000E+00         0.00000E+00
    0.42730E-07         0.18626E-20         0.00000E+00
    0.45827E-07        -0.93132E-21         0.00000E+00
    0.45827E-07         0.69849E-21         0.00000E+00
    0.45827E-07        -0.74506E-20         0.00000E+00
    0.45827E-07        -0.69849E-20         0.00000E+00
    0.45827E-07         0.18626E-20         0.00000E+00
    0.45827E-07        -0.51223E-20         0.00000E+00
    0.45827E-07         0.51223E-20         0.00000E+00
    0.45827E-07        -0.23283E-20         0.00000E+00
    0.45827E-07        -0.10245E-19         0.00000E+00
    0.45827E-07         0.46566E-20         0.00000E+00
    0.45827E-07        -0.65193E-20         0.00000E+00
    0.45827E-07         0.23283E-21         0.00000E+00
    0.45827E-07         0.69849E-20         0.00000E+00
    0.45827E-07         0.32596E-20         0.00000E+00
    0.45827E-07        -0.37253E-20         0.00000E+00
    0.45827E-07         0.00000E+00         0.00000E+00
    0.45827E-07        -0.93132E-20         0.00000E+00
    0.45827E-07        -0.10710E-19         0.00000E+00
    0.45827E-07        -0.14435E-19         0.00000E+00
    0.45827E-07        -0.22817E-19         0.00000E+00
    0.45827E-07        -0.20955E-19         0.00000E+00
    0.45827E-07        -0.15832E-19         0.00000E+00
    0.45827E-07        -0.19558E-19         0.00000E+00
    0.45827E-07        -0.10245E-19         0.00000E+00
    0.45827E-07        -0.23283E-19         0.00000E+00
    0.45827E-07        -0.35390E-19         0.00000E+00
    0.45827E-07        -0.34925E-19         0.00000E+00
    0.45827E-07        -0.11176E-19         0.00000E+00
    0.45827E-07        -0.17695E-19         0.00000E+00
    0.45827E-07        -0.18626E-19         0.00000E+00
    0.45827E-07        -0.12107E-19         0.00000E+00
    0.45827E-07        -0.53551E-20         0.00000E+00
    0.45827E-07        -0.58208E-20         0.00000E+00
    0.45827E-07         0.79162E-20         0.00000E+00
    0.45827E-07        -0.23283E-20         0.00000E+00
    0.45827E-07         0.69849E-20         0.00000E+00
    0.45827E-07         0.15134E-19         0.00000E+00
    0.45827E-07         0.23283E-20         0.00000E+00
    0.45827E-07         0.46566E-20         0.00000E+00
    0.45827E-07         0.46566E-20         0.00000E+00
    0.45827E-07        -0.41910E-20         0.00000E+00
    0.45827E-07        -0.41910E-20         0.00000E+00
    0.45827E-07        -0.13970E-20         0.00000E+00
    0.45827E-07        -0.15367E-19         0.00000E+00
    0.45827E-07        -0.20489E-19         0.00000E+00
    0.45827E-07        -0.11176E-19         0.00000E+00
    0.45827E-07        -0.16531E-19         0.00000E+00
    0.45827E-07        -0.11176E-19         0.00000E+00
    0.45827E-07        -0.93132E-20         0.00000E+00
    0.45827E-07         0.93132E-21         0.00000E+00
    0.49070E-07         0.18626E-20         0.00000E+00
    0.49070E-07         0.88476E-20         0.00000E+00
    0.49070E-07        -0.39581E-20         0.00000E+00
    0.49070E-07        -0.37253E-20         0.00000E+00
    0.49070E-07        -0.69849E-20         0.00000E+00
    0.49070E-07         0.00000E+00         0.00000E+00
    0.49070E-07         0.14435E-19         0.00000E+00
    0.49070E-07         0.79162E-20         0.00000E+00
    0.49070E-07        -0.27940E-20         0.00000E+00
    0.49070E-07        -0.93132E-21         0.00000E+00
    0.49070E-07        -0.37253E-20         0.00000E+00
    0.49070E-07         0.00000E+00         0.00000E+00
    0.49070E-07         0.58208E-20         0.00000E+00
    0.49070E-07        -0.11642E-20         0.00000E+00
    0.49070E-07        -0.23283E-20         0.00000E+00
    0.49070E-07         0.23283E-20         0.00000E+00
    0.49070E-07        -0.15832E-19         0.00000E+00
    0.49070E-07        -0.16764E-19         0.00000E+00
    0.49070E-07        -0.15367E-19         0.00000E+00
    0.49070E-07        -0.24680E-19         0.00000E+00
    0.49070E-07        -0.34925E-19         0.00000E+00
    0.49070E-07        -0.33062E-19         0.00000E+00
    0.49070E-07        -0.17695E-19         0.00000E+00
    0.49070E-07        -0.19092E-19         0.00000E+00
    0.49070E-07        -0.26543E-19         0.00000E+00
    0.49070E-07        -0.37253E-19         0.00000E+00
    0.49070E-07        -0.26543E-19         0.00000E+00
    0.49070E-07        -0.18626E-19         0.00000E+00
    0.49070E-07        -0.17229E-19         0.00000E+00
    0.49070E-07        -0.93132E-20         0.00000E+00
    0.49070E-07        -0.37253E-20         0.00000E+00
    0.49070E-07        -0.11642E-19         0.00000E+00
    0.49070E-07        -0.51223E-20         0.00000E+00
    0.49070E-07        -0.46566E-21         0.00000E+00
    0.49070E-07        -0.65193E-20         0.00000E+00
    0.49070E-07        -0.13970E-20         0.00000E+00
    0.49070E-07         0.65193E-20         0.00000E+00
    0.49070E-07         0.27940E-20         0.00000E+00
    0.49070E-07         0.37253E-20         0.00000E+00
    0.49070E-07         0.10245E-19         0.00000E+00
    0.49070E-07         0.13970E-20         0.00000E+00
    0.49070E-07         0.46566E-20         0.00000E+00
    0.49070E-07         0.10245E-19         0.00000E+00
    0.49070E-07         0.27940E-20         0.00000E+00
    0.49070E-07        -0.12107E-19         0.00000E+00
    0.49070E-07        -0.69849E-20         0.00000E+00
    0.49070E-07        -0.14901E-19         0.00000E+00
    0.49070E-07        -0.14435E-19         0.00000E+00
    0.49070E-07        -0.11642E-19         0.00000E+00
    0.49070E-07         0.27940E-20         0.00000E+00
    0.52454E-07        -0.46566E-21         0.00000E+00
    0.52454E-07         0.55879E-20         0.00000E+00
    0.52454E-07         0.11642E-20         0.00000E+00
    0.52454E-07         0.44238E-20         0.00000E+00
    0.52454E-07        -0.37253E-20         0.00000E+00
    0.52454E-07         0.69849E-20         0.00000E+00
    0.52454E-07         0.16764E-19         0.00000E+00
    0.52454E-07         0.37253E-20         0.00000E+00
    0.52454E-07        -0.62864E-20         0.00000E+00
    0.52454E-07        -0.81491E-20         0.00000E+00
    0.52454E-07        -0.46566E-20         0.00000E+00
    0.52454E-07        -0.55879E-20         0.00000E+00
    0.52454E-07         0.39581E-20         0.00000E+00
    0.52454E-07         0.41910E-20         0.00000E+00
    0.52454E-07         0.51223E-20         0.00000E+00
    0.52454E-07         0.83819E-20         0.00000E+00
    0.52454E-07        -0.19558E-19         0.00000E+00
    0.52454E-07        -0.16764E-19         0.00000E+00
    0.52454E-07        -0.26077E-19         0.00000E+00
    0.52454E-07        -0.29337E-19         0.00000E+00
    0.52454E-07        -0.31199E-19         0.00000E+00
    0.52454E-07        -0.24214E-19         0.00000E+00
    0.52454E-07        -0.17695E-19         0.00000E+00
    0.52454E-07        -0.20489E-19         0.00000E+00
    0.52454E-07        -0.30734E-19         0.00000E+00
    0.52454E-07        -0.24214E-19         0.00000E+00
    0.52454E-07        -0.20955E-19         0.00000E+00
    0.52454E-07        -0.20955E-19         0.00000E+00
    0.52454E-07        -0.11176E-19         0.00000E+00
    0.52454E-07        -0.46566E-20         0.00000E+00
    0.52454E-07         0.00000E+00         0.00000E+00
    0.52454E-07        -0.37253E-20         0.00000E+00
    0.52454E-07        -0.27940E-20         0.00000E+00
    0.52454E-07        -0.51223E-20         0.00000E+00
    0.52454E-07        -0.55879E-20         0.00000E+00
    0.52454E-07        -0.74506E-20         0.00000E+00
    0.52454E-07        -0.46566E-20         0.00000E+00
    0.52454E-07        -0.93132E-21         0.00000E+00
    0.52454E-07         0.27940E-20         0.00000E+00
    0.52454E-07         0.13970E-20         0.00000E+00
    0.52454E-07        -0.37253E-20         0.00000E+00
    0.52454E-07         0.55879E-20         0.00000E+00
    0.52454E-07         0.93132E-21         0.00000E+00
    0.52454E-07         0.53551E-20         0.00000E+00
    0.52454E-07        -0.23283E-20         0.00000E+00
    0.52454E-07        -0.13970E-20         0.00000E+00
    0.52454E-07        -0.13039E-19         0.00000E+00
    0.52454E-07        -0.13737E-19         0.00000E+00
    0.52454E-07        -0.69849E-20         0.00000E+00
    0.52454E-07         0.30268E-20         0.00000E+00
    0.55970E-07        -0.18626E-20         0.00000E+00
    0.55970E-07        -0.69849E-20         0.00000E+00
    0.55970E-07        -0.32596E-20         0.00000E+00
    0.55970E-07         0.93132E-21         0.00000E+00
    0.55970E-07         0.46566E-21         0.00000E+00
    0.55970E-07         0.93132E-20         0.00000E+00
    0.55970E-07         0.10477E-19         0.00000E+00
    0.55970E-07        -0.93132E-21         0.00000E+00
    0.55970E-07        -0.12806E-19         0.00000E+00
    0.55970E-07        -0.10012E-19         0.00000E+00
    0.55970E-07        -0.13970E-20         0.00000E+00
    0.55970E-07        -0.10012E-19         0.00000E+00
    0.55970E-07        -0.13970E-20         0.00000E+00
    0.55970E-07         0.46566E-21         0.00000E+00
    0.55970E-07        -0.27940E-20         0.00000E+00
    0.55970E-07         0.74506E-20         0.00000E+00
    0.55970E-07        -0.11176E-19         0.00000E+00
    0.55970E-07        -0.46566E-20         0.00000E+00
    0.55970E-07        -0.21420E-19         0.00000E+00
    0.55970E-07        -0.23749E-19         0.00000E+00
    0.55970E-07        -0.26543E-19         0.00000E+00
    0.55970E-07        -0.25611E-19         0.00000E+00
    0.55970E-07        -0.16298E-19         0.00000E+00
    0.55970E-07        -0.23283E-19         0.00000E+00
    0.55970E-07        -0.31665E-19         0.00000E+00
    0.55970E-07        -0.17229E-19         0.00000E+00
    0.55970E-07        -0.20955E-19         0.00000E+00
    0.55970E-07        -0.17695E-19         0.00000E+00
    0.55970E-07        -0.51223E-20         0.00000E+00
    0.55970E-07        -0.65193E-20         0.00000E+00
    0.55970E-07         0.46566E-20         0.00000E+00
    0.55970E-07         0.18626E-20         0.00000E+00
    0.55970E-07        -0.10245E-19         0.00000E+00
    0.55970E-07         0.32596E-20         0.00000E+00
    0.55970E-07        -0.90804E-20         0.00000E+00
    0.55970E-07        -0.41910E-20         0.00000E+00
    0.55970E-07        -0.97789E-20         0.00000E+00
    0.55970E-07        -0.55879E-20         0.00000E+00
    0.55970E-07         0.18626E-20         0.00000E+00
    0.55970E-07        -0.13970E-20         0.00000E+00
    0.55970E-07        -0.10477E-19         0.00000E+00
    0.55970E-07         0.00000E+00         0.00000E+00
    0.55970E-07        -0.41910E-20         0.00000E+00
    0.55970E-07         0.93132E-21         0.00000E+00
    0.55970E-07        -0.32596E-20         0.00000E+00
    0.55970E-07         0.32596E-20         0.00000E+00
    0.55970E-07        -0.60536E-20         0.00000E+00
    0.55970E-07        -0.10710E-19         0.00000E+00
    0.55970E-07         0.32596E-20         0.00000E+00
    0.55970E-07         0.23283E-20         0.00000E+00
    0.59610E-07         0.93132E-21         0.00000E+00
    0.59610E-07        -0.79162E-20         0.00000E+00
    0.59610E-07        -0.93132E-20         0.00000E+00
    0.59610E-07        -0.46566E-20         0.00000E+00
    0.59610E-07        -0.93132E-21         0.00000E+00
    0.59610E-07         0.13970E-20         0.00000E+00
    0.59610E-07        -0.93132E-21         0.00000E+00
    0.59610E-07        -0.88476E-20         0.00000E+00
    0.59610E-07        -0.41910E-20         0.00000E+00
    0.59610E-07        -0.55879E-20         0.00000E+00
    0.59610E-07        -0.13970E-20         0.00000E+00
    0.59610E-07        -0.46566E-21         0.00000E+00
    0.59610E-07        -0.27940E-20         0.00000E+00
    0.59610E-07        -0.20955E-20         0.00000E+00
    0.59610E-07        -0.88476E-20         0.00000E+00
    0.59610E-07        -0.23283E-20         0.00000E+00
    0.59610E-07        -0.41910E-20         0.00000E+00
    0.59610E-07        -0.46566E-20         0.00000E+00
    0.59610E-07        -0.10245E-19         0.00000E+00
    0.59610E-07        -0.11176E-19         0.00000E+00
    0.59610E-07        -0.36787E-19         0.00000E+00
    0.59610E-07        -0.32596E-19         0.00000E+00
    0.59610E-07        -0.14901E-19         0.00000E+00
    0.59610E-07        -0.24680E-19         0.00000E+00
    0.59610E-07        -0.32131E-19         0.00000E+00
    0.59610E-07        -0.20023E-19         0.00000E+00
    0.59610E-07        -0.13039E-19         0.00000E+00
    0.59610E-07        -0.60536E-20         0.00000E+00
    0.59610E-07        -0.46566E-20         0.00000E+00
    0.59610E-07        -0.27940E-20         0.00000E+00
    0.59610E-07         0.51223E-20         0.00000E+00
    0.59610E-07         0.00000E+00         0.00000E+00
    0.59610E-07        -0.93132E-20         0.00000E+00
    0.59610E-07         0.46566E-21         0.00000E+00
    0.59610E-07        -0.32596E-20         0.00000E+00
    0.59610E-07        -0.27940E-20         0.00000E+00
    0.59610E-07        -0.48894E-20         0.00000E+00
    0.59610E-07        -0.93132E-20         0.00000E+00
    0.59610E-07        -0.30268E-20         0.00000E+00
    0.59610E-07         0.46566E-20         0.00000E+00
    0.59610E-07        -0.97789E-20         0.00000E+00
    0.59610E-07        -0.46566E-20         0.00000E+00
    0.59610E-07        -0.62864E-20         0.00000E+00
    0.59610E-07         0.32596E-20         0.00000E+00
    0.59610E-07        -0.93132E-21         0.00000E+00
    0.59610E-07        -0.60536E-20         0.00000E+00
    0.59610E-07        -0.37253E-20         0.00000E+00
    0.59610E-07        -0.10245E-19         0.00000E+00
    0.59610E-07         0.27940E-20         0.00000E+00
    0.59610E-07         0.37253E-20         0.00000E+00
    0.63363E-07        -0.11642E-20         0.00000E+00
    0.63363E-07        -0.93132E-21         0.00000E+00
    0.63363E-07        -0.69849E-20         0.00000E+00
    0.63363E-07        -0.83819E-20         0.00000E+00
    0.63363E-07        -0.65193E-20         0.00000E+00
    0.63363E-07        -0.23283E-20         0.00000E+00
    0.63363E-07         0.34925E-20         0.00000E+00
    0.63363E-07        -0.53551E-20         0.00000E+00
    0.63363E-07        -0.62864E-20         0.00000E+00
    0.63363E-07         0.51223E-20         0.00000E+00
    0.63363E-07        -0.37253E-20         0.00000E+00
    0.63363E-07         0.79162E-20         0.00000E+00
    0.63363E-07         0.00000E+00         0.00000E+00
    0.63363E-07         0.27940E-20         0.00000E+00
    0.63363E-07        -0.23283E-20         0.00000E+00
    0.63363E-07        -0.10477E-19         0.00000E+00
    0.63363E-07        -0.16764E-19         0.00000E+00
    0.63363E-07        -0.20489E-19         0.00000E+00
    0.63363E-07        -0.12806E-19         0.00000E+00
    0.63363E-07        -0.97789E-20         0.00000E+00
    0.63363E-07        -0.28871E-19         0.00000E+00
    0.63363E-07        -0.24680E-19         0.00000E+00
    0.63363E-07        -0.15367E-19         0.00000E+00
    0.63363E-07        -0.18161E-19         0.00000E+00
    0.63363E-07        -0.21886E-19         0.00000E+00
    0.63363E-07        -0.12107E-19         0.00000E+00
    0.63363E-07        -0.83819E-20         0.00000E+00
    0.63363E-07        -0.10245E-19         0.00000E+00
    0.63363E-07        -0.37253E-20         0.00000E+00
    0.63363E-07        -0.60536E-20         0.00000E+00
    0.63363E-07        -0.46566E-21         0.00000E+00
    0.63363E-07        -0.60536E-20         0.00000E+00
    0.63363E-07        -0.46566E-20         0.00000E+00
    0.63363E-07        -0.46566E-20         0.00000E+00
    0.63363E-07         0.18626E-20         0.00000E+00
    0.63363E-07         0.95461E-20         0.00000E+00
    0.63363E-07         0.67521E-20         0.00000E+00
    0.63363E-07         0.74506E-20         0.00000E+00
    0.63363E-07        -0.93132E-21         0.00000E+00
    0.63363E-07         0.23283E-20         0.00000E+00
    0.63363E-07        -0.69849E-20         0.00000E+00
    0.63363E-07        -0.10245E-19         0.00000E+00
    0.63363E-07        -0.10710E-19         0.00000E+00
    0.63363E-07         0.16298E-20         0.00000E+00
    0.63363E-07        -0.18626E-20         0.00000E+00
    0.63363E-07         0.46566E-21         0.00000E+00
    0.63363E-07        -0.79162E-20         0.00000E+00
    0.63363E-07        -0.15832E-19         0.00000E+00
    0.63363E-07        -0.44238E-20         0.00000E+00
    0.63363E-07         0.25611E-20         0.00000E+00
    0.67214E-07        -0.41910E-20         0.00000E+00
    0.67214E-07        -0.25611E-20         0.00000E+00
    0.67214E-07         0.00000E+00         0.00000E+00
    0.67214E-07        -0.41910E-20         0.00000E+00
    0.67214E-07        -0.69849E-20         0.00000E+00
    0.67214E-07        -0.18626E-20         0.00000E+00
    0.67214E-07         0.46566E-21         0.00000E+00
    0.67214E-07        -0.83819E-20         0.00000E+00
    0.67214E-07        -0.65193E-20         0.00000E+00
    0.67214E-07         0.46566E-20         0.00000E+00
    0.67214E-07        -0.37253E-20         0.00000E+00
    0.67214E-07         0.93132E-21         0.00000E+00
    0.67214E-07         0.00000E+00         0.00000E+00
    0.67214E-07         0.23283E-20         0.00000E+00
    0.67214E-07        -0.97789E-20         0.00000E+00
    0.67214E-07        -0.62864E-20         0.00000E+00
    0.67214E-07        -0.16764E-19         0.00000E+00
    0.67214E-07        -0.20489E-19         0.00000E+00
    0.67214E-07        -0.17928E-19         0.00000E+00
    0.67214E-07        -0.15367E-19         0.00000E+00
    0.67214E-07        -0.22817E-19         0.00000E+00
    0.67214E-07        -0.20955E-19         0.00000E+00
    0.67214E-07        -0.93132E-20         0.00000E+00
    0.67214E-07        -0.16764E-19         0.00000E+00
    0.67214E-07        -0.16764E-19         0.00000E+00
    0.67214E-07        -0.88476E-20         0.00000E+00
    0.67214E-07        -0.23283E-20         0.00000E+00
    0.67214E-07        -0.74506E-20         0.00000E+00
    0.67214E-07        -0.83819E-20         0.00000E+00
    0.67214E-07        -0.15832E-19         0.00000E+00
    0.67214E-07        -0.32596E-20         0.00000E+00
    0.67214E-07        -0.83819E-20         0.00000E+00
    0.67214E-07         0.00000E+00         0.00000E+00
    0.67214E-07        -0.13970E-20         0.00000E+00
    0.67214E-07         0.95461E-20         0.00000E+00
    0.67214E-07         0.18161E-19         0.00000E+00
    0.67214E-07         0.13504E-19         0.00000E+00
    0.67214E-07         0.65193E-20         0.00000E+00
    0.67214E-07         0.30268E-20         0.00000E+00
    0.67214E-07        -0.18626E-20         0.00000E+00
    0.67214E-07        -0.12107E-19         0.00000E+00
    0.67214E-07        -0.10245E-19         0.00000E+00
    0.67214E-07        -0.46566E-20         0.00000E+00
    0.67214E-07        -0.58208E-20         0.00000E+00
    0.67214E-07        -0.25611E-20         0.00000E+00
    0.67214E-07        -0.41910E-20         0.00000E+00
    0.67214E-07        -0.83819E-20         0.00000E+00
    0.67214E-07        -0.13970E-19         0.00000E+00
    0.67214E-07         0.00000E+00         0.00000E+00
    0.67214E-07         0.46566E-20         0.00000E+00
    0.71148E-07        -0.46566E-21         0.00000E+00
    0.71148E-07        -0.23283E-20         0.00000E+00
    0.71148E-07        -0.20955E-20         0.00000E+00
    0.71148E-07        -0.60536E-20         0.00000E+00
    0.71148E-07        -0.13970E-19         0.00000E+00
    0.71148E-07        -0.76834E-20         0.00000E+00
    0.71148E-07        -0.15832E-19         0.00000E+00
    0.71148E-07        -0.16764E-19         0.00000E+00
    0.71148E-07        -0.13039E-19         0.00000E+00
    0.71148E-07        -0.93132E-21         0.00000E+00
    0.71148E-07        -0.48894E-20         0.00000E+00
    0.71148E-07        -0.27940E-20         0.00000E+00
    0.71148E-07         0.27940E-20         0.00000E+00
    0.71148E-07        -0.27940E-20         0.00000E+00
    0.71148E-07        -0.13504E-19         0.00000E+00
    0.71148E-07        -0.95461E-20         0.00000E+00
    0.71148E-07        -0.16764E-19         0.00000E+00
    0.71148E-07        -0.13504E-19         0.00000E+00
    0.71148E-07        -0.13271E-19         0.00000E+00
    0.71148E-07        -0.15134E-19         0.00000E+00
    0.71148E-07        -0.27940E-19         0.00000E+00
    0.71148E-07        -0.25611E-19         0.00000E+00
    0.71148E-07        -0.83819E-20         0.00000E+00
    0.71148E-07        -0.13970E-19         0.00000E+00
    0.71148E-07        -0.14901E-19         0.00000E+00
    0.71148E-07        -0.37253E-20         0.00000E+00
    0.71148E-07         0.32596E-20         0.00000E+00
    0.71148E-07         0.74506E-20         0.00000E+00
    0.71148E-07        -0.23283E-20         0.00000E+00
    0.71148E-07        -0.69849E-20         0.00000E+00
    0.71148E-07         0.13970E-20         0.00000E+00
    0.71148E-07        -0.48894E-20         0.00000E+00
    0.71148E-07         0.32596E-20         0.00000E+00
    0.71148E-07         0.48894E-20         0.00000E+00
    0.71148E-07         0.13504E-19         0.00000E+00
    0.71148E-07         0.86147E-20         0.00000E+00
    0.71148E-07         0.97789E-20         0.00000E+00
    0.71148E-07         0.37253E-20         0.00000E+00
    0.71148E-07         0.37253E-20         0.00000E+00
    0.71148E-07        -0.13970E-20         0.00000E+00
    0.71148E-07        -0.15367E-19         0.00000E+00
    0.71148E-07        -0.13504E-19         0.00000E+00
    0.71148E-07        -0.34925E-20         0.00000E+00
    0.71148E-07        -0.13970E-20         0.00000E+00
    0.71148E-07        -0.69849E-20         0.00000E+00
    0.71148E-07        -0.60536E-20         0.00000E+00
    0.71148E-07        -0.13504E-19         0.00000E+00
    0.71148E-07        -0.79162E-20         0.00000E+00
    0.71148E-07         0.18626E-20         0.00000E+00
    0.71148E-07         0.55879E-20         0.00000E+00
    0.75147E-07         0.34925E-21         0.00000E+00
    0.75147E-07         0.27940E-20         0.00000E+00
    0.75147E-07        -0.69849E-21         0.00000E+00
    0.75147E-07        -0.13737E-19         0.00000E+00
    0.75147E-07        -0.16182E-19         0.00000E+00
    0.75147E-07        -0.13853E-19         0.00000E+00
    0.75147E-07        -0.12573E-19         0.00000E+00
    0.75147E-07        -0.17229E-19         0.00000E+00
    0.75147E-07        -0.21304E-19         0.00000E+00
    0.75147E-07        -0.79162E-20         0.00000E+00
    0.75147E-07        -0.33760E-20         0.00000E+00
    0.75147E-07         0.34925E-21         0.00000E+00
    0.75147E-07        -0.65193E-20         0.00000E+00
    0.75147E-07        -0.23283E-21         0.00000E+00
    0.75147E-07        -0.93132E-20         0.00000E+00
    0.75147E-07        -0.17346E-19         0.00000E+00
    0.75147E-07        -0.12689E-19         0.00000E+00
    0.75147E-07        -0.12689E-19         0.00000E+00
    0.75147E-07        -0.80327E-20         0.00000E+00
    0.75147E-07        -0.14901E-19         0.00000E+00
    0.75147E-07        -0.30268E-19         0.00000E+00
    0.75147E-07        -0.18394E-19         0.00000E+00
    0.75147E-07        -0.74506E-20         0.00000E+00
    0.75147E-07        -0.90804E-20         0.00000E+00
    0.75147E-07        -0.12573E-19         0.00000E+00
    0.75147E-07        -0.37253E-20         0.00000E+00
    0.75147E-07         0.62864E-20         0.00000E+00
    0.75147E-07         0.65193E-20         0.00000E+00
    0.75147E-07         0.62864E-20         0.00000E+00
    0.75147E-07        -0.30268E-20         0.00000E+00
    0.75147E-07         0.44238E-20         0.00000E+00
    0.75147E-07         0.18626E-20         0.00000E+00
    0.75147E-07         0.10594E-19         0.00000E+00
    0.75147E-07         0.11409E-19         0.00000E+00
    0.75147E-07         0.10594E-19         0.00000E+00
    0.75147E-07         0.96625E-20         0.00000E+00
    0.75147E-07         0.80327E-20         0.00000E+00
    0.75147E-07         0.71013E-20         0.00000E+00
    0.75147E-07         0.34925E-21         0.00000E+00
    0.75147E-07         0.47730E-20         0.00000E+00
    0.75147E-07        -0.10710E-19         0.00000E+00
    0.75147E-07        -0.18976E-19         0.00000E+00
    0.75147E-07        -0.69849E-20         0.00000E+00
    0.75147E-07        -0.19791E-20         0.00000E+00
    0.75147E-07        -0.62864E-20         0.00000E+00
    0.75147E-07        -0.57044E-20         0.00000E+00
    0.75147E-07        -0.12573E-19         0.00000E+00
    0.75147E-07        -0.10245E-19         0.00000E+00
    0.75147E-07         0.18626E-20         0.00000E+00
    0.75147E-07         0.57044E-20         0.00000E+00
    0.79190E-07        -0.11642E-20         0.00000E+00
    0.79190E-07         0.48894E-20         0.00000E+00
    0.79190E-07         0.93132E-21         0.00000E+00
    0.79190E-07        -0.16531E-19         0.00000E+00
    0.79190E-07        -0.19791E-19         0.00000E+00
    0.79190E-07        -0.10710E-19         0.00000E+00
    0.79190E-07        -0.12806E-19         0.00000E+00
    0.79190E-07        -0.14668E-19         0.00000E+00
    0.79190E-07        -0.14901E-19         0.00000E+00
    0.79190E-07        -0.34925E-20         0.00000E+00
    0.79190E-07        -0.72177E-20         0.00000E+00
    0.79190E-07         0.41910E-20         0.00000E+00
    0.79190E-07        -0.77998E-20         0.00000E+00
    0.79190E-07         0.00000E+00         0.00000E+00
    0.79190E-07        -0.13039E-19         0.00000E+00
    0.79190E-07        -0.66357E-20         0.00000E+00
    0.79190E-07        -0.10594E-19         0.00000E+00
    0.79190E-07        -0.93132E-20         0.00000E+00
    0.79190E-07        -0.98953E-20         0.00000E+00
    0.79190E-07        -0.20023E-19         0.00000E+00
    0.79190E-07        -0.27940E-19         0.00000E+00
    0.79190E-07        -0.14668E-19         0.00000E+00
    0.79190E-07        -0.10943E-19         0.00000E+00
    0.79190E-07        -0.48894E-20         0.00000E+00
    0.79190E-07        -0.11642E-19         0.00000E+00
    0.79190E-07        -0.58208E-20         0.00000E+00
    0.79190E-07         0.23283E-20         0.00000E+00
    0.79190E-07        -0.58208E-20         0.00000E+00
    0.79190E-07         0.37253E-20         0.00000E+00
    0.79190E-07        -0.46566E-20         0.00000E+00
    0.79190E-07         0.69849E-20         0.00000E+00
    0.79190E-07         0.55879E-20         0.00000E+00
    0.79190E-07         0.15367E-19         0.00000E+00
    0.79190E-07         0.86147E-20         0.00000E+00
    0.79190E-07         0.19092E-19         0.00000E+00
    0.79190E-07         0.10477E-19         0.00000E+00
    0.79190E-07         0.12806E-19         0.00000E+00
    0.79190E-07         0.69849E-20         0.00000E+00
    0.79190E-07         0.34925E-20         0.00000E+00
    0.79190E-07         0.72177E-20         0.00000E+00
    0.79190E-07        -0.72177E-20         0.00000E+00
    0.79190E-07        -0.15600E-19         0.00000E+00
    0.79190E-07        -0.14203E-19         0.00000E+00
    0.79190E-07        -0.67521E-20         0.00000E+00
    0.79190E-07        -0.72177E-20         0.00000E+00
    0.79190E-07        -0.74506E-20         0.00000E+00
    0.79190E-07        -0.14435E-19         0.00000E+00
    0.79190E-07        -0.15600E-19         0.00000E+00
    0.79190E-07        -0.97789E-20         0.00000E+00
    0.79190E-07         0.16298E-20         0.00000E+00
    0.83255E-07        -0.13970E-20         0.00000E+00
    0.83255E-07         0.46566E-21         0.00000E+00
    0.83255E-07        -0.13970E-20         0.00000E+00
    0.83255E-07        -0.18626E-19         0.00000E+00
    0.83255E-07        -0.20606E-19         0.00000E+00
    0.83255E-07        -0.86147E-20         0.00000E+00
    0.83255E-07        -0.71013E-20         0.00000E+00
    0.83255E-07        -0.16531E-19         0.00000E+00
    0.83255E-07        -0.10943E-19         0.00000E+00
    0.83255E-07        -0.95461E-20         0.00000E+00
    0.83255E-07        -0.10128E-19         0.00000E+00
    0.83255E-07         0.19791E-20         0.00000E+00
    0.83255E-07        -0.37253E-20         0.00000E+00
    0.83255E-07        -0.36089E-20         0.00000E+00
    0.83255E-07        -0.16531E-19         0.00000E+00
    0.83255E-07        -0.11758E-19         0.00000E+00
    0.83255E-07        -0.15600E-19         0.00000E+00
    0.83255E-07        -0.11874E-19         0.00000E+00
    0.83255E-07        -0.11409E-19         0.00000E+00
    0.83255E-07        -0.19092E-19         0.00000E+00
    0.83255E-07        -0.31898E-19         0.00000E+00
    0.83255E-07        -0.16415E-19         0.00000E+00
    0.83255E-07        -0.12922E-19         0.00000E+00
    0.83255E-07        -0.95461E-20         0.00000E+00
    0.83255E-07        -0.15949E-19         0.00000E+00
    0.83255E-07         0.16298E-20         0.00000E+00
    0.83255E-07        -0.18626E-20         0.00000E+00
    0.83255E-07        -0.32596E-20         0.00000E+00
    0.83255E-07         0.00000E+00         0.00000E+00
    0.83255E-07         0.00000E+00         0.00000E+00
    0.83255E-07         0.69849E-20         0.00000E+00
    0.83255E-07         0.60536E-20         0.00000E+00
    0.83255E-07         0.13271E-19         0.00000E+00
    0.83255E-07         0.67521E-20         0.00000E+00
    0.83255E-07         0.12573E-19         0.00000E+00
    0.83255E-07         0.84983E-20         0.00000E+00
    0.83255E-07         0.17346E-19         0.00000E+00
    0.83255E-07         0.74506E-20         0.00000E+00
    0.83255E-07         0.72177E-20         0.00000E+00
    0.83255E-07         0.13970E-20         0.00000E+00
    0.83255E-07        -0.10943E-19         0.00000E+00
    0.83255E-07        -0.13271E-19         0.00000E+00
    0.83255E-07        -0.11991E-19         0.00000E+00
    0.83255E-07        -0.48894E-20         0.00000E+00
    0.83255E-07        -0.91968E-20         0.00000E+00
    0.83255E-07        -0.60536E-20         0.00000E+00
    0.83255E-07        -0.88476E-20         0.00000E+00
    0.83255E-07        -0.16880E-19         0.00000E+00
    0.83255E-07        -0.67521E-20         0.00000E+00
    0.83255E-07        -0.58208E-21         0.00000E+00
    0.87316E-07        -0.32596E-20         0.00000E+00
    0.87316E-07         0.25611E-20         0.00000E+00
    0.87316E-07         0.46566E-21         0.00000E+00
    0.87316E-07        -0.13737E-19         0.00000E+00
    0.87316E-07        -0.13039E-19         0.00000E+00
    0.87316E-07        -0.12107E-19         0.00000E+00
    0.87316E-07        -0.83819E-20         0.00000E+00
    0.87316E-07        -0.16065E-19         0.00000E+00
    0.87316E-07        -0.19092E-19         0.00000E+00
    0.87316E-07        -0.13504E-19         0.00000E+00
    0.87316E-07        -0.10594E-19         0.00000E+00
    0.87316E-07        -0.12107E-19         0.00000E+00
    0.87316E-07        -0.10943E-19         0.00000E+00
    0.87316E-07        -0.81491E-20         0.00000E+00
    0.87316E-07        -0.12806E-19         0.00000E+00
    0.87316E-07        -0.13853E-19         0.00000E+00
    0.87316E-07        -0.51223E-20         0.00000E+00
    0.87316E-07        -0.10477E-19         0.00000E+00
    0.87316E-07        -0.82655E-20         0.00000E+00
    0.87316E-07        -0.14435E-19         0.00000E+00
    0.87316E-07        -0.28871E-19         0.00000E+00
    0.87316E-07        -0.23632E-19         0.00000E+00
    0.87316E-07        -0.14203E-19         0.00000E+00
    0.87316E-07        -0.18277E-19         0.00000E+00
    0.87316E-07        -0.15134E-19         0.00000E+00
    0.87316E-07         0.27940E-20         0.00000E+00
    0.87316E-07         0.00000E+00         0.00000E+00
    0.87316E-07        -0.48894E-20         0.00000E+00
    0.87316E-07         0.46566E-21         0.00000E+00
    0.87316E-07        -0.18626E-20         0.00000E+00
    0.87316E-07        -0.93132E-21         0.00000E+00
    0.87316E-07        -0.17462E-20         0.00000E+00
    0.87316E-07         0.18626E-20         0.00000E+00
    0.87316E-07         0.30268E-20         0.00000E+00
    0.87316E-07         0.67521E-20         0.00000E+00
    0.87316E-07         0.37253E-20         0.00000E+00
    0.87316E-07         0.83819E-20         0.00000E+00
    0.87316E-07         0.77998E-20         0.00000E+00
    0.87316E-07         0.51223E-20         0.00000E+00
    0.87316E-07         0.23283E-20         0.00000E+00
    0.87316E-07        -0.88476E-20         0.00000E+00
    0.87316E-07        -0.64028E-20         0.00000E+00
    0.87316E-07        -0.62864E-20         0.00000E+00
    0.87316E-07        -0.32596E-20         0.00000E+00
    0.87316E-07        -0.45402E-20         0.00000E+00
    0.87316E-07        -0.58208E-21         0.00000E+00
    0.87316E-07        -0.31432E-20         0.00000E+00
    0.87316E-07        -0.67521E-20         0.00000E+00
    0.87316E-07         0.41910E-20         0.00000E+00
    0.87316E-07         0.54715E-20         0.00000E+00
    0.91345E-07        -0.18626E-20         0.00000E+00
    0.91345E-07         0.79162E-20         0.00000E+00
    0.91345E-07         0.57044E-20         0.00000E+00
    0.91345E-07        -0.91968E-20         0.00000E+00
    0.91345E-07        -0.13039E-19         0.00000E+00
    0.91345E-07        -0.76834E-20         0.00000E+00
    0.91345E-07        -0.17462E-19         0.00000E+00
    0.91345E-07        -0.13039E-19         0.00000E+00
    0.91345E-07        -0.15134E-19         0.00000E+00
    0.91345E-07        -0.58208E-20         0.00000E+00
    0.91345E-07        -0.11059E-19         0.00000E+00
    0.91345E-07        -0.13039E-19         0.00000E+00
    0.91345E-07        -0.11176E-19         0.00000E+00
    0.91345E-07        -0.11874E-19         0.00000E+00
    0.91345E-07        -0.15600E-19         0.00000E+00
    0.91345E-07        -0.13737E-19         0.00000E+00
    0.91345E-07        -0.14552E-19         0.00000E+00
    0.91345E-07        -0.14552E-19         0.00000E+00
    0.91345E-07        -0.86147E-20         0.00000E+00
    0.91345E-07        -0.15832E-19         0.00000E+00
    0.91345E-07        -0.22585E-19         0.00000E+00
    0.91345E-07        -0.22352E-19         0.00000E+00
    0.91345E-07        -0.16764E-19         0.00000E+00
    0.91345E-07        -0.13271E-19         0.00000E+00
    0.91345E-07        -0.11409E-19         0.00000E+00
    0.91345E-07        -0.17462E-20         0.00000E+00
    0.91345E-07        -0.11642E-21         0.00000E+00
    0.91345E-07        -0.67521E-20         0.00000E+00
    0.91345E-07        -0.69849E-21         0.00000E+00
    0.91345E-07        -0.72177E-20         0.00000E+00
    0.91345E-07        -0.72177E-20         0.00000E+00
    0.91345E-07        -0.76834E-20         0.00000E+00
    0.91345E-07        -0.37253E-20         0.00000E+00
    0.91345E-07        -0.19791E-20         0.00000E+00
    0.91345E-07         0.37253E-20         0.00000E+00
    0.91345E-07         0.00000E+00         0.00000E+00
    0.91345E-07         0.16298E-20         0.00000E+00
    0.91345E-07        -0.43074E-20         0.00000E+00
    0.91345E-07        -0.58208E-21         0.00000E+00
    0.91345E-07         0.67521E-20         0.00000E+00
    0.91345E-07        -0.41910E-20         0.00000E+00
    0.91345E-07        -0.73342E-20         0.00000E+00
    0.91345E-07        -0.72177E-20         0.00000E+00
    0.91345E-07        -0.48894E-20         0.00000E+00
    0.91345E-07        -0.39581E-20         0.00000E+00
    0.91345E-07         0.11642E-20         0.00000E+00
    0.91345E-07        -0.34925E-20         0.00000E+00
    0.91345E-07         0.46566E-21         0.00000E+00
    0.91345E-07         0.79162E-20         0.00000E+00
    0.91345E-07         0.54715E-20         0.00000E+00
    0.95314E-07        -0.20955E-20         0.00000E+00
    0.95314E-07         0.65193E-20         0.00000E+00
    0.95314E-07         0.93132E-21         0.00000E+00
    0.95314E-07        -0.11642E-19         0.00000E+00
    0.95314E-07        -0.93132E-20         0.00000E+00
    0.95314E-07        -0.32596E-20         0.00000E+00
    0.95314E-07        -0.14203E-19         0.00000E+00
    0.95314E-07        -0.11642E-19         0.00000E+00
    0.95314E-07        -0.90804E-20         0.00000E+00
    0.95314E-07        -0.30268E-20         0.00000E+00
    0.95314E-07        -0.48894E-20         0.00000E+00
    0.95314E-07        -0.41910E-20         0.00000E+00
    0.95314E-07        -0.76834E-20         0.00000E+00
    0.95314E-07        -0.69849E-20         0.00000E+00
    0.95314E-07        -0.21188E-19         0.00000E+00
    0.95314E-07        -0.15832E-19         0.00000E+00
    0.95314E-07        -0.20606E-19         0.00000E+00
    0.95314E-07        -0.18859E-19         0.00000E+00
    0.95314E-07        -0.15483E-19         0.00000E+00
    0.95314E-07        -0.14785E-19         0.00000E+00
    0.95314E-07        -0.23749E-19         0.00000E+00
    0.95314E-07        -0.16880E-19         0.00000E+00
    0.95314E-07        -0.15367E-19         0.00000E+00
    0.95314E-07        -0.96625E-20         0.00000E+00
    0.95314E-07        -0.13039E-19         0.00000E+00
    0.95314E-07        -0.37253E-20         0.00000E+00
    0.95314E-07        -0.34925E-20         0.00000E+00
    0.95314E-07        -0.37253E-20         0.00000E+00
    0.95314E-07        -0.27940E-20         0.00000E+00
    0.95314E-07        -0.20955E-20         0.00000E+00
    0.95314E-07        -0.30268E-20         0.00000E+00
    0.95314E-07        -0.80327E-20         0.00000E+00
    0.95314E-07         0.46566E-21         0.00000E+00
    0.95314E-07         0.00000E+00         0.00000E+00
    0.95314E-07        -0.57044E-20         0.00000E+00
    0.95314E-07        -0.44238E-20         0.00000E+00
    0.95314E-07        -0.39581E-20         0.00000E+00
    0.95314E-07        -0.55879E-20         0.00000E+00
    0.95314E-07        -0.18626E-20         0.00000E+00
    0.95314E-07        -0.41910E-20         0.00000E+00
    0.95314E-07        -0.79162E-20         0.00000E+00
    0.95314E-07        -0.12689E-19         0.00000E+00
    0.95314E-07        -0.93132E-20         0.00000E+00
    0.95314E-07        -0.52387E-20         0.00000E+00
    0.95314E-07        -0.27940E-20         0.00000E+00
    0.95314E-07        -0.13970E-20         0.00000E+00
    0.95314E-07        -0.23283E-20         0.00000E+00
    0.95314E-07        -0.65193E-20         0.00000E+00
    0.95314E-07         0.82655E-20         0.00000E+00
    0.95314E-07         0.83819E-20         0.00000E+00
    0.99193E-07        -0.93132E-21         0.00000E+00
    0.99193E-07         0.37253E-20         0.00000E+00
    0.99193E-07         0.93132E-21         0.00000E+00
    0.99193E-07        -0.60536E-20         0.00000E+00
    0.99193E-07        -0.39581E-20         0.00000E+00
    0.99193E-07        -0.54715E-20         0.00000E+00
    0.99193E-07        -0.13504E-19         0.00000E+00
    0.99193E-07        -0.12224E-19         0.00000E+00
    0.99193E-07        -0.66357E-20         0.00000E+00
    0.99193E-07        -0.41910E-20         0.00000E+00
    0.99193E-07         0.69849E-21         0.00000E+00
    0.99193E-07        -0.83819E-20         0.00000E+00
    0.99193E-07        -0.93132E-20         0.00000E+00
    0.99193E-07        -0.95461E-20         0.00000E+00
    0.99193E-07        -0.17928E-19         0.00000E+00
    0.99193E-07        -0.17695E-19         0.00000E+00
    0.99193E-07        -0.18859E-19         0.00000E+00
    0.99193E-07        -0.17579E-19         0.00000E+00
    0.99193E-07        -0.18976E-19         0.00000E+00
    0.99193E-07        -0.14901E-19         0.00000E+00
    0.99193E-07        -0.25146E-19         0.00000E+00
    0.99193E-07        -0.17695E-19         0.00000E+00
    0.99193E-07        -0.12340E-19         0.00000E+00
    0.99193E-07        -0.11409E-19         0.00000E+00
    0.99193E-07        -0.17229E-19         0.00000E+00
    0.99193E-07        -0.69849E-20         0.00000E+00
    0.99193E-07        -0.75670E-20         0.00000E+00
    0.99193E-07        -0.10594E-19         0.00000E+00
    0.99193E-07        -0.48894E-20         0.00000E+00
    0.99193E-07        -0.46566E-20         0.00000E+00
    0.99193E-07        -0.12806E-20         0.00000E+00
    0.99193E-07        -0.29104E-20         0.00000E+00
    0.99193E-07         0.51223E-20         0.00000E+00
    0.99193E-07         0.38417E-20         0.00000E+00
    0.99193E-07        -0.51223E-20         0.00000E+00
    0.99193E-07        -0.90804E-20         0.00000E+00
    0.99193E-07        -0.62864E-20         0.00000E+00
    0.99193E-07        -0.69849E-21         0.00000E+00
    0.99193E-07        -0.27940E-20         0.00000E+00
    0.99193E-07        -0.34925E-20         0.00000E+00
    0.99193E-07        -0.10361E-19         0.00000E+00
    0.99193E-07        -0.10827E-19         0.00000E+00
    0.99193E-07        -0.10710E-19         0.00000E+00
    0.99193E-07        -0.11642E-20         0.00000E+00
    0.99193E-07        -0.18626E-20         0.00000E+00
    0.99193E-07         0.25611E-20         0.00000E+00
    0.99193E-07         0.69849E-21         0.00000E+00
    0.99193E-07        -0.51223E-20         0.00000E+00
    0.99193E-07         0.23283E-20         0.00000E+00
    0.99193E-07         0.44238E-20         0.00000E+00
    0.10295E-06        -0.13970E-20         0.00000E+00
    0.10295E-06         0.69849E-20         0.00000E+00
    0.10295E-06         0.95461E-20         0.00000E+00
    0.10295E-06        -0.27940E-20         0.00000E+00
    0.10295E-06        -0.55879E-20         0.00000E+00
    0.10295E-06        -0.55879E-20         0.00000E+00
    0.10295E-06        -0.88476E-20         0.00000E+00
    0.10295E-06        -0.11292E-19         0.00000E+00
    0.10295E-06        -0.13737E-19         0.00000E+00
    0.10295E-06        -0.53551E-20         0.00000E+00
    0.10295E-06        -0.65193E-20         0.00000E+00
    0.10295E-06        -0.12456E-19         0.00000E+00
    0.10295E-06        -0.13504E-19         0.00000E+00
    0.10295E-06        -0.11874E-19         0.00000E+00
    0.10295E-06        -0.19558E-19         0.00000E+00
    0.10295E-06        -0.16764E-19         0.00000E+00
    0.10295E-06        -0.20838E-19         0.00000E+00
    0.10295E-06        -0.17113E-19         0.00000E+00
    0.10295E-06        -0.18161E-19         0.00000E+00
    0.10295E-06        -0.17462E-19         0.00000E+00
    0.10295E-06        -0.22817E-19         0.00000E+00
    0.10295E-06        -0.24913E-19         0.00000E+00
    0.10295E-06        -0.11874E-19         0.00000E+00
    0.10295E-06        -0.10477E-19         0.00000E+00
    0.10295E-06        -0.16298E-19         0.00000E+00
    0.10295E-06        -0.71013E-20         0.00000E+00
    0.10295E-06        -0.93132E-21         0.00000E+00
    0.10295E-06        -0.65193E-20         0.00000E+00
    0.10295E-06        -0.72177E-20         0.00000E+00
    0.10295E-06        -0.13504E-19         0.00000E+00
    0.10295E-06        -0.46566E-20         0.00000E+00
    0.10295E-06        -0.23283E-21         0.00000E+00
    0.10295E-06         0.74506E-20         0.00000E+00
    0.10295E-06         0.20955E-20         0.00000E+00
    0.10295E-06         0.93132E-21         0.00000E+00
    0.10295E-06        -0.10245E-19         0.00000E+00
    0.10295E-06        -0.36089E-20         0.00000E+00
    0.10295E-06        -0.44238E-20         0.00000E+00
    0.10295E-06         0.11642E-21         0.00000E+00
    0.10295E-06         0.69849E-20         0.00000E+00
    0.10295E-06        -0.10245E-19         0.00000E+00
    0.10295E-06        -0.10245E-19         0.00000E+00
    0.10295E-06        -0.47730E-20         0.00000E+00
    0.10295E-06         0.34925E-20         0.00000E+00
    0.10295E-06         0.23283E-20         0.00000E+00
    0.10295E-06         0.44238E-20         0.00000E+00
    0.10295E-06        -0.46566E-21         0.00000E+00
    0.10295E-06        -0.13970E-20         0.00000E+00
    0.10295E-06         0.30268E-20         0.00000E+00
    0.10295E-06         0.41910E-20         0.00000E+00
    0.10655E-06        -0.30268E-20         0.00000E+00
    0.10655E-06         0.48894E-20         0.00000E+00
    0.10655E-06         0.68685E-20         0.00000E+00
    0.10655E-06        -0.48894E-20         0.00000E+00
    0.10655E-06        -0.32596E-20         0.00000E+00
    0.10655E-06        -0.51223E-20         0.00000E+00
    0.10655E-06        -0.30268E-20         0.00000E+00
    0.10655E-06        -0.87311E-20         0.00000E+00
    0.10655E-06        -0.13737E-19         0.00000E+00
    0.10655E-06        -0.81491E-20         0.00000E+00
    0.10655E-06        -0.14203E-19         0.00000E+00
    0.10655E-06        -0.11874E-19         0.00000E+00
    0.10655E-06        -0.13039E-19         0.00000E+00
    0.10655E-06        -0.86147E-20         0.00000E+00
    0.10655E-06        -0.19791E-19         0.00000E+00
    0.10655E-06        -0.20256E-19         0.00000E+00
    0.10655E-06        -0.21886E-19         0.00000E+00
    0.10655E-06        -0.13621E-19         0.00000E+00
    0.10655E-06        -0.16997E-19         0.00000E+00
    0.10655E-06        -0.17928E-19         0.00000E+00
    0.10655E-06        -0.27940E-19         0.00000E+00
    0.10655E-06        -0.26659E-19         0.00000E+00
    0.10655E-06        -0.13039E-19         0.00000E+00
    0.10655E-06        -0.10710E-19         0.00000E+00
    0.10655E-06        -0.10361E-19         0.00000E+00
    0.10655E-06         0.81491E-21         0.00000E+00
    0.10655E-06        -0.18626E-20         0.00000E+00
    0.10655E-06        -0.30268E-20         0.00000E+00
    0.10655E-06        -0.43074E-20         0.00000E+00
    0.10655E-06        -0.13504E-19         0.00000E+00
    0.10655E-06        -0.88476E-20         0.00000E+00
    0.10655E-06        -0.46566E-21         0.00000E+00
    0.10655E-06         0.64028E-20         0.00000E+00
    0.10655E-06        -0.25611E-20         0.00000E+00
    0.10655E-06         0.10477E-20         0.00000E+00
    0.10655E-06        -0.93132E-20         0.00000E+00
    0.10655E-06        -0.27940E-20         0.00000E+00
    0.10655E-06         0.69849E-21         0.00000E+00
    0.10655E-06         0.66357E-20         0.00000E+00
    0.10655E-06         0.65193E-20         0.00000E+00
    0.10655E-06        -0.72177E-20         0.00000E+00
    0.10655E-06        -0.87311E-20         0.00000E+00
    0.10655E-06        -0.12806E-20         0.00000E+00
    0.10655E-06         0.30268E-20         0.00000E+00
    0.10655E-06         0.46566E-21         0.00000E+00
    0.10655E-06         0.58208E-21         0.00000E+00
    0.10655E-06        -0.11642E-20         0.00000E+00
    0.10655E-06        -0.13970E-20         0.00000E+00
    0.10655E-06         0.39581E-20         0.00000E+00
    0.10655E-06         0.50059E-20         0.00000E+00
    0.10996E-06        -0.29104E-20         0.00000E+00
    0.10996E-06         0.47730E-20         0.00000E+00
    0.10996E-06         0.61700E-20         0.00000E+00
    0.10996E-06        -0.76834E-20         0.00000E+00
    0.10996E-06        -0.52387E-20         0.00000E+00
    0.10996E-06        -0.64028E-20         0.00000E+00
    0.10996E-06        -0.41910E-20         0.00000E+00
    0.10996E-06        -0.68685E-20         0.00000E+00
    0.10996E-06        -0.74506E-20         0.00000E+00
    0.10996E-06        -0.65193E-20         0.00000E+00
    0.10996E-06        -0.89640E-20         0.00000E+00
    0.10996E-06        -0.10710E-19         0.00000E+00
    0.10996E-06        -0.93132E-20         0.00000E+00
    0.10996E-06        -0.54715E-20         0.00000E+00
    0.10996E-06        -0.14901E-19         0.00000E+00
    0.10996E-06        -0.20838E-19         0.00000E+00
    0.10996E-06        -0.22002E-19         0.00000E+00
    0.10996E-06        -0.20722E-19         0.00000E+00
    0.10996E-06        -0.13621E-19         0.00000E+00
    0.10996E-06        -0.18859E-19         0.00000E+00
    0.10996E-06        -0.33178E-19         0.00000E+00
    0.10996E-06        -0.21653E-19         0.00000E+00
    0.10996E-06        -0.11642E-19         0.00000E+00
    0.10996E-06        -0.11874E-19         0.00000E+00
    0.10996E-06        -0.12573E-19         0.00000E+00
    0.10996E-06        -0.38417E-20         0.00000E+00
    0.10996E-06        -0.36089E-20         0.00000E+00
    0.10996E-06        -0.69849E-20         0.00000E+00
    0.10996E-06        -0.10477E-20         0.00000E+00
    0.10996E-06        -0.10710E-19         0.00000E+00
    0.10996E-06        -0.59372E-20         0.00000E+00
    0.10996E-06        -0.65193E-20         0.00000E+00
    0.10996E-06         0.20955E-20         0.00000E+00
    0.10996E-06         0.51223E-20         0.00000E+00
    0.10996E-06         0.30268E-20         0.00000E+00
    0.10996E-06        -0.10477E-20         0.00000E+00
    0.10996E-06         0.34925E-21         0.00000E+00
    0.10996E-06         0.20955E-20         0.00000E+00
    0.10996E-06         0.69849E-21         0.00000E+00
    0.10996E-06         0.11642E-20         0.00000E+00
    0.10996E-06        -0.34925E-20         0.00000E+00
    0.10996E-06        -0.72177E-20         0.00000E+00
    0.10996E-06        -0.11642E-20         0.00000E+00
    0.10996E-06        -0.23283E-21         0.00000E+00
    0.10996E-06        -0.81491E-21         0.00000E+00
    0.10996E-06         0.12806E-20         0.00000E+00
    0.10996E-06        -0.34925E-21         0.00000E+00
    0.10996E-06        -0.41910E-20         0.00000E+00
    0.10996E-06         0.65193E-20         0.00000E+00
    0.10996E-06         0.30268E-20         0.00000E+00
    0.11314E-06        -0.34925E-20         0.00000E+00
    0.11314E-06         0.62864E-20         0.00000E+00
    0.11314E-06         0.72177E-20         0.00000E+00
    0.11314E-06        -0.77998E-20         0.00000E+00
    0.11314E-06        -0.50059E-20         0.00000E+00
    0.11314E-06        -0.86147E-20         0.00000E+00
    0.11314E-06        -0.54715E-20         0.00000E+00
    0.11314E-06        -0.10594E-19         0.00000E+00
    0.11314E-06        -0.12806E-19         0.00000E+00
    0.11314E-06        -0.37253E-20         0.00000E+00
    0.11314E-06        -0.24447E-20         0.00000E+00
    0.11314E-06        -0.32596E-20         0.00000E+00
    0.11314E-06        -0.69849E-20         0.00000E+00
    0.11314E-06        -0.10477E-20         0.00000E+00
    0.11314E-06        -0.13271E-19         0.00000E+00
    0.11314E-06        -0.11874E-19         0.00000E+00
    0.11314E-06        -0.20722E-19         0.00000E+00
    0.11314E-06        -0.19674E-19         0.00000E+00
    0.11314E-06        -0.17928E-19         0.00000E+00
    0.11314E-06        -0.20023E-19         0.00000E+00
    0.11314E-06        -0.29220E-19         0.00000E+00
    0.11314E-06        -0.22352E-19         0.00000E+00
    0.11314E-06        -0.14203E-19         0.00000E+00
    0.11314E-06        -0.15250E-19         0.00000E+00
    0.11314E-06        -0.14086E-19         0.00000E+00
    0.11314E-06        -0.50059E-20         0.00000E+00
    0.11314E-06        -0.58208E-21         0.00000E+00
    0.11314E-06        -0.34925E-20         0.00000E+00
    0.11314E-06        -0.46566E-21         0.00000E+00
    0.11314E-06        -0.83819E-20         0.00000E+00
    0.11314E-06        -0.25611E-20         0.00000E+00
    0.11314E-06        -0.57044E-20         0.00000E+00
    0.11314E-06         0.18626E-20         0.00000E+00
    0.11314E-06         0.64028E-20         0.00000E+00
    0.11314E-06         0.73342E-20         0.00000E+00
    0.11314E-06        -0.11642E-21         0.00000E+00
    0.11314E-06         0.40745E-20         0.00000E+00
    0.11314E-06        -0.23283E-21         0.00000E+00
    0.11314E-06        -0.46566E-21         0.00000E+00
    0.11314E-06         0.10477E-20         0.00000E+00
    0.11314E-06        -0.18626E-20         0.00000E+00
    0.11314E-06        -0.77998E-20         0.00000E+00
    0.11314E-06        -0.67521E-20         0.00000E+00
    0.11314E-06        -0.65193E-20         0.00000E+00
    0.11314E-06        -0.46566E-20         0.00000E+00
    0.11314E-06         0.46566E-21         0.00000E+00
    0.11314E-06         0.30268E-20         0.00000E+00
    0.11314E-06        -0.18626E-20         0.00000E+00
    0.11314E-06         0.46566E-20         0.00000E+00
    0.11314E-06         0.39581E-20         0.00000E+00
    0.11607E-06        -0.20955E-20         0.00000E+00
    0.11607E-06         0.43074E-20         0.00000E+00
    0.11607E-06         0.68685E-20         0.00000E+00
    0.11607E-06        -0.53551E-20         0.00000E+00
    0.11607E-06        -0.44238E-20         0.00000E+00
    0.11607E-06        -0.69849E-20         0.00000E+00
    0.11607E-06        -0.10012E-19         0.00000E+00
    0.11607E-06        -0.13737E-19         0.00000E+00
    0.11607E-06        -0.96625E-20         0.00000E+00
    0.11607E-06        -0.91968E-20         0.00000E+00
    0.11607E-06        -0.64028E-20         0.00000E+00
    0.11607E-06        -0.37253E-20         0.00000E+00
    0.11607E-06        -0.46566E-20         0.00000E+00
    0.11607E-06        -0.48894E-20         0.00000E+00
    0.11607E-06        -0.13621E-19         0.00000E+00
    0.11607E-06        -0.12224E-19         0.00000E+00
    0.11607E-06        -0.18510E-19         0.00000E+00
    0.11607E-06        -0.15367E-19         0.00000E+00
    0.11607E-06        -0.17462E-19         0.00000E+00
    0.11607E-06        -0.16298E-19         0.00000E+00
    0.11607E-06        -0.26193E-19         0.00000E+00
    0.11607E-06        -0.22119E-19         0.00000E+00
    0.11607E-06        -0.13039E-19         0.00000E+00
    0.11607E-06        -0.10710E-19         0.00000E+00
    0.11607E-06        -0.14552E-19         0.00000E+00
    0.11607E-06        -0.18626E-20         0.00000E+00
    0.11607E-06         0.11642E-20         0.00000E+00
    0.11607E-06        -0.29104E-20         0.00000E+00
    0.11607E-06         0.46566E-20         0.00000E+00
    0.11607E-06        -0.27940E-20         0.00000E+00
    0.11607E-06        -0.81491E-21         0.00000E+00
    0.11607E-06         0.11642E-21         0.00000E+00
    0.11607E-06         0.48894E-20         0.00000E+00
    0.11607E-06         0.51223E-20         0.00000E+00
    0.11607E-06         0.15134E-20         0.00000E+00
    0.11607E-06        -0.44238E-20         0.00000E+00
    0.11607E-06        -0.34925E-20         0.00000E+00
    0.11607E-06        -0.11642E-21         0.00000E+00
    0.11607E-06         0.10477E-20         0.00000E+00
    0.11607E-06         0.20955E-20         0.00000E+00
    0.11607E-06        -0.30268E-20         0.00000E+00
    0.11607E-06        -0.58208E-20         0.00000E+00
    0.11607E-06        -0.72177E-20         0.00000E+00
    0.11607E-06        -0.79162E-20         0.00000E+00
    0.11607E-06        -0.80327E-20         0.00000E+00
    0.11607E-06         0.00000E+00         0.00000E+00
    0.11607E-06        -0.40745E-20         0.00000E+00
    0.11607E-06        -0.34925E-20         0.00000E+00
    0.11607E-06         0.46566E-20         0.00000E+00
    0.11607E-06         0.27940E-20         0.00000E+00
    0.11872E-06        -0.18626E-20         0.00000E+00
    0.11872E-06         0.18626E-20         0.00000E+00
    0.11872E-06         0.18626E-20         0.00000E+00
    0.11872E-06        -0.86147E-20         0.00000E+00
    0.11872E-06        -0.74506E-20         0.00000E+00
    0.11872E-06        -0.62864E-20         0.00000E+00
    0.11872E-06        -0.12340E-19         0.00000E+00
    0.11872E-06        -0.11059E-19         0.00000E+00
    0.11872E-06        -0.12107E-19         0.00000E+00
    0.11872E-06        -0.37253E-20         0.00000E+00
    0.11872E-06        -0.38417E-20         0.00000E+00
    0.11872E-06        -0.52387E-20         0.00000E+00
    0.11872E-06        -0.72177E-20         0.00000E+00
    0.11872E-06        -0.77998E-20         0.00000E+00
    0.11872E-06        -0.14552E-19         0.00000E+00
    0.11872E-06        -0.14901E-19         0.00000E+00
    0.11872E-06        -0.18161E-19         0.00000E+00
    0.11872E-06        -0.13970E-19         0.00000E+00
    0.11872E-06        -0.20256E-19         0.00000E+00
    0.11872E-06        -0.13970E-19         0.00000E+00
    0.11872E-06        -0.23865E-19         0.00000E+00
    0.11872E-06        -0.20023E-19         0.00000E+00
    0.11872E-06        -0.90804E-20         0.00000E+00
    0.11872E-06        -0.59372E-20         0.00000E+00
    0.11872E-06        -0.12340E-19         0.00000E+00
    0.11872E-06        -0.37253E-20         0.00000E+00
    0.11872E-06        -0.46566E-21         0.00000E+00
    0.11872E-06         0.81491E-21         0.00000E+00
    0.11872E-06         0.58208E-20         0.00000E+00
    0.11872E-06        -0.10477E-20         0.00000E+00
    0.11872E-06         0.46566E-21         0.00000E+00
    0.11872E-06        -0.81491E-21         0.00000E+00
    0.11872E-06         0.68685E-20         0.00000E+00
    0.11872E-06         0.77998E-20         0.00000E+00
    0.11872E-06         0.13970E-20         0.00000E+00
    0.11872E-06        -0.65193E-20         0.00000E+00
    0.11872E-06        -0.46566E-20         0.00000E+00
    0.11872E-06        -0.45402E-20         0.00000E+00
    0.11872E-06        -0.93132E-21         0.00000E+00
    0.11872E-06        -0.16298E-20         0.00000E+00
    0.11872E-06        -0.94296E-20         0.00000E+00
    0.11872E-06        -0.89640E-20         0.00000E+00
    0.11872E-06        -0.66357E-20         0.00000E+00
    0.11872E-06        -0.37253E-20         0.00000E+00
    0.11872E-06        -0.67521E-20         0.00000E+00
    0.11872E-06        -0.31432E-20         0.00000E+00
    0.11872E-06        -0.51223E-20         0.00000E+00
    0.11872E-06        -0.31432E-20         0.00000E+00
    0.11872E-06         0.25611E-20         0.00000E+00
    0.11872E-06         0.40745E-20         0.00000E+00
    0.12104E-06        -0.16298E-20         0.00000E+00
    0.12104E-06        -0.27940E-20         0.00000E+00
    0.12104E-06        -0.30268E-20         0.00000E+00
    0.12104E-06        -0.95461E-20         0.00000E+00
    0.12104E-06        -0.69849E-20         0.00000E+00
    0.12104E-06        -0.89640E-20         0.00000E+00
    0.12104E-06        -0.95461E-20         0.00000E+00
    0.12104E-06        -0.14435E-19         0.00000E+00
    0.12104E-06        -0.14203E-19         0.00000E+00
    0.12104E-06        -0.90804E-20         0.00000E+00
    0.12104E-06        -0.30268E-20         0.00000E+00
    0.12104E-06        -0.69849E-20         0.00000E+00
    0.12104E-06        -0.74506E-20         0.00000E+00
    0.12104E-06        -0.10943E-19         0.00000E+00
    0.12104E-06        -0.12806E-19         0.00000E+00
    0.12104E-06        -0.16764E-19         0.00000E+00
    0.12104E-06        -0.16298E-19         0.00000E+00
    0.12104E-06        -0.97789E-20         0.00000E+00
    0.12104E-06        -0.17928E-19         0.00000E+00
    0.12104E-06        -0.19092E-19         0.00000E+00
    0.12104E-06        -0.19791E-19         0.00000E+00
    0.12104E-06        -0.17229E-19         0.00000E+00
    0.12104E-06        -0.10361E-19         0.00000E+00
    0.12104E-06        -0.55879E-20         0.00000E+00
    0.12104E-06        -0.95461E-20         0.00000E+00
    0.12104E-06         0.12806E-20         0.00000E+00
    0.12104E-06         0.18626E-20         0.00000E+00
    0.12104E-06        -0.11642E-21         0.00000E+00
    0.12104E-06         0.25611E-20         0.00000E+00
    0.12104E-06        -0.20955E-20         0.00000E+00
    0.12104E-06         0.69849E-21         0.00000E+00
    0.12104E-06         0.19791E-20         0.00000E+00
    0.12104E-06         0.47730E-20         0.00000E+00
    0.12104E-06         0.11642E-20         0.00000E+00
    0.12104E-06         0.60536E-20         0.00000E+00
    0.12104E-06        -0.46566E-21         0.00000E+00
    0.12104E-06        -0.23283E-21         0.00000E+00
    0.12104E-06        -0.53551E-20         0.00000E+00
    0.12104E-06        -0.47730E-20         0.00000E+00
    0.12104E-06        -0.23283E-20         0.00000E+00
    0.12104E-06        -0.10710E-19         0.00000E+00
    0.12104E-06        -0.13504E-19         0.00000E+00
    0.12104E-06        -0.88476E-20         0.00000E+00
    0.12104E-06        -0.41910E-20         0.00000E+00
    0.12104E-06        -0.67521E-20         0.00000E+00
    0.12104E-06        -0.23283E-21         0.00000E+00
    0.12104E-06        -0.20955E-20         0.00000E+00
    0.12104E-06         0.23283E-21         0.00000E+00
    0.12104E-06         0.41910E-20         0.00000E+00
    0.12104E-06         0.32596E-20         0.00000E+00
    0.12302E-06        -0.41910E-20         0.00000E+00
    0.12302E-06         0.41910E-20         0.00000E+00
    0.12302E-06         0.25611E-20         0.00000E+00
    0.12302E-06        -0.74506E-20         0.00000E+00
    0.12302E-06        -0.94296E-20         0.00000E+00
    0.12302E-06        -0.10245E-19         0.00000E+00
    0.12302E-06        -0.11409E-19         0.00000E+00
    0.12302E-06        -0.14203E-19         0.00000E+00
    0.12302E-06        -0.11176E-19         0.00000E+00
    0.12302E-06        -0.10943E-19         0.00000E+00
    0.12302E-06        -0.10710E-19         0.00000E+00
    0.12302E-06        -0.60536E-20         0.00000E+00
    0.12302E-06        -0.58208E-20         0.00000E+00
    0.12302E-06        -0.15250E-19         0.00000E+00
    0.12302E-06        -0.17928E-19         0.00000E+00
    0.12302E-06        -0.14668E-19         0.00000E+00
    0.12302E-06        -0.11874E-19         0.00000E+00
    0.12302E-06        -0.12573E-19         0.00000E+00
    0.12302E-06        -0.93132E-20         0.00000E+00
    0.12302E-06        -0.14901E-19         0.00000E+00
    0.12302E-06        -0.17695E-19         0.00000E+00
    0.12302E-06        -0.13039E-19         0.00000E+00
    0.12302E-06        -0.13271E-19         0.00000E+00
    0.12302E-06        -0.81491E-20         0.00000E+00
    0.12302E-06        -0.97789E-20         0.00000E+00
    0.12302E-06         0.27940E-20         0.00000E+00
    0.12302E-06        -0.11642E-20         0.00000E+00
    0.12302E-06        -0.39581E-20         0.00000E+00
    0.12302E-06        -0.34925E-21         0.00000E+00
    0.12302E-06        -0.23283E-21         0.00000E+00
    0.12302E-06         0.13970E-20         0.00000E+00
    0.12302E-06         0.25611E-20         0.00000E+00
    0.12302E-06         0.16298E-20         0.00000E+00
    0.12302E-06         0.19791E-20         0.00000E+00
    0.12302E-06         0.27940E-20         0.00000E+00
    0.12302E-06         0.12806E-20         0.00000E+00
    0.12302E-06         0.34925E-20         0.00000E+00
    0.12302E-06         0.20955E-20         0.00000E+00
    0.12302E-06        -0.69849E-21         0.00000E+00
    0.12302E-06        -0.26776E-20         0.00000E+00
    0.12302E-06        -0.10245E-19         0.00000E+00
    0.12302E-06        -0.10710E-19         0.00000E+00
    0.12302E-06        -0.48894E-20         0.00000E+00
    0.12302E-06        -0.23283E-21         0.00000E+00
    0.12302E-06         0.23283E-21         0.00000E+00
    0.12302E-06         0.10477E-20         0.00000E+00
    0.12302E-06         0.23283E-21         0.00000E+00
    0.12302E-06        -0.10477E-20         0.00000E+00
    0.12302E-06         0.51223E-20         0.00000E+00
    0.12302E-06         0.18626E-20         0.00000E+00
    0.12464E-06        -0.12806E-20         0.00000E+00
    0.12464E-06         0.44238E-20         0.00000E+00
    0.12464E-06         0.58208E-21         0.00000E+00
    0.12464E-06        -0.93132E-20         0.00000E+00
    0.12464E-06        -0.11874E-19         0.00000E+00
    0.12464E-06        -0.12573E-19         0.00000E+00
    0.12464E-06        -0.10827E-19         0.00000E+00
    0.12464E-06        -0.13271E-19         0.00000E+00
    0.12464E-06        -0.13621E-19         0.00000E+00
    0.12464E-06        -0.10012E-19         0.00000E+00
    0.12464E-06        -0.13621E-19         0.00000E+00
    0.12464E-06        -0.88476E-20         0.00000E+00
    0.12464E-06        -0.72177E-20         0.00000E+00
    0.12464E-06        -0.73342E-20         0.00000E+00
    0.12464E-06        -0.13388E-19         0.00000E+00
    0.12464E-06        -0.12689E-19         0.00000E+00
    0.12464E-06        -0.14552E-19         0.00000E+00
    0.12464E-06        -0.11874E-19         0.00000E+00
    0.12464E-06        -0.10710E-19         0.00000E+00
    0.12464E-06        -0.10710E-19         0.00000E+00
    0.12464E-06        -0.15832E-19         0.00000E+00
    0.12464E-06        -0.11176E-19         0.00000E+00
    0.12464E-06        -0.43074E-20         0.00000E+00
    0.12464E-06        -0.52387E-20         0.00000E+00
    0.12464E-06        -0.43074E-20         0.00000E+00
    0.12464E-06        -0.33760E-20         0.00000E+00
    0.12464E-06        -0.55879E-20         0.00000E+00
    0.12464E-06        -0.66357E-20         0.00000E+00
    0.12464E-06        -0.69849E-21         0.00000E+00
    0.12464E-06        -0.46566E-21         0.00000E+00
    0.12464E-06        -0.34925E-21         0.00000E+00
    0.12464E-06         0.00000E+00         0.00000E+00
    0.12464E-06         0.23283E-20         0.00000E+00
    0.12464E-06         0.55879E-20         0.00000E+00
    0.12464E-06         0.58208E-20         0.00000E+00
    0.12464E-06         0.37253E-20         0.00000E+00
    0.12464E-06         0.60536E-20         0.00000E+00
    0.12464E-06         0.37253E-20         0.00000E+00
    0.12464E-06         0.11642E-20         0.00000E+00
    0.12464E-06         0.18626E-20         0.00000E+00
    0.12464E-06        -0.41910E-20         0.00000E+00
    0.12464E-06        -0.32596E-20         0.00000E+00
    0.12464E-06        -0.41910E-20         0.00000E+00
    0.12464E-06        -0.93132E-21         0.00000E+00
    0.12464E-06         0.10477E-20         0.00000E+00
    0.12464E-06        -0.20955E-20         0.00000E+00
    0.12464E-06        -0.23283E-21         0.00000E+00
    0.12464E-06        -0.48894E-20         0.00000E+00
    0.12464E-06        -0.15134E-20         0.00000E+00
    0.12464E-06         0.29104E-20         0.00000E+00
    0.12587E-06        -0.23283E-21         0.00000E+00
    0.12587E-06        -0.39581E-20         0.00000E+00
    0.12587E-06        -0.54715E-20         0.00000E+00
    0.12587E-06        -0.11059E-19         0.00000E+00
    0.12587E-06        -0.90804E-20         0.00000E+00
    0.12587E-06        -0.10477E-19         0.00000E+00
    0.12587E-06        -0.94296E-20         0.00000E+00
    0.12587E-06        -0.13388E-19         0.00000E+00
    0.12587E-06        -0.11176E-19         0.00000E+00
    0.12587E-06        -0.89640E-20         0.00000E+00
    0.12587E-06        -0.97789E-20         0.00000E+00
    0.12587E-06        -0.79162E-20         0.00000E+00
    0.12587E-06        -0.84983E-20         0.00000E+00
    0.12587E-06        -0.58208E-20         0.00000E+00
    0.12587E-06        -0.13970E-19         0.00000E+00
    0.12587E-06        -0.15716E-19         0.00000E+00
    0.12587E-06        -0.16531E-19         0.00000E+00
    0.12587E-06        -0.90804E-20         0.00000E+00
    0.12587E-06        -0.11409E-19         0.00000E+00
    0.12587E-06        -0.14435E-19         0.00000E+00
    0.12587E-06        -0.15367E-19         0.00000E+00
    0.12587E-06        -0.83819E-20         0.00000E+00
    0.12587E-06         0.00000E+00         0.00000E+00
    0.12587E-06         0.23283E-20         0.00000E+00
    0.12587E-06         0.00000E+00         0.00000E+00
    0.12587E-06         0.40745E-20         0.00000E+00
    0.12587E-06         0.32596E-20         0.00000E+00
    0.12587E-06        -0.23283E-21         0.00000E+00
    0.12587E-06         0.34925E-20         0.00000E+00
    0.12587E-06        -0.18626E-20         0.00000E+00
    0.12587E-06         0.23283E-21         0.00000E+00
    0.12587E-06         0.11642E-21         0.00000E+00
    0.12587E-06         0.47730E-20         0.00000E+00
    0.12587E-06         0.67521E-20         0.00000E+00
    0.12587E-06         0.59372E-20         0.00000E+00
    0.12587E-06         0.23283E-20         0.00000E+00
    0.12587E-06         0.30268E-20         0.00000E+00
    0.12587E-06         0.23283E-20         0.00000E+00
    0.12587E-06         0.31432E-20         0.00000E+00
    0.12587E-06         0.52387E-20         0.00000E+00
    0.12587E-06         0.32596E-20         0.00000E+00
    0.12587E-06         0.23283E-21         0.00000E+00
    0.12587E-06        -0.34925E-20         0.00000E+00
    0.12587E-06        -0.37253E-20         0.00000E+00
    0.12587E-06        -0.34925E-20         0.00000E+00
    0.12587E-06        -0.17462E-20         0.00000E+00
    0.12587E-06        -0.24447E-20         0.00000E+00
    0.12587E-06        -0.37253E-20         0.00000E+00
    0.12587E-06         0.30268E-20         0.00000E+00
    0.12587E-06        -0.11642E-21         0.00000E+00
    0.12670E-06        -0.27940E-20         0.00000E+00
    0.12670E-06        -0.18626E-20         0.00000E+00
    0.12670E-06         0.11642E-21         0.00000E+00
    0.12670E-06        -0.11176E-19         0.00000E+00
    0.12670E-06        -0.10012E-19         0.00000E+00
    0.12670E-06        -0.73342E-20         0.00000E+00
    0.12670E-06        -0.47730E-20         0.00000E+00
    0.12670E-06        -0.47730E-20         0.00000E+00
    0.12670E-06        -0.55879E-20         0.00000E+00
    0.12670E-06         0.00000E+00         0.00000E+00
    0.12670E-06        -0.41910E-20         0.00000E+00
    0.12670E-06        -0.55879E-20         0.00000E+00
    0.12670E-06        -0.46566E-20         0.00000E+00
    0.12670E-06        -0.55879E-20         0.00000E+00
    0.12670E-06        -0.12806E-19         0.00000E+00
    0.12670E-06        -0.76834E-20         0.00000E+00
    0.12670E-06        -0.11874E-19         0.00000E+00
    0.12670E-06        -0.97789E-20         0.00000E+00
    0.12670E-06        -0.95461E-20         0.00000E+00
    0.12670E-06        -0.10943E-19         0.00000E+00
    0.12670E-06        -0.15600E-19         0.00000E+00
    0.12670E-06        -0.74506E-20         0.00000E+00
    0.12670E-06         0.69849E-21         0.00000E+00
    0.12670E-06         0.39581E-20         0.00000E+00
    0.12670E-06         0.11642E-20         0.00000E+00
    0.12670E-06         0.10943E-19         0.00000E+00
    0.12670E-06         0.65193E-20         0.00000E+00
    0.12670E-06         0.32596E-20         0.00000E+00
    0.12670E-06         0.39581E-20         0.00000E+00
    0.12670E-06        -0.11642E-20         0.00000E+00
    0.12670E-06         0.23283E-20         0.00000E+00
    0.12670E-06         0.27940E-20         0.00000E+00
    0.12670E-06         0.41910E-20         0.00000E+00
    0.12670E-06         0.44238E-20         0.00000E+00
    0.12670E-06         0.24447E-20         0.00000E+00
    0.12670E-06         0.69849E-21         0.00000E+00
    0.12670E-06         0.20955E-20         0.00000E+00
    0.12670E-06        -0.15134E-20         0.00000E+00
    0.12670E-06         0.58208E-20         0.00000E+00
    0.12670E-06         0.60536E-20         0.00000E+00
    0.12670E-06        -0.17462E-20         0.00000E+00
    0.12670E-06        -0.23283E-20         0.00000E+00
    0.12670E-06         0.13970E-20         0.00000E+00
    0.12670E-06        -0.23283E-21         0.00000E+00
    0.12670E-06        -0.54715E-20         0.00000E+00
    0.12670E-06        -0.11642E-20         0.00000E+00
    0.12670E-06        -0.29104E-20         0.00000E+00
    0.12670E-06        -0.11642E-20         0.00000E+00
    0.12670E-06         0.50059E-20         0.00000E+00
    0.12670E-06         0.11642E-21         0.00000E+00
    0.12712E-06        -0.18626E-20         0.00000E+00
    0.12712E-06         0.46566E-21         0.00000E+00
    0.12712E-06         0.18626E-20         0.00000E+00
    0.12712E-06        -0.65193E-20         0.00000E+00
    0.12712E-06        -0.69849E-20         0.00000E+00
    0.12712E-06        -0.37253E-20         0.00000E+00
    0.12712E-06         0.33760E-20         0.00000E+00
    0.12712E-06         0.00000E+00         0.00000E+00
    0.12712E-06        -0.23283E-20         0.00000E+00
    0.12712E-06        -0.41910E-20         0.00000E+00
    0.12712E-06         0.22119E-20         0.00000E+00
    0.12712E-06        -0.13970E-20         0.00000E+00
    0.12712E-06         0.00000E+00         0.00000E+00
    0.12712E-06         0.93132E-21         0.00000E+00
    0.12712E-06        -0.37253E-20         0.00000E+00
    0.12712E-06        -0.46566E-21         0.00000E+00
    0.12712E-06        -0.37253E-20         0.00000E+00
    0.12712E-06        -0.27940E-20         0.00000E+00
    0.12712E-06        -0.74506E-20         0.00000E+00
    0.12712E-06        -0.46566E-20         0.00000E+00
    0.12712E-06        -0.74506E-20         0.00000E+00
    0.12712E-06        -0.41910E-20         0.00000E+00
    0.12712E-06         0.46566E-21         0.00000E+00
    0.12712E-06         0.18626E-20         0.00000E+00
    0.12712E-06         0.93132E-21         0.00000E+00
    0.12712E-06         0.51223E-20         0.00000E+00
    0.12712E-06         0.37253E-20         0.00000E+00
    0.12712E-06         0.00000E+00         0.00000E+00
    0.12712E-06         0.93132E-21         0.00000E+00
    0.12712E-06        -0.13970E-20         0.00000E+00
    0.12712E-06         0.00000E+00         0.00000E+00
    0.12712E-06         0.34925E-21         0.00000E+00
    0.12712E-06         0.33760E-20         0.00000E+00
    0.12712E-06         0.27940E-20         0.00000E+00
    0.12712E-06         0.27940E-20         0.00000E+00
    0.12712E-06         0.27940E-20         0.00000E+00
    0.12712E-06         0.93132E-21         0.00000E+00
    0.12712E-06        -0.32596E-20         0.00000E+00
    0.12712E-06         0.46566E-21         0.00000E+00
    0.12712E-06        -0.33760E-20         0.00000E+00
    0.12712E-06        -0.23283E-20         0.00000E+00
    0.12712E-06         0.37253E-20         0.00000E+00
    0.12712E-06         0.00000E+00         0.00000E+00
    0.12712E-06         0.00000E+00         0.00000E+00
    0.12712E-06        -0.27940E-20         0.00000E+00
    0.12712E-06        -0.13970E-20         0.00000E+00
    0.12712E-06         0.00000E+00         0.00000E+00
    0.12712E-06         0.30268E-20         0.00000E+00
    0.12712E-06        -0.25611E-20         0.00000E+00
    0.12712E-06         0.60536E-20         0.00000E+00
POINT_DATA       5151
VECTORS vDarcyNodal double 
    0.84762E-07         0.00000E+00         0.00000E+00
    0.84762E-07         0.00000E+00         0.00000E+00
    0.84762E-07         0.00000E+00         0.00000E+00
    0.84762E-07         0.00000E+00         0.00000E+00
    0.84762E-07         0.00000E+00         0.00000E+00
    0.84762E-07         0.00000E+00         0.00000E+00
    0.84762E-07         0.00000E+00         0.00000E+00
    0.84762E-07         0.00000E+00         0.00000E+00
    0.84762E-07         0.00000E+00         0.00000E+00
    0.84762E-07         0.00000E+00         0.00000E+00
    0.84762E-07         0.00000E+00         0.00000E+00
    0.84762E-07         0.00000E+00         0.00000E+00
    0.84762E-07         0.00000E+00         0.00000E+00
    0.84762E-07         0.00000E+00         0.00000E+00
    0.84762E-07         0.00000E+00         0.00000E+00
    0.84762E-07         0.00000E+00         0.00000E+00
    0.84762E-07         0.00000E+00         0.00000E+00
    0.84762E-07         0.00000E+00         0.00000E+00
    0.84762E-07         0.00000E+00         0.00000E+00
    0.84762E-07         0.00000E+00         0.00000E+00
    0.84762E-07         0.00000E+00         0.00000E+00
    0.84762E-07         0.00000E+00         0.00000E+00
    0.84762E-07         0.00000E+00         0.00000E+00
    0.84762E-07         0.00000E+00         0.00000E+00
    0.84762E-07         0.00000E+00         0.00000E+00
    0.84762E-07         0.00000E+00         0.00000E+00
    0.84762E-07         0.00000E+00         0.00000E+00
    0.84762E-07         0.00000E+00         0.00000E+00
    0.84762E-07         0.00000E+00         0.00000E+00
    0.84762E-07         0.00000E+00         0.00000E+00
    0.84762E-07         0.00000E+00         0.00000E+00
    0.84762E-07         0.00000E+00         0.00000E+00
    0.84762E-07         0.00000E+00         0.00000E+00
    0.84762E-07         0.00000E+00         0.00000E+00
    0.84762E-07         0.00000E+00         0.00000E+00
    0.84762E-07         0.00000E+00         0.00000E+00
    0.84762E-07         0.00000E+00         0.00000E+00
    0.84762E-07         0.00000E+00         0.00000E+00
    0.84762E-07         0.00000E+00         0.00000E+00
    0.84762E-07         0.00000E+00         0.00000E+00
    0.84762E-07         0.00000E+00         0.00000E+00
    0.84762E-07         0.00000E+00         0.00000E+00
    0.84762E-07         0.00000E+00         0.00000E+00
    0.84762E-07         0.00000E+00         0.00000E+00
    0.84762E-07         0.00000E+00         0.00000E+00
    0.84762E-07         0.00000E+00         0.00000E+00
    0.84762E-07         0.00000E+00         0.00000E+00
    0.84762E-07         0.00000E+00         0.00000E+00
    0.84762E-07         0.00000E+00         0.00000E+00
    0.84762E-07         0.00000E+00         0.00000E+00
    0.84762E-07         0.00000E+00         0.00000E+00
    0.84623E-07         0.00000E+00         0.00000E+00
    0.84623E-07        -0.74506E-20         0.00000E+00
    0.84623E-07        -0.11176E-19         0.00000E+00
    0.84623E-07        -0.11522E-19         0.00000E+00
    0.84623E-07        -0.18626E-19         0.00000E+00
    0.84623E-07        -0.17935E-19         0.00000E+00
    0.84623E-07        -0.11176E-19         0.00000E+00
    0.84623E-07        -0.15247E-19         0.00000E+00
    0.84623E-07        -0.18626E-19         0.00000E+00
    0.84623E-07        -0.37253E-20         0.00000E+00
    0.84623E-07        -0.37253E-20         0.00000E+00
    0.84623E-07        -0.77965E-20         0.00000E+00
    0.84623E-07         0.21676E-34         0.00000E+00
    0.84623E-07        -0.37253E-20         0.00000E+00
    0.84623E-07        -0.37253E-20         0.00000E+00
    0.84623E-07         0.34591E-21         0.00000E+00
    0.84623E-07        -0.37253E-20         0.00000E+00
    0.84623E-07        -0.14901E-19         0.00000E+00
    0.84623E-07        -0.18626E-19         0.00000E+00
    0.84623E-07        -0.74506E-20         0.00000E+00
    0.84623E-07         0.00000E+00         0.00000E+00
    0.84623E-07        -0.74506E-20         0.00000E+00
    0.84623E-07        -0.74506E-20         0.00000E+00
    0.84623E-07        -0.40712E-20         0.00000E+00
    0.84623E-07        -0.33794E-20         0.00000E+00
    0.84623E-07        -0.18626E-20         0.00000E+00
    0.84623E-07        -0.15247E-19         0.00000E+00
    0.84623E-07        -0.12693E-19         0.00000E+00
    0.84623E-07        -0.74506E-20         0.00000E+00
    0.84623E-07        -0.37253E-20         0.00000E+00
    0.84623E-07        -0.11176E-19         0.00000E+00
    0.84623E-07        -0.11176E-19         0.00000E+00
    0.84623E-07        -0.37253E-20         0.00000E+00
    0.84623E-07         0.00000E+00         0.00000E+00
    0.84623E-07        -0.74506E-20         0.00000E+00
    0.84623E-07        -0.74506E-20         0.00000E+00
    0.84623E-07        -0.74506E-20         0.00000E+00
    0.84623E-07        -0.14901E-19         0.00000E+00
    0.84623E-07        -0.11176E-19         0.00000E+00
    0.84623E-07        -0.14901E-19         0.00000E+00
    0.84623E-07        -0.18281E-19         0.00000E+00
    0.84623E-07        -0.14901E-19         0.00000E+00
    0.84623E-07        -0.77965E-20         0.00000E+00
    0.84623E-07         0.34591E-21         0.00000E+00
    0.84623E-07        -0.59338E-20         0.00000E+00
    0.84623E-07        -0.62798E-20         0.00000E+00
    0.84623E-07         0.40712E-20         0.00000E+00
    0.84623E-07         0.34591E-21         0.00000E+00
    0.84623E-07        -0.74506E-20         0.00000E+00
    0.84623E-07        -0.10830E-19         0.00000E+00
    0.84623E-07        -0.67588E-20         0.00000E+00
    0.84209E-07         0.74506E-20         0.00000E+00
    0.84209E-07        -0.74506E-20         0.00000E+00
    0.84209E-07        -0.26077E-19         0.00000E+00
    0.84209E-07        -0.30531E-19         0.00000E+00
    0.84209E-07        -0.24214E-19         0.00000E+00
    0.84209E-07        -0.41297E-20         0.00000E+00
    0.84209E-07         0.00000E+00         0.00000E+00
    0.84209E-07        -0.72910E-21         0.00000E+00
    0.84209E-07        -0.74506E-20         0.00000E+00
    0.84209E-07        -0.37253E-19         0.00000E+00
    0.84209E-07        -0.37253E-19         0.00000E+00
    0.84209E-07        -0.11905E-19         0.00000E+00
    0.84209E-07        -0.74506E-20         0.00000E+00
    0.84209E-07         0.37253E-20         0.00000E+00
    0.84209E-07        -0.74506E-20         0.00000E+00
    0.84209E-07        -0.32799E-19         0.00000E+00
    0.84209E-07        -0.26077E-19         0.00000E+00
    0.84209E-07        -0.37253E-20         0.00000E+00
    0.84209E-07        -0.37253E-20         0.00000E+00
    0.84209E-07        -0.33528E-19         0.00000E+00
    0.84209E-07        -0.37253E-19         0.00000E+00
    0.84209E-07        -0.14901E-19         0.00000E+00
    0.84209E-07        -0.14901E-19         0.00000E+00
    0.84209E-07        -0.81797E-20         0.00000E+00
    0.84209E-07         0.25917E-20         0.00000E+00
    0.84209E-07        -0.37253E-20         0.00000E+00
    0.84209E-07        -0.63170E-20         0.00000E+00
    0.84209E-07        -0.14172E-19         0.00000E+00
    0.84209E-07        -0.29802E-19         0.00000E+00
    0.84209E-07        -0.29802E-19         0.00000E+00
    0.84209E-07        -0.11176E-19         0.00000E+00
    0.84209E-07        -0.74506E-20         0.00000E+00
    0.84209E-07        -0.22352E-19         0.00000E+00
    0.84209E-07        -0.22352E-19         0.00000E+00
    0.84209E-07        -0.37253E-20         0.00000E+00
    0.84209E-07         0.00000E+00         0.00000E+00
    0.84209E-07         0.00000E+00         0.00000E+00
    0.84209E-07        -0.37253E-20         0.00000E+00
    0.84209E-07        -0.29802E-19         0.00000E+00
    0.84209E-07        -0.37253E-19         0.00000E+00
    0.84209E-07        -0.21623E-19         0.00000E+00
    0.84209E-07        -0.16764E-19         0.00000E+00
    0.84209E-07        -0.21218E-19         0.00000E+00
    0.84209E-07        -0.85841E-20         0.00000E+00
    0.84209E-07        -0.81797E-20         0.00000E+00
    0.84209E-07        -0.70461E-20         0.00000E+00
    0.84209E-07        -0.85841E-20         0.00000E+00
    0.84209E-07        -0.85841E-20         0.00000E+00
    0.84209E-07         0.00000E+00         0.00000E+00
    0.84209E-07         0.21218E-19         0.00000E+00
    0.84209E-07         0.20085E-19         0.00000E+00
    0.83523E-07         0.00000E+00         0.00000E+00
    0.83523E-07        -0.82166E-20         0.00000E+00
    0.83523E-07        -0.22352E-19         0.00000E+00
    0.83523E-07        -0.21586E-19         0.00000E+00
    0.83523E-07        -0.22352E-19         0.00000E+00
    0.83523E-07        -0.34294E-19         0.00000E+00
    0.83523E-07        -0.37253E-19         0.00000E+00
    0.83523E-07        -0.37253E-19         0.00000E+00
    0.83523E-07        -0.14901E-19         0.00000E+00
    0.83523E-07         0.11176E-19         0.00000E+00
    0.83523E-07        -0.23118E-19         0.00000E+00
    0.83523E-07        -0.45800E-19         0.00000E+00
    0.83523E-07        -0.52920E-19         0.00000E+00
    0.83523E-07        -0.69684E-19         0.00000E+00
    0.83523E-07        -0.39446E-19         0.00000E+00
    0.83523E-07        -0.10410E-19         0.00000E+00
    0.83523E-07        -0.18626E-19         0.00000E+00
    0.83523E-07        -0.25311E-19         0.00000E+00
    0.83523E-07        -0.24214E-19         0.00000E+00
    0.83523E-07        -0.10079E-19         0.00000E+00
    0.83523E-07        -0.44913E-20         0.00000E+00
    0.83523E-07        -0.30568E-19         0.00000E+00
    0.83523E-07        -0.25311E-19         0.00000E+00
    0.83523E-07        -0.27940E-19         0.00000E+00
    0.83523E-07        -0.42841E-19         0.00000E+00
    0.83523E-07        -0.29802E-19         0.00000E+00
    0.83523E-07        -0.18626E-19         0.00000E+00
    0.83523E-07        -0.14901E-19         0.00000E+00
    0.83523E-07        -0.11942E-19         0.00000E+00
    0.83523E-07         0.76601E-21         0.00000E+00
    0.83523E-07        -0.10410E-19         0.00000E+00
    0.83523E-07        -0.11942E-19         0.00000E+00
    0.83523E-07        -0.37253E-20         0.00000E+00
    0.83523E-07        -0.29593E-20         0.00000E+00
    0.83523E-07        -0.74506E-20         0.00000E+00
    0.83523E-07        -0.14901E-19         0.00000E+00
    0.83523E-07        -0.15667E-19         0.00000E+00
    0.83523E-07        -0.16764E-19         0.00000E+00
    0.83523E-07         0.18626E-20         0.00000E+00
    0.83523E-07         0.17860E-19         0.00000E+00
    0.83523E-07         0.26287E-20         0.00000E+00
    0.83523E-07        -0.19723E-19         0.00000E+00
    0.83523E-07        -0.26077E-19         0.00000E+00
    0.83523E-07        -0.29802E-19         0.00000E+00
    0.83523E-07        -0.29802E-19         0.00000E+00
    0.83523E-07        -0.13805E-19         0.00000E+00
    0.83523E-07        -0.11176E-19         0.00000E+00
    0.83523E-07         0.74506E-20         0.00000E+00
    0.83523E-07         0.11176E-19         0.00000E+00
    0.83523E-07        -0.10966E-20         0.00000E+00
    0.83523E-07        -0.74506E-20         0.00000E+00
    0.82575E-07        -0.11176E-19         0.00000E+00
    0.82575E-07        -0.18626E-19         0.00000E+00
    0.82575E-07        -0.18626E-19         0.00000E+00
    0.82575E-07        -0.16049E-20         0.00000E+00
    0.82575E-07         0.11176E-19         0.00000E+00
    0.82575E-07         0.69351E-20         0.00000E+00
    0.82575E-07        -0.74506E-20         0.00000E+00
    0.82575E-07        -0.20231E-19         0.00000E+00
    0.82575E-07        -0.26077E-19         0.00000E+00
    0.82575E-07        -0.31665E-19         0.00000E+00
    0.82575E-07        -0.33528E-19         0.00000E+00
    0.82575E-07        -0.36995E-19         0.00000E+00
    0.82575E-07        -0.37253E-19         0.00000E+00
    0.82575E-07        -0.42841E-19         0.00000E+00
    0.82575E-07        -0.57742E-19         0.00000E+00
    0.82575E-07        -0.43099E-19         0.00000E+00
    0.82575E-07        -0.27940E-19         0.00000E+00
    0.82575E-07        -0.37253E-19         0.00000E+00
    0.82575E-07        -0.44703E-19         0.00000E+00
    0.82575E-07        -0.54017E-19         0.00000E+00
    0.82575E-07        -0.50291E-19         0.00000E+00
    0.82575E-07        -0.24214E-19         0.00000E+00
    0.82575E-07        -0.20489E-19         0.00000E+00
    0.82575E-07        -0.36995E-19         0.00000E+00
    0.82575E-07        -0.43099E-19         0.00000E+00
    0.82575E-07        -0.27008E-19         0.00000E+00
    0.82575E-07        -0.99868E-20         0.00000E+00
    0.82575E-07        -0.26335E-19         0.00000E+00
    0.82575E-07        -0.39116E-19         0.00000E+00
    0.82575E-07        -0.26077E-19         0.00000E+00
    0.82575E-07        -0.55879E-20         0.00000E+00
    0.82575E-07        -0.55879E-20         0.00000E+00
    0.82575E-07        -0.22352E-19         0.00000E+00
    0.82575E-07        -0.42841E-19         0.00000E+00
    0.82575E-07        -0.39116E-19         0.00000E+00
    0.82575E-07        -0.26077E-19         0.00000E+00
    0.82575E-07        -0.33528E-19         0.00000E+00
    0.82575E-07        -0.22352E-19         0.00000E+00
    0.82575E-07        -0.11176E-19         0.00000E+00
    0.82575E-07         0.00000E+00         0.00000E+00
    0.82575E-07         0.14643E-19         0.00000E+00
    0.82575E-07         0.13039E-19         0.00000E+00
    0.82575E-07         0.25776E-21         0.00000E+00
    0.82575E-07        -0.95710E-20         0.00000E+00
    0.82575E-07        -0.67356E-21         0.00000E+00
    0.82575E-07         0.70348E-20         0.00000E+00
    0.82575E-07         0.81241E-20         0.00000E+00
    0.82575E-07        -0.11891E-20         0.00000E+00
    0.82575E-07        -0.14901E-19         0.00000E+00
    0.82575E-07        -0.13296E-19         0.00000E+00
    0.82575E-07        -0.11691E-19         0.00000E+00
    0.81376E-07         0.00000E+00         0.00000E+00
    0.81376E-07        -0.18626E-20         0.00000E+00
    0.81376E-07        -0.11362E-19         0.00000E+00
    0.81376E-07        -0.16764E-19         0.00000E+00
    0.81376E-07        -0.22166E-19         0.00000E+00
    0.81376E-07        -0.24214E-19         0.00000E+00
    0.81376E-07        -0.74506E-20         0.00000E+00
    0.81376E-07        -0.37253E-20         0.00000E+00
    0.81376E-07        -0.14901E-19         0.00000E+00
    0.81376E-07        -0.22352E-19         0.00000E+00
    0.81376E-07        -0.33714E-19         0.00000E+00
    0.81376E-07        -0.46566E-19         0.00000E+00
    0.81376E-07        -0.40792E-19         0.00000E+00
    0.81376E-07        -0.22352E-19         0.00000E+00
    0.81376E-07        -0.24214E-19         0.00000E+00
    0.81376E-07        -0.42841E-19         0.00000E+00
    0.81376E-07        -0.50291E-19         0.00000E+00
    0.81376E-07        -0.46566E-19         0.00000E+00
    0.81376E-07        -0.48429E-19         0.00000E+00
    0.81376E-07        -0.50291E-19         0.00000E+00
    0.81376E-07        -0.40978E-19         0.00000E+00
    0.81376E-07        -0.46566E-19         0.00000E+00
    0.81376E-07        -0.52154E-19         0.00000E+00
    0.81376E-07        -0.39116E-19         0.00000E+00
    0.81376E-07        -0.29802E-19         0.00000E+00
    0.81376E-07        -0.29802E-19         0.00000E+00
    0.81376E-07        -0.27940E-19         0.00000E+00
    0.81376E-07        -0.22352E-19         0.00000E+00
    0.81376E-07        -0.31665E-19         0.00000E+00
    0.81376E-07        -0.39116E-19         0.00000E+00
    0.81376E-07        -0.29802E-19         0.00000E+00
    0.81376E-07        -0.22352E-19         0.00000E+00
    0.81376E-07        -0.22352E-19         0.00000E+00
    0.81376E-07        -0.22352E-19         0.00000E+00
    0.81376E-07        -0.39116E-19         0.00000E+00
    0.81376E-07        -0.44703E-19         0.00000E+00
    0.81376E-07        -0.28126E-19         0.00000E+00
    0.81376E-07        -0.22538E-19         0.00000E+00
    0.81376E-07        -0.25891E-19         0.00000E+00
    0.81376E-07        -0.22166E-19         0.00000E+00
    0.81376E-07        -0.14901E-19         0.00000E+00
    0.81376E-07        -0.11176E-19         0.00000E+00
    0.81376E-07        -0.37253E-20         0.00000E+00
    0.81376E-07         0.00000E+00         0.00000E+00
    0.81376E-07        -0.13225E-19         0.00000E+00
    0.81376E-07        -0.15087E-19         0.00000E+00
    0.81376E-07         0.76367E-20         0.00000E+00
    0.81376E-07         0.11362E-19         0.00000E+00
    0.81376E-07         0.55879E-20         0.00000E+00
    0.81376E-07        -0.18607E-21         0.00000E+00
    0.81376E-07        -0.78227E-20         0.00000E+00
    0.79942E-07        -0.18626E-19         0.00000E+00
    0.79942E-07        -0.18511E-19         0.00000E+00
    0.79942E-07        -0.16764E-19         0.00000E+00
    0.79942E-07        -0.11292E-19         0.00000E+00
    0.79942E-07        -0.37253E-20         0.00000E+00
    0.79942E-07        -0.24099E-19         0.00000E+00
    0.79942E-07        -0.39116E-19         0.00000E+00
    0.79942E-07        -0.29802E-19         0.00000E+00
    0.79942E-07        -0.26077E-19         0.00000E+00
    0.79942E-07        -0.33528E-19         0.00000E+00
    0.79942E-07        -0.29687E-19         0.00000E+00
    0.79942E-07        -0.16880E-19         0.00000E+00
    0.79942E-07        -0.25030E-19         0.00000E+00
    0.79942E-07        -0.38068E-19         0.00000E+00
    0.79942E-07        -0.46798E-19         0.00000E+00
    0.79942E-07        -0.39231E-19         0.00000E+00
    0.79942E-07        -0.33528E-19         0.00000E+00
    0.79942E-07        -0.37369E-19         0.00000E+00
    0.79942E-07        -0.37253E-19         0.00000E+00
    0.79942E-07        -0.33412E-19         0.00000E+00
    0.79942E-07        -0.46450E-19         0.00000E+00
    0.79942E-07        -0.52038E-19         0.00000E+00
    0.79942E-07        -0.42957E-19         0.00000E+00
    0.79942E-07        -0.48429E-19         0.00000E+00
    0.79942E-07        -0.52154E-19         0.00000E+00
    0.79942E-07        -0.48429E-19         0.00000E+00
    0.79942E-07        -0.29802E-19         0.00000E+00
    0.79942E-07        -0.18626E-19         0.00000E+00
    0.79942E-07        -0.18511E-19         0.00000E+00
    0.79942E-07        -0.24330E-19         0.00000E+00
    0.79942E-07        -0.29918E-19         0.00000E+00
    0.79942E-07        -0.27824E-19         0.00000E+00
    0.79942E-07        -0.29802E-19         0.00000E+00
    0.79942E-07        -0.26193E-19         0.00000E+00
    0.79942E-07        -0.11176E-19         0.00000E+00
    0.79942E-07        -0.14901E-19         0.00000E+00
    0.79942E-07        -0.40862E-19         0.00000E+00
    0.79942E-07        -0.43772E-19         0.00000E+00
    0.79942E-07        -0.18626E-19         0.00000E+00
    0.79942E-07        -0.82661E-20         0.00000E+00
    0.79942E-07        -0.15017E-19         0.00000E+00
    0.79942E-07        -0.94290E-20         0.00000E+00
    0.79942E-07        -0.11176E-19         0.00000E+00
    0.79942E-07        -0.31665E-19         0.00000E+00
    0.79942E-07        -0.33528E-19         0.00000E+00
    0.79942E-07        -0.19442E-19         0.00000E+00
    0.79942E-07        -0.12107E-19         0.00000E+00
    0.79942E-07        -0.12107E-19         0.00000E+00
    0.79942E-07        -0.46566E-20         0.00000E+00
    0.79942E-07        -0.11576E-21         0.00000E+00
    0.79942E-07         0.00000E+00         0.00000E+00
    0.78287E-07        -0.20507E-20         0.00000E+00
    0.78287E-07         0.55879E-20         0.00000E+00
    0.78287E-07        -0.83731E-21         0.00000E+00
    0.78287E-07        -0.27940E-19         0.00000E+00
    0.78287E-07        -0.49454E-19         0.00000E+00
    0.78287E-07        -0.38278E-19         0.00000E+00
    0.78287E-07        -0.13876E-19         0.00000E+00
    0.78287E-07        -0.12013E-19         0.00000E+00
    0.78287E-07        -0.27940E-19         0.00000E+00
    0.78287E-07        -0.35390E-19         0.00000E+00
    0.78287E-07        -0.33528E-19         0.00000E+00
    0.78287E-07        -0.40978E-19         0.00000E+00
    0.78287E-07        -0.40978E-19         0.00000E+00
    0.78287E-07        -0.14901E-19         0.00000E+00
    0.78287E-07        -0.74506E-20         0.00000E+00
    0.78287E-07        -0.40978E-19         0.00000E+00
    0.78287E-07        -0.67055E-19         0.00000E+00
    0.78287E-07        -0.70781E-19         0.00000E+00
    0.78287E-07        -0.52154E-19         0.00000E+00
    0.78287E-07        -0.40978E-19         0.00000E+00
    0.78287E-07        -0.44703E-19         0.00000E+00
    0.78287E-07        -0.40978E-19         0.00000E+00
    0.78287E-07        -0.39116E-19         0.00000E+00
    0.78287E-07        -0.44703E-19         0.00000E+00
    0.78287E-07        -0.39116E-19         0.00000E+00
    0.78287E-07        -0.29802E-19         0.00000E+00
    0.78287E-07        -0.48429E-19         0.00000E+00
    0.78287E-07        -0.54017E-19         0.00000E+00
    0.78287E-07        -0.48429E-19         0.00000E+00
    0.78287E-07        -0.40978E-19         0.00000E+00
    0.78287E-07        -0.20489E-19         0.00000E+00
    0.78287E-07        -0.24214E-19         0.00000E+00
    0.78287E-07        -0.31665E-19         0.00000E+00
    0.78287E-07        -0.26077E-19         0.00000E+00
    0.78287E-07        -0.22352E-19         0.00000E+00
    0.78287E-07        -0.14901E-19         0.00000E+00
    0.78287E-07         0.37253E-20         0.00000E+00
    0.78287E-07         0.11176E-19         0.00000E+00
    0.78287E-07         0.00000E+00         0.00000E+00
    0.78287E-07        -0.21514E-19         0.00000E+00
    0.78287E-07        -0.31665E-19         0.00000E+00
    0.78287E-07        -0.30640E-19         0.00000E+00
    0.78287E-07        -0.26077E-19         0.00000E+00
    0.78287E-07        -0.13039E-19         0.00000E+00
    0.78287E-07        -0.14901E-19         0.00000E+00
    0.78287E-07        -0.37253E-20         0.00000E+00
    0.78287E-07         0.64252E-20         0.00000E+00
    0.78287E-07        -0.93132E-21         0.00000E+00
    0.78287E-07        -0.36313E-20         0.00000E+00
    0.78287E-07         0.00000E+00         0.00000E+00
    0.78287E-07         0.37253E-20         0.00000E+00
    0.76432E-07        -0.74506E-20         0.00000E+00
    0.76432E-07        -0.22352E-19         0.00000E+00
    0.76432E-07        -0.42841E-19         0.00000E+00
    0.76432E-07        -0.34499E-19         0.00000E+00
    0.76432E-07        -0.11176E-19         0.00000E+00
    0.76432E-07        -0.25997E-19         0.00000E+00
    0.76432E-07        -0.29802E-19         0.00000E+00
    0.76432E-07        -0.17735E-19         0.00000E+00
    0.76432E-07        -0.24214E-19         0.00000E+00
    0.76432E-07        -0.22352E-19         0.00000E+00
    0.76432E-07        -0.22352E-19         0.00000E+00
    0.76432E-07        -0.27048E-19         0.00000E+00
    0.76432E-07        -0.24214E-19         0.00000E+00
    0.76432E-07        -0.26077E-19         0.00000E+00
    0.76432E-07        -0.37253E-19         0.00000E+00
    0.76432E-07        -0.45595E-19         0.00000E+00
    0.76432E-07        -0.33528E-19         0.00000E+00
    0.76432E-07        -0.13039E-19         0.00000E+00
    0.76432E-07        -0.33528E-19         0.00000E+00
    0.76432E-07        -0.55879E-19         0.00000E+00
    0.76432E-07        -0.55879E-19         0.00000E+00
    0.76432E-07        -0.61467E-19         0.00000E+00
    0.76432E-07        -0.44703E-19         0.00000E+00
    0.76432E-07        -0.32636E-19         0.00000E+00
    0.76432E-07        -0.40007E-19         0.00000E+00
    0.76432E-07        -0.33528E-19         0.00000E+00
    0.76432E-07        -0.28911E-19         0.00000E+00
    0.76432E-07        -0.36282E-19         0.00000E+00
    0.76432E-07        -0.37253E-19         0.00000E+00
    0.76432E-07        -0.37253E-19         0.00000E+00
    0.76432E-07        -0.33528E-19         0.00000E+00
    0.76432E-07        -0.11176E-19         0.00000E+00
    0.76432E-07        -0.14901E-19         0.00000E+00
    0.76432E-07        -0.26077E-19         0.00000E+00
    0.76432E-07        -0.18626E-19         0.00000E+00
    0.76432E-07        -0.14901E-19         0.00000E+00
    0.76432E-07        -0.26077E-19         0.00000E+00
    0.76432E-07        -0.33528E-19         0.00000E+00
    0.76432E-07        -0.33528E-19         0.00000E+00
    0.76432E-07        -0.27940E-19         0.00000E+00
    0.76432E-07        -0.25106E-19         0.00000E+00
    0.76432E-07        -0.29802E-19         0.00000E+00
    0.76432E-07        -0.21460E-19         0.00000E+00
    0.76432E-07        -0.16724E-19         0.00000E+00
    0.76432E-07        -0.28340E-20         0.00000E+00
    0.76432E-07        -0.10114E-20         0.00000E+00
    0.76432E-07         0.74906E-20         0.00000E+00
    0.76432E-07         0.20529E-19         0.00000E+00
    0.76432E-07         0.20489E-19         0.00000E+00
    0.76432E-07         0.37653E-20         0.00000E+00
    0.76432E-07        -0.11096E-19         0.00000E+00
    0.74396E-07         0.15221E-20         0.00000E+00
    0.74396E-07        -0.37253E-20         0.00000E+00
    0.74396E-07        -0.46566E-20         0.00000E+00
    0.74396E-07        -0.27940E-20         0.00000E+00
    0.74396E-07        -0.11176E-19         0.00000E+00
    0.74396E-07        -0.18626E-19         0.00000E+00
    0.74396E-07        -0.23283E-19         0.00000E+00
    0.74396E-07        -0.24385E-19         0.00000E+00
    0.74396E-07        -0.26077E-19         0.00000E+00
    0.74396E-07        -0.44863E-20         0.00000E+00
    0.74396E-07         0.29643E-20         0.00000E+00
    0.74396E-07        -0.11176E-19         0.00000E+00
    0.74396E-07        -0.18626E-19         0.00000E+00
    0.74396E-07        -0.26077E-19         0.00000E+00
    0.74396E-07        -0.37253E-19         0.00000E+00
    0.74396E-07        -0.29802E-19         0.00000E+00
    0.74396E-07        -0.29802E-19         0.00000E+00
    0.74396E-07        -0.40978E-19         0.00000E+00
    0.74396E-07        -0.29802E-19         0.00000E+00
    0.74396E-07        -0.37253E-19         0.00000E+00
    0.74396E-07        -0.40978E-19         0.00000E+00
    0.74396E-07        -0.29802E-19         0.00000E+00
    0.74396E-07        -0.27940E-19         0.00000E+00
    0.74396E-07        -0.26077E-19         0.00000E+00
    0.74396E-07        -0.20489E-19         0.00000E+00
    0.74396E-07        -0.29041E-19         0.00000E+00
    0.74396E-07        -0.48429E-19         0.00000E+00
    0.74396E-07        -0.45465E-19         0.00000E+00
    0.74396E-07        -0.37253E-19         0.00000E+00
    0.74396E-07        -0.27940E-19         0.00000E+00
    0.74396E-07        -0.33528E-19         0.00000E+00
    0.74396E-07        -0.58844E-19         0.00000E+00
    0.74396E-07        -0.54948E-19         0.00000E+00
    0.74396E-07        -0.33357E-19         0.00000E+00
    0.74396E-07        -0.33528E-19         0.00000E+00
    0.74396E-07        -0.42841E-19         0.00000E+00
    0.74396E-07        -0.31665E-19         0.00000E+00
    0.74396E-07        -0.11176E-19         0.00000E+00
    0.74396E-07         0.18626E-20         0.00000E+00
    0.74396E-07        -0.66896E-20         0.00000E+00
    0.74396E-07        -0.24214E-19         0.00000E+00
    0.74396E-07        -0.18626E-19         0.00000E+00
    0.74396E-07        -0.21420E-19         0.00000E+00
    0.74396E-07        -0.27940E-19         0.00000E+00
    0.74396E-07        -0.23283E-19         0.00000E+00
    0.74396E-07         0.85522E-20         0.00000E+00
    0.74396E-07         0.29802E-19         0.00000E+00
    0.74396E-07         0.22352E-19         0.00000E+00
    0.74396E-07         0.11176E-19         0.00000E+00
    0.74396E-07         0.38956E-20         0.00000E+00
    0.74396E-07         0.34059E-21         0.00000E+00
    0.72201E-07         0.74506E-20         0.00000E+00
    0.72201E-07         0.20489E-19         0.00000E+00
    0.72201E-07         0.31962E-19         0.00000E+00
    0.72201E-07         0.23283E-19         0.00000E+00
    0.72201E-07        -0.68158E-20         0.00000E+00
    0.72201E-07        -0.20489E-19         0.00000E+00
    0.72201E-07        -0.74506E-20         0.00000E+00
    0.72201E-07         0.74506E-20         0.00000E+00
    0.72201E-07         0.20489E-19         0.00000E+00
    0.72201E-07        -0.16764E-19         0.00000E+00
    0.72201E-07        -0.44407E-19         0.00000E+00
    0.72201E-07        -0.23283E-19         0.00000E+00
    0.72201E-07        -0.19854E-19         0.00000E+00
    0.72201E-07        -0.93132E-20         0.00000E+00
    0.72201E-07        -0.14901E-19         0.00000E+00
    0.72201E-07        -0.37253E-19         0.00000E+00
    0.72201E-07        -0.44703E-19         0.00000E+00
    0.72201E-07        -0.52154E-19         0.00000E+00
    0.72201E-07        -0.59605E-19         0.00000E+00
    0.72201E-07        -0.44703E-19         0.00000E+00
    0.72201E-07        -0.37253E-19         0.00000E+00
    0.72201E-07        -0.42841E-19         0.00000E+00
    0.72201E-07        -0.24214E-19         0.00000E+00
    0.72201E-07        -0.93132E-20         0.00000E+00
    0.72201E-07        -0.24214E-19         0.00000E+00
    0.72201E-07        -0.26077E-19         0.00000E+00
    0.72201E-07        -0.14901E-19         0.00000E+00
    0.72201E-07        -0.22352E-19         0.00000E+00
    0.72201E-07        -0.20489E-19         0.00000E+00
    0.72201E-07        -0.26077E-19         0.00000E+00
    0.72201E-07        -0.39116E-19         0.00000E+00
    0.72201E-07        -0.33528E-19         0.00000E+00
    0.72201E-07        -0.37253E-19         0.00000E+00
    0.72201E-07        -0.48429E-19         0.00000E+00
    0.72201E-07        -0.59605E-19         0.00000E+00
    0.72201E-07        -0.63330E-19         0.00000E+00
    0.72201E-07        -0.48132E-19         0.00000E+00
    0.72201E-07        -0.46270E-19         0.00000E+00
    0.72201E-07        -0.52451E-19         0.00000E+00
    0.72201E-07        -0.43137E-19         0.00000E+00
    0.72201E-07        -0.14901E-19         0.00000E+00
    0.72201E-07        -0.74506E-20         0.00000E+00
    0.72201E-07        -0.11176E-19         0.00000E+00
    0.72201E-07        -0.37253E-20         0.00000E+00
    0.72201E-07         0.40218E-20         0.00000E+00
    0.72201E-07         0.15198E-19         0.00000E+00
    0.72201E-07         0.11811E-19         0.00000E+00
    0.72201E-07        -0.49531E-20         0.00000E+00
    0.72201E-07        -0.14901E-19         0.00000E+00
    0.72201E-07        -0.11811E-19         0.00000E+00
    0.72201E-07        -0.12445E-19         0.00000E+00
    0.69869E-07         0.14901E-19         0.00000E+00
    0.69869E-07         0.18626E-19         0.00000E+00
    0.69869E-07         0.55879E-20         0.00000E+00
    0.69869E-07        -0.14901E-19         0.00000E+00
    0.69869E-07        -0.10663E-19         0.00000E+00
    0.69869E-07         0.32125E-20         0.00000E+00
    0.69869E-07         0.15738E-19         0.00000E+00
    0.69869E-07         0.42381E-20         0.00000E+00
    0.69869E-07        -0.14388E-19         0.00000E+00
    0.69869E-07         0.50751E-20         0.00000E+00
    0.69869E-07         0.37253E-20         0.00000E+00
    0.69869E-07        -0.21839E-19         0.00000E+00
    0.69869E-07        -0.22352E-19         0.00000E+00
    0.69869E-07        -0.13039E-19         0.00000E+00
    0.69869E-07        -0.93132E-20         0.00000E+00
    0.69869E-07        -0.17277E-19         0.00000E+00
    0.69869E-07        -0.33015E-19         0.00000E+00
    0.69869E-07        -0.41397E-19         0.00000E+00
    0.69869E-07        -0.42935E-19         0.00000E+00
    0.69869E-07        -0.56298E-19         0.00000E+00
    0.69869E-07        -0.48847E-19         0.00000E+00
    0.69869E-07        -0.41491E-19         0.00000E+00
    0.69869E-07        -0.51641E-19         0.00000E+00
    0.69869E-07        -0.42328E-19         0.00000E+00
    0.69869E-07        -0.21515E-19         0.00000E+00
    0.69869E-07        -0.37253E-20         0.00000E+00
    0.69869E-07        -0.78691E-20         0.00000E+00
    0.69869E-07        -0.10757E-19         0.00000E+00
    0.69869E-07        -0.11176E-19         0.00000E+00
    0.69869E-07        -0.28452E-19         0.00000E+00
    0.69869E-07        -0.34877E-19         0.00000E+00
    0.69869E-07        -0.49266E-19         0.00000E+00
    0.69869E-07        -0.69431E-19         0.00000E+00
    0.69869E-07        -0.61980E-19         0.00000E+00
    0.69869E-07        -0.54435E-19         0.00000E+00
    0.69869E-07        -0.55879E-19         0.00000E+00
    0.69869E-07        -0.54017E-19         0.00000E+00
    0.69869E-07        -0.38184E-19         0.00000E+00
    0.69869E-07        -0.74506E-20         0.00000E+00
    0.69869E-07        -0.88004E-20         0.00000E+00
    0.69869E-07        -0.32178E-19         0.00000E+00
    0.69869E-07        -0.30315E-19         0.00000E+00
    0.69869E-07        -0.18114E-19         0.00000E+00
    0.69869E-07        -0.11176E-19         0.00000E+00
    0.69869E-07        -0.11689E-19         0.00000E+00
    0.69869E-07        -0.26077E-19         0.00000E+00
    0.69869E-07        -0.22352E-19         0.00000E+00
    0.69869E-07        -0.55879E-20         0.00000E+00
    0.69869E-07         0.14441E-20         0.00000E+00
    0.69869E-07        -0.51280E-21         0.00000E+00
    0.69869E-07         0.35367E-20         0.00000E+00
    0.67422E-07         0.00000E+00         0.00000E+00
    0.67422E-07        -0.79866E-20         0.00000E+00
    0.67422E-07        -0.83819E-20         0.00000E+00
    0.67422E-07         0.14674E-20         0.00000E+00
    0.67422E-07        -0.55879E-20         0.00000E+00
    0.67422E-07        -0.20094E-19         0.00000E+00
    0.67422E-07        -0.18626E-19         0.00000E+00
    0.67422E-07        -0.18626E-19         0.00000E+00
    0.67422E-07        -0.11176E-19         0.00000E+00
    0.67422E-07        -0.18626E-19         0.00000E+00
    0.67422E-07        -0.16369E-19         0.00000E+00
    0.67422E-07        -0.59832E-20         0.00000E+00
    0.67422E-07        -0.19163E-19         0.00000E+00
    0.67422E-07        -0.32201E-19         0.00000E+00
    0.67422E-07        -0.38975E-19         0.00000E+00
    0.67422E-07        -0.14365E-19         0.00000E+00
    0.67422E-07        -0.55879E-20         0.00000E+00
    0.67422E-07        -0.78458E-20         0.00000E+00
    0.67422E-07        -0.12107E-19         0.00000E+00
    0.67422E-07        -0.21025E-19         0.00000E+00
    0.67422E-07        -0.36858E-19         0.00000E+00
    0.67422E-07        -0.49896E-19         0.00000E+00
    0.67422E-07        -0.28335E-19         0.00000E+00
    0.67422E-07        -0.36322E-19         0.00000E+00
    0.67422E-07        -0.59605E-19         0.00000E+00
    0.67422E-07        -0.53085E-19         0.00000E+00
    0.67422E-07        -0.35390E-19         0.00000E+00
    0.67422E-07        -0.22352E-19         0.00000E+00
    0.67422E-07        -0.33132E-19         0.00000E+00
    0.67422E-07        -0.39511E-19         0.00000E+00
    0.67422E-07        -0.50687E-19         0.00000E+00
    0.67422E-07        -0.48965E-19         0.00000E+00
    0.67422E-07        -0.30734E-19         0.00000E+00
    0.67422E-07        -0.41373E-19         0.00000E+00
    0.67422E-07        -0.39116E-19         0.00000E+00
    0.67422E-07        -0.16764E-19         0.00000E+00
    0.67422E-07         0.41205E-20         0.00000E+00
    0.67422E-07         0.74506E-20         0.00000E+00
    0.67422E-07        -0.14901E-19         0.00000E+00
    0.67422E-07        -0.20094E-19         0.00000E+00
    0.67422E-07        -0.97085E-20         0.00000E+00
    0.67422E-07        -0.15296E-19         0.00000E+00
    0.67422E-07        -0.18626E-19         0.00000E+00
    0.67422E-07         0.00000E+00         0.00000E+00
    0.67422E-07         0.37253E-20         0.00000E+00
    0.67422E-07        -0.10781E-19         0.00000E+00
    0.67422E-07        -0.20489E-19         0.00000E+00
    0.67422E-07        -0.29802E-19         0.00000E+00
    0.67422E-07        -0.15832E-19         0.00000E+00
    0.67422E-07        -0.12502E-19         0.00000E+00
    0.67422E-07        -0.74506E-20         0.00000E+00
    0.64883E-07        -0.11176E-19         0.00000E+00
    0.64883E-07        -0.14901E-19         0.00000E+00
    0.64883E-07        -0.16764E-19         0.00000E+00
    0.64883E-07        -0.26077E-19         0.00000E+00
    0.64883E-07        -0.24214E-19         0.00000E+00
    0.64883E-07        -0.13039E-19         0.00000E+00
    0.64883E-07        -0.11176E-19         0.00000E+00
    0.64883E-07        -0.20489E-19         0.00000E+00
    0.64883E-07        -0.39116E-19         0.00000E+00
    0.64883E-07        -0.39116E-19         0.00000E+00
    0.64883E-07        -0.44703E-19         0.00000E+00
    0.64883E-07        -0.50291E-19         0.00000E+00
    0.64883E-07        -0.35390E-19         0.00000E+00
    0.64883E-07        -0.16764E-19         0.00000E+00
    0.64883E-07        -0.16764E-19         0.00000E+00
    0.64883E-07        -0.31665E-19         0.00000E+00
    0.64883E-07        -0.26077E-19         0.00000E+00
    0.64883E-07        -0.14901E-19         0.00000E+00
    0.64883E-07        -0.22916E-19         0.00000E+00
    0.64883E-07        -0.40047E-19         0.00000E+00
    0.64883E-07        -0.33894E-19         0.00000E+00
    0.64883E-07        -0.24214E-19         0.00000E+00
    0.64883E-07        -0.35390E-19         0.00000E+00
    0.64883E-07        -0.40978E-19         0.00000E+00
    0.64883E-07        -0.33528E-19         0.00000E+00
    0.64883E-07        -0.29802E-19         0.00000E+00
    0.64883E-07        -0.27940E-19         0.00000E+00
    0.64883E-07        -0.40978E-19         0.00000E+00
    0.64883E-07        -0.35390E-19         0.00000E+00
    0.64883E-07        -0.26077E-19         0.00000E+00
    0.64883E-07        -0.29802E-19         0.00000E+00
    0.64883E-07        -0.40978E-19         0.00000E+00
    0.64883E-07        -0.46566E-19         0.00000E+00
    0.64883E-07        -0.33528E-19         0.00000E+00
    0.64883E-07        -0.24214E-19         0.00000E+00
    0.64883E-07        -0.16764E-19         0.00000E+00
    0.64883E-07        -0.11176E-19         0.00000E+00
    0.64883E-07        -0.18626E-20         0.00000E+00
    0.64883E-07        -0.18626E-20         0.00000E+00
    0.64883E-07        -0.93132E-20         0.00000E+00
    0.64883E-07        -0.11176E-19         0.00000E+00
    0.64883E-07        -0.18626E-20         0.00000E+00
    0.64883E-07        -0.18626E-20         0.00000E+00
    0.64883E-07        -0.13039E-19         0.00000E+00
    0.64883E-07        -0.20489E-19         0.00000E+00
    0.64883E-07        -0.93132E-20         0.00000E+00
    0.64883E-07         0.74506E-20         0.00000E+00
    0.64883E-07         0.37253E-20         0.00000E+00
    0.64883E-07         0.55879E-20         0.00000E+00
    0.64883E-07         0.74506E-20         0.00000E+00
    0.64883E-07         0.00000E+00         0.00000E+00
    0.62273E-07        -0.17460E-19         0.00000E+00
    0.62273E-07        -0.16764E-19         0.00000E+00
    0.62273E-07        -0.22935E-19         0.00000E+00
    0.62273E-07        -0.16764E-19         0.00000E+00
    0.62273E-07        -0.68673E-20         0.00000E+00
    0.62273E-07        -0.14318E-19         0.00000E+00
    0.62273E-07        -0.11759E-19         0.00000E+00
    0.62273E-07        -0.21072E-19         0.00000E+00
    0.62273E-07        -0.22352E-19         0.00000E+00
    0.62273E-07        -0.11176E-19         0.00000E+00
    0.62273E-07        -0.11176E-19         0.00000E+00
    0.62273E-07        -0.11176E-19         0.00000E+00
    0.62273E-07        -0.18626E-19         0.00000E+00
    0.62273E-07        -0.27940E-19         0.00000E+00
    0.62273E-07        -0.33528E-19         0.00000E+00
    0.62273E-07        -0.33528E-19         0.00000E+00
    0.62273E-07        -0.44703E-19         0.00000E+00
    0.62273E-07        -0.52154E-19         0.00000E+00
    0.62273E-07        -0.42841E-19         0.00000E+00
    0.62273E-07        -0.27940E-19         0.00000E+00
    0.62273E-07        -0.31665E-19         0.00000E+00
    0.62273E-07        -0.26077E-19         0.00000E+00
    0.62273E-07        -0.18626E-19         0.00000E+00
    0.62273E-07        -0.22352E-19         0.00000E+00
    0.62273E-07        -0.26077E-19         0.00000E+00
    0.62273E-07        -0.29802E-19         0.00000E+00
    0.62273E-07        -0.33528E-19         0.00000E+00
    0.62273E-07        -0.35390E-19         0.00000E+00
    0.62273E-07        -0.29802E-19         0.00000E+00
    0.62273E-07        -0.29802E-19         0.00000E+00
    0.62273E-07        -0.22352E-19         0.00000E+00
    0.62273E-07        -0.13039E-19         0.00000E+00
    0.62273E-07        -0.93132E-20         0.00000E+00
    0.62273E-07        -0.14901E-19         0.00000E+00
    0.62273E-07        -0.16764E-19         0.00000E+00
    0.62273E-07        -0.11176E-19         0.00000E+00
    0.62273E-07        -0.16764E-19         0.00000E+00
    0.62273E-07        -0.26077E-19         0.00000E+00
    0.62273E-07        -0.93132E-20         0.00000E+00
    0.62273E-07         0.43086E-20         0.00000E+00
    0.62273E-07        -0.39779E-34         0.00000E+00
    0.62273E-07        -0.80339E-20         0.00000E+00
    0.62273E-07        -0.22352E-19         0.00000E+00
    0.62273E-07        -0.18626E-19         0.00000E+00
    0.62273E-07        -0.74506E-20         0.00000E+00
    0.62273E-07        -0.14901E-19         0.00000E+00
    0.62273E-07        -0.16181E-19         0.00000E+00
    0.62273E-07        -0.33854E-35         0.00000E+00
    0.62273E-07         0.50046E-20         0.00000E+00
    0.62273E-07         0.37253E-20         0.00000E+00
    0.62273E-07         0.74506E-20         0.00000E+00
    0.59613E-07         0.00000E+00         0.00000E+00
    0.59613E-07        -0.26530E-20         0.00000E+00
    0.59613E-07         0.37253E-20         0.00000E+00
    0.59613E-07        -0.29350E-20         0.00000E+00
    0.59613E-07        -0.29802E-19         0.00000E+00
    0.59613E-07        -0.34318E-19         0.00000E+00
    0.59613E-07        -0.30593E-19         0.00000E+00
    0.59613E-07        -0.14901E-19         0.00000E+00
    0.59613E-07        -0.85229E-20         0.00000E+00
    0.59613E-07        -0.17836E-19         0.00000E+00
    0.59613E-07        -0.15691E-19         0.00000E+00
    0.59613E-07        -0.24214E-19         0.00000E+00
    0.59613E-07        -0.30875E-19         0.00000E+00
    0.59613E-07        -0.19417E-19         0.00000E+00
    0.59613E-07        -0.18626E-20         0.00000E+00
    0.59613E-07        -0.13039E-19         0.00000E+00
    0.59613E-07        -0.19417E-19         0.00000E+00
    0.59613E-07        -0.25287E-19         0.00000E+00
    0.59613E-07        -0.32737E-19         0.00000E+00
    0.59613E-07        -0.26077E-19         0.00000E+00
    0.59613E-07        -0.32455E-19         0.00000E+00
    0.59613E-07        -0.38043E-19         0.00000E+00
    0.59613E-07        -0.27940E-19         0.00000E+00
    0.59613E-07        -0.35390E-19         0.00000E+00
    0.59613E-07        -0.42051E-19         0.00000E+00
    0.59613E-07        -0.27940E-19         0.00000E+00
    0.59613E-07        -0.15691E-19         0.00000E+00
    0.59613E-07        -0.11176E-19         0.00000E+00
    0.59613E-07        -0.27940E-19         0.00000E+00
    0.59613E-07        -0.36463E-19         0.00000E+00
    0.59613E-07        -0.22352E-19         0.00000E+00
    0.59613E-07        -0.15691E-19         0.00000E+00
    0.59613E-07        -0.29012E-19         0.00000E+00
    0.59613E-07        -0.43913E-19         0.00000E+00
    0.59613E-07        -0.37253E-19         0.00000E+00
    0.59613E-07        -0.22352E-19         0.00000E+00
    0.59613E-07        -0.18626E-19         0.00000E+00
    0.59613E-07        -0.15691E-19         0.00000E+00
    0.59613E-07        -0.17554E-19         0.00000E+00
    0.59613E-07        -0.23424E-19         0.00000E+00
    0.59613E-07        -0.23424E-19         0.00000E+00
    0.59613E-07        -0.13039E-19         0.00000E+00
    0.59613E-07        -0.15691E-19         0.00000E+00
    0.59613E-07        -0.21279E-19         0.00000E+00
    0.59613E-07        -0.11176E-19         0.00000E+00
    0.59613E-07         0.00000E+00         0.00000E+00
    0.59613E-07        -0.29350E-20         0.00000E+00
    0.59613E-07        -0.12248E-19         0.00000E+00
    0.59613E-07        -0.11176E-19         0.00000E+00
    0.59613E-07        -0.37253E-20         0.00000E+00
    0.59613E-07         0.00000E+00         0.00000E+00
    0.56924E-07         0.74506E-20         0.00000E+00
    0.56924E-07         0.00000E+00         0.00000E+00
    0.56924E-07        -0.37253E-20         0.00000E+00
    0.56924E-07         0.87489E-21         0.00000E+00
    0.56924E-07        -0.11176E-19         0.00000E+00
    0.56924E-07        -0.26895E-19         0.00000E+00
    0.56924E-07        -0.22352E-19         0.00000E+00
    0.56924E-07        -0.24271E-19         0.00000E+00
    0.56924E-07        -0.20489E-19         0.00000E+00
    0.56924E-07        -0.18626E-19         0.00000E+00
    0.56924E-07        -0.18626E-19         0.00000E+00
    0.56924E-07        -0.84383E-20         0.00000E+00
    0.56924E-07        -0.18626E-19         0.00000E+00
    0.56924E-07        -0.43772E-19         0.00000E+00
    0.56924E-07        -0.43772E-19         0.00000E+00
    0.56924E-07        -0.32540E-19         0.00000E+00
    0.56924E-07        -0.29802E-19         0.00000E+00
    0.56924E-07        -0.24214E-19         0.00000E+00
    0.56924E-07        -0.11176E-19         0.00000E+00
    0.56924E-07        -0.14901E-19         0.00000E+00
    0.56924E-07        -0.11176E-19         0.00000E+00
    0.56924E-07         0.55879E-20         0.00000E+00
    0.56924E-07        -0.11176E-19         0.00000E+00
    0.56924E-07        -0.27065E-19         0.00000E+00
    0.56924E-07        -0.22295E-19         0.00000E+00
    0.56924E-07        -0.17695E-19         0.00000E+00
    0.56924E-07        -0.13095E-19         0.00000E+00
    0.56924E-07        -0.24158E-19         0.00000E+00
    0.56924E-07        -0.33528E-19         0.00000E+00
    0.56924E-07        -0.42841E-19         0.00000E+00
    0.56924E-07        -0.50291E-19         0.00000E+00
    0.56924E-07        -0.35390E-19         0.00000E+00
    0.56924E-07        -0.27940E-19         0.00000E+00
    0.56924E-07        -0.24214E-19         0.00000E+00
    0.56924E-07        -0.24214E-19         0.00000E+00
    0.56924E-07        -0.22352E-19         0.00000E+00
    0.56924E-07        -0.14901E-19         0.00000E+00
    0.56924E-07        -0.22352E-19         0.00000E+00
    0.56924E-07        -0.37253E-19         0.00000E+00
    0.56924E-07        -0.40978E-19         0.00000E+00
    0.56924E-07        -0.33471E-19         0.00000E+00
    0.56924E-07        -0.25146E-19         0.00000E+00
    0.56924E-07        -0.17752E-19         0.00000E+00
    0.56924E-07        -0.10188E-19         0.00000E+00
    0.56924E-07        -0.47130E-20         0.00000E+00
    0.56924E-07        -0.16877E-19         0.00000E+00
    0.56924E-07        -0.19501E-19         0.00000E+00
    0.56924E-07        -0.12051E-19         0.00000E+00
    0.56924E-07        -0.18626E-20         0.00000E+00
    0.56924E-07         0.47130E-20         0.00000E+00
    0.56924E-07         0.57008E-20         0.00000E+00
    0.54224E-07         0.37253E-20         0.00000E+00
    0.54224E-07        -0.16184E-20         0.00000E+00
    0.54224E-07        -0.11176E-19         0.00000E+00
    0.54224E-07        -0.58322E-20         0.00000E+00
    0.54224E-07         0.18626E-20         0.00000E+00
    0.54224E-07         0.18626E-20         0.00000E+00
    0.54224E-07        -0.55879E-20         0.00000E+00
    0.54224E-07        -0.14901E-19         0.00000E+00
    0.54224E-07        -0.72063E-20         0.00000E+00
    0.54224E-07         0.00000E+00         0.00000E+00
    0.54224E-07        -0.76949E-20         0.00000E+00
    0.54224E-07        -0.18626E-19         0.00000E+00
    0.54224E-07        -0.18382E-19         0.00000E+00
    0.54224E-07        -0.11176E-19         0.00000E+00
    0.54224E-07        -0.13283E-19         0.00000E+00
    0.54224E-07        -0.25833E-19         0.00000E+00
    0.54224E-07        -0.27940E-19         0.00000E+00
    0.54224E-07        -0.31665E-19         0.00000E+00
    0.54224E-07        -0.40734E-19         0.00000E+00
    0.54224E-07        -0.30978E-19         0.00000E+00
    0.54224E-07        -0.23283E-19         0.00000E+00
    0.54224E-07        -0.27940E-19         0.00000E+00
    0.54224E-07        -0.16764E-19         0.00000E+00
    0.54224E-07        -0.53437E-20         0.00000E+00
    0.54224E-07        -0.14901E-19         0.00000E+00
    0.54224E-07        -0.33528E-19         0.00000E+00
    0.54224E-07        -0.42154E-19         0.00000E+00
    0.54224E-07        -0.28871E-19         0.00000E+00
    0.54224E-07        -0.23970E-19         0.00000E+00
    0.54224E-07        -0.16077E-19         0.00000E+00
    0.54224E-07        -0.22352E-19         0.00000E+00
    0.54224E-07        -0.36322E-19         0.00000E+00
    0.54224E-07        -0.33772E-19         0.00000E+00
    0.54224E-07        -0.33283E-19         0.00000E+00
    0.54224E-07        -0.13970E-19         0.00000E+00
    0.54224E-07         0.37253E-20         0.00000E+00
    0.54224E-07        -0.13726E-19         0.00000E+00
    0.54224E-07        -0.35390E-19         0.00000E+00
    0.54224E-07        -0.27253E-19         0.00000E+00
    0.54224E-07        -0.21665E-19         0.00000E+00
    0.54224E-07        -0.47253E-19         0.00000E+00
    0.54224E-07        -0.46566E-19         0.00000E+00
    0.54224E-07        -0.34703E-19         0.00000E+00
    0.54224E-07        -0.26077E-19         0.00000E+00
    0.54224E-07         0.18626E-20         0.00000E+00
    0.54224E-07         0.13039E-19         0.00000E+00
    0.54224E-07         0.37253E-20         0.00000E+00
    0.54224E-07         0.30382E-20         0.00000E+00
    0.54224E-07         0.55879E-20         0.00000E+00
    0.54224E-07         0.27940E-20         0.00000E+00
    0.54224E-07        -0.32367E-20         0.00000E+00
    0.51532E-07        -0.82958E-20         0.00000E+00
    0.51532E-07         0.00000E+00         0.00000E+00
    0.51532E-07         0.13039E-19         0.00000E+00
    0.51532E-07         0.16764E-19         0.00000E+00
    0.51532E-07         0.14901E-19         0.00000E+00
    0.51532E-07         0.74506E-20         0.00000E+00
    0.51532E-07        -0.28786E-33         0.00000E+00
    0.51532E-07         0.51653E-20         0.00000E+00
    0.51532E-07         0.74506E-20         0.00000E+00
    0.51532E-07         0.42259E-21         0.00000E+00
    0.51532E-07        -0.70280E-20         0.00000E+00
    0.51532E-07        -0.27940E-19         0.00000E+00
    0.51532E-07        -0.37253E-19         0.00000E+00
    0.51532E-07        -0.27940E-19         0.00000E+00
    0.51532E-07        -0.22352E-19         0.00000E+00
    0.51532E-07        -0.16764E-19         0.00000E+00
    0.51532E-07        -0.74506E-20         0.00000E+00
    0.51532E-07         0.93132E-20         0.00000E+00
    0.51532E-07         0.37253E-20         0.00000E+00
    0.51532E-07        -0.26077E-19         0.00000E+00
    0.51532E-07        -0.39116E-19         0.00000E+00
    0.51532E-07        -0.27940E-19         0.00000E+00
    0.51532E-07        -0.31665E-19         0.00000E+00
    0.51532E-07        -0.44703E-19         0.00000E+00
    0.51532E-07        -0.40978E-19         0.00000E+00
    0.51532E-07        -0.26500E-19         0.00000E+00
    0.51532E-07        -0.22352E-19         0.00000E+00
    0.51532E-07        -0.38693E-19         0.00000E+00
    0.51532E-07        -0.37253E-19         0.00000E+00
    0.51532E-07        -0.31665E-19         0.00000E+00
    0.51532E-07        -0.37253E-19         0.00000E+00
    0.51532E-07        -0.35813E-19         0.00000E+00
    0.51532E-07        -0.39116E-19         0.00000E+00
    0.51532E-07        -0.44281E-19         0.00000E+00
    0.51532E-07        -0.52154E-19         0.00000E+00
    0.51532E-07        -0.39116E-19         0.00000E+00
    0.51532E-07        -0.16764E-19         0.00000E+00
    0.51532E-07        -0.93132E-20         0.00000E+00
    0.51532E-07        -0.18626E-19         0.00000E+00
    0.51532E-07        -0.22774E-19         0.00000E+00
    0.51532E-07        -0.14901E-19         0.00000E+00
    0.51532E-07        -0.74506E-20         0.00000E+00
    0.51532E-07        -0.93132E-20         0.00000E+00
    0.51532E-07        -0.74506E-20         0.00000E+00
    0.51532E-07        -0.74506E-20         0.00000E+00
    0.51532E-07        -0.14479E-19         0.00000E+00
    0.51532E-07        -0.55879E-20         0.00000E+00
    0.51532E-07        -0.93132E-20         0.00000E+00
    0.51532E-07        -0.11176E-19         0.00000E+00
    0.51532E-07        -0.33027E-20         0.00000E+00
    0.51532E-07         0.84518E-21         0.00000E+00
    0.48862E-07         0.00000E+00         0.00000E+00
    0.48862E-07         0.37253E-20         0.00000E+00
    0.48862E-07         0.74506E-20         0.00000E+00
    0.48862E-07         0.93132E-20         0.00000E+00
    0.48862E-07         0.68591E-20         0.00000E+00
    0.48862E-07        -0.74506E-20         0.00000E+00
    0.48862E-07        -0.31338E-20         0.00000E+00
    0.48862E-07         0.74506E-20         0.00000E+00
    0.48862E-07         0.18626E-20         0.00000E+00
    0.48862E-07         0.37253E-20         0.00000E+00
    0.48862E-07         0.16172E-19         0.00000E+00
    0.48862E-07         0.22352E-19         0.00000E+00
    0.48862E-07         0.19218E-19         0.00000E+00
    0.48862E-07         0.31338E-20         0.00000E+00
    0.48862E-07        -0.93132E-20         0.00000E+00
    0.48862E-07        -0.81303E-20         0.00000E+00
    0.48862E-07        -0.74506E-20         0.00000E+00
    0.48862E-07        -0.13630E-19         0.00000E+00
    0.48862E-07        -0.33528E-19         0.00000E+00
    0.48862E-07        -0.31665E-19         0.00000E+00
    0.48862E-07        -0.27940E-19         0.00000E+00
    0.48862E-07        -0.35390E-19         0.00000E+00
    0.48862E-07        -0.27940E-19         0.00000E+00
    0.48862E-07        -0.22352E-19         0.00000E+00
    0.48862E-07        -0.22352E-19         0.00000E+00
    0.48862E-07        -0.35390E-19         0.00000E+00
    0.48862E-07        -0.37253E-19         0.00000E+00
    0.48862E-07        -0.31665E-19         0.00000E+00
    0.48862E-07        -0.50291E-19         0.00000E+00
    0.48862E-07        -0.63330E-19         0.00000E+00
    0.48862E-07        -0.57742E-19         0.00000E+00
    0.48862E-07        -0.50291E-19         0.00000E+00
    0.48862E-07        -0.42841E-19         0.00000E+00
    0.48862E-07        -0.31665E-19         0.00000E+00
    0.48862E-07        -0.20489E-19         0.00000E+00
    0.48862E-07        -0.17104E-19         0.00000E+00
    0.48862E-07        -0.23283E-19         0.00000E+00
    0.48862E-07        -0.34119E-19         0.00000E+00
    0.48862E-07        -0.39116E-19         0.00000E+00
    0.48862E-07        -0.37253E-19         0.00000E+00
    0.48862E-07        -0.25737E-19         0.00000E+00
    0.48862E-07        -0.21420E-19         0.00000E+00
    0.48862E-07        -0.19898E-19         0.00000E+00
    0.48862E-07        -0.26077E-19         0.00000E+00
    0.48862E-07        -0.16764E-19         0.00000E+00
    0.48862E-07         0.37253E-20         0.00000E+00
    0.48862E-07         0.49965E-20         0.00000E+00
    0.48862E-07        -0.37253E-20         0.00000E+00
    0.48862E-07        -0.49965E-20         0.00000E+00
    0.48862E-07        -0.12712E-20         0.00000E+00
    0.48862E-07        -0.25424E-20         0.00000E+00
    0.46230E-07        -0.37253E-20         0.00000E+00
    0.46230E-07        -0.37253E-20         0.00000E+00
    0.46230E-07        -0.48369E-20         0.00000E+00
    0.46230E-07         0.93132E-20         0.00000E+00
    0.46230E-07         0.10425E-19         0.00000E+00
    0.46230E-07         0.37253E-20         0.00000E+00
    0.46230E-07        -0.37253E-20         0.00000E+00
    0.46230E-07        -0.93132E-20         0.00000E+00
    0.46230E-07         0.37253E-20         0.00000E+00
    0.46230E-07         0.74506E-20         0.00000E+00
    0.46230E-07         0.91330E-20         0.00000E+00
    0.46230E-07         0.12107E-19         0.00000E+00
    0.46230E-07         0.14150E-19         0.00000E+00
    0.46230E-07         0.16764E-19         0.00000E+00
    0.46230E-07         0.13039E-19         0.00000E+00
    0.46230E-07        -0.37253E-20         0.00000E+00
    0.46230E-07        -0.16764E-19         0.00000E+00
    0.46230E-07        -0.18626E-19         0.00000E+00
    0.46230E-07        -0.74506E-20         0.00000E+00
    0.46230E-07        -0.13039E-19         0.00000E+00
    0.46230E-07        -0.26077E-19         0.00000E+00
    0.46230E-07        -0.24214E-19         0.00000E+00
    0.46230E-07        -0.16764E-19         0.00000E+00
    0.46230E-07        -0.22352E-19         0.00000E+00
    0.46230E-07        -0.42841E-19         0.00000E+00
    0.46230E-07        -0.52154E-19         0.00000E+00
    0.46230E-07        -0.55879E-19         0.00000E+00
    0.46230E-07        -0.48429E-19         0.00000E+00
    0.46230E-07        -0.33528E-19         0.00000E+00
    0.46230E-07        -0.35390E-19         0.00000E+00
    0.46230E-07        -0.42841E-19         0.00000E+00
    0.46230E-07        -0.35390E-19         0.00000E+00
    0.46230E-07        -0.24214E-19         0.00000E+00
    0.46230E-07        -0.27940E-19         0.00000E+00
    0.46230E-07        -0.31665E-19         0.00000E+00
    0.46230E-07        -0.33528E-19         0.00000E+00
    0.46230E-07        -0.39296E-19         0.00000E+00
    0.46230E-07        -0.28120E-19         0.00000E+00
    0.46230E-07        -0.19378E-19         0.00000E+00
    0.46230E-07        -0.19378E-19         0.00000E+00
    0.46230E-07        -0.22352E-19         0.00000E+00
    0.46230E-07        -0.11176E-19         0.00000E+00
    0.46230E-07         0.11176E-19         0.00000E+00
    0.46230E-07         0.74506E-20         0.00000E+00
    0.46230E-07        -0.94935E-20         0.00000E+00
    0.46230E-07        -0.13219E-19         0.00000E+00
    0.46230E-07        -0.14721E-19         0.00000E+00
    0.46230E-07        -0.91330E-20         0.00000E+00
    0.46230E-07        -0.18626E-20         0.00000E+00
    0.46230E-07         0.35450E-20         0.00000E+00
    0.46230E-07         0.70901E-20         0.00000E+00
    0.43649E-07         0.74506E-20         0.00000E+00
    0.43649E-07         0.11206E-19         0.00000E+00
    0.43649E-07         0.74803E-20         0.00000E+00
    0.43649E-07        -0.37550E-20         0.00000E+00
    0.43649E-07        -0.93132E-20         0.00000E+00
    0.43649E-07        -0.14871E-19         0.00000E+00
    0.43649E-07        -0.55879E-20         0.00000E+00
    0.43649E-07         0.92835E-20         0.00000E+00
    0.43649E-07         0.92835E-20         0.00000E+00
    0.43649E-07         0.18924E-20         0.00000E+00
    0.43649E-07        -0.55879E-20         0.00000E+00
    0.43649E-07        -0.93429E-20         0.00000E+00
    0.43649E-07         0.00000E+00         0.00000E+00
    0.43649E-07         0.13068E-19         0.00000E+00
    0.43649E-07         0.74506E-20         0.00000E+00
    0.43649E-07         0.16764E-19         0.00000E+00
    0.43649E-07         0.18656E-19         0.00000E+00
    0.43649E-07        -0.55879E-20         0.00000E+00
    0.43649E-07        -0.12167E-19         0.00000E+00
    0.43649E-07        -0.11176E-19         0.00000E+00
    0.43649E-07        -0.13910E-19         0.00000E+00
    0.43649E-07        -0.29802E-19         0.00000E+00
    0.43649E-07        -0.42871E-19         0.00000E+00
    0.43649E-07        -0.51223E-19         0.00000E+00
    0.43649E-07        -0.47468E-19         0.00000E+00
    0.43649E-07        -0.31665E-19         0.00000E+00
    0.43649E-07        -0.24214E-19         0.00000E+00
    0.43649E-07        -0.22352E-19         0.00000E+00
    0.43649E-07        -0.31665E-19         0.00000E+00
    0.43649E-07        -0.40077E-19         0.00000E+00
    0.43649E-07        -0.41910E-19         0.00000E+00
    0.43649E-07        -0.40948E-19         0.00000E+00
    0.43649E-07        -0.42841E-19         0.00000E+00
    0.43649E-07        -0.40978E-19         0.00000E+00
    0.43649E-07        -0.39116E-19         0.00000E+00
    0.43649E-07        -0.35390E-19         0.00000E+00
    0.43649E-07        -0.24214E-19         0.00000E+00
    0.43649E-07        -0.11176E-19         0.00000E+00
    0.43649E-07        -0.12137E-19         0.00000E+00
    0.43649E-07        -0.24214E-19         0.00000E+00
    0.43649E-07        -0.23253E-19         0.00000E+00
    0.43649E-07        -0.28901E-19         0.00000E+00
    0.43649E-07        -0.26077E-19         0.00000E+00
    0.43649E-07        -0.46269E-20         0.00000E+00
    0.43649E-07         0.10215E-19         0.00000E+00
    0.43649E-07         0.13940E-19         0.00000E+00
    0.43649E-07         0.11176E-19         0.00000E+00
    0.43649E-07         0.00000E+00         0.00000E+00
    0.43649E-07        -0.13039E-19         0.00000E+00
    0.43649E-07        -0.16764E-19         0.00000E+00
    0.43649E-07        -0.14901E-19         0.00000E+00
    0.41130E-07         0.37253E-20         0.00000E+00
    0.41130E-07         0.55879E-20         0.00000E+00
    0.41130E-07         0.13039E-19         0.00000E+00
    0.41130E-07         0.11176E-19         0.00000E+00
    0.41130E-07         0.81933E-21         0.00000E+00
    0.41130E-07         0.75626E-20         0.00000E+00
    0.41130E-07         0.16056E-19         0.00000E+00
    0.41130E-07         0.14789E-19         0.00000E+00
    0.41130E-07         0.73386E-20         0.00000E+00
    0.41130E-07         0.66313E-20         0.00000E+00
    0.41130E-07         0.16764E-19         0.00000E+00
    0.41130E-07         0.64073E-20         0.00000E+00
    0.41130E-07        -0.18626E-20         0.00000E+00
    0.41130E-07        -0.37253E-20         0.00000E+00
    0.41130E-07        -0.93132E-20         0.00000E+00
    0.41130E-07        -0.14789E-19         0.00000E+00
    0.41130E-07        -0.10357E-19         0.00000E+00
    0.41130E-07        -0.38373E-20         0.00000E+00
    0.41130E-07        -0.11883E-19         0.00000E+00
    0.41130E-07        -0.21532E-19         0.00000E+00
    0.41130E-07        -0.29914E-19         0.00000E+00
    0.41130E-07        -0.28759E-19         0.00000E+00
    0.41130E-07        -0.28983E-19         0.00000E+00
    0.41130E-07        -0.40159E-19         0.00000E+00
    0.41130E-07        -0.54724E-19         0.00000E+00
    0.41130E-07        -0.44703E-19         0.00000E+00
    0.41130E-07        -0.27120E-19         0.00000E+00
    0.41130E-07        -0.35278E-19         0.00000E+00
    0.41130E-07        -0.48429E-19         0.00000E+00
    0.41130E-07        -0.58561E-19         0.00000E+00
    0.41130E-07        -0.63442E-19         0.00000E+00
    0.41130E-07        -0.40271E-19         0.00000E+00
    0.41130E-07        -0.21308E-19         0.00000E+00
    0.41130E-07        -0.26896E-19         0.00000E+00
    0.41130E-07        -0.30846E-19         0.00000E+00
    0.41130E-07        -0.22352E-19         0.00000E+00
    0.41130E-07        -0.16764E-19         0.00000E+00
    0.41130E-07        -0.17695E-19         0.00000E+00
    0.41130E-07        -0.12107E-19         0.00000E+00
    0.41130E-07        -0.47686E-20         0.00000E+00
    0.41130E-07         0.10433E-20         0.00000E+00
    0.41130E-07        -0.82699E-20         0.00000E+00
    0.41130E-07        -0.13151E-19         0.00000E+00
    0.41130E-07        -0.12107E-19         0.00000E+00
    0.41130E-07        -0.17583E-19         0.00000E+00
    0.41130E-07        -0.22352E-19         0.00000E+00
    0.41130E-07        -0.93132E-20         0.00000E+00
    0.41130E-07         0.55879E-20         0.00000E+00
    0.41130E-07         0.17583E-19         0.00000E+00
    0.41130E-07         0.66313E-20         0.00000E+00
    0.41130E-07        -0.70026E-20         0.00000E+00
    0.38684E-07         0.32350E-20         0.00000E+00
    0.38684E-07        -0.74506E-20         0.00000E+00
    0.38684E-07        -0.13039E-19         0.00000E+00
    0.38684E-07        -0.18626E-20         0.00000E+00
    0.38684E-07        -0.55879E-20         0.00000E+00
    0.38684E-07        -0.13725E-19         0.00000E+00
    0.38684E-07         0.67644E-20         0.00000E+00
    0.38684E-07         0.13039E-19         0.00000E+00
    0.38684E-07         0.76957E-20         0.00000E+00
    0.38684E-07         0.18626E-20         0.00000E+00
    0.38684E-07        -0.21078E-20         0.00000E+00
    0.38684E-07         0.34801E-20         0.00000E+00
    0.38684E-07        -0.14901E-19         0.00000E+00
    0.38684E-07        -0.35635E-19         0.00000E+00
    0.38684E-07        -0.21175E-19         0.00000E+00
    0.38684E-07        -0.13725E-19         0.00000E+00
    0.38684E-07        -0.26077E-19         0.00000E+00
    0.38684E-07        -0.23969E-19         0.00000E+00
    0.38684E-07        -0.30047E-19         0.00000E+00
    0.38684E-07        -0.28185E-19         0.00000E+00
    0.38684E-07        -0.76957E-20         0.00000E+00
    0.38684E-07        -0.95584E-20         0.00000E+00
    0.38684E-07        -0.16519E-19         0.00000E+00
    0.38684E-07        -0.18626E-19         0.00000E+00
    0.38684E-07        -0.27695E-19         0.00000E+00
    0.38684E-07        -0.29802E-19         0.00000E+00
    0.38684E-07        -0.44949E-19         0.00000E+00
    0.38684E-07        -0.36763E-19         0.00000E+00
    0.38684E-07        -0.26077E-19         0.00000E+00
    0.38684E-07        -0.35390E-19         0.00000E+00
    0.38684E-07        -0.29802E-19         0.00000E+00
    0.38684E-07        -0.26567E-19         0.00000E+00
    0.38684E-07        -0.35635E-19         0.00000E+00
    0.38684E-07        -0.42596E-19         0.00000E+00
    0.38684E-07        -0.31665E-19         0.00000E+00
    0.38684E-07        -0.18381E-19         0.00000E+00
    0.38684E-07        -0.69603E-20         0.00000E+00
    0.38684E-07        -0.11421E-19         0.00000E+00
    0.38684E-07        -0.11176E-19         0.00000E+00
    0.38684E-07        -0.74506E-20         0.00000E+00
    0.38684E-07        -0.14901E-19         0.00000E+00
    0.38684E-07        -0.46566E-20         0.00000E+00
    0.38684E-07         0.74506E-20         0.00000E+00
    0.38684E-07         0.44115E-20         0.00000E+00
    0.38684E-07        -0.24515E-21         0.00000E+00
    0.38684E-07        -0.72054E-20         0.00000E+00
    0.38684E-07        -0.13039E-19         0.00000E+00
    0.38684E-07        -0.14901E-19         0.00000E+00
    0.38684E-07        -0.13039E-19         0.00000E+00
    0.38684E-07         0.11765E-20         0.00000E+00
    0.38684E-07         0.13529E-19         0.00000E+00
    0.36318E-07         0.74506E-20         0.00000E+00
    0.36318E-07         0.52179E-20         0.00000E+00
    0.36318E-07         0.37253E-20         0.00000E+00
    0.36318E-07        -0.89432E-20         0.00000E+00
    0.36318E-07        -0.22352E-19         0.00000E+00
    0.36318E-07        -0.18997E-19         0.00000E+00
    0.36318E-07        -0.14901E-19         0.00000E+00
    0.36318E-07        -0.74506E-20         0.00000E+00
    0.36318E-07        -0.37253E-20         0.00000E+00
    0.36318E-07        -0.37253E-20         0.00000E+00
    0.36318E-07        -0.15271E-19         0.00000E+00
    0.36318E-07        -0.29432E-19         0.00000E+00
    0.36318E-07        -0.22722E-19         0.00000E+00
    0.36318E-07        -0.13409E-19         0.00000E+00
    0.36318E-07        -0.14161E-19         0.00000E+00
    0.36318E-07        -0.16394E-19         0.00000E+00
    0.36318E-07        -0.16764E-19         0.00000E+00
    0.36318E-07        -0.29432E-19         0.00000E+00
    0.36318E-07        -0.24214E-19         0.00000E+00
    0.36318E-07        -0.59580E-20         0.00000E+00
    0.36318E-07        -0.20859E-19         0.00000E+00
    0.36318E-07        -0.30172E-19         0.00000E+00
    0.36318E-07        -0.23844E-19         0.00000E+00
    0.36318E-07        -0.11176E-19         0.00000E+00
    0.36318E-07         0.37253E-20         0.00000E+00
    0.36318E-07        -0.18626E-20         0.00000E+00
    0.36318E-07        -0.37253E-20         0.00000E+00
    0.36318E-07         0.37253E-20         0.00000E+00
    0.36318E-07         0.52179E-20         0.00000E+00
    0.36318E-07         0.37005E-21         0.00000E+00
    0.36318E-07        -0.14531E-19         0.00000E+00
    0.36318E-07        -0.32035E-19         0.00000E+00
    0.36318E-07        -0.31665E-19         0.00000E+00
    0.36318E-07        -0.25707E-19         0.00000E+00
    0.36318E-07        -0.29802E-19         0.00000E+00
    0.36318E-07        -0.33528E-19         0.00000E+00
    0.36318E-07        -0.30172E-19         0.00000E+00
    0.36318E-07        -0.93132E-20         0.00000E+00
    0.36318E-07        -0.33102E-34         0.00000E+00
    0.36318E-07        -0.11546E-19         0.00000E+00
    0.36318E-07        -0.14926E-20         0.00000E+00
    0.36318E-07         0.40953E-20         0.00000E+00
    0.36318E-07        -0.55879E-20         0.00000E+00
    0.36318E-07         0.00000E+00         0.00000E+00
    0.36318E-07         0.74506E-20         0.00000E+00
    0.36318E-07         0.98745E-20         0.00000E+00
    0.36318E-07         0.12107E-19         0.00000E+00
    0.36318E-07         0.93132E-20         0.00000E+00
    0.36318E-07         0.27940E-20         0.00000E+00
    0.36318E-07        -0.61492E-20         0.00000E+00
    0.36318E-07        -0.11176E-19         0.00000E+00
    0.34040E-07        -0.18626E-19         0.00000E+00
    0.34040E-07        -0.12551E-19         0.00000E+00
    0.34040E-07        -0.14901E-19         0.00000E+00
    0.34040E-07        -0.56307E-20         0.00000E+00
    0.34040E-07         0.27008E-19         0.00000E+00
    0.34040E-07         0.28427E-19         0.00000E+00
    0.34040E-07         0.00000E+00         0.00000E+00
    0.34040E-07        -0.16764E-19         0.00000E+00
    0.34040E-07        -0.14901E-19         0.00000E+00
    0.34040E-07        -0.15388E-19         0.00000E+00
    0.34040E-07        -0.11176E-19         0.00000E+00
    0.34040E-07        -0.14414E-19         0.00000E+00
    0.34040E-07        -0.26077E-19         0.00000E+00
    0.34040E-07        -0.22352E-19         0.00000E+00
    0.34040E-07        -0.11176E-19         0.00000E+00
    0.34040E-07        -0.12594E-19         0.00000E+00
    0.34040E-07        -0.88689E-20         0.00000E+00
    0.34040E-07         0.48702E-21         0.00000E+00
    0.34040E-07        -0.16277E-19         0.00000E+00
    0.34040E-07        -0.37253E-19         0.00000E+00
    0.34040E-07        -0.26077E-19         0.00000E+00
    0.34040E-07        -0.48702E-21         0.00000E+00
    0.34040E-07        -0.48702E-21         0.00000E+00
    0.34040E-07        -0.13039E-19         0.00000E+00
    0.34040E-07        -0.14414E-19         0.00000E+00
    0.34040E-07        -0.25590E-19         0.00000E+00
    0.34040E-07        -0.22839E-19         0.00000E+00
    0.34040E-07        -0.13526E-19         0.00000E+00
    0.34040E-07        -0.51009E-20         0.00000E+00
    0.34040E-07        -0.13756E-20         0.00000E+00
    0.34040E-07         0.55879E-20         0.00000E+00
    0.34040E-07         0.74506E-20         0.00000E+00
    0.34040E-07        -0.11663E-19         0.00000E+00
    0.34040E-07        -0.17251E-19         0.00000E+00
    0.34040E-07        -0.18139E-19         0.00000E+00
    0.34040E-07        -0.16277E-19         0.00000E+00
    0.34040E-07        -0.74506E-20         0.00000E+00
    0.34040E-07        -0.13039E-19         0.00000E+00
    0.34040E-07        -0.14901E-19         0.00000E+00
    0.34040E-07         0.13756E-20         0.00000E+00
    0.34040E-07         0.18626E-20         0.00000E+00
    0.34040E-07        -0.13756E-20         0.00000E+00
    0.34040E-07         0.93132E-20         0.00000E+00
    0.34040E-07         0.74506E-20         0.00000E+00
    0.34040E-07         0.11176E-19         0.00000E+00
    0.34040E-07         0.97575E-20         0.00000E+00
    0.34040E-07        -0.67708E-35         0.00000E+00
    0.34040E-07        -0.60322E-20         0.00000E+00
    0.34040E-07        -0.13039E-19         0.00000E+00
    0.34040E-07        -0.78949E-20         0.00000E+00
    0.34040E-07        -0.83392E-20         0.00000E+00
    0.31857E-07         0.74506E-20         0.00000E+00
    0.31857E-07         0.18626E-20         0.00000E+00
    0.31857E-07         0.55879E-20         0.00000E+00
    0.31857E-07         0.74506E-20         0.00000E+00
    0.31857E-07        -0.74506E-20         0.00000E+00
    0.31857E-07        -0.18626E-19         0.00000E+00
    0.31857E-07        -0.16764E-19         0.00000E+00
    0.31857E-07        -0.20489E-19         0.00000E+00
    0.31857E-07        -0.27940E-19         0.00000E+00
    0.31857E-07        -0.24214E-19         0.00000E+00
    0.31857E-07        -0.14901E-19         0.00000E+00
    0.31857E-07        -0.74506E-20         0.00000E+00
    0.31857E-07        -0.11176E-19         0.00000E+00
    0.31857E-07        -0.14901E-19         0.00000E+00
    0.31857E-07        -0.11176E-19         0.00000E+00
    0.31857E-07        -0.11176E-19         0.00000E+00
    0.31857E-07        -0.16764E-19         0.00000E+00
    0.31857E-07        -0.13039E-19         0.00000E+00
    0.31857E-07         0.39868E-20         0.00000E+00
    0.31857E-07         0.17695E-19         0.00000E+00
    0.31857E-07         0.17434E-19         0.00000E+00
    0.31857E-07         0.93132E-20         0.00000E+00
    0.31857E-07         0.00000E+00         0.00000E+00
    0.31857E-07        -0.55879E-20         0.00000E+00
    0.31857E-07        -0.93132E-20         0.00000E+00
    0.31857E-07        -0.93132E-20         0.00000E+00
    0.31857E-07        -0.22352E-19         0.00000E+00
    0.31857E-07        -0.31665E-19         0.00000E+00
    0.31857E-07        -0.33528E-19         0.00000E+00
    0.31857E-07        -0.18626E-19         0.00000E+00
    0.31857E-07        -0.74506E-20         0.00000E+00
    0.31857E-07        -0.22352E-19         0.00000E+00
    0.31857E-07        -0.22352E-19         0.00000E+00
    0.31857E-07         0.00000E+00         0.00000E+00
    0.31857E-07         0.18626E-19         0.00000E+00
    0.31857E-07         0.74506E-20         0.00000E+00
    0.31857E-07        -0.13039E-19         0.00000E+00
    0.31857E-07        -0.16764E-19         0.00000E+00
    0.31857E-07        -0.20489E-19         0.00000E+00
    0.31857E-07        -0.31665E-19         0.00000E+00
    0.31857E-07        -0.18626E-19         0.00000E+00
    0.31857E-07         0.74506E-20         0.00000E+00
    0.31857E-07         0.11176E-19         0.00000E+00
    0.31857E-07         0.13039E-19         0.00000E+00
    0.31857E-07         0.16764E-19         0.00000E+00
    0.31857E-07         0.16764E-19         0.00000E+00
    0.31857E-07         0.13039E-19         0.00000E+00
    0.31857E-07         0.18626E-19         0.00000E+00
    0.31857E-07         0.13039E-19         0.00000E+00
    0.31857E-07        -0.55879E-20         0.00000E+00
    0.31857E-07        -0.74506E-20         0.00000E+00
    0.29771E-07        -0.46563E-20         0.00000E+00
    0.29771E-07        -0.93132E-21         0.00000E+00
    0.29771E-07        -0.79164E-20         0.00000E+00
    0.29771E-07        -0.13039E-19         0.00000E+00
    0.29771E-07        -0.13039E-19         0.00000E+00
    0.29771E-07        -0.16764E-19         0.00000E+00
    0.29771E-07        -0.74506E-20         0.00000E+00
    0.29771E-07         0.13971E-20         0.00000E+00
    0.29771E-07         0.93132E-21         0.00000E+00
    0.29771E-07         0.51221E-20         0.00000E+00
    0.29771E-07         0.18626E-20         0.00000E+00
    0.29771E-07        -0.93132E-20         0.00000E+00
    0.29771E-07        -0.74506E-20         0.00000E+00
    0.29771E-07         0.00000E+00         0.00000E+00
    0.29771E-07         0.14901E-19         0.00000E+00
    0.29771E-07         0.11642E-19         0.00000E+00
    0.29771E-07        -0.93132E-20         0.00000E+00
    0.29771E-07        -0.41911E-20         0.00000E+00
    0.29771E-07         0.18626E-20         0.00000E+00
    0.29771E-07        -0.93132E-20         0.00000E+00
    0.29771E-07        -0.11176E-19         0.00000E+00
    0.29771E-07        -0.18626E-20         0.00000E+00
    0.29771E-07         0.37253E-20         0.00000E+00
    0.29771E-07         0.55879E-20         0.00000E+00
    0.29771E-07         0.74506E-20         0.00000E+00
    0.29771E-07         0.11176E-19         0.00000E+00
    0.29771E-07         0.93132E-20         0.00000E+00
    0.29771E-07         0.00000E+00         0.00000E+00
    0.29771E-07        -0.74506E-20         0.00000E+00
    0.29771E-07        -0.20489E-19         0.00000E+00
    0.29771E-07        -0.18626E-19         0.00000E+00
    0.29771E-07        -0.13039E-19         0.00000E+00
    0.29771E-07        -0.22352E-19         0.00000E+00
    0.29771E-07        -0.33528E-19         0.00000E+00
    0.29771E-07        -0.39116E-19         0.00000E+00
    0.29771E-07        -0.31665E-19         0.00000E+00
    0.29771E-07        -0.14901E-19         0.00000E+00
    0.29771E-07        -0.55879E-20         0.00000E+00
    0.29771E-07        -0.74506E-20         0.00000E+00
    0.29771E-07        -0.51221E-20         0.00000E+00
    0.29771E-07        -0.74506E-20         0.00000E+00
    0.29771E-07        -0.79164E-20         0.00000E+00
    0.29771E-07        -0.18626E-20         0.00000E+00
    0.29771E-07         0.11176E-19         0.00000E+00
    0.29771E-07         0.37253E-20         0.00000E+00
    0.29771E-07        -0.37253E-20         0.00000E+00
    0.29771E-07         0.00000E+00         0.00000E+00
    0.29771E-07         0.46580E-21         0.00000E+00
    0.29771E-07         0.11176E-19         0.00000E+00
    0.29771E-07         0.88474E-20         0.00000E+00
    0.29771E-07        -0.37253E-20         0.00000E+00
    0.27788E-07        -0.42752E-20         0.00000E+00
    0.27788E-07        -0.16764E-19         0.00000E+00
    0.27788E-07        -0.25802E-19         0.00000E+00
    0.27788E-07        -0.22352E-19         0.00000E+00
    0.27788E-07        -0.18901E-19         0.00000E+00
    0.27788E-07        -0.11451E-19         0.00000E+00
    0.27788E-07        -0.16489E-19         0.00000E+00
    0.27788E-07        -0.12764E-19         0.00000E+00
    0.27788E-07        -0.18626E-20         0.00000E+00
    0.27788E-07         0.13039E-19         0.00000E+00
    0.27788E-07         0.27940E-19         0.00000E+00
    0.27788E-07         0.29802E-19         0.00000E+00
    0.27788E-07         0.14901E-19         0.00000E+00
    0.27788E-07         0.93132E-20         0.00000E+00
    0.27788E-07         0.37253E-20         0.00000E+00
    0.27788E-07         0.18626E-20         0.00000E+00
    0.27788E-07         0.26077E-19         0.00000E+00
    0.27788E-07         0.27940E-19         0.00000E+00
    0.27788E-07         0.11176E-19         0.00000E+00
    0.27788E-07         0.16764E-19         0.00000E+00
    0.27788E-07         0.22352E-19         0.00000E+00
    0.27788E-07         0.11176E-19         0.00000E+00
    0.27788E-07        -0.13039E-19         0.00000E+00
    0.27788E-07        -0.27940E-19         0.00000E+00
    0.27788E-07        -0.22352E-19         0.00000E+00
    0.27788E-07        -0.14901E-19         0.00000E+00
    0.27788E-07        -0.55879E-20         0.00000E+00
    0.27788E-07        -0.37253E-20         0.00000E+00
    0.27788E-07        -0.37253E-20         0.00000E+00
    0.27788E-07         0.55879E-20         0.00000E+00
    0.27788E-07         0.37253E-20         0.00000E+00
    0.27788E-07        -0.37253E-20         0.00000E+00
    0.27788E-07        -0.14901E-19         0.00000E+00
    0.27788E-07        -0.13039E-19         0.00000E+00
    0.27788E-07        -0.93132E-20         0.00000E+00
    0.27788E-07        -0.16764E-19         0.00000E+00
    0.27788E-07        -0.20489E-19         0.00000E+00
    0.27788E-07        -0.27940E-19         0.00000E+00
    0.27788E-07        -0.31665E-19         0.00000E+00
    0.27788E-07        -0.37528E-19         0.00000E+00
    0.27788E-07        -0.24214E-19         0.00000E+00
    0.27788E-07        -0.53130E-20         0.00000E+00
    0.27788E-07        -0.55879E-20         0.00000E+00
    0.27788E-07        -0.74506E-20         0.00000E+00
    0.27788E-07         0.37253E-20         0.00000E+00
    0.27788E-07         0.13039E-19         0.00000E+00
    0.27788E-07         0.12764E-19         0.00000E+00
    0.27788E-07         0.83819E-20         0.00000E+00
    0.27788E-07         0.27494E-21         0.00000E+00
    0.27788E-07         0.00000E+00         0.00000E+00
    0.27788E-07         0.37253E-20         0.00000E+00
    0.25909E-07         0.20573E-20         0.00000E+00
    0.25909E-07         0.93132E-20         0.00000E+00
    0.25909E-07         0.21323E-19         0.00000E+00
    0.25909E-07         0.21518E-19         0.00000E+00
    0.25909E-07         0.15832E-19         0.00000E+00
    0.25909E-07         0.22254E-19         0.00000E+00
    0.25909E-07         0.21518E-19         0.00000E+00
    0.25909E-07         0.17792E-19         0.00000E+00
    0.25909E-07         0.64219E-20         0.00000E+00
    0.25909E-07         0.18626E-20         0.00000E+00
    0.25909E-07        -0.27130E-33         0.00000E+00
    0.25909E-07         0.74506E-20         0.00000E+00
    0.25909E-07         0.18626E-19         0.00000E+00
    0.25909E-07         0.27940E-19         0.00000E+00
    0.25909E-07         0.17792E-19         0.00000E+00
    0.25909E-07         0.64219E-20         0.00000E+00
    0.25909E-07         0.17598E-19         0.00000E+00
    0.25909E-07         0.24214E-19         0.00000E+00
    0.25909E-07         0.20489E-19         0.00000E+00
    0.25909E-07         0.66166E-20         0.00000E+00
    0.25909E-07         0.14067E-19         0.00000E+00
    0.25909E-07         0.22352E-19         0.00000E+00
    0.25909E-07         0.16764E-19         0.00000E+00
    0.25909E-07        -0.18626E-20         0.00000E+00
    0.25909E-07        -0.18626E-19         0.00000E+00
    0.25909E-07        -0.16764E-19         0.00000E+00
    0.25909E-07        -0.16764E-19         0.00000E+00
    0.25909E-07        -0.18626E-19         0.00000E+00
    0.25909E-07        -0.10342E-19         0.00000E+00
    0.25909E-07        -0.11176E-19         0.00000E+00
    0.25909E-07        -0.25048E-19         0.00000E+00
    0.25909E-07        -0.29802E-19         0.00000E+00
    0.25909E-07        -0.14901E-19         0.00000E+00
    0.25909E-07         0.74506E-20         0.00000E+00
    0.25909E-07        -0.18626E-20         0.00000E+00
    0.25909E-07        -0.18724E-19         0.00000E+00
    0.25909E-07        -0.13970E-19         0.00000E+00
    0.25909E-07         0.10287E-20         0.00000E+00
    0.25909E-07         0.12010E-19         0.00000E+00
    0.25909E-07         0.10147E-19         0.00000E+00
    0.25909E-07         0.55879E-20         0.00000E+00
    0.25909E-07         0.47539E-20         0.00000E+00
    0.25909E-07        -0.37253E-20         0.00000E+00
    0.25909E-07        -0.84792E-20         0.00000E+00
    0.25909E-07        -0.17598E-19         0.00000E+00
    0.25909E-07        -0.12010E-19         0.00000E+00
    0.25909E-07        -0.28913E-20         0.00000E+00
    0.25909E-07         0.93132E-21         0.00000E+00
    0.25909E-07        -0.36280E-20         0.00000E+00
    0.25909E-07        -0.55879E-20         0.00000E+00
    0.25909E-07        -0.37253E-20         0.00000E+00
    0.24136E-07         0.14901E-19         0.00000E+00
    0.24136E-07         0.64512E-20         0.00000E+00
    0.24136E-07         0.37253E-20         0.00000E+00
    0.24136E-07         0.12175E-19         0.00000E+00
    0.24136E-07         0.00000E+00         0.00000E+00
    0.24136E-07        -0.28620E-20         0.00000E+00
    0.24136E-07         0.15764E-19         0.00000E+00
    0.24136E-07         0.16764E-19         0.00000E+00
    0.24136E-07         0.17763E-19         0.00000E+00
    0.24136E-07         0.15901E-19         0.00000E+00
    0.24136E-07         0.92452E-20         0.00000E+00
    0.24136E-07         0.17695E-19         0.00000E+00
    0.24136E-07         0.10313E-19         0.00000E+00
    0.24136E-07        -0.12175E-19         0.00000E+00
    0.24136E-07         0.74506E-20         0.00000E+00
    0.24136E-07         0.18626E-19         0.00000E+00
    0.24136E-07         0.15764E-19         0.00000E+00
    0.24136E-07         0.26145E-19         0.00000E+00
    0.24136E-07         0.26145E-19         0.00000E+00
    0.24136E-07         0.18626E-19         0.00000E+00
    0.24136E-07         0.45886E-20         0.00000E+00
    0.24136E-07        -0.28620E-20         0.00000E+00
    0.24136E-07         0.18626E-20         0.00000E+00
    0.24136E-07         0.00000E+00         0.00000E+00
    0.24136E-07        -0.10176E-19         0.00000E+00
    0.24136E-07        -0.74506E-20         0.00000E+00
    0.24136E-07        -0.99938E-21         0.00000E+00
    0.24136E-07         0.37253E-20         0.00000E+00
    0.24136E-07        -0.74506E-20         0.00000E+00
    0.24136E-07        -0.13902E-19         0.00000E+00
    0.24136E-07         0.13235E-33         0.00000E+00
    0.24136E-07         0.45886E-20         0.00000E+00
    0.24136E-07        -0.13902E-19         0.00000E+00
    0.24136E-07        -0.25078E-19         0.00000E+00
    0.24136E-07        -0.93132E-20         0.00000E+00
    0.24136E-07         0.18626E-19         0.00000E+00
    0.24136E-07         0.20489E-19         0.00000E+00
    0.24136E-07         0.11108E-19         0.00000E+00
    0.24136E-07         0.16696E-19         0.00000E+00
    0.24136E-07         0.17763E-19         0.00000E+00
    0.24136E-07         0.17763E-19         0.00000E+00
    0.24136E-07         0.13039E-19         0.00000E+00
    0.24136E-07         0.45886E-20         0.00000E+00
    0.24136E-07        -0.47247E-20         0.00000E+00
    0.24136E-07        -0.37253E-20         0.00000E+00
    0.24136E-07        -0.16764E-19         0.00000E+00
    0.24136E-07        -0.35322E-19         0.00000E+00
    0.24136E-07        -0.31597E-19         0.00000E+00
    0.24136E-07        -0.93132E-20         0.00000E+00
    0.24136E-07         0.00000E+00         0.00000E+00
    0.24136E-07        -0.37253E-20         0.00000E+00
    0.22470E-07        -0.74506E-20         0.00000E+00
    0.22470E-07         0.00000E+00         0.00000E+00
    0.22470E-07         0.00000E+00         0.00000E+00
    0.22470E-07        -0.37253E-20         0.00000E+00
    0.22470E-07         0.14901E-19         0.00000E+00
    0.22470E-07         0.15611E-19         0.00000E+00
    0.22470E-07         0.48786E-20         0.00000E+00
    0.22470E-07         0.48786E-20         0.00000E+00
    0.22470E-07         0.00000E+00         0.00000E+00
    0.22470E-07        -0.27940E-20         0.00000E+00
    0.22470E-07        -0.39473E-20         0.00000E+00
    0.22470E-07        -0.18626E-19         0.00000E+00
    0.22470E-07         0.00000E+00         0.00000E+00
    0.22470E-07         0.40978E-19         0.00000E+00
    0.22470E-07         0.37253E-19         0.00000E+00
    0.22470E-07         0.31443E-19         0.00000E+00
    0.22470E-07         0.33306E-19         0.00000E+00
    0.22470E-07         0.25368E-19         0.00000E+00
    0.22470E-07         0.13482E-19         0.00000E+00
    0.22470E-07        -0.74506E-20         0.00000E+00
    0.22470E-07        -0.86039E-20         0.00000E+00
    0.22470E-07        -0.17917E-19         0.00000E+00
    0.22470E-07        -0.21642E-19         0.00000E+00
    0.22470E-07        -0.81599E-20         0.00000E+00
    0.22470E-07         0.12329E-19         0.00000E+00
    0.22470E-07         0.19336E-19         0.00000E+00
    0.22470E-07         0.13748E-19         0.00000E+00
    0.22470E-07         0.30159E-20         0.00000E+00
    0.22470E-07        -0.81599E-20         0.00000E+00
    0.22470E-07        -0.26077E-19         0.00000E+00
    0.22470E-07        -0.14901E-19         0.00000E+00
    0.22470E-07         0.10023E-19         0.00000E+00
    0.22470E-07         0.93132E-20         0.00000E+00
    0.22470E-07         0.48786E-20         0.00000E+00
    0.22470E-07        -0.18626E-20         0.00000E+00
    0.22470E-07        -0.93132E-20         0.00000E+00
    0.22470E-07        -0.13039E-19         0.00000E+00
    0.22470E-07        -0.93132E-20         0.00000E+00
    0.22470E-07         0.74506E-20         0.00000E+00
    0.22470E-07         0.74506E-20         0.00000E+00
    0.22470E-07         0.55879E-20         0.00000E+00
    0.22470E-07         0.55879E-20         0.00000E+00
    0.22470E-07         0.74506E-20         0.00000E+00
    0.22470E-07         0.22130E-19         0.00000E+00
    0.22470E-07         0.16542E-19         0.00000E+00
    0.22470E-07         0.25368E-19         0.00000E+00
    0.22470E-07         0.30734E-19         0.00000E+00
    0.22470E-07         0.83819E-20         0.00000E+00
    0.22470E-07        -0.62973E-20         0.00000E+00
    0.22470E-07        -0.93132E-20         0.00000E+00
    0.22470E-07        -0.37253E-20         0.00000E+00
    0.20910E-07        -0.74506E-20         0.00000E+00
    0.20910E-07         0.00000E+00         0.00000E+00
    0.20910E-07         0.14901E-19         0.00000E+00
    0.20910E-07         0.98793E-20         0.00000E+00
    0.20910E-07         0.18626E-20         0.00000E+00
    0.20910E-07         0.17494E-19         0.00000E+00
    0.20910E-07         0.11176E-19         0.00000E+00
    0.20910E-07         0.61541E-20         0.00000E+00
    0.20910E-07         0.13039E-19         0.00000E+00
    0.20910E-07         0.22352E-19         0.00000E+00
    0.20910E-07         0.13039E-19         0.00000E+00
    0.20910E-07         0.12673E-19         0.00000E+00
    0.20910E-07         0.14901E-19         0.00000E+00
    0.20910E-07         0.93132E-20         0.00000E+00
    0.20910E-07         0.83819E-20         0.00000E+00
    0.20910E-07         0.31592E-20         0.00000E+00
    0.20910E-07        -0.55879E-20         0.00000E+00
    0.20910E-07        -0.22352E-19         0.00000E+00
    0.20910E-07        -0.22352E-19         0.00000E+00
    0.20910E-07        -0.18626E-20         0.00000E+00
    0.20910E-07         0.00000E+00         0.00000E+00
    0.20910E-07         0.93132E-20         0.00000E+00
    0.20910E-07         0.26077E-19         0.00000E+00
    0.20910E-07         0.10811E-19         0.00000E+00
    0.20910E-07        -0.14974E-20         0.00000E+00
    0.20910E-07         0.18626E-20         0.00000E+00
    0.20910E-07        -0.36521E-21         0.00000E+00
    0.20910E-07        -0.52227E-20         0.00000E+00
    0.20910E-07         0.55879E-20         0.00000E+00
    0.20910E-07         0.22352E-19         0.00000E+00
    0.20910E-07         0.26077E-19         0.00000E+00
    0.20910E-07         0.14901E-19         0.00000E+00
    0.20910E-07         0.55879E-20         0.00000E+00
    0.20910E-07         0.00000E+00         0.00000E+00
    0.20910E-07        -0.55879E-20         0.00000E+00
    0.20910E-07        -0.13039E-19         0.00000E+00
    0.20910E-07        -0.11176E-19         0.00000E+00
    0.20910E-07        -0.18626E-20         0.00000E+00
    0.20910E-07        -0.55879E-20         0.00000E+00
    0.20910E-07         0.37253E-20         0.00000E+00
    0.20910E-07         0.96784E-20         0.00000E+00
    0.20910E-07         0.18626E-20         0.00000E+00
    0.20910E-07         0.14536E-19         0.00000E+00
    0.20910E-07         0.17129E-19         0.00000E+00
    0.20910E-07         0.10811E-19         0.00000E+00
    0.20910E-07         0.29949E-20         0.00000E+00
    0.20910E-07        -0.33601E-20         0.00000E+00
    0.20910E-07        -0.56611E-21         0.00000E+00
    0.20910E-07        -0.18626E-20         0.00000E+00
    0.20910E-07        -0.52227E-20         0.00000E+00
    0.20910E-07        -0.10445E-19         0.00000E+00
    0.19458E-07        -0.45910E-20         0.00000E+00
    0.19458E-07         0.74506E-20         0.00000E+00
    0.19458E-07         0.22955E-20         0.00000E+00
    0.19458E-07        -0.93132E-20         0.00000E+00
    0.19458E-07        -0.55879E-20         0.00000E+00
    0.19458E-07        -0.37253E-20         0.00000E+00
    0.19458E-07         0.10743E-19         0.00000E+00
    0.19458E-07         0.20056E-19         0.00000E+00
    0.19458E-07         0.97461E-20         0.00000E+00
    0.19458E-07         0.78834E-20         0.00000E+00
    0.19458E-07         0.14468E-19         0.00000E+00
    0.19458E-07         0.18626E-19         0.00000E+00
    0.19458E-07         0.20922E-19         0.00000E+00
    0.19458E-07         0.22785E-19         0.00000E+00
    0.19458E-07         0.14901E-19         0.00000E+00
    0.19458E-07        -0.60208E-20         0.00000E+00
    0.19458E-07        -0.74506E-20         0.00000E+00
    0.19458E-07         0.14298E-20         0.00000E+00
    0.19458E-07         0.32925E-20         0.00000E+00
    0.19458E-07         0.22955E-20         0.00000E+00
    0.19458E-07         0.97461E-20         0.00000E+00
    0.19458E-07         0.93132E-20         0.00000E+00
    0.19458E-07         0.37253E-20         0.00000E+00
    0.19458E-07         0.78834E-20         0.00000E+00
    0.19458E-07         0.24713E-19         0.00000E+00
    0.19458E-07         0.19558E-19         0.00000E+00
    0.19458E-07         0.20922E-19         0.00000E+00
    0.19458E-07         0.25644E-19         0.00000E+00
    0.19458E-07         0.93132E-20         0.00000E+00
    0.19458E-07        -0.13039E-19         0.00000E+00
    0.19458E-07        -0.14901E-19         0.00000E+00
    0.19458E-07        -0.12606E-19         0.00000E+00
    0.19458E-07        -0.13970E-19         0.00000E+00
    0.19458E-07        -0.14403E-19         0.00000E+00
    0.19458E-07        -0.11176E-19         0.00000E+00
    0.19458E-07        -0.97461E-20         0.00000E+00
    0.19458E-07        -0.11176E-19         0.00000E+00
    0.19458E-07        -0.16331E-19         0.00000E+00
    0.19458E-07        -0.19059E-19         0.00000E+00
    0.19458E-07         0.13241E-33         0.00000E+00
    0.19458E-07         0.11609E-19         0.00000E+00
    0.19458E-07         0.10743E-19         0.00000E+00
    0.19458E-07         0.51551E-20         0.00000E+00
    0.19458E-07         0.10677E-19         0.00000E+00
    0.19458E-07         0.23716E-19         0.00000E+00
    0.19458E-07         0.27940E-19         0.00000E+00
    0.19458E-07         0.20988E-19         0.00000E+00
    0.19458E-07         0.93132E-21         0.00000E+00
    0.19458E-07        -0.65193E-20         0.00000E+00
    0.19458E-07        -0.69521E-20         0.00000E+00
    0.19458E-07        -0.37253E-20         0.00000E+00
    0.18110E-07         0.00000E+00         0.00000E+00
    0.18110E-07        -0.40340E-20         0.00000E+00
    0.18110E-07        -0.55879E-20         0.00000E+00
    0.18110E-07        -0.52792E-20         0.00000E+00
    0.18110E-07        -0.16764E-19         0.00000E+00
    0.18110E-07        -0.26077E-19         0.00000E+00
    0.18110E-07        -0.22352E-19         0.00000E+00
    0.18110E-07        -0.37253E-20         0.00000E+00
    0.18110E-07         0.90045E-20         0.00000E+00
    0.18110E-07         0.74506E-20         0.00000E+00
    0.18110E-07        -0.71418E-20         0.00000E+00
    0.18110E-07        -0.37253E-20         0.00000E+00
    0.18110E-07        -0.40340E-20         0.00000E+00
    0.18110E-07         0.18626E-20         0.00000E+00
    0.18110E-07         0.18935E-19         0.00000E+00
    0.18110E-07         0.22043E-19         0.00000E+00
    0.18110E-07         0.37253E-19         0.00000E+00
    0.18110E-07         0.30734E-19         0.00000E+00
    0.18110E-07         0.21112E-19         0.00000E+00
    0.18110E-07         0.58967E-20         0.00000E+00
    0.18110E-07         0.37253E-20         0.00000E+00
    0.18110E-07         0.55879E-20         0.00000E+00
    0.18110E-07         0.18626E-20         0.00000E+00
    0.18110E-07         0.52792E-20         0.00000E+00
    0.18110E-07         0.11176E-19         0.00000E+00
    0.18110E-07         0.16764E-19         0.00000E+00
    0.18110E-07         0.77593E-20         0.00000E+00
    0.18110E-07        -0.37253E-20         0.00000E+00
    0.18110E-07        -0.58967E-20         0.00000E+00
    0.18110E-07         0.21714E-20         0.00000E+00
    0.18110E-07         0.37253E-20         0.00000E+00
    0.18110E-07        -0.83819E-20         0.00000E+00
    0.18110E-07        -0.11798E-19         0.00000E+00
    0.18110E-07         0.15539E-20         0.00000E+00
    0.18110E-07         0.27940E-20         0.00000E+00
    0.18110E-07        -0.12107E-19         0.00000E+00
    0.18110E-07        -0.96220E-20         0.00000E+00
    0.18110E-07        -0.18626E-20         0.00000E+00
    0.18110E-07        -0.52792E-20         0.00000E+00
    0.18110E-07        -0.90045E-20         0.00000E+00
    0.18110E-07         0.43479E-20         0.00000E+00
    0.18110E-07         0.83819E-20         0.00000E+00
    0.18110E-07         0.58967E-20         0.00000E+00
    0.18110E-07        -0.55879E-20         0.00000E+00
    0.18110E-07        -0.55879E-20         0.00000E+00
    0.18110E-07         0.00000E+00         0.00000E+00
    0.18110E-07         0.55879E-20         0.00000E+00
    0.18110E-07         0.10867E-19         0.00000E+00
    0.18110E-07         0.93132E-20         0.00000E+00
    0.18110E-07         0.74506E-20         0.00000E+00
    0.18110E-07         0.68331E-20         0.00000E+00
    0.16867E-07         0.00000E+00         0.00000E+00
    0.16867E-07        -0.93132E-20         0.00000E+00
    0.16867E-07        -0.16026E-19         0.00000E+00
    0.16867E-07        -0.10438E-19         0.00000E+00
    0.16867E-07        -0.35322E-20         0.00000E+00
    0.16867E-07         0.57811E-20         0.00000E+00
    0.16867E-07         0.63261E-20         0.00000E+00
    0.16867E-07        -0.11245E-20         0.00000E+00
    0.16867E-07        -0.11176E-19         0.00000E+00
    0.16867E-07        -0.11914E-19         0.00000E+00
    0.16867E-07         0.00000E+00         0.00000E+00
    0.16867E-07         0.73819E-21         0.00000E+00
    0.16867E-07        -0.37253E-20         0.00000E+00
    0.16867E-07         0.11245E-20         0.00000E+00
    0.16867E-07        -0.27940E-20         0.00000E+00
    0.16867E-07        -0.27940E-20         0.00000E+00
    0.16867E-07         0.65193E-20         0.00000E+00
    0.16867E-07         0.22159E-19         0.00000E+00
    0.16867E-07         0.27940E-19         0.00000E+00
    0.16867E-07         0.27940E-19         0.00000E+00
    0.16867E-07         0.27940E-19         0.00000E+00
    0.16867E-07         0.18626E-20         0.00000E+00
    0.16867E-07        -0.93132E-20         0.00000E+00
    0.16867E-07        -0.53948E-20         0.00000E+00
    0.16867E-07        -0.37253E-20         0.00000E+00
    0.16867E-07        -0.19313E-21         0.00000E+00
    0.16867E-07         0.37253E-20         0.00000E+00
    0.16867E-07         0.74506E-20         0.00000E+00
    0.16867E-07        -0.74506E-20         0.00000E+00
    0.16867E-07        -0.24021E-19         0.00000E+00
    0.16867E-07        -0.14901E-19         0.00000E+00
    0.16867E-07        -0.11369E-19         0.00000E+00
    0.16867E-07        -0.74506E-20         0.00000E+00
    0.16867E-07        -0.44635E-20         0.00000E+00
    0.16867E-07        -0.18626E-20         0.00000E+00
    0.16867E-07         0.73819E-21         0.00000E+00
    0.16867E-07        -0.37253E-20         0.00000E+00
    0.16867E-07         0.55879E-20         0.00000E+00
    0.16867E-07        -0.55879E-20         0.00000E+00
    0.16867E-07        -0.15639E-19         0.00000E+00
    0.16867E-07        -0.73819E-21         0.00000E+00
    0.16867E-07        -0.11245E-20         0.00000E+00
    0.16867E-07        -0.18626E-20         0.00000E+00
    0.16867E-07         0.48497E-20         0.00000E+00
    0.16867E-07         0.44635E-20         0.00000E+00
    0.16867E-07         0.73819E-21         0.00000E+00
    0.16867E-07        -0.18626E-20         0.00000E+00
    0.16867E-07        -0.26008E-20         0.00000E+00
    0.16867E-07        -0.73819E-21         0.00000E+00
    0.16867E-07        -0.11245E-20         0.00000E+00
    0.16867E-07         0.14764E-20         0.00000E+00
    0.15727E-07         0.94837E-20         0.00000E+00
    0.15727E-07         0.14901E-19         0.00000E+00
    0.15727E-07         0.11176E-19         0.00000E+00
    0.15727E-07        -0.93132E-20         0.00000E+00
    0.15727E-07        -0.17695E-19         0.00000E+00
    0.15727E-07        -0.14901E-19         0.00000E+00
    0.15727E-07        -0.55879E-20         0.00000E+00
    0.15727E-07         0.38105E-20         0.00000E+00
    0.15727E-07        -0.18626E-20         0.00000E+00
    0.15727E-07        -0.75358E-20         0.00000E+00
    0.15727E-07        -0.85255E-22         0.00000E+00
    0.15727E-07         0.55879E-20         0.00000E+00
    0.15727E-07         0.37253E-20         0.00000E+00
    0.15727E-07         0.37253E-20         0.00000E+00
    0.15727E-07         0.00000E+00         0.00000E+00
    0.15727E-07        -0.37253E-20         0.00000E+00
    0.15727E-07         0.00000E+00         0.00000E+00
    0.15727E-07         0.93132E-20         0.00000E+00
    0.15727E-07         0.93132E-20         0.00000E+00
    0.15727E-07        -0.18626E-20         0.00000E+00
    0.15727E-07        -0.93132E-20         0.00000E+00
    0.15727E-07        -0.11176E-19         0.00000E+00
    0.15727E-07         0.00000E+00         0.00000E+00
    0.15727E-07         0.13039E-19         0.00000E+00
    0.15727E-07         0.74506E-20         0.00000E+00
    0.15727E-07        -0.84607E-21         0.00000E+00
    0.15727E-07        -0.37253E-20         0.00000E+00
    0.15727E-07        -0.12192E-19         0.00000E+00
    0.15727E-07        -0.93132E-20         0.00000E+00
    0.15727E-07        -0.13039E-19         0.00000E+00
    0.15727E-07        -0.24214E-19         0.00000E+00
    0.15727E-07        -0.82966E-20         0.00000E+00
    0.15727E-07        -0.18626E-20         0.00000E+00
    0.15727E-07         0.27087E-20         0.00000E+00
    0.15727E-07         0.37253E-20         0.00000E+00
    0.15727E-07         0.55879E-20         0.00000E+00
    0.15727E-07         0.74506E-20         0.00000E+00
    0.15727E-07        -0.18626E-20         0.00000E+00
    0.15727E-07        -0.55879E-20         0.00000E+00
    0.15727E-07        -0.84607E-21         0.00000E+00
    0.15727E-07        -0.18626E-20         0.00000E+00
    0.15727E-07         0.55879E-20         0.00000E+00
    0.15727E-07         0.22352E-19         0.00000E+00
    0.15727E-07         0.18626E-19         0.00000E+00
    0.15727E-07         0.74506E-20         0.00000E+00
    0.15727E-07         0.13885E-19         0.00000E+00
    0.15727E-07         0.20489E-19         0.00000E+00
    0.15727E-07         0.11176E-19         0.00000E+00
    0.15727E-07         0.55879E-20         0.00000E+00
    0.15727E-07         0.84607E-21         0.00000E+00
    0.15727E-07        -0.20332E-20         0.00000E+00
    0.14688E-07         0.00000E+00         0.00000E+00
    0.14688E-07        -0.65349E-20         0.00000E+00
    0.14688E-07        -0.74506E-20         0.00000E+00
    0.14688E-07         0.83975E-20         0.00000E+00
    0.14688E-07         0.92976E-20         0.00000E+00
    0.14688E-07         0.18626E-20         0.00000E+00
    0.14688E-07         0.74662E-20         0.00000E+00
    0.14688E-07        -0.18626E-20         0.00000E+00
    0.14688E-07        -0.74506E-20         0.00000E+00
    0.14688E-07        -0.37253E-20         0.00000E+00
    0.14688E-07        -0.93132E-20         0.00000E+00
    0.14688E-07        -0.74506E-20         0.00000E+00
    0.14688E-07         0.00000E+00         0.00000E+00
    0.14688E-07         0.00000E+00         0.00000E+00
    0.14688E-07        -0.37253E-20         0.00000E+00
    0.14688E-07         0.00000E+00         0.00000E+00
    0.14688E-07        -0.93132E-20         0.00000E+00
    0.14688E-07        -0.26077E-19         0.00000E+00
    0.14688E-07        -0.16764E-19         0.00000E+00
    0.14688E-07         0.37253E-20         0.00000E+00
    0.14688E-07         0.93132E-20         0.00000E+00
    0.14688E-07         0.13039E-19         0.00000E+00
    0.14688E-07         0.11176E-19         0.00000E+00
    0.14688E-07        -0.18782E-20         0.00000E+00
    0.14688E-07        -0.65193E-20         0.00000E+00
    0.14688E-07        -0.11176E-19         0.00000E+00
    0.14688E-07        -0.55879E-20         0.00000E+00
    0.14688E-07         0.83975E-20         0.00000E+00
    0.14688E-07        -0.74506E-20         0.00000E+00
    0.14688E-07        -0.14901E-19         0.00000E+00
    0.14688E-07        -0.74506E-20         0.00000E+00
    0.14688E-07        -0.11176E-19         0.00000E+00
    0.14688E-07        -0.37253E-20         0.00000E+00
    0.14688E-07         0.00000E+00         0.00000E+00
    0.14688E-07        -0.37253E-20         0.00000E+00
    0.14688E-07         0.37253E-20         0.00000E+00
    0.14688E-07         0.91573E-21         0.00000E+00
    0.14688E-07        -0.94692E-21         0.00000E+00
    0.14688E-07         0.46722E-20         0.00000E+00
    0.14688E-07         0.19573E-19         0.00000E+00
    0.14688E-07         0.22352E-19         0.00000E+00
    0.14688E-07         0.37253E-20         0.00000E+00
    0.14688E-07        -0.11176E-19         0.00000E+00
    0.14688E-07        -0.37253E-20         0.00000E+00
    0.14688E-07         0.55879E-20         0.00000E+00
    0.14688E-07         0.55879E-20         0.00000E+00
    0.14688E-07         0.11176E-19         0.00000E+00
    0.14688E-07         0.13954E-19         0.00000E+00
    0.14688E-07         0.46410E-20         0.00000E+00
    0.14688E-07         0.37565E-20         0.00000E+00
    0.14688E-07         0.11238E-19         0.00000E+00
    0.13748E-07        -0.37253E-20         0.00000E+00
    0.13748E-07        -0.74506E-20         0.00000E+00
    0.13748E-07        -0.11176E-19         0.00000E+00
    0.13748E-07        -0.18626E-19         0.00000E+00
    0.13748E-07        -0.13149E-19         0.00000E+00
    0.13748E-07         0.93132E-21         0.00000E+00
    0.13748E-07         0.47667E-20         0.00000E+00
    0.13748E-07         0.14901E-19         0.00000E+00
    0.13748E-07         0.93132E-20         0.00000E+00
    0.13748E-07         0.37253E-20         0.00000E+00
    0.13748E-07         0.64091E-20         0.00000E+00
    0.13748E-07        -0.55879E-20         0.00000E+00
    0.13748E-07        -0.17585E-19         0.00000E+00
    0.13748E-07        -0.15943E-19         0.00000E+00
    0.13748E-07        -0.74506E-20         0.00000E+00
    0.13748E-07        -0.13750E-19         0.00000E+00
    0.13748E-07        -0.17695E-19         0.00000E+00
    0.13748E-07        -0.47667E-20         0.00000E+00
    0.13748E-07        -0.16764E-19         0.00000E+00
    0.13748E-07        -0.39116E-19         0.00000E+00
    0.13748E-07        -0.27940E-19         0.00000E+00
    0.13748E-07        -0.18626E-19         0.00000E+00
    0.13748E-07        -0.93132E-20         0.00000E+00
    0.13748E-07         0.37253E-20         0.00000E+00
    0.13748E-07         0.11176E-19         0.00000E+00
    0.13748E-07         0.13039E-19         0.00000E+00
    0.13748E-07         0.55879E-20         0.00000E+00
    0.13748E-07        -0.18626E-20         0.00000E+00
    0.13748E-07        -0.93132E-20         0.00000E+00
    0.13748E-07        -0.55879E-20         0.00000E+00
    0.13748E-07        -0.18626E-20         0.00000E+00
    0.13748E-07        -0.93132E-20         0.00000E+00
    0.13748E-07        -0.14901E-19         0.00000E+00
    0.13748E-07        -0.74506E-20         0.00000E+00
    0.13748E-07         0.55879E-20         0.00000E+00
    0.13748E-07         0.11012E-21         0.00000E+00
    0.13748E-07         0.46566E-20         0.00000E+00
    0.13748E-07         0.10134E-19         0.00000E+00
    0.13748E-07         0.13039E-19         0.00000E+00
    0.13748E-07         0.14901E-19         0.00000E+00
    0.13748E-07         0.11066E-19         0.00000E+00
    0.13748E-07         0.93132E-21         0.00000E+00
    0.13748E-07        -0.26838E-20         0.00000E+00
    0.13748E-07         0.18626E-20         0.00000E+00
    0.13748E-07         0.37253E-20         0.00000E+00
    0.13748E-07         0.37253E-20         0.00000E+00
    0.13748E-07        -0.47667E-20         0.00000E+00
    0.13748E-07        -0.55879E-20         0.00000E+00
    0.13748E-07        -0.54778E-20         0.00000E+00
    0.13748E-07        -0.82120E-21         0.00000E+00
    0.13748E-07         0.58082E-20         0.00000E+00
    0.12906E-07        -0.11176E-19         0.00000E+00
    0.12906E-07        -0.11176E-19         0.00000E+00
    0.12906E-07        -0.11176E-19         0.00000E+00
    0.12906E-07        -0.18626E-20         0.00000E+00
    0.12906E-07         0.37253E-20         0.00000E+00
    0.12906E-07        -0.18626E-20         0.00000E+00
    0.12906E-07        -0.18626E-20         0.00000E+00
    0.12906E-07         0.00000E+00         0.00000E+00
    0.12906E-07         0.91142E-20         0.00000E+00
    0.12906E-07         0.74506E-20         0.00000E+00
    0.12906E-07        -0.16636E-20         0.00000E+00
    0.12906E-07        -0.55879E-20         0.00000E+00
    0.12906E-07         0.20616E-20         0.00000E+00
    0.12906E-07         0.74506E-20         0.00000E+00
    0.12906E-07         0.35263E-20         0.00000E+00
    0.12906E-07         0.37253E-20         0.00000E+00
    0.12906E-07        -0.74506E-20         0.00000E+00
    0.12906E-07        -0.16565E-19         0.00000E+00
    0.12906E-07        -0.16764E-19         0.00000E+00
    0.12906E-07        -0.95122E-20         0.00000E+00
    0.12906E-07        -0.74506E-20         0.00000E+00
    0.12906E-07        -0.14901E-19         0.00000E+00
    0.12906E-07        -0.93132E-20         0.00000E+00
    0.12906E-07         0.37253E-20         0.00000E+00
    0.12906E-07         0.37253E-20         0.00000E+00
    0.12906E-07        -0.37253E-20         0.00000E+00
    0.12906E-07        -0.14901E-19         0.00000E+00
    0.12906E-07        -0.26077E-19         0.00000E+00
    0.12906E-07        -0.11176E-19         0.00000E+00
    0.12906E-07         0.00000E+00         0.00000E+00
    0.12906E-07        -0.11176E-19         0.00000E+00
    0.12906E-07        -0.74506E-20         0.00000E+00
    0.12906E-07        -0.18626E-20         0.00000E+00
    0.12906E-07         0.39243E-20         0.00000E+00
    0.12906E-07        -0.55879E-20         0.00000E+00
    0.12906E-07        -0.11176E-19         0.00000E+00
    0.12906E-07        -0.10245E-19         0.00000E+00
    0.12906E-07        -0.21619E-19         0.00000E+00
    0.12906E-07        -0.13039E-19         0.00000E+00
    0.12906E-07        -0.13039E-19         0.00000E+00
    0.12906E-07        -0.14901E-19         0.00000E+00
    0.12906E-07        -0.55879E-20         0.00000E+00
    0.12906E-07         0.00000E+00         0.00000E+00
    0.12906E-07        -0.93132E-20         0.00000E+00
    0.12906E-07        -0.13039E-19         0.00000E+00
    0.12906E-07        -0.18626E-20         0.00000E+00
    0.12906E-07        -0.18626E-20         0.00000E+00
    0.12906E-07        -0.93132E-20         0.00000E+00
    0.12906E-07        -0.16636E-20         0.00000E+00
    0.12906E-07         0.39243E-20         0.00000E+00
    0.12906E-07         0.00000E+00         0.00000E+00
    0.12159E-07         0.37253E-20         0.00000E+00
    0.12159E-07        -0.93132E-20         0.00000E+00
    0.12159E-07        -0.18344E-19         0.00000E+00
    0.12159E-07        -0.71677E-20         0.00000E+00
    0.12159E-07         0.43737E-20         0.00000E+00
    0.12159E-07         0.17412E-19         0.00000E+00
    0.12159E-07         0.16764E-19         0.00000E+00
    0.12159E-07         0.11176E-19         0.00000E+00
    0.12159E-07         0.13039E-19         0.00000E+00
    0.12159E-07         0.74506E-20         0.00000E+00
    0.12159E-07         0.11459E-19         0.00000E+00
    0.12159E-07         0.77335E-20         0.00000E+00
    0.12159E-07        -0.37253E-20         0.00000E+00
    0.12159E-07        -0.77335E-20         0.00000E+00
    0.12159E-07        -0.11742E-19         0.00000E+00
    0.12159E-07        -0.22352E-19         0.00000E+00
    0.12159E-07        -0.23931E-19         0.00000E+00
    0.12159E-07        -0.23000E-19         0.00000E+00
    0.12159E-07        -0.21138E-19         0.00000E+00
    0.12159E-07        -0.18626E-19         0.00000E+00
    0.12159E-07        -0.13321E-19         0.00000E+00
    0.12159E-07        -0.28291E-21         0.00000E+00
    0.12159E-07        -0.34424E-20         0.00000E+00
    0.12159E-07        -0.74506E-20         0.00000E+00
    0.12159E-07        -0.83819E-20         0.00000E+00
    0.12159E-07        -0.77335E-20         0.00000E+00
    0.12159E-07        -0.37253E-20         0.00000E+00
    0.12159E-07         0.14971E-20         0.00000E+00
    0.12159E-07        -0.18909E-19         0.00000E+00
    0.12159E-07        -0.33811E-19         0.00000E+00
    0.12159E-07        -0.27657E-19         0.00000E+00
    0.12159E-07        -0.22352E-19         0.00000E+00
    0.12159E-07        -0.22918E-19         0.00000E+00
    0.12159E-07        -0.22635E-19         0.00000E+00
    0.12159E-07        -0.19923E-19         0.00000E+00
    0.12159E-07        -0.14335E-19         0.00000E+00
    0.12159E-07        -0.11176E-19         0.00000E+00
    0.12159E-07        -0.18626E-20         0.00000E+00
    0.12159E-07        -0.21456E-20         0.00000E+00
    0.12159E-07        -0.40082E-20         0.00000E+00
    0.12159E-07        -0.37253E-20         0.00000E+00
    0.12159E-07        -0.10893E-19         0.00000E+00
    0.12159E-07        -0.93132E-20         0.00000E+00
    0.12159E-07        -0.21456E-20         0.00000E+00
    0.12159E-07        -0.15797E-20         0.00000E+00
    0.12159E-07         0.28291E-21         0.00000E+00
    0.12159E-07        -0.28291E-21         0.00000E+00
    0.12159E-07         0.71677E-20         0.00000E+00
    0.12159E-07         0.16764E-19         0.00000E+00
    0.12159E-07         0.40082E-20         0.00000E+00
    0.12159E-07        -0.68848E-20         0.00000E+00
    0.11506E-07         0.37253E-20         0.00000E+00
    0.11506E-07         0.14332E-19         0.00000E+00
    0.11506E-07         0.21420E-19         0.00000E+00
    0.11506E-07         0.13970E-19         0.00000E+00
    0.11506E-07         0.37253E-20         0.00000E+00
    0.11506E-07         0.18626E-20         0.00000E+00
    0.11506E-07         0.74506E-20         0.00000E+00
    0.11506E-07         0.00000E+00         0.00000E+00
    0.11506E-07         0.65193E-20         0.00000E+00
    0.11506E-07         0.14539E-19         0.00000E+00
    0.11506E-07         0.11176E-19         0.00000E+00
    0.11506E-07         0.11176E-19         0.00000E+00
    0.11506E-07        -0.18626E-20         0.00000E+00
    0.11506E-07        -0.18626E-19         0.00000E+00
    0.11506E-07        -0.18264E-19         0.00000E+00
    0.11506E-07        -0.70881E-20         0.00000E+00
    0.11506E-07        -0.13039E-19         0.00000E+00
    0.11506E-07        -0.24214E-19         0.00000E+00
    0.11506E-07        -0.26077E-19         0.00000E+00
    0.11506E-07        -0.18626E-19         0.00000E+00
    0.11506E-07        -0.11176E-19         0.00000E+00
    0.11506E-07        -0.16764E-19         0.00000E+00
    0.11506E-07        -0.20489E-19         0.00000E+00
    0.11506E-07        -0.29234E-19         0.00000E+00
    0.11506E-07        -0.37253E-19         0.00000E+00
    0.11506E-07        -0.15470E-19         0.00000E+00
    0.11506E-07        -0.14901E-19         0.00000E+00
    0.11506E-07        -0.20489E-19         0.00000E+00
    0.11506E-07        -0.93132E-20         0.00000E+00
    0.11506E-07        -0.37253E-20         0.00000E+00
    0.11506E-07        -0.15264E-19         0.00000E+00
    0.11506E-07        -0.22714E-19         0.00000E+00
    0.11506E-07        -0.21058E-19         0.00000E+00
    0.11506E-07        -0.15470E-19         0.00000E+00
    0.11506E-07        -0.55879E-20         0.00000E+00
    0.11506E-07        -0.68818E-20         0.00000E+00
    0.11506E-07        -0.87444E-20         0.00000E+00
    0.11506E-07        -0.14901E-19         0.00000E+00
    0.11506E-07         0.36251E-21         0.00000E+00
    0.11506E-07         0.14901E-19         0.00000E+00
    0.11506E-07         0.93132E-20         0.00000E+00
    0.11506E-07         0.37253E-20         0.00000E+00
    0.11506E-07        -0.93132E-20         0.00000E+00
    0.11506E-07        -0.93132E-20         0.00000E+00
    0.11506E-07        -0.55879E-20         0.00000E+00
    0.11506E-07        -0.55879E-20         0.00000E+00
    0.11506E-07         0.18626E-20         0.00000E+00
    0.11506E-07         0.59504E-20         0.00000E+00
    0.11506E-07         0.89507E-20         0.00000E+00
    0.11506E-07         0.14901E-19         0.00000E+00
    0.11506E-07         0.81756E-20         0.00000E+00
    0.10945E-07        -0.18626E-19         0.00000E+00
    0.10945E-07        -0.21859E-19         0.00000E+00
    0.10945E-07        -0.18134E-19         0.00000E+00
    0.10945E-07        -0.98061E-20         0.00000E+00
    0.10945E-07         0.37253E-20         0.00000E+00
    0.10945E-07         0.11176E-19         0.00000E+00
    0.10945E-07         0.23722E-19         0.00000E+00
    0.10945E-07         0.37253E-19         0.00000E+00
    0.10945E-07         0.24214E-19         0.00000E+00
    0.10945E-07         0.37253E-20         0.00000E+00
    0.10945E-07        -0.14901E-19         0.00000E+00
    0.10945E-07        -0.18626E-19         0.00000E+00
    0.10945E-07        -0.18626E-20         0.00000E+00
    0.10945E-07        -0.43845E-21         0.00000E+00
    0.10945E-07        -0.10245E-19         0.00000E+00
    0.10945E-07        -0.13531E-19         0.00000E+00
    0.10945E-07        -0.69577E-20         0.00000E+00
    0.10945E-07        -0.50951E-20         0.00000E+00
    0.10945E-07        -0.14242E-20         0.00000E+00
    0.10945E-07        -0.27940E-20         0.00000E+00
    0.10945E-07        -0.14901E-19         0.00000E+00
    0.10945E-07        -0.17257E-19         0.00000E+00
    0.10945E-07        -0.26077E-19         0.00000E+00
    0.10945E-07        -0.25584E-19         0.00000E+00
    0.10945E-07        -0.33528E-19         0.00000E+00
    0.10945E-07        -0.47059E-19         0.00000E+00
    0.10945E-07        -0.35390E-19         0.00000E+00
    0.10945E-07        -0.13039E-19         0.00000E+00
    0.10945E-07        -0.93132E-20         0.00000E+00
    0.10945E-07        -0.24214E-19         0.00000E+00
    0.10945E-07        -0.16764E-19         0.00000E+00
    0.10945E-07        -0.18082E-20         0.00000E+00
    0.10945E-07         0.37253E-20         0.00000E+00
    0.10945E-07         0.55335E-20         0.00000E+00
    0.10945E-07        -0.18626E-20         0.00000E+00
    0.10945E-07        -0.74506E-20         0.00000E+00
    0.10945E-07        -0.93132E-20         0.00000E+00
    0.10945E-07        -0.74506E-20         0.00000E+00
    0.10945E-07        -0.16764E-19         0.00000E+00
    0.10945E-07        -0.29309E-19         0.00000E+00
    0.10945E-07        -0.21859E-19         0.00000E+00
    0.10945E-07        -0.32868E-20         0.00000E+00
    0.10945E-07         0.46566E-20         0.00000E+00
    0.10945E-07         0.42182E-20         0.00000E+00
    0.10945E-07         0.43845E-21         0.00000E+00
    0.10945E-07        -0.14242E-20         0.00000E+00
    0.10945E-07        -0.18626E-20         0.00000E+00
    0.10945E-07        -0.37253E-20         0.00000E+00
    0.10945E-07        -0.22352E-19         0.00000E+00
    0.10945E-07        -0.26570E-19         0.00000E+00
    0.10945E-07        -0.84363E-20         0.00000E+00
    0.10475E-07         0.74506E-20         0.00000E+00
    0.10475E-07         0.11176E-19         0.00000E+00
    0.10475E-07         0.11596E-19         0.00000E+00
    0.10475E-07         0.11176E-19         0.00000E+00
    0.10475E-07         0.14481E-19         0.00000E+00
    0.10475E-07         0.14901E-19         0.00000E+00
    0.10475E-07         0.37253E-20         0.00000E+00
    0.10475E-07         0.18626E-20         0.00000E+00
    0.10475E-07         0.13458E-19         0.00000E+00
    0.10475E-07         0.60079E-20         0.00000E+00
    0.10475E-07        -0.41452E-20         0.00000E+00
    0.10475E-07        -0.74506E-20         0.00000E+00
    0.10475E-07        -0.37253E-20         0.00000E+00
    0.10475E-07         0.37253E-20         0.00000E+00
    0.10475E-07         0.78705E-20         0.00000E+00
    0.10475E-07         0.74506E-20         0.00000E+00
    0.10475E-07         0.14427E-20         0.00000E+00
    0.10475E-07         0.27940E-20         0.00000E+00
    0.10475E-07        -0.17184E-19         0.00000E+00
    0.10475E-07        -0.22352E-19         0.00000E+00
    0.10475E-07        -0.11267E-19         0.00000E+00
    0.10475E-07        -0.16764E-19         0.00000E+00
    0.10475E-07        -0.41398E-19         0.00000E+00
    0.10475E-07        -0.52154E-19         0.00000E+00
    0.10475E-07        -0.29802E-19         0.00000E+00
    0.10475E-07        -0.14901E-19         0.00000E+00
    0.10475E-07        -0.18626E-19         0.00000E+00
    0.10475E-07        -0.24634E-19         0.00000E+00
    0.10475E-07        -0.24214E-19         0.00000E+00
    0.10475E-07        -0.16344E-19         0.00000E+00
    0.10475E-07        -0.12527E-19         0.00000E+00
    0.10475E-07        -0.16764E-19         0.00000E+00
    0.10475E-07        -0.14993E-19         0.00000E+00
    0.10475E-07        -0.22826E-20         0.00000E+00
    0.10475E-07         0.51680E-20         0.00000E+00
    0.10475E-07        -0.37253E-20         0.00000E+00
    0.10475E-07        -0.74506E-20         0.00000E+00
    0.10475E-07        -0.12619E-19         0.00000E+00
    0.10475E-07        -0.37253E-20         0.00000E+00
    0.10475E-07         0.12619E-19         0.00000E+00
    0.10475E-07         0.18626E-20         0.00000E+00
    0.10475E-07        -0.10756E-19         0.00000E+00
    0.10475E-07         0.41995E-21         0.00000E+00
    0.10475E-07        -0.92218E-20         0.00000E+00
    0.10475E-07        -0.23703E-19         0.00000E+00
    0.10475E-07        -0.51680E-20         0.00000E+00
    0.10475E-07         0.14901E-19         0.00000E+00
    0.10475E-07        -0.18626E-20         0.00000E+00
    0.10475E-07        -0.10756E-19         0.00000E+00
    0.10475E-07         0.37253E-20         0.00000E+00
    0.10475E-07         0.28854E-20         0.00000E+00
    0.10095E-07         0.74506E-20         0.00000E+00
    0.10095E-07         0.11176E-19         0.00000E+00
    0.10095E-07         0.93132E-20         0.00000E+00
    0.10095E-07         0.00000E+00         0.00000E+00
    0.10095E-07         0.34941E-21         0.00000E+00
    0.10095E-07         0.16764E-19         0.00000E+00
    0.10095E-07         0.27590E-19         0.00000E+00
    0.10095E-07         0.22701E-19         0.00000E+00
    0.10095E-07         0.55879E-20         0.00000E+00
    0.10095E-07         0.15132E-20         0.00000E+00
    0.10095E-07         0.22121E-20         0.00000E+00
    0.10095E-07         0.43072E-20         0.00000E+00
    0.10095E-07         0.43072E-20         0.00000E+00
    0.10095E-07         0.81494E-20         0.00000E+00
    0.10095E-07         0.15251E-19         0.00000E+00
    0.10095E-07         0.39578E-20         0.00000E+00
    0.10095E-07        -0.93132E-20         0.00000E+00
    0.10095E-07        -0.11176E-19         0.00000E+00
    0.10095E-07         0.20952E-20         0.00000E+00
    0.10095E-07         0.78000E-20         0.00000E+00
    0.10095E-07        -0.89638E-20         0.00000E+00
    0.10095E-07        -0.26077E-19         0.00000E+00
    0.10095E-07        -0.16414E-19         0.00000E+00
    0.10095E-07        -0.20140E-19         0.00000E+00
    0.10095E-07        -0.29570E-19         0.00000E+00
    0.10095E-07        -0.27940E-19         0.00000E+00
    0.10095E-07        -0.28522E-19         0.00000E+00
    0.10095E-07        -0.24564E-19         0.00000E+00
    0.10095E-07        -0.24564E-19         0.00000E+00
    0.10095E-07        -0.19208E-19         0.00000E+00
    0.10095E-07        -0.11408E-19         0.00000E+00
    0.10095E-07        -0.37253E-20         0.00000E+00
    0.10095E-07        -0.12806E-19         0.00000E+00
    0.10095E-07        -0.13039E-19         0.00000E+00
    0.10095E-07        -0.98951E-20         0.00000E+00
    0.10095E-07        -0.19325E-19         0.00000E+00
    0.10095E-07        -0.16764E-19         0.00000E+00
    0.10095E-07         0.40747E-20         0.00000E+00
    0.10095E-07         0.74506E-20         0.00000E+00
    0.10095E-07         0.15132E-20         0.00000E+00
    0.10095E-07         0.37253E-20         0.00000E+00
    0.10095E-07         0.40747E-20         0.00000E+00
    0.10095E-07        -0.15251E-19         0.00000E+00
    0.10095E-07        -0.74506E-20         0.00000E+00
    0.10095E-07         0.15251E-19         0.00000E+00
    0.10095E-07         0.71012E-20         0.00000E+00
    0.10095E-07        -0.25495E-19         0.00000E+00
    0.10095E-07        -0.25378E-19         0.00000E+00
    0.10095E-07        -0.24446E-20         0.00000E+00
    0.10095E-07         0.20952E-20         0.00000E+00
    0.10095E-07         0.67518E-20         0.00000E+00
    0.98043E-08        -0.14901E-19         0.00000E+00
    0.98043E-08        -0.18626E-19         0.00000E+00
    0.98043E-08        -0.67999E-20         0.00000E+00
    0.98043E-08         0.11827E-19         0.00000E+00
    0.98043E-08         0.16394E-19         0.00000E+00
    0.98043E-08         0.18256E-19         0.00000E+00
    0.98043E-08         0.25133E-20         0.00000E+00
    0.98043E-08        -0.14250E-19         0.00000E+00
    0.98043E-08        -0.74506E-20         0.00000E+00
    0.98043E-08         0.11827E-19         0.00000E+00
    0.98043E-08         0.23002E-19         0.00000E+00
    0.98043E-08         0.17976E-19         0.00000E+00
    0.98043E-08         0.67999E-20         0.00000E+00
    0.98043E-08         0.00000E+00         0.00000E+00
    0.98043E-08        -0.71700E-20         0.00000E+00
    0.98043E-08        -0.65193E-20         0.00000E+00
    0.98043E-08         0.22327E-20         0.00000E+00
    0.98043E-08        -0.28062E-21         0.00000E+00
    0.98043E-08        -0.13689E-19         0.00000E+00
    0.98043E-08        -0.93132E-20         0.00000E+00
    0.98043E-08         0.15552E-19         0.00000E+00
    0.98043E-08         0.55879E-20         0.00000E+00
    0.98043E-08        -0.19277E-19         0.00000E+00
    0.98043E-08        -0.21790E-19         0.00000E+00
    0.98043E-08        -0.15182E-19         0.00000E+00
    0.98043E-08        -0.55879E-20         0.00000E+00
    0.98043E-08         0.18626E-20         0.00000E+00
    0.98043E-08        -0.28062E-21         0.00000E+00
    0.98043E-08         0.42865E-20         0.00000E+00
    0.98043E-08         0.49372E-20         0.00000E+00
    0.98043E-08        -0.86625E-20         0.00000E+00
    0.98043E-08        -0.74506E-20         0.00000E+00
    0.98043E-08         0.34447E-20         0.00000E+00
    0.98043E-08         0.37008E-21         0.00000E+00
    0.98043E-08        -0.62386E-20         0.00000E+00
    0.98043E-08        -0.37253E-20         0.00000E+00
    0.98043E-08        -0.12758E-19         0.00000E+00
    0.98043E-08        -0.22722E-19         0.00000E+00
    0.98043E-08        -0.19838E-19         0.00000E+00
    0.98043E-08        -0.19188E-19         0.00000E+00
    0.98043E-08        -0.19838E-19         0.00000E+00
    0.98043E-08        -0.11176E-19         0.00000E+00
    0.98043E-08         0.49372E-20         0.00000E+00
    0.98043E-08         0.86625E-20         0.00000E+00
    0.98043E-08         0.00000E+00         0.00000E+00
    0.98043E-08         0.28062E-21         0.00000E+00
    0.98043E-08         0.18626E-19         0.00000E+00
    0.98043E-08         0.12758E-19         0.00000E+00
    0.98043E-08        -0.49372E-20         0.00000E+00
    0.98043E-08         0.65070E-21         0.00000E+00
    0.98043E-08         0.00000E+00         0.00000E+00
    0.96014E-08         0.17190E-19         0.00000E+00
    0.96014E-08         0.24214E-19         0.00000E+00
    0.96014E-08         0.14901E-19         0.00000E+00
    0.96014E-08        -0.18626E-20         0.00000E+00
    0.96014E-08        -0.12320E-19         0.00000E+00
    0.96014E-08        -0.13251E-19         0.00000E+00
    0.96014E-08         0.83819E-20         0.00000E+00
    0.96014E-08         0.14901E-19         0.00000E+00
    0.96014E-08         0.18626E-20         0.00000E+00
    0.96014E-08        -0.11176E-19         0.00000E+00
    0.96014E-08        -0.23283E-19         0.00000E+00
    0.96014E-08        -0.12826E-19         0.00000E+00
    0.96014E-08         0.74506E-20         0.00000E+00
    0.96014E-08         0.67322E-20         0.00000E+00
    0.96014E-08         0.10458E-19         0.00000E+00
    0.96014E-08         0.81689E-20         0.00000E+00
    0.96014E-08        -0.11176E-19         0.00000E+00
    0.96014E-08        -0.13251E-19         0.00000E+00
    0.96014E-08         0.79560E-20         0.00000E+00
    0.96014E-08         0.14901E-19         0.00000E+00
    0.96014E-08         0.85949E-20         0.00000E+00
    0.96014E-08         0.85949E-20         0.00000E+00
    0.96014E-08         0.11176E-19         0.00000E+00
    0.96014E-08         0.13251E-19         0.00000E+00
    0.96014E-08         0.44436E-20         0.00000E+00
    0.96014E-08        -0.18626E-20         0.00000E+00
    0.96014E-08        -0.18626E-20         0.00000E+00
    0.96014E-08        -0.37253E-20         0.00000E+00
    0.96014E-08         0.21296E-21         0.00000E+00
    0.96014E-08        -0.12601E-33         0.00000E+00
    0.96014E-08        -0.12564E-33         0.00000E+00
    0.96014E-08         0.25810E-20         0.00000E+00
    0.96014E-08        -0.74506E-20         0.00000E+00
    0.96014E-08        -0.30069E-20         0.00000E+00
    0.96014E-08         0.66204E-34         0.00000E+00
    0.96014E-08        -0.16764E-19         0.00000E+00
    0.96014E-08        -0.93132E-20         0.00000E+00
    0.96014E-08        -0.18626E-20         0.00000E+00
    0.96014E-08        -0.18626E-20         0.00000E+00
    0.96014E-08         0.14901E-19         0.00000E+00
    0.96014E-08         0.18626E-19         0.00000E+00
    0.96014E-08         0.93132E-20         0.00000E+00
    0.96014E-08        -0.30069E-20         0.00000E+00
    0.96014E-08        -0.13039E-19         0.00000E+00
    0.96014E-08        -0.60933E-20         0.00000E+00
    0.96014E-08        -0.53750E-20         0.00000E+00
    0.96014E-08        -0.85949E-20         0.00000E+00
    0.96014E-08        -0.37253E-20         0.00000E+00
    0.96014E-08         0.74506E-20         0.00000E+00
    0.96014E-08         0.10032E-19         0.00000E+00
    0.96014E-08         0.88873E-20         0.00000E+00
    0.94866E-08        -0.13330E-19         0.00000E+00
    0.94866E-08        -0.20489E-19         0.00000E+00
    0.94866E-08        -0.13824E-19         0.00000E+00
    0.94866E-08        -0.55879E-20         0.00000E+00
    0.94866E-08        -0.93132E-20         0.00000E+00
    0.94866E-08        -0.57337E-20         0.00000E+00
    0.94866E-08        -0.13184E-19         0.00000E+00
    0.94866E-08        -0.26863E-19         0.00000E+00
    0.94866E-08        -0.22352E-19         0.00000E+00
    0.94866E-08        -0.12253E-19         0.00000E+00
    0.94866E-08         0.20085E-20         0.00000E+00
    0.94866E-08         0.75964E-20         0.00000E+00
    0.94866E-08         0.26482E-20         0.00000E+00
    0.94866E-08         0.13039E-19         0.00000E+00
    0.94866E-08         0.10536E-19         0.00000E+00
    0.94866E-08         0.20085E-20         0.00000E+00
    0.94866E-08         0.82361E-20         0.00000E+00
    0.94866E-08         0.71590E-20         0.00000E+00
    0.94866E-08        -0.66651E-20         0.00000E+00
    0.94866E-08        -0.55879E-20         0.00000E+00
    0.94866E-08         0.18626E-19         0.00000E+00
    0.94866E-08         0.14901E-19         0.00000E+00
    0.94866E-08        -0.82361E-20         0.00000E+00
    0.94866E-08        -0.82361E-20         0.00000E+00
    0.94866E-08         0.26482E-20         0.00000E+00
    0.94866E-08         0.14901E-19         0.00000E+00
    0.94866E-08         0.12253E-19         0.00000E+00
    0.94866E-08         0.45108E-20         0.00000E+00
    0.94866E-08         0.78551E-21         0.00000E+00
    0.94866E-08         0.12399E-19         0.00000E+00
    0.94866E-08         0.21566E-19         0.00000E+00
    0.94866E-08         0.55879E-20         0.00000E+00
    0.94866E-08         0.46566E-20         0.00000E+00
    0.94866E-08         0.63734E-20         0.00000E+00
    0.94866E-08        -0.74506E-20         0.00000E+00
    0.94866E-08         0.82361E-20         0.00000E+00
    0.94866E-08         0.25000E-19         0.00000E+00
    0.94866E-08         0.15978E-19         0.00000E+00
    0.94866E-08         0.37253E-20         0.00000E+00
    0.94866E-08        -0.10390E-19         0.00000E+00
    0.94866E-08         0.00000E+00         0.00000E+00
    0.94866E-08         0.93132E-20         0.00000E+00
    0.94866E-08         0.10390E-19         0.00000E+00
    0.94866E-08         0.14116E-19         0.00000E+00
    0.94866E-08         0.45108E-20         0.00000E+00
    0.94866E-08         0.37253E-20         0.00000E+00
    0.94866E-08         0.10390E-19         0.00000E+00
    0.94866E-08         0.10099E-19         0.00000E+00
    0.94866E-08         0.10099E-19         0.00000E+00
    0.94866E-08         0.55879E-20         0.00000E+00
    0.94866E-08         0.00000E+00         0.00000E+00
    0.94599E-08        -0.37253E-20         0.00000E+00
    0.94599E-08         0.28725E-20         0.00000E+00
    0.94599E-08         0.14901E-19         0.00000E+00
    0.94599E-08         0.19479E-19         0.00000E+00
    0.94599E-08         0.65978E-20         0.00000E+00
    0.94599E-08        -0.12029E-19         0.00000E+00
    0.94599E-08        -0.26156E-19         0.00000E+00
    0.94599E-08        -0.25146E-19         0.00000E+00
    0.94599E-08        -0.25146E-19         0.00000E+00
    0.94599E-08        -0.31743E-19         0.00000E+00
    0.94599E-08        -0.20489E-19         0.00000E+00
    0.94599E-08         0.10099E-20         0.00000E+00
    0.94599E-08         0.65978E-20         0.00000E+00
    0.94599E-08        -0.84604E-20         0.00000E+00
    0.94599E-08        -0.85279E-21         0.00000E+00
    0.94599E-08         0.37253E-20         0.00000E+00
    0.94599E-08        -0.76076E-20         0.00000E+00
    0.94599E-08        -0.93132E-20         0.00000E+00
    0.94599E-08         0.18626E-20         0.00000E+00
    0.94599E-08         0.37253E-20         0.00000E+00
    0.94599E-08         0.47351E-20         0.00000E+00
    0.94599E-08         0.12186E-19         0.00000E+00
    0.94599E-08         0.64407E-20         0.00000E+00
    0.94599E-08         0.18626E-20         0.00000E+00
    0.94599E-08        -0.37253E-20         0.00000E+00
    0.94599E-08        -0.47351E-20         0.00000E+00
    0.94599E-08        -0.74506E-20         0.00000E+00
    0.94599E-08        -0.27154E-20         0.00000E+00
    0.94599E-08         0.14901E-19         0.00000E+00
    0.94599E-08         0.10166E-19         0.00000E+00
    0.94599E-08         0.37253E-20         0.00000E+00
    0.94599E-08         0.74506E-20         0.00000E+00
    0.94599E-08         0.37253E-20         0.00000E+00
    0.94599E-08        -0.74506E-20         0.00000E+00
    0.94599E-08        -0.37253E-20         0.00000E+00
    0.94599E-08         0.74506E-20         0.00000E+00
    0.94599E-08         0.74506E-20         0.00000E+00
    0.94599E-08         0.18626E-19         0.00000E+00
    0.94599E-08         0.31822E-19         0.00000E+00
    0.94599E-08         0.31665E-19         0.00000E+00
    0.94599E-08         0.91562E-20         0.00000E+00
    0.94599E-08        -0.85279E-21         0.00000E+00
    0.94599E-08         0.55879E-20         0.00000E+00
    0.94599E-08         0.14901E-19         0.00000E+00
    0.94599E-08         0.20489E-19         0.00000E+00
    0.94599E-08         0.15754E-19         0.00000E+00
    0.94599E-08         0.13039E-19         0.00000E+00
    0.94599E-08         0.14980E-19         0.00000E+00
    0.94599E-08         0.46566E-20         0.00000E+00
    0.94599E-08         0.45781E-20         0.00000E+00
    0.94599E-08         0.14901E-19         0.00000E+00
    0.95219E-08         0.93342E-20         0.00000E+00
    0.95219E-08         0.55879E-20         0.00000E+00
    0.95219E-08        -0.10255E-19         0.00000E+00
    0.95219E-08        -0.13959E-19         0.00000E+00
    0.95219E-08        -0.83714E-20         0.00000E+00
    0.95219E-08        -0.17706E-19         0.00000E+00
    0.95219E-08        -0.12118E-19         0.00000E+00
    0.95219E-08        -0.18626E-19         0.00000E+00
    0.95219E-08        -0.34469E-19         0.00000E+00
    0.95219E-08        -0.36322E-19         0.00000E+00
    0.95219E-08        -0.31654E-19         0.00000E+00
    0.95219E-08        -0.26077E-19         0.00000E+00
    0.95219E-08        -0.14901E-19         0.00000E+00
    0.95219E-08         0.55879E-20         0.00000E+00
    0.95219E-08         0.11176E-19         0.00000E+00
    0.95219E-08         0.13039E-19         0.00000E+00
    0.95219E-08         0.16764E-19         0.00000E+00
    0.95219E-08         0.18626E-20         0.00000E+00
    0.95219E-08        -0.55879E-20         0.00000E+00
    0.95219E-08        -0.13039E-19         0.00000E+00
    0.95219E-08        -0.16764E-19         0.00000E+00
    0.95219E-08        -0.74506E-20         0.00000E+00
    0.95219E-08        -0.37253E-20         0.00000E+00
    0.95219E-08        -0.93132E-20         0.00000E+00
    0.95219E-08        -0.93132E-20         0.00000E+00
    0.95219E-08         0.00000E+00         0.00000E+00
    0.95219E-08        -0.93132E-20         0.00000E+00
    0.95219E-08        -0.74506E-20         0.00000E+00
    0.95219E-08         0.55879E-20         0.00000E+00
    0.95219E-08         0.14901E-19         0.00000E+00
    0.95219E-08         0.26077E-19         0.00000E+00
    0.95219E-08         0.29813E-19         0.00000E+00
    0.95219E-08         0.27008E-19         0.00000E+00
    0.95219E-08         0.26077E-19         0.00000E+00
    0.95219E-08         0.22352E-19         0.00000E+00
    0.95219E-08         0.17685E-19         0.00000E+00
    0.95219E-08         0.13039E-19         0.00000E+00
    0.95219E-08         0.10255E-19         0.00000E+00
    0.95219E-08         0.55879E-20         0.00000E+00
    0.95219E-08         0.92083E-21         0.00000E+00
    0.95219E-08         0.10255E-19         0.00000E+00
    0.95219E-08         0.16764E-19         0.00000E+00
    0.95219E-08         0.12097E-19         0.00000E+00
    0.95219E-08         0.18626E-19         0.00000E+00
    0.95219E-08         0.26077E-19         0.00000E+00
    0.95219E-08         0.15843E-19         0.00000E+00
    0.95219E-08         0.16764E-19         0.00000E+00
    0.95219E-08         0.17685E-19         0.00000E+00
    0.95219E-08         0.65298E-20         0.00000E+00
    0.95219E-08        -0.94182E-21         0.00000E+00
    0.95219E-08        -0.11218E-19         0.00000E+00
    0.96734E-08         0.00000E+00         0.00000E+00
    0.96734E-08        -0.64603E-20         0.00000E+00
    0.96734E-08         0.37253E-20         0.00000E+00
    0.96734E-08         0.13911E-19         0.00000E+00
    0.96734E-08         0.45977E-20         0.00000E+00
    0.96734E-08         0.18626E-20         0.00000E+00
    0.96734E-08        -0.17636E-19         0.00000E+00
    0.96734E-08        -0.35390E-19         0.00000E+00
    0.96734E-08        -0.24214E-19         0.00000E+00
    0.96734E-08        -0.74506E-20         0.00000E+00
    0.96734E-08         0.55879E-20         0.00000E+00
    0.96734E-08         0.74506E-20         0.00000E+00
    0.96734E-08         0.00000E+00         0.00000E+00
    0.96734E-08        -0.65782E-20         0.00000E+00
    0.96734E-08        -0.74506E-20         0.00000E+00
    0.96734E-08        -0.17636E-19         0.00000E+00
    0.96734E-08        -0.24214E-19         0.00000E+00
    0.96734E-08        -0.20489E-19         0.00000E+00
    0.96734E-08        -0.17636E-19         0.00000E+00
    0.96734E-08        -0.16764E-19         0.00000E+00
    0.96734E-08        -0.10303E-19         0.00000E+00
    0.96734E-08        -0.65782E-20         0.00000E+00
    0.96734E-08        -0.18626E-20         0.00000E+00
    0.96734E-08         0.74506E-20         0.00000E+00
    0.96734E-08         0.83819E-20         0.00000E+00
    0.96734E-08         0.37842E-20         0.00000E+00
    0.96734E-08         0.14901E-19         0.00000E+00
    0.96734E-08         0.17636E-19         0.00000E+00
    0.96734E-08         0.16764E-19         0.00000E+00
    0.96734E-08         0.27067E-19         0.00000E+00
    0.96734E-08         0.29802E-19         0.00000E+00
    0.96734E-08         0.24214E-19         0.00000E+00
    0.96734E-08         0.16764E-19         0.00000E+00
    0.96734E-08         0.93132E-20         0.00000E+00
    0.96734E-08         0.14901E-19         0.00000E+00
    0.96734E-08         0.22352E-19         0.00000E+00
    0.96734E-08         0.22352E-19         0.00000E+00
    0.96734E-08         0.14901E-19         0.00000E+00
    0.96734E-08         0.11176E-19         0.00000E+00
    0.96734E-08         0.20489E-19         0.00000E+00
    0.96734E-08         0.11176E-19         0.00000E+00
    0.96734E-08         0.55879E-20         0.00000E+00
    0.96734E-08         0.16764E-19         0.00000E+00
    0.96734E-08         0.11176E-19         0.00000E+00
    0.96734E-08        -0.18626E-20         0.00000E+00
    0.96734E-08        -0.74506E-20         0.00000E+00
    0.96734E-08        -0.16764E-19         0.00000E+00
    0.96734E-08        -0.20489E-19         0.00000E+00
    0.96734E-08        -0.14901E-19         0.00000E+00
    0.96734E-08        -0.10186E-19         0.00000E+00
    0.96734E-08        -0.17448E-20         0.00000E+00
    0.99156E-08         0.00000E+00         0.00000E+00
    0.99156E-08         0.11176E-19         0.00000E+00
    0.99156E-08         0.63888E-20         0.00000E+00
    0.99156E-08        -0.14901E-19         0.00000E+00
    0.99156E-08        -0.20489E-19         0.00000E+00
    0.99156E-08        -0.11176E-19         0.00000E+00
    0.99156E-08         0.66497E-20         0.00000E+00
    0.99156E-08         0.20489E-19         0.00000E+00
    0.99156E-08         0.17565E-19         0.00000E+00
    0.99156E-08         0.74506E-20         0.00000E+00
    0.99156E-08        -0.82515E-20         0.00000E+00
    0.99156E-08        -0.17565E-19         0.00000E+00
    0.99156E-08        -0.11176E-19         0.00000E+00
    0.99156E-08        -0.10375E-19         0.00000E+00
    0.99156E-08        -0.93132E-20         0.00000E+00
    0.99156E-08        -0.26636E-20         0.00000E+00
    0.99156E-08        -0.93132E-20         0.00000E+00
    0.99156E-08        -0.18626E-19         0.00000E+00
    0.99156E-08        -0.13970E-19         0.00000E+00
    0.99156E-08        -0.19931E-20         0.00000E+00
    0.99156E-08        -0.55879E-20         0.00000E+00
    0.99156E-08         0.37253E-20         0.00000E+00
    0.99156E-08         0.14901E-19         0.00000E+00
    0.99156E-08         0.54575E-20         0.00000E+00
    0.99156E-08         0.55879E-20         0.00000E+00
    0.99156E-08         0.15032E-19         0.00000E+00
    0.99156E-08         0.26077E-19         0.00000E+00
    0.99156E-08         0.26077E-19         0.00000E+00
    0.99156E-08         0.22352E-19         0.00000E+00
    0.99156E-08         0.93132E-20         0.00000E+00
    0.99156E-08         0.74506E-20         0.00000E+00
    0.99156E-08         0.18626E-19         0.00000E+00
    0.99156E-08         0.18626E-19         0.00000E+00
    0.99156E-08         0.10617E-20         0.00000E+00
    0.99156E-08        -0.55879E-20         0.00000E+00
    0.99156E-08         0.11306E-19         0.00000E+00
    0.99156E-08         0.13970E-19         0.00000E+00
    0.99156E-08         0.20228E-19         0.00000E+00
    0.99156E-08         0.23153E-19         0.00000E+00
    0.99156E-08         0.13039E-19         0.00000E+00
    0.99156E-08         0.17826E-19         0.00000E+00
    0.99156E-08         0.14901E-19         0.00000E+00
    0.99156E-08         0.80091E-21         0.00000E+00
    0.99156E-08         0.18626E-20         0.00000E+00
    0.99156E-08         0.11176E-19         0.00000E+00
    0.99156E-08         0.14901E-19         0.00000E+00
    0.99156E-08         0.27940E-20         0.00000E+00
    0.99156E-08        -0.11176E-19         0.00000E+00
    0.99156E-08        -0.15702E-19         0.00000E+00
    0.99156E-08        -0.63888E-20         0.00000E+00
    0.99156E-08         0.21235E-20         0.00000E+00
    0.10250E-07        -0.14901E-19         0.00000E+00
    0.10250E-07        -0.20489E-19         0.00000E+00
    0.10250E-07        -0.13039E-19         0.00000E+00
    0.10250E-07        -0.37253E-20         0.00000E+00
    0.10250E-07         0.18626E-20         0.00000E+00
    0.10250E-07         0.18626E-19         0.00000E+00
    0.10250E-07         0.18626E-19         0.00000E+00
    0.10250E-07         0.74506E-20         0.00000E+00
    0.10250E-07        -0.74506E-20         0.00000E+00
    0.10250E-07        -0.93132E-20         0.00000E+00
    0.10250E-07         0.00000E+00         0.00000E+00
    0.10250E-07         0.37253E-20         0.00000E+00
    0.10250E-07        -0.74506E-20         0.00000E+00
    0.10250E-07        -0.16764E-19         0.00000E+00
    0.10250E-07        -0.16764E-19         0.00000E+00
    0.10250E-07        -0.18626E-19         0.00000E+00
    0.10250E-07        -0.11176E-19         0.00000E+00
    0.10250E-07         0.74506E-20         0.00000E+00
    0.10250E-07         0.74506E-20         0.00000E+00
    0.10250E-07        -0.93132E-20         0.00000E+00
    0.10250E-07         0.18626E-20         0.00000E+00
    0.10250E-07         0.14901E-19         0.00000E+00
    0.10250E-07         0.13039E-19         0.00000E+00
    0.10250E-07         0.14901E-19         0.00000E+00
    0.10250E-07         0.20489E-19         0.00000E+00
    0.10250E-07         0.22352E-19         0.00000E+00
    0.10250E-07         0.16764E-19         0.00000E+00
    0.10250E-07         0.74506E-20         0.00000E+00
    0.10250E-07         0.11176E-19         0.00000E+00
    0.10250E-07         0.24624E-19         0.00000E+00
    0.10250E-07         0.24624E-19         0.00000E+00
    0.10250E-07         0.94261E-20         0.00000E+00
    0.10250E-07        -0.87911E-20         0.00000E+00
    0.10250E-07         0.22718E-20         0.00000E+00
    0.10250E-07         0.74506E-20         0.00000E+00
    0.10250E-07         0.11176E-19         0.00000E+00
    0.10250E-07         0.20489E-19         0.00000E+00
    0.10250E-07         0.18626E-19         0.00000E+00
    0.10250E-07         0.16764E-19         0.00000E+00
    0.10250E-07         0.13039E-19         0.00000E+00
    0.10250E-07         0.13039E-19         0.00000E+00
    0.10250E-07         0.22352E-19         0.00000E+00
    0.10250E-07         0.24214E-19         0.00000E+00
    0.10250E-07         0.19036E-19         0.00000E+00
    0.10250E-07         0.65193E-20         0.00000E+00
    0.10250E-07        -0.69285E-20         0.00000E+00
    0.10250E-07         0.37253E-20         0.00000E+00
    0.10250E-07         0.26077E-19         0.00000E+00
    0.10250E-07         0.33528E-19         0.00000E+00
    0.10250E-07         0.16764E-19         0.00000E+00
    0.10250E-07         0.37253E-20         0.00000E+00
    0.10679E-07         0.37253E-20         0.00000E+00
    0.10679E-07        -0.11176E-19         0.00000E+00
    0.10679E-07        -0.13039E-19         0.00000E+00
    0.10679E-07         0.37253E-20         0.00000E+00
    0.10679E-07         0.37253E-20         0.00000E+00
    0.10679E-07         0.55879E-20         0.00000E+00
    0.10679E-07         0.16764E-19         0.00000E+00
    0.10679E-07         0.18626E-19         0.00000E+00
    0.10679E-07         0.13039E-19         0.00000E+00
    0.10679E-07        -0.31609E-20         0.00000E+00
    0.10679E-07        -0.26077E-19         0.00000E+00
    0.10679E-07        -0.32229E-19         0.00000E+00
    0.10679E-07        -0.27375E-19         0.00000E+00
    0.10679E-07        -0.25710E-19         0.00000E+00
    0.10679E-07        -0.13603E-19         0.00000E+00
    0.10679E-07         0.89462E-20         0.00000E+00
    0.10679E-07         0.13039E-19         0.00000E+00
    0.10679E-07         0.37253E-20         0.00000E+00
    0.10679E-07         0.80149E-20         0.00000E+00
    0.10679E-07         0.19191E-19         0.00000E+00
    0.10679E-07         0.18993E-19         0.00000E+00
    0.10679E-07         0.26444E-19         0.00000E+00
    0.10679E-07         0.22352E-19         0.00000E+00
    0.10679E-07         0.93132E-20         0.00000E+00
    0.10679E-07         0.37253E-20         0.00000E+00
    0.10679E-07         0.93132E-20         0.00000E+00
    0.10679E-07         0.18626E-19         0.00000E+00
    0.10679E-07         0.29802E-19         0.00000E+00
    0.10679E-07         0.33528E-19         0.00000E+00
    0.10679E-07         0.42896E-20         0.00000E+00
    0.10679E-07        -0.18062E-19         0.00000E+00
    0.10679E-07        -0.20600E-20         0.00000E+00
    0.10679E-07         0.74506E-20         0.00000E+00
    0.10679E-07         0.33583E-20         0.00000E+00
    0.10679E-07         0.87489E-20         0.00000E+00
    0.10679E-07         0.23847E-19         0.00000E+00
    0.10679E-07         0.12107E-19         0.00000E+00
    0.10679E-07        -0.56434E-21         0.00000E+00
    0.10679E-07         0.16764E-19         0.00000E+00
    0.10679E-07         0.33528E-19         0.00000E+00
    0.10679E-07         0.29802E-19         0.00000E+00
    0.10679E-07         0.19191E-19         0.00000E+00
    0.10679E-07         0.20489E-19         0.00000E+00
    0.10679E-07         0.29238E-19         0.00000E+00
    0.10679E-07         0.27940E-19         0.00000E+00
    0.10679E-07         0.29802E-19         0.00000E+00
    0.10679E-07         0.24214E-19         0.00000E+00
    0.10679E-07         0.14901E-19         0.00000E+00
    0.10679E-07         0.18626E-20         0.00000E+00
    0.10679E-07        -0.74506E-20         0.00000E+00
    0.10679E-07        -0.74506E-20         0.00000E+00
    0.11204E-07         0.51806E-20         0.00000E+00
    0.11204E-07         0.22352E-19         0.00000E+00
    0.11204E-07         0.27212E-19         0.00000E+00
    0.11204E-07         0.16764E-19         0.00000E+00
    0.11204E-07         0.19354E-19         0.00000E+00
    0.11204E-07         0.16764E-19         0.00000E+00
    0.11204E-07         0.67229E-20         0.00000E+00
    0.11204E-07        -0.93132E-20         0.00000E+00
    0.11204E-07        -0.14901E-19         0.00000E+00
    0.11204E-07        -0.11176E-19         0.00000E+00
    0.11204E-07        -0.55879E-20         0.00000E+00
    0.11204E-07         0.18626E-20         0.00000E+00
    0.11204E-07         0.55879E-20         0.00000E+00
    0.11204E-07         0.93132E-20         0.00000E+00
    0.11204E-07         0.74506E-20         0.00000E+00
    0.11204E-07         0.00000E+00         0.00000E+00
    0.11204E-07        -0.55879E-20         0.00000E+00
    0.11204E-07         0.25903E-20         0.00000E+00
    0.11204E-07         0.19354E-19         0.00000E+00
    0.11204E-07         0.20693E-19         0.00000E+00
    0.11204E-07         0.16967E-19         0.00000E+00
    0.11204E-07         0.11176E-19         0.00000E+00
    0.11204E-07         0.93132E-20         0.00000E+00
    0.11204E-07         0.16764E-19         0.00000E+00
    0.11204E-07         0.22352E-19         0.00000E+00
    0.11204E-07         0.16764E-19         0.00000E+00
    0.11204E-07         0.74506E-20         0.00000E+00
    0.11204E-07        -0.55879E-20         0.00000E+00
    0.11204E-07        -0.18626E-19         0.00000E+00
    0.11204E-07        -0.37253E-20         0.00000E+00
    0.11204E-07         0.26077E-19         0.00000E+00
    0.11204E-07         0.29802E-19         0.00000E+00
    0.11204E-07         0.13039E-19         0.00000E+00
    0.11204E-07         0.00000E+00         0.00000E+00
    0.11204E-07        -0.37253E-20         0.00000E+00
    0.11204E-07        -0.37253E-20         0.00000E+00
    0.11204E-07         0.55879E-20         0.00000E+00
    0.11204E-07         0.18626E-19         0.00000E+00
    0.11204E-07         0.29802E-19         0.00000E+00
    0.11204E-07         0.39116E-19         0.00000E+00
    0.11204E-07         0.39116E-19         0.00000E+00
    0.11204E-07         0.36118E-19         0.00000E+00
    0.11204E-07         0.31665E-19         0.00000E+00
    0.11204E-07         0.21624E-19         0.00000E+00
    0.11204E-07         0.11904E-19         0.00000E+00
    0.11204E-07         0.93132E-20         0.00000E+00
    0.11204E-07         0.11350E-20         0.00000E+00
    0.11204E-07        -0.37253E-20         0.00000E+00
    0.11204E-07         0.35216E-20         0.00000E+00
    0.11204E-07        -0.93132E-21         0.00000E+00
    0.11204E-07        -0.51806E-20         0.00000E+00
    0.11829E-07         0.74506E-20         0.00000E+00
    0.11829E-07        -0.37253E-20         0.00000E+00
    0.11829E-07        -0.55879E-20         0.00000E+00
    0.11829E-07         0.93132E-20         0.00000E+00
    0.11829E-07         0.14870E-19         0.00000E+00
    0.11829E-07         0.74506E-20         0.00000E+00
    0.11829E-07        -0.18319E-20         0.00000E+00
    0.11829E-07         0.00000E+00         0.00000E+00
    0.11829E-07         0.00000E+00         0.00000E+00
    0.11829E-07         0.18626E-20         0.00000E+00
    0.11829E-07         0.37253E-20         0.00000E+00
    0.11829E-07         0.11176E-19         0.00000E+00
    0.11829E-07         0.24214E-19         0.00000E+00
    0.11829E-07         0.22352E-19         0.00000E+00
    0.11829E-07         0.18626E-19         0.00000E+00
    0.11829E-07         0.16764E-19         0.00000E+00
    0.11829E-07         0.18626E-19         0.00000E+00
    0.11829E-07         0.24214E-19         0.00000E+00
    0.11829E-07         0.13039E-19         0.00000E+00
    0.11829E-07         0.13039E-19         0.00000E+00
    0.11829E-07         0.26077E-19         0.00000E+00
    0.11829E-07         0.18626E-19         0.00000E+00
    0.11829E-07        -0.93132E-20         0.00000E+00
    0.11829E-07        -0.11176E-19         0.00000E+00
    0.11829E-07         0.11176E-19         0.00000E+00
    0.11829E-07         0.11176E-19         0.00000E+00
    0.11829E-07         0.11176E-19         0.00000E+00
    0.11829E-07         0.55879E-20         0.00000E+00
    0.11829E-07         0.00000E+00         0.00000E+00
    0.11829E-07         0.93132E-20         0.00000E+00
    0.11829E-07         0.93132E-20         0.00000E+00
    0.11829E-07        -0.74506E-20         0.00000E+00
    0.11829E-07        -0.74506E-20         0.00000E+00
    0.11829E-07         0.74506E-20         0.00000E+00
    0.11829E-07         0.26077E-19         0.00000E+00
    0.11829E-07         0.33528E-19         0.00000E+00
    0.11829E-07         0.93132E-20         0.00000E+00
    0.11829E-07        -0.55879E-20         0.00000E+00
    0.11829E-07        -0.74506E-20         0.00000E+00
    0.11829E-07         0.18626E-20         0.00000E+00
    0.11829E-07         0.18626E-19         0.00000E+00
    0.11829E-07         0.27940E-19         0.00000E+00
    0.11829E-07         0.26077E-19         0.00000E+00
    0.11829E-07         0.13008E-19         0.00000E+00
    0.11829E-07         0.55879E-20         0.00000E+00
    0.11829E-07         0.74813E-20         0.00000E+00
    0.11829E-07         0.92825E-20         0.00000E+00
    0.11829E-07         0.92825E-20         0.00000E+00
    0.11829E-07         0.13039E-19         0.00000E+00
    0.11829E-07         0.74813E-20         0.00000E+00
    0.11829E-07         0.61533E-22         0.00000E+00
    0.12557E-07        -0.18320E-19         0.00000E+00
    0.12557E-07        -0.11176E-19         0.00000E+00
    0.12557E-07        -0.76038E-20         0.00000E+00
    0.12557E-07        -0.18626E-20         0.00000E+00
    0.12557E-07         0.76038E-20         0.00000E+00
    0.12557E-07        -0.18626E-20         0.00000E+00
    0.12557E-07        -0.55879E-20         0.00000E+00
    0.12557E-07        -0.37253E-20         0.00000E+00
    0.12557E-07        -0.93132E-20         0.00000E+00
    0.12557E-07        -0.13039E-19         0.00000E+00
    0.12557E-07        -0.55879E-20         0.00000E+00
    0.12557E-07         0.18626E-20         0.00000E+00
    0.12557E-07        -0.38785E-20         0.00000E+00
    0.12557E-07         0.11176E-19         0.00000E+00
    0.12557E-07         0.26077E-19         0.00000E+00
    0.12557E-07         0.24214E-19         0.00000E+00
    0.12557E-07         0.16764E-19         0.00000E+00
    0.12557E-07         0.11176E-19         0.00000E+00
    0.12557E-07         0.22505E-19         0.00000E+00
    0.12557E-07         0.26077E-19         0.00000E+00
    0.12557E-07         0.20336E-19         0.00000E+00
    0.12557E-07         0.20489E-19         0.00000E+00
    0.12557E-07         0.24214E-19         0.00000E+00
    0.12557E-07         0.16764E-19         0.00000E+00
    0.12557E-07         0.11176E-19         0.00000E+00
    0.12557E-07         0.18626E-19         0.00000E+00
    0.12557E-07         0.22352E-19         0.00000E+00
    0.12557E-07         0.11176E-19         0.00000E+00
    0.12557E-07         0.00000E+00         0.00000E+00
    0.12557E-07        -0.93132E-20         0.00000E+00
    0.12557E-07        -0.93132E-20         0.00000E+00
    0.12557E-07         0.13039E-19         0.00000E+00
    0.12557E-07         0.22352E-19         0.00000E+00
    0.12557E-07         0.14901E-19         0.00000E+00
    0.12557E-07        -0.18626E-20         0.00000E+00
    0.12557E-07        -0.55879E-20         0.00000E+00
    0.12557E-07        -0.18626E-20         0.00000E+00
    0.12557E-07        -0.13039E-19         0.00000E+00
    0.12557E-07        -0.18626E-20         0.00000E+00
    0.12557E-07         0.13039E-19         0.00000E+00
    0.12557E-07         0.93132E-20         0.00000E+00
    0.12557E-07         0.00000E+00         0.00000E+00
    0.12557E-07        -0.35721E-20         0.00000E+00
    0.12557E-07         0.11176E-19         0.00000E+00
    0.12557E-07         0.11023E-19         0.00000E+00
    0.12557E-07        -0.74506E-20         0.00000E+00
    0.12557E-07        -0.12885E-19         0.00000E+00
    0.12557E-07        -0.11176E-19         0.00000E+00
    0.12557E-07        -0.76038E-20         0.00000E+00
    0.12557E-07         0.18626E-20         0.00000E+00
    0.12557E-07         0.74506E-20         0.00000E+00
    0.13390E-07         0.15601E-19         0.00000E+00
    0.13390E-07         0.15251E-19         0.00000E+00
    0.13390E-07         0.11176E-19         0.00000E+00
    0.13390E-07        -0.40751E-20         0.00000E+00
    0.13390E-07        -0.14901E-19         0.00000E+00
    0.13390E-07        -0.19558E-19         0.00000E+00
    0.13390E-07        -0.13970E-19         0.00000E+00
    0.13390E-07        -0.33755E-20         0.00000E+00
    0.13390E-07         0.10826E-19         0.00000E+00
    0.13390E-07         0.18277E-19         0.00000E+00
    0.13390E-07         0.11176E-19         0.00000E+00
    0.13390E-07         0.11526E-19         0.00000E+00
    0.13390E-07         0.14901E-19         0.00000E+00
    0.13390E-07        -0.34980E-21         0.00000E+00
    0.13390E-07        -0.37253E-20         0.00000E+00
    0.13390E-07         0.59377E-20         0.00000E+00
    0.13390E-07         0.93132E-20         0.00000E+00
    0.13390E-07         0.20489E-19         0.00000E+00
    0.13390E-07         0.26427E-19         0.00000E+00
    0.13390E-07         0.22002E-19         0.00000E+00
    0.13390E-07         0.12689E-19         0.00000E+00
    0.13390E-07         0.16764E-19         0.00000E+00
    0.13390E-07         0.20489E-19         0.00000E+00
    0.13390E-07         0.18626E-19         0.00000E+00
    0.13390E-07         0.20489E-19         0.00000E+00
    0.13390E-07         0.37253E-20         0.00000E+00
    0.13390E-07        -0.55879E-20         0.00000E+00
    0.13390E-07         0.18626E-20         0.00000E+00
    0.13390E-07         0.50064E-20         0.00000E+00
    0.13390E-07         0.10245E-19         0.00000E+00
    0.13390E-07         0.11176E-19         0.00000E+00
    0.13390E-07         0.27940E-20         0.00000E+00
    0.13390E-07         0.27940E-20         0.00000E+00
    0.13390E-07        -0.18626E-20         0.00000E+00
    0.13390E-07        -0.96630E-20         0.00000E+00
    0.13390E-07        -0.22933E-19         0.00000E+00
    0.13390E-07        -0.21071E-19         0.00000E+00
    0.13390E-07        -0.18626E-20         0.00000E+00
    0.13390E-07        -0.78004E-20         0.00000E+00
    0.13390E-07        -0.18976E-19         0.00000E+00
    0.13390E-07        -0.11176E-19         0.00000E+00
    0.13390E-07         0.55879E-20         0.00000E+00
    0.13390E-07         0.16764E-19         0.00000E+00
    0.13390E-07         0.14901E-19         0.00000E+00
    0.13390E-07         0.18626E-20         0.00000E+00
    0.13390E-07        -0.33755E-20         0.00000E+00
    0.13390E-07        -0.18626E-20         0.00000E+00
    0.13390E-07        -0.55879E-20         0.00000E+00
    0.13390E-07        -0.98947E-20         0.00000E+00
    0.13390E-07        -0.14320E-19         0.00000E+00
    0.13390E-07        -0.10013E-19         0.00000E+00
    0.14333E-07        -0.16022E-19         0.00000E+00
    0.14333E-07        -0.26077E-19         0.00000E+00
    0.14333E-07        -0.32967E-19         0.00000E+00
    0.14333E-07        -0.22912E-19         0.00000E+00
    0.14333E-07        -0.11176E-19         0.00000E+00
    0.14333E-07         0.80112E-20         0.00000E+00
    0.14333E-07         0.14901E-19         0.00000E+00
    0.14333E-07        -0.18626E-20         0.00000E+00
    0.14333E-07        -0.24232E-20         0.00000E+00
    0.14333E-07         0.12478E-19         0.00000E+00
    0.14333E-07         0.20118E-19         0.00000E+00
    0.14333E-07         0.13039E-19         0.00000E+00
    0.14333E-07         0.93132E-21         0.00000E+00
    0.14333E-07        -0.74506E-20         0.00000E+00
    0.14333E-07        -0.24232E-20         0.00000E+00
    0.14333E-07         0.00000E+00         0.00000E+00
    0.14333E-07         0.93132E-20         0.00000E+00
    0.14333E-07         0.80112E-20         0.00000E+00
    0.14333E-07        -0.31647E-20         0.00000E+00
    0.14333E-07        -0.37253E-20         0.00000E+00
    0.14333E-07        -0.42859E-20         0.00000E+00
    0.14333E-07        -0.24232E-20         0.00000E+00
    0.14333E-07         0.11176E-19         0.00000E+00
    0.14333E-07         0.18626E-19         0.00000E+00
    0.14333E-07         0.18256E-19         0.00000E+00
    0.14333E-07         0.25146E-19         0.00000E+00
    0.14333E-07         0.10615E-19         0.00000E+00
    0.14333E-07        -0.18626E-20         0.00000E+00
    0.14333E-07         0.00000E+00         0.00000E+00
    0.14333E-07        -0.37253E-20         0.00000E+00
    0.14333E-07        -0.93132E-20         0.00000E+00
    0.14333E-07        -0.11176E-19         0.00000E+00
    0.14333E-07        -0.16764E-19         0.00000E+00
    0.14333E-07        -0.12478E-19         0.00000E+00
    0.14333E-07         0.83819E-20         0.00000E+00
    0.14333E-07         0.15272E-19         0.00000E+00
    0.14333E-07        -0.37074E-21         0.00000E+00
    0.14333E-07        -0.93132E-20         0.00000E+00
    0.14333E-07        -0.46566E-20         0.00000E+00
    0.14333E-07        -0.37253E-20         0.00000E+00
    0.14333E-07         0.27940E-20         0.00000E+00
    0.14333E-07         0.46566E-20         0.00000E+00
    0.14333E-07        -0.42859E-20         0.00000E+00
    0.14333E-07        -0.11547E-19         0.00000E+00
    0.14333E-07        -0.37253E-20         0.00000E+00
    0.14333E-07         0.59587E-20         0.00000E+00
    0.14333E-07        -0.78213E-20         0.00000E+00
    0.14333E-07        -0.11176E-19         0.00000E+00
    0.14333E-07         0.37074E-21         0.00000E+00
    0.14333E-07         0.89425E-20         0.00000E+00
    0.14333E-07         0.10434E-19         0.00000E+00
    0.15389E-07         0.37253E-20         0.00000E+00
    0.15389E-07         0.18771E-19         0.00000E+00
    0.15389E-07         0.18626E-19         0.00000E+00
    0.15389E-07         0.35812E-20         0.00000E+00
    0.15389E-07        -0.74506E-20         0.00000E+00
    0.15389E-07        -0.22352E-19         0.00000E+00
    0.15389E-07        -0.22352E-19         0.00000E+00
    0.15389E-07        -0.45125E-20         0.00000E+00
    0.15389E-07        -0.16764E-19         0.00000E+00
    0.15389E-07        -0.35390E-19         0.00000E+00
    0.15389E-07        -0.25002E-19         0.00000E+00
    0.15389E-07        -0.11176E-19         0.00000E+00
    0.15389E-07         0.00000E+00         0.00000E+00
    0.15389E-07         0.16764E-19         0.00000E+00
    0.15389E-07         0.16620E-19         0.00000E+00
    0.15389E-07         0.15832E-19         0.00000E+00
    0.15389E-07         0.83819E-20         0.00000E+00
    0.15389E-07        -0.20068E-20         0.00000E+00
    0.15389E-07         0.16764E-19         0.00000E+00
    0.15389E-07         0.26077E-19         0.00000E+00
    0.15389E-07         0.14114E-19         0.00000E+00
    0.15389E-07         0.29381E-20         0.00000E+00
    0.15389E-07        -0.74506E-20         0.00000E+00
    0.15389E-07        -0.37253E-20         0.00000E+00
    0.15389E-07         0.63751E-20         0.00000E+00
    0.15389E-07         0.11176E-19         0.00000E+00
    0.15389E-07         0.12251E-19         0.00000E+00
    0.15389E-07         0.78719E-21         0.00000E+00
    0.15389E-07         0.00000E+00         0.00000E+00
    0.15389E-07         0.37253E-20         0.00000E+00
    0.15389E-07        -0.18626E-20         0.00000E+00
    0.15389E-07        -0.45125E-20         0.00000E+00
    0.15389E-07        -0.10755E-20         0.00000E+00
    0.15389E-07        -0.93132E-20         0.00000E+00
    0.15389E-07        -0.15688E-19         0.00000E+00
    0.15389E-07        -0.48007E-20         0.00000E+00
    0.15389E-07         0.11176E-19         0.00000E+00
    0.15389E-07         0.16764E-19         0.00000E+00
    0.15389E-07         0.82378E-20         0.00000E+00
    0.15389E-07        -0.78719E-21         0.00000E+00
    0.15389E-07        -0.93132E-20         0.00000E+00
    0.15389E-07        -0.85260E-20         0.00000E+00
    0.15389E-07         0.18626E-20         0.00000E+00
    0.15389E-07        -0.11963E-19         0.00000E+00
    0.15389E-07        -0.23139E-19         0.00000E+00
    0.15389E-07        -0.14901E-19         0.00000E+00
    0.15389E-07        -0.14114E-19         0.00000E+00
    0.15389E-07        -0.74506E-20         0.00000E+00
    0.15389E-07        -0.55879E-20         0.00000E+00
    0.15389E-07        -0.12251E-19         0.00000E+00
    0.15389E-07        -0.14901E-19         0.00000E+00
    0.16563E-07        -0.37253E-20         0.00000E+00
    0.16563E-07        -0.74506E-20         0.00000E+00
    0.16563E-07        -0.75506E-20         0.00000E+00
    0.16563E-07         0.18626E-20         0.00000E+00
    0.16563E-07         0.10000E-21         0.00000E+00
    0.16563E-07        -0.93132E-20         0.00000E+00
    0.16563E-07        -0.18626E-19         0.00000E+00
    0.16563E-07        -0.24214E-19         0.00000E+00
    0.16563E-07        -0.18626E-20         0.00000E+00
    0.16563E-07         0.14901E-19         0.00000E+00
    0.16563E-07         0.17626E-20         0.00000E+00
    0.16563E-07        -0.93132E-20         0.00000E+00
    0.16563E-07        -0.11076E-19         0.00000E+00
    0.16563E-07        -0.13139E-19         0.00000E+00
    0.16563E-07        -0.13039E-19         0.00000E+00
    0.16563E-07        -0.11176E-19         0.00000E+00
    0.16563E-07        -0.56879E-20         0.00000E+00
    0.16563E-07        -0.12939E-19         0.00000E+00
    0.16563E-07        -0.20389E-19         0.00000E+00
    0.16563E-07        -0.74506E-20         0.00000E+00
    0.16563E-07         0.13039E-19         0.00000E+00
    0.16563E-07         0.16664E-19         0.00000E+00
    0.16563E-07         0.11076E-19         0.00000E+00
    0.16563E-07         0.14901E-19         0.00000E+00
    0.16563E-07         0.94132E-20         0.00000E+00
    0.16563E-07         0.14901E-19         0.00000E+00
    0.16563E-07         0.12939E-19         0.00000E+00
    0.16563E-07         0.11176E-19         0.00000E+00
    0.16563E-07         0.16764E-19         0.00000E+00
    0.16563E-07         0.15001E-19         0.00000E+00
    0.16563E-07         0.15001E-19         0.00000E+00
    0.16563E-07        -0.10000E-21         0.00000E+00
    0.16563E-07        -0.14901E-19         0.00000E+00
    0.16563E-07        -0.46566E-20         0.00000E+00
    0.16563E-07         0.10245E-19         0.00000E+00
    0.16563E-07         0.75506E-20         0.00000E+00
    0.16563E-07        -0.37253E-20         0.00000E+00
    0.16563E-07        -0.20589E-19         0.00000E+00
    0.16563E-07        -0.94132E-20         0.00000E+00
    0.16563E-07         0.38253E-20         0.00000E+00
    0.16563E-07         0.19626E-20         0.00000E+00
    0.16563E-07        -0.75506E-20         0.00000E+00
    0.16563E-07        -0.20589E-19         0.00000E+00
    0.16563E-07        -0.22352E-19         0.00000E+00
    0.16563E-07        -0.24114E-19         0.00000E+00
    0.16563E-07        -0.25977E-19         0.00000E+00
    0.16563E-07        -0.16764E-19         0.00000E+00
    0.16563E-07        -0.55879E-20         0.00000E+00
    0.16563E-07        -0.18626E-20         0.00000E+00
    0.16563E-07         0.55879E-20         0.00000E+00
    0.16563E-07         0.11176E-19         0.00000E+00
    0.17858E-07        -0.74506E-20         0.00000E+00
    0.17858E-07        -0.78140E-20         0.00000E+00
    0.17858E-07        -0.40887E-20         0.00000E+00
    0.17858E-07        -0.70872E-20         0.00000E+00
    0.17858E-07        -0.12675E-19         0.00000E+00
    0.17858E-07        -0.31574E-20         0.00000E+00
    0.17858E-07         0.24305E-20         0.00000E+00
    0.17858E-07         0.40887E-20         0.00000E+00
    0.17858E-07        -0.52245E-20         0.00000E+00
    0.17858E-07        -0.93132E-20         0.00000E+00
    0.17858E-07         0.00000E+00         0.00000E+00
    0.17858E-07         0.11176E-19         0.00000E+00
    0.17858E-07         0.74506E-20         0.00000E+00
    0.17858E-07        -0.55879E-20         0.00000E+00
    0.17858E-07         0.00000E+00         0.00000E+00
    0.17858E-07        -0.37253E-20         0.00000E+00
    0.17858E-07        -0.18626E-19         0.00000E+00
    0.17858E-07        -0.13039E-19         0.00000E+00
    0.17858E-07        -0.33619E-20         0.00000E+00
    0.17858E-07        -0.55879E-20         0.00000E+00
    0.17858E-07        -0.22261E-20         0.00000E+00
    0.17858E-07         0.37253E-20         0.00000E+00
    0.17858E-07         0.18626E-20         0.00000E+00
    0.17858E-07         0.14992E-20         0.00000E+00
    0.17858E-07         0.14901E-19         0.00000E+00
    0.17858E-07         0.15265E-19         0.00000E+00
    0.17858E-07         0.93132E-20         0.00000E+00
    0.17858E-07         0.93132E-20         0.00000E+00
    0.17858E-07         0.11176E-19         0.00000E+00
    0.17858E-07         0.18626E-19         0.00000E+00
    0.17858E-07         0.93132E-20         0.00000E+00
    0.17858E-07         0.74506E-20         0.00000E+00
    0.17858E-07         0.55879E-20         0.00000E+00
    0.17858E-07        -0.74506E-20         0.00000E+00
    0.17858E-07        -0.11176E-19         0.00000E+00
    0.17858E-07        -0.89498E-20         0.00000E+00
    0.17858E-07        -0.27940E-20         0.00000E+00
    0.17858E-07        -0.50200E-20         0.00000E+00
    0.17858E-07        -0.13039E-19         0.00000E+00
    0.17858E-07        -0.13039E-19         0.00000E+00
    0.17858E-07        -0.80185E-20         0.00000E+00
    0.17858E-07        -0.83819E-20         0.00000E+00
    0.17858E-07        -0.16559E-19         0.00000E+00
    0.17858E-07        -0.23283E-19         0.00000E+00
    0.17858E-07        -0.18263E-19         0.00000E+00
    0.17858E-07        -0.14901E-19         0.00000E+00
    0.17858E-07        -0.19921E-19         0.00000E+00
    0.17858E-07        -0.11176E-19         0.00000E+00
    0.17858E-07        -0.42932E-20         0.00000E+00
    0.17858E-07        -0.18626E-20         0.00000E+00
    0.17858E-07        -0.74506E-20         0.00000E+00
    0.19280E-07         0.37253E-20         0.00000E+00
    0.19280E-07         0.93132E-20         0.00000E+00
    0.19280E-07         0.74506E-20         0.00000E+00
    0.19280E-07        -0.64796E-21         0.00000E+00
    0.19280E-07        -0.37253E-20         0.00000E+00
    0.19280E-07        -0.12147E-20         0.00000E+00
    0.19280E-07         0.11824E-19         0.00000E+00
    0.19280E-07         0.16764E-19         0.00000E+00
    0.19280E-07         0.17978E-19         0.00000E+00
    0.19280E-07         0.14901E-19         0.00000E+00
    0.19280E-07         0.37253E-20         0.00000E+00
    0.19280E-07         0.37253E-20         0.00000E+00
    0.19280E-07         0.93132E-20         0.00000E+00
    0.19280E-07         0.86653E-20         0.00000E+00
    0.19280E-07        -0.37253E-20         0.00000E+00
    0.19280E-07        -0.12391E-19         0.00000E+00
    0.19280E-07        -0.18626E-20         0.00000E+00
    0.19280E-07         0.37253E-20         0.00000E+00
    0.19280E-07         0.74506E-20         0.00000E+00
    0.19280E-07         0.74506E-20         0.00000E+00
    0.19280E-07         0.00000E+00         0.00000E+00
    0.19280E-07        -0.80985E-20         0.00000E+00
    0.19280E-07        -0.37253E-20         0.00000E+00
    0.19280E-07         0.74506E-20         0.00000E+00
    0.19280E-07        -0.18626E-20         0.00000E+00
    0.19280E-07        -0.11176E-19         0.00000E+00
    0.19280E-07        -0.19274E-19         0.00000E+00
    0.19280E-07        -0.23566E-19         0.00000E+00
    0.19280E-07        -0.23566E-19         0.00000E+00
    0.19280E-07        -0.16764E-19         0.00000E+00
    0.19280E-07         0.55879E-20         0.00000E+00
    0.19280E-07         0.10528E-19         0.00000E+00
    0.19280E-07         0.14253E-19         0.00000E+00
    0.19280E-07         0.11824E-19         0.00000E+00
    0.19280E-07        -0.12147E-20         0.00000E+00
    0.19280E-07        -0.37253E-20         0.00000E+00
    0.19280E-07        -0.18626E-20         0.00000E+00
    0.19280E-07         0.00000E+00         0.00000E+00
    0.19280E-07        -0.93132E-20         0.00000E+00
    0.19280E-07        -0.16764E-19         0.00000E+00
    0.19280E-07        -0.11176E-19         0.00000E+00
    0.19280E-07        -0.55879E-20         0.00000E+00
    0.19280E-07        -0.77339E-20         0.00000E+00
    0.19280E-07        -0.10893E-19         0.00000E+00
    0.19280E-07        -0.14618E-19         0.00000E+00
    0.19280E-07        -0.40086E-20         0.00000E+00
    0.19280E-07        -0.25106E-20         0.00000E+00
    0.19280E-07        -0.13970E-19         0.00000E+00
    0.19280E-07        -0.20772E-19         0.00000E+00
    0.19280E-07        -0.93132E-20         0.00000E+00
    0.19280E-07         0.37253E-20         0.00000E+00
    0.20832E-07         0.11176E-19         0.00000E+00
    0.20832E-07         0.93132E-20         0.00000E+00
    0.20832E-07         0.55879E-20         0.00000E+00
    0.20832E-07        -0.18626E-20         0.00000E+00
    0.20832E-07        -0.37253E-20         0.00000E+00
    0.20832E-07         0.37253E-20         0.00000E+00
    0.20832E-07         0.74506E-20         0.00000E+00
    0.20832E-07         0.13994E-19         0.00000E+00
    0.20832E-07         0.74506E-20         0.00000E+00
    0.20832E-07         0.74022E-20         0.00000E+00
    0.20832E-07         0.83577E-20         0.00000E+00
    0.20832E-07        -0.10220E-19         0.00000E+00
    0.20832E-07        -0.10220E-19         0.00000E+00
    0.20832E-07         0.00000E+00         0.00000E+00
    0.20832E-07         0.14901E-19         0.00000E+00
    0.20832E-07         0.16764E-19         0.00000E+00
    0.20832E-07        -0.18626E-20         0.00000E+00
    0.20832E-07        -0.55879E-20         0.00000E+00
    0.20832E-07         0.18626E-20         0.00000E+00
    0.20832E-07         0.00000E+00         0.00000E+00
    0.20832E-07         0.55879E-20         0.00000E+00
    0.20832E-07         0.13039E-19         0.00000E+00
    0.20832E-07         0.00000E+00         0.00000E+00
    0.20832E-07        -0.74506E-20         0.00000E+00
    0.20832E-07        -0.83577E-20         0.00000E+00
    0.20832E-07        -0.93132E-20         0.00000E+00
    0.20832E-07        -0.13994E-19         0.00000E+00
    0.20832E-07        -0.20489E-19         0.00000E+00
    0.20832E-07        -0.11176E-19         0.00000E+00
    0.20832E-07         0.00000E+00         0.00000E+00
    0.20832E-07         0.37253E-20         0.00000E+00
    0.20832E-07         0.10220E-19         0.00000E+00
    0.20832E-07         0.14901E-19         0.00000E+00
    0.20832E-07         0.10269E-19         0.00000E+00
    0.20832E-07         0.11176E-19         0.00000E+00
    0.20832E-07         0.74506E-20         0.00000E+00
    0.20832E-07         0.00000E+00         0.00000E+00
    0.20832E-07         0.00000E+00         0.00000E+00
    0.20832E-07        -0.37253E-20         0.00000E+00
    0.20832E-07        -0.14901E-19         0.00000E+00
    0.20832E-07        -0.18626E-19         0.00000E+00
    0.20832E-07        -0.13946E-19         0.00000E+00
    0.20832E-07        -0.14901E-19         0.00000E+00
    0.20832E-07        -0.12131E-19         0.00000E+00
    0.20832E-07        -0.37253E-20         0.00000E+00
    0.20832E-07        -0.18626E-20         0.00000E+00
    0.20832E-07        -0.37253E-20         0.00000E+00
    0.20832E-07         0.55879E-20         0.00000E+00
    0.20832E-07         0.13039E-19         0.00000E+00
    0.20832E-07         0.46808E-20         0.00000E+00
    0.20832E-07        -0.18143E-20         0.00000E+00
    0.22518E-07        -0.37253E-20         0.00000E+00
    0.22518E-07        -0.55879E-20         0.00000E+00
    0.22518E-07         0.18626E-20         0.00000E+00
    0.22518E-07         0.74506E-20         0.00000E+00
    0.22518E-07         0.59446E-20         0.00000E+00
    0.22518E-07         0.37253E-20         0.00000E+00
    0.22518E-07        -0.35664E-21         0.00000E+00
    0.22518E-07        -0.11533E-19         0.00000E+00
    0.22518E-07        -0.83819E-20         0.00000E+00
    0.22518E-07        -0.18626E-20         0.00000E+00
    0.22518E-07        -0.18626E-20         0.00000E+00
    0.22518E-07         0.87385E-20         0.00000E+00
    0.22518E-07         0.13039E-19         0.00000E+00
    0.22518E-07         0.74506E-20         0.00000E+00
    0.22518E-07        -0.55879E-20         0.00000E+00
    0.22518E-07        -0.98879E-20         0.00000E+00
    0.22518E-07        -0.37253E-20         0.00000E+00
    0.22518E-07         0.93132E-20         0.00000E+00
    0.22518E-07         0.37253E-20         0.00000E+00
    0.22518E-07         0.24373E-20         0.00000E+00
    0.22518E-07        -0.37253E-20         0.00000E+00
    0.22518E-07         0.37253E-20         0.00000E+00
    0.22518E-07         0.16764E-19         0.00000E+00
    0.22518E-07         0.93132E-20         0.00000E+00
    0.22518E-07         0.12880E-20         0.00000E+00
    0.22518E-07        -0.87385E-20         0.00000E+00
    0.22518E-07        -0.11533E-19         0.00000E+00
    0.22518E-07        -0.15060E-20         0.00000E+00
    0.22518E-07         0.37253E-20         0.00000E+00
    0.22518E-07         0.37253E-20         0.00000E+00
    0.22518E-07         0.93132E-20         0.00000E+00
    0.22518E-07         0.37253E-20         0.00000E+00
    0.22518E-07        -0.18626E-20         0.00000E+00
    0.22518E-07         0.40819E-20         0.00000E+00
    0.22518E-07        -0.18626E-20         0.00000E+00
    0.22518E-07        -0.22193E-20         0.00000E+00
    0.22518E-07         0.55879E-20         0.00000E+00
    0.22518E-07        -0.37253E-20         0.00000E+00
    0.22518E-07        -0.55879E-20         0.00000E+00
    0.22518E-07         0.00000E+00         0.00000E+00
    0.22518E-07         0.00000E+00         0.00000E+00
    0.22518E-07         0.55879E-20         0.00000E+00
    0.22518E-07         0.55879E-20         0.00000E+00
    0.22518E-07         0.12880E-20         0.00000E+00
    0.22518E-07        -0.37253E-20         0.00000E+00
    0.22518E-07         0.58060E-20         0.00000E+00
    0.22518E-07         0.93132E-20         0.00000E+00
    0.22518E-07        -0.61626E-20         0.00000E+00
    0.22518E-07        -0.74506E-20         0.00000E+00
    0.22518E-07        -0.57468E-21         0.00000E+00
    0.22518E-07         0.25759E-20         0.00000E+00
    0.24343E-07         0.11176E-19         0.00000E+00
    0.24343E-07         0.37253E-20         0.00000E+00
    0.24343E-07         0.44413E-20         0.00000E+00
    0.24343E-07         0.13755E-19         0.00000E+00
    0.24343E-07         0.93132E-20         0.00000E+00
    0.24343E-07         0.18626E-20         0.00000E+00
    0.24343E-07        -0.25787E-20         0.00000E+00
    0.24343E-07        -0.23634E-20         0.00000E+00
    0.24343E-07        -0.72353E-20         0.00000E+00
    0.24343E-07        -0.30092E-20         0.00000E+00
    0.24343E-07        -0.11466E-20         0.00000E+00
    0.24343E-07        -0.74506E-20         0.00000E+00
    0.24343E-07        -0.37253E-20         0.00000E+00
    0.24343E-07         0.95285E-20         0.00000E+00
    0.24343E-07         0.15832E-19         0.00000E+00
    0.24343E-07         0.63040E-20         0.00000E+00
    0.24343E-07         0.74506E-20         0.00000E+00
    0.24343E-07         0.10961E-19         0.00000E+00
    0.24343E-07         0.55879E-20         0.00000E+00
    0.24343E-07         0.58032E-20         0.00000E+00
    0.24343E-07         0.11176E-19         0.00000E+00
    0.24343E-07         0.11176E-19         0.00000E+00
    0.24343E-07        -0.21528E-21         0.00000E+00
    0.24343E-07        -0.46566E-20         0.00000E+00
    0.24343E-07        -0.55879E-20         0.00000E+00
    0.24343E-07        -0.81666E-20         0.00000E+00
    0.24343E-07        -0.71605E-21         0.00000E+00
    0.24343E-07         0.10745E-19         0.00000E+00
    0.24343E-07         0.65193E-20         0.00000E+00
    0.24343E-07        -0.35100E-20         0.00000E+00
    0.24343E-07        -0.74506E-20         0.00000E+00
    0.24343E-07         0.55879E-20         0.00000E+00
    0.24343E-07         0.93132E-20         0.00000E+00
    0.24343E-07         0.74506E-20         0.00000E+00
    0.24343E-07         0.74506E-20         0.00000E+00
    0.24343E-07         0.18626E-20         0.00000E+00
    0.24343E-07        -0.37253E-20         0.00000E+00
    0.24343E-07         0.37253E-20         0.00000E+00
    0.24343E-07         0.55879E-20         0.00000E+00
    0.24343E-07         0.00000E+00         0.00000E+00
    0.24343E-07         0.74506E-20         0.00000E+00
    0.24343E-07         0.11391E-19         0.00000E+00
    0.24343E-07         0.18626E-20         0.00000E+00
    0.24343E-07        -0.39406E-20         0.00000E+00
    0.24343E-07         0.16474E-20         0.00000E+00
    0.24343E-07         0.35100E-20         0.00000E+00
    0.24343E-07         0.93132E-20         0.00000E+00
    0.24343E-07         0.18842E-19         0.00000E+00
    0.24343E-07         0.24430E-19         0.00000E+00
    0.24343E-07         0.12823E-19         0.00000E+00
    0.24343E-07         0.70200E-20         0.00000E+00
    0.26311E-07         0.22089E-20         0.00000E+00
    0.26311E-07         0.74506E-20         0.00000E+00
    0.26311E-07         0.15659E-19         0.00000E+00
    0.26311E-07         0.11176E-19         0.00000E+00
    0.26311E-07         0.29671E-20         0.00000E+00
    0.26311E-07        -0.47645E-33         0.00000E+00
    0.26311E-07         0.44835E-20         0.00000E+00
    0.26311E-07         0.93132E-20         0.00000E+00
    0.26311E-07         0.16006E-19         0.00000E+00
    0.26311E-07         0.14901E-19         0.00000E+00
    0.26311E-07         0.37253E-20         0.00000E+00
    0.26311E-07         0.18626E-20         0.00000E+00
    0.26311E-07         0.75821E-21         0.00000E+00
    0.26311E-07        -0.37253E-20         0.00000E+00
    0.26311E-07         0.00000E+00         0.00000E+00
    0.26311E-07         0.16764E-19         0.00000E+00
    0.26311E-07         0.11176E-19         0.00000E+00
    0.26311E-07         0.18626E-20         0.00000E+00
    0.26311E-07         0.11044E-20         0.00000E+00
    0.26311E-07         0.00000E+00         0.00000E+00
    0.26311E-07        -0.11044E-20         0.00000E+00
    0.26311E-07        -0.55879E-20         0.00000E+00
    0.26311E-07        -0.14901E-19         0.00000E+00
    0.26311E-07        -0.10418E-19         0.00000E+00
    0.26311E-07         0.48297E-20         0.00000E+00
    0.26311E-07         0.37253E-20         0.00000E+00
    0.26311E-07         0.11934E-19         0.00000E+00
    0.26311E-07         0.16006E-19         0.00000E+00
    0.26311E-07         0.74506E-20         0.00000E+00
    0.26311E-07         0.13039E-19         0.00000E+00
    0.26311E-07         0.14901E-19         0.00000E+00
    0.26311E-07         0.14901E-19         0.00000E+00
    0.26311E-07         0.11176E-19         0.00000E+00
    0.26311E-07         0.18626E-20         0.00000E+00
    0.26311E-07         0.93132E-20         0.00000E+00
    0.26311E-07         0.19731E-19         0.00000E+00
    0.26311E-07         0.22352E-19         0.00000E+00
    0.26311E-07         0.19385E-19         0.00000E+00
    0.26311E-07         0.23456E-19         0.00000E+00
    0.26311E-07         0.14901E-19         0.00000E+00
    0.26311E-07         0.00000E+00         0.00000E+00
    0.26311E-07        -0.13241E-33         0.00000E+00
    0.26311E-07         0.44835E-20         0.00000E+00
    0.26311E-07         0.11176E-19         0.00000E+00
    0.26311E-07         0.21594E-19         0.00000E+00
    0.26311E-07         0.16764E-19         0.00000E+00
    0.26311E-07         0.44835E-20         0.00000E+00
    0.26311E-07         0.14901E-19         0.00000E+00
    0.26311E-07         0.19731E-19         0.00000E+00
    0.26311E-07         0.66924E-20         0.00000E+00
    0.26311E-07         0.00000E+00         0.00000E+00
    0.28424E-07         0.00000E+00         0.00000E+00
    0.28424E-07         0.37253E-20         0.00000E+00
    0.28424E-07         0.43179E-20         0.00000E+00
    0.28424E-07        -0.31327E-20         0.00000E+00
    0.28424E-07        -0.74506E-20         0.00000E+00
    0.28424E-07        -0.52492E-20         0.00000E+00
    0.28424E-07        -0.95290E-33         0.00000E+00
    0.28424E-07        -0.93132E-20         0.00000E+00
    0.28424E-07        -0.16425E-19         0.00000E+00
    0.28424E-07        -0.13039E-19         0.00000E+00
    0.28424E-07         0.18626E-20         0.00000E+00
    0.28424E-07         0.55879E-20         0.00000E+00
    0.28424E-07         0.37253E-20         0.00000E+00
    0.28424E-07         0.37253E-20         0.00000E+00
    0.28424E-07        -0.18626E-20         0.00000E+00
    0.28424E-07        -0.55879E-20         0.00000E+00
    0.28424E-07        -0.93132E-20         0.00000E+00
    0.28424E-07        -0.13377E-19         0.00000E+00
    0.28424E-07        -0.77893E-20         0.00000E+00
    0.28424E-07        -0.10837E-19         0.00000E+00
    0.28424E-07        -0.13039E-19         0.00000E+00
    0.28424E-07        -0.13377E-19         0.00000E+00
    0.28424E-07         0.18626E-20         0.00000E+00
    0.28424E-07         0.53341E-20         0.00000E+00
    0.28424E-07         0.13039E-19         0.00000E+00
    0.28424E-07         0.29464E-19         0.00000E+00
    0.28424E-07         0.22352E-19         0.00000E+00
    0.28424E-07         0.61805E-20         0.00000E+00
    0.28424E-07         0.49953E-20         0.00000E+00
    0.28424E-07         0.68580E-20         0.00000E+00
    0.28424E-07         0.11176E-19         0.00000E+00
    0.28424E-07         0.14901E-19         0.00000E+00
    0.28424E-07         0.26077E-19         0.00000E+00
    0.28424E-07         0.35390E-19         0.00000E+00
    0.28424E-07         0.27940E-19         0.00000E+00
    0.28424E-07         0.23876E-19         0.00000E+00
    0.28424E-07         0.18626E-19         0.00000E+00
    0.28424E-07         0.26416E-19         0.00000E+00
    0.28424E-07         0.26077E-19         0.00000E+00
    0.28424E-07         0.20489E-19         0.00000E+00
    0.28424E-07         0.26077E-19         0.00000E+00
    0.28424E-07         0.16764E-19         0.00000E+00
    0.28424E-07         0.12700E-19         0.00000E+00
    0.28424E-07         0.74506E-20         0.00000E+00
    0.28424E-07         0.27940E-20         0.00000E+00
    0.28424E-07         0.21082E-19         0.00000E+00
    0.28424E-07         0.20489E-19         0.00000E+00
    0.28424E-07         0.77893E-20         0.00000E+00
    0.28424E-07        -0.33866E-20         0.00000E+00
    0.28424E-07        -0.40640E-20         0.00000E+00
    0.28424E-07         0.67731E-20         0.00000E+00
    0.30686E-07         0.00000E+00         0.00000E+00
    0.30686E-07        -0.64053E-20         0.00000E+00
    0.30686E-07        -0.11176E-19         0.00000E+00
    0.30686E-07        -0.66332E-20         0.00000E+00
    0.30686E-07         0.66332E-20         0.00000E+00
    0.30686E-07         0.14084E-19         0.00000E+00
    0.30686E-07         0.26800E-20         0.00000E+00
    0.30686E-07         0.55879E-20         0.00000E+00
    0.30686E-07         0.14084E-19         0.00000E+00
    0.30686E-07         0.45427E-20         0.00000E+00
    0.30686E-07        -0.55879E-20         0.00000E+00
    0.30686E-07        -0.64053E-20         0.00000E+00
    0.30686E-07        -0.84959E-20         0.00000E+00
    0.30686E-07        -0.84959E-20         0.00000E+00
    0.30686E-07        -0.37253E-20         0.00000E+00
    0.30686E-07        -0.64053E-20         0.00000E+00
    0.30686E-07        -0.26800E-20         0.00000E+00
    0.30686E-07         0.00000E+00         0.00000E+00
    0.30686E-07         0.00000E+00         0.00000E+00
    0.30686E-07         0.15719E-19         0.00000E+00
    0.30686E-07         0.18626E-19         0.00000E+00
    0.30686E-07         0.18626E-20         0.00000E+00
    0.30686E-07        -0.74506E-20         0.00000E+00
    0.30686E-07        -0.81737E-21         0.00000E+00
    0.30686E-07         0.93132E-20         0.00000E+00
    0.30686E-07         0.55879E-20         0.00000E+00
    0.30686E-07         0.37253E-20         0.00000E+00
    0.30686E-07         0.93132E-20         0.00000E+00
    0.30686E-07         0.11176E-19         0.00000E+00
    0.30686E-07         0.82680E-20         0.00000E+00
    0.30686E-07         0.74506E-20         0.00000E+00
    0.30686E-07         0.14901E-19         0.00000E+00
    0.30686E-07         0.18626E-19         0.00000E+00
    0.30686E-07         0.17809E-19         0.00000E+00
    0.30686E-07         0.25032E-19         0.00000E+00
    0.30686E-07         0.27940E-19         0.00000E+00
    0.30686E-07         0.22352E-19         0.00000E+00
    0.30686E-07         0.22352E-19         0.00000E+00
    0.30686E-07         0.34573E-19         0.00000E+00
    0.30686E-07         0.26894E-19         0.00000E+00
    0.30686E-07         0.93132E-20         0.00000E+00
    0.30686E-07         0.84959E-20         0.00000E+00
    0.30686E-07         0.73366E-20         0.00000E+00
    0.30686E-07         0.11062E-19         0.00000E+00
    0.30686E-07         0.47706E-20         0.00000E+00
    0.30686E-07         0.93132E-21         0.00000E+00
    0.30686E-07        -0.10453E-20         0.00000E+00
    0.30686E-07         0.19766E-20         0.00000E+00
    0.30686E-07         0.15832E-19         0.00000E+00
    0.30686E-07         0.83819E-20         0.00000E+00
    0.30686E-07         0.39532E-20         0.00000E+00
    0.33100E-07         0.67920E-20         0.00000E+00
    0.33100E-07         0.65193E-20         0.00000E+00
    0.33100E-07         0.68486E-20         0.00000E+00
    0.33100E-07         0.99152E-20         0.00000E+00
    0.33100E-07         0.15503E-19         0.00000E+00
    0.33100E-07         0.13039E-19         0.00000E+00
    0.33100E-07         0.31233E-20         0.00000E+00
    0.33100E-07         0.27940E-20         0.00000E+00
    0.33100E-07        -0.27940E-20         0.00000E+00
    0.33100E-07        -0.11778E-19         0.00000E+00
    0.33100E-07        -0.37253E-20         0.00000E+00
    0.33100E-07        -0.68486E-20         0.00000E+00
    0.33100E-07        -0.87112E-20         0.00000E+00
    0.33100E-07        -0.43273E-20         0.00000E+00
    0.33100E-07         0.12606E-20         0.00000E+00
    0.33100E-07         0.11778E-19         0.00000E+00
    0.33100E-07         0.99152E-20         0.00000E+00
    0.33100E-07         0.55879E-20         0.00000E+00
    0.33100E-07         0.00000E+00         0.00000E+00
    0.33100E-07         0.18626E-20         0.00000E+00
    0.33100E-07         0.37253E-20         0.00000E+00
    0.33100E-07         0.00000E+00         0.00000E+00
    0.33100E-07        -0.37253E-20         0.00000E+00
    0.33100E-07        -0.80526E-20         0.00000E+00
    0.33100E-07        -0.37253E-20         0.00000E+00
    0.33100E-07         0.74506E-20         0.00000E+00
    0.33100E-07         0.74506E-20         0.00000E+00
    0.33100E-07        -0.68486E-20         0.00000E+00
    0.33100E-07        -0.13039E-19         0.00000E+00
    0.33100E-07        -0.80526E-20         0.00000E+00
    0.33100E-07         0.46566E-20         0.00000E+00
    0.33100E-07         0.93132E-20         0.00000E+00
    0.33100E-07         0.19558E-19         0.00000E+00
    0.33100E-07         0.30404E-19         0.00000E+00
    0.33100E-07         0.31665E-19         0.00000E+00
    0.33100E-07         0.44703E-19         0.00000E+00
    0.33100E-07         0.50291E-19         0.00000E+00
    0.33100E-07         0.29802E-19         0.00000E+00
    0.33100E-07         0.14299E-19         0.00000E+00
    0.33100E-07         0.18024E-19         0.00000E+00
    0.33100E-07         0.16764E-19         0.00000E+00
    0.33100E-07         0.52586E-20         0.00000E+00
    0.33100E-07         0.83819E-20         0.00000E+00
    0.33100E-07         0.14299E-19         0.00000E+00
    0.33100E-07         0.18297E-19         0.00000E+00
    0.33100E-07         0.16434E-19         0.00000E+00
    0.33100E-07         0.59172E-20         0.00000E+00
    0.33100E-07         0.32931E-21         0.00000E+00
    0.33100E-07        -0.77799E-20         0.00000E+00
    0.33100E-07        -0.11505E-19         0.00000E+00
    0.33100E-07        -0.74506E-20         0.00000E+00
    0.35665E-07         0.51953E-20         0.00000E+00
    0.35665E-07        -0.29903E-20         0.00000E+00
    0.35665E-07         0.11276E-20         0.00000E+00
    0.35665E-07         0.29903E-20         0.00000E+00
    0.35665E-07         0.00000E+00         0.00000E+00
    0.35665E-07         0.55879E-20         0.00000E+00
    0.35665E-07         0.63230E-20         0.00000E+00
    0.35665E-07         0.55879E-20         0.00000E+00
    0.35665E-07        -0.73502E-21         0.00000E+00
    0.35665E-07         0.44603E-20         0.00000E+00
    0.35665E-07         0.15636E-19         0.00000E+00
    0.35665E-07         0.13039E-19         0.00000E+00
    0.35665E-07         0.85782E-20         0.00000E+00
    0.35665E-07         0.37253E-20         0.00000E+00
    0.35665E-07        -0.74506E-20         0.00000E+00
    0.35665E-07        -0.10048E-19         0.00000E+00
    0.35665E-07         0.25977E-20         0.00000E+00
    0.35665E-07         0.93132E-20         0.00000E+00
    0.35665E-07         0.85782E-20         0.00000E+00
    0.35665E-07        -0.18626E-20         0.00000E+00
    0.35665E-07        -0.37253E-20         0.00000E+00
    0.35665E-07         0.00000E+00         0.00000E+00
    0.35665E-07        -0.74506E-20         0.00000E+00
    0.35665E-07        -0.17891E-19         0.00000E+00
    0.35665E-07        -0.20489E-19         0.00000E+00
    0.35665E-07        -0.81856E-20         0.00000E+00
    0.35665E-07        -0.37253E-20         0.00000E+00
    0.35665E-07        -0.37253E-20         0.00000E+00
    0.35665E-07        -0.18626E-20         0.00000E+00
    0.35665E-07         0.18626E-20         0.00000E+00
    0.35665E-07         0.13039E-19         0.00000E+00
    0.35665E-07         0.24949E-19         0.00000E+00
    0.35665E-07         0.37253E-19         0.00000E+00
    0.35665E-07         0.42841E-19         0.00000E+00
    0.35665E-07         0.35390E-19         0.00000E+00
    0.35665E-07         0.21617E-19         0.00000E+00
    0.35665E-07         0.81856E-20         0.00000E+00
    0.35665E-07         0.73502E-21         0.00000E+00
    0.35665E-07         0.55879E-20         0.00000E+00
    0.35665E-07         0.74506E-20         0.00000E+00
    0.35665E-07         0.10441E-19         0.00000E+00
    0.35665E-07         0.16029E-19         0.00000E+00
    0.35665E-07         0.74506E-20         0.00000E+00
    0.35665E-07         0.00000E+00         0.00000E+00
    0.35665E-07        -0.37253E-20         0.00000E+00
    0.35665E-07        -0.37253E-20         0.00000E+00
    0.35665E-07        -0.55879E-20         0.00000E+00
    0.35665E-07        -0.29903E-20         0.00000E+00
    0.35665E-07         0.73502E-21         0.00000E+00
    0.35665E-07         0.19630E-21         0.00000E+00
    0.35665E-07        -0.33327E-20         0.00000E+00
    0.38384E-07         0.37253E-20         0.00000E+00
    0.38384E-07         0.93132E-20         0.00000E+00
    0.38384E-07         0.13208E-19         0.00000E+00
    0.38384E-07         0.27940E-20         0.00000E+00
    0.38384E-07        -0.48263E-20         0.00000E+00
    0.38384E-07        -0.11176E-19         0.00000E+00
    0.38384E-07        -0.18626E-19         0.00000E+00
    0.38384E-07        -0.18626E-19         0.00000E+00
    0.38384E-07        -0.93132E-20         0.00000E+00
    0.38384E-07        -0.37253E-20         0.00000E+00
    0.38384E-07        -0.74506E-20         0.00000E+00
    0.38384E-07         0.29637E-20         0.00000E+00
    0.38384E-07         0.10414E-19         0.00000E+00
    0.38384E-07         0.00000E+00         0.00000E+00
    0.38384E-07         0.35556E-20         0.00000E+00
    0.38384E-07        -0.16969E-21         0.00000E+00
    0.38384E-07        -0.18626E-20         0.00000E+00
    0.38384E-07         0.37253E-20         0.00000E+00
    0.38384E-07        -0.37253E-20         0.00000E+00
    0.38384E-07        -0.11176E-19         0.00000E+00
    0.38384E-07        -0.13039E-19         0.00000E+00
    0.38384E-07        -0.16764E-19         0.00000E+00
    0.38384E-07        -0.16764E-19         0.00000E+00
    0.38384E-07        -0.93132E-20         0.00000E+00
    0.38384E-07        -0.93132E-20         0.00000E+00
    0.38384E-07        -0.14901E-19         0.00000E+00
    0.38384E-07        -0.18626E-19         0.00000E+00
    0.38384E-07        -0.16764E-19         0.00000E+00
    0.38384E-07        -0.11176E-19         0.00000E+00
    0.38384E-07        -0.55879E-20         0.00000E+00
    0.38384E-07         0.00000E+00         0.00000E+00
    0.38384E-07         0.76203E-20         0.00000E+00
    0.38384E-07         0.12107E-19         0.00000E+00
    0.38384E-07         0.13800E-19         0.00000E+00
    0.38384E-07         0.16764E-19         0.00000E+00
    0.38384E-07         0.24214E-19         0.00000E+00
    0.38384E-07         0.24214E-19         0.00000E+00
    0.38384E-07         0.13039E-19         0.00000E+00
    0.38384E-07         0.93132E-20         0.00000E+00
    0.38384E-07         0.16933E-19         0.00000E+00
    0.38384E-07         0.14901E-19         0.00000E+00
    0.38384E-07         0.13039E-19         0.00000E+00
    0.38384E-07         0.11346E-19         0.00000E+00
    0.38384E-07        -0.18626E-20         0.00000E+00
    0.38384E-07        -0.57576E-20         0.00000E+00
    0.38384E-07        -0.94829E-20         0.00000E+00
    0.38384E-07        -0.20319E-19         0.00000E+00
    0.38384E-07        -0.29802E-19         0.00000E+00
    0.38384E-07        -0.13208E-19         0.00000E+00
    0.38384E-07         0.16930E-20         0.00000E+00
    0.38384E-07        -0.33937E-21         0.00000E+00
    0.41256E-07        -0.74506E-20         0.00000E+00
    0.41256E-07        -0.37253E-20         0.00000E+00
    0.41256E-07         0.55879E-20         0.00000E+00
    0.41256E-07         0.37253E-20         0.00000E+00
    0.41256E-07        -0.74506E-20         0.00000E+00
    0.41256E-07        -0.69568E-20         0.00000E+00
    0.41256E-07        -0.37253E-20         0.00000E+00
    0.41256E-07        -0.74506E-20         0.00000E+00
    0.41256E-07        -0.11176E-19         0.00000E+00
    0.41256E-07        -0.23564E-20         0.00000E+00
    0.41256E-07         0.11176E-19         0.00000E+00
    0.41256E-07         0.74506E-20         0.00000E+00
    0.41256E-07         0.00000E+00         0.00000E+00
    0.41256E-07         0.23564E-20         0.00000E+00
    0.41256E-07        -0.18626E-20         0.00000E+00
    0.41256E-07        -0.60817E-20         0.00000E+00
    0.41256E-07        -0.88194E-20         0.00000E+00
    0.41256E-07        -0.16764E-19         0.00000E+00
    0.41256E-07        -0.20983E-19         0.00000E+00
    0.41256E-07        -0.20489E-19         0.00000E+00
    0.41256E-07        -0.20489E-19         0.00000E+00
    0.41256E-07        -0.18626E-19         0.00000E+00
    0.41256E-07        -0.18626E-19         0.00000E+00
    0.41256E-07        -0.26077E-19         0.00000E+00
    0.41256E-07        -0.29802E-19         0.00000E+00
    0.41256E-07        -0.29309E-19         0.00000E+00
    0.41256E-07        -0.18626E-19         0.00000E+00
    0.41256E-07        -0.20983E-19         0.00000E+00
    0.41256E-07        -0.22352E-19         0.00000E+00
    0.41256E-07        -0.55879E-20         0.00000E+00
    0.41256E-07         0.93132E-20         0.00000E+00
    0.41256E-07         0.74506E-20         0.00000E+00
    0.41256E-07         0.93132E-20         0.00000E+00
    0.41256E-07         0.22352E-19         0.00000E+00
    0.41256E-07         0.18626E-19         0.00000E+00
    0.41256E-07         0.11176E-19         0.00000E+00
    0.41256E-07         0.14901E-19         0.00000E+00
    0.41256E-07         0.20489E-19         0.00000E+00
    0.41256E-07         0.11176E-19         0.00000E+00
    0.41256E-07         0.55879E-20         0.00000E+00
    0.41256E-07         0.42191E-20         0.00000E+00
    0.41256E-07        -0.50942E-20         0.00000E+00
    0.41256E-07        -0.11670E-19         0.00000E+00
    0.41256E-07        -0.74506E-20         0.00000E+00
    0.41256E-07        -0.14901E-19         0.00000E+00
    0.41256E-07        -0.16764E-19         0.00000E+00
    0.41256E-07        -0.13039E-19         0.00000E+00
    0.41256E-07        -0.10738E-19         0.00000E+00
    0.41256E-07        -0.18626E-20         0.00000E+00
    0.41256E-07         0.32315E-20         0.00000E+00
    0.41256E-07         0.64630E-20         0.00000E+00
    0.44278E-07         0.15477E-20         0.00000E+00
    0.44278E-07        -0.18626E-20         0.00000E+00
    0.44278E-07        -0.26365E-20         0.00000E+00
    0.44278E-07        -0.18626E-20         0.00000E+00
    0.44278E-07         0.00000E+00         0.00000E+00
    0.44278E-07        -0.18626E-20         0.00000E+00
    0.44278E-07        -0.74506E-20         0.00000E+00
    0.44278E-07        -0.93132E-20         0.00000E+00
    0.44278E-07        -0.11176E-19         0.00000E+00
    0.44278E-07        -0.74506E-20         0.00000E+00
    0.44278E-07        -0.37253E-20         0.00000E+00
    0.44278E-07        -0.18626E-20         0.00000E+00
    0.44278E-07         0.55879E-20         0.00000E+00
    0.44278E-07         0.11176E-19         0.00000E+00
    0.44278E-07         0.18626E-20         0.00000E+00
    0.44278E-07        -0.37253E-20         0.00000E+00
    0.44278E-07         0.00000E+00         0.00000E+00
    0.44278E-07        -0.55879E-20         0.00000E+00
    0.44278E-07        -0.14901E-19         0.00000E+00
    0.44278E-07        -0.22352E-19         0.00000E+00
    0.44278E-07        -0.22352E-19         0.00000E+00
    0.44278E-07        -0.93132E-20         0.00000E+00
    0.44278E-07        -0.55879E-20         0.00000E+00
    0.44278E-07        -0.85394E-20         0.00000E+00
    0.44278E-07        -0.20489E-19         0.00000E+00
    0.44278E-07        -0.29802E-19         0.00000E+00
    0.44278E-07        -0.32596E-19         0.00000E+00
    0.44278E-07        -0.22194E-19         0.00000E+00
    0.44278E-07        -0.16764E-19         0.00000E+00
    0.44278E-07        -0.20489E-19         0.00000E+00
    0.44278E-07        -0.14901E-19         0.00000E+00
    0.44278E-07        -0.57454E-20         0.00000E+00
    0.44278E-07         0.27940E-20         0.00000E+00
    0.44278E-07         0.48141E-20         0.00000E+00
    0.44278E-07         0.93132E-20         0.00000E+00
    0.44278E-07         0.93132E-20         0.00000E+00
    0.44278E-07         0.93132E-20         0.00000E+00
    0.44278E-07         0.37253E-20         0.00000E+00
    0.44278E-07        -0.18626E-20         0.00000E+00
    0.44278E-07        -0.18626E-20         0.00000E+00
    0.44278E-07        -0.18626E-20         0.00000E+00
    0.44278E-07        -0.37253E-20         0.00000E+00
    0.44278E-07        -0.74506E-20         0.00000E+00
    0.44278E-07        -0.18626E-19         0.00000E+00
    0.44278E-07        -0.24214E-19         0.00000E+00
    0.44278E-07        -0.22509E-19         0.00000E+00
    0.44278E-07        -0.17695E-19         0.00000E+00
    0.44278E-07        -0.91558E-20         0.00000E+00
    0.44278E-07        -0.18626E-20         0.00000E+00
    0.44278E-07         0.20201E-20         0.00000E+00
    0.44278E-07         0.31492E-21         0.00000E+00
    0.47449E-07         0.00000E+00         0.00000E+00
    0.47449E-07         0.76529E-22         0.00000E+00
    0.47449E-07        -0.55879E-20         0.00000E+00
    0.47449E-07        -0.13970E-19         0.00000E+00
    0.47449E-07        -0.93132E-20         0.00000E+00
    0.47449E-07         0.45801E-20         0.00000E+00
    0.47449E-07         0.93132E-20         0.00000E+00
    0.47449E-07         0.13039E-19         0.00000E+00
    0.47449E-07         0.00000E+00         0.00000E+00
    0.47449E-07        -0.18626E-20         0.00000E+00
    0.47449E-07         0.00000E+00         0.00000E+00
    0.47449E-07        -0.55114E-20         0.00000E+00
    0.47449E-07         0.17861E-20         0.00000E+00
    0.47449E-07         0.17861E-20         0.00000E+00
    0.47449E-07        -0.36488E-20         0.00000E+00
    0.47449E-07         0.00000E+00         0.00000E+00
    0.47449E-07        -0.93132E-20         0.00000E+00
    0.47449E-07        -0.16764E-19         0.00000E+00
    0.47449E-07        -0.13039E-19         0.00000E+00
    0.47449E-07        -0.16764E-19         0.00000E+00
    0.47449E-07        -0.22352E-19         0.00000E+00
    0.47449E-07        -0.26077E-19         0.00000E+00
    0.47449E-07        -0.27940E-19         0.00000E+00
    0.47449E-07        -0.22275E-19         0.00000E+00
    0.47449E-07        -0.14901E-19         0.00000E+00
    0.47449E-07        -0.27940E-19         0.00000E+00
    0.47449E-07        -0.37253E-19         0.00000E+00
    0.47449E-07        -0.24291E-19         0.00000E+00
    0.47449E-07        -0.14901E-19         0.00000E+00
    0.47449E-07        -0.14901E-19         0.00000E+00
    0.47449E-07        -0.13039E-19         0.00000E+00
    0.47449E-07        -0.11176E-19         0.00000E+00
    0.47449E-07        -0.13039E-19         0.00000E+00
    0.47449E-07        -0.37253E-20         0.00000E+00
    0.47449E-07        -0.18626E-20         0.00000E+00
    0.47449E-07         0.85479E-21         0.00000E+00
    0.47449E-07         0.93132E-20         0.00000E+00
    0.47449E-07         0.12184E-19         0.00000E+00
    0.47449E-07         0.74506E-20         0.00000E+00
    0.47449E-07         0.93132E-20         0.00000E+00
    0.47449E-07         0.10079E-20         0.00000E+00
    0.47449E-07        -0.27940E-20         0.00000E+00
    0.47449E-07         0.36488E-20         0.00000E+00
    0.47449E-07         0.76529E-22         0.00000E+00
    0.47449E-07        -0.12107E-19         0.00000E+00
    0.47449E-07        -0.65958E-20         0.00000E+00
    0.47449E-07        -0.93898E-20         0.00000E+00
    0.47449E-07        -0.15756E-19         0.00000E+00
    0.47449E-07        -0.20336E-19         0.00000E+00
    0.47449E-07        -0.57410E-20         0.00000E+00
    0.47449E-07         0.34192E-20         0.00000E+00
    0.50762E-07         0.37253E-20         0.00000E+00
    0.50762E-07         0.74506E-20         0.00000E+00
    0.50762E-07         0.90508E-20         0.00000E+00
    0.50762E-07         0.74506E-20         0.00000E+00
    0.50762E-07        -0.16002E-20         0.00000E+00
    0.50762E-07        -0.55879E-20         0.00000E+00
    0.50762E-07         0.58504E-20         0.00000E+00
    0.50762E-07         0.11176E-19         0.00000E+00
    0.50762E-07         0.90508E-20         0.00000E+00
    0.50762E-07         0.00000E+00         0.00000E+00
    0.50762E-07        -0.37253E-20         0.00000E+00
    0.50762E-07         0.00000E+00         0.00000E+00
    0.50762E-07         0.18626E-20         0.00000E+00
    0.50762E-07         0.21251E-20         0.00000E+00
    0.50762E-07        -0.88670E-33         0.00000E+00
    0.50762E-07         0.18626E-20         0.00000E+00
    0.50762E-07        -0.18626E-20         0.00000E+00
    0.50762E-07        -0.13301E-19         0.00000E+00
    0.50762E-07        -0.18626E-19         0.00000E+00
    0.50762E-07        -0.22352E-19         0.00000E+00
    0.50762E-07        -0.37253E-19         0.00000E+00
    0.50762E-07        -0.39116E-19         0.00000E+00
    0.50762E-07        -0.20489E-19         0.00000E+00
    0.50762E-07        -0.16764E-19         0.00000E+00
    0.50762E-07        -0.29802E-19         0.00000E+00
    0.50762E-07        -0.35390E-19         0.00000E+00
    0.50762E-07        -0.26077E-19         0.00000E+00
    0.50762E-07        -0.18626E-19         0.00000E+00
    0.50762E-07        -0.20489E-19         0.00000E+00
    0.50762E-07        -0.11176E-19         0.00000E+00
    0.50762E-07         0.00000E+00         0.00000E+00
    0.50762E-07        -0.37253E-20         0.00000E+00
    0.50762E-07        -0.18626E-20         0.00000E+00
    0.50762E-07         0.00000E+00         0.00000E+00
    0.50762E-07        -0.55879E-20         0.00000E+00
    0.50762E-07        -0.93132E-20         0.00000E+00
    0.50762E-07        -0.62568E-20         0.00000E+00
    0.50762E-07        -0.25315E-20         0.00000E+00
    0.50762E-07         0.66889E-21         0.00000E+00
    0.50762E-07         0.81195E-20         0.00000E+00
    0.50762E-07         0.74506E-20         0.00000E+00
    0.50762E-07         0.74506E-20         0.00000E+00
    0.50762E-07         0.93132E-20         0.00000E+00
    0.50762E-07         0.74506E-20         0.00000E+00
    0.50762E-07         0.00000E+00         0.00000E+00
    0.50762E-07        -0.11176E-19         0.00000E+00
    0.50762E-07        -0.14901E-19         0.00000E+00
    0.50762E-07        -0.11176E-19         0.00000E+00
    0.50762E-07        -0.55879E-20         0.00000E+00
    0.50762E-07        -0.26244E-21         0.00000E+00
    0.50762E-07         0.32004E-20         0.00000E+00
    0.54212E-07        -0.37253E-20         0.00000E+00
    0.54212E-07        -0.37253E-20         0.00000E+00
    0.54212E-07        -0.51896E-20         0.00000E+00
    0.54212E-07        -0.37253E-20         0.00000E+00
    0.54212E-07        -0.39837E-21         0.00000E+00
    0.54212E-07         0.74506E-20         0.00000E+00
    0.54212E-07         0.16764E-19         0.00000E+00
    0.54212E-07         0.93132E-20         0.00000E+00
    0.54212E-07        -0.10777E-19         0.00000E+00
    0.54212E-07        -0.14901E-19         0.00000E+00
    0.54212E-07        -0.78490E-20         0.00000E+00
    0.54212E-07        -0.97116E-20         0.00000E+00
    0.54212E-07        -0.37253E-20         0.00000E+00
    0.54212E-07         0.59863E-20         0.00000E+00
    0.54212E-07         0.93132E-20         0.00000E+00
    0.54212E-07         0.11176E-19         0.00000E+00
    0.54212E-07        -0.55879E-20         0.00000E+00
    0.54212E-07        -0.20489E-19         0.00000E+00
    0.54212E-07        -0.26077E-19         0.00000E+00
    0.54212E-07        -0.31665E-19         0.00000E+00
    0.54212E-07        -0.22352E-19         0.00000E+00
    0.54212E-07        -0.16764E-19         0.00000E+00
    0.54212E-07        -0.22352E-19         0.00000E+00
    0.54212E-07        -0.22352E-19         0.00000E+00
    0.54212E-07        -0.22352E-19         0.00000E+00
    0.54212E-07        -0.20489E-19         0.00000E+00
    0.54212E-07        -0.18626E-19         0.00000E+00
    0.54212E-07        -0.22352E-19         0.00000E+00
    0.54212E-07        -0.11176E-19         0.00000E+00
    0.54212E-07        -0.37253E-20         0.00000E+00
    0.54212E-07        -0.37253E-20         0.00000E+00
    0.54212E-07        -0.18626E-20         0.00000E+00
    0.54212E-07        -0.74506E-20         0.00000E+00
    0.54212E-07        -0.59863E-20         0.00000E+00
    0.54212E-07        -0.37253E-20         0.00000E+00
    0.54212E-07        -0.51896E-20         0.00000E+00
    0.54212E-07        -0.74506E-20         0.00000E+00
    0.54212E-07        -0.18626E-20         0.00000E+00
    0.54212E-07         0.74506E-20         0.00000E+00
    0.54212E-07         0.00000E+00         0.00000E+00
    0.54212E-07        -0.74506E-20         0.00000E+00
    0.54212E-07        -0.37253E-20         0.00000E+00
    0.54212E-07        -0.33269E-20         0.00000E+00
    0.54212E-07        -0.18626E-20         0.00000E+00
    0.54212E-07         0.33269E-20         0.00000E+00
    0.54212E-07         0.74506E-20         0.00000E+00
    0.54212E-07        -0.14643E-20         0.00000E+00
    0.54212E-07        -0.16764E-19         0.00000E+00
    0.54212E-07        -0.15300E-19         0.00000E+00
    0.54212E-07        -0.41237E-20         0.00000E+00
    0.54212E-07         0.29285E-20         0.00000E+00
    0.57790E-07         0.00000E+00         0.00000E+00
    0.57790E-07        -0.55879E-20         0.00000E+00
    0.57790E-07        -0.74506E-20         0.00000E+00
    0.57790E-07        -0.18626E-20         0.00000E+00
    0.57790E-07         0.18626E-20         0.00000E+00
    0.57790E-07         0.18626E-20         0.00000E+00
    0.57790E-07         0.13801E-20         0.00000E+00
    0.57790E-07         0.43672E-33         0.00000E+00
    0.57790E-07        -0.51054E-20         0.00000E+00
    0.57790E-07        -0.11176E-19         0.00000E+00
    0.57790E-07        -0.55879E-20         0.00000E+00
    0.57790E-07        -0.18626E-20         0.00000E+00
    0.57790E-07        -0.55879E-20         0.00000E+00
    0.57790E-07        -0.51054E-20         0.00000E+00
    0.57790E-07        -0.11176E-19         0.00000E+00
    0.57790E-07        -0.79332E-20         0.00000E+00
    0.57790E-07         0.00000E+00         0.00000E+00
    0.57790E-07         0.37253E-20         0.00000E+00
    0.57790E-07         0.00000E+00         0.00000E+00
    0.57790E-07        -0.11176E-19         0.00000E+00
    0.57790E-07        -0.27940E-19         0.00000E+00
    0.57790E-07        -0.35390E-19         0.00000E+00
    0.57790E-07        -0.20489E-19         0.00000E+00
    0.57790E-07        -0.18626E-19         0.00000E+00
    0.57790E-07        -0.29802E-19         0.00000E+00
    0.57790E-07        -0.27940E-19         0.00000E+00
    0.57790E-07        -0.20489E-19         0.00000E+00
    0.57790E-07        -0.14901E-19         0.00000E+00
    0.57790E-07        -0.11176E-19         0.00000E+00
    0.57790E-07        -0.93132E-20         0.00000E+00
    0.57790E-07         0.00000E+00         0.00000E+00
    0.57790E-07         0.55879E-20         0.00000E+00
    0.57790E-07        -0.18626E-20         0.00000E+00
    0.57790E-07        -0.18626E-20         0.00000E+00
    0.57790E-07        -0.18626E-20         0.00000E+00
    0.57790E-07        -0.55879E-20         0.00000E+00
    0.57790E-07        -0.55879E-20         0.00000E+00
    0.57790E-07        -0.13039E-19         0.00000E+00
    0.57790E-07        -0.93132E-20         0.00000E+00
    0.57790E-07         0.18626E-20         0.00000E+00
    0.57790E-07        -0.37253E-20         0.00000E+00
    0.57790E-07        -0.55879E-20         0.00000E+00
    0.57790E-07        -0.48258E-21         0.00000E+00
    0.57790E-07        -0.18626E-20         0.00000E+00
    0.57790E-07        -0.69680E-20         0.00000E+00
    0.57790E-07        -0.88306E-20         0.00000E+00
    0.57790E-07        -0.27940E-20         0.00000E+00
    0.57790E-07         0.44874E-21         0.00000E+00
    0.57790E-07         0.55879E-20         0.00000E+00
    0.57790E-07         0.88306E-20         0.00000E+00
    0.57790E-07         0.27601E-20         0.00000E+00
    0.61487E-07         0.37253E-20         0.00000E+00
    0.61487E-07         0.00000E+00         0.00000E+00
    0.61487E-07        -0.93132E-20         0.00000E+00
    0.61487E-07        -0.13039E-19         0.00000E+00
    0.61487E-07        -0.79640E-20         0.00000E+00
    0.61487E-07        -0.93132E-21         0.00000E+00
    0.61487E-07        -0.41431E-20         0.00000E+00
    0.61487E-07        -0.10758E-19         0.00000E+00
    0.61487E-07        -0.55879E-20         0.00000E+00
    0.61487E-07         0.14448E-20         0.00000E+00
    0.61487E-07         0.00000E+00         0.00000E+00
    0.61487E-07        -0.18626E-20         0.00000E+00
    0.61487E-07         0.18626E-20         0.00000E+00
    0.61487E-07         0.18626E-20         0.00000E+00
    0.61487E-07         0.00000E+00         0.00000E+00
    0.61487E-07        -0.37253E-20         0.00000E+00
    0.61487E-07        -0.55879E-20         0.00000E+00
    0.61487E-07        -0.11176E-19         0.00000E+00
    0.61487E-07        -0.14901E-19         0.00000E+00
    0.61487E-07        -0.11176E-19         0.00000E+00
    0.61487E-07        -0.20489E-19         0.00000E+00
    0.61487E-07        -0.35390E-19         0.00000E+00
    0.61487E-07        -0.27940E-19         0.00000E+00
    0.61487E-07        -0.20489E-19         0.00000E+00
    0.61487E-07        -0.26077E-19         0.00000E+00
    0.61487E-07        -0.22352E-19         0.00000E+00
    0.61487E-07        -0.11176E-19         0.00000E+00
    0.61487E-07        -0.55879E-20         0.00000E+00
    0.61487E-07        -0.18626E-20         0.00000E+00
    0.61487E-07         0.00000E+00         0.00000E+00
    0.61487E-07         0.18626E-20         0.00000E+00
    0.61487E-07         0.00000E+00         0.00000E+00
    0.61487E-07        -0.55879E-20         0.00000E+00
    0.61487E-07        -0.55879E-20         0.00000E+00
    0.61487E-07         0.00000E+00         0.00000E+00
    0.61487E-07         0.13492E-20         0.00000E+00
    0.61487E-07        -0.18626E-20         0.00000E+00
    0.61487E-07        -0.13492E-20         0.00000E+00
    0.61487E-07        -0.23761E-20         0.00000E+00
    0.61487E-07        -0.10589E-33         0.00000E+00
    0.61487E-07        -0.13492E-20         0.00000E+00
    0.61487E-07        -0.79640E-20         0.00000E+00
    0.61487E-07        -0.11689E-19         0.00000E+00
    0.61487E-07        -0.32118E-20         0.00000E+00
    0.61487E-07         0.79640E-20         0.00000E+00
    0.61487E-07         0.41786E-21         0.00000E+00
    0.61487E-07        -0.65193E-20         0.00000E+00
    0.61487E-07        -0.12525E-19         0.00000E+00
    0.61487E-07        -0.10758E-19         0.00000E+00
    0.61487E-07        -0.33074E-20         0.00000E+00
    0.61487E-07         0.37253E-20         0.00000E+00
    0.65289E-07        -0.28419E-20         0.00000E+00
    0.65289E-07        -0.18626E-20         0.00000E+00
    0.65289E-07         0.14209E-20         0.00000E+00
    0.65289E-07        -0.23044E-20         0.00000E+00
    0.65289E-07        -0.79402E-20         0.00000E+00
    0.65289E-07        -0.56358E-20         0.00000E+00
    0.65289E-07         0.32836E-20         0.00000E+00
    0.65289E-07         0.51462E-20         0.00000E+00
    0.65289E-07        -0.37253E-20         0.00000E+00
    0.65289E-07        -0.18626E-20         0.00000E+00
    0.65289E-07         0.18626E-20         0.00000E+00
    0.65289E-07         0.55879E-20         0.00000E+00
    0.65289E-07         0.55879E-20         0.00000E+00
    0.65289E-07         0.00000E+00         0.00000E+00
    0.65289E-07        -0.23044E-20         0.00000E+00
    0.65289E-07        -0.11665E-19         0.00000E+00
    0.65289E-07        -0.22400E-19         0.00000E+00
    0.65289E-07        -0.26077E-19         0.00000E+00
    0.65289E-07        -0.21862E-19         0.00000E+00
    0.65289E-07        -0.14412E-19         0.00000E+00
    0.65289E-07        -0.18626E-19         0.00000E+00
    0.65289E-07        -0.16764E-19         0.00000E+00
    0.65289E-07        -0.11176E-19         0.00000E+00
    0.65289E-07        -0.13039E-19         0.00000E+00
    0.65289E-07        -0.14901E-19         0.00000E+00
    0.65289E-07        -0.13039E-19         0.00000E+00
    0.65289E-07        -0.11176E-19         0.00000E+00
    0.65289E-07        -0.13039E-19         0.00000E+00
    0.65289E-07        -0.11176E-19         0.00000E+00
    0.65289E-07        -0.93132E-20         0.00000E+00
    0.65289E-07        -0.74506E-20         0.00000E+00
    0.65289E-07        -0.55879E-20         0.00000E+00
    0.65289E-07        -0.37253E-20         0.00000E+00
    0.65289E-07        -0.37253E-20         0.00000E+00
    0.65289E-07        -0.37253E-20         0.00000E+00
    0.65289E-07         0.97549E-20         0.00000E+00
    0.65289E-07         0.19068E-19         0.00000E+00
    0.65289E-07         0.16764E-19         0.00000E+00
    0.65289E-07         0.70089E-20         0.00000E+00
    0.65289E-07         0.99306E-34         0.00000E+00
    0.65289E-07        -0.37253E-20         0.00000E+00
    0.65289E-07        -0.11618E-19         0.00000E+00
    0.65289E-07        -0.11176E-19         0.00000E+00
    0.65289E-07        -0.55879E-20         0.00000E+00
    0.65289E-07        -0.51462E-20         0.00000E+00
    0.65289E-07        -0.18626E-20         0.00000E+00
    0.65289E-07        -0.93132E-21         0.00000E+00
    0.65289E-07        -0.79402E-20         0.00000E+00
    0.65289E-07        -0.74027E-20         0.00000E+00
    0.65289E-07         0.93132E-21         0.00000E+00
    0.65289E-07        -0.19585E-20         0.00000E+00
    0.69181E-07        -0.37253E-20         0.00000E+00
    0.69181E-07        -0.37253E-20         0.00000E+00
    0.69181E-07        -0.32038E-20         0.00000E+00
    0.69181E-07        -0.13412E-20         0.00000E+00
    0.69181E-07        -0.37253E-20         0.00000E+00
    0.69181E-07        -0.61094E-20         0.00000E+00
    0.69181E-07        -0.79720E-20         0.00000E+00
    0.69181E-07        -0.13039E-19         0.00000E+00
    0.69181E-07        -0.11176E-19         0.00000E+00
    0.69181E-07         0.00000E+00         0.00000E+00
    0.69181E-07         0.00000E+00         0.00000E+00
    0.69181E-07        -0.74506E-20         0.00000E+00
    0.69181E-07        -0.32038E-20         0.00000E+00
    0.69181E-07         0.18626E-20         0.00000E+00
    0.69181E-07        -0.66309E-20         0.00000E+00
    0.69181E-07        -0.74506E-20         0.00000E+00
    0.69181E-07        -0.32038E-20         0.00000E+00
    0.69181E-07        -0.11176E-19         0.00000E+00
    0.69181E-07        -0.16242E-19         0.00000E+00
    0.69181E-07        -0.18626E-19         0.00000E+00
    0.69181E-07        -0.21011E-19         0.00000E+00
    0.69181E-07        -0.26077E-19         0.00000E+00
    0.69181E-07        -0.18626E-19         0.00000E+00
    0.69181E-07        -0.13039E-19         0.00000E+00
    0.69181E-07        -0.18626E-19         0.00000E+00
    0.69181E-07        -0.13039E-19         0.00000E+00
    0.69181E-07        -0.18626E-20         0.00000E+00
    0.69181E-07         0.18626E-20         0.00000E+00
    0.69181E-07        -0.37253E-20         0.00000E+00
    0.69181E-07        -0.13039E-19         0.00000E+00
    0.69181E-07        -0.11176E-19         0.00000E+00
    0.69181E-07        -0.74506E-20         0.00000E+00
    0.69181E-07        -0.55879E-20         0.00000E+00
    0.69181E-07         0.18626E-20         0.00000E+00
    0.69181E-07         0.11176E-19         0.00000E+00
    0.69181E-07         0.16764E-19         0.00000E+00
    0.69181E-07         0.11176E-19         0.00000E+00
    0.69181E-07         0.37253E-20         0.00000E+00
    0.69181E-07         0.37253E-20         0.00000E+00
    0.69181E-07         0.23841E-20         0.00000E+00
    0.69181E-07        -0.87918E-20         0.00000E+00
    0.69181E-07        -0.10766E-19         0.00000E+00
    0.69181E-07        -0.14528E-20         0.00000E+00
    0.69181E-07        -0.41352E-20         0.00000E+00
    0.69181E-07        -0.40986E-21         0.00000E+00
    0.69181E-07        -0.37253E-20         0.00000E+00
    0.69181E-07        -0.14491E-19         0.00000E+00
    0.69181E-07        -0.14491E-19         0.00000E+00
    0.69181E-07        -0.55879E-20         0.00000E+00
    0.69181E-07         0.79720E-20         0.00000E+00
    0.69181E-07         0.12219E-19         0.00000E+00
    0.73148E-07         0.69040E-20         0.00000E+00
    0.73148E-07         0.00000E+00         0.00000E+00
    0.73148E-07        -0.53147E-20         0.00000E+00
    0.73148E-07        -0.74506E-20         0.00000E+00
    0.73148E-07        -0.14243E-19         0.00000E+00
    0.73148E-07        -0.13970E-19         0.00000E+00
    0.73148E-07        -0.16764E-19         0.00000E+00
    0.73148E-07        -0.17695E-19         0.00000E+00
    0.73148E-07        -0.19284E-19         0.00000E+00
    0.73148E-07        -0.13039E-19         0.00000E+00
    0.73148E-07        -0.30672E-20         0.00000E+00
    0.73148E-07         0.65805E-21         0.00000E+00
    0.73148E-07         0.21359E-20         0.00000E+00
    0.73148E-07        -0.34520E-20         0.00000E+00
    0.73148E-07        -0.93132E-20         0.00000E+00
    0.73148E-07        -0.16764E-19         0.00000E+00
    0.73148E-07        -0.24214E-19         0.00000E+00
    0.73148E-07        -0.18626E-19         0.00000E+00
    0.73148E-07        -0.86552E-20         0.00000E+00
    0.73148E-07        -0.93132E-20         0.00000E+00
    0.73148E-07        -0.23010E-19         0.00000E+00
    0.73148E-07        -0.27940E-19         0.00000E+00
    0.73148E-07        -0.14901E-19         0.00000E+00
    0.73148E-07        -0.93132E-20         0.00000E+00
    0.73148E-07        -0.11176E-19         0.00000E+00
    0.73148E-07        -0.55879E-20         0.00000E+00
    0.73148E-07         0.18626E-20         0.00000E+00
    0.73148E-07         0.93132E-20         0.00000E+00
    0.73148E-07         0.93132E-20         0.00000E+00
    0.73148E-07         0.37253E-20         0.00000E+00
    0.73148E-07         0.62460E-20         0.00000E+00
    0.73148E-07         0.37253E-20         0.00000E+00
    0.73148E-07         0.30672E-20         0.00000E+00
    0.73148E-07         0.81086E-20         0.00000E+00
    0.73148E-07         0.74506E-20         0.00000E+00
    0.73148E-07         0.65193E-20         0.00000E+00
    0.73148E-07         0.65193E-20         0.00000E+00
    0.73148E-07         0.86552E-20         0.00000E+00
    0.73148E-07         0.37253E-20         0.00000E+00
    0.73148E-07        -0.27328E-21         0.00000E+00
    0.73148E-07        -0.58612E-20         0.00000E+00
    0.73148E-07        -0.20216E-19         0.00000E+00
    0.73148E-07        -0.14628E-19         0.00000E+00
    0.73148E-07        -0.18626E-20         0.00000E+00
    0.73148E-07        -0.49299E-20         0.00000E+00
    0.73148E-07        -0.10245E-19         0.00000E+00
    0.73148E-07        -0.74506E-20         0.00000E+00
    0.73148E-07        -0.74506E-20         0.00000E+00
    0.73148E-07        -0.15894E-20         0.00000E+00
    0.73148E-07         0.65805E-21         0.00000E+00
    0.73148E-07         0.13161E-20         0.00000E+00
    0.77169E-07        -0.15847E-21         0.00000E+00
    0.77169E-07         0.55087E-20         0.00000E+00
    0.77169E-07         0.74506E-20         0.00000E+00
    0.77169E-07        -0.55879E-20         0.00000E+00
    0.77169E-07        -0.14901E-19         0.00000E+00
    0.77169E-07        -0.16685E-19         0.00000E+00
    0.77169E-07        -0.11176E-19         0.00000E+00
    0.77169E-07        -0.11176E-19         0.00000E+00
    0.77169E-07        -0.18626E-19         0.00000E+00
    0.77169E-07        -0.14901E-19         0.00000E+00
    0.77169E-07        -0.74506E-20         0.00000E+00
    0.77169E-07        -0.37253E-20         0.00000E+00
    0.77169E-07        -0.92340E-20         0.00000E+00
    0.77169E-07        -0.37253E-20         0.00000E+00
    0.77169E-07         0.00000E+00         0.00000E+00
    0.77169E-07        -0.75298E-20         0.00000E+00
    0.77169E-07        -0.55879E-20         0.00000E+00
    0.77169E-07        -0.46566E-20         0.00000E+00
    0.77169E-07        -0.12107E-19         0.00000E+00
    0.77169E-07        -0.16685E-19         0.00000E+00
    0.77169E-07        -0.24214E-19         0.00000E+00
    0.77169E-07        -0.22352E-19         0.00000E+00
    0.77169E-07        -0.11176E-19         0.00000E+00
    0.77169E-07        -0.74506E-20         0.00000E+00
    0.77169E-07        -0.11176E-19         0.00000E+00
    0.77169E-07        -0.11176E-19         0.00000E+00
    0.77169E-07         0.00000E+00         0.00000E+00
    0.77169E-07         0.37253E-20         0.00000E+00
    0.77169E-07         0.37253E-20         0.00000E+00
    0.77169E-07        -0.18626E-20         0.00000E+00
    0.77169E-07        -0.55879E-20         0.00000E+00
    0.77169E-07         0.18626E-20         0.00000E+00
    0.77169E-07         0.11097E-19         0.00000E+00
    0.77169E-07         0.14901E-19         0.00000E+00
    0.77169E-07         0.13118E-19         0.00000E+00
    0.77169E-07         0.14901E-19         0.00000E+00
    0.77169E-07         0.11176E-19         0.00000E+00
    0.77169E-07         0.92340E-20         0.00000E+00
    0.77169E-07         0.37253E-20         0.00000E+00
    0.77169E-07         0.37253E-20         0.00000E+00
    0.77169E-07        -0.99306E-34         0.00000E+00
    0.77169E-07        -0.11176E-19         0.00000E+00
    0.77169E-07        -0.11176E-19         0.00000E+00
    0.77169E-07        -0.74506E-20         0.00000E+00
    0.77169E-07        -0.19419E-20         0.00000E+00
    0.77169E-07        -0.64400E-20         0.00000E+00
    0.77169E-07        -0.10245E-19         0.00000E+00
    0.77169E-07        -0.15832E-19         0.00000E+00
    0.77169E-07        -0.64400E-20         0.00000E+00
    0.77169E-07         0.73713E-20         0.00000E+00
    0.77169E-07         0.11017E-19         0.00000E+00
    0.81223E-07        -0.40704E-20         0.00000E+00
    0.81223E-07        -0.38368E-33         0.00000E+00
    0.81223E-07         0.20352E-20         0.00000E+00
    0.81223E-07        -0.11348E-19         0.00000E+00
    0.81223E-07        -0.20489E-19         0.00000E+00
    0.81223E-07        -0.11003E-19         0.00000E+00
    0.81223E-07        -0.13211E-19         0.00000E+00
    0.81223E-07        -0.18799E-19         0.00000E+00
    0.81223E-07        -0.91407E-20         0.00000E+00
    0.81223E-07        -0.37253E-20         0.00000E+00
    0.81223E-07        -0.57605E-20         0.00000E+00
    0.81223E-07         0.20352E-20         0.00000E+00
    0.81223E-07         0.37253E-20         0.00000E+00
    0.81223E-07        -0.57605E-20         0.00000E+00
    0.81223E-07        -0.13039E-19         0.00000E+00
    0.81223E-07        -0.91407E-20         0.00000E+00
    0.81223E-07        -0.13039E-19         0.00000E+00
    0.81223E-07        -0.15832E-19         0.00000E+00
    0.81223E-07        -0.74506E-20         0.00000E+00
    0.81223E-07        -0.19730E-19         0.00000E+00
    0.81223E-07        -0.24214E-19         0.00000E+00
    0.81223E-07        -0.20489E-19         0.00000E+00
    0.81223E-07        -0.14901E-19         0.00000E+00
    0.81223E-07        -0.93132E-20         0.00000E+00
    0.81223E-07        -0.35527E-20         0.00000E+00
    0.81223E-07        -0.55879E-20         0.00000E+00
    0.81223E-07        -0.57605E-20         0.00000E+00
    0.81223E-07        -0.74506E-20         0.00000E+00
    0.81223E-07        -0.55879E-20         0.00000E+00
    0.81223E-07         0.00000E+00         0.00000E+00
    0.81223E-07         0.74506E-20         0.00000E+00
    0.81223E-07         0.11176E-19         0.00000E+00
    0.81223E-07         0.13211E-19         0.00000E+00
    0.81223E-07         0.93132E-20         0.00000E+00
    0.81223E-07         0.13970E-19         0.00000E+00
    0.81223E-07         0.16178E-19         0.00000E+00
    0.81223E-07         0.10072E-19         0.00000E+00
    0.81223E-07         0.11935E-19         0.00000E+00
    0.81223E-07         0.94858E-20         0.00000E+00
    0.81223E-07         0.74506E-20         0.00000E+00
    0.81223E-07         0.00000E+00         0.00000E+00
    0.81223E-07        -0.11176E-19         0.00000E+00
    0.81223E-07        -0.16764E-19         0.00000E+00
    0.81223E-07        -0.11176E-19         0.00000E+00
    0.81223E-07        -0.93132E-20         0.00000E+00
    0.81223E-07        -0.11176E-19         0.00000E+00
    0.81223E-07        -0.11176E-19         0.00000E+00
    0.81223E-07        -0.14901E-19         0.00000E+00
    0.81223E-07        -0.18626E-19         0.00000E+00
    0.81223E-07        -0.13039E-19         0.00000E+00
    0.81223E-07        -0.37253E-20         0.00000E+00
    0.85285E-07        -0.37253E-20         0.00000E+00
    0.85285E-07        -0.23447E-20         0.00000E+00
    0.85285E-07        -0.23447E-20         0.00000E+00
    0.85285E-07        -0.11176E-19         0.00000E+00
    0.85285E-07        -0.19076E-19         0.00000E+00
    0.85285E-07        -0.13488E-19         0.00000E+00
    0.85285E-07        -0.42074E-20         0.00000E+00
    0.85285E-07        -0.65193E-20         0.00000E+00
    0.85285E-07        -0.17695E-19         0.00000E+00
    0.85285E-07        -0.17246E-19         0.00000E+00
    0.85285E-07        -0.14419E-19         0.00000E+00
    0.85285E-07        -0.65193E-20         0.00000E+00
    0.85285E-07        -0.70013E-20         0.00000E+00
    0.85285E-07        -0.60700E-20         0.00000E+00
    0.85285E-07        -0.83819E-20         0.00000E+00
    0.85285E-07        -0.13006E-19         0.00000E+00
    0.85285E-07        -0.12556E-19         0.00000E+00
    0.85285E-07        -0.11176E-19         0.00000E+00
    0.85285E-07        -0.12556E-19         0.00000E+00
    0.85285E-07        -0.10727E-19         0.00000E+00
    0.85285E-07        -0.25628E-19         0.00000E+00
    0.85285E-07        -0.27940E-19         0.00000E+00
    0.85285E-07        -0.14901E-19         0.00000E+00
    0.85285E-07        -0.13039E-19         0.00000E+00
    0.85285E-07        -0.18626E-19         0.00000E+00
    0.85285E-07        -0.74506E-20         0.00000E+00
    0.85285E-07         0.32432E-20         0.00000E+00
    0.85285E-07         0.18626E-20         0.00000E+00
    0.85285E-07         0.18626E-20         0.00000E+00
    0.85285E-07         0.00000E+00         0.00000E+00
    0.85285E-07         0.48207E-21         0.00000E+00
    0.85285E-07         0.18626E-20         0.00000E+00
    0.85285E-07         0.69685E-20         0.00000E+00
    0.85285E-07         0.11176E-19         0.00000E+00
    0.85285E-07         0.79327E-20         0.00000E+00
    0.85285E-07         0.60700E-20         0.00000E+00
    0.85285E-07         0.12556E-19         0.00000E+00
    0.85285E-07         0.13039E-19         0.00000E+00
    0.85285E-07         0.79327E-20         0.00000E+00
    0.85285E-07         0.18626E-20         0.00000E+00
    0.85285E-07        -0.97953E-20         0.00000E+00
    0.85285E-07        -0.12107E-19         0.00000E+00
    0.85285E-07        -0.93132E-20         0.00000E+00
    0.85285E-07        -0.32760E-20         0.00000E+00
    0.85285E-07        -0.32432E-20         0.00000E+00
    0.85285E-07        -0.32432E-20         0.00000E+00
    0.85285E-07        -0.51387E-20         0.00000E+00
    0.85285E-07        -0.11176E-19         0.00000E+00
    0.85285E-07        -0.41745E-20         0.00000E+00
    0.85285E-07         0.51387E-20         0.00000E+00
    0.85285E-07         0.65521E-20         0.00000E+00
    0.89330E-07        -0.37253E-20         0.00000E+00
    0.89330E-07         0.10138E-20         0.00000E+00
    0.89330E-07         0.55879E-20         0.00000E+00
    0.89330E-07        -0.10138E-20         0.00000E+00
    0.89330E-07        -0.74506E-20         0.00000E+00
    0.89330E-07        -0.10162E-19         0.00000E+00
    0.89330E-07        -0.15750E-19         0.00000E+00
    0.89330E-07        -0.15915E-19         0.00000E+00
    0.89330E-07        -0.17778E-19         0.00000E+00
    0.89330E-07        -0.15750E-19         0.00000E+00
    0.89330E-07        -0.10162E-19         0.00000E+00
    0.89330E-07        -0.14052E-19         0.00000E+00
    0.89330E-07        -0.15915E-19         0.00000E+00
    0.89330E-07        -0.14901E-19         0.00000E+00
    0.89330E-07        -0.13887E-19         0.00000E+00
    0.89330E-07        -0.12025E-19         0.00000E+00
    0.89330E-07        -0.74506E-20         0.00000E+00
    0.89330E-07        -0.38078E-20         0.00000E+00
    0.89330E-07        -0.75331E-20         0.00000E+00
    0.89330E-07        -0.12025E-19         0.00000E+00
    0.89330E-07        -0.19558E-19         0.00000E+00
    0.89330E-07        -0.22434E-19         0.00000E+00
    0.89330E-07        -0.23201E-19         0.00000E+00
    0.89330E-07        -0.19475E-19         0.00000E+00
    0.89330E-07        -0.14984E-19         0.00000E+00
    0.89330E-07        -0.37253E-20         0.00000E+00
    0.89330E-07        -0.17802E-20         0.00000E+00
    0.89330E-07        -0.55879E-20         0.00000E+00
    0.89330E-07        -0.47391E-20         0.00000E+00
    0.89330E-07        -0.27940E-20         0.00000E+00
    0.89330E-07        -0.36428E-20         0.00000E+00
    0.89330E-07        -0.37253E-20         0.00000E+00
    0.89330E-07        -0.55879E-20         0.00000E+00
    0.89330E-07        -0.47391E-20         0.00000E+00
    0.89330E-07         0.27115E-20         0.00000E+00
    0.89330E-07         0.37253E-20         0.00000E+00
    0.89330E-07         0.82482E-22         0.00000E+00
    0.89330E-07         0.82482E-22         0.00000E+00
    0.89330E-07         0.37253E-20         0.00000E+00
    0.89330E-07         0.64368E-20         0.00000E+00
    0.89330E-07         0.27940E-20         0.00000E+00
    0.89330E-07        -0.93132E-21         0.00000E+00
    0.89330E-07        -0.47391E-20         0.00000E+00
    0.89330E-07        -0.55879E-20         0.00000E+00
    0.89330E-07        -0.55879E-20         0.00000E+00
    0.89330E-07        -0.36428E-20         0.00000E+00
    0.89330E-07         0.19451E-20         0.00000E+00
    0.89330E-07         0.18626E-20         0.00000E+00
    0.89330E-07         0.17802E-20         0.00000E+00
    0.89330E-07         0.54230E-20         0.00000E+00
    0.89330E-07         0.35603E-20         0.00000E+00
    0.93330E-07         0.00000E+00         0.00000E+00
    0.93330E-07         0.55879E-20         0.00000E+00
    0.93330E-07         0.89725E-20         0.00000E+00
    0.93330E-07        -0.18626E-20         0.00000E+00
    0.93330E-07        -0.14560E-19         0.00000E+00
    0.93330E-07        -0.11176E-19         0.00000E+00
    0.93330E-07        -0.93132E-20         0.00000E+00
    0.93330E-07        -0.14901E-19         0.00000E+00
    0.93330E-07        -0.10585E-19         0.00000E+00
    0.93330E-07        -0.68600E-20         0.00000E+00
    0.93330E-07        -0.71099E-20         0.00000E+00
    0.93330E-07        -0.83819E-20         0.00000E+00
    0.93330E-07        -0.93132E-20         0.00000E+00
    0.93330E-07        -0.55879E-20         0.00000E+00
    0.93330E-07        -0.14311E-19         0.00000E+00
    0.93330E-07        -0.16764E-19         0.00000E+00
    0.93330E-07        -0.20148E-19         0.00000E+00
    0.93330E-07        -0.24214E-19         0.00000E+00
    0.93330E-07        -0.17354E-19         0.00000E+00
    0.93330E-07        -0.13039E-19         0.00000E+00
    0.93330E-07        -0.20239E-19         0.00000E+00
    0.93330E-07        -0.22352E-19         0.00000E+00
    0.93330E-07        -0.16423E-19         0.00000E+00
    0.93330E-07        -0.11176E-19         0.00000E+00
    0.93330E-07        -0.11176E-19         0.00000E+00
    0.93330E-07        -0.74506E-20         0.00000E+00
    0.93330E-07         0.17205E-33         0.00000E+00
    0.93330E-07        -0.15219E-20         0.00000E+00
    0.93330E-07        -0.37253E-20         0.00000E+00
    0.93330E-07        -0.59286E-20         0.00000E+00
    0.93330E-07        -0.99039E-20         0.00000E+00
    0.93330E-07        -0.11176E-19         0.00000E+00
    0.93330E-07        -0.53380E-20         0.00000E+00
    0.93330E-07        -0.59063E-21         0.00000E+00
    0.93330E-07        -0.24533E-20         0.00000E+00
    0.93330E-07         0.00000E+00         0.00000E+00
    0.93330E-07         0.18626E-20         0.00000E+00
    0.93330E-07        -0.49973E-20         0.00000E+00
    0.93330E-07        -0.65193E-20         0.00000E+00
    0.93330E-07         0.34070E-21         0.00000E+00
    0.93330E-07        -0.18626E-20         0.00000E+00
    0.93330E-07        -0.96539E-20         0.00000E+00
    0.93330E-07        -0.96539E-20         0.00000E+00
    0.93330E-07        -0.58379E-20         0.00000E+00
    0.93330E-07        -0.71099E-20         0.00000E+00
    0.93330E-07         0.59063E-21         0.00000E+00
    0.93330E-07        -0.37253E-20         0.00000E+00
    0.93330E-07        -0.55879E-20         0.00000E+00
    0.93330E-07         0.52472E-20         0.00000E+00
    0.93330E-07         0.93132E-20         0.00000E+00
    0.93330E-07         0.44067E-20         0.00000E+00
    0.97254E-07        -0.37253E-20         0.00000E+00
    0.97254E-07        -0.18626E-20         0.00000E+00
    0.97254E-07        -0.18626E-20         0.00000E+00
    0.97254E-07        -0.93132E-20         0.00000E+00
    0.97254E-07        -0.74506E-20         0.00000E+00
    0.97254E-07        -0.18626E-20         0.00000E+00
    0.97254E-07        -0.74506E-20         0.00000E+00
    0.97254E-07        -0.92009E-20         0.00000E+00
    0.97254E-07        -0.11176E-19         0.00000E+00
    0.97254E-07        -0.57003E-20         0.00000E+00
    0.97254E-07        -0.29063E-20         0.00000E+00
    0.97254E-07        -0.93132E-21         0.00000E+00
    0.97254E-07        -0.18626E-20         0.00000E+00
    0.97254E-07        -0.73382E-20         0.00000E+00
    0.97254E-07        -0.12814E-19         0.00000E+00
    0.97254E-07        -0.19670E-19         0.00000E+00
    0.97254E-07        -0.16764E-19         0.00000E+00
    0.97254E-07        -0.14082E-19         0.00000E+00
    0.97254E-07        -0.22464E-19         0.00000E+00
    0.97254E-07        -0.16539E-19         0.00000E+00
    0.97254E-07        -0.18514E-19         0.00000E+00
    0.97254E-07        -0.16876E-19         0.00000E+00
    0.97254E-07        -0.16876E-19         0.00000E+00
    0.97254E-07        -0.14901E-19         0.00000E+00
    0.97254E-07        -0.13039E-19         0.00000E+00
    0.97254E-07        -0.11064E-19         0.00000E+00
    0.97254E-07        -0.55879E-20         0.00000E+00
    0.97254E-07        -0.83819E-20         0.00000E+00
    0.97254E-07        -0.26816E-20         0.00000E+00
    0.97254E-07         0.18626E-20         0.00000E+00
    0.97254E-07        -0.11234E-21         0.00000E+00
    0.97254E-07        -0.18626E-20         0.00000E+00
    0.97254E-07        -0.27940E-20         0.00000E+00
    0.97254E-07         0.18626E-20         0.00000E+00
    0.97254E-07        -0.37253E-20         0.00000E+00
    0.97254E-07        -0.84942E-20         0.00000E+00
    0.97254E-07        -0.93132E-20         0.00000E+00
    0.97254E-07        -0.38376E-20         0.00000E+00
    0.97254E-07         0.00000E+00         0.00000E+00
    0.97254E-07        -0.73382E-20         0.00000E+00
    0.97254E-07        -0.10132E-19         0.00000E+00
    0.97254E-07        -0.10245E-19         0.00000E+00
    0.97254E-07        -0.13039E-19         0.00000E+00
    0.97254E-07        -0.12107E-19         0.00000E+00
    0.97254E-07        -0.66316E-20         0.00000E+00
    0.97254E-07        -0.37253E-20         0.00000E+00
    0.97254E-07         0.00000E+00         0.00000E+00
    0.97254E-07        -0.18626E-20         0.00000E+00
    0.97254E-07        -0.18626E-20         0.00000E+00
    0.97254E-07         0.74506E-20         0.00000E+00
    0.97254E-07         0.11176E-19         0.00000E+00
    0.10107E-06         0.00000E+00         0.00000E+00
    0.10107E-06         0.37253E-20         0.00000E+00
    0.10107E-06         0.74506E-20         0.00000E+00
    0.10107E-06         0.55879E-20         0.00000E+00
    0.10107E-06        -0.32133E-20         0.00000E+00
    0.10107E-06        -0.65193E-20         0.00000E+00
    0.10107E-06        -0.10757E-19         0.00000E+00
    0.10107E-06        -0.14389E-19         0.00000E+00
    0.10107E-06        -0.83819E-20         0.00000E+00
    0.10107E-06        -0.51686E-20         0.00000E+00
    0.10107E-06        -0.13506E-20         0.00000E+00
    0.10107E-06        -0.10757E-19         0.00000E+00
    0.10107E-06        -0.17276E-19         0.00000E+00
    0.10107E-06        -0.11083E-19         0.00000E+00
    0.10107E-06        -0.12527E-19         0.00000E+00
    0.10107E-06        -0.14994E-19         0.00000E+00
    0.10107E-06        -0.18626E-19         0.00000E+00
    0.10107E-06        -0.20489E-19         0.00000E+00
    0.10107E-06        -0.18719E-19         0.00000E+00
    0.10107E-06        -0.16252E-19         0.00000E+00
    0.10107E-06        -0.21840E-19         0.00000E+00
    0.10107E-06        -0.24214E-19         0.00000E+00
    0.10107E-06        -0.14389E-19         0.00000E+00
    0.10107E-06        -0.88012E-20         0.00000E+00
    0.10107E-06        -0.16856E-19         0.00000E+00
    0.10107E-06        -0.14901E-19         0.00000E+00
    0.10107E-06        -0.60073E-20         0.00000E+00
    0.10107E-06        -0.98252E-20         0.00000E+00
    0.10107E-06        -0.11688E-19         0.00000E+00
    0.10107E-06        -0.88012E-20         0.00000E+00
    0.10107E-06        -0.64266E-20         0.00000E+00
    0.10107E-06         0.00000E+00         0.00000E+00
    0.10107E-06         0.36326E-20         0.00000E+00
    0.10107E-06         0.74506E-20         0.00000E+00
    0.10107E-06         0.33060E-20         0.00000E+00
    0.10107E-06        -0.47493E-20         0.00000E+00
    0.10107E-06        -0.55879E-20         0.00000E+00
    0.10107E-06        -0.32133E-20         0.00000E+00
    0.10107E-06        -0.37253E-20         0.00000E+00
    0.10107E-06         0.13506E-20         0.00000E+00
    0.10107E-06        -0.18626E-20         0.00000E+00
    0.10107E-06        -0.10664E-19         0.00000E+00
    0.10107E-06        -0.98252E-20         0.00000E+00
    0.10107E-06        -0.18626E-20         0.00000E+00
    0.10107E-06         0.23746E-20         0.00000E+00
    0.10107E-06         0.41446E-20         0.00000E+00
    0.10107E-06         0.41446E-20         0.00000E+00
    0.10107E-06        -0.27013E-20         0.00000E+00
    0.10107E-06         0.23746E-20         0.00000E+00
    0.10107E-06         0.83864E-21         0.00000E+00
    0.10107E-06        -0.10240E-20         0.00000E+00
    0.10475E-06        -0.37253E-20         0.00000E+00
    0.10475E-06         0.93132E-21         0.00000E+00
    0.10475E-06         0.83819E-20         0.00000E+00
    0.10475E-06         0.18626E-20         0.00000E+00
    0.10475E-06        -0.37961E-20         0.00000E+00
    0.10475E-06        -0.36545E-20         0.00000E+00
    0.10475E-06        -0.54463E-20         0.00000E+00
    0.10475E-06        -0.65901E-20         0.00000E+00
    0.10475E-06        -0.15903E-19         0.00000E+00
    0.10475E-06        -0.14901E-19         0.00000E+00
    0.10475E-06        -0.11176E-19         0.00000E+00
    0.10475E-06        -0.84527E-20         0.00000E+00
    0.10475E-06        -0.84527E-20         0.00000E+00
    0.10475E-06        -0.12107E-19         0.00000E+00
    0.10475E-06        -0.18626E-19         0.00000E+00
    0.10475E-06        -0.22352E-19         0.00000E+00
    0.10475E-06        -0.16693E-19         0.00000E+00
    0.10475E-06        -0.15691E-19         0.00000E+00
    0.10475E-06        -0.18556E-19         0.00000E+00
    0.10475E-06        -0.19558E-19         0.00000E+00
    0.10475E-06        -0.16905E-19         0.00000E+00
    0.10475E-06        -0.22423E-19         0.00000E+00
    0.10475E-06        -0.22281E-19         0.00000E+00
    0.10475E-06        -0.14506E-19         0.00000E+00
    0.10475E-06        -0.10639E-19         0.00000E+00
    0.10475E-06        -0.64485E-20         0.00000E+00
    0.10475E-06         0.17919E-20         0.00000E+00
    0.10475E-06         0.93132E-21         0.00000E+00
    0.10475E-06        -0.28648E-20         0.00000E+00
    0.10475E-06        -0.10315E-19         0.00000E+00
    0.10475E-06        -0.12107E-19         0.00000E+00
    0.10475E-06        -0.55879E-20         0.00000E+00
    0.10475E-06         0.18626E-20         0.00000E+00
    0.10475E-06         0.37961E-20         0.00000E+00
    0.10475E-06         0.19334E-20         0.00000E+00
    0.10475E-06        -0.55171E-20         0.00000E+00
    0.10475E-06        -0.83819E-20         0.00000E+00
    0.10475E-06        -0.47274E-20         0.00000E+00
    0.10475E-06         0.70794E-22         0.00000E+00
    0.10475E-06         0.65901E-20         0.00000E+00
    0.10475E-06        -0.10021E-20         0.00000E+00
    0.10475E-06        -0.99205E-20         0.00000E+00
    0.10475E-06        -0.51223E-20         0.00000E+00
    0.10475E-06         0.10021E-20         0.00000E+00
    0.10475E-06         0.37253E-20         0.00000E+00
    0.10475E-06         0.18626E-20         0.00000E+00
    0.10475E-06         0.18626E-20         0.00000E+00
    0.10475E-06         0.37253E-20         0.00000E+00
    0.10475E-06         0.37253E-20         0.00000E+00
    0.10475E-06         0.65901E-20         0.00000E+00
    0.10475E-06         0.94548E-20         0.00000E+00
    0.10825E-06        -0.18626E-20         0.00000E+00
    0.10825E-06         0.93132E-21         0.00000E+00
    0.10825E-06         0.67556E-20         0.00000E+00
    0.10825E-06         0.39617E-20         0.00000E+00
    0.10825E-06        -0.65263E-20         0.00000E+00
    0.10825E-06        -0.83890E-20         0.00000E+00
    0.10825E-06        -0.25576E-20         0.00000E+00
    0.10825E-06        -0.44202E-20         0.00000E+00
    0.10825E-06        -0.65193E-20         0.00000E+00
    0.10825E-06        -0.44202E-20         0.00000E+00
    0.10825E-06        -0.72142E-20         0.00000E+00
    0.10825E-06        -0.17932E-19         0.00000E+00
    0.10825E-06        -0.17000E-19         0.00000E+00
    0.10825E-06        -0.93132E-20         0.00000E+00
    0.10825E-06        -0.11412E-19         0.00000E+00
    0.10825E-06        -0.17695E-19         0.00000E+00
    0.10825E-06        -0.21879E-19         0.00000E+00
    0.10825E-06        -0.18390E-19         0.00000E+00
    0.10825E-06        -0.16069E-19         0.00000E+00
    0.10825E-06        -0.14901E-19         0.00000E+00
    0.10825E-06        -0.22115E-19         0.00000E+00
    0.10825E-06        -0.27940E-19         0.00000E+00
    0.10825E-06        -0.19794E-19         0.00000E+00
    0.10825E-06        -0.12580E-19         0.00000E+00
    0.10825E-06        -0.86112E-20         0.00000E+00
    0.10825E-06        -0.74506E-20         0.00000E+00
    0.10825E-06        -0.37253E-20         0.00000E+00
    0.10825E-06        -0.72142E-20         0.00000E+00
    0.10825E-06        -0.79233E-20         0.00000E+00
    0.10825E-06        -0.81526E-20         0.00000E+00
    0.10825E-06        -0.10474E-19         0.00000E+00
    0.10825E-06        -0.37253E-20         0.00000E+00
    0.10825E-06         0.48930E-20         0.00000E+00
    0.10825E-06         0.18697E-20         0.00000E+00
    0.10825E-06        -0.62900E-20         0.00000E+00
    0.10825E-06        -0.27940E-20         0.00000E+00
    0.10825E-06        -0.30303E-20         0.00000E+00
    0.10825E-06        -0.70913E-23         0.00000E+00
    0.10825E-06         0.67556E-20         0.00000E+00
    0.10825E-06         0.88547E-20         0.00000E+00
    0.10825E-06         0.48930E-20         0.00000E+00
    0.10825E-06        -0.46566E-20         0.00000E+00
    0.10825E-06        -0.62900E-20         0.00000E+00
    0.10825E-06        -0.25647E-20         0.00000E+00
    0.10825E-06        -0.93132E-21         0.00000E+00
    0.10825E-06        -0.25647E-20         0.00000E+00
    0.10825E-06        -0.27940E-20         0.00000E+00
    0.10825E-06        -0.44202E-20         0.00000E+00
    0.10825E-06         0.25647E-20         0.00000E+00
    0.10825E-06         0.62900E-20         0.00000E+00
    0.10825E-06         0.18626E-20         0.00000E+00
    0.11155E-06         0.27571E-20         0.00000E+00
    0.11155E-06         0.18626E-20         0.00000E+00
    0.11155E-06         0.74506E-20         0.00000E+00
    0.11155E-06        -0.27940E-20         0.00000E+00
    0.11155E-06        -0.12070E-19         0.00000E+00
    0.11155E-06        -0.65193E-20         0.00000E+00
    0.11155E-06        -0.79347E-20         0.00000E+00
    0.11155E-06        -0.32781E-20         0.00000E+00
    0.11155E-06        -0.65008E-20         0.00000E+00
    0.11155E-06        -0.65193E-20         0.00000E+00
    0.11155E-06        -0.65377E-20         0.00000E+00
    0.11155E-06        -0.88291E-20         0.00000E+00
    0.11155E-06        -0.65193E-20         0.00000E+00
    0.11155E-06        -0.23467E-20         0.00000E+00
    0.11155E-06        -0.74322E-20         0.00000E+00
    0.11155E-06        -0.20918E-19         0.00000E+00
    0.11155E-06        -0.15404E-19         0.00000E+00
    0.11155E-06        -0.22370E-19         0.00000E+00
    0.11155E-06        -0.21420E-19         0.00000E+00
    0.11155E-06        -0.15385E-19         0.00000E+00
    0.11155E-06        -0.30250E-19         0.00000E+00
    0.11155E-06        -0.29318E-19         0.00000E+00
    0.11155E-06        -0.16764E-19         0.00000E+00
    0.11155E-06        -0.14417E-19         0.00000E+00
    0.11155E-06        -0.93317E-20         0.00000E+00
    0.11155E-06        -0.93132E-20         0.00000E+00
    0.11155E-06        -0.74322E-20         0.00000E+00
    0.11155E-06        -0.23467E-20         0.00000E+00
    0.11155E-06         0.18442E-20         0.00000E+00
    0.11155E-06        -0.41725E-20         0.00000E+00
    0.11155E-06        -0.74506E-20         0.00000E+00
    0.11155E-06        -0.83819E-20         0.00000E+00
    0.11155E-06        -0.10226E-19         0.00000E+00
    0.11155E-06         0.74506E-20         0.00000E+00
    0.11155E-06         0.12107E-19         0.00000E+00
    0.11155E-06         0.92764E-20         0.00000E+00
    0.11155E-06         0.41910E-20         0.00000E+00
    0.11155E-06        -0.13970E-20         0.00000E+00
    0.11155E-06        -0.37253E-20         0.00000E+00
    0.11155E-06        -0.41910E-20         0.00000E+00
    0.11155E-06        -0.32596E-20         0.00000E+00
    0.11155E-06        -0.78978E-20         0.00000E+00
    0.11155E-06        -0.37253E-20         0.00000E+00
    0.11155E-06        -0.27940E-20         0.00000E+00
    0.11155E-06        -0.91290E-21         0.00000E+00
    0.11155E-06         0.27755E-20         0.00000E+00
    0.11155E-06         0.91290E-21         0.00000E+00
    0.11155E-06        -0.27755E-20         0.00000E+00
    0.11155E-06         0.27940E-20         0.00000E+00
    0.11155E-06         0.11157E-19         0.00000E+00
    0.11155E-06         0.11139E-19         0.00000E+00
    0.11461E-06        -0.79187E-20         0.00000E+00
    0.11461E-06         0.18626E-20         0.00000E+00
    0.11461E-06         0.65193E-20         0.00000E+00
    0.11461E-06         0.18626E-20         0.00000E+00
    0.11461E-06        -0.69725E-21         0.00000E+00
    0.11461E-06        -0.72165E-20         0.00000E+00
    0.11461E-06        -0.74506E-20         0.00000E+00
    0.11461E-06        -0.10245E-19         0.00000E+00
    0.11461E-06        -0.15832E-19         0.00000E+00
    0.11461E-06        -0.13970E-19         0.00000E+00
    0.11461E-06        -0.51223E-20         0.00000E+00
    0.11461E-06         0.23159E-21         0.00000E+00
    0.11461E-06        -0.37253E-20         0.00000E+00
    0.11461E-06        -0.48907E-20         0.00000E+00
    0.11461E-06        -0.86160E-20         0.00000E+00
    0.11461E-06        -0.44225E-20         0.00000E+00
    0.11461E-06        -0.13039E-19         0.00000E+00
    0.11461E-06        -0.18858E-19         0.00000E+00
    0.11461E-06        -0.13967E-19         0.00000E+00
    0.11461E-06        -0.19558E-19         0.00000E+00
    0.11461E-06        -0.23051E-19         0.00000E+00
    0.11461E-06        -0.26777E-19         0.00000E+00
    0.11461E-06        -0.18626E-19         0.00000E+00
    0.11461E-06        -0.15601E-19         0.00000E+00
    0.11461E-06        -0.19324E-19         0.00000E+00
    0.11461E-06        -0.12573E-19         0.00000E+00
    0.11461E-06        -0.18626E-20         0.00000E+00
    0.11461E-06        -0.93132E-21         0.00000E+00
    0.11461E-06        -0.20967E-20         0.00000E+00
    0.11461E-06        -0.41910E-20         0.00000E+00
    0.11461E-06        -0.41910E-20         0.00000E+00
    0.11461E-06         0.39594E-20         0.00000E+00
    0.11461E-06         0.37253E-20         0.00000E+00
    0.11461E-06         0.23407E-21         0.00000E+00
    0.11461E-06         0.23283E-20         0.00000E+00
    0.11461E-06         0.93132E-21         0.00000E+00
    0.11461E-06         0.13970E-20         0.00000E+00
    0.11461E-06         0.46566E-20         0.00000E+00
    0.11461E-06         0.32596E-20         0.00000E+00
    0.11461E-06         0.41910E-20         0.00000E+00
    0.11461E-06         0.27940E-20         0.00000E+00
    0.11461E-06        -0.51223E-20         0.00000E+00
    0.11461E-06        -0.11407E-19         0.00000E+00
    0.11461E-06        -0.10245E-19         0.00000E+00
    0.11461E-06        -0.11644E-19         0.00000E+00
    0.11461E-06        -0.44250E-20         0.00000E+00
    0.11461E-06         0.53563E-20         0.00000E+00
    0.11461E-06         0.93132E-21         0.00000E+00
    0.11461E-06         0.00000E+00         0.00000E+00
    0.11461E-06         0.11654E-20         0.00000E+00
    0.11461E-06         0.23308E-20         0.00000E+00
    0.11739E-06        -0.18626E-20         0.00000E+00
    0.11739E-06         0.52413E-21         0.00000E+00
    0.11739E-06         0.46566E-20         0.00000E+00
    0.11739E-06         0.40719E-21         0.00000E+00
    0.11739E-06        -0.65193E-20         0.00000E+00
    0.11739E-06        -0.55879E-20         0.00000E+00
    0.11739E-06        -0.87891E-20         0.00000E+00
    0.11739E-06        -0.12514E-19         0.00000E+00
    0.11739E-06        -0.74506E-20         0.00000E+00
    0.11739E-06        -0.55879E-20         0.00000E+00
    0.11739E-06        -0.10245E-19         0.00000E+00
    0.11739E-06        -0.98958E-20         0.00000E+00
    0.11739E-06        -0.46566E-20         0.00000E+00
    0.11739E-06        -0.59367E-20         0.00000E+00
    0.11739E-06        -0.14552E-19         0.00000E+00
    0.11739E-06        -0.18626E-19         0.00000E+00
    0.11739E-06        -0.15774E-19         0.00000E+00
    0.11739E-06        -0.17695E-19         0.00000E+00
    0.11739E-06        -0.19034E-19         0.00000E+00
    0.11739E-06        -0.14901E-19         0.00000E+00
    0.11739E-06        -0.18219E-19         0.00000E+00
    0.11739E-06        -0.19151E-19         0.00000E+00
    0.11739E-06        -0.15308E-19         0.00000E+00
    0.11739E-06        -0.11176E-19         0.00000E+00
    0.11739E-06        -0.10245E-19         0.00000E+00
    0.11739E-06        -0.74506E-20         0.00000E+00
    0.11739E-06         0.13385E-20         0.00000E+00
    0.11739E-06         0.23868E-20         0.00000E+00
    0.11739E-06         0.51807E-20         0.00000E+00
    0.11739E-06         0.40740E-20         0.00000E+00
    0.11739E-06         0.93132E-21         0.00000E+00
    0.11739E-06         0.98979E-21         0.00000E+00
    0.11739E-06         0.18626E-20         0.00000E+00
    0.11739E-06         0.10245E-19         0.00000E+00
    0.11739E-06         0.59951E-20         0.00000E+00
    0.11739E-06        -0.50638E-20         0.00000E+00
    0.11739E-06        -0.87891E-20         0.00000E+00
    0.11739E-06        -0.70434E-20         0.00000E+00
    0.11739E-06        -0.14555E-20         0.00000E+00
    0.11739E-06        -0.13385E-20         0.00000E+00
    0.11739E-06        -0.27940E-20         0.00000E+00
    0.11739E-06        -0.27940E-20         0.00000E+00
    0.11739E-06        -0.41325E-20         0.00000E+00
    0.11739E-06        -0.55879E-20         0.00000E+00
    0.11739E-06        -0.37253E-20         0.00000E+00
    0.11739E-06        -0.93132E-21         0.00000E+00
    0.11739E-06        -0.51807E-20         0.00000E+00
    0.11739E-06        -0.79747E-20         0.00000E+00
    0.11739E-06         0.18626E-20         0.00000E+00
    0.11739E-06         0.51807E-20         0.00000E+00
    0.11739E-06         0.10483E-20         0.00000E+00
    0.11988E-06        -0.10995E-20         0.00000E+00
    0.11988E-06         0.00000E+00         0.00000E+00
    0.11988E-06        -0.13129E-20         0.00000E+00
    0.11988E-06        -0.74506E-20         0.00000E+00
    0.11988E-06        -0.93132E-20         0.00000E+00
    0.11988E-06        -0.84660E-20         0.00000E+00
    0.11988E-06        -0.93973E-20         0.00000E+00
    0.11988E-06        -0.10160E-19         0.00000E+00
    0.11988E-06        -0.15832E-19         0.00000E+00
    0.11988E-06        -0.93973E-20         0.00000E+00
    0.11988E-06         0.24124E-20         0.00000E+00
    0.11988E-06        -0.22442E-20         0.00000E+00
    0.11988E-06        -0.11260E-19         0.00000E+00
    0.11988E-06        -0.11176E-19         0.00000E+00
    0.11988E-06        -0.58855E-20         0.00000E+00
    0.11988E-06        -0.96948E-20         0.00000E+00
    0.11988E-06        -0.18245E-19         0.00000E+00
    0.11988E-06        -0.16001E-19         0.00000E+00
    0.11988E-06        -0.16382E-19         0.00000E+00
    0.11988E-06        -0.20489E-19         0.00000E+00
    0.11988E-06        -0.19558E-19         0.00000E+00
    0.11988E-06        -0.22352E-19         0.00000E+00
    0.11988E-06        -0.12023E-19         0.00000E+00
    0.11988E-06        -0.36412E-20         0.00000E+00
    0.11988E-06        -0.75347E-20         0.00000E+00
    0.11988E-06        -0.69849E-20         0.00000E+00
    0.11988E-06        -0.41069E-20         0.00000E+00
    0.11988E-06        -0.24124E-20         0.00000E+00
    0.11988E-06         0.38159E-21         0.00000E+00
    0.11988E-06         0.29621E-20         0.00000E+00
    0.11988E-06         0.19467E-20         0.00000E+00
    0.11988E-06         0.26470E-33         0.00000E+00
    0.11988E-06         0.51223E-20         0.00000E+00
    0.11988E-06         0.41069E-20         0.00000E+00
    0.11988E-06         0.27940E-20         0.00000E+00
    0.11988E-06        -0.14811E-20         0.00000E+00
    0.11988E-06        -0.42750E-20         0.00000E+00
    0.11988E-06        -0.22442E-20         0.00000E+00
    0.11988E-06        -0.23283E-20         0.00000E+00
    0.11988E-06        -0.19467E-20         0.00000E+00
    0.11988E-06        -0.83819E-20         0.00000E+00
    0.11988E-06        -0.14901E-19         0.00000E+00
    0.11988E-06        -0.11092E-19         0.00000E+00
    0.11988E-06        -0.55039E-20         0.00000E+00
    0.11988E-06        -0.75347E-20         0.00000E+00
    0.11988E-06        -0.88476E-20         0.00000E+00
    0.11988E-06        -0.31756E-20         0.00000E+00
    0.11988E-06        -0.10154E-20         0.00000E+00
    0.11988E-06        -0.19467E-20         0.00000E+00
    0.11988E-06         0.18626E-20         0.00000E+00
    0.11988E-06         0.74506E-20         0.00000E+00
    0.12203E-06        -0.37253E-20         0.00000E+00
    0.12203E-06        -0.39237E-20         0.00000E+00
    0.12203E-06        -0.29924E-20         0.00000E+00
    0.12203E-06        -0.55879E-20         0.00000E+00
    0.12203E-06        -0.81835E-20         0.00000E+00
    0.12203E-06        -0.83819E-20         0.00000E+00
    0.12203E-06        -0.93132E-20         0.00000E+00
    0.12203E-06        -0.12840E-19         0.00000E+00
    0.12203E-06        -0.13039E-19         0.00000E+00
    0.12203E-06        -0.13237E-19         0.00000E+00
    0.12203E-06        -0.13237E-19         0.00000E+00
    0.12203E-06        -0.65193E-20         0.00000E+00
    0.12203E-06        -0.27940E-20         0.00000E+00
    0.12203E-06        -0.75194E-20         0.00000E+00
    0.12203E-06        -0.16833E-19         0.00000E+00
    0.12203E-06        -0.18558E-19         0.00000E+00
    0.12203E-06        -0.15764E-19         0.00000E+00
    0.12203E-06        -0.11176E-19         0.00000E+00
    0.12203E-06        -0.11176E-19         0.00000E+00
    0.12203E-06        -0.16764E-19         0.00000E+00
    0.12203E-06        -0.20489E-19         0.00000E+00
    0.12203E-06        -0.15634E-19         0.00000E+00
    0.12203E-06        -0.14703E-19         0.00000E+00
    0.12203E-06        -0.13039E-19         0.00000E+00
    0.12203E-06        -0.95117E-20         0.00000E+00
    0.12203E-06        -0.93132E-21         0.00000E+00
    0.12203E-06         0.74506E-20         0.00000E+00
    0.12203E-06         0.27940E-20         0.00000E+00
    0.12203E-06         0.39686E-21         0.00000E+00
    0.12203E-06        -0.19843E-21         0.00000E+00
    0.12203E-06        -0.13282E-20         0.00000E+00
    0.12203E-06         0.20611E-20         0.00000E+00
    0.12203E-06         0.27940E-20         0.00000E+00
    0.12203E-06         0.16642E-20         0.00000E+00
    0.12203E-06         0.37253E-20         0.00000E+00
    0.12203E-06         0.48550E-20         0.00000E+00
    0.12203E-06         0.18626E-20         0.00000E+00
    0.12203E-06        -0.20611E-20         0.00000E+00
    0.12203E-06        -0.55879E-20         0.00000E+00
    0.12203E-06        -0.55879E-20         0.00000E+00
    0.12203E-06        -0.37253E-20         0.00000E+00
    0.12203E-06        -0.72522E-20         0.00000E+00
    0.12203E-06        -0.91148E-20         0.00000E+00
    0.12203E-06        -0.67177E-20         0.00000E+00
    0.12203E-06        -0.48550E-20         0.00000E+00
    0.12203E-06         0.11298E-20         0.00000E+00
    0.12203E-06         0.18626E-20         0.00000E+00
    0.12203E-06        -0.11298E-20         0.00000E+00
    0.12203E-06         0.67177E-20         0.00000E+00
    0.12203E-06         0.65193E-20         0.00000E+00
    0.12203E-06        -0.39686E-21         0.00000E+00
    0.12383E-06        -0.37253E-20         0.00000E+00
    0.12383E-06         0.40151E-20         0.00000E+00
    0.12383E-06         0.83819E-20         0.00000E+00
    0.12383E-06        -0.12211E-20         0.00000E+00
    0.12383E-06        -0.99547E-20         0.00000E+00
    0.12383E-06        -0.12749E-19         0.00000E+00
    0.12383E-06        -0.14260E-19         0.00000E+00
    0.12383E-06        -0.13039E-19         0.00000E+00
    0.12383E-06        -0.12107E-19         0.00000E+00
    0.12383E-06        -0.86717E-20         0.00000E+00
    0.12383E-06        -0.83819E-20         0.00000E+00
    0.12383E-06        -0.10886E-19         0.00000E+00
    0.12383E-06        -0.90234E-20         0.00000E+00
    0.12383E-06        -0.12397E-19         0.00000E+00
    0.12383E-06        -0.14146E-19         0.00000E+00
    0.12383E-06        -0.13970E-19         0.00000E+00
    0.12383E-06        -0.15015E-19         0.00000E+00
    0.12383E-06        -0.13970E-19         0.00000E+00
    0.12383E-06        -0.10245E-19         0.00000E+00
    0.12383E-06        -0.74506E-20         0.00000E+00
    0.12383E-06        -0.11817E-19         0.00000E+00
    0.12383E-06        -0.14611E-19         0.00000E+00
    0.12383E-06        -0.11466E-19         0.00000E+00
    0.12383E-06        -0.83819E-20         0.00000E+00
    0.12383E-06        -0.83819E-20         0.00000E+00
    0.12383E-06        -0.68091E-20         0.00000E+00
    0.12383E-06        -0.74506E-20         0.00000E+00
    0.12383E-06        -0.80921E-20         0.00000E+00
    0.12383E-06        -0.37253E-20         0.00000E+00
    0.12383E-06        -0.28981E-21         0.00000E+00
    0.12383E-06         0.27940E-20         0.00000E+00
    0.12383E-06         0.27940E-20         0.00000E+00
    0.12383E-06         0.18626E-20         0.00000E+00
    0.12383E-06         0.18626E-20         0.00000E+00
    0.12383E-06         0.93132E-21         0.00000E+00
    0.12383E-06        -0.93132E-21         0.00000E+00
    0.12383E-06         0.27940E-20         0.00000E+00
    0.12383E-06         0.74506E-20         0.00000E+00
    0.12383E-06         0.84959E-20         0.00000E+00
    0.12383E-06         0.18626E-20         0.00000E+00
    0.12383E-06        -0.11290E-19         0.00000E+00
    0.12383E-06        -0.13680E-19         0.00000E+00
    0.12383E-06        -0.65193E-20         0.00000E+00
    0.12383E-06         0.18626E-20         0.00000E+00
    0.12383E-06         0.46566E-20         0.00000E+00
    0.12383E-06        -0.28981E-21         0.00000E+00
    0.12383E-06        -0.93132E-21         0.00000E+00
    0.12383E-06         0.28981E-21         0.00000E+00
    0.12383E-06        -0.27940E-20         0.00000E+00
    0.12383E-06        -0.28981E-21         0.00000E+00
    0.12383E-06         0.37253E-20         0.00000E+00
    0.12526E-06         0.72743E-21         0.00000E+00
    0.12526E-06        -0.18626E-20         0.00000E+00
    0.12526E-06        -0.27940E-20         0.00000E+00
    0.12526E-06        -0.74506E-20         0.00000E+00
    0.12526E-06        -0.11642E-19         0.00000E+00
    0.12526E-06        -0.12573E-19         0.00000E+00
    0.12526E-06        -0.97789E-20         0.00000E+00
    0.12526E-06        -0.10710E-19         0.00000E+00
    0.12526E-06        -0.14435E-19         0.00000E+00
    0.12526E-06        -0.14435E-19         0.00000E+00
    0.12526E-06        -0.14901E-19         0.00000E+00
    0.12526E-06        -0.12107E-19         0.00000E+00
    0.12526E-06        -0.79162E-20         0.00000E+00
    0.12526E-06        -0.47586E-20         0.00000E+00
    0.12526E-06        -0.74506E-20         0.00000E+00
    0.12526E-06        -0.17593E-19         0.00000E+00
    0.12526E-06        -0.16764E-19         0.00000E+00
    0.12526E-06        -0.13039E-19         0.00000E+00
    0.12526E-06        -0.12937E-19         0.00000E+00
    0.12526E-06        -0.13039E-19         0.00000E+00
    0.12526E-06        -0.13970E-19         0.00000E+00
    0.12526E-06        -0.12107E-19         0.00000E+00
    0.12526E-06        -0.46566E-20         0.00000E+00
    0.12526E-06        -0.93132E-21         0.00000E+00
    0.12526E-06        -0.93132E-21         0.00000E+00
    0.12526E-06        -0.10333E-20         0.00000E+00
    0.12526E-06        -0.33750E-33         0.00000E+00
    0.12526E-06        -0.26920E-20         0.00000E+00
    0.12526E-06        -0.37253E-20         0.00000E+00
    0.12526E-06        -0.18626E-20         0.00000E+00
    0.12526E-06        -0.28959E-20         0.00000E+00
    0.12526E-06        -0.19646E-20         0.00000E+00
    0.12526E-06         0.18626E-20         0.00000E+00
    0.12526E-06         0.56899E-20         0.00000E+00
    0.12526E-06         0.10346E-19         0.00000E+00
    0.12526E-06         0.10245E-19         0.00000E+00
    0.12526E-06         0.65193E-20         0.00000E+00
    0.12526E-06         0.18626E-20         0.00000E+00
    0.12526E-06        -0.10333E-20         0.00000E+00
    0.12526E-06        -0.32596E-20         0.00000E+00
    0.12526E-06         0.32596E-20         0.00000E+00
    0.12526E-06         0.51223E-20         0.00000E+00
    0.12526E-06        -0.22264E-20         0.00000E+00
    0.12526E-06        -0.65193E-20         0.00000E+00
    0.12526E-06        -0.37253E-20         0.00000E+00
    0.12526E-06        -0.18626E-20         0.00000E+00
    0.12526E-06        -0.18626E-20         0.00000E+00
    0.12526E-06        -0.46566E-20         0.00000E+00
    0.12526E-06        -0.37253E-20         0.00000E+00
    0.12526E-06         0.47586E-20         0.00000E+00
    0.12526E-06         0.11380E-19         0.00000E+00
    0.12629E-06        -0.79650E-22         0.00000E+00
    0.12629E-06        -0.18626E-20         0.00000E+00
    0.12629E-06        -0.46168E-20         0.00000E+00
    0.12629E-06        -0.74904E-20         0.00000E+00
    0.12629E-06        -0.74904E-20         0.00000E+00
    0.12629E-06        -0.64794E-20         0.00000E+00
    0.12629E-06        -0.10205E-19         0.00000E+00
    0.12629E-06        -0.11176E-19         0.00000E+00
    0.12629E-06        -0.46168E-20         0.00000E+00
    0.12629E-06        -0.46566E-20         0.00000E+00
    0.12629E-06        -0.65591E-20         0.00000E+00
    0.12629E-06        -0.46566E-20         0.00000E+00
    0.12629E-06        -0.74506E-20         0.00000E+00
    0.12629E-06        -0.10245E-19         0.00000E+00
    0.12629E-06        -0.13970E-19         0.00000E+00
    0.12629E-06        -0.14901E-19         0.00000E+00
    0.12629E-06        -0.13970E-19         0.00000E+00
    0.12629E-06        -0.11176E-19         0.00000E+00
    0.12629E-06        -0.10245E-19         0.00000E+00
    0.12629E-06        -0.13039E-19         0.00000E+00
    0.12629E-06        -0.13970E-19         0.00000E+00
    0.12629E-06        -0.11176E-19         0.00000E+00
    0.12629E-06        -0.37253E-20         0.00000E+00
    0.12629E-06         0.18626E-20         0.00000E+00
    0.12629E-06         0.18626E-20         0.00000E+00
    0.12629E-06         0.46566E-20         0.00000E+00
    0.12629E-06         0.65193E-20         0.00000E+00
    0.12629E-06         0.55879E-20         0.00000E+00
    0.12629E-06         0.65193E-20         0.00000E+00
    0.12629E-06         0.27940E-20         0.00000E+00
    0.12629E-06         0.18626E-20         0.00000E+00
    0.12629E-06         0.13572E-20         0.00000E+00
    0.12629E-06         0.41910E-20         0.00000E+00
    0.12629E-06         0.51223E-20         0.00000E+00
    0.12629E-06         0.27940E-20         0.00000E+00
    0.12629E-06        -0.32198E-20         0.00000E+00
    0.12629E-06        -0.18626E-20         0.00000E+00
    0.12629E-06         0.22885E-20         0.00000E+00
    0.12629E-06         0.69849E-20         0.00000E+00
    0.12629E-06         0.11216E-19         0.00000E+00
    0.12629E-06         0.60138E-20         0.00000E+00
    0.12629E-06        -0.93132E-21         0.00000E+00
    0.12629E-06        -0.13572E-20         0.00000E+00
    0.12629E-06         0.93132E-21         0.00000E+00
    0.12629E-06        -0.27940E-20         0.00000E+00
    0.12629E-06        -0.32995E-20         0.00000E+00
    0.12629E-06        -0.93132E-21         0.00000E+00
    0.12629E-06        -0.22885E-20         0.00000E+00
    0.12629E-06         0.32198E-20         0.00000E+00
    0.12629E-06         0.37651E-20         0.00000E+00
    0.12629E-06         0.29533E-20         0.00000E+00
    0.12691E-06        -0.37253E-20         0.00000E+00
    0.12691E-06        -0.51059E-20         0.00000E+00
    0.12691E-06         0.32596E-20         0.00000E+00
    0.12691E-06        -0.94769E-21         0.00000E+00
    0.12691E-06        -0.16747E-19         0.00000E+00
    0.12691E-06        -0.13953E-19         0.00000E+00
    0.12691E-06        -0.32742E-22         0.00000E+00
    0.12691E-06         0.37089E-20         0.00000E+00
    0.12691E-06        -0.18463E-20         0.00000E+00
    0.12691E-06        -0.18626E-20         0.00000E+00
    0.12691E-06        -0.18626E-20         0.00000E+00
    0.12691E-06        -0.37253E-20         0.00000E+00
    0.12691E-06        -0.18626E-20         0.00000E+00
    0.12691E-06        -0.27776E-20         0.00000E+00
    0.12691E-06        -0.23283E-20         0.00000E+00
    0.12691E-06        -0.14134E-20         0.00000E+00
    0.12691E-06        -0.46566E-20         0.00000E+00
    0.12691E-06        -0.10245E-19         0.00000E+00
    0.12691E-06        -0.10245E-19         0.00000E+00
    0.12691E-06        -0.83819E-20         0.00000E+00
    0.12691E-06        -0.12107E-19         0.00000E+00
    0.12691E-06        -0.11176E-19         0.00000E+00
    0.12691E-06        -0.27940E-20         0.00000E+00
    0.12691E-06         0.27940E-20         0.00000E+00
    0.12691E-06         0.27940E-20         0.00000E+00
    0.12691E-06         0.65193E-20         0.00000E+00
    0.12691E-06         0.93132E-20         0.00000E+00
    0.12691E-06         0.37253E-20         0.00000E+00
    0.12691E-06         0.93132E-21         0.00000E+00
    0.12691E-06         0.00000E+00         0.00000E+00
    0.12691E-06        -0.93132E-21         0.00000E+00
    0.12691E-06         0.32742E-22         0.00000E+00
    0.12691E-06         0.41910E-20         0.00000E+00
    0.12691E-06         0.60209E-20         0.00000E+00
    0.12691E-06         0.55879E-20         0.00000E+00
    0.12691E-06         0.55879E-20         0.00000E+00
    0.12691E-06         0.37253E-20         0.00000E+00
    0.12691E-06        -0.18626E-20         0.00000E+00
    0.12691E-06        -0.18626E-20         0.00000E+00
    0.12691E-06         0.93132E-21         0.00000E+00
    0.12691E-06        -0.18626E-20         0.00000E+00
    0.12691E-06        -0.18626E-20         0.00000E+00
    0.12691E-06         0.00000E+00         0.00000E+00
    0.12691E-06        -0.37089E-20         0.00000E+00
    0.12691E-06        -0.27940E-20         0.00000E+00
    0.12691E-06        -0.16371E-22         0.00000E+00
    0.12691E-06        -0.46402E-20         0.00000E+00
    0.12691E-06        -0.46402E-20         0.00000E+00
    0.12691E-06         0.41746E-20         0.00000E+00
    0.12691E-06         0.60209E-20         0.00000E+00
    0.12691E-06         0.36925E-20         0.00000E+00
    0.12712E-06         0.00000E+00         0.00000E+00
    0.12712E-06         0.00000E+00         0.00000E+00
    0.12712E-06         0.00000E+00         0.00000E+00
    0.12712E-06         0.00000E+00         0.00000E+00
    0.12712E-06         0.00000E+00         0.00000E+00
    0.12712E-06         0.00000E+00         0.00000E+00
    0.12712E-06         0.00000E+00         0.00000E+00
    0.12712E-06         0.00000E+00         0.00000E+00
    0.12712E-06         0.00000E+00         0.00000E+00
    0.12712E-06        -0.37253E-20         0.00000E+00
    0.12712E-06         0.00000E+00         0.00000E+00
    0.12712E-06         0.37253E-20         0.00000E+00
    0.12712E-06         0.00000E+00         0.00000E+00
    0.12712E-06         0.00000E+00         0.00000E+00
    0.12712E-06         0.00000E+00         0.00000E+00
    0.12712E-06         0.00000E+00         0.00000E+00
    0.12712E-06         0.00000E+00         0.00000E+00
    0.12712E-06         0.37253E-20         0.00000E+00
    0.12712E-06         0.00000E+00         0.00000E+00
    0.12712E-06        -0.37253E-20         0.00000E+00
    0.12712E-06         0.00000E+00         0.00000E+00
    0.12712E-06         0.00000E+00         0.00000E+00
    0.12712E-06         0.00000E+00         0.00000E+00
    0.12712E-06         0.00000E+00         0.00000E+00
    0.12712E-06         0.00000E+00         0.00000E+00
    0.12712E-06         0.00000E+00         0.00000E+00
    0.12712E-06         0.00000E+00         0.00000E+00
    0.12712E-06         0.00000E+00         0.00000E+00
    0.12712E-06         0.00000E+00         0.00000E+00
    0.12712E-06         0.00000E+00         0.00000E+00
    0.12712E-06         0.00000E+00         0.00000E+00
    0.12712E-06         0.00000E+00         0.00000E+00
    0.12712E-06         0.00000E+00         0.00000E+00
    0.12712E-06         0.00000E+00         0.00000E+00
    0.12712E-06         0.00000E+00         0.00000E+00
    0.12712E-06         0.00000E+00         0.00000E+00
    0.12712E-06         0.00000E+00         0.00000E+00
    0.12712E-06         0.00000E+00         0.00000E+00
    0.12712E-06         0.00000E+00         0.00000E+00
    0.12712E-06        -0.46566E-20         0.00000E+00
    0.12712E-06        -0.37253E-20         0.00000E+00
    0.12712E-06         0.37253E-20         0.00000E+00
    0.12712E-06         0.37253E-20         0.00000E+00
    0.12712E-06         0.00000E+00         0.00000E+00
    0.12712E-06         0.00000E+00         0.00000E+00
    0.12712E-06         0.00000E+00         0.00000E+00
    0.12712E-06         0.00000E+00         0.00000E+00
    0.12712E-06         0.37253E-20         0.00000E+00
    0.12712E-06         0.93132E-21         0.00000E+00
    0.12712E-06         0.00000E+00         0.00000E+00
    0.12712E-06         0.74506E-20         0.00000E+00
CELL_DATA       5000
TENSORS stressef double 
    0.14307E+08        -0.11843E+06         0.00000E+00
   -0.11843E+06         0.19546E+08         0.00000E+00
    0.00000E+00         0.00000E+00         0.96393E+07
 
    0.14246E+08        -0.10585E+06         0.00000E+00
   -0.10585E+06         0.19531E+08         0.00000E+00
    0.00000E+00         0.00000E+00         0.90005E+07
 
    0.14104E+08        -0.10901E+06         0.00000E+00
   -0.10901E+06         0.19512E+08         0.00000E+00
    0.00000E+00         0.00000E+00         0.84309E+07
 
    0.13923E+08        -0.11899E+06         0.00000E+00
   -0.11899E+06         0.19487E+08         0.00000E+00
    0.00000E+00         0.00000E+00         0.79219E+07
 
    0.13713E+08        -0.13468E+06         0.00000E+00
   -0.13468E+06         0.19450E+08         0.00000E+00
    0.00000E+00         0.00000E+00         0.74894E+07
 
    0.13476E+08        -0.15268E+06         0.00000E+00
   -0.15268E+06         0.19398E+08         0.00000E+00
    0.00000E+00         0.00000E+00         0.71693E+07
 
    0.13229E+08        -0.16672E+06         0.00000E+00
   -0.16672E+06         0.19335E+08         0.00000E+00
    0.00000E+00         0.00000E+00         0.69902E+07
 
    0.12977E+08        -0.17247E+06         0.00000E+00
   -0.17247E+06         0.19274E+08         0.00000E+00
    0.00000E+00         0.00000E+00         0.68514E+07
 
    0.12725E+08        -0.16892E+06         0.00000E+00
   -0.16892E+06         0.19213E+08         0.00000E+00
    0.00000E+00         0.00000E+00         0.67144E+07
 
    0.12485E+08        -0.16025E+06         0.00000E+00
   -0.16025E+06         0.19153E+08         0.00000E+00
    0.00000E+00         0.00000E+00         0.65852E+07
 
    0.12258E+08        -0.15004E+06         0.00000E+00
   -0.15004E+06         0.19098E+08         0.00000E+00
    0.00000E+00         0.00000E+00         0.64686E+07
 
    0.12046E+08        -0.14072E+06         0.00000E+00
   -0.14072E+06         0.19047E+08         0.00000E+00
    0.00000E+00         0.00000E+00         0.63608E+07
 
    0.11846E+08        -0.13301E+06         0.00000E+00
   -0.13301E+06         0.18997E+08         0.00000E+00
    0.00000E+00         0.00000E+00         0.62607E+07
 
    0.11656E+08        -0.12710E+06         0.00000E+00
   -0.12710E+06         0.18950E+08         0.00000E+00
    0.00000E+00         0.00000E+00         0.61670E+07
 
    0.11475E+08        -0.12294E+06         0.00000E+00
   -0.12294E+06         0.18900E+08         0.00000E+00
    0.00000E+00         0.00000E+00         0.60913E+07
 
    0.11303E+08        -0.11965E+06         0.00000E+00
   -0.11965E+06         0.18848E+08         0.00000E+00
    0.00000E+00         0.00000E+00         0.60385E+07
 
    0.11136E+08        -0.11691E+06         0.00000E+00
   -0.11691E+06         0.18799E+08         0.00000E+00
    0.00000E+00         0.00000E+00         0.59882E+07
 
    0.10975E+08        -0.11404E+06         0.00000E+00
   -0.11404E+06         0.18752E+08         0.00000E+00
    0.00000E+00         0.00000E+00         0.59453E+07
 
    0.10818E+08        -0.11058E+06         0.00000E+00
   -0.11058E+06         0.18707E+08         0.00000E+00
    0.00000E+00         0.00000E+00         0.59050E+07
 
    0.10665E+08        -0.10653E+06         0.00000E+00
   -0.10653E+06         0.18663E+08         0.00000E+00
    0.00000E+00         0.00000E+00         0.58657E+07
 
    0.10515E+08        -0.10200E+06         0.00000E+00
   -0.10200E+06         0.18622E+08         0.00000E+00
    0.00000E+00         0.00000E+00         0.58275E+07
 
    0.10368E+08        -0.97067E+05         0.00000E+00
   -0.97067E+05         0.18583E+08         0.00000E+00
    0.00000E+00         0.00000E+00         0.57901E+07
 
    0.10223E+08        -0.91798E+05         0.00000E+00
   -0.91798E+05         0.18546E+08         0.00000E+00
    0.00000E+00         0.00000E+00         0.57536E+07
 
    0.10079E+08        -0.86239E+05         0.00000E+00
   -0.86239E+05         0.18511E+08         0.00000E+00
    0.00000E+00         0.00000E+00         0.57178E+07
 
    0.99356E+07        -0.80414E+05         0.00000E+00
   -0.80414E+05         0.18478E+08         0.00000E+00
    0.00000E+00         0.00000E+00         0.56827E+07
 
    0.97928E+07        -0.74331E+05         0.00000E+00
   -0.74331E+05         0.18448E+08         0.00000E+00
    0.00000E+00         0.00000E+00         0.56481E+07
 
    0.96498E+07        -0.67979E+05         0.00000E+00
   -0.67979E+05         0.18420E+08         0.00000E+00
    0.00000E+00         0.00000E+00         0.56139E+07
 
    0.95060E+07        -0.61333E+05         0.00000E+00
   -0.61333E+05         0.18395E+08         0.00000E+00
    0.00000E+00         0.00000E+00         0.55801E+07
 
    0.93608E+07        -0.54350E+05         0.00000E+00
   -0.54350E+05         0.18372E+08         0.00000E+00
    0.00000E+00         0.00000E+00         0.55466E+07
 
    0.92137E+07        -0.46969E+05         0.00000E+00
   -0.46969E+05         0.18353E+08         0.00000E+00
    0.00000E+00         0.00000E+00         0.55132E+07
 
    0.90639E+07        -0.39106E+05         0.00000E+00
   -0.39106E+05         0.18336E+08         0.00000E+00
    0.00000E+00         0.00000E+00         0.54800E+07
 
    0.89107E+07        -0.30643E+05         0.00000E+00
   -0.30643E+05         0.18322E+08         0.00000E+00
    0.00000E+00         0.00000E+00         0.54466E+07
 
    0.87533E+07        -0.21419E+05         0.00000E+00
   -0.21419E+05         0.18312E+08         0.00000E+00
    0.00000E+00         0.00000E+00         0.54132E+07
 
    0.85907E+07        -0.11196E+05         0.00000E+00
   -0.11196E+05         0.18306E+08         0.00000E+00
    0.00000E+00         0.00000E+00         0.53794E+07
 
    0.84216E+07         0.38820E+03         0.00000E+00
    0.38820E+03         0.18304E+08         0.00000E+00
    0.00000E+00         0.00000E+00         0.53452E+07
 
    0.82498E+07         0.14399E+05         0.00000E+00
    0.14399E+05         0.18307E+08         0.00000E+00
    0.00000E+00         0.00000E+00         0.53205E+07
 
    0.80856E+07         0.31491E+05         0.00000E+00
    0.31491E+05         0.18317E+08         0.00000E+00
    0.00000E+00         0.00000E+00         0.53243E+07
 
    0.79546E+07         0.47776E+05         0.00000E+00
    0.47776E+05         0.18329E+08         0.00000E+00
    0.00000E+00         0.00000E+00         0.53955E+07
 
    0.78441E+07         0.57792E+05         0.00000E+00
    0.57792E+05         0.18352E+08         0.00000E+00
    0.00000E+00         0.00000E+00         0.54898E+07
 
    0.77464E+07         0.64095E+05         0.00000E+00
    0.64095E+05         0.18378E+08         0.00000E+00
    0.00000E+00         0.00000E+00         0.55893E+07
 
    0.76597E+07         0.71845E+05         0.00000E+00
    0.71845E+05         0.18406E+08         0.00000E+00
    0.00000E+00         0.00000E+00         0.56965E+07
 
    0.75852E+07         0.80806E+05         0.00000E+00
    0.80806E+05         0.18438E+08         0.00000E+00
    0.00000E+00         0.00000E+00         0.58116E+07
 
    0.75192E+07         0.89926E+05         0.00000E+00
    0.89926E+05         0.18473E+08         0.00000E+00
    0.00000E+00         0.00000E+00         0.59349E+07
 
    0.74592E+07         0.10049E+06         0.00000E+00
    0.10049E+06         0.18512E+08         0.00000E+00
    0.00000E+00         0.00000E+00         0.60696E+07
 
    0.74091E+07         0.11343E+06         0.00000E+00
    0.11343E+06         0.18555E+08         0.00000E+00
    0.00000E+00         0.00000E+00         0.62159E+07
 
    0.73672E+07         0.12864E+06         0.00000E+00
    0.12864E+06         0.18603E+08         0.00000E+00
    0.00000E+00         0.00000E+00         0.63769E+07
 
    0.73312E+07         0.14741E+06         0.00000E+00
    0.14741E+06         0.18657E+08         0.00000E+00
    0.00000E+00         0.00000E+00         0.65571E+07
 
    0.73100E+07         0.17054E+06         0.00000E+00
    0.17054E+06         0.18718E+08         0.00000E+00
    0.00000E+00         0.00000E+00         0.67536E+07
 
    0.72988E+07         0.20037E+06         0.00000E+00
    0.20037E+06         0.18786E+08         0.00000E+00
    0.00000E+00         0.00000E+00         0.69724E+07
 
    0.73050E+07         0.24115E+06         0.00000E+00
    0.24115E+06         0.18860E+08         0.00000E+00
    0.00000E+00         0.00000E+00         0.72059E+07
 
    0.13286E+08         0.29386E+04         0.00000E+00
    0.29386E+04         0.18797E+08         0.00000E+00
    0.00000E+00         0.00000E+00         0.64710E+07
 
    0.13197E+08        -0.79111E+05         0.00000E+00
   -0.79111E+05         0.18809E+08         0.00000E+00
    0.00000E+00         0.00000E+00         0.64637E+07
 
    0.13052E+08        -0.15057E+06         0.00000E+00
   -0.15057E+06         0.18803E+08         0.00000E+00
    0.00000E+00         0.00000E+00         0.64279E+07
 
    0.12875E+08        -0.21341E+06         0.00000E+00
   -0.21341E+06         0.18787E+08         0.00000E+00
    0.00000E+00         0.00000E+00         0.63744E+07
 
    0.12679E+08        -0.26749E+06         0.00000E+00
   -0.26749E+06         0.18771E+08         0.00000E+00
    0.00000E+00         0.00000E+00         0.63200E+07
 
    0.12474E+08        -0.31027E+06         0.00000E+00
   -0.31027E+06         0.18760E+08         0.00000E+00
    0.00000E+00         0.00000E+00         0.62724E+07
 
    0.12266E+08        -0.34183E+06         0.00000E+00
   -0.34183E+06         0.18754E+08         0.00000E+00
    0.00000E+00         0.00000E+00         0.62323E+07
 
    0.12055E+08        -0.36518E+06         0.00000E+00
   -0.36518E+06         0.18735E+08         0.00000E+00
    0.00000E+00         0.00000E+00         0.61800E+07
 
    0.11844E+08        -0.38157E+06         0.00000E+00
   -0.38157E+06         0.18711E+08         0.00000E+00
    0.00000E+00         0.00000E+00         0.61224E+07
 
    0.11634E+08        -0.39124E+06         0.00000E+00
   -0.39124E+06         0.18679E+08         0.00000E+00
    0.00000E+00         0.00000E+00         0.60636E+07
 
    0.11427E+08        -0.39457E+06         0.00000E+00
   -0.39457E+06         0.18640E+08         0.00000E+00
    0.00000E+00         0.00000E+00         0.60134E+07
 
    0.11226E+08        -0.39261E+06         0.00000E+00
   -0.39261E+06         0.18596E+08         0.00000E+00
    0.00000E+00         0.00000E+00         0.59645E+07
 
    0.11032E+08        -0.38699E+06         0.00000E+00
   -0.38699E+06         0.18549E+08         0.00000E+00
    0.00000E+00         0.00000E+00         0.59163E+07
 
    0.10845E+08        -0.37883E+06         0.00000E+00
   -0.37883E+06         0.18502E+08         0.00000E+00
    0.00000E+00         0.00000E+00         0.58694E+07
 
    0.10667E+08        -0.36864E+06         0.00000E+00
   -0.36864E+06         0.18459E+08         0.00000E+00
    0.00000E+00         0.00000E+00         0.58252E+07
 
    0.10496E+08        -0.35682E+06         0.00000E+00
   -0.35682E+06         0.18421E+08         0.00000E+00
    0.00000E+00         0.00000E+00         0.57834E+07
 
    0.10331E+08        -0.34377E+06         0.00000E+00
   -0.34377E+06         0.18384E+08         0.00000E+00
    0.00000E+00         0.00000E+00         0.57431E+07
 
    0.10172E+08        -0.32991E+06         0.00000E+00
   -0.32991E+06         0.18347E+08         0.00000E+00
    0.00000E+00         0.00000E+00         0.57039E+07
 
    0.10018E+08        -0.31561E+06         0.00000E+00
   -0.31561E+06         0.18312E+08         0.00000E+00
    0.00000E+00         0.00000E+00         0.56660E+07
 
    0.98671E+07        -0.30090E+06         0.00000E+00
   -0.30090E+06         0.18279E+08         0.00000E+00
    0.00000E+00         0.00000E+00         0.56292E+07
 
    0.97195E+07        -0.28575E+06         0.00000E+00
   -0.28575E+06         0.18247E+08         0.00000E+00
    0.00000E+00         0.00000E+00         0.55933E+07
 
    0.95743E+07        -0.27012E+06         0.00000E+00
   -0.27012E+06         0.18217E+08         0.00000E+00
    0.00000E+00         0.00000E+00         0.55584E+07
 
    0.94310E+07        -0.25400E+06         0.00000E+00
   -0.25400E+06         0.18190E+08         0.00000E+00
    0.00000E+00         0.00000E+00         0.55241E+07
 
    0.92892E+07        -0.23734E+06         0.00000E+00
   -0.23734E+06         0.18164E+08         0.00000E+00
    0.00000E+00         0.00000E+00         0.54905E+07
 
    0.91482E+07        -0.22012E+06         0.00000E+00
   -0.22012E+06         0.18140E+08         0.00000E+00
    0.00000E+00         0.00000E+00         0.54576E+07
 
    0.90078E+07        -0.20227E+06         0.00000E+00
   -0.20227E+06         0.18118E+08         0.00000E+00
    0.00000E+00         0.00000E+00         0.54251E+07
 
    0.88675E+07        -0.18373E+06         0.00000E+00
   -0.18373E+06         0.18098E+08         0.00000E+00
    0.00000E+00         0.00000E+00         0.53931E+07
 
    0.87267E+07        -0.16439E+06         0.00000E+00
   -0.16439E+06         0.18081E+08         0.00000E+00
    0.00000E+00         0.00000E+00         0.53615E+07
 
    0.85851E+07        -0.14412E+06         0.00000E+00
   -0.14412E+06         0.18066E+08         0.00000E+00
    0.00000E+00         0.00000E+00         0.53302E+07
 
    0.84423E+07        -0.12275E+06         0.00000E+00
   -0.12275E+06         0.18053E+08         0.00000E+00
    0.00000E+00         0.00000E+00         0.52991E+07
 
    0.82976E+07        -0.10008E+06         0.00000E+00
   -0.10008E+06         0.18044E+08         0.00000E+00
    0.00000E+00         0.00000E+00         0.52682E+07
 
    0.81508E+07        -0.75834E+05         0.00000E+00
   -0.75834E+05         0.18036E+08         0.00000E+00
    0.00000E+00         0.00000E+00         0.52375E+07
 
    0.80013E+07        -0.49677E+05         0.00000E+00
   -0.49677E+05         0.18032E+08         0.00000E+00
    0.00000E+00         0.00000E+00         0.52067E+07
 
    0.78489E+07        -0.21183E+05         0.00000E+00
   -0.21183E+05         0.18031E+08         0.00000E+00
    0.00000E+00         0.00000E+00         0.51760E+07
 
    0.76932E+07         0.10179E+05         0.00000E+00
    0.10179E+05         0.18033E+08         0.00000E+00
    0.00000E+00         0.00000E+00         0.51453E+07
 
    0.75338E+07         0.44385E+05         0.00000E+00
    0.44385E+05         0.18039E+08         0.00000E+00
    0.00000E+00         0.00000E+00         0.51145E+07
 
    0.73728E+07         0.80725E+05         0.00000E+00
    0.80725E+05         0.18047E+08         0.00000E+00
    0.00000E+00         0.00000E+00         0.50912E+07
 
    0.72220E+07         0.11902E+06         0.00000E+00
    0.11902E+06         0.18061E+08         0.00000E+00
    0.00000E+00         0.00000E+00         0.50992E+07
 
    0.70908E+07         0.15780E+06         0.00000E+00
    0.15780E+06         0.18068E+08         0.00000E+00
    0.00000E+00         0.00000E+00         0.51553E+07
 
    0.69868E+07         0.19178E+06         0.00000E+00
    0.19178E+06         0.18086E+08         0.00000E+00
    0.00000E+00         0.00000E+00         0.52573E+07
 
    0.69024E+07         0.21809E+06         0.00000E+00
    0.21809E+06         0.18115E+08         0.00000E+00
    0.00000E+00         0.00000E+00         0.53795E+07
 
    0.68312E+07         0.24202E+06         0.00000E+00
    0.24202E+06         0.18146E+08         0.00000E+00
    0.00000E+00         0.00000E+00         0.55055E+07
 
    0.67761E+07         0.26962E+06         0.00000E+00
    0.26962E+06         0.18181E+08         0.00000E+00
    0.00000E+00         0.00000E+00         0.56380E+07
 
    0.67344E+07         0.30176E+06         0.00000E+00
    0.30176E+06         0.18220E+08         0.00000E+00
    0.00000E+00         0.00000E+00         0.57787E+07
 
    0.67043E+07         0.33802E+06         0.00000E+00
    0.33802E+06         0.18262E+08         0.00000E+00
    0.00000E+00         0.00000E+00         0.59265E+07
 
    0.66890E+07         0.38067E+06         0.00000E+00
    0.38067E+06         0.18308E+08         0.00000E+00
    0.00000E+00         0.00000E+00         0.60819E+07
 
    0.66883E+07         0.43110E+06         0.00000E+00
    0.43110E+06         0.18359E+08         0.00000E+00
    0.00000E+00         0.00000E+00         0.62480E+07
 
    0.67072E+07         0.49067E+06         0.00000E+00
    0.49067E+06         0.18415E+08         0.00000E+00
    0.00000E+00         0.00000E+00         0.64223E+07
 
    0.67527E+07         0.55980E+06         0.00000E+00
    0.55980E+06         0.18479E+08         0.00000E+00
    0.00000E+00         0.00000E+00         0.66051E+07
 
    0.68371E+07         0.63767E+06         0.00000E+00
    0.63767E+06         0.18554E+08         0.00000E+00
    0.00000E+00         0.00000E+00         0.67965E+07
 
    0.12182E+08        -0.21108E+05         0.00000E+00
   -0.21108E+05         0.17863E+08         0.00000E+00
    0.00000E+00         0.00000E+00         0.60089E+07
 
    0.12033E+08        -0.83125E+05         0.00000E+00
   -0.83125E+05         0.17851E+08         0.00000E+00
    0.00000E+00         0.00000E+00         0.59768E+07
 
    0.11887E+08        -0.15209E+06         0.00000E+00
   -0.15209E+06         0.17849E+08         0.00000E+00
    0.00000E+00         0.00000E+00         0.59472E+07
 
    0.11736E+08        -0.21886E+06         0.00000E+00
   -0.21886E+06         0.17852E+08         0.00000E+00
    0.00000E+00         0.00000E+00         0.59176E+07
 
    0.11577E+08        -0.27916E+06         0.00000E+00
   -0.27916E+06         0.17855E+08         0.00000E+00
    0.00000E+00         0.00000E+00         0.58866E+07
 
    0.11413E+08        -0.33242E+06         0.00000E+00
   -0.33242E+06         0.17856E+08         0.00000E+00
    0.00000E+00         0.00000E+00         0.58538E+07
 
    0.11244E+08        -0.37915E+06         0.00000E+00
   -0.37915E+06         0.17852E+08         0.00000E+00
    0.00000E+00         0.00000E+00         0.58193E+07
 
    0.11072E+08        -0.41878E+06         0.00000E+00
   -0.41878E+06         0.17850E+08         0.00000E+00
    0.00000E+00         0.00000E+00         0.57846E+07
 
    0.10898E+08        -0.45048E+06         0.00000E+00
   -0.45048E+06         0.17849E+08         0.00000E+00
    0.00000E+00         0.00000E+00         0.57493E+07
 
    0.10723E+08        -0.47427E+06         0.00000E+00
   -0.47427E+06         0.17846E+08         0.00000E+00
    0.00000E+00         0.00000E+00         0.57138E+07
 
    0.10548E+08        -0.49057E+06         0.00000E+00
   -0.49057E+06         0.17842E+08         0.00000E+00
    0.00000E+00         0.00000E+00         0.56779E+07
 
    0.10375E+08        -0.50009E+06         0.00000E+00
   -0.50009E+06         0.17836E+08         0.00000E+00
    0.00000E+00         0.00000E+00         0.56422E+07
 
    0.10204E+08        -0.50330E+06         0.00000E+00
   -0.50330E+06         0.17829E+08         0.00000E+00
    0.00000E+00         0.00000E+00         0.56066E+07
 
    0.10037E+08        -0.50081E+06         0.00000E+00
   -0.50081E+06         0.17821E+08         0.00000E+00
    0.00000E+00         0.00000E+00         0.55715E+07
 
    0.98733E+07        -0.49363E+06         0.00000E+00
   -0.49363E+06         0.17810E+08         0.00000E+00
    0.00000E+00         0.00000E+00         0.55366E+07
 
    0.97139E+07        -0.48291E+06         0.00000E+00
   -0.48291E+06         0.17797E+08         0.00000E+00
    0.00000E+00         0.00000E+00         0.55021E+07
 
    0.95585E+07        -0.46942E+06         0.00000E+00
   -0.46942E+06         0.17783E+08         0.00000E+00
    0.00000E+00         0.00000E+00         0.54683E+07
 
    0.94068E+07        -0.45360E+06         0.00000E+00
   -0.45360E+06         0.17769E+08         0.00000E+00
    0.00000E+00         0.00000E+00         0.54352E+07
 
    0.92584E+07        -0.43577E+06         0.00000E+00
   -0.43577E+06         0.17755E+08         0.00000E+00
    0.00000E+00         0.00000E+00         0.54028E+07
 
    0.91129E+07        -0.41624E+06         0.00000E+00
   -0.41624E+06         0.17742E+08         0.00000E+00
    0.00000E+00         0.00000E+00         0.53710E+07
 
    0.89701E+07        -0.39525E+06         0.00000E+00
   -0.39525E+06         0.17729E+08         0.00000E+00
    0.00000E+00         0.00000E+00         0.53398E+07
 
    0.88293E+07        -0.37294E+06         0.00000E+00
   -0.37294E+06         0.17717E+08         0.00000E+00
    0.00000E+00         0.00000E+00         0.53092E+07
 
    0.86904E+07        -0.34940E+06         0.00000E+00
   -0.34940E+06         0.17705E+08         0.00000E+00
    0.00000E+00         0.00000E+00         0.52792E+07
 
    0.85529E+07        -0.32468E+06         0.00000E+00
   -0.32468E+06         0.17695E+08         0.00000E+00
    0.00000E+00         0.00000E+00         0.52497E+07
 
    0.84165E+07        -0.29880E+06         0.00000E+00
   -0.29880E+06         0.17687E+08         0.00000E+00
    0.00000E+00         0.00000E+00         0.52206E+07
 
    0.82809E+07        -0.27173E+06         0.00000E+00
   -0.27173E+06         0.17680E+08         0.00000E+00
    0.00000E+00         0.00000E+00         0.51921E+07
 
    0.81457E+07        -0.24342E+06         0.00000E+00
   -0.24342E+06         0.17674E+08         0.00000E+00
    0.00000E+00         0.00000E+00         0.51639E+07
 
    0.80106E+07        -0.21378E+06         0.00000E+00
   -0.21378E+06         0.17670E+08         0.00000E+00
    0.00000E+00         0.00000E+00         0.51361E+07
 
    0.78755E+07        -0.18272E+06         0.00000E+00
   -0.18272E+06         0.17668E+08         0.00000E+00
    0.00000E+00         0.00000E+00         0.51087E+07
 
    0.77400E+07        -0.15006E+06         0.00000E+00
   -0.15006E+06         0.17668E+08         0.00000E+00
    0.00000E+00         0.00000E+00         0.50816E+07
 
    0.76038E+07        -0.11564E+06         0.00000E+00
   -0.11564E+06         0.17670E+08         0.00000E+00
    0.00000E+00         0.00000E+00         0.50547E+07
 
    0.74668E+07        -0.79227E+05         0.00000E+00
   -0.79227E+05         0.17674E+08         0.00000E+00
    0.00000E+00         0.00000E+00         0.50281E+07
 
    0.73288E+07        -0.40570E+05         0.00000E+00
   -0.40570E+05         0.17680E+08         0.00000E+00
    0.00000E+00         0.00000E+00         0.50017E+07
 
    0.71895E+07         0.60680E+03         0.00000E+00
    0.60680E+03         0.17688E+08         0.00000E+00
    0.00000E+00         0.00000E+00         0.49755E+07
 
    0.70488E+07         0.44575E+05         0.00000E+00
    0.44575E+05         0.17698E+08         0.00000E+00
    0.00000E+00         0.00000E+00         0.49494E+07
 
    0.69065E+07         0.91781E+05         0.00000E+00
    0.91781E+05         0.17711E+08         0.00000E+00
    0.00000E+00         0.00000E+00         0.49234E+07
 
    0.67624E+07         0.14245E+06         0.00000E+00
    0.14245E+06         0.17724E+08         0.00000E+00
    0.00000E+00         0.00000E+00         0.48973E+07
 
    0.66143E+07         0.19487E+06         0.00000E+00
    0.19487E+06         0.17739E+08         0.00000E+00
    0.00000E+00         0.00000E+00         0.48706E+07
 
    0.64683E+07         0.24799E+06         0.00000E+00
    0.24799E+06         0.17768E+08         0.00000E+00
    0.00000E+00         0.00000E+00         0.48583E+07
 
    0.63428E+07         0.30447E+06         0.00000E+00
    0.30447E+06         0.17793E+08         0.00000E+00
    0.00000E+00         0.00000E+00         0.48949E+07
 
    0.62425E+07         0.36349E+06         0.00000E+00
    0.36349E+06         0.17803E+08         0.00000E+00
    0.00000E+00         0.00000E+00         0.49831E+07
 
    0.61786E+07         0.41922E+06         0.00000E+00
    0.41922E+06         0.17833E+08         0.00000E+00
    0.00000E+00         0.00000E+00         0.51219E+07
 
    0.61373E+07         0.46812E+06         0.00000E+00
    0.46812E+06         0.17874E+08         0.00000E+00
    0.00000E+00         0.00000E+00         0.52783E+07
 
    0.61142E+07         0.51552E+06         0.00000E+00
    0.51552E+06         0.17918E+08         0.00000E+00
    0.00000E+00         0.00000E+00         0.54351E+07
 
    0.61129E+07         0.56842E+06         0.00000E+00
    0.56842E+06         0.17965E+08         0.00000E+00
    0.00000E+00         0.00000E+00         0.55941E+07
 
    0.61310E+07         0.62807E+06         0.00000E+00
    0.62807E+06         0.18016E+08         0.00000E+00
    0.00000E+00         0.00000E+00         0.57532E+07
 
    0.61675E+07         0.69441E+06         0.00000E+00
    0.69441E+06         0.18067E+08         0.00000E+00
    0.00000E+00         0.00000E+00         0.59101E+07
 
    0.62200E+07         0.76526E+06         0.00000E+00
    0.76526E+06         0.18120E+08         0.00000E+00
    0.00000E+00         0.00000E+00         0.60620E+07
 
    0.62873E+07         0.84042E+06         0.00000E+00
    0.84042E+06         0.18172E+08         0.00000E+00
    0.00000E+00         0.00000E+00         0.62075E+07
 
    0.63636E+07         0.91675E+06         0.00000E+00
    0.91675E+06         0.18222E+08         0.00000E+00
    0.00000E+00         0.00000E+00         0.63413E+07
 
    0.11015E+08        -0.48563E+05         0.00000E+00
   -0.48563E+05         0.17058E+08         0.00000E+00
    0.00000E+00         0.00000E+00         0.56147E+07
 
    0.10877E+08        -0.11611E+06         0.00000E+00
   -0.11611E+06         0.17056E+08         0.00000E+00
    0.00000E+00         0.00000E+00         0.55865E+07
 
    0.10742E+08        -0.17689E+06         0.00000E+00
   -0.17689E+06         0.17051E+08         0.00000E+00
    0.00000E+00         0.00000E+00         0.55586E+07
 
    0.10609E+08        -0.23348E+06         0.00000E+00
   -0.23348E+06         0.17047E+08         0.00000E+00
    0.00000E+00         0.00000E+00         0.55312E+07
 
    0.10476E+08        -0.28615E+06         0.00000E+00
   -0.28615E+06         0.17045E+08         0.00000E+00
    0.00000E+00         0.00000E+00         0.55042E+07
 
    0.10341E+08        -0.33407E+06         0.00000E+00
   -0.33407E+06         0.17045E+08         0.00000E+00
    0.00000E+00         0.00000E+00         0.54773E+07
 
    0.10204E+08        -0.37628E+06         0.00000E+00
   -0.37628E+06         0.17048E+08         0.00000E+00
    0.00000E+00         0.00000E+00         0.54505E+07
 
    0.10065E+08        -0.41248E+06         0.00000E+00
   -0.41248E+06         0.17052E+08         0.00000E+00
    0.00000E+00         0.00000E+00         0.54234E+07
 
    0.99245E+07        -0.44277E+06         0.00000E+00
   -0.44277E+06         0.17056E+08         0.00000E+00
    0.00000E+00         0.00000E+00         0.53962E+07
 
    0.97825E+07        -0.46713E+06         0.00000E+00
   -0.46713E+06         0.17061E+08         0.00000E+00
    0.00000E+00         0.00000E+00         0.53688E+07
 
    0.96398E+07        -0.48561E+06         0.00000E+00
   -0.48561E+06         0.17067E+08         0.00000E+00
    0.00000E+00         0.00000E+00         0.53414E+07
 
    0.94967E+07        -0.49833E+06         0.00000E+00
   -0.49833E+06         0.17073E+08         0.00000E+00
    0.00000E+00         0.00000E+00         0.53139E+07
 
    0.93537E+07        -0.50562E+06         0.00000E+00
   -0.50562E+06         0.17079E+08         0.00000E+00
    0.00000E+00         0.00000E+00         0.52864E+07
 
    0.92112E+07        -0.50789E+06         0.00000E+00
   -0.50789E+06         0.17084E+08         0.00000E+00
    0.00000E+00         0.00000E+00         0.52590E+07
 
    0.90697E+07        -0.50546E+06         0.00000E+00
   -0.50546E+06         0.17089E+08         0.00000E+00
    0.00000E+00         0.00000E+00         0.52318E+07
 
    0.89292E+07        -0.49862E+06         0.00000E+00
   -0.49862E+06         0.17094E+08         0.00000E+00
    0.00000E+00         0.00000E+00         0.52047E+07
 
    0.87901E+07        -0.48775E+06         0.00000E+00
   -0.48775E+06         0.17099E+08         0.00000E+00
    0.00000E+00         0.00000E+00         0.51778E+07
 
    0.86526E+07        -0.47330E+06         0.00000E+00
   -0.47330E+06         0.17103E+08         0.00000E+00
    0.00000E+00         0.00000E+00         0.51512E+07
 
    0.85166E+07        -0.45566E+06         0.00000E+00
   -0.45566E+06         0.17108E+08         0.00000E+00
    0.00000E+00         0.00000E+00         0.51249E+07
 
    0.83822E+07        -0.43516E+06         0.00000E+00
   -0.43516E+06         0.17112E+08         0.00000E+00
    0.00000E+00         0.00000E+00         0.50989E+07
 
    0.82492E+07        -0.41204E+06         0.00000E+00
   -0.41204E+06         0.17117E+08         0.00000E+00
    0.00000E+00         0.00000E+00         0.50733E+07
 
    0.81176E+07        -0.38654E+06         0.00000E+00
   -0.38654E+06         0.17122E+08         0.00000E+00
    0.00000E+00         0.00000E+00         0.50480E+07
 
    0.79872E+07        -0.35883E+06         0.00000E+00
   -0.35883E+06         0.17128E+08         0.00000E+00
    0.00000E+00         0.00000E+00         0.50231E+07
 
    0.78578E+07        -0.32906E+06         0.00000E+00
   -0.32906E+06         0.17135E+08         0.00000E+00
    0.00000E+00         0.00000E+00         0.49985E+07
 
    0.77293E+07        -0.29731E+06         0.00000E+00
   -0.29731E+06         0.17142E+08         0.00000E+00
    0.00000E+00         0.00000E+00         0.49743E+07
 
    0.76016E+07        -0.26364E+06         0.00000E+00
   -0.26364E+06         0.17151E+08         0.00000E+00
    0.00000E+00         0.00000E+00         0.49505E+07
 
    0.74744E+07        -0.22808E+06         0.00000E+00
   -0.22808E+06         0.17161E+08         0.00000E+00
    0.00000E+00         0.00000E+00         0.49271E+07
 
    0.73477E+07        -0.19061E+06         0.00000E+00
   -0.19061E+06         0.17173E+08         0.00000E+00
    0.00000E+00         0.00000E+00         0.49041E+07
 
    0.72214E+07        -0.15122E+06         0.00000E+00
   -0.15122E+06         0.17185E+08         0.00000E+00
    0.00000E+00         0.00000E+00         0.48814E+07
 
    0.70953E+07        -0.10982E+06         0.00000E+00
   -0.10982E+06         0.17200E+08         0.00000E+00
    0.00000E+00         0.00000E+00         0.48590E+07
 
    0.69693E+07        -0.66335E+05         0.00000E+00
   -0.66335E+05         0.17216E+08         0.00000E+00
    0.00000E+00         0.00000E+00         0.48371E+07
 
    0.68434E+07        -0.20640E+05         0.00000E+00
   -0.20640E+05         0.17234E+08         0.00000E+00
    0.00000E+00         0.00000E+00         0.48154E+07
 
    0.67176E+07         0.27413E+05         0.00000E+00
    0.27413E+05         0.17253E+08         0.00000E+00
    0.00000E+00         0.00000E+00         0.47942E+07
 
    0.65917E+07         0.78005E+05         0.00000E+00
    0.78005E+05         0.17275E+08         0.00000E+00
    0.00000E+00         0.00000E+00         0.47733E+07
 
    0.64658E+07         0.13137E+06         0.00000E+00
    0.13137E+06         0.17298E+08         0.00000E+00
    0.00000E+00         0.00000E+00         0.47528E+07
 
    0.63399E+07         0.18775E+06         0.00000E+00
    0.18775E+06         0.17323E+08         0.00000E+00
    0.00000E+00         0.00000E+00         0.47326E+07
 
    0.62140E+07         0.24754E+06         0.00000E+00
    0.24754E+06         0.17350E+08         0.00000E+00
    0.00000E+00         0.00000E+00         0.47128E+07
 
    0.60888E+07         0.31190E+06         0.00000E+00
    0.31190E+06         0.17379E+08         0.00000E+00
    0.00000E+00         0.00000E+00         0.46936E+07
 
    0.59638E+07         0.38071E+06         0.00000E+00
    0.38071E+06         0.17405E+08         0.00000E+00
    0.00000E+00         0.00000E+00         0.46738E+07
 
    0.58380E+07         0.45031E+06         0.00000E+00
    0.45031E+06         0.17434E+08         0.00000E+00
    0.00000E+00         0.00000E+00         0.46545E+07
 
    0.57207E+07         0.52036E+06         0.00000E+00
    0.52036E+06         0.17489E+08         0.00000E+00
    0.00000E+00         0.00000E+00         0.46556E+07
 
    0.56379E+07         0.59481E+06         0.00000E+00
    0.59481E+06         0.17531E+08         0.00000E+00
    0.00000E+00         0.00000E+00         0.47163E+07
 
    0.55872E+07         0.67322E+06         0.00000E+00
    0.67322E+06         0.17547E+08         0.00000E+00
    0.00000E+00         0.00000E+00         0.48275E+07
 
    0.55741E+07         0.75061E+06         0.00000E+00
    0.75061E+06         0.17585E+08         0.00000E+00
    0.00000E+00         0.00000E+00         0.49828E+07
 
    0.55864E+07         0.82046E+06         0.00000E+00
    0.82046E+06         0.17634E+08         0.00000E+00
    0.00000E+00         0.00000E+00         0.51544E+07
 
    0.56206E+07         0.88367E+06         0.00000E+00
    0.88367E+06         0.17688E+08         0.00000E+00
    0.00000E+00         0.00000E+00         0.53254E+07
 
    0.56714E+07         0.94432E+06         0.00000E+00
    0.94432E+06         0.17742E+08         0.00000E+00
    0.00000E+00         0.00000E+00         0.54834E+07
 
    0.57403E+07         0.10094E+07         0.00000E+00
    0.10094E+07         0.17795E+08         0.00000E+00
    0.00000E+00         0.00000E+00         0.56318E+07
 
    0.58186E+07         0.10781E+07         0.00000E+00
    0.10781E+07         0.17845E+08         0.00000E+00
    0.00000E+00         0.00000E+00         0.57658E+07
 
    0.59052E+07         0.11493E+07         0.00000E+00
    0.11493E+07         0.17892E+08         0.00000E+00
    0.00000E+00         0.00000E+00         0.58901E+07
 
    0.98191E+07        -0.42324E+05         0.00000E+00
   -0.42324E+05         0.16225E+08         0.00000E+00
    0.00000E+00         0.00000E+00         0.52088E+07
 
    0.97229E+07        -0.11097E+06         0.00000E+00
   -0.11097E+06         0.16228E+08         0.00000E+00
    0.00000E+00         0.00000E+00         0.51901E+07
 
    0.96228E+07        -0.17189E+06         0.00000E+00
   -0.17189E+06         0.16232E+08         0.00000E+00
    0.00000E+00         0.00000E+00         0.51709E+07
 
    0.95196E+07        -0.22555E+06         0.00000E+00
   -0.22555E+06         0.16236E+08         0.00000E+00
    0.00000E+00         0.00000E+00         0.51511E+07
 
    0.94141E+07        -0.27268E+06         0.00000E+00
   -0.27268E+06         0.16241E+08         0.00000E+00
    0.00000E+00         0.00000E+00         0.51311E+07
 
    0.93068E+07        -0.31392E+06         0.00000E+00
   -0.31392E+06         0.16247E+08         0.00000E+00
    0.00000E+00         0.00000E+00         0.51108E+07
 
    0.91975E+07        -0.34972E+06         0.00000E+00
   -0.34972E+06         0.16255E+08         0.00000E+00
    0.00000E+00         0.00000E+00         0.50904E+07
 
    0.90863E+07        -0.38024E+06         0.00000E+00
   -0.38024E+06         0.16263E+08         0.00000E+00
    0.00000E+00         0.00000E+00         0.50699E+07
 
    0.89733E+07        -0.40552E+06         0.00000E+00
   -0.40552E+06         0.16273E+08         0.00000E+00
    0.00000E+00         0.00000E+00         0.50492E+07
 
    0.88587E+07        -0.42566E+06         0.00000E+00
   -0.42566E+06         0.16284E+08         0.00000E+00
    0.00000E+00         0.00000E+00         0.50285E+07
 
    0.87425E+07        -0.44079E+06         0.00000E+00
   -0.44079E+06         0.16295E+08         0.00000E+00
    0.00000E+00         0.00000E+00         0.50076E+07
 
    0.86252E+07        -0.45104E+06         0.00000E+00
   -0.45104E+06         0.16308E+08         0.00000E+00
    0.00000E+00         0.00000E+00         0.49866E+07
 
    0.85069E+07        -0.45656E+06         0.00000E+00
   -0.45656E+06         0.16321E+08         0.00000E+00
    0.00000E+00         0.00000E+00         0.49656E+07
 
    0.83879E+07        -0.45747E+06         0.00000E+00
   -0.45747E+06         0.16335E+08         0.00000E+00
    0.00000E+00         0.00000E+00         0.49446E+07
 
    0.82684E+07        -0.45397E+06         0.00000E+00
   -0.45397E+06         0.16350E+08         0.00000E+00
    0.00000E+00         0.00000E+00         0.49236E+07
 
    0.81486E+07        -0.44630E+06         0.00000E+00
   -0.44630E+06         0.16365E+08         0.00000E+00
    0.00000E+00         0.00000E+00         0.49027E+07
 
    0.80288E+07        -0.43465E+06         0.00000E+00
   -0.43465E+06         0.16380E+08         0.00000E+00
    0.00000E+00         0.00000E+00         0.48818E+07
 
    0.79090E+07        -0.41921E+06         0.00000E+00
   -0.41921E+06         0.16396E+08         0.00000E+00
    0.00000E+00         0.00000E+00         0.48611E+07
 
    0.77894E+07        -0.40019E+06         0.00000E+00
   -0.40019E+06         0.16413E+08         0.00000E+00
    0.00000E+00         0.00000E+00         0.48404E+07
 
    0.76702E+07        -0.37780E+06         0.00000E+00
   -0.37780E+06         0.16430E+08         0.00000E+00
    0.00000E+00         0.00000E+00         0.48200E+07
 
    0.75513E+07        -0.35222E+06         0.00000E+00
   -0.35222E+06         0.16447E+08         0.00000E+00
    0.00000E+00         0.00000E+00         0.47997E+07
 
    0.74329E+07        -0.32363E+06         0.00000E+00
   -0.32363E+06         0.16466E+08         0.00000E+00
    0.00000E+00         0.00000E+00         0.47797E+07
 
    0.73149E+07        -0.29217E+06         0.00000E+00
   -0.29217E+06         0.16485E+08         0.00000E+00
    0.00000E+00         0.00000E+00         0.47599E+07
 
    0.71975E+07        -0.25797E+06         0.00000E+00
   -0.25797E+06         0.16505E+08         0.00000E+00
    0.00000E+00         0.00000E+00         0.47404E+07
 
    0.70804E+07        -0.22114E+06         0.00000E+00
   -0.22114E+06         0.16525E+08         0.00000E+00
    0.00000E+00         0.00000E+00         0.47212E+07
 
    0.69639E+07        -0.18175E+06         0.00000E+00
   -0.18175E+06         0.16547E+08         0.00000E+00
    0.00000E+00         0.00000E+00         0.47023E+07
 
    0.68478E+07        -0.13987E+06         0.00000E+00
   -0.13987E+06         0.16571E+08         0.00000E+00
    0.00000E+00         0.00000E+00         0.46837E+07
 
    0.67321E+07        -0.95514E+05         0.00000E+00
   -0.95514E+05         0.16595E+08         0.00000E+00
    0.00000E+00         0.00000E+00         0.46654E+07
 
    0.66169E+07        -0.48709E+05         0.00000E+00
   -0.48709E+05         0.16621E+08         0.00000E+00
    0.00000E+00         0.00000E+00         0.46475E+07
 
    0.65022E+07         0.55713E+03         0.00000E+00
    0.55713E+03         0.16648E+08         0.00000E+00
    0.00000E+00         0.00000E+00         0.46301E+07
 
    0.63879E+07         0.52314E+05         0.00000E+00
    0.52314E+05         0.16677E+08         0.00000E+00
    0.00000E+00         0.00000E+00         0.46130E+07
 
    0.62743E+07         0.10661E+06         0.00000E+00
    0.10661E+06         0.16708E+08         0.00000E+00
    0.00000E+00         0.00000E+00         0.45964E+07
 
    0.61613E+07         0.16353E+06         0.00000E+00
    0.16353E+06         0.16740E+08         0.00000E+00
    0.00000E+00         0.00000E+00         0.45803E+07
 
    0.60492E+07         0.22315E+06         0.00000E+00
    0.22315E+06         0.16774E+08         0.00000E+00
    0.00000E+00         0.00000E+00         0.45647E+07
 
    0.59380E+07         0.28561E+06         0.00000E+00
    0.28561E+06         0.16810E+08         0.00000E+00
    0.00000E+00         0.00000E+00         0.45497E+07
 
    0.58281E+07         0.35107E+06         0.00000E+00
    0.35107E+06         0.16848E+08         0.00000E+00
    0.00000E+00         0.00000E+00         0.45353E+07
 
    0.57199E+07         0.41969E+06         0.00000E+00
    0.41969E+06         0.16888E+08         0.00000E+00
    0.00000E+00         0.00000E+00         0.45216E+07
 
    0.56137E+07         0.49146E+06         0.00000E+00
    0.49146E+06         0.16930E+08         0.00000E+00
    0.00000E+00         0.00000E+00         0.45087E+07
 
    0.55101E+07         0.56687E+06         0.00000E+00
    0.56687E+06         0.16974E+08         0.00000E+00
    0.00000E+00         0.00000E+00         0.44968E+07
 
    0.54108E+07         0.64750E+06         0.00000E+00
    0.64750E+06         0.17019E+08         0.00000E+00
    0.00000E+00         0.00000E+00         0.44860E+07
 
    0.53163E+07         0.73205E+06         0.00000E+00
    0.73205E+06         0.17058E+08         0.00000E+00
    0.00000E+00         0.00000E+00         0.44749E+07
 
    0.52263E+07         0.81469E+06         0.00000E+00
    0.81469E+06         0.17100E+08         0.00000E+00
    0.00000E+00         0.00000E+00         0.44653E+07
 
    0.51489E+07         0.89477E+06         0.00000E+00
    0.89477E+06         0.17177E+08         0.00000E+00
    0.00000E+00         0.00000E+00         0.44744E+07
 
    0.51055E+07         0.97594E+06         0.00000E+00
    0.97594E+06         0.17246E+08         0.00000E+00
    0.00000E+00         0.00000E+00         0.45330E+07
 
    0.50955E+07         0.10584E+07         0.00000E+00
    0.10584E+07         0.17279E+08         0.00000E+00
    0.00000E+00         0.00000E+00         0.46370E+07
 
    0.51086E+07         0.11398E+07         0.00000E+00
    0.11398E+07         0.17305E+08         0.00000E+00
    0.00000E+00         0.00000E+00         0.47670E+07
 
    0.51606E+07         0.12158E+07         0.00000E+00
    0.12158E+07         0.17355E+08         0.00000E+00
    0.00000E+00         0.00000E+00         0.49335E+07
 
    0.52268E+07         0.12778E+07         0.00000E+00
    0.12778E+07         0.17410E+08         0.00000E+00
    0.00000E+00         0.00000E+00         0.50990E+07
 
    0.53141E+07         0.13292E+07         0.00000E+00
    0.13292E+07         0.17472E+08         0.00000E+00
    0.00000E+00         0.00000E+00         0.52606E+07
 
    0.54117E+07         0.13757E+07         0.00000E+00
    0.13757E+07         0.17528E+08         0.00000E+00
    0.00000E+00         0.00000E+00         0.54005E+07
 
    0.86716E+07        -0.36843E+05         0.00000E+00
   -0.36843E+05         0.15413E+08         0.00000E+00
    0.00000E+00         0.00000E+00         0.48168E+07
 
    0.86089E+07        -0.94859E+05         0.00000E+00
   -0.94859E+05         0.15415E+08         0.00000E+00
    0.00000E+00         0.00000E+00         0.48048E+07
 
    0.85417E+07        -0.14693E+06         0.00000E+00
   -0.14693E+06         0.15420E+08         0.00000E+00
    0.00000E+00         0.00000E+00         0.47923E+07
 
    0.84701E+07        -0.19314E+06         0.00000E+00
   -0.19314E+06         0.15427E+08         0.00000E+00
    0.00000E+00         0.00000E+00         0.47793E+07
 
    0.83944E+07        -0.23361E+06         0.00000E+00
   -0.23361E+06         0.15435E+08         0.00000E+00
    0.00000E+00         0.00000E+00         0.47659E+07
 
    0.83152E+07        -0.26852E+06         0.00000E+00
   -0.26852E+06         0.15445E+08         0.00000E+00
    0.00000E+00         0.00000E+00         0.47521E+07
 
    0.82328E+07        -0.29806E+06         0.00000E+00
   -0.29806E+06         0.15457E+08         0.00000E+00
    0.00000E+00         0.00000E+00         0.47380E+07
 
    0.81475E+07        -0.32245E+06         0.00000E+00
   -0.32245E+06         0.15470E+08         0.00000E+00
    0.00000E+00         0.00000E+00         0.47235E+07
 
    0.80596E+07        -0.34191E+06         0.00000E+00
   -0.34191E+06         0.15484E+08         0.00000E+00
    0.00000E+00         0.00000E+00         0.47088E+07
 
    0.79694E+07        -0.35660E+06         0.00000E+00
   -0.35660E+06         0.15500E+08         0.00000E+00
    0.00000E+00         0.00000E+00         0.46939E+07
 
    0.78770E+07        -0.36665E+06         0.00000E+00
   -0.36665E+06         0.15517E+08         0.00000E+00
    0.00000E+00         0.00000E+00         0.46787E+07
 
    0.77828E+07        -0.37220E+06         0.00000E+00
   -0.37220E+06         0.15534E+08         0.00000E+00
    0.00000E+00         0.00000E+00         0.46634E+07
 
    0.76869E+07        -0.37337E+06         0.00000E+00
   -0.37337E+06         0.15553E+08         0.00000E+00
    0.00000E+00         0.00000E+00         0.46480E+07
 
    0.75895E+07        -0.37030E+06         0.00000E+00
   -0.37030E+06         0.15573E+08         0.00000E+00
    0.00000E+00         0.00000E+00         0.46325E+07
 
    0.74909E+07        -0.36311E+06         0.00000E+00
   -0.36311E+06         0.15593E+08         0.00000E+00
    0.00000E+00         0.00000E+00         0.46169E+07
 
    0.73912E+07        -0.35192E+06         0.00000E+00
   -0.35192E+06         0.15615E+08         0.00000E+00
    0.00000E+00         0.00000E+00         0.46012E+07
 
    0.72906E+07        -0.33685E+06         0.00000E+00
   -0.33685E+06         0.15637E+08         0.00000E+00
    0.00000E+00         0.00000E+00         0.45856E+07
 
    0.71893E+07        -0.31803E+06         0.00000E+00
   -0.31803E+06         0.15660E+08         0.00000E+00
    0.00000E+00         0.00000E+00         0.45699E+07
 
    0.70874E+07        -0.29558E+06         0.00000E+00
   -0.29558E+06         0.15684E+08         0.00000E+00
    0.00000E+00         0.00000E+00         0.45543E+07
 
    0.69850E+07        -0.26962E+06         0.00000E+00
   -0.26962E+06         0.15709E+08         0.00000E+00
    0.00000E+00         0.00000E+00         0.45388E+07
 
    0.68823E+07        -0.24025E+06         0.00000E+00
   -0.24025E+06         0.15735E+08         0.00000E+00
    0.00000E+00         0.00000E+00         0.45234E+07
 
    0.67795E+07        -0.20758E+06         0.00000E+00
   -0.20758E+06         0.15761E+08         0.00000E+00
    0.00000E+00         0.00000E+00         0.45081E+07
 
    0.66765E+07        -0.17170E+06         0.00000E+00
   -0.17170E+06         0.15788E+08         0.00000E+00
    0.00000E+00         0.00000E+00         0.44930E+07
 
    0.65735E+07        -0.13271E+06         0.00000E+00
   -0.13271E+06         0.15817E+08         0.00000E+00
    0.00000E+00         0.00000E+00         0.44780E+07
 
    0.64706E+07        -0.90652E+05         0.00000E+00
   -0.90652E+05         0.15846E+08         0.00000E+00
    0.00000E+00         0.00000E+00         0.44633E+07
 
    0.63679E+07        -0.45603E+05         0.00000E+00
   -0.45603E+05         0.15876E+08         0.00000E+00
    0.00000E+00         0.00000E+00         0.44488E+07
 
    0.62654E+07         0.23974E+04         0.00000E+00
    0.23974E+04         0.15908E+08         0.00000E+00
    0.00000E+00         0.00000E+00         0.44346E+07
 
    0.61632E+07         0.53319E+05         0.00000E+00
    0.53319E+05         0.15940E+08         0.00000E+00
    0.00000E+00         0.00000E+00         0.44207E+07
 
    0.60615E+07         0.10714E+06         0.00000E+00
    0.10714E+06         0.15974E+08         0.00000E+00
    0.00000E+00         0.00000E+00         0.44071E+07
 
    0.59603E+07         0.16387E+06         0.00000E+00
    0.16387E+06         0.16009E+08         0.00000E+00
    0.00000E+00         0.00000E+00         0.43939E+07
 
    0.58597E+07         0.22350E+06         0.00000E+00
    0.22350E+06         0.16046E+08         0.00000E+00
    0.00000E+00         0.00000E+00         0.43812E+07
 
    0.57599E+07         0.28607E+06         0.00000E+00
    0.28607E+06         0.16084E+08         0.00000E+00
    0.00000E+00         0.00000E+00         0.43688E+07
 
    0.56610E+07         0.35158E+06         0.00000E+00
    0.35158E+06         0.16124E+08         0.00000E+00
    0.00000E+00         0.00000E+00         0.43570E+07
 
    0.55634E+07         0.42009E+06         0.00000E+00
    0.42009E+06         0.16165E+08         0.00000E+00
    0.00000E+00         0.00000E+00         0.43457E+07
 
    0.54671E+07         0.49162E+06         0.00000E+00
    0.49162E+06         0.16208E+08         0.00000E+00
    0.00000E+00         0.00000E+00         0.43351E+07
 
    0.53726E+07         0.56621E+06         0.00000E+00
    0.56621E+06         0.16253E+08         0.00000E+00
    0.00000E+00         0.00000E+00         0.43251E+07
 
    0.52801E+07         0.64386E+06         0.00000E+00
    0.64386E+06         0.16299E+08         0.00000E+00
    0.00000E+00         0.00000E+00         0.43159E+07
 
    0.51903E+07         0.72466E+06         0.00000E+00
    0.72466E+06         0.16347E+08         0.00000E+00
    0.00000E+00         0.00000E+00         0.43075E+07
 
    0.51036E+07         0.80849E+06         0.00000E+00
    0.80849E+06         0.16397E+08         0.00000E+00
    0.00000E+00         0.00000E+00         0.43001E+07
 
    0.50204E+07         0.89482E+06         0.00000E+00
    0.89482E+06         0.16448E+08         0.00000E+00
    0.00000E+00         0.00000E+00         0.42937E+07
 
    0.49417E+07         0.98402E+06         0.00000E+00
    0.98402E+06         0.16502E+08         0.00000E+00
    0.00000E+00         0.00000E+00         0.42888E+07
 
    0.48693E+07         0.10775E+07         0.00000E+00
    0.10775E+07         0.16558E+08         0.00000E+00
    0.00000E+00         0.00000E+00         0.42854E+07
 
    0.48044E+07         0.11732E+07         0.00000E+00
    0.11732E+07         0.16605E+08         0.00000E+00
    0.00000E+00         0.00000E+00         0.42819E+07
 
    0.47457E+07         0.12632E+07         0.00000E+00
    0.12632E+07         0.16647E+08         0.00000E+00
    0.00000E+00         0.00000E+00         0.42784E+07
 
    0.46962E+07         0.13466E+07         0.00000E+00
    0.13466E+07         0.16728E+08         0.00000E+00
    0.00000E+00         0.00000E+00         0.42848E+07
 
    0.46557E+07         0.14231E+07         0.00000E+00
    0.14231E+07         0.16821E+08         0.00000E+00
    0.00000E+00         0.00000E+00         0.43103E+07
 
    0.46535E+07         0.14966E+07         0.00000E+00
    0.14966E+07         0.16906E+08         0.00000E+00
    0.00000E+00         0.00000E+00         0.43862E+07
 
    0.46683E+07         0.15676E+07         0.00000E+00
    0.15676E+07         0.16965E+08         0.00000E+00
    0.00000E+00         0.00000E+00         0.44844E+07
 
    0.47173E+07         0.16267E+07         0.00000E+00
    0.16267E+07         0.16991E+08         0.00000E+00
    0.00000E+00         0.00000E+00         0.46154E+07
 
    0.47977E+07         0.16778E+07         0.00000E+00
    0.16778E+07         0.17054E+08         0.00000E+00
    0.00000E+00         0.00000E+00         0.47664E+07
 
    0.75970E+07        -0.28889E+05         0.00000E+00
   -0.28889E+05         0.14613E+08         0.00000E+00
    0.00000E+00         0.00000E+00         0.44419E+07
 
    0.75629E+07        -0.74779E+05         0.00000E+00
   -0.74779E+05         0.14616E+08         0.00000E+00
    0.00000E+00         0.00000E+00         0.44357E+07
 
    0.75231E+07        -0.11557E+06         0.00000E+00
   -0.11557E+06         0.14621E+08         0.00000E+00
    0.00000E+00         0.00000E+00         0.44289E+07
 
    0.74782E+07        -0.15141E+06         0.00000E+00
   -0.15141E+06         0.14629E+08         0.00000E+00
    0.00000E+00         0.00000E+00         0.44215E+07
 
    0.74286E+07        -0.18243E+06         0.00000E+00
   -0.18243E+06         0.14639E+08         0.00000E+00
    0.00000E+00         0.00000E+00         0.44135E+07
 
    0.73748E+07        -0.20870E+06         0.00000E+00
   -0.20870E+06         0.14651E+08         0.00000E+00
    0.00000E+00         0.00000E+00         0.44052E+07
 
    0.73170E+07        -0.23033E+06         0.00000E+00
   -0.23033E+06         0.14665E+08         0.00000E+00
    0.00000E+00         0.00000E+00         0.43963E+07
 
    0.72556E+07        -0.24742E+06         0.00000E+00
   -0.24742E+06         0.14680E+08         0.00000E+00
    0.00000E+00         0.00000E+00         0.43871E+07
 
    0.71909E+07        -0.26005E+06         0.00000E+00
   -0.26005E+06         0.14697E+08         0.00000E+00
    0.00000E+00         0.00000E+00         0.43775E+07
 
    0.71232E+07        -0.26834E+06         0.00000E+00
   -0.26834E+06         0.14715E+08         0.00000E+00
    0.00000E+00         0.00000E+00         0.43676E+07
 
    0.70528E+07        -0.27239E+06         0.00000E+00
   -0.27239E+06         0.14734E+08         0.00000E+00
    0.00000E+00         0.00000E+00         0.43574E+07
 
    0.69799E+07        -0.27228E+06         0.00000E+00
   -0.27228E+06         0.14755E+08         0.00000E+00
    0.00000E+00         0.00000E+00         0.43470E+07
 
    0.69048E+07        -0.26813E+06         0.00000E+00
   -0.26813E+06         0.14777E+08         0.00000E+00
    0.00000E+00         0.00000E+00         0.43364E+07
 
    0.68277E+07        -0.26000E+06         0.00000E+00
   -0.26000E+06         0.14800E+08         0.00000E+00
    0.00000E+00         0.00000E+00         0.43256E+07
 
    0.67489E+07        -0.24800E+06         0.00000E+00
   -0.24800E+06         0.14824E+08         0.00000E+00
    0.00000E+00         0.00000E+00         0.43146E+07
 
    0.66684E+07        -0.23220E+06         0.00000E+00
   -0.23220E+06         0.14849E+08         0.00000E+00
    0.00000E+00         0.00000E+00         0.43035E+07
 
    0.65865E+07        -0.21268E+06         0.00000E+00
   -0.21268E+06         0.14875E+08         0.00000E+00
    0.00000E+00         0.00000E+00         0.42923E+07
 
    0.65035E+07        -0.18952E+06         0.00000E+00
   -0.18952E+06         0.14902E+08         0.00000E+00
    0.00000E+00         0.00000E+00         0.42811E+07
 
    0.64193E+07        -0.16280E+06         0.00000E+00
   -0.16280E+06         0.14930E+08         0.00000E+00
    0.00000E+00         0.00000E+00         0.42698E+07
 
    0.63343E+07        -0.13257E+06         0.00000E+00
   -0.13257E+06         0.14958E+08         0.00000E+00
    0.00000E+00         0.00000E+00         0.42585E+07
 
    0.62486E+07        -0.98919E+05         0.00000E+00
   -0.98919E+05         0.14988E+08         0.00000E+00
    0.00000E+00         0.00000E+00         0.42472E+07
 
    0.61622E+07        -0.61892E+05         0.00000E+00
   -0.61892E+05         0.15018E+08         0.00000E+00
    0.00000E+00         0.00000E+00         0.42360E+07
 
    0.60755E+07        -0.21548E+05         0.00000E+00
   -0.21548E+05         0.15049E+08         0.00000E+00
    0.00000E+00         0.00000E+00         0.42249E+07
 
    0.59884E+07         0.22064E+05         0.00000E+00
    0.22064E+05         0.15081E+08         0.00000E+00
    0.00000E+00         0.00000E+00         0.42139E+07
 
    0.59011E+07         0.68902E+05         0.00000E+00
    0.68902E+05         0.15114E+08         0.00000E+00
    0.00000E+00         0.00000E+00         0.42030E+07
 
    0.58138E+07         0.11893E+06         0.00000E+00
    0.11893E+06         0.15147E+08         0.00000E+00
    0.00000E+00         0.00000E+00         0.41922E+07
 
    0.57266E+07         0.17212E+06         0.00000E+00
    0.17212E+06         0.15182E+08         0.00000E+00
    0.00000E+00         0.00000E+00         0.41817E+07
 
    0.56396E+07         0.22846E+06         0.00000E+00
    0.22846E+06         0.15217E+08         0.00000E+00
    0.00000E+00         0.00000E+00         0.41713E+07
 
    0.55529E+07         0.28792E+06         0.00000E+00
    0.28792E+06         0.15253E+08         0.00000E+00
    0.00000E+00         0.00000E+00         0.41613E+07
 
    0.54668E+07         0.35051E+06         0.00000E+00
    0.35051E+06         0.15291E+08         0.00000E+00
    0.00000E+00         0.00000E+00         0.41515E+07
 
    0.53813E+07         0.41621E+06         0.00000E+00
    0.41621E+06         0.15329E+08         0.00000E+00
    0.00000E+00         0.00000E+00         0.41420E+07
 
    0.52967E+07         0.48503E+06         0.00000E+00
    0.48503E+06         0.15368E+08         0.00000E+00
    0.00000E+00         0.00000E+00         0.41329E+07
 
    0.52131E+07         0.55696E+06         0.00000E+00
    0.55696E+06         0.15408E+08         0.00000E+00
    0.00000E+00         0.00000E+00         0.41241E+07
 
    0.51307E+07         0.63202E+06         0.00000E+00
    0.63202E+06         0.15448E+08         0.00000E+00
    0.00000E+00         0.00000E+00         0.41158E+07
 
    0.50498E+07         0.71019E+06         0.00000E+00
    0.71019E+06         0.15490E+08         0.00000E+00
    0.00000E+00         0.00000E+00         0.41080E+07
 
    0.49706E+07         0.79146E+06         0.00000E+00
    0.79146E+06         0.15533E+08         0.00000E+00
    0.00000E+00         0.00000E+00         0.41007E+07
 
    0.48934E+07         0.87581E+06         0.00000E+00
    0.87581E+06         0.15576E+08         0.00000E+00
    0.00000E+00         0.00000E+00         0.40940E+07
 
    0.48184E+07         0.96314E+06         0.00000E+00
    0.96314E+06         0.15621E+08         0.00000E+00
    0.00000E+00         0.00000E+00         0.40878E+07
 
    0.47459E+07         0.10534E+07         0.00000E+00
    0.10534E+07         0.15666E+08         0.00000E+00
    0.00000E+00         0.00000E+00         0.40823E+07
 
    0.46764E+07         0.11466E+07         0.00000E+00
    0.11466E+07         0.15711E+08         0.00000E+00
    0.00000E+00         0.00000E+00         0.40776E+07
 
    0.46102E+07         0.12423E+07         0.00000E+00
    0.12423E+07         0.15758E+08         0.00000E+00
    0.00000E+00         0.00000E+00         0.40735E+07
 
    0.45471E+07         0.13398E+07         0.00000E+00
    0.13398E+07         0.15804E+08         0.00000E+00
    0.00000E+00         0.00000E+00         0.40702E+07
 
    0.44872E+07         0.14391E+07         0.00000E+00
    0.14391E+07         0.15853E+08         0.00000E+00
    0.00000E+00         0.00000E+00         0.40680E+07
 
    0.44320E+07         0.15423E+07         0.00000E+00
    0.15423E+07         0.15905E+08         0.00000E+00
    0.00000E+00         0.00000E+00         0.40673E+07
 
    0.43816E+07         0.16479E+07         0.00000E+00
    0.16479E+07         0.15949E+08         0.00000E+00
    0.00000E+00         0.00000E+00         0.40660E+07
 
    0.43387E+07         0.17525E+07         0.00000E+00
    0.17525E+07         0.15989E+08         0.00000E+00
    0.00000E+00         0.00000E+00         0.40656E+07
 
    0.42980E+07         0.18480E+07         0.00000E+00
    0.18480E+07         0.16025E+08         0.00000E+00
    0.00000E+00         0.00000E+00         0.40646E+07
 
    0.42579E+07         0.19343E+07         0.00000E+00
    0.19343E+07         0.16091E+08         0.00000E+00
    0.00000E+00         0.00000E+00         0.40698E+07
 
    0.42095E+07         0.20150E+07         0.00000E+00
    0.20150E+07         0.16201E+08         0.00000E+00
    0.00000E+00         0.00000E+00         0.40820E+07
 
    0.41796E+07         0.20820E+07         0.00000E+00
    0.20820E+07         0.16289E+08         0.00000E+00
    0.00000E+00         0.00000E+00         0.41340E+07
 
    0.66070E+07        -0.20844E+05         0.00000E+00
   -0.20844E+05         0.13830E+08         0.00000E+00
    0.00000E+00         0.00000E+00         0.40874E+07
 
    0.65953E+07        -0.53298E+05         0.00000E+00
   -0.53298E+05         0.13833E+08         0.00000E+00
    0.00000E+00         0.00000E+00         0.40856E+07
 
    0.65779E+07        -0.81810E+05         0.00000E+00
   -0.81810E+05         0.13838E+08         0.00000E+00
    0.00000E+00         0.00000E+00         0.40833E+07
 
    0.65551E+07        -0.10636E+06         0.00000E+00
   -0.10636E+06         0.13846E+08         0.00000E+00
    0.00000E+00         0.00000E+00         0.40803E+07
 
    0.65274E+07        -0.12694E+06         0.00000E+00
   -0.12694E+06         0.13857E+08         0.00000E+00
    0.00000E+00         0.00000E+00         0.40768E+07
 
    0.64951E+07        -0.14359E+06         0.00000E+00
   -0.14359E+06         0.13869E+08         0.00000E+00
    0.00000E+00         0.00000E+00         0.40728E+07
 
    0.64585E+07        -0.15632E+06         0.00000E+00
   -0.15632E+06         0.13883E+08         0.00000E+00
    0.00000E+00         0.00000E+00         0.40683E+07
 
    0.64180E+07        -0.16517E+06         0.00000E+00
   -0.16517E+06         0.13899E+08         0.00000E+00
    0.00000E+00         0.00000E+00         0.40634E+07
 
    0.63738E+07        -0.17019E+06         0.00000E+00
   -0.17019E+06         0.13916E+08         0.00000E+00
    0.00000E+00         0.00000E+00         0.40580E+07
 
    0.63263E+07        -0.17140E+06         0.00000E+00
   -0.17140E+06         0.13935E+08         0.00000E+00
    0.00000E+00         0.00000E+00         0.40523E+07
 
    0.62757E+07        -0.16885E+06         0.00000E+00
   -0.16885E+06         0.13956E+08         0.00000E+00
    0.00000E+00         0.00000E+00         0.40463E+07
 
    0.62223E+07        -0.16260E+06         0.00000E+00
   -0.16260E+06         0.13977E+08         0.00000E+00
    0.00000E+00         0.00000E+00         0.40399E+07
 
    0.61664E+07        -0.15268E+06         0.00000E+00
   -0.15268E+06         0.14000E+08         0.00000E+00
    0.00000E+00         0.00000E+00         0.40333E+07
 
    0.61081E+07        -0.13914E+06         0.00000E+00
   -0.13914E+06         0.14024E+08         0.00000E+00
    0.00000E+00         0.00000E+00         0.40264E+07
 
    0.60477E+07        -0.12204E+06         0.00000E+00
   -0.12204E+06         0.14049E+08         0.00000E+00
    0.00000E+00         0.00000E+00         0.40194E+07
 
    0.59854E+07        -0.10142E+06         0.00000E+00
   -0.10142E+06         0.14075E+08         0.00000E+00
    0.00000E+00         0.00000E+00         0.40121E+07
 
    0.59213E+07        -0.77323E+05         0.00000E+00
   -0.77323E+05         0.14102E+08         0.00000E+00
    0.00000E+00         0.00000E+00         0.40047E+07
 
    0.58558E+07        -0.49804E+05         0.00000E+00
   -0.49804E+05         0.14130E+08         0.00000E+00
    0.00000E+00         0.00000E+00         0.39971E+07
 
    0.57889E+07        -0.18904E+05         0.00000E+00
   -0.18904E+05         0.14158E+08         0.00000E+00
    0.00000E+00         0.00000E+00         0.39895E+07
 
    0.57209E+07         0.15334E+05         0.00000E+00
    0.15334E+05         0.14188E+08         0.00000E+00
    0.00000E+00         0.00000E+00         0.39817E+07
 
    0.56518E+07         0.52871E+05         0.00000E+00
    0.52871E+05         0.14218E+08         0.00000E+00
    0.00000E+00         0.00000E+00         0.39739E+07
 
    0.55820E+07         0.93666E+05         0.00000E+00
    0.93666E+05         0.14249E+08         0.00000E+00
    0.00000E+00         0.00000E+00         0.39661E+07
 
    0.55115E+07         0.13768E+06         0.00000E+00
    0.13768E+06         0.14280E+08         0.00000E+00
    0.00000E+00         0.00000E+00         0.39583E+07
 
    0.54405E+07         0.18489E+06         0.00000E+00
    0.18489E+06         0.14312E+08         0.00000E+00
    0.00000E+00         0.00000E+00         0.39505E+07
 
    0.53691E+07         0.23525E+06         0.00000E+00
    0.23525E+06         0.14344E+08         0.00000E+00
    0.00000E+00         0.00000E+00         0.39427E+07
 
    0.52975E+07         0.28874E+06         0.00000E+00
    0.28874E+06         0.14378E+08         0.00000E+00
    0.00000E+00         0.00000E+00         0.39350E+07
 
    0.52259E+07         0.34533E+06         0.00000E+00
    0.34533E+06         0.14411E+08         0.00000E+00
    0.00000E+00         0.00000E+00         0.39274E+07
 
    0.51544E+07         0.40498E+06         0.00000E+00
    0.40498E+06         0.14445E+08         0.00000E+00
    0.00000E+00         0.00000E+00         0.39199E+07
 
    0.50832E+07         0.46768E+06         0.00000E+00
    0.46768E+06         0.14480E+08         0.00000E+00
    0.00000E+00         0.00000E+00         0.39126E+07
 
    0.50124E+07         0.53339E+06         0.00000E+00
    0.53339E+06         0.14515E+08         0.00000E+00
    0.00000E+00         0.00000E+00         0.39054E+07
 
    0.49421E+07         0.60210E+06         0.00000E+00
    0.60210E+06         0.14550E+08         0.00000E+00
    0.00000E+00         0.00000E+00         0.38984E+07
 
    0.48726E+07         0.67375E+06         0.00000E+00
    0.67375E+06         0.14585E+08         0.00000E+00
    0.00000E+00         0.00000E+00         0.38916E+07
 
    0.48041E+07         0.74832E+06         0.00000E+00
    0.74832E+06         0.14621E+08         0.00000E+00
    0.00000E+00         0.00000E+00         0.38850E+07
 
    0.47366E+07         0.82575E+06         0.00000E+00
    0.82575E+06         0.14657E+08         0.00000E+00
    0.00000E+00         0.00000E+00         0.38787E+07
 
    0.46703E+07         0.90600E+06         0.00000E+00
    0.90600E+06         0.14693E+08         0.00000E+00
    0.00000E+00         0.00000E+00         0.38726E+07
 
    0.46055E+07         0.98898E+06         0.00000E+00
    0.98898E+06         0.14729E+08         0.00000E+00
    0.00000E+00         0.00000E+00         0.38668E+07
 
    0.45422E+07         0.10746E+07         0.00000E+00
    0.10746E+07         0.14764E+08         0.00000E+00
    0.00000E+00         0.00000E+00         0.38613E+07
 
    0.44807E+07         0.11627E+07         0.00000E+00
    0.11627E+07         0.14800E+08         0.00000E+00
    0.00000E+00         0.00000E+00         0.38561E+07
 
    0.44210E+07         0.12533E+07         0.00000E+00
    0.12533E+07         0.14835E+08         0.00000E+00
    0.00000E+00         0.00000E+00         0.38512E+07
 
    0.43632E+07         0.13460E+07         0.00000E+00
    0.13460E+07         0.14870E+08         0.00000E+00
    0.00000E+00         0.00000E+00         0.38465E+07
 
    0.43074E+07         0.14407E+07         0.00000E+00
    0.14407E+07         0.14904E+08         0.00000E+00
    0.00000E+00         0.00000E+00         0.38422E+07
 
    0.42537E+07         0.15372E+07         0.00000E+00
    0.15372E+07         0.14937E+08         0.00000E+00
    0.00000E+00         0.00000E+00         0.38381E+07
 
    0.42021E+07         0.16353E+07         0.00000E+00
    0.16353E+07         0.14969E+08         0.00000E+00
    0.00000E+00         0.00000E+00         0.38342E+07
 
    0.41518E+07         0.17338E+07         0.00000E+00
    0.17338E+07         0.14999E+08         0.00000E+00
    0.00000E+00         0.00000E+00         0.38302E+07
 
    0.41025E+07         0.18324E+07         0.00000E+00
    0.18324E+07         0.15030E+08         0.00000E+00
    0.00000E+00         0.00000E+00         0.38265E+07
 
    0.40523E+07         0.19314E+07         0.00000E+00
    0.19314E+07         0.15060E+08         0.00000E+00
    0.00000E+00         0.00000E+00         0.38225E+07
 
    0.40017E+07         0.20320E+07         0.00000E+00
    0.20320E+07         0.15091E+08         0.00000E+00
    0.00000E+00         0.00000E+00         0.38185E+07
 
    0.39492E+07         0.21333E+07         0.00000E+00
    0.21333E+07         0.15115E+08         0.00000E+00
    0.00000E+00         0.00000E+00         0.38129E+07
 
    0.38923E+07         0.22328E+07         0.00000E+00
    0.22328E+07         0.15131E+08         0.00000E+00
    0.00000E+00         0.00000E+00         0.38047E+07
 
    0.38253E+07         0.23269E+07         0.00000E+00
    0.23269E+07         0.15145E+08         0.00000E+00
    0.00000E+00         0.00000E+00         0.37941E+07
 
    0.57047E+07        -0.13118E+05         0.00000E+00
   -0.13118E+05         0.13065E+08         0.00000E+00
    0.00000E+00         0.00000E+00         0.37540E+07
 
    0.57103E+07        -0.32479E+05         0.00000E+00
   -0.32479E+05         0.13068E+08         0.00000E+00
    0.00000E+00         0.00000E+00         0.37557E+07
 
    0.57104E+07        -0.48796E+05         0.00000E+00
   -0.48796E+05         0.13074E+08         0.00000E+00
    0.00000E+00         0.00000E+00         0.37568E+07
 
    0.57053E+07        -0.62015E+05         0.00000E+00
   -0.62015E+05         0.13081E+08         0.00000E+00
    0.00000E+00         0.00000E+00         0.37573E+07
 
    0.56953E+07        -0.72090E+05         0.00000E+00
   -0.72090E+05         0.13091E+08         0.00000E+00
    0.00000E+00         0.00000E+00         0.37573E+07
 
    0.56808E+07        -0.78983E+05         0.00000E+00
   -0.78983E+05         0.13103E+08         0.00000E+00
    0.00000E+00         0.00000E+00         0.37567E+07
 
    0.56620E+07        -0.82668E+05         0.00000E+00
   -0.82668E+05         0.13116E+08         0.00000E+00
    0.00000E+00         0.00000E+00         0.37556E+07
 
    0.56391E+07        -0.83130E+05         0.00000E+00
   -0.83130E+05         0.13131E+08         0.00000E+00
    0.00000E+00         0.00000E+00         0.37541E+07
 
    0.56126E+07        -0.80358E+05         0.00000E+00
   -0.80358E+05         0.13148E+08         0.00000E+00
    0.00000E+00         0.00000E+00         0.37522E+07
 
    0.55826E+07        -0.74352E+05         0.00000E+00
   -0.74352E+05         0.13167E+08         0.00000E+00
    0.00000E+00         0.00000E+00         0.37498E+07
 
    0.55495E+07        -0.65113E+05         0.00000E+00
   -0.65113E+05         0.13186E+08         0.00000E+00
    0.00000E+00         0.00000E+00         0.37472E+07
 
    0.55133E+07        -0.52651E+05         0.00000E+00
   -0.52651E+05         0.13207E+08         0.00000E+00
    0.00000E+00         0.00000E+00         0.37441E+07
 
    0.54745E+07        -0.36976E+05         0.00000E+00
   -0.36976E+05         0.13229E+08         0.00000E+00
    0.00000E+00         0.00000E+00         0.37408E+07
 
    0.54331E+07        -0.18106E+05         0.00000E+00
   -0.18106E+05         0.13253E+08         0.00000E+00
    0.00000E+00         0.00000E+00         0.37372E+07
 
    0.53895E+07         0.39423E+04         0.00000E+00
    0.39423E+04         0.13277E+08         0.00000E+00
    0.00000E+00         0.00000E+00         0.37333E+07
 
    0.53438E+07         0.29148E+05         0.00000E+00
    0.29148E+05         0.13302E+08         0.00000E+00
    0.00000E+00         0.00000E+00         0.37292E+07
 
    0.52962E+07         0.57487E+05         0.00000E+00
    0.57487E+05         0.13328E+08         0.00000E+00
    0.00000E+00         0.00000E+00         0.37248E+07
 
    0.52469E+07         0.88937E+05         0.00000E+00
    0.88937E+05         0.13355E+08         0.00000E+00
    0.00000E+00         0.00000E+00         0.37203E+07
 
    0.51961E+07         0.12347E+06         0.00000E+00
    0.12347E+06         0.13382E+08         0.00000E+00
    0.00000E+00         0.00000E+00         0.37156E+07
 
    0.51440E+07         0.16106E+06         0.00000E+00
    0.16106E+06         0.13410E+08         0.00000E+00
    0.00000E+00         0.00000E+00         0.37108E+07
 
    0.50907E+07         0.20168E+06         0.00000E+00
    0.20168E+06         0.13439E+08         0.00000E+00
    0.00000E+00         0.00000E+00         0.37059E+07
 
    0.50364E+07         0.24530E+06         0.00000E+00
    0.24530E+06         0.13468E+08         0.00000E+00
    0.00000E+00         0.00000E+00         0.37009E+07
 
    0.49813E+07         0.29190E+06         0.00000E+00
    0.29190E+06         0.13497E+08         0.00000E+00
    0.00000E+00         0.00000E+00         0.36958E+07
 
    0.49255E+07         0.34143E+06         0.00000E+00
    0.34143E+06         0.13527E+08         0.00000E+00
    0.00000E+00         0.00000E+00         0.36906E+07
 
    0.48692E+07         0.39387E+06         0.00000E+00
    0.39387E+06         0.13558E+08         0.00000E+00
    0.00000E+00         0.00000E+00         0.36854E+07
 
    0.48126E+07         0.44918E+06         0.00000E+00
    0.44918E+06         0.13588E+08         0.00000E+00
    0.00000E+00         0.00000E+00         0.36802E+07
 
    0.47557E+07         0.50733E+06         0.00000E+00
    0.50733E+06         0.13619E+08         0.00000E+00
    0.00000E+00         0.00000E+00         0.36749E+07
 
    0.46988E+07         0.56828E+06         0.00000E+00
    0.56828E+06         0.13650E+08         0.00000E+00
    0.00000E+00         0.00000E+00         0.36697E+07
 
    0.46420E+07         0.63198E+06         0.00000E+00
    0.63198E+06         0.13681E+08         0.00000E+00
    0.00000E+00         0.00000E+00         0.36646E+07
 
    0.45853E+07         0.69838E+06         0.00000E+00
    0.69838E+06         0.13712E+08         0.00000E+00
    0.00000E+00         0.00000E+00         0.36594E+07
 
    0.45291E+07         0.76744E+06         0.00000E+00
    0.76744E+06         0.13743E+08         0.00000E+00
    0.00000E+00         0.00000E+00         0.36544E+07
 
    0.44733E+07         0.83909E+06         0.00000E+00
    0.83909E+06         0.13773E+08         0.00000E+00
    0.00000E+00         0.00000E+00         0.36494E+07
 
    0.44181E+07         0.91327E+06         0.00000E+00
    0.91327E+06         0.13804E+08         0.00000E+00
    0.00000E+00         0.00000E+00         0.36444E+07
 
    0.43637E+07         0.98989E+06         0.00000E+00
    0.98989E+06         0.13834E+08         0.00000E+00
    0.00000E+00         0.00000E+00         0.36396E+07
 
    0.43100E+07         0.10689E+07         0.00000E+00
    0.10689E+07         0.13864E+08         0.00000E+00
    0.00000E+00         0.00000E+00         0.36348E+07
 
    0.42573E+07         0.11501E+07         0.00000E+00
    0.11501E+07         0.13894E+08         0.00000E+00
    0.00000E+00         0.00000E+00         0.36302E+07
 
    0.42056E+07         0.12335E+07         0.00000E+00
    0.12335E+07         0.13922E+08         0.00000E+00
    0.00000E+00         0.00000E+00         0.36256E+07
 
    0.41550E+07         0.13188E+07         0.00000E+00
    0.13188E+07         0.13951E+08         0.00000E+00
    0.00000E+00         0.00000E+00         0.36211E+07
 
    0.41054E+07         0.14061E+07         0.00000E+00
    0.14061E+07         0.13978E+08         0.00000E+00
    0.00000E+00         0.00000E+00         0.36167E+07
 
    0.40568E+07         0.14950E+07         0.00000E+00
    0.14950E+07         0.14005E+08         0.00000E+00
    0.00000E+00         0.00000E+00         0.36124E+07
 
    0.40092E+07         0.15855E+07         0.00000E+00
    0.15855E+07         0.14031E+08         0.00000E+00
    0.00000E+00         0.00000E+00         0.36080E+07
 
    0.39625E+07         0.16773E+07         0.00000E+00
    0.16773E+07         0.14056E+08         0.00000E+00
    0.00000E+00         0.00000E+00         0.36037E+07
 
    0.39163E+07         0.17702E+07         0.00000E+00
    0.17702E+07         0.14080E+08         0.00000E+00
    0.00000E+00         0.00000E+00         0.35993E+07
 
    0.38704E+07         0.18643E+07         0.00000E+00
    0.18643E+07         0.14104E+08         0.00000E+00
    0.00000E+00         0.00000E+00         0.35949E+07
 
    0.38247E+07         0.19595E+07         0.00000E+00
    0.19595E+07         0.14127E+08         0.00000E+00
    0.00000E+00         0.00000E+00         0.35903E+07
 
    0.37788E+07         0.20557E+07         0.00000E+00
    0.20557E+07         0.14149E+08         0.00000E+00
    0.00000E+00         0.00000E+00         0.35855E+07
 
    0.37320E+07         0.21525E+07         0.00000E+00
    0.21525E+07         0.14170E+08         0.00000E+00
    0.00000E+00         0.00000E+00         0.35804E+07
 
    0.36839E+07         0.22505E+07         0.00000E+00
    0.22505E+07         0.14193E+08         0.00000E+00
    0.00000E+00         0.00000E+00         0.35753E+07
 
    0.36348E+07         0.23511E+07         0.00000E+00
    0.23511E+07         0.14217E+08         0.00000E+00
    0.00000E+00         0.00000E+00         0.35703E+07
 
    0.35871E+07         0.24568E+07         0.00000E+00
    0.24568E+07         0.14243E+08         0.00000E+00
    0.00000E+00         0.00000E+00         0.35660E+07
 
    0.48882E+07        -0.61246E+04         0.00000E+00
   -0.61246E+04         0.12322E+08         0.00000E+00
    0.00000E+00         0.00000E+00         0.34420E+07
 
    0.49069E+07        -0.13358E+05         0.00000E+00
   -0.13358E+05         0.12324E+08         0.00000E+00
    0.00000E+00         0.00000E+00         0.34462E+07
 
    0.49204E+07        -0.18311E+05         0.00000E+00
   -0.18311E+05         0.12329E+08         0.00000E+00
    0.00000E+00         0.00000E+00         0.34499E+07
 
    0.49291E+07        -0.20891E+05         0.00000E+00
   -0.20891E+05         0.12336E+08         0.00000E+00
    0.00000E+00         0.00000E+00         0.34530E+07
 
    0.49332E+07        -0.21022E+05         0.00000E+00
   -0.21022E+05         0.12345E+08         0.00000E+00
    0.00000E+00         0.00000E+00         0.34555E+07
 
    0.49329E+07        -0.18636E+05         0.00000E+00
   -0.18636E+05         0.12355E+08         0.00000E+00
    0.00000E+00         0.00000E+00         0.34576E+07
 
    0.49286E+07        -0.13679E+05         0.00000E+00
   -0.13679E+05         0.12368E+08         0.00000E+00
    0.00000E+00         0.00000E+00         0.34592E+07
 
    0.49204E+07        -0.61017E+04         0.00000E+00
   -0.61017E+04         0.12382E+08         0.00000E+00
    0.00000E+00         0.00000E+00         0.34604E+07
 
    0.49086E+07         0.41330E+04         0.00000E+00
    0.41330E+04         0.12397E+08         0.00000E+00
    0.00000E+00         0.00000E+00         0.34611E+07
 
    0.48935E+07         0.17056E+05         0.00000E+00
    0.17056E+05         0.12414E+08         0.00000E+00
    0.00000E+00         0.00000E+00         0.34615E+07
 
    0.48752E+07         0.32693E+05         0.00000E+00
    0.32693E+05         0.12432E+08         0.00000E+00
    0.00000E+00         0.00000E+00         0.34614E+07
 
    0.48539E+07         0.51059E+05         0.00000E+00
    0.51059E+05         0.12451E+08         0.00000E+00
    0.00000E+00         0.00000E+00         0.34610E+07
 
    0.48299E+07         0.72168E+05         0.00000E+00
    0.72168E+05         0.12472E+08         0.00000E+00
    0.00000E+00         0.00000E+00         0.34603E+07
 
    0.48034E+07         0.96026E+05         0.00000E+00
    0.96026E+05         0.12493E+08         0.00000E+00
    0.00000E+00         0.00000E+00         0.34593E+07
 
    0.47745E+07         0.12264E+06         0.00000E+00
    0.12264E+06         0.12515E+08         0.00000E+00
    0.00000E+00         0.00000E+00         0.34580E+07
 
    0.47435E+07         0.15200E+06         0.00000E+00
    0.15200E+06         0.12539E+08         0.00000E+00
    0.00000E+00         0.00000E+00         0.34564E+07
 
    0.47106E+07         0.18410E+06         0.00000E+00
    0.18410E+06         0.12562E+08         0.00000E+00
    0.00000E+00         0.00000E+00         0.34546E+07
 
    0.46759E+07         0.21894E+06         0.00000E+00
    0.21894E+06         0.12587E+08         0.00000E+00
    0.00000E+00         0.00000E+00         0.34526E+07
 
    0.46395E+07         0.25650E+06         0.00000E+00
    0.25650E+06         0.12612E+08         0.00000E+00
    0.00000E+00         0.00000E+00         0.34503E+07
 
    0.46017E+07         0.29677E+06         0.00000E+00
    0.29677E+06         0.12638E+08         0.00000E+00
    0.00000E+00         0.00000E+00         0.34479E+07
 
    0.45627E+07         0.33972E+06         0.00000E+00
    0.33972E+06         0.12664E+08         0.00000E+00
    0.00000E+00         0.00000E+00         0.34453E+07
 
    0.45225E+07         0.38535E+06         0.00000E+00
    0.38535E+06         0.12690E+08         0.00000E+00
    0.00000E+00         0.00000E+00         0.34426E+07
 
    0.44813E+07         0.43361E+06         0.00000E+00
    0.43361E+06         0.12717E+08         0.00000E+00
    0.00000E+00         0.00000E+00         0.34397E+07
 
    0.44394E+07         0.48449E+06         0.00000E+00
    0.48449E+06         0.12744E+08         0.00000E+00
    0.00000E+00         0.00000E+00         0.34367E+07
 
    0.43967E+07         0.53795E+06         0.00000E+00
    0.53795E+06         0.12771E+08         0.00000E+00
    0.00000E+00         0.00000E+00         0.34336E+07
 
    0.43535E+07         0.59395E+06         0.00000E+00
    0.59395E+06         0.12798E+08         0.00000E+00
    0.00000E+00         0.00000E+00         0.34304E+07
 
    0.43099E+07         0.65247E+06         0.00000E+00
    0.65247E+06         0.12826E+08         0.00000E+00
    0.00000E+00         0.00000E+00         0.34271E+07
 
    0.42660E+07         0.71345E+06         0.00000E+00
    0.71345E+06         0.12853E+08         0.00000E+00
    0.00000E+00         0.00000E+00         0.34238E+07
 
    0.42219E+07         0.77685E+06         0.00000E+00
    0.77685E+06         0.12880E+08         0.00000E+00
    0.00000E+00         0.00000E+00         0.34204E+07
 
    0.41778E+07         0.84262E+06         0.00000E+00
    0.84262E+06         0.12907E+08         0.00000E+00
    0.00000E+00         0.00000E+00         0.34170E+07
 
    0.41338E+07         0.91069E+06         0.00000E+00
    0.91069E+06         0.12934E+08         0.00000E+00
    0.00000E+00         0.00000E+00         0.34135E+07
 
    0.40899E+07         0.98102E+06         0.00000E+00
    0.98102E+06         0.12960E+08         0.00000E+00
    0.00000E+00         0.00000E+00         0.34101E+07
 
    0.40463E+07         0.10535E+07         0.00000E+00
    0.10535E+07         0.12987E+08         0.00000E+00
    0.00000E+00         0.00000E+00         0.34066E+07
 
    0.40030E+07         0.11281E+07         0.00000E+00
    0.11281E+07         0.13012E+08         0.00000E+00
    0.00000E+00         0.00000E+00         0.34031E+07
 
    0.39601E+07         0.12048E+07         0.00000E+00
    0.12048E+07         0.13038E+08         0.00000E+00
    0.00000E+00         0.00000E+00         0.33995E+07
 
    0.39176E+07         0.12834E+07         0.00000E+00
    0.12834E+07         0.13062E+08         0.00000E+00
    0.00000E+00         0.00000E+00         0.33960E+07
 
    0.38756E+07         0.13638E+07         0.00000E+00
    0.13638E+07         0.13087E+08         0.00000E+00
    0.00000E+00         0.00000E+00         0.33924E+07
 
    0.38340E+07         0.14461E+07         0.00000E+00
    0.14461E+07         0.13110E+08         0.00000E+00
    0.00000E+00         0.00000E+00         0.33889E+07
 
    0.37930E+07         0.15300E+07         0.00000E+00
    0.15300E+07         0.13133E+08         0.00000E+00
    0.00000E+00         0.00000E+00         0.33853E+07
 
    0.37524E+07         0.16155E+07         0.00000E+00
    0.16155E+07         0.13156E+08         0.00000E+00
    0.00000E+00         0.00000E+00         0.33816E+07
 
    0.37122E+07         0.17025E+07         0.00000E+00
    0.17025E+07         0.13178E+08         0.00000E+00
    0.00000E+00         0.00000E+00         0.33780E+07
 
    0.36723E+07         0.17911E+07         0.00000E+00
    0.17911E+07         0.13199E+08         0.00000E+00
    0.00000E+00         0.00000E+00         0.33743E+07
 
    0.36328E+07         0.18811E+07         0.00000E+00
    0.18811E+07         0.13220E+08         0.00000E+00
    0.00000E+00         0.00000E+00         0.33705E+07
 
    0.35934E+07         0.19725E+07         0.00000E+00
    0.19725E+07         0.13240E+08         0.00000E+00
    0.00000E+00         0.00000E+00         0.33667E+07
 
    0.35541E+07         0.20654E+07         0.00000E+00
    0.20654E+07         0.13260E+08         0.00000E+00
    0.00000E+00         0.00000E+00         0.33628E+07
 
    0.35148E+07         0.21598E+07         0.00000E+00
    0.21598E+07         0.13279E+08         0.00000E+00
    0.00000E+00         0.00000E+00         0.33588E+07
 
    0.34756E+07         0.22560E+07         0.00000E+00
    0.22560E+07         0.13299E+08         0.00000E+00
    0.00000E+00         0.00000E+00         0.33549E+07
 
    0.34368E+07         0.23540E+07         0.00000E+00
    0.23540E+07         0.13317E+08         0.00000E+00
    0.00000E+00         0.00000E+00         0.33509E+07
 
    0.33984E+07         0.24536E+07         0.00000E+00
    0.24536E+07         0.13336E+08         0.00000E+00
    0.00000E+00         0.00000E+00         0.33468E+07
 
    0.33597E+07         0.25541E+07         0.00000E+00
    0.25541E+07         0.13352E+08         0.00000E+00
    0.00000E+00         0.00000E+00         0.33424E+07
 
    0.41527E+07        -0.23463E+02         0.00000E+00
   -0.23463E+02         0.11600E+08         0.00000E+00
    0.00000E+00         0.00000E+00         0.31505E+07
 
    0.41810E+07         0.35122E+04         0.00000E+00
    0.35122E+04         0.11602E+08         0.00000E+00
    0.00000E+00         0.00000E+00         0.31566E+07
 
    0.42046E+07         0.87295E+04         0.00000E+00
    0.87295E+04         0.11606E+08         0.00000E+00
    0.00000E+00         0.00000E+00         0.31621E+07
 
    0.42239E+07         0.15729E+05         0.00000E+00
    0.15729E+05         0.11612E+08         0.00000E+00
    0.00000E+00         0.00000E+00         0.31672E+07
 
    0.42389E+07         0.24603E+05         0.00000E+00
    0.24603E+05         0.11620E+08         0.00000E+00
    0.00000E+00         0.00000E+00         0.31717E+07
 
    0.42500E+07         0.35431E+05         0.00000E+00
    0.35431E+05         0.11629E+08         0.00000E+00
    0.00000E+00         0.00000E+00         0.31758E+07
 
    0.42572E+07         0.48286E+05         0.00000E+00
    0.48286E+05         0.11640E+08         0.00000E+00
    0.00000E+00         0.00000E+00         0.31794E+07
 
    0.42609E+07         0.63229E+05         0.00000E+00
    0.63229E+05         0.11652E+08         0.00000E+00
    0.00000E+00         0.00000E+00         0.31826E+07
 
    0.42612E+07         0.80316E+05         0.00000E+00
    0.80316E+05         0.11666E+08         0.00000E+00
    0.00000E+00         0.00000E+00         0.31854E+07
 
    0.42583E+07         0.99594E+05         0.00000E+00
    0.99594E+05         0.11681E+08         0.00000E+00
    0.00000E+00         0.00000E+00         0.31878E+07
 
    0.42524E+07         0.12110E+06         0.00000E+00
    0.12110E+06         0.11697E+08         0.00000E+00
    0.00000E+00         0.00000E+00         0.31899E+07
 
    0.42436E+07         0.14487E+06         0.00000E+00
    0.14487E+06         0.11714E+08         0.00000E+00
    0.00000E+00         0.00000E+00         0.31916E+07
 
    0.42322E+07         0.17094E+06         0.00000E+00
    0.17094E+06         0.11732E+08         0.00000E+00
    0.00000E+00         0.00000E+00         0.31929E+07
 
    0.42184E+07         0.19931E+06         0.00000E+00
    0.19931E+06         0.11751E+08         0.00000E+00
    0.00000E+00         0.00000E+00         0.31940E+07
 
    0.42022E+07         0.23002E+06         0.00000E+00
    0.23002E+06         0.11771E+08         0.00000E+00
    0.00000E+00         0.00000E+00         0.31947E+07
 
    0.41839E+07         0.26306E+06         0.00000E+00
    0.26306E+06         0.11792E+08         0.00000E+00
    0.00000E+00         0.00000E+00         0.31952E+07
 
    0.41637E+07         0.29846E+06         0.00000E+00
    0.29846E+06         0.11813E+08         0.00000E+00
    0.00000E+00         0.00000E+00         0.31954E+07
 
    0.41416E+07         0.33620E+06         0.00000E+00
    0.33620E+06         0.11835E+08         0.00000E+00
    0.00000E+00         0.00000E+00         0.31953E+07
 
    0.41179E+07         0.37629E+06         0.00000E+00
    0.37629E+06         0.11857E+08         0.00000E+00
    0.00000E+00         0.00000E+00         0.31951E+07
 
    0.40927E+07         0.41872E+06         0.00000E+00
    0.41872E+06         0.11880E+08         0.00000E+00
    0.00000E+00         0.00000E+00         0.31946E+07
 
    0.40661E+07         0.46348E+06         0.00000E+00
    0.46348E+06         0.11903E+08         0.00000E+00
    0.00000E+00         0.00000E+00         0.31939E+07
 
    0.40384E+07         0.51056E+06         0.00000E+00
    0.51056E+06         0.11927E+08         0.00000E+00
    0.00000E+00         0.00000E+00         0.31930E+07
 
    0.40095E+07         0.55994E+06         0.00000E+00
    0.55994E+06         0.11950E+08         0.00000E+00
    0.00000E+00         0.00000E+00         0.31919E+07
 
    0.39797E+07         0.61160E+06         0.00000E+00
    0.61160E+06         0.11974E+08         0.00000E+00
    0.00000E+00         0.00000E+00         0.31907E+07
 
    0.39490E+07         0.66551E+06         0.00000E+00
    0.66551E+06         0.11998E+08         0.00000E+00
    0.00000E+00         0.00000E+00         0.31894E+07
 
    0.39176E+07         0.72165E+06         0.00000E+00
    0.72165E+06         0.12022E+08         0.00000E+00
    0.00000E+00         0.00000E+00         0.31879E+07
 
    0.38857E+07         0.77998E+06         0.00000E+00
    0.77998E+06         0.12046E+08         0.00000E+00
    0.00000E+00         0.00000E+00         0.31862E+07
 
    0.38532E+07         0.84048E+06         0.00000E+00
    0.84048E+06         0.12069E+08         0.00000E+00
    0.00000E+00         0.00000E+00         0.31845E+07
 
    0.38204E+07         0.90309E+06         0.00000E+00
    0.90309E+06         0.12093E+08         0.00000E+00
    0.00000E+00         0.00000E+00         0.31827E+07
 
    0.37872E+07         0.96778E+06         0.00000E+00
    0.96778E+06         0.12116E+08         0.00000E+00
    0.00000E+00         0.00000E+00         0.31807E+07
 
    0.37539E+07         0.10345E+07         0.00000E+00
    0.10345E+07         0.12140E+08         0.00000E+00
    0.00000E+00         0.00000E+00         0.31787E+07
 
    0.37205E+07         0.11032E+07         0.00000E+00
    0.11032E+07         0.12162E+08         0.00000E+00
    0.00000E+00         0.00000E+00         0.31766E+07
 
    0.36869E+07         0.11739E+07         0.00000E+00
    0.11739E+07         0.12185E+08         0.00000E+00
    0.00000E+00         0.00000E+00         0.31744E+07
 
    0.36534E+07         0.12464E+07         0.00000E+00
    0.12464E+07         0.12207E+08         0.00000E+00
    0.00000E+00         0.00000E+00         0.31721E+07
 
    0.36200E+07         0.13208E+07         0.00000E+00
    0.13208E+07         0.12229E+08         0.00000E+00
    0.00000E+00         0.00000E+00         0.31698E+07
 
    0.35867E+07         0.13969E+07         0.00000E+00
    0.13969E+07         0.12250E+08         0.00000E+00
    0.00000E+00         0.00000E+00         0.31673E+07
 
    0.35535E+07         0.14748E+07         0.00000E+00
    0.14748E+07         0.12271E+08         0.00000E+00
    0.00000E+00         0.00000E+00         0.31649E+07
 
    0.35205E+07         0.15544E+07         0.00000E+00
    0.15544E+07         0.12291E+08         0.00000E+00
    0.00000E+00         0.00000E+00         0.31623E+07
 
    0.34876E+07         0.16356E+07         0.00000E+00
    0.16356E+07         0.12311E+08         0.00000E+00
    0.00000E+00         0.00000E+00         0.31597E+07
 
    0.34550E+07         0.17184E+07         0.00000E+00
    0.17184E+07         0.12330E+08         0.00000E+00
    0.00000E+00         0.00000E+00         0.31570E+07
 
    0.34225E+07         0.18028E+07         0.00000E+00
    0.18028E+07         0.12349E+08         0.00000E+00
    0.00000E+00         0.00000E+00         0.31543E+07
 
    0.33902E+07         0.18887E+07         0.00000E+00
    0.18887E+07         0.12367E+08         0.00000E+00
    0.00000E+00         0.00000E+00         0.31515E+07
 
    0.33582E+07         0.19762E+07         0.00000E+00
    0.19762E+07         0.12385E+08         0.00000E+00
    0.00000E+00         0.00000E+00         0.31487E+07
 
    0.33263E+07         0.20652E+07         0.00000E+00
    0.20652E+07         0.12402E+08         0.00000E+00
    0.00000E+00         0.00000E+00         0.31457E+07
 
    0.32947E+07         0.21558E+07         0.00000E+00
    0.21558E+07         0.12419E+08         0.00000E+00
    0.00000E+00         0.00000E+00         0.31428E+07
 
    0.32633E+07         0.22479E+07         0.00000E+00
    0.22479E+07         0.12435E+08         0.00000E+00
    0.00000E+00         0.00000E+00         0.31397E+07
 
    0.32322E+07         0.23415E+07         0.00000E+00
    0.23415E+07         0.12451E+08         0.00000E+00
    0.00000E+00         0.00000E+00         0.31366E+07
 
    0.32013E+07         0.24366E+07         0.00000E+00
    0.24366E+07         0.12466E+08         0.00000E+00
    0.00000E+00         0.00000E+00         0.31335E+07
 
    0.31706E+07         0.25332E+07         0.00000E+00
    0.25332E+07         0.12481E+08         0.00000E+00
    0.00000E+00         0.00000E+00         0.31302E+07
 
    0.31404E+07         0.26316E+07         0.00000E+00
    0.26316E+07         0.12495E+08         0.00000E+00
    0.00000E+00         0.00000E+00         0.31270E+07
 
    0.34921E+07         0.51601E+04         0.00000E+00
    0.51601E+04         0.10901E+08         0.00000E+00
    0.00000E+00         0.00000E+00         0.28786E+07
 
    0.35273E+07         0.17990E+05         0.00000E+00
    0.17990E+05         0.10903E+08         0.00000E+00
    0.00000E+00         0.00000E+00         0.28860E+07
 
    0.35584E+07         0.32037E+05         0.00000E+00
    0.32037E+05         0.10906E+08         0.00000E+00
    0.00000E+00         0.00000E+00         0.28929E+07
 
    0.35855E+07         0.47404E+05         0.00000E+00
    0.47404E+05         0.10911E+08         0.00000E+00
    0.00000E+00         0.00000E+00         0.28994E+07
 
    0.36090E+07         0.64181E+05         0.00000E+00
    0.64181E+05         0.10918E+08         0.00000E+00
    0.00000E+00         0.00000E+00         0.29054E+07
 
    0.36288E+07         0.82455E+05         0.00000E+00
    0.82455E+05         0.10926E+08         0.00000E+00
    0.00000E+00         0.00000E+00         0.29110E+07
 
    0.36452E+07         0.10230E+06         0.00000E+00
    0.10230E+06         0.10936E+08         0.00000E+00
    0.00000E+00         0.00000E+00         0.29161E+07
 
    0.36583E+07         0.12378E+06         0.00000E+00
    0.12378E+06         0.10946E+08         0.00000E+00
    0.00000E+00         0.00000E+00         0.29209E+07
 
    0.36683E+07         0.14697E+06         0.00000E+00
    0.14697E+06         0.10958E+08         0.00000E+00
    0.00000E+00         0.00000E+00         0.29253E+07
 
    0.36753E+07         0.17191E+06         0.00000E+00
    0.17191E+06         0.10971E+08         0.00000E+00
    0.00000E+00         0.00000E+00         0.29293E+07
 
    0.36796E+07         0.19866E+06         0.00000E+00
    0.19866E+06         0.10985E+08         0.00000E+00
    0.00000E+00         0.00000E+00         0.29329E+07
 
    0.36812E+07         0.22725E+06         0.00000E+00
    0.22725E+06         0.11000E+08         0.00000E+00
    0.00000E+00         0.00000E+00         0.29362E+07
 
    0.36803E+07         0.25773E+06         0.00000E+00
    0.25773E+06         0.11016E+08         0.00000E+00
    0.00000E+00         0.00000E+00         0.29392E+07
 
    0.36770E+07         0.29012E+06         0.00000E+00
    0.29012E+06         0.11032E+08         0.00000E+00
    0.00000E+00         0.00000E+00         0.29418E+07
 
    0.36715E+07         0.32445E+06         0.00000E+00
    0.32445E+06         0.11049E+08         0.00000E+00
    0.00000E+00         0.00000E+00         0.29442E+07
 
    0.36640E+07         0.36073E+06         0.00000E+00
    0.36073E+06         0.11067E+08         0.00000E+00
    0.00000E+00         0.00000E+00         0.29463E+07
 
    0.36546E+07         0.39900E+06         0.00000E+00
    0.39900E+06         0.11086E+08         0.00000E+00
    0.00000E+00         0.00000E+00         0.29481E+07
 
    0.36434E+07         0.43924E+06         0.00000E+00
    0.43924E+06         0.11105E+08         0.00000E+00
    0.00000E+00         0.00000E+00         0.29496E+07
 
    0.36305E+07         0.48148E+06         0.00000E+00
    0.48148E+06         0.11124E+08         0.00000E+00
    0.00000E+00         0.00000E+00         0.29509E+07
 
    0.36161E+07         0.52572E+06         0.00000E+00
    0.52572E+06         0.11144E+08         0.00000E+00
    0.00000E+00         0.00000E+00         0.29520E+07
 
    0.36003E+07         0.57195E+06         0.00000E+00
    0.57195E+06         0.11164E+08         0.00000E+00
    0.00000E+00         0.00000E+00         0.29529E+07
 
    0.35832E+07         0.62017E+06         0.00000E+00
    0.62017E+06         0.11184E+08         0.00000E+00
    0.00000E+00         0.00000E+00         0.29535E+07
 
    0.35650E+07         0.67037E+06         0.00000E+00
    0.67037E+06         0.11205E+08         0.00000E+00
    0.00000E+00         0.00000E+00         0.29540E+07
 
    0.35457E+07         0.72254E+06         0.00000E+00
    0.72254E+06         0.11225E+08         0.00000E+00
    0.00000E+00         0.00000E+00         0.29542E+07
 
    0.35255E+07         0.77667E+06         0.00000E+00
    0.77667E+06         0.11246E+08         0.00000E+00
    0.00000E+00         0.00000E+00         0.29543E+07
 
    0.35045E+07         0.83273E+06         0.00000E+00
    0.83273E+06         0.11267E+08         0.00000E+00
    0.00000E+00         0.00000E+00         0.29542E+07
 
    0.34827E+07         0.89071E+06         0.00000E+00
    0.89071E+06         0.11287E+08         0.00000E+00
    0.00000E+00         0.00000E+00         0.29540E+07
 
    0.34603E+07         0.95059E+06         0.00000E+00
    0.95059E+06         0.11308E+08         0.00000E+00
    0.00000E+00         0.00000E+00         0.29536E+07
 
    0.34373E+07         0.10123E+07         0.00000E+00
    0.10123E+07         0.11328E+08         0.00000E+00
    0.00000E+00         0.00000E+00         0.29531E+07
 
    0.34139E+07         0.10759E+07         0.00000E+00
    0.10759E+07         0.11348E+08         0.00000E+00
    0.00000E+00         0.00000E+00         0.29524E+07
 
    0.33901E+07         0.11413E+07         0.00000E+00
    0.11413E+07         0.11368E+08         0.00000E+00
    0.00000E+00         0.00000E+00         0.29517E+07
 
    0.33659E+07         0.12085E+07         0.00000E+00
    0.12085E+07         0.11388E+08         0.00000E+00
    0.00000E+00         0.00000E+00         0.29508E+07
 
    0.33415E+07         0.12774E+07         0.00000E+00
    0.12774E+07         0.11407E+08         0.00000E+00
    0.00000E+00         0.00000E+00         0.29497E+07
 
    0.33169E+07         0.13480E+07         0.00000E+00
    0.13480E+07         0.11426E+08         0.00000E+00
    0.00000E+00         0.00000E+00         0.29486E+07
 
    0.32922E+07         0.14203E+07         0.00000E+00
    0.14203E+07         0.11445E+08         0.00000E+00
    0.00000E+00         0.00000E+00         0.29474E+07
 
    0.32674E+07         0.14943E+07         0.00000E+00
    0.14943E+07         0.11463E+08         0.00000E+00
    0.00000E+00         0.00000E+00         0.29461E+07
 
    0.32425E+07         0.15699E+07         0.00000E+00
    0.15699E+07         0.11481E+08         0.00000E+00
    0.00000E+00         0.00000E+00         0.29446E+07
 
    0.32176E+07         0.16471E+07         0.00000E+00
    0.16471E+07         0.11498E+08         0.00000E+00
    0.00000E+00         0.00000E+00         0.29431E+07
 
    0.31927E+07         0.17259E+07         0.00000E+00
    0.17259E+07         0.11515E+08         0.00000E+00
    0.00000E+00         0.00000E+00         0.29415E+07
 
    0.31679E+07         0.18062E+07         0.00000E+00
    0.18062E+07         0.11531E+08         0.00000E+00
    0.00000E+00         0.00000E+00         0.29398E+07
 
    0.31432E+07         0.18881E+07         0.00000E+00
    0.18881E+07         0.11547E+08         0.00000E+00
    0.00000E+00         0.00000E+00         0.29380E+07
 
    0.31186E+07         0.19714E+07         0.00000E+00
    0.19714E+07         0.11562E+08         0.00000E+00
    0.00000E+00         0.00000E+00         0.29362E+07
 
    0.30941E+07         0.20563E+07         0.00000E+00
    0.20563E+07         0.11577E+08         0.00000E+00
    0.00000E+00         0.00000E+00         0.29342E+07
 
    0.30698E+07         0.21426E+07         0.00000E+00
    0.21426E+07         0.11591E+08         0.00000E+00
    0.00000E+00         0.00000E+00         0.29322E+07
 
    0.30457E+07         0.22304E+07         0.00000E+00
    0.22304E+07         0.11605E+08         0.00000E+00
    0.00000E+00         0.00000E+00         0.29301E+07
 
    0.30217E+07         0.23197E+07         0.00000E+00
    0.23197E+07         0.11618E+08         0.00000E+00
    0.00000E+00         0.00000E+00         0.29280E+07
 
    0.29980E+07         0.24104E+07         0.00000E+00
    0.24104E+07         0.11631E+08         0.00000E+00
    0.00000E+00         0.00000E+00         0.29257E+07
 
    0.29746E+07         0.25026E+07         0.00000E+00
    0.25026E+07         0.11643E+08         0.00000E+00
    0.00000E+00         0.00000E+00         0.29235E+07
 
    0.29515E+07         0.25963E+07         0.00000E+00
    0.25963E+07         0.11654E+08         0.00000E+00
    0.00000E+00         0.00000E+00         0.29211E+07
 
    0.29288E+07         0.26913E+07         0.00000E+00
    0.26913E+07         0.11665E+08         0.00000E+00
    0.00000E+00         0.00000E+00         0.29187E+07
 
    0.28998E+07         0.94853E+04         0.00000E+00
    0.94853E+04         0.10227E+08         0.00000E+00
    0.00000E+00         0.00000E+00         0.26253E+07
 
    0.29398E+07         0.30171E+05         0.00000E+00
    0.30171E+05         0.10228E+08         0.00000E+00
    0.00000E+00         0.00000E+00         0.26336E+07
 
    0.29764E+07         0.51722E+05         0.00000E+00
    0.51722E+05         0.10231E+08         0.00000E+00
    0.00000E+00         0.00000E+00         0.26415E+07
 
    0.30094E+07         0.74233E+05         0.00000E+00
    0.74233E+05         0.10236E+08         0.00000E+00
    0.00000E+00         0.00000E+00         0.26490E+07
 
    0.30392E+07         0.97790E+05         0.00000E+00
    0.97790E+05         0.10241E+08         0.00000E+00
    0.00000E+00         0.00000E+00         0.26561E+07
 
    0.30657E+07         0.12248E+06         0.00000E+00
    0.12248E+06         0.10248E+08         0.00000E+00
    0.00000E+00         0.00000E+00         0.26627E+07
 
    0.30892E+07         0.14836E+06         0.00000E+00
    0.14836E+06         0.10256E+08         0.00000E+00
    0.00000E+00         0.00000E+00         0.26690E+07
 
    0.31097E+07         0.17552E+06         0.00000E+00
    0.17552E+06         0.10265E+08         0.00000E+00
    0.00000E+00         0.00000E+00         0.26749E+07
 
    0.31274E+07         0.20401E+06         0.00000E+00
    0.20401E+06         0.10275E+08         0.00000E+00
    0.00000E+00         0.00000E+00         0.26805E+07
 
    0.31424E+07         0.23389E+06         0.00000E+00
    0.23389E+06         0.10286E+08         0.00000E+00
    0.00000E+00         0.00000E+00         0.26857E+07
 
    0.31549E+07         0.26522E+06         0.00000E+00
    0.26522E+06         0.10298E+08         0.00000E+00
    0.00000E+00         0.00000E+00         0.26905E+07
 
    0.31649E+07         0.29802E+06         0.00000E+00
    0.29802E+06         0.10310E+08         0.00000E+00
    0.00000E+00         0.00000E+00         0.26950E+07
 
    0.31725E+07         0.33236E+06         0.00000E+00
    0.33236E+06         0.10324E+08         0.00000E+00
    0.00000E+00         0.00000E+00         0.26993E+07
 
    0.31780E+07         0.36826E+06         0.00000E+00
    0.36826E+06         0.10338E+08         0.00000E+00
    0.00000E+00         0.00000E+00         0.27032E+07
 
    0.31814E+07         0.40575E+06         0.00000E+00
    0.40575E+06         0.10353E+08         0.00000E+00
    0.00000E+00         0.00000E+00         0.27068E+07
 
    0.31829E+07         0.44486E+06         0.00000E+00
    0.44486E+06         0.10368E+08         0.00000E+00
    0.00000E+00         0.00000E+00         0.27102E+07
 
    0.31825E+07         0.48561E+06         0.00000E+00
    0.48561E+06         0.10384E+08         0.00000E+00
    0.00000E+00         0.00000E+00         0.27132E+07
 
    0.31804E+07         0.52803E+06         0.00000E+00
    0.52803E+06         0.10400E+08         0.00000E+00
    0.00000E+00         0.00000E+00         0.27161E+07
 
    0.31767E+07         0.57211E+06         0.00000E+00
    0.57211E+06         0.10416E+08         0.00000E+00
    0.00000E+00         0.00000E+00         0.27186E+07
 
    0.31715E+07         0.61789E+06         0.00000E+00
    0.61789E+06         0.10433E+08         0.00000E+00
    0.00000E+00         0.00000E+00         0.27210E+07
 
    0.31649E+07         0.66536E+06         0.00000E+00
    0.66536E+06         0.10450E+08         0.00000E+00
    0.00000E+00         0.00000E+00         0.27231E+07
 
    0.31571E+07         0.71452E+06         0.00000E+00
    0.71452E+06         0.10468E+08         0.00000E+00
    0.00000E+00         0.00000E+00         0.27250E+07
 
    0.31480E+07         0.76538E+06         0.00000E+00
    0.76538E+06         0.10485E+08         0.00000E+00
    0.00000E+00         0.00000E+00         0.27267E+07
 
    0.31378E+07         0.81793E+06         0.00000E+00
    0.81793E+06         0.10503E+08         0.00000E+00
    0.00000E+00         0.00000E+00         0.27281E+07
 
    0.31267E+07         0.87217E+06         0.00000E+00
    0.87217E+06         0.10520E+08         0.00000E+00
    0.00000E+00         0.00000E+00         0.27294E+07
 
    0.31147E+07         0.92809E+06         0.00000E+00
    0.92809E+06         0.10538E+08         0.00000E+00
    0.00000E+00         0.00000E+00         0.27306E+07
 
    0.31018E+07         0.98568E+06         0.00000E+00
    0.98568E+06         0.10556E+08         0.00000E+00
    0.00000E+00         0.00000E+00         0.27315E+07
 
    0.30882E+07         0.10449E+07         0.00000E+00
    0.10449E+07         0.10573E+08         0.00000E+00
    0.00000E+00         0.00000E+00         0.27323E+07
 
    0.30740E+07         0.11058E+07         0.00000E+00
    0.11058E+07         0.10590E+08         0.00000E+00
    0.00000E+00         0.00000E+00         0.27329E+07
 
    0.30592E+07         0.11684E+07         0.00000E+00
    0.11684E+07         0.10608E+08         0.00000E+00
    0.00000E+00         0.00000E+00         0.27333E+07
 
    0.30438E+07         0.12325E+07         0.00000E+00
    0.12325E+07         0.10624E+08         0.00000E+00
    0.00000E+00         0.00000E+00         0.27336E+07
 
    0.30281E+07         0.12982E+07         0.00000E+00
    0.12982E+07         0.10641E+08         0.00000E+00
    0.00000E+00         0.00000E+00         0.27338E+07
 
    0.30119E+07         0.13656E+07         0.00000E+00
    0.13656E+07         0.10657E+08         0.00000E+00
    0.00000E+00         0.00000E+00         0.27339E+07
 
    0.29954E+07         0.14344E+07         0.00000E+00
    0.14344E+07         0.10673E+08         0.00000E+00
    0.00000E+00         0.00000E+00         0.27338E+07
 
    0.29787E+07         0.15048E+07         0.00000E+00
    0.15048E+07         0.10689E+08         0.00000E+00
    0.00000E+00         0.00000E+00         0.27335E+07
 
    0.29618E+07         0.15768E+07         0.00000E+00
    0.15768E+07         0.10704E+08         0.00000E+00
    0.00000E+00         0.00000E+00         0.27332E+07
 
    0.29447E+07         0.16502E+07         0.00000E+00
    0.16502E+07         0.10719E+08         0.00000E+00
    0.00000E+00         0.00000E+00         0.27328E+07
 
    0.29274E+07         0.17252E+07         0.00000E+00
    0.17252E+07         0.10734E+08         0.00000E+00
    0.00000E+00         0.00000E+00         0.27322E+07
 
    0.29101E+07         0.18016E+07         0.00000E+00
    0.18016E+07         0.10747E+08         0.00000E+00
    0.00000E+00         0.00000E+00         0.27315E+07
 
    0.28928E+07         0.18794E+07         0.00000E+00
    0.18794E+07         0.10761E+08         0.00000E+00
    0.00000E+00         0.00000E+00         0.27307E+07
 
    0.28755E+07         0.19587E+07         0.00000E+00
    0.19587E+07         0.10774E+08         0.00000E+00
    0.00000E+00         0.00000E+00         0.27299E+07
 
    0.28582E+07         0.20394E+07         0.00000E+00
    0.20394E+07         0.10786E+08         0.00000E+00
    0.00000E+00         0.00000E+00         0.27289E+07
 
    0.28409E+07         0.21216E+07         0.00000E+00
    0.21216E+07         0.10798E+08         0.00000E+00
    0.00000E+00         0.00000E+00         0.27278E+07
 
    0.28238E+07         0.22051E+07         0.00000E+00
    0.22051E+07         0.10810E+08         0.00000E+00
    0.00000E+00         0.00000E+00         0.27267E+07
 
    0.28068E+07         0.22900E+07         0.00000E+00
    0.22900E+07         0.10820E+08         0.00000E+00
    0.00000E+00         0.00000E+00         0.27254E+07
 
    0.27900E+07         0.23764E+07         0.00000E+00
    0.23764E+07         0.10831E+08         0.00000E+00
    0.00000E+00         0.00000E+00         0.27241E+07
 
    0.27734E+07         0.24641E+07         0.00000E+00
    0.24641E+07         0.10840E+08         0.00000E+00
    0.00000E+00         0.00000E+00         0.27227E+07
 
    0.27570E+07         0.25531E+07         0.00000E+00
    0.25531E+07         0.10849E+08         0.00000E+00
    0.00000E+00         0.00000E+00         0.27212E+07
 
    0.27409E+07         0.26435E+07         0.00000E+00
    0.26435E+07         0.10857E+08         0.00000E+00
    0.00000E+00         0.00000E+00         0.27196E+07
 
    0.27250E+07         0.27353E+07         0.00000E+00
    0.27353E+07         0.10865E+08         0.00000E+00
    0.00000E+00         0.00000E+00         0.27180E+07
 
    0.23695E+07         0.13049E+05         0.00000E+00
    0.13049E+05         0.95780E+07         0.00000E+00
    0.00000E+00         0.00000E+00         0.23895E+07
 
    0.24130E+07         0.40274E+05         0.00000E+00
    0.40274E+05         0.95793E+07         0.00000E+00
    0.00000E+00         0.00000E+00         0.23985E+07
 
    0.24534E+07         0.68099E+05         0.00000E+00
    0.68099E+05         0.95817E+07         0.00000E+00
    0.00000E+00         0.00000E+00         0.24070E+07
 
    0.24907E+07         0.96606E+05         0.00000E+00
    0.96606E+05         0.95853E+07         0.00000E+00
    0.00000E+00         0.00000E+00         0.24152E+07
 
    0.25252E+07         0.12588E+06         0.00000E+00
    0.12588E+06         0.95899E+07         0.00000E+00
    0.00000E+00         0.00000E+00         0.24230E+07
 
    0.25568E+07         0.15598E+06         0.00000E+00
    0.15598E+06         0.95955E+07         0.00000E+00
    0.00000E+00         0.00000E+00         0.24305E+07
 
    0.25857E+07         0.18700E+06         0.00000E+00
    0.18700E+06         0.96021E+07         0.00000E+00
    0.00000E+00         0.00000E+00         0.24376E+07
 
    0.26119E+07         0.21898E+06         0.00000E+00
    0.21898E+06         0.96096E+07         0.00000E+00
    0.00000E+00         0.00000E+00         0.24443E+07
 
    0.26357E+07         0.25200E+06         0.00000E+00
    0.25200E+06         0.96180E+07         0.00000E+00
    0.00000E+00         0.00000E+00         0.24507E+07
 
    0.26570E+07         0.28610E+06         0.00000E+00
    0.28610E+06         0.96271E+07         0.00000E+00
    0.00000E+00         0.00000E+00         0.24568E+07
 
    0.26760E+07         0.32134E+06         0.00000E+00
    0.32134E+06         0.96371E+07         0.00000E+00
    0.00000E+00         0.00000E+00         0.24626E+07
 
    0.26927E+07         0.35776E+06         0.00000E+00
    0.35776E+06         0.96477E+07         0.00000E+00
    0.00000E+00         0.00000E+00         0.24681E+07
 
    0.27073E+07         0.39541E+06         0.00000E+00
    0.39541E+06         0.96589E+07         0.00000E+00
    0.00000E+00         0.00000E+00         0.24732E+07
 
    0.27200E+07         0.43433E+06         0.00000E+00
    0.43433E+06         0.96707E+07         0.00000E+00
    0.00000E+00         0.00000E+00         0.24781E+07
 
    0.27307E+07         0.47454E+06         0.00000E+00
    0.47454E+06         0.96831E+07         0.00000E+00
    0.00000E+00         0.00000E+00         0.24827E+07
 
    0.27395E+07         0.51607E+06         0.00000E+00
    0.51607E+06         0.96959E+07         0.00000E+00
    0.00000E+00         0.00000E+00         0.24871E+07
 
    0.27467E+07         0.55897E+06         0.00000E+00
    0.55897E+06         0.97091E+07         0.00000E+00
    0.00000E+00         0.00000E+00         0.24912E+07
 
    0.27522E+07         0.60323E+06         0.00000E+00
    0.60323E+06         0.97228E+07         0.00000E+00
    0.00000E+00         0.00000E+00         0.24950E+07
 
    0.27562E+07         0.64890E+06         0.00000E+00
    0.64890E+06         0.97367E+07         0.00000E+00
    0.00000E+00         0.00000E+00         0.24986E+07
 
    0.27588E+07         0.69598E+06         0.00000E+00
    0.69598E+06         0.97509E+07         0.00000E+00
    0.00000E+00         0.00000E+00         0.25019E+07
 
    0.27600E+07         0.74448E+06         0.00000E+00
    0.74448E+06         0.97653E+07         0.00000E+00
    0.00000E+00         0.00000E+00         0.25050E+07
 
    0.27599E+07         0.79442E+06         0.00000E+00
    0.79442E+06         0.97798E+07         0.00000E+00
    0.00000E+00         0.00000E+00         0.25079E+07
 
    0.27587E+07         0.84580E+06         0.00000E+00
    0.84580E+06         0.97945E+07         0.00000E+00
    0.00000E+00         0.00000E+00         0.25106E+07
 
    0.27564E+07         0.89864E+06         0.00000E+00
    0.89864E+06         0.98092E+07         0.00000E+00
    0.00000E+00         0.00000E+00         0.25131E+07
 
    0.27531E+07         0.95292E+06         0.00000E+00
    0.95292E+06         0.98240E+07         0.00000E+00
    0.00000E+00         0.00000E+00         0.25154E+07
 
    0.27489E+07         0.10087E+07         0.00000E+00
    0.10087E+07         0.98388E+07         0.00000E+00
    0.00000E+00         0.00000E+00         0.25175E+07
 
    0.27438E+07         0.10658E+07         0.00000E+00
    0.10658E+07         0.98534E+07         0.00000E+00
    0.00000E+00         0.00000E+00         0.25194E+07
 
    0.27379E+07         0.11245E+07         0.00000E+00
    0.11245E+07         0.98680E+07         0.00000E+00
    0.00000E+00         0.00000E+00         0.25212E+07
 
    0.27314E+07         0.11846E+07         0.00000E+00
    0.11846E+07         0.98825E+07         0.00000E+00
    0.00000E+00         0.00000E+00         0.25228E+07
 
    0.27242E+07         0.12461E+07         0.00000E+00
    0.12461E+07         0.98967E+07         0.00000E+00
    0.00000E+00         0.00000E+00         0.25242E+07
 
    0.27165E+07         0.13090E+07         0.00000E+00
    0.13090E+07         0.99107E+07         0.00000E+00
    0.00000E+00         0.00000E+00         0.25254E+07
 
    0.27082E+07         0.13734E+07         0.00000E+00
    0.13734E+07         0.99245E+07         0.00000E+00
    0.00000E+00         0.00000E+00         0.25265E+07
 
    0.26995E+07         0.14392E+07         0.00000E+00
    0.14392E+07         0.99380E+07         0.00000E+00
    0.00000E+00         0.00000E+00         0.25275E+07
 
    0.26904E+07         0.15064E+07         0.00000E+00
    0.15064E+07         0.99512E+07         0.00000E+00
    0.00000E+00         0.00000E+00         0.25283E+07
 
    0.26810E+07         0.15750E+07         0.00000E+00
    0.15750E+07         0.99640E+07         0.00000E+00
    0.00000E+00         0.00000E+00         0.25290E+07
 
    0.26713E+07         0.16449E+07         0.00000E+00
    0.16449E+07         0.99765E+07         0.00000E+00
    0.00000E+00         0.00000E+00         0.25295E+07
 
    0.26613E+07         0.17163E+07         0.00000E+00
    0.17163E+07         0.99885E+07         0.00000E+00
    0.00000E+00         0.00000E+00         0.25300E+07
 
    0.26512E+07         0.17890E+07         0.00000E+00
    0.17890E+07         0.10000E+08         0.00000E+00
    0.00000E+00         0.00000E+00         0.25303E+07
 
    0.26409E+07         0.18631E+07         0.00000E+00
    0.18631E+07         0.10011E+08         0.00000E+00
    0.00000E+00         0.00000E+00         0.25304E+07
 
    0.26305E+07         0.19385E+07         0.00000E+00
    0.19385E+07         0.10022E+08         0.00000E+00
    0.00000E+00         0.00000E+00         0.25305E+07
 
    0.26201E+07         0.20152E+07         0.00000E+00
    0.20152E+07         0.10032E+08         0.00000E+00
    0.00000E+00         0.00000E+00         0.25305E+07
 
    0.26097E+07         0.20933E+07         0.00000E+00
    0.20933E+07         0.10042E+08         0.00000E+00
    0.00000E+00         0.00000E+00         0.25303E+07
 
    0.25992E+07         0.21726E+07         0.00000E+00
    0.21726E+07         0.10051E+08         0.00000E+00
    0.00000E+00         0.00000E+00         0.25300E+07
 
    0.25889E+07         0.22533E+07         0.00000E+00
    0.22533E+07         0.10060E+08         0.00000E+00
    0.00000E+00         0.00000E+00         0.25297E+07
 
    0.25786E+07         0.23353E+07         0.00000E+00
    0.23353E+07         0.10067E+08         0.00000E+00
    0.00000E+00         0.00000E+00         0.25292E+07
 
    0.25684E+07         0.24186E+07         0.00000E+00
    0.24186E+07         0.10075E+08         0.00000E+00
    0.00000E+00         0.00000E+00         0.25287E+07
 
    0.25584E+07         0.25031E+07         0.00000E+00
    0.25031E+07         0.10082E+08         0.00000E+00
    0.00000E+00         0.00000E+00         0.25280E+07
 
    0.25486E+07         0.25889E+07         0.00000E+00
    0.25889E+07         0.10088E+08         0.00000E+00
    0.00000E+00         0.00000E+00         0.25273E+07
 
    0.25390E+07         0.26760E+07         0.00000E+00
    0.26760E+07         0.10093E+08         0.00000E+00
    0.00000E+00         0.00000E+00         0.25264E+07
 
    0.25296E+07         0.27644E+07         0.00000E+00
    0.27644E+07         0.10098E+08         0.00000E+00
    0.00000E+00         0.00000E+00         0.25255E+07
 
    0.18956E+07         0.15957E+05         0.00000E+00
    0.15957E+05         0.89554E+07         0.00000E+00
    0.00000E+00         0.00000E+00         0.21702E+07
 
    0.19414E+07         0.48560E+05         0.00000E+00
    0.48560E+05         0.89564E+07         0.00000E+00
    0.00000E+00         0.00000E+00         0.21796E+07
 
    0.19844E+07         0.81559E+05         0.00000E+00
    0.81559E+05         0.89584E+07         0.00000E+00
    0.00000E+00         0.00000E+00         0.21886E+07
 
    0.20249E+07         0.11503E+06         0.00000E+00
    0.11503E+06         0.89613E+07         0.00000E+00
    0.00000E+00         0.00000E+00         0.21972E+07
 
    0.20627E+07         0.14904E+06         0.00000E+00
    0.14904E+06         0.89650E+07         0.00000E+00
    0.00000E+00         0.00000E+00         0.22056E+07
 
    0.20981E+07         0.18366E+06         0.00000E+00
    0.18366E+06         0.89697E+07         0.00000E+00
    0.00000E+00         0.00000E+00         0.22136E+07
 
    0.21311E+07         0.21895E+06         0.00000E+00
    0.21895E+06         0.89751E+07         0.00000E+00
    0.00000E+00         0.00000E+00         0.22212E+07
 
    0.21617E+07         0.25497E+06         0.00000E+00
    0.25497E+06         0.89812E+07         0.00000E+00
    0.00000E+00         0.00000E+00         0.22286E+07
 
    0.21901E+07         0.29178E+06         0.00000E+00
    0.29178E+06         0.89881E+07         0.00000E+00
    0.00000E+00         0.00000E+00         0.22356E+07
 
    0.22163E+07         0.32942E+06         0.00000E+00
    0.32942E+06         0.89957E+07         0.00000E+00
    0.00000E+00         0.00000E+00         0.22424E+07
 
    0.22405E+07         0.36796E+06         0.00000E+00
    0.36796E+06         0.90038E+07         0.00000E+00
    0.00000E+00         0.00000E+00         0.22489E+07
 
    0.22626E+07         0.40742E+06         0.00000E+00
    0.40742E+06         0.90126E+07         0.00000E+00
    0.00000E+00         0.00000E+00         0.22550E+07
 
    0.22828E+07         0.44786E+06         0.00000E+00
    0.44786E+06         0.90219E+07         0.00000E+00
    0.00000E+00         0.00000E+00         0.22609E+07
 
    0.23012E+07         0.48931E+06         0.00000E+00
    0.48931E+06         0.90316E+07         0.00000E+00
    0.00000E+00         0.00000E+00         0.22666E+07
 
    0.23178E+07         0.53181E+06         0.00000E+00
    0.53181E+06         0.90418E+07         0.00000E+00
    0.00000E+00         0.00000E+00         0.22719E+07
 
    0.23328E+07         0.57538E+06         0.00000E+00
    0.57538E+06         0.90524E+07         0.00000E+00
    0.00000E+00         0.00000E+00         0.22770E+07
 
    0.23461E+07         0.62007E+06         0.00000E+00
    0.62007E+06         0.90633E+07         0.00000E+00
    0.00000E+00         0.00000E+00         0.22819E+07
 
    0.23580E+07         0.66588E+06         0.00000E+00
    0.66588E+06         0.90746E+07         0.00000E+00
    0.00000E+00         0.00000E+00         0.22865E+07
 
    0.23684E+07         0.71286E+06         0.00000E+00
    0.71286E+06         0.90861E+07         0.00000E+00
    0.00000E+00         0.00000E+00         0.22909E+07
 
    0.23774E+07         0.76100E+06         0.00000E+00
    0.76100E+06         0.90978E+07         0.00000E+00
    0.00000E+00         0.00000E+00         0.22950E+07
 
    0.23852E+07         0.81035E+06         0.00000E+00
    0.81035E+06         0.91096E+07         0.00000E+00
    0.00000E+00         0.00000E+00         0.22990E+07
 
    0.23918E+07         0.86090E+06         0.00000E+00
    0.86090E+06         0.91216E+07         0.00000E+00
    0.00000E+00         0.00000E+00         0.23027E+07
 
    0.23972E+07         0.91267E+06         0.00000E+00
    0.91267E+06         0.91337E+07         0.00000E+00
    0.00000E+00         0.00000E+00         0.23062E+07
 
    0.24017E+07         0.96568E+06         0.00000E+00
    0.96568E+06         0.91459E+07         0.00000E+00
    0.00000E+00         0.00000E+00         0.23095E+07
 
    0.24051E+07         0.10199E+07         0.00000E+00
    0.10199E+07         0.91580E+07         0.00000E+00
    0.00000E+00         0.00000E+00         0.23126E+07
 
    0.24076E+07         0.10754E+07         0.00000E+00
    0.10754E+07         0.91701E+07         0.00000E+00
    0.00000E+00         0.00000E+00         0.23155E+07
 
    0.24093E+07         0.11322E+07         0.00000E+00
    0.11322E+07         0.91821E+07         0.00000E+00
    0.00000E+00         0.00000E+00         0.23183E+07
 
    0.24102E+07         0.11902E+07         0.00000E+00
    0.11902E+07         0.91940E+07         0.00000E+00
    0.00000E+00         0.00000E+00         0.23208E+07
 
    0.24104E+07         0.12494E+07         0.00000E+00
    0.12494E+07         0.92057E+07         0.00000E+00
    0.00000E+00         0.00000E+00         0.23232E+07
 
    0.24099E+07         0.13099E+07         0.00000E+00
    0.13099E+07         0.92173E+07         0.00000E+00
    0.00000E+00         0.00000E+00         0.23254E+07
 
    0.24089E+07         0.13717E+07         0.00000E+00
    0.13717E+07         0.92286E+07         0.00000E+00
    0.00000E+00         0.00000E+00         0.23275E+07
 
    0.24073E+07         0.14348E+07         0.00000E+00
    0.14348E+07         0.92397E+07         0.00000E+00
    0.00000E+00         0.00000E+00         0.23294E+07
 
    0.24053E+07         0.14991E+07         0.00000E+00
    0.14991E+07         0.92506E+07         0.00000E+00
    0.00000E+00         0.00000E+00         0.23312E+07
 
    0.24028E+07         0.15646E+07         0.00000E+00
    0.15646E+07         0.92611E+07         0.00000E+00
    0.00000E+00         0.00000E+00         0.23328E+07
 
    0.23999E+07         0.16314E+07         0.00000E+00
    0.16314E+07         0.92712E+07         0.00000E+00
    0.00000E+00         0.00000E+00         0.23342E+07
 
    0.23968E+07         0.16994E+07         0.00000E+00
    0.16994E+07         0.92810E+07         0.00000E+00
    0.00000E+00         0.00000E+00         0.23356E+07
 
    0.23933E+07         0.17687E+07         0.00000E+00
    0.17687E+07         0.92904E+07         0.00000E+00
    0.00000E+00         0.00000E+00         0.23367E+07
 
    0.23897E+07         0.18392E+07         0.00000E+00
    0.18392E+07         0.92993E+07         0.00000E+00
    0.00000E+00         0.00000E+00         0.23378E+07
 
    0.23859E+07         0.19109E+07         0.00000E+00
    0.19109E+07         0.93079E+07         0.00000E+00
    0.00000E+00         0.00000E+00         0.23387E+07
 
    0.23819E+07         0.19839E+07         0.00000E+00
    0.19839E+07         0.93159E+07         0.00000E+00
    0.00000E+00         0.00000E+00         0.23396E+07
 
    0.23778E+07         0.20581E+07         0.00000E+00
    0.20581E+07         0.93234E+07         0.00000E+00
    0.00000E+00         0.00000E+00         0.23402E+07
 
    0.23737E+07         0.21335E+07         0.00000E+00
    0.21335E+07         0.93304E+07         0.00000E+00
    0.00000E+00         0.00000E+00         0.23408E+07
 
    0.23696E+07         0.22101E+07         0.00000E+00
    0.22101E+07         0.93369E+07         0.00000E+00
    0.00000E+00         0.00000E+00         0.23413E+07
 
    0.23655E+07         0.22879E+07         0.00000E+00
    0.22879E+07         0.93428E+07         0.00000E+00
    0.00000E+00         0.00000E+00         0.23417E+07
 
    0.23614E+07         0.23669E+07         0.00000E+00
    0.23669E+07         0.93481E+07         0.00000E+00
    0.00000E+00         0.00000E+00         0.23419E+07
 
    0.23574E+07         0.24471E+07         0.00000E+00
    0.24471E+07         0.93528E+07         0.00000E+00
    0.00000E+00         0.00000E+00         0.23421E+07
 
    0.23536E+07         0.25285E+07         0.00000E+00
    0.25285E+07         0.93569E+07         0.00000E+00
    0.00000E+00         0.00000E+00         0.23421E+07
 
    0.23499E+07         0.26110E+07         0.00000E+00
    0.26110E+07         0.93603E+07         0.00000E+00
    0.00000E+00         0.00000E+00         0.23420E+07
 
    0.23464E+07         0.26948E+07         0.00000E+00
    0.26948E+07         0.93631E+07         0.00000E+00
    0.00000E+00         0.00000E+00         0.23419E+07
 
    0.23431E+07         0.27797E+07         0.00000E+00
    0.27797E+07         0.93652E+07         0.00000E+00
    0.00000E+00         0.00000E+00         0.23417E+07
 
    0.14731E+07         0.18309E+05         0.00000E+00
    0.18309E+05         0.83593E+07         0.00000E+00
    0.00000E+00         0.00000E+00         0.19665E+07
 
    0.15203E+07         0.55283E+05         0.00000E+00
    0.55283E+05         0.83601E+07         0.00000E+00
    0.00000E+00         0.00000E+00         0.19761E+07
 
    0.15651E+07         0.92498E+05         0.00000E+00
    0.92498E+05         0.83617E+07         0.00000E+00
    0.00000E+00         0.00000E+00         0.19854E+07
 
    0.16076E+07         0.13002E+06         0.00000E+00
    0.13002E+06         0.83641E+07         0.00000E+00
    0.00000E+00         0.00000E+00         0.19943E+07
 
    0.16479E+07         0.16791E+06         0.00000E+00
    0.16791E+06         0.83671E+07         0.00000E+00
    0.00000E+00         0.00000E+00         0.20030E+07
 
    0.16860E+07         0.20622E+06         0.00000E+00
    0.20622E+06         0.83708E+07         0.00000E+00
    0.00000E+00         0.00000E+00         0.20114E+07
 
    0.17220E+07         0.24502E+06         0.00000E+00
    0.24502E+06         0.83752E+07         0.00000E+00
    0.00000E+00         0.00000E+00         0.20194E+07
 
    0.17559E+07         0.28436E+06         0.00000E+00
    0.28436E+06         0.83802E+07         0.00000E+00
    0.00000E+00         0.00000E+00         0.20272E+07
 
    0.17878E+07         0.32428E+06         0.00000E+00
    0.32428E+06         0.83858E+07         0.00000E+00
    0.00000E+00         0.00000E+00         0.20347E+07
 
    0.18179E+07         0.36484E+06         0.00000E+00
    0.36484E+06         0.83919E+07         0.00000E+00
    0.00000E+00         0.00000E+00         0.20420E+07
 
    0.18460E+07         0.40609E+06         0.00000E+00
    0.40609E+06         0.83985E+07         0.00000E+00
    0.00000E+00         0.00000E+00         0.20489E+07
 
    0.18724E+07         0.44806E+06         0.00000E+00
    0.44806E+06         0.84056E+07         0.00000E+00
    0.00000E+00         0.00000E+00         0.20556E+07
 
    0.18970E+07         0.49079E+06         0.00000E+00
    0.49079E+06         0.84132E+07         0.00000E+00
    0.00000E+00         0.00000E+00         0.20620E+07
 
    0.19200E+07         0.53432E+06         0.00000E+00
    0.53432E+06         0.84211E+07         0.00000E+00
    0.00000E+00         0.00000E+00         0.20682E+07
 
    0.19414E+07         0.57869E+06         0.00000E+00
    0.57869E+06         0.84294E+07         0.00000E+00
    0.00000E+00         0.00000E+00         0.20742E+07
 
    0.19613E+07         0.62393E+06         0.00000E+00
    0.62393E+06         0.84379E+07         0.00000E+00
    0.00000E+00         0.00000E+00         0.20798E+07
 
    0.19797E+07         0.67007E+06         0.00000E+00
    0.67007E+06         0.84468E+07         0.00000E+00
    0.00000E+00         0.00000E+00         0.20853E+07
 
    0.19967E+07         0.71713E+06         0.00000E+00
    0.71713E+06         0.84559E+07         0.00000E+00
    0.00000E+00         0.00000E+00         0.20905E+07
 
    0.20124E+07         0.76513E+06         0.00000E+00
    0.76513E+06         0.84652E+07         0.00000E+00
    0.00000E+00         0.00000E+00         0.20955E+07
 
    0.20269E+07         0.81411E+06         0.00000E+00
    0.81411E+06         0.84747E+07         0.00000E+00
    0.00000E+00         0.00000E+00         0.21003E+07
 
    0.20402E+07         0.86409E+06         0.00000E+00
    0.86409E+06         0.84842E+07         0.00000E+00
    0.00000E+00         0.00000E+00         0.21049E+07
 
    0.20523E+07         0.91507E+06         0.00000E+00
    0.91507E+06         0.84939E+07         0.00000E+00
    0.00000E+00         0.00000E+00         0.21093E+07
 
    0.20635E+07         0.96707E+06         0.00000E+00
    0.96707E+06         0.85036E+07         0.00000E+00
    0.00000E+00         0.00000E+00         0.21134E+07
 
    0.20736E+07         0.10201E+07         0.00000E+00
    0.10201E+07         0.85134E+07         0.00000E+00
    0.00000E+00         0.00000E+00         0.21174E+07
 
    0.20827E+07         0.10742E+07         0.00000E+00
    0.10742E+07         0.85231E+07         0.00000E+00
    0.00000E+00         0.00000E+00         0.21212E+07
 
    0.20911E+07         0.11294E+07         0.00000E+00
    0.11294E+07         0.85327E+07         0.00000E+00
    0.00000E+00         0.00000E+00         0.21248E+07
 
    0.20986E+07         0.11856E+07         0.00000E+00
    0.11856E+07         0.85423E+07         0.00000E+00
    0.00000E+00         0.00000E+00         0.21282E+07
 
    0.21053E+07         0.12429E+07         0.00000E+00
    0.12429E+07         0.85517E+07         0.00000E+00
    0.00000E+00         0.00000E+00         0.21314E+07
 
    0.21114E+07         0.13013E+07         0.00000E+00
    0.13013E+07         0.85610E+07         0.00000E+00
    0.00000E+00         0.00000E+00         0.21345E+07
 
    0.21168E+07         0.13608E+07         0.00000E+00
    0.13608E+07         0.85700E+07         0.00000E+00
    0.00000E+00         0.00000E+00         0.21374E+07
 
    0.21216E+07         0.14214E+07         0.00000E+00
    0.14214E+07         0.85789E+07         0.00000E+00
    0.00000E+00         0.00000E+00         0.21401E+07
 
    0.21260E+07         0.14831E+07         0.00000E+00
    0.14831E+07         0.85875E+07         0.00000E+00
    0.00000E+00         0.00000E+00         0.21427E+07
 
    0.21298E+07         0.15459E+07         0.00000E+00
    0.15459E+07         0.85958E+07         0.00000E+00
    0.00000E+00         0.00000E+00         0.21451E+07
 
    0.21332E+07         0.16099E+07         0.00000E+00
    0.16099E+07         0.86038E+07         0.00000E+00
    0.00000E+00         0.00000E+00         0.21474E+07
 
    0.21362E+07         0.16749E+07         0.00000E+00
    0.16749E+07         0.86114E+07         0.00000E+00
    0.00000E+00         0.00000E+00         0.21495E+07
 
    0.21389E+07         0.17410E+07         0.00000E+00
    0.17410E+07         0.86187E+07         0.00000E+00
    0.00000E+00         0.00000E+00         0.21515E+07
 
    0.21414E+07         0.18082E+07         0.00000E+00
    0.18082E+07         0.86256E+07         0.00000E+00
    0.00000E+00         0.00000E+00         0.21534E+07
 
    0.21436E+07         0.18765E+07         0.00000E+00
    0.18765E+07         0.86321E+07         0.00000E+00
    0.00000E+00         0.00000E+00         0.21551E+07
 
    0.21455E+07         0.19460E+07         0.00000E+00
    0.19460E+07         0.86381E+07         0.00000E+00
    0.00000E+00         0.00000E+00         0.21567E+07
 
    0.21474E+07         0.20165E+07         0.00000E+00
    0.20165E+07         0.86436E+07         0.00000E+00
    0.00000E+00         0.00000E+00         0.21582E+07
 
    0.21491E+07         0.20881E+07         0.00000E+00
    0.20881E+07         0.86487E+07         0.00000E+00
    0.00000E+00         0.00000E+00         0.21596E+07
 
    0.21508E+07         0.21609E+07         0.00000E+00
    0.21609E+07         0.86532E+07         0.00000E+00
    0.00000E+00         0.00000E+00         0.21608E+07
 
    0.21524E+07         0.22347E+07         0.00000E+00
    0.22347E+07         0.86572E+07         0.00000E+00
    0.00000E+00         0.00000E+00         0.21619E+07
 
    0.21540E+07         0.23096E+07         0.00000E+00
    0.23096E+07         0.86606E+07         0.00000E+00
    0.00000E+00         0.00000E+00         0.21629E+07
 
    0.21556E+07         0.23856E+07         0.00000E+00
    0.23856E+07         0.86634E+07         0.00000E+00
    0.00000E+00         0.00000E+00         0.21638E+07
 
    0.21574E+07         0.24627E+07         0.00000E+00
    0.24627E+07         0.86656E+07         0.00000E+00
    0.00000E+00         0.00000E+00         0.21646E+07
 
    0.21592E+07         0.25409E+07         0.00000E+00
    0.25409E+07         0.86672E+07         0.00000E+00
    0.00000E+00         0.00000E+00         0.21653E+07
 
    0.21612E+07         0.26202E+07         0.00000E+00
    0.26202E+07         0.86682E+07         0.00000E+00
    0.00000E+00         0.00000E+00         0.21659E+07
 
    0.21633E+07         0.27005E+07         0.00000E+00
    0.27005E+07         0.86684E+07         0.00000E+00
    0.00000E+00         0.00000E+00         0.21664E+07
 
    0.21657E+07         0.27820E+07         0.00000E+00
    0.27820E+07         0.86680E+07         0.00000E+00
    0.00000E+00         0.00000E+00         0.21667E+07
 
    0.10975E+07         0.20191E+05         0.00000E+00
    0.20191E+05         0.77901E+07         0.00000E+00
    0.00000E+00         0.00000E+00         0.17775E+07
 
    0.11454E+07         0.60675E+05         0.00000E+00
    0.60675E+05         0.77907E+07         0.00000E+00
    0.00000E+00         0.00000E+00         0.17872E+07
 
    0.11912E+07         0.10128E+06         0.00000E+00
    0.10128E+06         0.77920E+07         0.00000E+00
    0.00000E+00         0.00000E+00         0.17966E+07
 
    0.12351E+07         0.14206E+06         0.00000E+00
    0.14206E+06         0.77939E+07         0.00000E+00
    0.00000E+00         0.00000E+00         0.18058E+07
 
    0.12770E+07         0.18307E+06         0.00000E+00
    0.18307E+06         0.77963E+07         0.00000E+00
    0.00000E+00         0.00000E+00         0.18147E+07
 
    0.13170E+07         0.22436E+06         0.00000E+00
    0.22436E+06         0.77993E+07         0.00000E+00
    0.00000E+00         0.00000E+00         0.18233E+07
 
    0.13551E+07         0.26598E+06         0.00000E+00
    0.26598E+06         0.78028E+07         0.00000E+00
    0.00000E+00         0.00000E+00         0.18316E+07
 
    0.13915E+07         0.30799E+06         0.00000E+00
    0.30799E+06         0.78068E+07         0.00000E+00
    0.00000E+00         0.00000E+00         0.18397E+07
 
    0.14261E+07         0.35043E+06         0.00000E+00
    0.35043E+06         0.78112E+07         0.00000E+00
    0.00000E+00         0.00000E+00         0.18475E+07
 
    0.14590E+07         0.39334E+06         0.00000E+00
    0.39334E+06         0.78161E+07         0.00000E+00
    0.00000E+00         0.00000E+00         0.18550E+07
 
    0.14902E+07         0.43676E+06         0.00000E+00
    0.43676E+06         0.78214E+07         0.00000E+00
    0.00000E+00         0.00000E+00         0.18623E+07
 
    0.15198E+07         0.48073E+06         0.00000E+00
    0.48073E+06         0.78270E+07         0.00000E+00
    0.00000E+00         0.00000E+00         0.18694E+07
 
    0.15480E+07         0.52529E+06         0.00000E+00
    0.52529E+06         0.78330E+07         0.00000E+00
    0.00000E+00         0.00000E+00         0.18762E+07
 
    0.15746E+07         0.57048E+06         0.00000E+00
    0.57048E+06         0.78393E+07         0.00000E+00
    0.00000E+00         0.00000E+00         0.18828E+07
 
    0.15998E+07         0.61633E+06         0.00000E+00
    0.61633E+06         0.78459E+07         0.00000E+00
    0.00000E+00         0.00000E+00         0.18891E+07
 
    0.16236E+07         0.66287E+06         0.00000E+00
    0.66287E+06         0.78527E+07         0.00000E+00
    0.00000E+00         0.00000E+00         0.18953E+07
 
    0.16461E+07         0.71013E+06         0.00000E+00
    0.71013E+06         0.78597E+07         0.00000E+00
    0.00000E+00         0.00000E+00         0.19012E+07
 
    0.16674E+07         0.75813E+06         0.00000E+00
    0.75813E+06         0.78669E+07         0.00000E+00
    0.00000E+00         0.00000E+00         0.19069E+07
 
    0.16875E+07         0.80691E+06         0.00000E+00
    0.80691E+06         0.78742E+07         0.00000E+00
    0.00000E+00         0.00000E+00         0.19123E+07
 
    0.17064E+07         0.85647E+06         0.00000E+00
    0.85647E+06         0.78817E+07         0.00000E+00
    0.00000E+00         0.00000E+00         0.19176E+07
 
    0.17242E+07         0.90686E+06         0.00000E+00
    0.90686E+06         0.78892E+07         0.00000E+00
    0.00000E+00         0.00000E+00         0.19227E+07
 
    0.17410E+07         0.95808E+06         0.00000E+00
    0.95808E+06         0.78968E+07         0.00000E+00
    0.00000E+00         0.00000E+00         0.19276E+07
 
    0.17569E+07         0.10102E+07         0.00000E+00
    0.10102E+07         0.79044E+07         0.00000E+00
    0.00000E+00         0.00000E+00         0.19322E+07
 
    0.17718E+07         0.10631E+07         0.00000E+00
    0.10631E+07         0.79119E+07         0.00000E+00
    0.00000E+00         0.00000E+00         0.19367E+07
 
    0.17858E+07         0.11169E+07         0.00000E+00
    0.11169E+07         0.79194E+07         0.00000E+00
    0.00000E+00         0.00000E+00         0.19411E+07
 
    0.17991E+07         0.11717E+07         0.00000E+00
    0.11717E+07         0.79269E+07         0.00000E+00
    0.00000E+00         0.00000E+00         0.19452E+07
 
    0.18115E+07         0.12273E+07         0.00000E+00
    0.12273E+07         0.79342E+07         0.00000E+00
    0.00000E+00         0.00000E+00         0.19491E+07
 
    0.18233E+07         0.12839E+07         0.00000E+00
    0.12839E+07         0.79413E+07         0.00000E+00
    0.00000E+00         0.00000E+00         0.19529E+07
 
    0.18344E+07         0.13414E+07         0.00000E+00
    0.13414E+07         0.79483E+07         0.00000E+00
    0.00000E+00         0.00000E+00         0.19566E+07
 
    0.18450E+07         0.13998E+07         0.00000E+00
    0.13998E+07         0.79551E+07         0.00000E+00
    0.00000E+00         0.00000E+00         0.19600E+07
 
    0.18549E+07         0.14592E+07         0.00000E+00
    0.14592E+07         0.79617E+07         0.00000E+00
    0.00000E+00         0.00000E+00         0.19633E+07
 
    0.18644E+07         0.15195E+07         0.00000E+00
    0.15195E+07         0.79680E+07         0.00000E+00
    0.00000E+00         0.00000E+00         0.19665E+07
 
    0.18734E+07         0.15808E+07         0.00000E+00
    0.15808E+07         0.79740E+07         0.00000E+00
    0.00000E+00         0.00000E+00         0.19695E+07
 
    0.18820E+07         0.16431E+07         0.00000E+00
    0.16431E+07         0.79796E+07         0.00000E+00
    0.00000E+00         0.00000E+00         0.19723E+07
 
    0.18902E+07         0.17063E+07         0.00000E+00
    0.17063E+07         0.79850E+07         0.00000E+00
    0.00000E+00         0.00000E+00         0.19750E+07
 
    0.18981E+07         0.17705E+07         0.00000E+00
    0.17705E+07         0.79900E+07         0.00000E+00
    0.00000E+00         0.00000E+00         0.19776E+07
 
    0.19057E+07         0.18357E+07         0.00000E+00
    0.18357E+07         0.79945E+07         0.00000E+00
    0.00000E+00         0.00000E+00         0.19800E+07
 
    0.19131E+07         0.19018E+07         0.00000E+00
    0.19018E+07         0.79987E+07         0.00000E+00
    0.00000E+00         0.00000E+00         0.19824E+07
 
    0.19203E+07         0.19689E+07         0.00000E+00
    0.19689E+07         0.80024E+07         0.00000E+00
    0.00000E+00         0.00000E+00         0.19845E+07
 
    0.19273E+07         0.20371E+07         0.00000E+00
    0.20371E+07         0.80056E+07         0.00000E+00
    0.00000E+00         0.00000E+00         0.19866E+07
 
    0.19343E+07         0.21061E+07         0.00000E+00
    0.21061E+07         0.80083E+07         0.00000E+00
    0.00000E+00         0.00000E+00         0.19885E+07
 
    0.19411E+07         0.21762E+07         0.00000E+00
    0.21762E+07         0.80106E+07         0.00000E+00
    0.00000E+00         0.00000E+00         0.19903E+07
 
    0.19479E+07         0.22473E+07         0.00000E+00
    0.22473E+07         0.80122E+07         0.00000E+00
    0.00000E+00         0.00000E+00         0.19920E+07
 
    0.19548E+07         0.23193E+07         0.00000E+00
    0.23193E+07         0.80133E+07         0.00000E+00
    0.00000E+00         0.00000E+00         0.19936E+07
 
    0.19616E+07         0.23924E+07         0.00000E+00
    0.23924E+07         0.80139E+07         0.00000E+00
    0.00000E+00         0.00000E+00         0.19951E+07
 
    0.19685E+07         0.24664E+07         0.00000E+00
    0.24664E+07         0.80138E+07         0.00000E+00
    0.00000E+00         0.00000E+00         0.19965E+07
 
    0.19755E+07         0.25414E+07         0.00000E+00
    0.25414E+07         0.80131E+07         0.00000E+00
    0.00000E+00         0.00000E+00         0.19977E+07
 
    0.19827E+07         0.26174E+07         0.00000E+00
    0.26174E+07         0.80117E+07         0.00000E+00
    0.00000E+00         0.00000E+00         0.19989E+07
 
    0.19900E+07         0.26943E+07         0.00000E+00
    0.26943E+07         0.80097E+07         0.00000E+00
    0.00000E+00         0.00000E+00         0.19999E+07
 
    0.19976E+07         0.27723E+07         0.00000E+00
    0.27723E+07         0.80070E+07         0.00000E+00
    0.00000E+00         0.00000E+00         0.20009E+07
 
    0.76478E+06         0.21679E+05         0.00000E+00
    0.21679E+05         0.72479E+07         0.00000E+00
    0.00000E+00         0.00000E+00         0.16025E+07
 
    0.81287E+06         0.64936E+05         0.00000E+00
    0.64936E+05         0.72484E+07         0.00000E+00
    0.00000E+00         0.00000E+00         0.16123E+07
 
    0.85921E+06         0.10822E+06         0.00000E+00
    0.10822E+06         0.72494E+07         0.00000E+00
    0.00000E+00         0.00000E+00         0.16217E+07
 
    0.90380E+06         0.15157E+06         0.00000E+00
    0.15157E+06         0.72509E+07         0.00000E+00
    0.00000E+00         0.00000E+00         0.16309E+07
 
    0.94670E+06         0.19504E+06         0.00000E+00
    0.19504E+06         0.72528E+07         0.00000E+00
    0.00000E+00         0.00000E+00         0.16399E+07
 
    0.98794E+06         0.23869E+06         0.00000E+00
    0.23869E+06         0.72551E+07         0.00000E+00
    0.00000E+00         0.00000E+00         0.16486E+07
 
    0.10276E+07         0.28254E+06         0.00000E+00
    0.28254E+06         0.72578E+07         0.00000E+00
    0.00000E+00         0.00000E+00         0.16571E+07
 
    0.10656E+07         0.32665E+06         0.00000E+00
    0.32665E+06         0.72609E+07         0.00000E+00
    0.00000E+00         0.00000E+00         0.16653E+07
 
    0.11021E+07         0.37105E+06         0.00000E+00
    0.37105E+06         0.72644E+07         0.00000E+00
    0.00000E+00         0.00000E+00         0.16733E+07
 
    0.11371E+07         0.41580E+06         0.00000E+00
    0.41580E+06         0.72682E+07         0.00000E+00
    0.00000E+00         0.00000E+00         0.16811E+07
 
    0.11706E+07         0.46091E+06         0.00000E+00
    0.46091E+06         0.72723E+07         0.00000E+00
    0.00000E+00         0.00000E+00         0.16886E+07
 
    0.12028E+07         0.50644E+06         0.00000E+00
    0.50644E+06         0.72767E+07         0.00000E+00
    0.00000E+00         0.00000E+00         0.16959E+07
 
    0.12336E+07         0.55241E+06         0.00000E+00
    0.55241E+06         0.72813E+07         0.00000E+00
    0.00000E+00         0.00000E+00         0.17030E+07
 
    0.12630E+07         0.59886E+06         0.00000E+00
    0.59886E+06         0.72862E+07         0.00000E+00
    0.00000E+00         0.00000E+00         0.17098E+07
 
    0.12912E+07         0.64582E+06         0.00000E+00
    0.64582E+06         0.72913E+07         0.00000E+00
    0.00000E+00         0.00000E+00         0.17165E+07
 
    0.13182E+07         0.69332E+06         0.00000E+00
    0.69332E+06         0.72965E+07         0.00000E+00
    0.00000E+00         0.00000E+00         0.17229E+07
 
    0.13440E+07         0.74138E+06         0.00000E+00
    0.74138E+06         0.73019E+07         0.00000E+00
    0.00000E+00         0.00000E+00         0.17292E+07
 
    0.13686E+07         0.79004E+06         0.00000E+00
    0.79004E+06         0.73074E+07         0.00000E+00
    0.00000E+00         0.00000E+00         0.17352E+07
 
    0.13922E+07         0.83932E+06         0.00000E+00
    0.83932E+06         0.73130E+07         0.00000E+00
    0.00000E+00         0.00000E+00         0.17411E+07
 
    0.14148E+07         0.88924E+06         0.00000E+00
    0.88924E+06         0.73187E+07         0.00000E+00
    0.00000E+00         0.00000E+00         0.17467E+07
 
    0.14364E+07         0.93982E+06         0.00000E+00
    0.93982E+06         0.73244E+07         0.00000E+00
    0.00000E+00         0.00000E+00         0.17522E+07
 
    0.14570E+07         0.99108E+06         0.00000E+00
    0.99108E+06         0.73301E+07         0.00000E+00
    0.00000E+00         0.00000E+00         0.17574E+07
 
    0.14768E+07         0.10430E+07         0.00000E+00
    0.10430E+07         0.73358E+07         0.00000E+00
    0.00000E+00         0.00000E+00         0.17625E+07
 
    0.14957E+07         0.10957E+07         0.00000E+00
    0.10957E+07         0.73414E+07         0.00000E+00
    0.00000E+00         0.00000E+00         0.17674E+07
 
    0.15138E+07         0.11492E+07         0.00000E+00
    0.11492E+07         0.73469E+07         0.00000E+00
    0.00000E+00         0.00000E+00         0.17722E+07
 
    0.15312E+07         0.12033E+07         0.00000E+00
    0.12033E+07         0.73524E+07         0.00000E+00
    0.00000E+00         0.00000E+00         0.17767E+07
 
    0.15479E+07         0.12583E+07         0.00000E+00
    0.12583E+07         0.73576E+07         0.00000E+00
    0.00000E+00         0.00000E+00         0.17811E+07
 
    0.15640E+07         0.13140E+07         0.00000E+00
    0.13140E+07         0.73628E+07         0.00000E+00
    0.00000E+00         0.00000E+00         0.17853E+07
 
    0.15794E+07         0.13705E+07         0.00000E+00
    0.13705E+07         0.73677E+07         0.00000E+00
    0.00000E+00         0.00000E+00         0.17894E+07
 
    0.15943E+07         0.14278E+07         0.00000E+00
    0.14278E+07         0.73724E+07         0.00000E+00
    0.00000E+00         0.00000E+00         0.17933E+07
 
    0.16087E+07         0.14859E+07         0.00000E+00
    0.14859E+07         0.73769E+07         0.00000E+00
    0.00000E+00         0.00000E+00         0.17971E+07
 
    0.16226E+07         0.15449E+07         0.00000E+00
    0.15449E+07         0.73811E+07         0.00000E+00
    0.00000E+00         0.00000E+00         0.18007E+07
 
    0.16360E+07         0.16046E+07         0.00000E+00
    0.16046E+07         0.73850E+07         0.00000E+00
    0.00000E+00         0.00000E+00         0.18042E+07
 
    0.16491E+07         0.16652E+07         0.00000E+00
    0.16652E+07         0.73886E+07         0.00000E+00
    0.00000E+00         0.00000E+00         0.18075E+07
 
    0.16619E+07         0.17266E+07         0.00000E+00
    0.17266E+07         0.73918E+07         0.00000E+00
    0.00000E+00         0.00000E+00         0.18107E+07
 
    0.16743E+07         0.17889E+07         0.00000E+00
    0.17889E+07         0.73946E+07         0.00000E+00
    0.00000E+00         0.00000E+00         0.18138E+07
 
    0.16865E+07         0.18520E+07         0.00000E+00
    0.18520E+07         0.73971E+07         0.00000E+00
    0.00000E+00         0.00000E+00         0.18167E+07
 
    0.16985E+07         0.19160E+07         0.00000E+00
    0.19160E+07         0.73991E+07         0.00000E+00
    0.00000E+00         0.00000E+00         0.18195E+07
 
    0.17103E+07         0.19809E+07         0.00000E+00
    0.19809E+07         0.74007E+07         0.00000E+00
    0.00000E+00         0.00000E+00         0.18222E+07
 
    0.17220E+07         0.20466E+07         0.00000E+00
    0.20466E+07         0.74018E+07         0.00000E+00
    0.00000E+00         0.00000E+00         0.18248E+07
 
    0.17335E+07         0.21131E+07         0.00000E+00
    0.21131E+07         0.74025E+07         0.00000E+00
    0.00000E+00         0.00000E+00         0.18272E+07
 
    0.17450E+07         0.21806E+07         0.00000E+00
    0.21806E+07         0.74026E+07         0.00000E+00
    0.00000E+00         0.00000E+00         0.18295E+07
 
    0.17565E+07         0.22489E+07         0.00000E+00
    0.22489E+07         0.74021E+07         0.00000E+00
    0.00000E+00         0.00000E+00         0.18317E+07
 
    0.17679E+07         0.23181E+07         0.00000E+00
    0.23181E+07         0.74011E+07         0.00000E+00
    0.00000E+00         0.00000E+00         0.18338E+07
 
    0.17794E+07         0.23881E+07         0.00000E+00
    0.23881E+07         0.73996E+07         0.00000E+00
    0.00000E+00         0.00000E+00         0.18358E+07
 
    0.17910E+07         0.24591E+07         0.00000E+00
    0.24591E+07         0.73974E+07         0.00000E+00
    0.00000E+00         0.00000E+00         0.18377E+07
 
    0.18027E+07         0.25309E+07         0.00000E+00
    0.25309E+07         0.73946E+07         0.00000E+00
    0.00000E+00         0.00000E+00         0.18395E+07
 
    0.18145E+07         0.26036E+07         0.00000E+00
    0.26036E+07         0.73912E+07         0.00000E+00
    0.00000E+00         0.00000E+00         0.18411E+07
 
    0.18265E+07         0.26772E+07         0.00000E+00
    0.26772E+07         0.73870E+07         0.00000E+00
    0.00000E+00         0.00000E+00         0.18427E+07
 
    0.18388E+07         0.27516E+07         0.00000E+00
    0.27516E+07         0.73822E+07         0.00000E+00
    0.00000E+00         0.00000E+00         0.18442E+07
 
    0.47146E+06         0.22832E+05         0.00000E+00
    0.22832E+05         0.67326E+07         0.00000E+00
    0.00000E+00         0.00000E+00         0.14408E+07
 
    0.51936E+06         0.68237E+05         0.00000E+00
    0.68237E+05         0.67330E+07         0.00000E+00
    0.00000E+00         0.00000E+00         0.14505E+07
 
    0.56573E+06         0.11359E+06         0.00000E+00
    0.11359E+06         0.67338E+07         0.00000E+00
    0.00000E+00         0.00000E+00         0.14599E+07
 
    0.61059E+06         0.15893E+06         0.00000E+00
    0.15893E+06         0.67349E+07         0.00000E+00
    0.00000E+00         0.00000E+00         0.14691E+07
 
    0.65397E+06         0.20430E+06         0.00000E+00
    0.20430E+06         0.67363E+07         0.00000E+00
    0.00000E+00         0.00000E+00         0.14781E+07
 
    0.69591E+06         0.24975E+06         0.00000E+00
    0.24975E+06         0.67381E+07         0.00000E+00
    0.00000E+00         0.00000E+00         0.14868E+07
 
    0.73644E+06         0.29530E+06         0.00000E+00
    0.29530E+06         0.67402E+07         0.00000E+00
    0.00000E+00         0.00000E+00         0.14953E+07
 
    0.77558E+06         0.34101E+06         0.00000E+00
    0.34101E+06         0.67425E+07         0.00000E+00
    0.00000E+00         0.00000E+00         0.15036E+07
 
    0.81338E+06         0.38691E+06         0.00000E+00
    0.38691E+06         0.67452E+07         0.00000E+00
    0.00000E+00         0.00000E+00         0.15117E+07
 
    0.84986E+06         0.43303E+06         0.00000E+00
    0.43303E+06         0.67480E+07         0.00000E+00
    0.00000E+00         0.00000E+00         0.15196E+07
 
    0.88507E+06         0.47941E+06         0.00000E+00
    0.47941E+06         0.67511E+07         0.00000E+00
    0.00000E+00         0.00000E+00         0.15272E+07
 
    0.91905E+06         0.52608E+06         0.00000E+00
    0.52608E+06         0.67544E+07         0.00000E+00
    0.00000E+00         0.00000E+00         0.15347E+07
 
    0.95182E+06         0.57308E+06         0.00000E+00
    0.57308E+06         0.67579E+07         0.00000E+00
    0.00000E+00         0.00000E+00         0.15419E+07
 
    0.98343E+06         0.62043E+06         0.00000E+00
    0.62043E+06         0.67615E+07         0.00000E+00
    0.00000E+00         0.00000E+00         0.15490E+07
 
    0.10139E+07         0.66816E+06         0.00000E+00
    0.66816E+06         0.67653E+07         0.00000E+00
    0.00000E+00         0.00000E+00         0.15558E+07
 
    0.10433E+07         0.71630E+06         0.00000E+00
    0.71630E+06         0.67692E+07         0.00000E+00
    0.00000E+00         0.00000E+00         0.15625E+07
 
    0.10717E+07         0.76489E+06         0.00000E+00
    0.76489E+06         0.67732E+07         0.00000E+00
    0.00000E+00         0.00000E+00         0.15690E+07
 
    0.10990E+07         0.81393E+06         0.00000E+00
    0.81393E+06         0.67772E+07         0.00000E+00
    0.00000E+00         0.00000E+00         0.15752E+07
 
    0.11254E+07         0.86346E+06         0.00000E+00
    0.86346E+06         0.67813E+07         0.00000E+00
    0.00000E+00         0.00000E+00         0.15813E+07
 
    0.11509E+07         0.91350E+06         0.00000E+00
    0.91350E+06         0.67854E+07         0.00000E+00
    0.00000E+00         0.00000E+00         0.15873E+07
 
    0.11755E+07         0.96406E+06         0.00000E+00
    0.96406E+06         0.67894E+07         0.00000E+00
    0.00000E+00         0.00000E+00         0.15930E+07
 
    0.11993E+07         0.10152E+07         0.00000E+00
    0.10152E+07         0.67935E+07         0.00000E+00
    0.00000E+00         0.00000E+00         0.15986E+07
 
    0.12223E+07         0.10669E+07         0.00000E+00
    0.10669E+07         0.67974E+07         0.00000E+00
    0.00000E+00         0.00000E+00         0.16039E+07
 
    0.12445E+07         0.11191E+07         0.00000E+00
    0.11191E+07         0.68013E+07         0.00000E+00
    0.00000E+00         0.00000E+00         0.16092E+07
 
    0.12660E+07         0.11720E+07         0.00000E+00
    0.11720E+07         0.68051E+07         0.00000E+00
    0.00000E+00         0.00000E+00         0.16142E+07
 
    0.12869E+07         0.12255E+07         0.00000E+00
    0.12255E+07         0.68088E+07         0.00000E+00
    0.00000E+00         0.00000E+00         0.16191E+07
 
    0.13071E+07         0.12797E+07         0.00000E+00
    0.12797E+07         0.68123E+07         0.00000E+00
    0.00000E+00         0.00000E+00         0.16239E+07
 
    0.13267E+07         0.13344E+07         0.00000E+00
    0.13344E+07         0.68156E+07         0.00000E+00
    0.00000E+00         0.00000E+00         0.16285E+07
 
    0.13458E+07         0.13899E+07         0.00000E+00
    0.13899E+07         0.68187E+07         0.00000E+00
    0.00000E+00         0.00000E+00         0.16329E+07
 
    0.13644E+07         0.14460E+07         0.00000E+00
    0.14460E+07         0.68215E+07         0.00000E+00
    0.00000E+00         0.00000E+00         0.16372E+07
 
    0.13825E+07         0.15028E+07         0.00000E+00
    0.15028E+07         0.68241E+07         0.00000E+00
    0.00000E+00         0.00000E+00         0.16413E+07
 
    0.14002E+07         0.15602E+07         0.00000E+00
    0.15602E+07         0.68264E+07         0.00000E+00
    0.00000E+00         0.00000E+00         0.16453E+07
 
    0.14175E+07         0.16184E+07         0.00000E+00
    0.16184E+07         0.68285E+07         0.00000E+00
    0.00000E+00         0.00000E+00         0.16492E+07
 
    0.14345E+07         0.16773E+07         0.00000E+00
    0.16773E+07         0.68301E+07         0.00000E+00
    0.00000E+00         0.00000E+00         0.16529E+07
 
    0.14512E+07         0.17369E+07         0.00000E+00
    0.17369E+07         0.68315E+07         0.00000E+00
    0.00000E+00         0.00000E+00         0.16565E+07
 
    0.14676E+07         0.17973E+07         0.00000E+00
    0.17973E+07         0.68324E+07         0.00000E+00
    0.00000E+00         0.00000E+00         0.16600E+07
 
    0.14837E+07         0.18584E+07         0.00000E+00
    0.18584E+07         0.68330E+07         0.00000E+00
    0.00000E+00         0.00000E+00         0.16633E+07
 
    0.14997E+07         0.19202E+07         0.00000E+00
    0.19202E+07         0.68331E+07         0.00000E+00
    0.00000E+00         0.00000E+00         0.16666E+07
 
    0.15155E+07         0.19827E+07         0.00000E+00
    0.19827E+07         0.68328E+07         0.00000E+00
    0.00000E+00         0.00000E+00         0.16697E+07
 
    0.15312E+07         0.20460E+07         0.00000E+00
    0.20460E+07         0.68320E+07         0.00000E+00
    0.00000E+00         0.00000E+00         0.16726E+07
 
    0.15468E+07         0.21101E+07         0.00000E+00
    0.21101E+07         0.68307E+07         0.00000E+00
    0.00000E+00         0.00000E+00         0.16755E+07
 
    0.15624E+07         0.21749E+07         0.00000E+00
    0.21749E+07         0.68289E+07         0.00000E+00
    0.00000E+00         0.00000E+00         0.16782E+07
 
    0.15779E+07         0.22404E+07         0.00000E+00
    0.22404E+07         0.68266E+07         0.00000E+00
    0.00000E+00         0.00000E+00         0.16809E+07
 
    0.15935E+07         0.23068E+07         0.00000E+00
    0.23068E+07         0.68237E+07         0.00000E+00
    0.00000E+00         0.00000E+00         0.16834E+07
 
    0.16091E+07         0.23739E+07         0.00000E+00
    0.23739E+07         0.68202E+07         0.00000E+00
    0.00000E+00         0.00000E+00         0.16859E+07
 
    0.16248E+07         0.24418E+07         0.00000E+00
    0.24418E+07         0.68161E+07         0.00000E+00
    0.00000E+00         0.00000E+00         0.16882E+07
 
    0.16406E+07         0.25104E+07         0.00000E+00
    0.25104E+07         0.68115E+07         0.00000E+00
    0.00000E+00         0.00000E+00         0.16904E+07
 
    0.16566E+07         0.25799E+07         0.00000E+00
    0.25799E+07         0.68061E+07         0.00000E+00
    0.00000E+00         0.00000E+00         0.16926E+07
 
    0.16728E+07         0.26501E+07         0.00000E+00
    0.26501E+07         0.68002E+07         0.00000E+00
    0.00000E+00         0.00000E+00         0.16946E+07
 
    0.16892E+07         0.27211E+07         0.00000E+00
    0.27211E+07         0.67935E+07         0.00000E+00
    0.00000E+00         0.00000E+00         0.16965E+07
 
    0.21438E+06         0.23704E+05         0.00000E+00
    0.23704E+05         0.62440E+07         0.00000E+00
    0.00000E+00         0.00000E+00         0.12917E+07
 
    0.26174E+06         0.70722E+05         0.00000E+00
    0.70722E+05         0.62443E+07         0.00000E+00
    0.00000E+00         0.00000E+00         0.13012E+07
 
    0.30778E+06         0.11762E+06         0.00000E+00
    0.11762E+06         0.62449E+07         0.00000E+00
    0.00000E+00         0.00000E+00         0.13105E+07
 
    0.35252E+06         0.16445E+06         0.00000E+00
    0.16445E+06         0.62457E+07         0.00000E+00
    0.00000E+00         0.00000E+00         0.13196E+07
 
    0.39597E+06         0.21123E+06         0.00000E+00
    0.21123E+06         0.62468E+07         0.00000E+00
    0.00000E+00         0.00000E+00         0.13285E+07
 
    0.43817E+06         0.25801E+06         0.00000E+00
    0.25801E+06         0.62481E+07         0.00000E+00
    0.00000E+00         0.00000E+00         0.13372E+07
 
    0.47914E+06         0.30482E+06         0.00000E+00
    0.30482E+06         0.62496E+07         0.00000E+00
    0.00000E+00         0.00000E+00         0.13457E+07
 
    0.51891E+06         0.35169E+06         0.00000E+00
    0.35169E+06         0.62513E+07         0.00000E+00
    0.00000E+00         0.00000E+00         0.13540E+07
 
    0.55751E+06         0.39866E+06         0.00000E+00
    0.39866E+06         0.62532E+07         0.00000E+00
    0.00000E+00         0.00000E+00         0.13621E+07
 
    0.59495E+06         0.44576E+06         0.00000E+00
    0.44576E+06         0.62553E+07         0.00000E+00
    0.00000E+00         0.00000E+00         0.13700E+07
 
    0.63129E+06         0.49303E+06         0.00000E+00
    0.49303E+06         0.62575E+07         0.00000E+00
    0.00000E+00         0.00000E+00         0.13778E+07
 
    0.66654E+06         0.54048E+06         0.00000E+00
    0.54048E+06         0.62598E+07         0.00000E+00
    0.00000E+00         0.00000E+00         0.13853E+07
 
    0.70074E+06         0.58816E+06         0.00000E+00
    0.58816E+06         0.62623E+07         0.00000E+00
    0.00000E+00         0.00000E+00         0.13926E+07
 
    0.73392E+06         0.63608E+06         0.00000E+00
    0.63608E+06         0.62649E+07         0.00000E+00
    0.00000E+00         0.00000E+00         0.13998E+07
 
    0.76612E+06         0.68428E+06         0.00000E+00
    0.68428E+06         0.62675E+07         0.00000E+00
    0.00000E+00         0.00000E+00         0.14067E+07
 
    0.79736E+06         0.73278E+06         0.00000E+00
    0.73278E+06         0.62702E+07         0.00000E+00
    0.00000E+00         0.00000E+00         0.14135E+07
 
    0.82769E+06         0.78161E+06         0.00000E+00
    0.78161E+06         0.62729E+07         0.00000E+00
    0.00000E+00         0.00000E+00         0.14201E+07
 
    0.85714E+06         0.83079E+06         0.00000E+00
    0.83079E+06         0.62757E+07         0.00000E+00
    0.00000E+00         0.00000E+00         0.14266E+07
 
    0.88574E+06         0.88034E+06         0.00000E+00
    0.88034E+06         0.62784E+07         0.00000E+00
    0.00000E+00         0.00000E+00         0.14328E+07
 
    0.91352E+06         0.93028E+06         0.00000E+00
    0.93028E+06         0.62811E+07         0.00000E+00
    0.00000E+00         0.00000E+00         0.14389E+07
 
    0.94054E+06         0.98064E+06         0.00000E+00
    0.98064E+06         0.62838E+07         0.00000E+00
    0.00000E+00         0.00000E+00         0.14449E+07
 
    0.96681E+06         0.10314E+07         0.00000E+00
    0.10314E+07         0.62864E+07         0.00000E+00
    0.00000E+00         0.00000E+00         0.14506E+07
 
    0.99238E+06         0.10827E+07         0.00000E+00
    0.10827E+07         0.62889E+07         0.00000E+00
    0.00000E+00         0.00000E+00         0.14562E+07
 
    0.10173E+07         0.11344E+07         0.00000E+00
    0.11344E+07         0.62912E+07         0.00000E+00
    0.00000E+00         0.00000E+00         0.14617E+07
 
    0.10416E+07         0.11866E+07         0.00000E+00
    0.11866E+07         0.62935E+07         0.00000E+00
    0.00000E+00         0.00000E+00         0.14670E+07
 
    0.10652E+07         0.12393E+07         0.00000E+00
    0.12393E+07         0.62955E+07         0.00000E+00
    0.00000E+00         0.00000E+00         0.14722E+07
 
    0.10884E+07         0.12925E+07         0.00000E+00
    0.12925E+07         0.62974E+07         0.00000E+00
    0.00000E+00         0.00000E+00         0.14772E+07
 
    0.11110E+07         0.13462E+07         0.00000E+00
    0.13462E+07         0.62991E+07         0.00000E+00
    0.00000E+00         0.00000E+00         0.14820E+07
 
    0.11331E+07         0.14005E+07         0.00000E+00
    0.14005E+07         0.63006E+07         0.00000E+00
    0.00000E+00         0.00000E+00         0.14867E+07
 
    0.11548E+07         0.14554E+07         0.00000E+00
    0.14554E+07         0.63018E+07         0.00000E+00
    0.00000E+00         0.00000E+00         0.14913E+07
 
    0.11760E+07         0.15108E+07         0.00000E+00
    0.15108E+07         0.63027E+07         0.00000E+00
    0.00000E+00         0.00000E+00         0.14958E+07
 
    0.11969E+07         0.15668E+07         0.00000E+00
    0.15668E+07         0.63034E+07         0.00000E+00
    0.00000E+00         0.00000E+00         0.15001E+07
 
    0.12175E+07         0.16233E+07         0.00000E+00
    0.16233E+07         0.63037E+07         0.00000E+00
    0.00000E+00         0.00000E+00         0.15042E+07
 
    0.12377E+07         0.16805E+07         0.00000E+00
    0.16805E+07         0.63037E+07         0.00000E+00
    0.00000E+00         0.00000E+00         0.15083E+07
 
    0.12577E+07         0.17383E+07         0.00000E+00
    0.17383E+07         0.63034E+07         0.00000E+00
    0.00000E+00         0.00000E+00         0.15122E+07
 
    0.12775E+07         0.17967E+07         0.00000E+00
    0.17967E+07         0.63026E+07         0.00000E+00
    0.00000E+00         0.00000E+00         0.15160E+07
 
    0.12970E+07         0.18557E+07         0.00000E+00
    0.18557E+07         0.63015E+07         0.00000E+00
    0.00000E+00         0.00000E+00         0.15197E+07
 
    0.13164E+07         0.19153E+07         0.00000E+00
    0.19153E+07         0.62999E+07         0.00000E+00
    0.00000E+00         0.00000E+00         0.15233E+07
 
    0.13357E+07         0.19756E+07         0.00000E+00
    0.19756E+07         0.62979E+07         0.00000E+00
    0.00000E+00         0.00000E+00         0.15267E+07
 
    0.13548E+07         0.20365E+07         0.00000E+00
    0.20365E+07         0.62954E+07         0.00000E+00
    0.00000E+00         0.00000E+00         0.15300E+07
 
    0.13740E+07         0.20980E+07         0.00000E+00
    0.20980E+07         0.62924E+07         0.00000E+00
    0.00000E+00         0.00000E+00         0.15333E+07
 
    0.13930E+07         0.21602E+07         0.00000E+00
    0.21602E+07         0.62889E+07         0.00000E+00
    0.00000E+00         0.00000E+00         0.15364E+07
 
    0.14121E+07         0.22231E+07         0.00000E+00
    0.22231E+07         0.62849E+07         0.00000E+00
    0.00000E+00         0.00000E+00         0.15394E+07
 
    0.14313E+07         0.22866E+07         0.00000E+00
    0.22866E+07         0.62803E+07         0.00000E+00
    0.00000E+00         0.00000E+00         0.15423E+07
 
    0.14505E+07         0.23508E+07         0.00000E+00
    0.23508E+07         0.62752E+07         0.00000E+00
    0.00000E+00         0.00000E+00         0.15451E+07
 
    0.14698E+07         0.24156E+07         0.00000E+00
    0.24156E+07         0.62694E+07         0.00000E+00
    0.00000E+00         0.00000E+00         0.15479E+07
 
    0.14893E+07         0.24811E+07         0.00000E+00
    0.24811E+07         0.62631E+07         0.00000E+00
    0.00000E+00         0.00000E+00         0.15505E+07
 
    0.15089E+07         0.25473E+07         0.00000E+00
    0.25473E+07         0.62561E+07         0.00000E+00
    0.00000E+00         0.00000E+00         0.15530E+07
 
    0.15288E+07         0.26142E+07         0.00000E+00
    0.26142E+07         0.62485E+07         0.00000E+00
    0.00000E+00         0.00000E+00         0.15554E+07
 
    0.15488E+07         0.26817E+07         0.00000E+00
    0.26817E+07         0.62401E+07         0.00000E+00
    0.00000E+00         0.00000E+00         0.15578E+07
 
   -0.93502E+04         0.24337E+05         0.00000E+00
    0.24337E+05         0.57818E+07         0.00000E+00
    0.00000E+00         0.00000E+00         0.11545E+07
 
    0.37213E+05         0.72513E+05         0.00000E+00
    0.72513E+05         0.57820E+07         0.00000E+00
    0.00000E+00         0.00000E+00         0.11638E+07
 
    0.82630E+05         0.12052E+06         0.00000E+00
    0.12052E+06         0.57824E+07         0.00000E+00
    0.00000E+00         0.00000E+00         0.11730E+07
 
    0.12692E+06         0.16840E+06         0.00000E+00
    0.16840E+06         0.57829E+07         0.00000E+00
    0.00000E+00         0.00000E+00         0.11820E+07
 
    0.17010E+06         0.21617E+06         0.00000E+00
    0.21617E+06         0.57837E+07         0.00000E+00
    0.00000E+00         0.00000E+00         0.11908E+07
 
    0.21220E+06         0.26387E+06         0.00000E+00
    0.26387E+06         0.57846E+07         0.00000E+00
    0.00000E+00         0.00000E+00         0.11994E+07
 
    0.25323E+06         0.31154E+06         0.00000E+00
    0.31154E+06         0.57856E+07         0.00000E+00
    0.00000E+00         0.00000E+00         0.12078E+07
 
    0.29321E+06         0.35920E+06         0.00000E+00
    0.35920E+06         0.57868E+07         0.00000E+00
    0.00000E+00         0.00000E+00         0.12160E+07
 
    0.33218E+06         0.40688E+06         0.00000E+00
    0.40688E+06         0.57880E+07         0.00000E+00
    0.00000E+00         0.00000E+00         0.12240E+07
 
    0.37016E+06         0.45461E+06         0.00000E+00
    0.45461E+06         0.57894E+07         0.00000E+00
    0.00000E+00         0.00000E+00         0.12319E+07
 
    0.40716E+06         0.50243E+06         0.00000E+00
    0.50243E+06         0.57909E+07         0.00000E+00
    0.00000E+00         0.00000E+00         0.12396E+07
 
    0.44323E+06         0.55035E+06         0.00000E+00
    0.55035E+06         0.57924E+07         0.00000E+00
    0.00000E+00         0.00000E+00         0.12471E+07
 
    0.47838E+06         0.59840E+06         0.00000E+00
    0.59840E+06         0.57940E+07         0.00000E+00
    0.00000E+00         0.00000E+00         0.12545E+07
 
    0.51264E+06         0.64661E+06         0.00000E+00
    0.64661E+06         0.57957E+07         0.00000E+00
    0.00000E+00         0.00000E+00         0.12617E+07
 
    0.54604E+06         0.69501E+06         0.00000E+00
    0.69501E+06         0.57973E+07         0.00000E+00
    0.00000E+00         0.00000E+00         0.12687E+07
 
    0.57861E+06         0.74361E+06         0.00000E+00
    0.74361E+06         0.57990E+07         0.00000E+00
    0.00000E+00         0.00000E+00         0.12755E+07
 
    0.61038E+06         0.79245E+06         0.00000E+00
    0.79245E+06         0.58006E+07         0.00000E+00
    0.00000E+00         0.00000E+00         0.12822E+07
 
    0.64138E+06         0.84153E+06         0.00000E+00
    0.84153E+06         0.58023E+07         0.00000E+00
    0.00000E+00         0.00000E+00         0.12887E+07
 
    0.67164E+06         0.89089E+06         0.00000E+00
    0.89089E+06         0.58038E+07         0.00000E+00
    0.00000E+00         0.00000E+00         0.12951E+07
 
    0.70119E+06         0.94054E+06         0.00000E+00
    0.94054E+06         0.58054E+07         0.00000E+00
    0.00000E+00         0.00000E+00         0.13013E+07
 
    0.73006E+06         0.99051E+06         0.00000E+00
    0.99051E+06         0.58068E+07         0.00000E+00
    0.00000E+00         0.00000E+00         0.13074E+07
 
    0.75829E+06         0.10408E+07         0.00000E+00
    0.10408E+07         0.58081E+07         0.00000E+00
    0.00000E+00         0.00000E+00         0.13133E+07
 
    0.78590E+06         0.10914E+07         0.00000E+00
    0.10914E+07         0.58093E+07         0.00000E+00
    0.00000E+00         0.00000E+00         0.13190E+07
 
    0.81292E+06         0.11425E+07         0.00000E+00
    0.11425E+07         0.58103E+07         0.00000E+00
    0.00000E+00         0.00000E+00         0.13247E+07
 
    0.83940E+06         0.11938E+07         0.00000E+00
    0.11938E+07         0.58112E+07         0.00000E+00
    0.00000E+00         0.00000E+00         0.13301E+07
 
    0.86536E+06         0.12456E+07         0.00000E+00
    0.12456E+07         0.58119E+07         0.00000E+00
    0.00000E+00         0.00000E+00         0.13355E+07
 
    0.89083E+06         0.12978E+07         0.00000E+00
    0.12978E+07         0.58124E+07         0.00000E+00
    0.00000E+00         0.00000E+00         0.13407E+07
 
    0.91585E+06         0.13504E+07         0.00000E+00
    0.13504E+07         0.58127E+07         0.00000E+00
    0.00000E+00         0.00000E+00         0.13457E+07
 
    0.94045E+06         0.14035E+07         0.00000E+00
    0.14035E+07         0.58127E+07         0.00000E+00
    0.00000E+00         0.00000E+00         0.13506E+07
 
    0.96466E+06         0.14570E+07         0.00000E+00
    0.14570E+07         0.58125E+07         0.00000E+00
    0.00000E+00         0.00000E+00         0.13554E+07
 
    0.98851E+06         0.15110E+07         0.00000E+00
    0.15110E+07         0.58120E+07         0.00000E+00
    0.00000E+00         0.00000E+00         0.13601E+07
 
    0.10120E+07         0.15654E+07         0.00000E+00
    0.15654E+07         0.58112E+07         0.00000E+00
    0.00000E+00         0.00000E+00         0.13646E+07
 
    0.10353E+07         0.16203E+07         0.00000E+00
    0.16203E+07         0.58100E+07         0.00000E+00
    0.00000E+00         0.00000E+00         0.13691E+07
 
    0.10583E+07         0.16757E+07         0.00000E+00
    0.16757E+07         0.58085E+07         0.00000E+00
    0.00000E+00         0.00000E+00         0.13734E+07
 
    0.10810E+07         0.17316E+07         0.00000E+00
    0.17316E+07         0.58067E+07         0.00000E+00
    0.00000E+00         0.00000E+00         0.13775E+07
 
    0.11036E+07         0.17880E+07         0.00000E+00
    0.17880E+07         0.58044E+07         0.00000E+00
    0.00000E+00         0.00000E+00         0.13816E+07
 
    0.11260E+07         0.18450E+07         0.00000E+00
    0.18450E+07         0.58018E+07         0.00000E+00
    0.00000E+00         0.00000E+00         0.13856E+07
 
    0.11483E+07         0.19024E+07         0.00000E+00
    0.19024E+07         0.57987E+07         0.00000E+00
    0.00000E+00         0.00000E+00         0.13894E+07
 
    0.11705E+07         0.19604E+07         0.00000E+00
    0.19604E+07         0.57952E+07         0.00000E+00
    0.00000E+00         0.00000E+00         0.13931E+07
 
    0.11926E+07         0.20189E+07         0.00000E+00
    0.20189E+07         0.57912E+07         0.00000E+00
    0.00000E+00         0.00000E+00         0.13968E+07
 
    0.12147E+07         0.20780E+07         0.00000E+00
    0.20780E+07         0.57868E+07         0.00000E+00
    0.00000E+00         0.00000E+00         0.14003E+07
 
    0.12368E+07         0.21376E+07         0.00000E+00
    0.21376E+07         0.57818E+07         0.00000E+00
    0.00000E+00         0.00000E+00         0.14037E+07
 
    0.12589E+07         0.21978E+07         0.00000E+00
    0.21978E+07         0.57763E+07         0.00000E+00
    0.00000E+00         0.00000E+00         0.14070E+07
 
    0.12811E+07         0.22585E+07         0.00000E+00
    0.22585E+07         0.57702E+07         0.00000E+00
    0.00000E+00         0.00000E+00         0.14103E+07
 
    0.13034E+07         0.23198E+07         0.00000E+00
    0.23198E+07         0.57636E+07         0.00000E+00
    0.00000E+00         0.00000E+00         0.14134E+07
 
    0.13258E+07         0.23816E+07         0.00000E+00
    0.23816E+07         0.57564E+07         0.00000E+00
    0.00000E+00         0.00000E+00         0.14165E+07
 
    0.13484E+07         0.24440E+07         0.00000E+00
    0.24440E+07         0.57486E+07         0.00000E+00
    0.00000E+00         0.00000E+00         0.14194E+07
 
    0.13712E+07         0.25070E+07         0.00000E+00
    0.25070E+07         0.57402E+07         0.00000E+00
    0.00000E+00         0.00000E+00         0.14223E+07
 
    0.13942E+07         0.25706E+07         0.00000E+00
    0.25706E+07         0.57311E+07         0.00000E+00
    0.00000E+00         0.00000E+00         0.14251E+07
 
    0.14174E+07         0.26348E+07         0.00000E+00
    0.26348E+07         0.57214E+07         0.00000E+00
    0.00000E+00         0.00000E+00         0.14278E+07
 
   -0.20235E+06         0.24766E+05         0.00000E+00
    0.24766E+05         0.53453E+07         0.00000E+00
    0.00000E+00         0.00000E+00         0.10286E+07
 
   -0.15682E+06         0.73713E+05         0.00000E+00
    0.73713E+05         0.53454E+07         0.00000E+00
    0.00000E+00         0.00000E+00         0.10377E+07
 
   -0.11227E+06         0.12245E+06         0.00000E+00
    0.12245E+06         0.53457E+07         0.00000E+00
    0.00000E+00         0.00000E+00         0.10467E+07
 
   -0.68691E+05         0.17101E+06         0.00000E+00
    0.17101E+06         0.53460E+07         0.00000E+00
    0.00000E+00         0.00000E+00         0.10555E+07
 
   -0.26068E+05         0.21941E+06         0.00000E+00
    0.21941E+06         0.53465E+07         0.00000E+00
    0.00000E+00         0.00000E+00         0.10641E+07
 
    0.15619E+05         0.26769E+06         0.00000E+00
    0.26769E+06         0.53470E+07         0.00000E+00
    0.00000E+00         0.00000E+00         0.10725E+07
 
    0.56387E+05         0.31588E+06         0.00000E+00
    0.31588E+06         0.53477E+07         0.00000E+00
    0.00000E+00         0.00000E+00         0.10808E+07
 
    0.96255E+05         0.36400E+06         0.00000E+00
    0.36400E+06         0.53484E+07         0.00000E+00
    0.00000E+00         0.00000E+00         0.10889E+07
 
    0.13524E+06         0.41207E+06         0.00000E+00
    0.41207E+06         0.53491E+07         0.00000E+00
    0.00000E+00         0.00000E+00         0.10969E+07
 
    0.17337E+06         0.46014E+06         0.00000E+00
    0.46014E+06         0.53499E+07         0.00000E+00
    0.00000E+00         0.00000E+00         0.11047E+07
 
    0.21067E+06         0.50821E+06         0.00000E+00
    0.50821E+06         0.53507E+07         0.00000E+00
    0.00000E+00         0.00000E+00         0.11123E+07
 
    0.24715E+06         0.55632E+06         0.00000E+00
    0.55632E+06         0.53516E+07         0.00000E+00
    0.00000E+00         0.00000E+00         0.11197E+07
 
    0.28283E+06         0.60448E+06         0.00000E+00
    0.60448E+06         0.53524E+07         0.00000E+00
    0.00000E+00         0.00000E+00         0.11271E+07
 
    0.31775E+06         0.65273E+06         0.00000E+00
    0.65273E+06         0.53533E+07         0.00000E+00
    0.00000E+00         0.00000E+00         0.11342E+07
 
    0.35193E+06         0.70109E+06         0.00000E+00
    0.70109E+06         0.53541E+07         0.00000E+00
    0.00000E+00         0.00000E+00         0.11412E+07
 
    0.38538E+06         0.74956E+06         0.00000E+00
    0.74956E+06         0.53549E+07         0.00000E+00
    0.00000E+00         0.00000E+00         0.11480E+07
 
    0.41814E+06         0.79819E+06         0.00000E+00
    0.79819E+06         0.53556E+07         0.00000E+00
    0.00000E+00         0.00000E+00         0.11547E+07
 
    0.45024E+06         0.84698E+06         0.00000E+00
    0.84698E+06         0.53563E+07         0.00000E+00
    0.00000E+00         0.00000E+00         0.11613E+07
 
    0.48169E+06         0.89596E+06         0.00000E+00
    0.89596E+06         0.53568E+07         0.00000E+00
    0.00000E+00         0.00000E+00         0.11677E+07
 
    0.51253E+06         0.94515E+06         0.00000E+00
    0.94515E+06         0.53573E+07         0.00000E+00
    0.00000E+00         0.00000E+00         0.11740E+07
 
    0.54278E+06         0.99456E+06         0.00000E+00
    0.99456E+06         0.53577E+07         0.00000E+00
    0.00000E+00         0.00000E+00         0.11801E+07
 
    0.57247E+06         0.10442E+07         0.00000E+00
    0.10442E+07         0.53579E+07         0.00000E+00
    0.00000E+00         0.00000E+00         0.11861E+07
 
    0.60163E+06         0.10941E+07         0.00000E+00
    0.10941E+07         0.53579E+07         0.00000E+00
    0.00000E+00         0.00000E+00         0.11919E+07
 
    0.63029E+06         0.11443E+07         0.00000E+00
    0.11443E+07         0.53578E+07         0.00000E+00
    0.00000E+00         0.00000E+00         0.11976E+07
 
    0.65847E+06         0.11948E+07         0.00000E+00
    0.11948E+07         0.53576E+07         0.00000E+00
    0.00000E+00         0.00000E+00         0.12032E+07
 
    0.68621E+06         0.12455E+07         0.00000E+00
    0.12455E+07         0.53571E+07         0.00000E+00
    0.00000E+00         0.00000E+00         0.12087E+07
 
    0.71352E+06         0.12966E+07         0.00000E+00
    0.12966E+07         0.53564E+07         0.00000E+00
    0.00000E+00         0.00000E+00         0.12140E+07
 
    0.74045E+06         0.13480E+07         0.00000E+00
    0.13480E+07         0.53554E+07         0.00000E+00
    0.00000E+00         0.00000E+00         0.12192E+07
 
    0.76702E+06         0.13998E+07         0.00000E+00
    0.13998E+07         0.53542E+07         0.00000E+00
    0.00000E+00         0.00000E+00         0.12242E+07
 
    0.79326E+06         0.14519E+07         0.00000E+00
    0.14519E+07         0.53527E+07         0.00000E+00
    0.00000E+00         0.00000E+00         0.12292E+07
 
    0.81920E+06         0.15043E+07         0.00000E+00
    0.15043E+07         0.53509E+07         0.00000E+00
    0.00000E+00         0.00000E+00         0.12340E+07
 
    0.84487E+06         0.15572E+07         0.00000E+00
    0.15572E+07         0.53488E+07         0.00000E+00
    0.00000E+00         0.00000E+00         0.12387E+07
 
    0.87030E+06         0.16104E+07         0.00000E+00
    0.16104E+07         0.53464E+07         0.00000E+00
    0.00000E+00         0.00000E+00         0.12433E+07
 
    0.89551E+06         0.16640E+07         0.00000E+00
    0.16640E+07         0.53436E+07         0.00000E+00
    0.00000E+00         0.00000E+00         0.12478E+07
 
    0.92055E+06         0.17181E+07         0.00000E+00
    0.17181E+07         0.53405E+07         0.00000E+00
    0.00000E+00         0.00000E+00         0.12522E+07
 
    0.94543E+06         0.17725E+07         0.00000E+00
    0.17725E+07         0.53370E+07         0.00000E+00
    0.00000E+00         0.00000E+00         0.12565E+07
 
    0.97019E+06         0.18273E+07         0.00000E+00
    0.18273E+07         0.53330E+07         0.00000E+00
    0.00000E+00         0.00000E+00         0.12606E+07
 
    0.99486E+06         0.18826E+07         0.00000E+00
    0.18826E+07         0.53287E+07         0.00000E+00
    0.00000E+00         0.00000E+00         0.12647E+07
 
    0.10195E+07         0.19383E+07         0.00000E+00
    0.19383E+07         0.53238E+07         0.00000E+00
    0.00000E+00         0.00000E+00         0.12687E+07
 
    0.10440E+07         0.19945E+07         0.00000E+00
    0.19945E+07         0.53186E+07         0.00000E+00
    0.00000E+00         0.00000E+00         0.12725E+07
 
    0.10686E+07         0.20511E+07         0.00000E+00
    0.20511E+07         0.53128E+07         0.00000E+00
    0.00000E+00         0.00000E+00         0.12763E+07
 
    0.10932E+07         0.21081E+07         0.00000E+00
    0.21081E+07         0.53066E+07         0.00000E+00
    0.00000E+00         0.00000E+00         0.12800E+07
 
    0.11179E+07         0.21656E+07         0.00000E+00
    0.21656E+07         0.52998E+07         0.00000E+00
    0.00000E+00         0.00000E+00         0.12835E+07
 
    0.11426E+07         0.22236E+07         0.00000E+00
    0.22236E+07         0.52925E+07         0.00000E+00
    0.00000E+00         0.00000E+00         0.12870E+07
 
    0.11675E+07         0.22820E+07         0.00000E+00
    0.22820E+07         0.52846E+07         0.00000E+00
    0.00000E+00         0.00000E+00         0.12904E+07
 
    0.11925E+07         0.23409E+07         0.00000E+00
    0.23409E+07         0.52762E+07         0.00000E+00
    0.00000E+00         0.00000E+00         0.12937E+07
 
    0.12177E+07         0.24003E+07         0.00000E+00
    0.24003E+07         0.52671E+07         0.00000E+00
    0.00000E+00         0.00000E+00         0.12970E+07
 
    0.12431E+07         0.24601E+07         0.00000E+00
    0.24601E+07         0.52575E+07         0.00000E+00
    0.00000E+00         0.00000E+00         0.13001E+07
 
    0.12687E+07         0.25204E+07         0.00000E+00
    0.25204E+07         0.52472E+07         0.00000E+00
    0.00000E+00         0.00000E+00         0.13032E+07
 
    0.12946E+07         0.25812E+07         0.00000E+00
    0.25812E+07         0.52363E+07         0.00000E+00
    0.00000E+00         0.00000E+00         0.13062E+07
 
   -0.36706E+06         0.25024E+05         0.00000E+00
    0.25024E+05         0.49340E+07         0.00000E+00
    0.00000E+00         0.00000E+00         0.91340E+06
 
   -0.32274E+06         0.74412E+05         0.00000E+00
    0.74412E+05         0.49341E+07         0.00000E+00
    0.00000E+00         0.00000E+00         0.92227E+06
 
   -0.27927E+06         0.12355E+06         0.00000E+00
    0.12355E+06         0.49342E+07         0.00000E+00
    0.00000E+00         0.00000E+00         0.93099E+06
 
   -0.23662E+06         0.17248E+06         0.00000E+00
    0.17248E+06         0.49344E+07         0.00000E+00
    0.00000E+00         0.00000E+00         0.93956E+06
 
   -0.19480E+06         0.22120E+06         0.00000E+00
    0.22120E+06         0.49346E+07         0.00000E+00
    0.00000E+00         0.00000E+00         0.94796E+06
 
   -0.15378E+06         0.26976E+06         0.00000E+00
    0.26976E+06         0.49349E+07         0.00000E+00
    0.00000E+00         0.00000E+00         0.95622E+06
 
   -0.11354E+06         0.31818E+06         0.00000E+00
    0.31818E+06         0.49351E+07         0.00000E+00
    0.00000E+00         0.00000E+00         0.96432E+06
 
   -0.74078E+05         0.36648E+06         0.00000E+00
    0.36648E+06         0.49354E+07         0.00000E+00
    0.00000E+00         0.00000E+00         0.97227E+06
 
   -0.35370E+05         0.41468E+06         0.00000E+00
    0.41468E+06         0.49357E+07         0.00000E+00
    0.00000E+00         0.00000E+00         0.98007E+06
 
    0.26010E+04         0.46281E+06         0.00000E+00
    0.46281E+06         0.49360E+07         0.00000E+00
    0.00000E+00         0.00000E+00         0.98772E+06
 
    0.39854E+05         0.51090E+06         0.00000E+00
    0.51090E+06         0.49363E+07         0.00000E+00
    0.00000E+00         0.00000E+00         0.99523E+06
 
    0.76406E+05         0.55895E+06         0.00000E+00
    0.55895E+06         0.49365E+07         0.00000E+00
    0.00000E+00         0.00000E+00         0.10026E+07
 
    0.11228E+06         0.60700E+06         0.00000E+00
    0.60700E+06         0.49368E+07         0.00000E+00
    0.00000E+00         0.00000E+00         0.10098E+07
 
    0.14749E+06         0.65507E+06         0.00000E+00
    0.65507E+06         0.49369E+07         0.00000E+00
    0.00000E+00         0.00000E+00         0.10169E+07
 
    0.18207E+06         0.70317E+06         0.00000E+00
    0.70317E+06         0.49370E+07         0.00000E+00
    0.00000E+00         0.00000E+00         0.10238E+07
 
    0.21602E+06         0.75133E+06         0.00000E+00
    0.75133E+06         0.49370E+07         0.00000E+00
    0.00000E+00         0.00000E+00         0.10306E+07
 
    0.24939E+06         0.79956E+06         0.00000E+00
    0.79956E+06         0.49370E+07         0.00000E+00
    0.00000E+00         0.00000E+00         0.10373E+07
 
    0.28217E+06         0.84788E+06         0.00000E+00
    0.84788E+06         0.49368E+07         0.00000E+00
    0.00000E+00         0.00000E+00         0.10438E+07
 
    0.31441E+06         0.89632E+06         0.00000E+00
    0.89632E+06         0.49365E+07         0.00000E+00
    0.00000E+00         0.00000E+00         0.10502E+07
 
    0.34613E+06         0.94488E+06         0.00000E+00
    0.94488E+06         0.49361E+07         0.00000E+00
    0.00000E+00         0.00000E+00         0.10565E+07
 
    0.37733E+06         0.99359E+06         0.00000E+00
    0.99359E+06         0.49356E+07         0.00000E+00
    0.00000E+00         0.00000E+00         0.10626E+07
 
    0.40807E+06         0.10425E+07         0.00000E+00
    0.10425E+07         0.49348E+07         0.00000E+00
    0.00000E+00         0.00000E+00         0.10686E+07
 
    0.43834E+06         0.10915E+07         0.00000E+00
    0.10915E+07         0.49340E+07         0.00000E+00
    0.00000E+00         0.00000E+00         0.10745E+07
 
    0.46819E+06         0.11407E+07         0.00000E+00
    0.11407E+07         0.49329E+07         0.00000E+00
    0.00000E+00         0.00000E+00         0.10802E+07
 
    0.49763E+06         0.11902E+07         0.00000E+00
    0.11902E+07         0.49316E+07         0.00000E+00
    0.00000E+00         0.00000E+00         0.10858E+07
 
    0.52670E+06         0.12398E+07         0.00000E+00
    0.12398E+07         0.49301E+07         0.00000E+00
    0.00000E+00         0.00000E+00         0.10914E+07
 
    0.55541E+06         0.12897E+07         0.00000E+00
    0.12897E+07         0.49283E+07         0.00000E+00
    0.00000E+00         0.00000E+00         0.10967E+07
 
    0.58379E+06         0.13399E+07         0.00000E+00
    0.13399E+07         0.49263E+07         0.00000E+00
    0.00000E+00         0.00000E+00         0.11020E+07
 
    0.61188E+06         0.13902E+07         0.00000E+00
    0.13902E+07         0.49240E+07         0.00000E+00
    0.00000E+00         0.00000E+00         0.11072E+07
 
    0.63969E+06         0.14409E+07         0.00000E+00
    0.14409E+07         0.49215E+07         0.00000E+00
    0.00000E+00         0.00000E+00         0.11122E+07
 
    0.66725E+06         0.14918E+07         0.00000E+00
    0.14918E+07         0.49186E+07         0.00000E+00
    0.00000E+00         0.00000E+00         0.11172E+07
 
    0.69459E+06         0.15430E+07         0.00000E+00
    0.15430E+07         0.49154E+07         0.00000E+00
    0.00000E+00         0.00000E+00         0.11220E+07
 
    0.72174E+06         0.15945E+07         0.00000E+00
    0.15945E+07         0.49119E+07         0.00000E+00
    0.00000E+00         0.00000E+00         0.11267E+07
 
    0.74872E+06         0.16464E+07         0.00000E+00
    0.16464E+07         0.49080E+07         0.00000E+00
    0.00000E+00         0.00000E+00         0.11313E+07
 
    0.77557E+06         0.16985E+07         0.00000E+00
    0.16985E+07         0.49038E+07         0.00000E+00
    0.00000E+00         0.00000E+00         0.11359E+07
 
    0.80229E+06         0.17509E+07         0.00000E+00
    0.17509E+07         0.48991E+07         0.00000E+00
    0.00000E+00         0.00000E+00         0.11403E+07
 
    0.82894E+06         0.18037E+07         0.00000E+00
    0.18037E+07         0.48941E+07         0.00000E+00
    0.00000E+00         0.00000E+00         0.11446E+07
 
    0.85553E+06         0.18568E+07         0.00000E+00
    0.18568E+07         0.48886E+07         0.00000E+00
    0.00000E+00         0.00000E+00         0.11488E+07
 
    0.88208E+06         0.19103E+07         0.00000E+00
    0.19103E+07         0.48827E+07         0.00000E+00
    0.00000E+00         0.00000E+00         0.11530E+07
 
    0.90864E+06         0.19641E+07         0.00000E+00
    0.19641E+07         0.48764E+07         0.00000E+00
    0.00000E+00         0.00000E+00         0.11570E+07
 
    0.93522E+06         0.20182E+07         0.00000E+00
    0.20182E+07         0.48695E+07         0.00000E+00
    0.00000E+00         0.00000E+00         0.11609E+07
 
    0.96185E+06         0.20727E+07         0.00000E+00
    0.20727E+07         0.48622E+07         0.00000E+00
    0.00000E+00         0.00000E+00         0.11648E+07
 
    0.98857E+06         0.21276E+07         0.00000E+00
    0.21276E+07         0.48543E+07         0.00000E+00
    0.00000E+00         0.00000E+00         0.11686E+07
 
    0.10154E+07         0.21829E+07         0.00000E+00
    0.21829E+07         0.48460E+07         0.00000E+00
    0.00000E+00         0.00000E+00         0.11723E+07
 
    0.10424E+07         0.22385E+07         0.00000E+00
    0.22385E+07         0.48370E+07         0.00000E+00
    0.00000E+00         0.00000E+00         0.11759E+07
 
    0.10695E+07         0.22945E+07         0.00000E+00
    0.22945E+07         0.48275E+07         0.00000E+00
    0.00000E+00         0.00000E+00         0.11794E+07
 
    0.10968E+07         0.23508E+07         0.00000E+00
    0.23508E+07         0.48175E+07         0.00000E+00
    0.00000E+00         0.00000E+00         0.11829E+07
 
    0.11244E+07         0.24076E+07         0.00000E+00
    0.24076E+07         0.48068E+07         0.00000E+00
    0.00000E+00         0.00000E+00         0.11862E+07
 
    0.11522E+07         0.24647E+07         0.00000E+00
    0.24647E+07         0.47955E+07         0.00000E+00
    0.00000E+00         0.00000E+00         0.11895E+07
 
    0.11802E+07         0.25223E+07         0.00000E+00
    0.25223E+07         0.47836E+07         0.00000E+00
    0.00000E+00         0.00000E+00         0.11928E+07
 
   -0.50574E+06         0.25135E+05         0.00000E+00
    0.25135E+05         0.45472E+07         0.00000E+00
    0.00000E+00         0.00000E+00         0.80830E+06
 
   -0.46279E+06         0.74684E+05         0.00000E+00
    0.74684E+05         0.45472E+07         0.00000E+00
    0.00000E+00         0.00000E+00         0.81689E+06
 
   -0.42056E+06         0.12396E+06         0.00000E+00
    0.12396E+06         0.45473E+07         0.00000E+00
    0.00000E+00         0.00000E+00         0.82534E+06
 
   -0.37904E+06         0.17298E+06         0.00000E+00
    0.17298E+06         0.45473E+07         0.00000E+00
    0.00000E+00         0.00000E+00         0.83365E+06
 
   -0.33821E+06         0.22177E+06         0.00000E+00
    0.22177E+06         0.45473E+07         0.00000E+00
    0.00000E+00         0.00000E+00         0.84182E+06
 
   -0.29807E+06         0.27036E+06         0.00000E+00
    0.27036E+06         0.45473E+07         0.00000E+00
    0.00000E+00         0.00000E+00         0.84985E+06
 
   -0.25860E+06         0.31876E+06         0.00000E+00
    0.31876E+06         0.45473E+07         0.00000E+00
    0.00000E+00         0.00000E+00         0.85774E+06
 
   -0.21978E+06         0.36700E+06         0.00000E+00
    0.36700E+06         0.45472E+07         0.00000E+00
    0.00000E+00         0.00000E+00         0.86549E+06
 
   -0.18161E+06         0.41509E+06         0.00000E+00
    0.41509E+06         0.45471E+07         0.00000E+00
    0.00000E+00         0.00000E+00         0.87311E+06
 
   -0.14407E+06         0.46307E+06         0.00000E+00
    0.46307E+06         0.45470E+07         0.00000E+00
    0.00000E+00         0.00000E+00         0.88059E+06
 
   -0.10714E+06         0.51095E+06         0.00000E+00
    0.51095E+06         0.45468E+07         0.00000E+00
    0.00000E+00         0.00000E+00         0.88794E+06
 
   -0.70802E+05         0.55875E+06         0.00000E+00
    0.55875E+06         0.45466E+07         0.00000E+00
    0.00000E+00         0.00000E+00         0.89515E+06
 
   -0.35046E+05         0.60648E+06         0.00000E+00
    0.60648E+06         0.45462E+07         0.00000E+00
    0.00000E+00         0.00000E+00         0.90224E+06
 
    0.14777E+03         0.65418E+06         0.00000E+00
    0.65418E+06         0.45458E+07         0.00000E+00
    0.00000E+00         0.00000E+00         0.90919E+06
 
    0.34798E+05         0.70185E+06         0.00000E+00
    0.70185E+06         0.45453E+07         0.00000E+00
    0.00000E+00         0.00000E+00         0.91602E+06
 
    0.68923E+05         0.74952E+06         0.00000E+00
    0.74952E+06         0.45447E+07         0.00000E+00
    0.00000E+00         0.00000E+00         0.92272E+06
 
    0.10254E+06         0.79720E+06         0.00000E+00
    0.79720E+06         0.45440E+07         0.00000E+00
    0.00000E+00         0.00000E+00         0.92930E+06
 
    0.13568E+06         0.84490E+06         0.00000E+00
    0.84490E+06         0.45431E+07         0.00000E+00
    0.00000E+00         0.00000E+00         0.93575E+06
 
    0.16834E+06         0.89266E+06         0.00000E+00
    0.89266E+06         0.45421E+07         0.00000E+00
    0.00000E+00         0.00000E+00         0.94208E+06
 
    0.20056E+06         0.94047E+06         0.00000E+00
    0.94047E+06         0.45409E+07         0.00000E+00
    0.00000E+00         0.00000E+00         0.94830E+06
 
    0.23236E+06         0.98835E+06         0.00000E+00
    0.98835E+06         0.45396E+07         0.00000E+00
    0.00000E+00         0.00000E+00         0.95439E+06
 
    0.26375E+06         0.10363E+07         0.00000E+00
    0.10363E+07         0.45381E+07         0.00000E+00
    0.00000E+00         0.00000E+00         0.96036E+06
 
    0.29475E+06         0.10844E+07         0.00000E+00
    0.10844E+07         0.45364E+07         0.00000E+00
    0.00000E+00         0.00000E+00         0.96622E+06
 
    0.32540E+06         0.11326E+07         0.00000E+00
    0.11326E+07         0.45344E+07         0.00000E+00
    0.00000E+00         0.00000E+00         0.97197E+06
 
    0.35571E+06         0.11809E+07         0.00000E+00
    0.11809E+07         0.45323E+07         0.00000E+00
    0.00000E+00         0.00000E+00         0.97760E+06
 
    0.38571E+06         0.12294E+07         0.00000E+00
    0.12294E+07         0.45299E+07         0.00000E+00
    0.00000E+00         0.00000E+00         0.98312E+06
 
    0.41541E+06         0.12780E+07         0.00000E+00
    0.12780E+07         0.45273E+07         0.00000E+00
    0.00000E+00         0.00000E+00         0.98854E+06
 
    0.44484E+06         0.13268E+07         0.00000E+00
    0.13268E+07         0.45244E+07         0.00000E+00
    0.00000E+00         0.00000E+00         0.99385E+06
 
    0.47403E+06         0.13758E+07         0.00000E+00
    0.13758E+07         0.45212E+07         0.00000E+00
    0.00000E+00         0.00000E+00         0.99905E+06
 
    0.50299E+06         0.14249E+07         0.00000E+00
    0.14249E+07         0.45177E+07         0.00000E+00
    0.00000E+00         0.00000E+00         0.10041E+07
 
    0.53176E+06         0.14743E+07         0.00000E+00
    0.14743E+07         0.45140E+07         0.00000E+00
    0.00000E+00         0.00000E+00         0.10091E+07
 
    0.56035E+06         0.15239E+07         0.00000E+00
    0.15239E+07         0.45099E+07         0.00000E+00
    0.00000E+00         0.00000E+00         0.10140E+07
 
    0.58880E+06         0.15736E+07         0.00000E+00
    0.15736E+07         0.45054E+07         0.00000E+00
    0.00000E+00         0.00000E+00         0.10188E+07
 
    0.61711E+06         0.16236E+07         0.00000E+00
    0.16236E+07         0.45006E+07         0.00000E+00
    0.00000E+00         0.00000E+00         0.10235E+07
 
    0.64533E+06         0.16738E+07         0.00000E+00
    0.16738E+07         0.44954E+07         0.00000E+00
    0.00000E+00         0.00000E+00         0.10282E+07
 
    0.67348E+06         0.17243E+07         0.00000E+00
    0.17243E+07         0.44899E+07         0.00000E+00
    0.00000E+00         0.00000E+00         0.10327E+07
 
    0.70157E+06         0.17750E+07         0.00000E+00
    0.17750E+07         0.44839E+07         0.00000E+00
    0.00000E+00         0.00000E+00         0.10371E+07
 
    0.72964E+06         0.18260E+07         0.00000E+00
    0.18260E+07         0.44775E+07         0.00000E+00
    0.00000E+00         0.00000E+00         0.10414E+07
 
    0.75771E+06         0.18772E+07         0.00000E+00
    0.18772E+07         0.44707E+07         0.00000E+00
    0.00000E+00         0.00000E+00         0.10457E+07
 
    0.78580E+06         0.19287E+07         0.00000E+00
    0.19287E+07         0.44634E+07         0.00000E+00
    0.00000E+00         0.00000E+00         0.10498E+07
 
    0.81395E+06         0.19804E+07         0.00000E+00
    0.19804E+07         0.44556E+07         0.00000E+00
    0.00000E+00         0.00000E+00         0.10539E+07
 
    0.84217E+06         0.20324E+07         0.00000E+00
    0.20324E+07         0.44474E+07         0.00000E+00
    0.00000E+00         0.00000E+00         0.10579E+07
 
    0.87050E+06         0.20847E+07         0.00000E+00
    0.20847E+07         0.44387E+07         0.00000E+00
    0.00000E+00         0.00000E+00         0.10618E+07
 
    0.89896E+06         0.21373E+07         0.00000E+00
    0.21373E+07         0.44294E+07         0.00000E+00
    0.00000E+00         0.00000E+00         0.10657E+07
 
    0.92758E+06         0.21902E+07         0.00000E+00
    0.21902E+07         0.44196E+07         0.00000E+00
    0.00000E+00         0.00000E+00         0.10694E+07
 
    0.95637E+06         0.22434E+07         0.00000E+00
    0.22434E+07         0.44093E+07         0.00000E+00
    0.00000E+00         0.00000E+00         0.10731E+07
 
    0.98538E+06         0.22968E+07         0.00000E+00
    0.22968E+07         0.43984E+07         0.00000E+00
    0.00000E+00         0.00000E+00         0.10768E+07
 
    0.10146E+07         0.23505E+07         0.00000E+00
    0.23505E+07         0.43869E+07         0.00000E+00
    0.00000E+00         0.00000E+00         0.10803E+07
 
    0.10441E+07         0.24046E+07         0.00000E+00
    0.24046E+07         0.43748E+07         0.00000E+00
    0.00000E+00         0.00000E+00         0.10838E+07
 
    0.10739E+07         0.24589E+07         0.00000E+00
    0.24589E+07         0.43621E+07         0.00000E+00
    0.00000E+00         0.00000E+00         0.10872E+07
 
   -0.62049E+06         0.25122E+05         0.00000E+00
    0.25122E+05         0.41841E+07         0.00000E+00
    0.00000E+00         0.00000E+00         0.71272E+06
 
   -0.57905E+06         0.74596E+05         0.00000E+00
    0.74596E+05         0.41840E+07         0.00000E+00
    0.00000E+00         0.00000E+00         0.72100E+06
 
   -0.53820E+06         0.12377E+06         0.00000E+00
    0.12377E+06         0.41840E+07         0.00000E+00
    0.00000E+00         0.00000E+00         0.72916E+06
 
   -0.49796E+06         0.17266E+06         0.00000E+00
    0.17266E+06         0.41839E+07         0.00000E+00
    0.00000E+00         0.00000E+00         0.73718E+06
 
   -0.45830E+06         0.22130E+06         0.00000E+00
    0.22130E+06         0.41837E+07         0.00000E+00
    0.00000E+00         0.00000E+00         0.74508E+06
 
   -0.41922E+06         0.26970E+06         0.00000E+00
    0.26970E+06         0.41835E+07         0.00000E+00
    0.00000E+00         0.00000E+00         0.75286E+06
 
   -0.38071E+06         0.31787E+06         0.00000E+00
    0.31787E+06         0.41832E+07         0.00000E+00
    0.00000E+00         0.00000E+00         0.76050E+06
 
   -0.34275E+06         0.36585E+06         0.00000E+00
    0.36585E+06         0.41829E+07         0.00000E+00
    0.00000E+00         0.00000E+00         0.76803E+06
 
   -0.30533E+06         0.41365E+06         0.00000E+00
    0.41365E+06         0.41825E+07         0.00000E+00
    0.00000E+00         0.00000E+00         0.77543E+06
 
   -0.26845E+06         0.46128E+06         0.00000E+00
    0.46128E+06         0.41820E+07         0.00000E+00
    0.00000E+00         0.00000E+00         0.78271E+06
 
   -0.23208E+06         0.50878E+06         0.00000E+00
    0.50878E+06         0.41814E+07         0.00000E+00
    0.00000E+00         0.00000E+00         0.78987E+06
 
   -0.19621E+06         0.55614E+06         0.00000E+00
    0.55614E+06         0.41807E+07         0.00000E+00
    0.00000E+00         0.00000E+00         0.79690E+06
 
   -0.16084E+06         0.60340E+06         0.00000E+00
    0.60340E+06         0.41799E+07         0.00000E+00
    0.00000E+00         0.00000E+00         0.80382E+06
 
   -0.12593E+06         0.65057E+06         0.00000E+00
    0.65057E+06         0.41791E+07         0.00000E+00
    0.00000E+00         0.00000E+00         0.81062E+06
 
   -0.91489E+05         0.69766E+06         0.00000E+00
    0.69766E+06         0.41780E+07         0.00000E+00
    0.00000E+00         0.00000E+00         0.81731E+06
 
   -0.57485E+05         0.74470E+06         0.00000E+00
    0.74470E+06         0.41769E+07         0.00000E+00
    0.00000E+00         0.00000E+00         0.82388E+06
 
   -0.23908E+05         0.79169E+06         0.00000E+00
    0.79169E+06         0.41756E+07         0.00000E+00
    0.00000E+00         0.00000E+00         0.83033E+06
 
    0.92618E+04         0.83865E+06         0.00000E+00
    0.83865E+06         0.41741E+07         0.00000E+00
    0.00000E+00         0.00000E+00         0.83668E+06
 
    0.42040E+05         0.88560E+06         0.00000E+00
    0.88560E+06         0.41725E+07         0.00000E+00
    0.00000E+00         0.00000E+00         0.84291E+06
 
    0.74446E+05         0.93254E+06         0.00000E+00
    0.93254E+06         0.41707E+07         0.00000E+00
    0.00000E+00         0.00000E+00         0.84903E+06
 
    0.10650E+06         0.97951E+06         0.00000E+00
    0.97951E+06         0.41687E+07         0.00000E+00
    0.00000E+00         0.00000E+00         0.85504E+06
 
    0.13821E+06         0.10265E+07         0.00000E+00
    0.10265E+07         0.41665E+07         0.00000E+00
    0.00000E+00         0.00000E+00         0.86095E+06
 
    0.16961E+06         0.10735E+07         0.00000E+00
    0.10735E+07         0.41641E+07         0.00000E+00
    0.00000E+00         0.00000E+00         0.86675E+06
 
    0.20071E+06         0.11206E+07         0.00000E+00
    0.11206E+07         0.41615E+07         0.00000E+00
    0.00000E+00         0.00000E+00         0.87245E+06
 
    0.23153E+06         0.11678E+07         0.00000E+00
    0.11678E+07         0.41587E+07         0.00000E+00
    0.00000E+00         0.00000E+00         0.87804E+06
 
    0.26210E+06         0.12150E+07         0.00000E+00
    0.12150E+07         0.41556E+07         0.00000E+00
    0.00000E+00         0.00000E+00         0.88353E+06
 
    0.29243E+06         0.12623E+07         0.00000E+00
    0.12623E+07         0.41522E+07         0.00000E+00
    0.00000E+00         0.00000E+00         0.88892E+06
 
    0.32254E+06         0.13097E+07         0.00000E+00
    0.13097E+07         0.41486E+07         0.00000E+00
    0.00000E+00         0.00000E+00         0.89422E+06
 
    0.35245E+06         0.13572E+07         0.00000E+00
    0.13572E+07         0.41446E+07         0.00000E+00
    0.00000E+00         0.00000E+00         0.89942E+06
 
    0.38220E+06         0.14048E+07         0.00000E+00
    0.14048E+07         0.41404E+07         0.00000E+00
    0.00000E+00         0.00000E+00         0.90452E+06
 
    0.41179E+06         0.14526E+07         0.00000E+00
    0.14526E+07         0.41359E+07         0.00000E+00
    0.00000E+00         0.00000E+00         0.90953E+06
 
    0.44124E+06         0.15005E+07         0.00000E+00
    0.15005E+07         0.41310E+07         0.00000E+00
    0.00000E+00         0.00000E+00         0.91445E+06
 
    0.47060E+06         0.15485E+07         0.00000E+00
    0.15485E+07         0.41258E+07         0.00000E+00
    0.00000E+00         0.00000E+00         0.91927E+06
 
    0.49986E+06         0.15967E+07         0.00000E+00
    0.15967E+07         0.41202E+07         0.00000E+00
    0.00000E+00         0.00000E+00         0.92401E+06
 
    0.52906E+06         0.16450E+07         0.00000E+00
    0.16450E+07         0.41143E+07         0.00000E+00
    0.00000E+00         0.00000E+00         0.92866E+06
 
    0.55822E+06         0.16935E+07         0.00000E+00
    0.16935E+07         0.41079E+07         0.00000E+00
    0.00000E+00         0.00000E+00         0.93323E+06
 
    0.58736E+06         0.17421E+07         0.00000E+00
    0.17421E+07         0.41012E+07         0.00000E+00
    0.00000E+00         0.00000E+00         0.93771E+06
 
    0.61651E+06         0.17910E+07         0.00000E+00
    0.17910E+07         0.40941E+07         0.00000E+00
    0.00000E+00         0.00000E+00         0.94212E+06
 
    0.64568E+06         0.18400E+07         0.00000E+00
    0.18400E+07         0.40865E+07         0.00000E+00
    0.00000E+00         0.00000E+00         0.94644E+06
 
    0.67491E+06         0.18892E+07         0.00000E+00
    0.18892E+07         0.40785E+07         0.00000E+00
    0.00000E+00         0.00000E+00         0.95068E+06
 
    0.70421E+06         0.19386E+07         0.00000E+00
    0.19386E+07         0.40700E+07         0.00000E+00
    0.00000E+00         0.00000E+00         0.95484E+06
 
    0.73361E+06         0.19882E+07         0.00000E+00
    0.19882E+07         0.40611E+07         0.00000E+00
    0.00000E+00         0.00000E+00         0.95893E+06
 
    0.76314E+06         0.20379E+07         0.00000E+00
    0.20379E+07         0.40516E+07         0.00000E+00
    0.00000E+00         0.00000E+00         0.96295E+06
 
    0.79281E+06         0.20879E+07         0.00000E+00
    0.20879E+07         0.40417E+07         0.00000E+00
    0.00000E+00         0.00000E+00         0.96690E+06
 
    0.82265E+06         0.21381E+07         0.00000E+00
    0.21381E+07         0.40312E+07         0.00000E+00
    0.00000E+00         0.00000E+00         0.97077E+06
 
    0.85269E+06         0.21885E+07         0.00000E+00
    0.21885E+07         0.40202E+07         0.00000E+00
    0.00000E+00         0.00000E+00         0.97458E+06
 
    0.88295E+06         0.22391E+07         0.00000E+00
    0.22391E+07         0.40086E+07         0.00000E+00
    0.00000E+00         0.00000E+00         0.97832E+06
 
    0.91346E+06         0.22899E+07         0.00000E+00
    0.22899E+07         0.39965E+07         0.00000E+00
    0.00000E+00         0.00000E+00         0.98200E+06
 
    0.94424E+06         0.23409E+07         0.00000E+00
    0.23409E+07         0.39838E+07         0.00000E+00
    0.00000E+00         0.00000E+00         0.98561E+06
 
    0.97531E+06         0.23922E+07         0.00000E+00
    0.23922E+07         0.39705E+07         0.00000E+00
    0.00000E+00         0.00000E+00         0.98916E+06
 
   -0.71331E+06         0.25005E+05         0.00000E+00
    0.25005E+05         0.38437E+07         0.00000E+00
    0.00000E+00         0.00000E+00         0.62608E+06
 
   -0.67346E+06         0.74205E+05         0.00000E+00
    0.74205E+05         0.38436E+07         0.00000E+00
    0.00000E+00         0.00000E+00         0.63403E+06
 
   -0.63413E+06         0.12309E+06         0.00000E+00
    0.12309E+06         0.38435E+07         0.00000E+00
    0.00000E+00         0.00000E+00         0.64187E+06
 
   -0.59529E+06         0.17166E+06         0.00000E+00
    0.17166E+06         0.38433E+07         0.00000E+00
    0.00000E+00         0.00000E+00         0.64960E+06
 
   -0.55694E+06         0.21996E+06         0.00000E+00
    0.21996E+06         0.38430E+07         0.00000E+00
    0.00000E+00         0.00000E+00         0.65721E+06
 
   -0.51908E+06         0.26798E+06         0.00000E+00
    0.26798E+06         0.38426E+07         0.00000E+00
    0.00000E+00         0.00000E+00         0.66470E+06
 
   -0.48169E+06         0.31576E+06         0.00000E+00
    0.31576E+06         0.38421E+07         0.00000E+00
    0.00000E+00         0.00000E+00         0.67208E+06
 
   -0.44476E+06         0.36331E+06         0.00000E+00
    0.36331E+06         0.38415E+07         0.00000E+00
    0.00000E+00         0.00000E+00         0.67935E+06
 
   -0.40829E+06         0.41065E+06         0.00000E+00
    0.41065E+06         0.38408E+07         0.00000E+00
    0.00000E+00         0.00000E+00         0.68651E+06
 
   -0.37226E+06         0.45778E+06         0.00000E+00
    0.45778E+06         0.38401E+07         0.00000E+00
    0.00000E+00         0.00000E+00         0.69356E+06
 
   -0.33666E+06         0.50474E+06         0.00000E+00
    0.50474E+06         0.38392E+07         0.00000E+00
    0.00000E+00         0.00000E+00         0.70050E+06
 
   -0.30148E+06         0.55153E+06         0.00000E+00
    0.55153E+06         0.38381E+07         0.00000E+00
    0.00000E+00         0.00000E+00         0.70733E+06
 
   -0.26671E+06         0.59818E+06         0.00000E+00
    0.59818E+06         0.38370E+07         0.00000E+00
    0.00000E+00         0.00000E+00         0.71405E+06
 
   -0.23234E+06         0.64468E+06         0.00000E+00
    0.64468E+06         0.38357E+07         0.00000E+00
    0.00000E+00         0.00000E+00         0.72066E+06
 
   -0.19834E+06         0.69107E+06         0.00000E+00
    0.69107E+06         0.38342E+07         0.00000E+00
    0.00000E+00         0.00000E+00         0.72717E+06
 
   -0.16471E+06         0.73735E+06         0.00000E+00
    0.73735E+06         0.38326E+07         0.00000E+00
    0.00000E+00         0.00000E+00         0.73358E+06
 
   -0.13144E+06         0.78355E+06         0.00000E+00
    0.78355E+06         0.38308E+07         0.00000E+00
    0.00000E+00         0.00000E+00         0.73988E+06
 
   -0.98503E+05         0.82966E+06         0.00000E+00
    0.82966E+06         0.38289E+07         0.00000E+00
    0.00000E+00         0.00000E+00         0.74608E+06
 
   -0.65889E+05         0.87571E+06         0.00000E+00
    0.87571E+06         0.38268E+07         0.00000E+00
    0.00000E+00         0.00000E+00         0.75218E+06
 
   -0.33583E+05         0.92170E+06         0.00000E+00
    0.92170E+06         0.38245E+07         0.00000E+00
    0.00000E+00         0.00000E+00         0.75817E+06
 
   -0.15670E+04         0.96766E+06         0.00000E+00
    0.96766E+06         0.38219E+07         0.00000E+00
    0.00000E+00         0.00000E+00         0.76407E+06
 
    0.30174E+05         0.10136E+07         0.00000E+00
    0.10136E+07         0.38192E+07         0.00000E+00
    0.00000E+00         0.00000E+00         0.76987E+06
 
    0.61657E+05         0.10595E+07         0.00000E+00
    0.10595E+07         0.38162E+07         0.00000E+00
    0.00000E+00         0.00000E+00         0.77558E+06
 
    0.92900E+05         0.11054E+07         0.00000E+00
    0.11054E+07         0.38130E+07         0.00000E+00
    0.00000E+00         0.00000E+00         0.78119E+06
 
    0.12392E+06         0.11513E+07         0.00000E+00
    0.11513E+07         0.38096E+07         0.00000E+00
    0.00000E+00         0.00000E+00         0.78670E+06
 
    0.15473E+06         0.11972E+07         0.00000E+00
    0.11972E+07         0.38059E+07         0.00000E+00
    0.00000E+00         0.00000E+00         0.79213E+06
 
    0.18536E+06         0.12432E+07         0.00000E+00
    0.12432E+07         0.38019E+07         0.00000E+00
    0.00000E+00         0.00000E+00         0.79746E+06
 
    0.21582E+06         0.12892E+07         0.00000E+00
    0.12892E+07         0.37977E+07         0.00000E+00
    0.00000E+00         0.00000E+00         0.80270E+06
 
    0.24613E+06         0.13352E+07         0.00000E+00
    0.13352E+07         0.37932E+07         0.00000E+00
    0.00000E+00         0.00000E+00         0.80786E+06
 
    0.27631E+06         0.13813E+07         0.00000E+00
    0.13813E+07         0.37883E+07         0.00000E+00
    0.00000E+00         0.00000E+00         0.81293E+06
 
    0.30638E+06         0.14274E+07         0.00000E+00
    0.14274E+07         0.37832E+07         0.00000E+00
    0.00000E+00         0.00000E+00         0.81791E+06
 
    0.33635E+06         0.14736E+07         0.00000E+00
    0.14736E+07         0.37777E+07         0.00000E+00
    0.00000E+00         0.00000E+00         0.82280E+06
 
    0.36626E+06         0.15199E+07         0.00000E+00
    0.15199E+07         0.37718E+07         0.00000E+00
    0.00000E+00         0.00000E+00         0.82762E+06
 
    0.39611E+06         0.15663E+07         0.00000E+00
    0.15663E+07         0.37657E+07         0.00000E+00
    0.00000E+00         0.00000E+00         0.83235E+06
 
    0.42593E+06         0.16127E+07         0.00000E+00
    0.16127E+07         0.37591E+07         0.00000E+00
    0.00000E+00         0.00000E+00         0.83701E+06
 
    0.45574E+06         0.16592E+07         0.00000E+00
    0.16592E+07         0.37522E+07         0.00000E+00
    0.00000E+00         0.00000E+00         0.84158E+06
 
    0.48557E+06         0.17059E+07         0.00000E+00
    0.17059E+07         0.37448E+07         0.00000E+00
    0.00000E+00         0.00000E+00         0.84608E+06
 
    0.51542E+06         0.17526E+07         0.00000E+00
    0.17526E+07         0.37371E+07         0.00000E+00
    0.00000E+00         0.00000E+00         0.85051E+06
 
    0.54533E+06         0.17995E+07         0.00000E+00
    0.17995E+07         0.37290E+07         0.00000E+00
    0.00000E+00         0.00000E+00         0.85486E+06
 
    0.57531E+06         0.18464E+07         0.00000E+00
    0.18464E+07         0.37204E+07         0.00000E+00
    0.00000E+00         0.00000E+00         0.85913E+06
 
    0.60538E+06         0.18935E+07         0.00000E+00
    0.18935E+07         0.37113E+07         0.00000E+00
    0.00000E+00         0.00000E+00         0.86334E+06
 
    0.63558E+06         0.19407E+07         0.00000E+00
    0.19407E+07         0.37018E+07         0.00000E+00
    0.00000E+00         0.00000E+00         0.86748E+06
 
    0.66591E+06         0.19880E+07         0.00000E+00
    0.19880E+07         0.36918E+07         0.00000E+00
    0.00000E+00         0.00000E+00         0.87155E+06
 
    0.69641E+06         0.20355E+07         0.00000E+00
    0.20355E+07         0.36814E+07         0.00000E+00
    0.00000E+00         0.00000E+00         0.87556E+06
 
    0.72709E+06         0.20831E+07         0.00000E+00
    0.20831E+07         0.36704E+07         0.00000E+00
    0.00000E+00         0.00000E+00         0.87950E+06
 
    0.75798E+06         0.21308E+07         0.00000E+00
    0.21308E+07         0.36589E+07         0.00000E+00
    0.00000E+00         0.00000E+00         0.88338E+06
 
    0.78909E+06         0.21786E+07         0.00000E+00
    0.21786E+07         0.36469E+07         0.00000E+00
    0.00000E+00         0.00000E+00         0.88719E+06
 
    0.82046E+06         0.22266E+07         0.00000E+00
    0.22266E+07         0.36343E+07         0.00000E+00
    0.00000E+00         0.00000E+00         0.89095E+06
 
    0.85211E+06         0.22747E+07         0.00000E+00
    0.22747E+07         0.36212E+07         0.00000E+00
    0.00000E+00         0.00000E+00         0.89465E+06
 
    0.88406E+06         0.23230E+07         0.00000E+00
    0.23230E+07         0.36074E+07         0.00000E+00
    0.00000E+00         0.00000E+00         0.89830E+06
 
   -0.78604E+06         0.24802E+05         0.00000E+00
    0.24802E+05         0.35252E+07         0.00000E+00
    0.00000E+00         0.00000E+00         0.54782E+06
 
   -0.74788E+06         0.73563E+05         0.00000E+00
    0.73563E+05         0.35251E+07         0.00000E+00
    0.00000E+00         0.00000E+00         0.55544E+06
 
   -0.71015E+06         0.12199E+06         0.00000E+00
    0.12199E+06         0.35249E+07         0.00000E+00
    0.00000E+00         0.00000E+00         0.56294E+06
 
   -0.67282E+06         0.17009E+06         0.00000E+00
    0.17009E+06         0.35245E+07         0.00000E+00
    0.00000E+00         0.00000E+00         0.57035E+06
 
   -0.63591E+06         0.21789E+06         0.00000E+00
    0.21789E+06         0.35241E+07         0.00000E+00
    0.00000E+00         0.00000E+00         0.57764E+06
 
   -0.59939E+06         0.26540E+06         0.00000E+00
    0.26540E+06         0.35236E+07         0.00000E+00
    0.00000E+00         0.00000E+00         0.58484E+06
 
   -0.56326E+06         0.31264E+06         0.00000E+00
    0.31264E+06         0.35229E+07         0.00000E+00
    0.00000E+00         0.00000E+00         0.59194E+06
 
   -0.52751E+06         0.35962E+06         0.00000E+00
    0.35962E+06         0.35222E+07         0.00000E+00
    0.00000E+00         0.00000E+00         0.59893E+06
 
   -0.49214E+06         0.40636E+06         0.00000E+00
    0.40636E+06         0.35213E+07         0.00000E+00
    0.00000E+00         0.00000E+00         0.60583E+06
 
   -0.45714E+06         0.45287E+06         0.00000E+00
    0.45287E+06         0.35202E+07         0.00000E+00
    0.00000E+00         0.00000E+00         0.61262E+06
 
   -0.42249E+06         0.49917E+06         0.00000E+00
    0.49917E+06         0.35191E+07         0.00000E+00
    0.00000E+00         0.00000E+00         0.61932E+06
 
   -0.38819E+06         0.54527E+06         0.00000E+00
    0.54527E+06         0.35177E+07         0.00000E+00
    0.00000E+00         0.00000E+00         0.62591E+06
 
   -0.35422E+06         0.59118E+06         0.00000E+00
    0.59118E+06         0.35163E+07         0.00000E+00
    0.00000E+00         0.00000E+00         0.63241E+06
 
   -0.32058E+06         0.63692E+06         0.00000E+00
    0.63692E+06         0.35146E+07         0.00000E+00
    0.00000E+00         0.00000E+00         0.63881E+06
 
   -0.28725E+06         0.68251E+06         0.00000E+00
    0.68251E+06         0.35129E+07         0.00000E+00
    0.00000E+00         0.00000E+00         0.64512E+06
 
   -0.25422E+06         0.72794E+06         0.00000E+00
    0.72794E+06         0.35109E+07         0.00000E+00
    0.00000E+00         0.00000E+00         0.65133E+06
 
   -0.22147E+06         0.77325E+06         0.00000E+00
    0.77325E+06         0.35087E+07         0.00000E+00
    0.00000E+00         0.00000E+00         0.65745E+06
 
   -0.18901E+06         0.81843E+06         0.00000E+00
    0.81843E+06         0.35064E+07         0.00000E+00
    0.00000E+00         0.00000E+00         0.66348E+06
 
   -0.15680E+06         0.86350E+06         0.00000E+00
    0.86350E+06         0.35039E+07         0.00000E+00
    0.00000E+00         0.00000E+00         0.66941E+06
 
   -0.12484E+06         0.90847E+06         0.00000E+00
    0.90847E+06         0.35011E+07         0.00000E+00
    0.00000E+00         0.00000E+00         0.67526E+06
 
   -0.93122E+05         0.95336E+06         0.00000E+00
    0.95336E+06         0.34982E+07         0.00000E+00
    0.00000E+00         0.00000E+00         0.68101E+06
 
   -0.61620E+05         0.99817E+06         0.00000E+00
    0.99817E+06         0.34950E+07         0.00000E+00
    0.00000E+00         0.00000E+00         0.68667E+06
 
   -0.30322E+05         0.10429E+07         0.00000E+00
    0.10429E+07         0.34916E+07         0.00000E+00
    0.00000E+00         0.00000E+00         0.69225E+06
 
    0.78635E+03         0.10876E+07         0.00000E+00
    0.10876E+07         0.34879E+07         0.00000E+00
    0.00000E+00         0.00000E+00         0.69774E+06
 
    0.31720E+05         0.11322E+07         0.00000E+00
    0.11322E+07         0.34840E+07         0.00000E+00
    0.00000E+00         0.00000E+00         0.70315E+06
 
    0.62496E+05         0.11768E+07         0.00000E+00
    0.11768E+07         0.34798E+07         0.00000E+00
    0.00000E+00         0.00000E+00         0.70847E+06
 
    0.93130E+05         0.12214E+07         0.00000E+00
    0.12214E+07         0.34754E+07         0.00000E+00
    0.00000E+00         0.00000E+00         0.71370E+06
 
    0.12364E+06         0.12659E+07         0.00000E+00
    0.12659E+07         0.34707E+07         0.00000E+00
    0.00000E+00         0.00000E+00         0.71886E+06
 
    0.15404E+06         0.13105E+07         0.00000E+00
    0.13105E+07         0.34656E+07         0.00000E+00
    0.00000E+00         0.00000E+00         0.72394E+06
 
    0.18434E+06         0.13550E+07         0.00000E+00
    0.13550E+07         0.34603E+07         0.00000E+00
    0.00000E+00         0.00000E+00         0.72893E+06
 
    0.21458E+06         0.13995E+07         0.00000E+00
    0.13995E+07         0.34547E+07         0.00000E+00
    0.00000E+00         0.00000E+00         0.73385E+06
 
    0.24475E+06         0.14440E+07         0.00000E+00
    0.14440E+07         0.34487E+07         0.00000E+00
    0.00000E+00         0.00000E+00         0.73869E+06
 
    0.27489E+06         0.14886E+07         0.00000E+00
    0.14886E+07         0.34424E+07         0.00000E+00
    0.00000E+00         0.00000E+00         0.74346E+06
 
    0.30501E+06         0.15332E+07         0.00000E+00
    0.15332E+07         0.34357E+07         0.00000E+00
    0.00000E+00         0.00000E+00         0.74815E+06
 
    0.33512E+06         0.15777E+07         0.00000E+00
    0.15777E+07         0.34287E+07         0.00000E+00
    0.00000E+00         0.00000E+00         0.75277E+06
 
    0.36526E+06         0.16224E+07         0.00000E+00
    0.16224E+07         0.34213E+07         0.00000E+00
    0.00000E+00         0.00000E+00         0.75732E+06
 
    0.39542E+06         0.16670E+07         0.00000E+00
    0.16670E+07         0.34135E+07         0.00000E+00
    0.00000E+00         0.00000E+00         0.76179E+06
 
    0.42564E+06         0.17117E+07         0.00000E+00
    0.17117E+07         0.34054E+07         0.00000E+00
    0.00000E+00         0.00000E+00         0.76620E+06
 
    0.45594E+06         0.17564E+07         0.00000E+00
    0.17564E+07         0.33968E+07         0.00000E+00
    0.00000E+00         0.00000E+00         0.77054E+06
 
    0.48633E+06         0.18012E+07         0.00000E+00
    0.18012E+07         0.33878E+07         0.00000E+00
    0.00000E+00         0.00000E+00         0.77482E+06
 
    0.51683E+06         0.18461E+07         0.00000E+00
    0.18461E+07         0.33783E+07         0.00000E+00
    0.00000E+00         0.00000E+00         0.77903E+06
 
    0.54746E+06         0.18910E+07         0.00000E+00
    0.18910E+07         0.33684E+07         0.00000E+00
    0.00000E+00         0.00000E+00         0.78317E+06
 
    0.57825E+06         0.19359E+07         0.00000E+00
    0.19359E+07         0.33580E+07         0.00000E+00
    0.00000E+00         0.00000E+00         0.78726E+06
 
    0.60921E+06         0.19809E+07         0.00000E+00
    0.19809E+07         0.33472E+07         0.00000E+00
    0.00000E+00         0.00000E+00         0.79128E+06
 
    0.64037E+06         0.20260E+07         0.00000E+00
    0.20260E+07         0.33359E+07         0.00000E+00
    0.00000E+00         0.00000E+00         0.79525E+06
 
    0.67174E+06         0.20711E+07         0.00000E+00
    0.20711E+07         0.33241E+07         0.00000E+00
    0.00000E+00         0.00000E+00         0.79916E+06
 
    0.70335E+06         0.21163E+07         0.00000E+00
    0.21163E+07         0.33117E+07         0.00000E+00
    0.00000E+00         0.00000E+00         0.80301E+06
 
    0.73521E+06         0.21615E+07         0.00000E+00
    0.21615E+07         0.32988E+07         0.00000E+00
    0.00000E+00         0.00000E+00         0.80681E+06
 
    0.76735E+06         0.22068E+07         0.00000E+00
    0.22068E+07         0.32854E+07         0.00000E+00
    0.00000E+00         0.00000E+00         0.81056E+06
 
    0.79979E+06         0.22522E+07         0.00000E+00
    0.22522E+07         0.32715E+07         0.00000E+00
    0.00000E+00         0.00000E+00         0.81425E+06
 
   -0.84042E+06         0.24527E+05         0.00000E+00
    0.24527E+05         0.32275E+07         0.00000E+00
    0.00000E+00         0.00000E+00         0.47741E+06
 
   -0.80402E+06         0.72715E+05         0.00000E+00
    0.72715E+05         0.32273E+07         0.00000E+00
    0.00000E+00         0.00000E+00         0.48466E+06
 
   -0.76797E+06         0.12055E+06         0.00000E+00
    0.12055E+06         0.32271E+07         0.00000E+00
    0.00000E+00         0.00000E+00         0.49182E+06
 
   -0.73225E+06         0.16805E+06         0.00000E+00
    0.16805E+06         0.32267E+07         0.00000E+00
    0.00000E+00         0.00000E+00         0.49889E+06
 
   -0.69686E+06         0.21524E+06         0.00000E+00
    0.21524E+06         0.32262E+07         0.00000E+00
    0.00000E+00         0.00000E+00         0.50587E+06
 
   -0.66179E+06         0.26211E+06         0.00000E+00
    0.26211E+06         0.32255E+07         0.00000E+00
    0.00000E+00         0.00000E+00         0.51275E+06
 
   -0.62704E+06         0.30869E+06         0.00000E+00
    0.30869E+06         0.32248E+07         0.00000E+00
    0.00000E+00         0.00000E+00         0.51954E+06
 
   -0.59261E+06         0.35499E+06         0.00000E+00
    0.35499E+06         0.32238E+07         0.00000E+00
    0.00000E+00         0.00000E+00         0.52624E+06
 
   -0.55848E+06         0.40102E+06         0.00000E+00
    0.40102E+06         0.32228E+07         0.00000E+00
    0.00000E+00         0.00000E+00         0.53285E+06
 
   -0.52464E+06         0.44681E+06         0.00000E+00
    0.44681E+06         0.32215E+07         0.00000E+00
    0.00000E+00         0.00000E+00         0.53938E+06
 
   -0.49109E+06         0.49235E+06         0.00000E+00
    0.49235E+06         0.32201E+07         0.00000E+00
    0.00000E+00         0.00000E+00         0.54581E+06
 
   -0.45783E+06         0.53766E+06         0.00000E+00
    0.53766E+06         0.32186E+07         0.00000E+00
    0.00000E+00         0.00000E+00         0.55215E+06
 
   -0.42483E+06         0.58275E+06         0.00000E+00
    0.58275E+06         0.32169E+07         0.00000E+00
    0.00000E+00         0.00000E+00         0.55841E+06
 
   -0.39210E+06         0.62765E+06         0.00000E+00
    0.62765E+06         0.32150E+07         0.00000E+00
    0.00000E+00         0.00000E+00         0.56457E+06
 
   -0.35962E+06         0.67235E+06         0.00000E+00
    0.67235E+06         0.32129E+07         0.00000E+00
    0.00000E+00         0.00000E+00         0.57066E+06
 
   -0.32738E+06         0.71686E+06         0.00000E+00
    0.71686E+06         0.32106E+07         0.00000E+00
    0.00000E+00         0.00000E+00         0.57665E+06
 
   -0.29537E+06         0.76121E+06         0.00000E+00
    0.76121E+06         0.32082E+07         0.00000E+00
    0.00000E+00         0.00000E+00         0.58256E+06
 
   -0.26358E+06         0.80540E+06         0.00000E+00
    0.80540E+06         0.32055E+07         0.00000E+00
    0.00000E+00         0.00000E+00         0.58839E+06
 
   -0.23200E+06         0.84944E+06         0.00000E+00
    0.84944E+06         0.32027E+07         0.00000E+00
    0.00000E+00         0.00000E+00         0.59414E+06
 
   -0.20062E+06         0.89334E+06         0.00000E+00
    0.89334E+06         0.31996E+07         0.00000E+00
    0.00000E+00         0.00000E+00         0.59980E+06
 
   -0.16941E+06         0.93711E+06         0.00000E+00
    0.93711E+06         0.31963E+07         0.00000E+00
    0.00000E+00         0.00000E+00         0.60538E+06
 
   -0.13838E+06         0.98075E+06         0.00000E+00
    0.98075E+06         0.31928E+07         0.00000E+00
    0.00000E+00         0.00000E+00         0.61088E+06
 
   -0.10751E+06         0.10243E+07         0.00000E+00
    0.10243E+07         0.31890E+07         0.00000E+00
    0.00000E+00         0.00000E+00         0.61630E+06
 
   -0.76784E+05         0.10677E+07         0.00000E+00
    0.10677E+07         0.31850E+07         0.00000E+00
    0.00000E+00         0.00000E+00         0.62164E+06
 
   -0.46188E+05         0.11111E+07         0.00000E+00
    0.11111E+07         0.31807E+07         0.00000E+00
    0.00000E+00         0.00000E+00         0.62691E+06
 
   -0.15708E+05         0.11543E+07         0.00000E+00
    0.11543E+07         0.31762E+07         0.00000E+00
    0.00000E+00         0.00000E+00         0.63210E+06
 
    0.14669E+05         0.11975E+07         0.00000E+00
    0.11975E+07         0.31714E+07         0.00000E+00
    0.00000E+00         0.00000E+00         0.63721E+06
 
    0.44958E+05         0.12406E+07         0.00000E+00
    0.12406E+07         0.31663E+07         0.00000E+00
    0.00000E+00         0.00000E+00         0.64225E+06
 
    0.75174E+05         0.12836E+07         0.00000E+00
    0.12836E+07         0.31609E+07         0.00000E+00
    0.00000E+00         0.00000E+00         0.64722E+06
 
    0.10533E+06         0.13266E+07         0.00000E+00
    0.13266E+07         0.31552E+07         0.00000E+00
    0.00000E+00         0.00000E+00         0.65211E+06
 
    0.13545E+06         0.13695E+07         0.00000E+00
    0.13695E+07         0.31492E+07         0.00000E+00
    0.00000E+00         0.00000E+00         0.65693E+06
 
    0.16554E+06         0.14124E+07         0.00000E+00
    0.14124E+07         0.31429E+07         0.00000E+00
    0.00000E+00         0.00000E+00         0.66169E+06
 
    0.19562E+06         0.14552E+07         0.00000E+00
    0.14552E+07         0.31362E+07         0.00000E+00
    0.00000E+00         0.00000E+00         0.66637E+06
 
    0.22571E+06         0.14980E+07         0.00000E+00
    0.14980E+07         0.31292E+07         0.00000E+00
    0.00000E+00         0.00000E+00         0.67099E+06
 
    0.25582E+06         0.15408E+07         0.00000E+00
    0.15408E+07         0.31219E+07         0.00000E+00
    0.00000E+00         0.00000E+00         0.67553E+06
 
    0.28597E+06         0.15835E+07         0.00000E+00
    0.15835E+07         0.31141E+07         0.00000E+00
    0.00000E+00         0.00000E+00         0.68002E+06
 
    0.31617E+06         0.16262E+07         0.00000E+00
    0.16262E+07         0.31060E+07         0.00000E+00
    0.00000E+00         0.00000E+00         0.68444E+06
 
    0.34645E+06         0.16689E+07         0.00000E+00
    0.16689E+07         0.30975E+07         0.00000E+00
    0.00000E+00         0.00000E+00         0.68880E+06
 
    0.37682E+06         0.17116E+07         0.00000E+00
    0.17116E+07         0.30886E+07         0.00000E+00
    0.00000E+00         0.00000E+00         0.69309E+06
 
    0.40730E+06         0.17543E+07         0.00000E+00
    0.17543E+07         0.30793E+07         0.00000E+00
    0.00000E+00         0.00000E+00         0.69733E+06
 
    0.43791E+06         0.17969E+07         0.00000E+00
    0.17969E+07         0.30696E+07         0.00000E+00
    0.00000E+00         0.00000E+00         0.70151E+06
 
    0.46866E+06         0.18396E+07         0.00000E+00
    0.18396E+07         0.30595E+07         0.00000E+00
    0.00000E+00         0.00000E+00         0.70563E+06
 
    0.49957E+06         0.18822E+07         0.00000E+00
    0.18822E+07         0.30489E+07         0.00000E+00
    0.00000E+00         0.00000E+00         0.70969E+06
 
    0.53067E+06         0.19249E+07         0.00000E+00
    0.19249E+07         0.30378E+07         0.00000E+00
    0.00000E+00         0.00000E+00         0.71370E+06
 
    0.56197E+06         0.19675E+07         0.00000E+00
    0.19675E+07         0.30263E+07         0.00000E+00
    0.00000E+00         0.00000E+00         0.71765E+06
 
    0.59349E+06         0.20101E+07         0.00000E+00
    0.20101E+07         0.30143E+07         0.00000E+00
    0.00000E+00         0.00000E+00         0.72155E+06
 
    0.62524E+06         0.20528E+07         0.00000E+00
    0.20528E+07         0.30018E+07         0.00000E+00
    0.00000E+00         0.00000E+00         0.72540E+06
 
    0.65726E+06         0.20954E+07         0.00000E+00
    0.20954E+07         0.29888E+07         0.00000E+00
    0.00000E+00         0.00000E+00         0.72920E+06
 
    0.68955E+06         0.21380E+07         0.00000E+00
    0.21380E+07         0.29752E+07         0.00000E+00
    0.00000E+00         0.00000E+00         0.73296E+06
 
    0.72213E+06         0.21807E+07         0.00000E+00
    0.21807E+07         0.29612E+07         0.00000E+00
    0.00000E+00         0.00000E+00         0.73666E+06
 
   -0.87809E+06         0.24195E+05         0.00000E+00
    0.24195E+05         0.29496E+07         0.00000E+00
    0.00000E+00         0.00000E+00         0.41430E+06
 
   -0.84351E+06         0.71700E+05         0.00000E+00
    0.71700E+05         0.29495E+07         0.00000E+00
    0.00000E+00         0.00000E+00         0.42119E+06
 
   -0.80919E+06         0.11885E+06         0.00000E+00
    0.11885E+06         0.29492E+07         0.00000E+00
    0.00000E+00         0.00000E+00         0.42800E+06
 
   -0.77515E+06         0.16564E+06         0.00000E+00
    0.16564E+06         0.29487E+07         0.00000E+00
    0.00000E+00         0.00000E+00         0.43472E+06
 
   -0.74137E+06         0.21211E+06         0.00000E+00
    0.21211E+06         0.29481E+07         0.00000E+00
    0.00000E+00         0.00000E+00         0.44136E+06
 
   -0.70784E+06         0.25825E+06         0.00000E+00
    0.25825E+06         0.29474E+07         0.00000E+00
    0.00000E+00         0.00000E+00         0.44791E+06
 
   -0.67457E+06         0.30408E+06         0.00000E+00
    0.30408E+06         0.29465E+07         0.00000E+00
    0.00000E+00         0.00000E+00         0.45439E+06
 
   -0.64155E+06         0.34961E+06         0.00000E+00
    0.34961E+06         0.29455E+07         0.00000E+00
    0.00000E+00         0.00000E+00         0.46078E+06
 
   -0.60877E+06         0.39486E+06         0.00000E+00
    0.39486E+06         0.29442E+07         0.00000E+00
    0.00000E+00         0.00000E+00         0.46709E+06
 
   -0.57623E+06         0.43983E+06         0.00000E+00
    0.43983E+06         0.29429E+07         0.00000E+00
    0.00000E+00         0.00000E+00         0.47333E+06
 
   -0.54392E+06         0.48454E+06         0.00000E+00
    0.48454E+06         0.29413E+07         0.00000E+00
    0.00000E+00         0.00000E+00         0.47948E+06
 
   -0.51183E+06         0.52899E+06         0.00000E+00
    0.52899E+06         0.29396E+07         0.00000E+00
    0.00000E+00         0.00000E+00         0.48555E+06
 
   -0.47995E+06         0.57320E+06         0.00000E+00
    0.57320E+06         0.29377E+07         0.00000E+00
    0.00000E+00         0.00000E+00         0.49154E+06
 
   -0.44828E+06         0.61718E+06         0.00000E+00
    0.61718E+06         0.29356E+07         0.00000E+00
    0.00000E+00         0.00000E+00         0.49746E+06
 
   -0.41681E+06         0.66094E+06         0.00000E+00
    0.66094E+06         0.29333E+07         0.00000E+00
    0.00000E+00         0.00000E+00         0.50329E+06
 
   -0.38553E+06         0.70449E+06         0.00000E+00
    0.70449E+06         0.29308E+07         0.00000E+00
    0.00000E+00         0.00000E+00         0.50905E+06
 
   -0.35443E+06         0.74783E+06         0.00000E+00
    0.74783E+06         0.29281E+07         0.00000E+00
    0.00000E+00         0.00000E+00         0.51474E+06
 
   -0.32350E+06         0.79098E+06         0.00000E+00
    0.79098E+06         0.29252E+07         0.00000E+00
    0.00000E+00         0.00000E+00         0.52035E+06
 
   -0.29273E+06         0.83394E+06         0.00000E+00
    0.83394E+06         0.29221E+07         0.00000E+00
    0.00000E+00         0.00000E+00         0.52588E+06
 
   -0.26212E+06         0.87673E+06         0.00000E+00
    0.87673E+06         0.29188E+07         0.00000E+00
    0.00000E+00         0.00000E+00         0.53134E+06
 
   -0.23164E+06         0.91936E+06         0.00000E+00
    0.91936E+06         0.29153E+07         0.00000E+00
    0.00000E+00         0.00000E+00         0.53672E+06
 
   -0.20129E+06         0.96182E+06         0.00000E+00
    0.96182E+06         0.29115E+07         0.00000E+00
    0.00000E+00         0.00000E+00         0.54204E+06
 
   -0.17105E+06         0.10041E+07         0.00000E+00
    0.10041E+07         0.29074E+07         0.00000E+00
    0.00000E+00         0.00000E+00         0.54728E+06
 
   -0.14093E+06         0.10463E+07         0.00000E+00
    0.10463E+07         0.29032E+07         0.00000E+00
    0.00000E+00         0.00000E+00         0.55245E+06
 
   -0.11089E+06         0.10883E+07         0.00000E+00
    0.10883E+07         0.28986E+07         0.00000E+00
    0.00000E+00         0.00000E+00         0.55755E+06
 
   -0.80939E+05         0.11302E+07         0.00000E+00
    0.11302E+07         0.28938E+07         0.00000E+00
    0.00000E+00         0.00000E+00         0.56258E+06
 
   -0.51053E+05         0.11720E+07         0.00000E+00
    0.11720E+07         0.28887E+07         0.00000E+00
    0.00000E+00         0.00000E+00         0.56754E+06
 
   -0.21223E+05         0.12137E+07         0.00000E+00
    0.12137E+07         0.28834E+07         0.00000E+00
    0.00000E+00         0.00000E+00         0.57243E+06
 
    0.85658E+04         0.12552E+07         0.00000E+00
    0.12552E+07         0.28777E+07         0.00000E+00
    0.00000E+00         0.00000E+00         0.57726E+06
 
    0.38326E+05         0.12967E+07         0.00000E+00
    0.12967E+07         0.28718E+07         0.00000E+00
    0.00000E+00         0.00000E+00         0.58203E+06
 
    0.68073E+05         0.13380E+07         0.00000E+00
    0.13380E+07         0.28655E+07         0.00000E+00
    0.00000E+00         0.00000E+00         0.58672E+06
 
    0.97819E+05         0.13793E+07         0.00000E+00
    0.13793E+07         0.28590E+07         0.00000E+00
    0.00000E+00         0.00000E+00         0.59136E+06
 
    0.12758E+06         0.14204E+07         0.00000E+00
    0.14204E+07         0.28521E+07         0.00000E+00
    0.00000E+00         0.00000E+00         0.59593E+06
 
    0.15737E+06         0.14615E+07         0.00000E+00
    0.14615E+07         0.28448E+07         0.00000E+00
    0.00000E+00         0.00000E+00         0.60044E+06
 
    0.18720E+06         0.15025E+07         0.00000E+00
    0.15025E+07         0.28373E+07         0.00000E+00
    0.00000E+00         0.00000E+00         0.60489E+06
 
    0.21709E+06         0.15434E+07         0.00000E+00
    0.15434E+07         0.28293E+07         0.00000E+00
    0.00000E+00         0.00000E+00         0.60928E+06
 
    0.24706E+06         0.15842E+07         0.00000E+00
    0.15842E+07         0.28210E+07         0.00000E+00
    0.00000E+00         0.00000E+00         0.61362E+06
 
    0.27711E+06         0.16250E+07         0.00000E+00
    0.16250E+07         0.28124E+07         0.00000E+00
    0.00000E+00         0.00000E+00         0.61789E+06
 
    0.30728E+06         0.16657E+07         0.00000E+00
    0.16657E+07         0.28033E+07         0.00000E+00
    0.00000E+00         0.00000E+00         0.62211E+06
 
    0.33756E+06         0.17063E+07         0.00000E+00
    0.17063E+07         0.27938E+07         0.00000E+00
    0.00000E+00         0.00000E+00         0.62628E+06
 
    0.36798E+06         0.17468E+07         0.00000E+00
    0.17468E+07         0.27840E+07         0.00000E+00
    0.00000E+00         0.00000E+00         0.63039E+06
 
    0.39855E+06         0.17873E+07         0.00000E+00
    0.17873E+07         0.27737E+07         0.00000E+00
    0.00000E+00         0.00000E+00         0.63445E+06
 
    0.42930E+06         0.18278E+07         0.00000E+00
    0.18278E+07         0.27630E+07         0.00000E+00
    0.00000E+00         0.00000E+00         0.63846E+06
 
    0.46023E+06         0.18681E+07         0.00000E+00
    0.18681E+07         0.27518E+07         0.00000E+00
    0.00000E+00         0.00000E+00         0.64241E+06
 
    0.49137E+06         0.19085E+07         0.00000E+00
    0.19085E+07         0.27402E+07         0.00000E+00
    0.00000E+00         0.00000E+00         0.64632E+06
 
    0.52272E+06         0.19487E+07         0.00000E+00
    0.19487E+07         0.27282E+07         0.00000E+00
    0.00000E+00         0.00000E+00         0.65018E+06
 
    0.55432E+06         0.19889E+07         0.00000E+00
    0.19889E+07         0.27157E+07         0.00000E+00
    0.00000E+00         0.00000E+00         0.65400E+06
 
    0.58617E+06         0.20290E+07         0.00000E+00
    0.20290E+07         0.27027E+07         0.00000E+00
    0.00000E+00         0.00000E+00         0.65777E+06
 
    0.61830E+06         0.20691E+07         0.00000E+00
    0.20691E+07         0.26892E+07         0.00000E+00
    0.00000E+00         0.00000E+00         0.66149E+06
 
    0.65072E+06         0.21091E+07         0.00000E+00
    0.21091E+07         0.26751E+07         0.00000E+00
    0.00000E+00         0.00000E+00         0.66517E+06
 
   -0.90058E+06         0.23818E+05         0.00000E+00
    0.23818E+05         0.26905E+07         0.00000E+00
    0.00000E+00         0.00000E+00         0.35799E+06
 
   -0.86785E+06         0.70557E+05         0.00000E+00
    0.70557E+05         0.26904E+07         0.00000E+00
    0.00000E+00         0.00000E+00         0.36451E+06
 
   -0.83533E+06         0.11693E+06         0.00000E+00
    0.11693E+06         0.26901E+07         0.00000E+00
    0.00000E+00         0.00000E+00         0.37095E+06
 
   -0.80301E+06         0.16295E+06         0.00000E+00
    0.16295E+06         0.26896E+07         0.00000E+00
    0.00000E+00         0.00000E+00         0.37731E+06
 
   -0.77090E+06         0.20862E+06         0.00000E+00
    0.20862E+06         0.26889E+07         0.00000E+00
    0.00000E+00         0.00000E+00         0.38361E+06
 
   -0.73899E+06         0.25395E+06         0.00000E+00
    0.25395E+06         0.26881E+07         0.00000E+00
    0.00000E+00         0.00000E+00         0.38983E+06
 
   -0.70728E+06         0.29897E+06         0.00000E+00
    0.29897E+06         0.26871E+07         0.00000E+00
    0.00000E+00         0.00000E+00         0.39597E+06
 
   -0.67576E+06         0.34366E+06         0.00000E+00
    0.34366E+06         0.26860E+07         0.00000E+00
    0.00000E+00         0.00000E+00         0.40205E+06
 
   -0.64443E+06         0.38806E+06         0.00000E+00
    0.38806E+06         0.26847E+07         0.00000E+00
    0.00000E+00         0.00000E+00         0.40805E+06
 
   -0.61328E+06         0.43216E+06         0.00000E+00
    0.43216E+06         0.26832E+07         0.00000E+00
    0.00000E+00         0.00000E+00         0.41398E+06
 
   -0.58232E+06         0.47598E+06         0.00000E+00
    0.47598E+06         0.26815E+07         0.00000E+00
    0.00000E+00         0.00000E+00         0.41984E+06
 
   -0.55152E+06         0.51952E+06         0.00000E+00
    0.51952E+06         0.26796E+07         0.00000E+00
    0.00000E+00         0.00000E+00         0.42562E+06
 
   -0.52089E+06         0.56280E+06         0.00000E+00
    0.56280E+06         0.26776E+07         0.00000E+00
    0.00000E+00         0.00000E+00         0.43134E+06
 
   -0.49042E+06         0.60583E+06         0.00000E+00
    0.60583E+06         0.26753E+07         0.00000E+00
    0.00000E+00         0.00000E+00         0.43699E+06
 
   -0.46010E+06         0.64860E+06         0.00000E+00
    0.64860E+06         0.26729E+07         0.00000E+00
    0.00000E+00         0.00000E+00         0.44256E+06
 
   -0.42993E+06         0.69114E+06         0.00000E+00
    0.69114E+06         0.26703E+07         0.00000E+00
    0.00000E+00         0.00000E+00         0.44807E+06
 
   -0.39989E+06         0.73345E+06         0.00000E+00
    0.73345E+06         0.26674E+07         0.00000E+00
    0.00000E+00         0.00000E+00         0.45351E+06
 
   -0.36998E+06         0.77553E+06         0.00000E+00
    0.77553E+06         0.26644E+07         0.00000E+00
    0.00000E+00         0.00000E+00         0.45888E+06
 
   -0.34019E+06         0.81740E+06         0.00000E+00
    0.81740E+06         0.26611E+07         0.00000E+00
    0.00000E+00         0.00000E+00         0.46418E+06
 
   -0.31051E+06         0.85906E+06         0.00000E+00
    0.85906E+06         0.26576E+07         0.00000E+00
    0.00000E+00         0.00000E+00         0.46941E+06
 
   -0.28093E+06         0.90052E+06         0.00000E+00
    0.90052E+06         0.26539E+07         0.00000E+00
    0.00000E+00         0.00000E+00         0.47458E+06
 
   -0.25145E+06         0.94179E+06         0.00000E+00
    0.94179E+06         0.26499E+07         0.00000E+00
    0.00000E+00         0.00000E+00         0.47969E+06
 
   -0.22204E+06         0.98287E+06         0.00000E+00
    0.98287E+06         0.26457E+07         0.00000E+00
    0.00000E+00         0.00000E+00         0.48473E+06
 
   -0.19271E+06         0.10238E+07         0.00000E+00
    0.10238E+07         0.26412E+07         0.00000E+00
    0.00000E+00         0.00000E+00         0.48970E+06
 
   -0.16344E+06         0.10645E+07         0.00000E+00
    0.10645E+07         0.26365E+07         0.00000E+00
    0.00000E+00         0.00000E+00         0.49462E+06
 
   -0.13421E+06         0.11051E+07         0.00000E+00
    0.11051E+07         0.26315E+07         0.00000E+00
    0.00000E+00         0.00000E+00         0.49947E+06
 
   -0.10503E+06         0.11455E+07         0.00000E+00
    0.11455E+07         0.26263E+07         0.00000E+00
    0.00000E+00         0.00000E+00         0.50425E+06
 
   -0.75873E+05         0.11857E+07         0.00000E+00
    0.11857E+07         0.26208E+07         0.00000E+00
    0.00000E+00         0.00000E+00         0.50898E+06
 
   -0.46731E+05         0.12258E+07         0.00000E+00
    0.12258E+07         0.26150E+07         0.00000E+00
    0.00000E+00         0.00000E+00         0.51365E+06
 
   -0.17593E+05         0.12657E+07         0.00000E+00
    0.12657E+07         0.26089E+07         0.00000E+00
    0.00000E+00         0.00000E+00         0.51825E+06
 
    0.11555E+05         0.13055E+07         0.00000E+00
    0.13055E+07         0.26025E+07         0.00000E+00
    0.00000E+00         0.00000E+00         0.52280E+06
 
    0.40724E+05         0.13452E+07         0.00000E+00
    0.13452E+07         0.25958E+07         0.00000E+00
    0.00000E+00         0.00000E+00         0.52730E+06
 
    0.69928E+05         0.13847E+07         0.00000E+00
    0.13847E+07         0.25887E+07         0.00000E+00
    0.00000E+00         0.00000E+00         0.53173E+06
 
    0.99180E+05         0.14241E+07         0.00000E+00
    0.14241E+07         0.25814E+07         0.00000E+00
    0.00000E+00         0.00000E+00         0.53611E+06
 
    0.12849E+06         0.14634E+07         0.00000E+00
    0.14634E+07         0.25737E+07         0.00000E+00
    0.00000E+00         0.00000E+00         0.54044E+06
 
    0.15788E+06         0.15025E+07         0.00000E+00
    0.15025E+07         0.25657E+07         0.00000E+00
    0.00000E+00         0.00000E+00         0.54471E+06
 
    0.18735E+06         0.15415E+07         0.00000E+00
    0.15415E+07         0.25573E+07         0.00000E+00
    0.00000E+00         0.00000E+00         0.54892E+06
 
    0.21693E+06         0.15804E+07         0.00000E+00
    0.15804E+07         0.25485E+07         0.00000E+00
    0.00000E+00         0.00000E+00         0.55309E+06
 
    0.24663E+06         0.16192E+07         0.00000E+00
    0.16192E+07         0.25394E+07         0.00000E+00
    0.00000E+00         0.00000E+00         0.55721E+06
 
    0.27645E+06         0.16578E+07         0.00000E+00
    0.16578E+07         0.25299E+07         0.00000E+00
    0.00000E+00         0.00000E+00         0.56127E+06
 
    0.30642E+06         0.16964E+07         0.00000E+00
    0.16964E+07         0.25200E+07         0.00000E+00
    0.00000E+00         0.00000E+00         0.56529E+06
 
    0.33655E+06         0.17348E+07         0.00000E+00
    0.17348E+07         0.25097E+07         0.00000E+00
    0.00000E+00         0.00000E+00         0.56926E+06
 
    0.36685E+06         0.17731E+07         0.00000E+00
    0.17731E+07         0.24990E+07         0.00000E+00
    0.00000E+00         0.00000E+00         0.57318E+06
 
    0.39735E+06         0.18113E+07         0.00000E+00
    0.18113E+07         0.24879E+07         0.00000E+00
    0.00000E+00         0.00000E+00         0.57706E+06
 
    0.42805E+06         0.18494E+07         0.00000E+00
    0.18494E+07         0.24764E+07         0.00000E+00
    0.00000E+00         0.00000E+00         0.58089E+06
 
    0.45897E+06         0.18874E+07         0.00000E+00
    0.18874E+07         0.24644E+07         0.00000E+00
    0.00000E+00         0.00000E+00         0.58468E+06
 
    0.49012E+06         0.19253E+07         0.00000E+00
    0.19253E+07         0.24520E+07         0.00000E+00
    0.00000E+00         0.00000E+00         0.58842E+06
 
    0.52153E+06         0.19630E+07         0.00000E+00
    0.19630E+07         0.24391E+07         0.00000E+00
    0.00000E+00         0.00000E+00         0.59213E+06
 
    0.55321E+06         0.20006E+07         0.00000E+00
    0.20006E+07         0.24258E+07         0.00000E+00
    0.00000E+00         0.00000E+00         0.59579E+06
 
    0.58517E+06         0.20381E+07         0.00000E+00
    0.20381E+07         0.24119E+07         0.00000E+00
    0.00000E+00         0.00000E+00         0.59942E+06
 
   -0.90933E+06         0.23407E+05         0.00000E+00
    0.23407E+05         0.24492E+07         0.00000E+00
    0.00000E+00         0.00000E+00         0.30797E+06
 
   -0.87847E+06         0.69318E+05         0.00000E+00
    0.69318E+05         0.24490E+07         0.00000E+00
    0.00000E+00         0.00000E+00         0.31411E+06
 
   -0.84777E+06         0.11486E+06         0.00000E+00
    0.11486E+06         0.24487E+07         0.00000E+00
    0.00000E+00         0.00000E+00         0.32018E+06
 
   -0.81723E+06         0.16003E+06         0.00000E+00
    0.16003E+06         0.24482E+07         0.00000E+00
    0.00000E+00         0.00000E+00         0.32619E+06
 
   -0.78684E+06         0.20486E+06         0.00000E+00
    0.20486E+06         0.24475E+07         0.00000E+00
    0.00000E+00         0.00000E+00         0.33213E+06
 
   -0.75660E+06         0.24934E+06         0.00000E+00
    0.24934E+06         0.24466E+07         0.00000E+00
    0.00000E+00         0.00000E+00         0.33801E+06
 
   -0.72651E+06         0.29348E+06         0.00000E+00
    0.29348E+06         0.24456E+07         0.00000E+00
    0.00000E+00         0.00000E+00         0.34382E+06
 
   -0.69657E+06         0.33730E+06         0.00000E+00
    0.33730E+06         0.24444E+07         0.00000E+00
    0.00000E+00         0.00000E+00         0.34956E+06
 
   -0.66677E+06         0.38080E+06         0.00000E+00
    0.38080E+06         0.24430E+07         0.00000E+00
    0.00000E+00         0.00000E+00         0.35525E+06
 
   -0.63710E+06         0.42400E+06         0.00000E+00
    0.42400E+06         0.24414E+07         0.00000E+00
    0.00000E+00         0.00000E+00         0.36086E+06
 
   -0.60758E+06         0.46689E+06         0.00000E+00
    0.46689E+06         0.24397E+07         0.00000E+00
    0.00000E+00         0.00000E+00         0.36642E+06
 
   -0.57818E+06         0.50949E+06         0.00000E+00
    0.50949E+06         0.24377E+07         0.00000E+00
    0.00000E+00         0.00000E+00         0.37191E+06
 
   -0.54890E+06         0.55181E+06         0.00000E+00
    0.55181E+06         0.24356E+07         0.00000E+00
    0.00000E+00         0.00000E+00         0.37733E+06
 
   -0.51974E+06         0.59385E+06         0.00000E+00
    0.59385E+06         0.24332E+07         0.00000E+00
    0.00000E+00         0.00000E+00         0.38270E+06
 
   -0.49069E+06         0.63562E+06         0.00000E+00
    0.63562E+06         0.24307E+07         0.00000E+00
    0.00000E+00         0.00000E+00         0.38800E+06
 
   -0.46175E+06         0.67713E+06         0.00000E+00
    0.67713E+06         0.24279E+07         0.00000E+00
    0.00000E+00         0.00000E+00         0.39324E+06
 
   -0.43291E+06         0.71838E+06         0.00000E+00
    0.71838E+06         0.24250E+07         0.00000E+00
    0.00000E+00         0.00000E+00         0.39841E+06
 
   -0.40416E+06         0.75939E+06         0.00000E+00
    0.75939E+06         0.24218E+07         0.00000E+00
    0.00000E+00         0.00000E+00         0.40353E+06
 
   -0.37550E+06         0.80015E+06         0.00000E+00
    0.80015E+06         0.24184E+07         0.00000E+00
    0.00000E+00         0.00000E+00         0.40859E+06
 
   -0.34691E+06         0.84068E+06         0.00000E+00
    0.84068E+06         0.24148E+07         0.00000E+00
    0.00000E+00         0.00000E+00         0.41358E+06
 
   -0.31839E+06         0.88098E+06         0.00000E+00
    0.88098E+06         0.24110E+07         0.00000E+00
    0.00000E+00         0.00000E+00         0.41852E+06
 
   -0.28993E+06         0.92106E+06         0.00000E+00
    0.92106E+06         0.24069E+07         0.00000E+00
    0.00000E+00         0.00000E+00         0.42340E+06
 
   -0.26152E+06         0.96092E+06         0.00000E+00
    0.96092E+06         0.24026E+07         0.00000E+00
    0.00000E+00         0.00000E+00         0.42822E+06
 
   -0.23315E+06         0.10006E+07         0.00000E+00
    0.10006E+07         0.23980E+07         0.00000E+00
    0.00000E+00         0.00000E+00         0.43298E+06
 
   -0.20482E+06         0.10400E+07         0.00000E+00
    0.10400E+07         0.23932E+07         0.00000E+00
    0.00000E+00         0.00000E+00         0.43768E+06
 
   -0.17651E+06         0.10792E+07         0.00000E+00
    0.10792E+07         0.23882E+07         0.00000E+00
    0.00000E+00         0.00000E+00         0.44233E+06
 
   -0.14821E+06         0.11183E+07         0.00000E+00
    0.11183E+07         0.23828E+07         0.00000E+00
    0.00000E+00         0.00000E+00         0.44693E+06
 
   -0.11992E+06         0.11571E+07         0.00000E+00
    0.11571E+07         0.23772E+07         0.00000E+00
    0.00000E+00         0.00000E+00         0.45146E+06
 
   -0.91622E+05         0.11958E+07         0.00000E+00
    0.11958E+07         0.23714E+07         0.00000E+00
    0.00000E+00         0.00000E+00         0.45595E+06
 
   -0.63305E+05         0.12343E+07         0.00000E+00
    0.12343E+07         0.23652E+07         0.00000E+00
    0.00000E+00         0.00000E+00         0.46038E+06
 
   -0.34960E+05         0.12726E+07         0.00000E+00
    0.12726E+07         0.23587E+07         0.00000E+00
    0.00000E+00         0.00000E+00         0.46476E+06
 
   -0.65759E+04         0.13107E+07         0.00000E+00
    0.13107E+07         0.23520E+07         0.00000E+00
    0.00000E+00         0.00000E+00         0.46908E+06
 
    0.21860E+05         0.13486E+07         0.00000E+00
    0.13486E+07         0.23449E+07         0.00000E+00
    0.00000E+00         0.00000E+00         0.47336E+06
 
    0.50358E+05         0.13864E+07         0.00000E+00
    0.13864E+07         0.23376E+07         0.00000E+00
    0.00000E+00         0.00000E+00         0.47758E+06
 
    0.78930E+05         0.14240E+07         0.00000E+00
    0.14240E+07         0.23299E+07         0.00000E+00
    0.00000E+00         0.00000E+00         0.48176E+06
 
    0.10759E+06         0.14614E+07         0.00000E+00
    0.14614E+07         0.23218E+07         0.00000E+00
    0.00000E+00         0.00000E+00         0.48588E+06
 
    0.13635E+06         0.14987E+07         0.00000E+00
    0.14987E+07         0.23135E+07         0.00000E+00
    0.00000E+00         0.00000E+00         0.48996E+06
 
    0.16522E+06         0.15358E+07         0.00000E+00
    0.15358E+07         0.23048E+07         0.00000E+00
    0.00000E+00         0.00000E+00         0.49399E+06
 
    0.19421E+06         0.15727E+07         0.00000E+00
    0.15727E+07         0.22957E+07         0.00000E+00
    0.00000E+00         0.00000E+00         0.49798E+06
 
    0.22334E+06         0.16095E+07         0.00000E+00
    0.16095E+07         0.22863E+07         0.00000E+00
    0.00000E+00         0.00000E+00         0.50192E+06
 
    0.25262E+06         0.16461E+07         0.00000E+00
    0.16461E+07         0.22765E+07         0.00000E+00
    0.00000E+00         0.00000E+00         0.50582E+06
 
    0.28206E+06         0.16826E+07         0.00000E+00
    0.16826E+07         0.22663E+07         0.00000E+00
    0.00000E+00         0.00000E+00         0.50967E+06
 
    0.31168E+06         0.17189E+07         0.00000E+00
    0.17189E+07         0.22557E+07         0.00000E+00
    0.00000E+00         0.00000E+00         0.51348E+06
 
    0.34149E+06         0.17550E+07         0.00000E+00
    0.17550E+07         0.22448E+07         0.00000E+00
    0.00000E+00         0.00000E+00         0.51725E+06
 
    0.37150E+06         0.17910E+07         0.00000E+00
    0.17910E+07         0.22334E+07         0.00000E+00
    0.00000E+00         0.00000E+00         0.52098E+06
 
    0.40174E+06         0.18268E+07         0.00000E+00
    0.18268E+07         0.22216E+07         0.00000E+00
    0.00000E+00         0.00000E+00         0.52467E+06
 
    0.43220E+06         0.18625E+07         0.00000E+00
    0.18625E+07         0.22094E+07         0.00000E+00
    0.00000E+00         0.00000E+00         0.52832E+06
 
    0.46291E+06         0.18980E+07         0.00000E+00
    0.18980E+07         0.21967E+07         0.00000E+00
    0.00000E+00         0.00000E+00         0.53193E+06
 
    0.49387E+06         0.19333E+07         0.00000E+00
    0.19333E+07         0.21837E+07         0.00000E+00
    0.00000E+00         0.00000E+00         0.53551E+06
 
    0.52512E+06         0.19685E+07         0.00000E+00
    0.19685E+07         0.21701E+07         0.00000E+00
    0.00000E+00         0.00000E+00         0.53905E+06
 
   -0.90565E+06         0.22973E+05         0.00000E+00
    0.22973E+05         0.22245E+07         0.00000E+00
    0.00000E+00         0.00000E+00         0.26377E+06
 
   -0.87669E+06         0.68014E+05         0.00000E+00
    0.68014E+05         0.22243E+07         0.00000E+00
    0.00000E+00         0.00000E+00         0.26953E+06
 
   -0.84783E+06         0.11268E+06         0.00000E+00
    0.11268E+06         0.22240E+07         0.00000E+00
    0.00000E+00         0.00000E+00         0.27523E+06
 
   -0.81909E+06         0.15698E+06         0.00000E+00
    0.15698E+06         0.22235E+07         0.00000E+00
    0.00000E+00         0.00000E+00         0.28087E+06
 
   -0.79046E+06         0.20092E+06         0.00000E+00
    0.20092E+06         0.22227E+07         0.00000E+00
    0.00000E+00         0.00000E+00         0.28646E+06
 
   -0.76194E+06         0.24451E+06         0.00000E+00
    0.24451E+06         0.22219E+07         0.00000E+00
    0.00000E+00         0.00000E+00         0.29198E+06
 
   -0.73353E+06         0.28776E+06         0.00000E+00
    0.28776E+06         0.22208E+07         0.00000E+00
    0.00000E+00         0.00000E+00         0.29745E+06
 
   -0.70522E+06         0.33067E+06         0.00000E+00
    0.33067E+06         0.22195E+07         0.00000E+00
    0.00000E+00         0.00000E+00         0.30286E+06
 
   -0.67701E+06         0.37325E+06         0.00000E+00
    0.37325E+06         0.22181E+07         0.00000E+00
    0.00000E+00         0.00000E+00         0.30822E+06
 
   -0.64891E+06         0.41551E+06         0.00000E+00
    0.41551E+06         0.22165E+07         0.00000E+00
    0.00000E+00         0.00000E+00         0.31351E+06
 
   -0.62090E+06         0.45746E+06         0.00000E+00
    0.45746E+06         0.22147E+07         0.00000E+00
    0.00000E+00         0.00000E+00         0.31875E+06
 
   -0.59298E+06         0.49910E+06         0.00000E+00
    0.49910E+06         0.22127E+07         0.00000E+00
    0.00000E+00         0.00000E+00         0.32394E+06
 
   -0.56515E+06         0.54044E+06         0.00000E+00
    0.54044E+06         0.22105E+07         0.00000E+00
    0.00000E+00         0.00000E+00         0.32907E+06
 
   -0.53740E+06         0.58149E+06         0.00000E+00
    0.58149E+06         0.22081E+07         0.00000E+00
    0.00000E+00         0.00000E+00         0.33414E+06
 
   -0.50973E+06         0.62224E+06         0.00000E+00
    0.62224E+06         0.22055E+07         0.00000E+00
    0.00000E+00         0.00000E+00         0.33915E+06
 
   -0.48213E+06         0.66272E+06         0.00000E+00
    0.66272E+06         0.22027E+07         0.00000E+00
    0.00000E+00         0.00000E+00         0.34411E+06
 
   -0.45460E+06         0.70292E+06         0.00000E+00
    0.70292E+06         0.21997E+07         0.00000E+00
    0.00000E+00         0.00000E+00         0.34902E+06
 
   -0.42713E+06         0.74285E+06         0.00000E+00
    0.74285E+06         0.21965E+07         0.00000E+00
    0.00000E+00         0.00000E+00         0.35387E+06
 
   -0.39972E+06         0.78252E+06         0.00000E+00
    0.78252E+06         0.21930E+07         0.00000E+00
    0.00000E+00         0.00000E+00         0.35866E+06
 
   -0.37235E+06         0.82192E+06         0.00000E+00
    0.82192E+06         0.21894E+07         0.00000E+00
    0.00000E+00         0.00000E+00         0.36341E+06
 
   -0.34502E+06         0.86108E+06         0.00000E+00
    0.86108E+06         0.21855E+07         0.00000E+00
    0.00000E+00         0.00000E+00         0.36810E+06
 
   -0.31773E+06         0.89998E+06         0.00000E+00
    0.89998E+06         0.21814E+07         0.00000E+00
    0.00000E+00         0.00000E+00         0.37273E+06
 
   -0.29047E+06         0.93864E+06         0.00000E+00
    0.93864E+06         0.21770E+07         0.00000E+00
    0.00000E+00         0.00000E+00         0.37732E+06
 
   -0.26322E+06         0.97706E+06         0.00000E+00
    0.97706E+06         0.21725E+07         0.00000E+00
    0.00000E+00         0.00000E+00         0.38185E+06
 
   -0.23598E+06         0.10152E+07         0.00000E+00
    0.10152E+07         0.21676E+07         0.00000E+00
    0.00000E+00         0.00000E+00         0.38633E+06
 
   -0.20875E+06         0.10532E+07         0.00000E+00
    0.10532E+07         0.21626E+07         0.00000E+00
    0.00000E+00         0.00000E+00         0.39076E+06
 
   -0.18151E+06         0.10909E+07         0.00000E+00
    0.10909E+07         0.21572E+07         0.00000E+00
    0.00000E+00         0.00000E+00         0.39514E+06
 
   -0.15425E+06         0.11284E+07         0.00000E+00
    0.11284E+07         0.21516E+07         0.00000E+00
    0.00000E+00         0.00000E+00         0.39947E+06
 
   -0.12697E+06         0.11657E+07         0.00000E+00
    0.11657E+07         0.21458E+07         0.00000E+00
    0.00000E+00         0.00000E+00         0.40376E+06
 
   -0.99653E+05         0.12027E+07         0.00000E+00
    0.12027E+07         0.21396E+07         0.00000E+00
    0.00000E+00         0.00000E+00         0.40799E+06
 
   -0.72293E+05         0.12396E+07         0.00000E+00
    0.12396E+07         0.21332E+07         0.00000E+00
    0.00000E+00         0.00000E+00         0.41218E+06
 
   -0.44880E+05         0.12762E+07         0.00000E+00
    0.12762E+07         0.21265E+07         0.00000E+00
    0.00000E+00         0.00000E+00         0.41632E+06
 
   -0.17403E+05         0.13126E+07         0.00000E+00
    0.13126E+07         0.21195E+07         0.00000E+00
    0.00000E+00         0.00000E+00         0.42041E+06
 
    0.10149E+05         0.13489E+07         0.00000E+00
    0.13489E+07         0.21122E+07         0.00000E+00
    0.00000E+00         0.00000E+00         0.42446E+06
 
    0.37784E+05         0.13849E+07         0.00000E+00
    0.13849E+07         0.21045E+07         0.00000E+00
    0.00000E+00         0.00000E+00         0.42847E+06
 
    0.65515E+05         0.14207E+07         0.00000E+00
    0.14207E+07         0.20966E+07         0.00000E+00
    0.00000E+00         0.00000E+00         0.43243E+06
 
    0.93353E+05         0.14563E+07         0.00000E+00
    0.14563E+07         0.20884E+07         0.00000E+00
    0.00000E+00         0.00000E+00         0.43634E+06
 
    0.12131E+06         0.14917E+07         0.00000E+00
    0.14917E+07         0.20798E+07         0.00000E+00
    0.00000E+00         0.00000E+00         0.44022E+06
 
    0.14939E+06         0.15268E+07         0.00000E+00
    0.15268E+07         0.20709E+07         0.00000E+00
    0.00000E+00         0.00000E+00         0.44405E+06
 
    0.17761E+06         0.15618E+07         0.00000E+00
    0.15618E+07         0.20616E+07         0.00000E+00
    0.00000E+00         0.00000E+00         0.44784E+06
 
    0.20599E+06         0.15966E+07         0.00000E+00
    0.15966E+07         0.20520E+07         0.00000E+00
    0.00000E+00         0.00000E+00         0.45160E+06
 
    0.23453E+06         0.16312E+07         0.00000E+00
    0.16312E+07         0.20420E+07         0.00000E+00
    0.00000E+00         0.00000E+00         0.45531E+06
 
    0.26324E+06         0.16656E+07         0.00000E+00
    0.16656E+07         0.20317E+07         0.00000E+00
    0.00000E+00         0.00000E+00         0.45898E+06
 
    0.29215E+06         0.16998E+07         0.00000E+00
    0.16998E+07         0.20210E+07         0.00000E+00
    0.00000E+00         0.00000E+00         0.46262E+06
 
    0.32125E+06         0.17338E+07         0.00000E+00
    0.17338E+07         0.20099E+07         0.00000E+00
    0.00000E+00         0.00000E+00         0.46622E+06
 
    0.35056E+06         0.17676E+07         0.00000E+00
    0.17676E+07         0.19984E+07         0.00000E+00
    0.00000E+00         0.00000E+00         0.46979E+06
 
    0.38010E+06         0.18011E+07         0.00000E+00
    0.18011E+07         0.19865E+07         0.00000E+00
    0.00000E+00         0.00000E+00         0.47332E+06
 
    0.40988E+06         0.18345E+07         0.00000E+00
    0.18345E+07         0.19742E+07         0.00000E+00
    0.00000E+00         0.00000E+00         0.47681E+06
 
    0.43991E+06         0.18677E+07         0.00000E+00
    0.18677E+07         0.19615E+07         0.00000E+00
    0.00000E+00         0.00000E+00         0.48027E+06
 
    0.47020E+06         0.19006E+07         0.00000E+00
    0.19006E+07         0.19483E+07         0.00000E+00
    0.00000E+00         0.00000E+00         0.48370E+06
 
   -0.89080E+06         0.22525E+05         0.00000E+00
    0.22525E+05         0.20154E+07         0.00000E+00
    0.00000E+00         0.00000E+00         0.22493E+06
 
   -0.86373E+06         0.66673E+05         0.00000E+00
    0.66673E+05         0.20153E+07         0.00000E+00
    0.00000E+00         0.00000E+00         0.23030E+06
 
   -0.83674E+06         0.11045E+06         0.00000E+00
    0.11045E+06         0.20149E+07         0.00000E+00
    0.00000E+00         0.00000E+00         0.23563E+06
 
   -0.80982E+06         0.15385E+06         0.00000E+00
    0.15385E+06         0.20144E+07         0.00000E+00
    0.00000E+00         0.00000E+00         0.24091E+06
 
   -0.78297E+06         0.19689E+06         0.00000E+00
    0.19689E+06         0.20136E+07         0.00000E+00
    0.00000E+00         0.00000E+00         0.24613E+06
 
   -0.75620E+06         0.23957E+06         0.00000E+00
    0.23957E+06         0.20127E+07         0.00000E+00
    0.00000E+00         0.00000E+00         0.25131E+06
 
   -0.72950E+06         0.28191E+06         0.00000E+00
    0.28191E+06         0.20116E+07         0.00000E+00
    0.00000E+00         0.00000E+00         0.25643E+06
 
   -0.70288E+06         0.32390E+06         0.00000E+00
    0.32390E+06         0.20104E+07         0.00000E+00
    0.00000E+00         0.00000E+00         0.26150E+06
 
   -0.67632E+06         0.36555E+06         0.00000E+00
    0.36555E+06         0.20089E+07         0.00000E+00
    0.00000E+00         0.00000E+00         0.26652E+06
 
   -0.64983E+06         0.40688E+06         0.00000E+00
    0.40688E+06         0.20073E+07         0.00000E+00
    0.00000E+00         0.00000E+00         0.27149E+06
 
   -0.62340E+06         0.44787E+06         0.00000E+00
    0.44787E+06         0.20055E+07         0.00000E+00
    0.00000E+00         0.00000E+00         0.27641E+06
 
   -0.59704E+06         0.48855E+06         0.00000E+00
    0.48855E+06         0.20034E+07         0.00000E+00
    0.00000E+00         0.00000E+00         0.28128E+06
 
   -0.57073E+06         0.52892E+06         0.00000E+00
    0.52892E+06         0.20012E+07         0.00000E+00
    0.00000E+00         0.00000E+00         0.28610E+06
 
   -0.54447E+06         0.56897E+06         0.00000E+00
    0.56897E+06         0.19988E+07         0.00000E+00
    0.00000E+00         0.00000E+00         0.29087E+06
 
   -0.51827E+06         0.60872E+06         0.00000E+00
    0.60872E+06         0.19962E+07         0.00000E+00
    0.00000E+00         0.00000E+00         0.29559E+06
 
   -0.49211E+06         0.64817E+06         0.00000E+00
    0.64817E+06         0.19934E+07         0.00000E+00
    0.00000E+00         0.00000E+00         0.30026E+06
 
   -0.46599E+06         0.68733E+06         0.00000E+00
    0.68733E+06         0.19904E+07         0.00000E+00
    0.00000E+00         0.00000E+00         0.30489E+06
 
   -0.43991E+06         0.72620E+06         0.00000E+00
    0.72620E+06         0.19872E+07         0.00000E+00
    0.00000E+00         0.00000E+00         0.30946E+06
 
   -0.41385E+06         0.76479E+06         0.00000E+00
    0.76479E+06         0.19838E+07         0.00000E+00
    0.00000E+00         0.00000E+00         0.31398E+06
 
   -0.38782E+06         0.80309E+06         0.00000E+00
    0.80309E+06         0.19801E+07         0.00000E+00
    0.00000E+00         0.00000E+00         0.31846E+06
 
   -0.36181E+06         0.84112E+06         0.00000E+00
    0.84112E+06         0.19763E+07         0.00000E+00
    0.00000E+00         0.00000E+00         0.32289E+06
 
   -0.33581E+06         0.87888E+06         0.00000E+00
    0.87888E+06         0.19722E+07         0.00000E+00
    0.00000E+00         0.00000E+00         0.32727E+06
 
   -0.30982E+06         0.91637E+06         0.00000E+00
    0.91637E+06         0.19679E+07         0.00000E+00
    0.00000E+00         0.00000E+00         0.33161E+06
 
   -0.28383E+06         0.95359E+06         0.00000E+00
    0.95359E+06         0.19633E+07         0.00000E+00
    0.00000E+00         0.00000E+00         0.33590E+06
 
   -0.25783E+06         0.99055E+06         0.00000E+00
    0.99055E+06         0.19585E+07         0.00000E+00
    0.00000E+00         0.00000E+00         0.34014E+06
 
   -0.23181E+06         0.10273E+07         0.00000E+00
    0.10273E+07         0.19535E+07         0.00000E+00
    0.00000E+00         0.00000E+00         0.34434E+06
 
   -0.20577E+06         0.10637E+07         0.00000E+00
    0.10637E+07         0.19482E+07         0.00000E+00
    0.00000E+00         0.00000E+00         0.34849E+06
 
   -0.17970E+06         0.10999E+07         0.00000E+00
    0.10999E+07         0.19427E+07         0.00000E+00
    0.00000E+00         0.00000E+00         0.35260E+06
 
   -0.15359E+06         0.11358E+07         0.00000E+00
    0.11358E+07         0.19369E+07         0.00000E+00
    0.00000E+00         0.00000E+00         0.35667E+06
 
   -0.12743E+06         0.11715E+07         0.00000E+00
    0.11715E+07         0.19309E+07         0.00000E+00
    0.00000E+00         0.00000E+00         0.36069E+06
 
   -0.10122E+06         0.12070E+07         0.00000E+00
    0.12070E+07         0.19246E+07         0.00000E+00
    0.00000E+00         0.00000E+00         0.36467E+06
 
   -0.74946E+05         0.12422E+07         0.00000E+00
    0.12422E+07         0.19180E+07         0.00000E+00
    0.00000E+00         0.00000E+00         0.36861E+06
 
   -0.48597E+05         0.12772E+07         0.00000E+00
    0.12772E+07         0.19111E+07         0.00000E+00
    0.00000E+00         0.00000E+00         0.37250E+06
 
   -0.22166E+05         0.13119E+07         0.00000E+00
    0.13119E+07         0.19040E+07         0.00000E+00
    0.00000E+00         0.00000E+00         0.37636E+06
 
    0.43574E+04         0.13464E+07         0.00000E+00
    0.13464E+07         0.18965E+07         0.00000E+00
    0.00000E+00         0.00000E+00         0.38017E+06
 
    0.30981E+05         0.13806E+07         0.00000E+00
    0.13806E+07         0.18888E+07         0.00000E+00
    0.00000E+00         0.00000E+00         0.38395E+06
 
    0.57716E+05         0.14146E+07         0.00000E+00
    0.14146E+07         0.18807E+07         0.00000E+00
    0.00000E+00         0.00000E+00         0.38768E+06
 
    0.84571E+05         0.14484E+07         0.00000E+00
    0.14484E+07         0.18723E+07         0.00000E+00
    0.00000E+00         0.00000E+00         0.39138E+06
 
    0.11156E+06         0.14820E+07         0.00000E+00
    0.14820E+07         0.18637E+07         0.00000E+00
    0.00000E+00         0.00000E+00         0.39504E+06
 
    0.13868E+06         0.15153E+07         0.00000E+00
    0.15153E+07         0.18547E+07         0.00000E+00
    0.00000E+00         0.00000E+00         0.39867E+06
 
    0.16596E+06         0.15483E+07         0.00000E+00
    0.15483E+07         0.18453E+07         0.00000E+00
    0.00000E+00         0.00000E+00         0.40225E+06
 
    0.19340E+06         0.15811E+07         0.00000E+00
    0.15811E+07         0.18356E+07         0.00000E+00
    0.00000E+00         0.00000E+00         0.40581E+06
 
    0.22101E+06         0.16137E+07         0.00000E+00
    0.16137E+07         0.18256E+07         0.00000E+00
    0.00000E+00         0.00000E+00         0.40932E+06
 
    0.24881E+06         0.16461E+07         0.00000E+00
    0.16461E+07         0.18152E+07         0.00000E+00
    0.00000E+00         0.00000E+00         0.41281E+06
 
    0.27680E+06         0.16782E+07         0.00000E+00
    0.16782E+07         0.18045E+07         0.00000E+00
    0.00000E+00         0.00000E+00         0.41626E+06
 
    0.30500E+06         0.17100E+07         0.00000E+00
    0.17100E+07         0.17934E+07         0.00000E+00
    0.00000E+00         0.00000E+00         0.41968E+06
 
    0.33341E+06         0.17417E+07         0.00000E+00
    0.17417E+07         0.17819E+07         0.00000E+00
    0.00000E+00         0.00000E+00         0.42306E+06
 
    0.36205E+06         0.17730E+07         0.00000E+00
    0.17730E+07         0.17700E+07         0.00000E+00
    0.00000E+00         0.00000E+00         0.42642E+06
 
    0.39092E+06         0.18042E+07         0.00000E+00
    0.18042E+07         0.17578E+07         0.00000E+00
    0.00000E+00         0.00000E+00         0.42974E+06
 
    0.42005E+06         0.18350E+07         0.00000E+00
    0.18350E+07         0.17452E+07         0.00000E+00
    0.00000E+00         0.00000E+00         0.43304E+06
 
   -0.86591E+06         0.22073E+05         0.00000E+00
    0.22073E+05         0.18209E+07         0.00000E+00
    0.00000E+00         0.00000E+00         0.19099E+06
 
   -0.84073E+06         0.65320E+05         0.00000E+00
    0.65320E+05         0.18207E+07         0.00000E+00
    0.00000E+00         0.00000E+00         0.19599E+06
 
   -0.81560E+06         0.10819E+06         0.00000E+00
    0.10819E+06         0.18203E+07         0.00000E+00
    0.00000E+00         0.00000E+00         0.20095E+06
 
   -0.79052E+06         0.15070E+06         0.00000E+00
    0.15070E+06         0.18198E+07         0.00000E+00
    0.00000E+00         0.00000E+00         0.20586E+06
 
   -0.76548E+06         0.19283E+06         0.00000E+00
    0.19283E+06         0.18191E+07         0.00000E+00
    0.00000E+00         0.00000E+00         0.21072E+06
 
   -0.74048E+06         0.23461E+06         0.00000E+00
    0.23461E+06         0.18182E+07         0.00000E+00
    0.00000E+00         0.00000E+00         0.21554E+06
 
   -0.71553E+06         0.27604E+06         0.00000E+00
    0.27604E+06         0.18171E+07         0.00000E+00
    0.00000E+00         0.00000E+00         0.22031E+06
 
   -0.69062E+06         0.31711E+06         0.00000E+00
    0.31711E+06         0.18158E+07         0.00000E+00
    0.00000E+00         0.00000E+00         0.22504E+06
 
   -0.66575E+06         0.35784E+06         0.00000E+00
    0.35784E+06         0.18144E+07         0.00000E+00
    0.00000E+00         0.00000E+00         0.22973E+06
 
   -0.64092E+06         0.39824E+06         0.00000E+00
    0.39824E+06         0.18128E+07         0.00000E+00
    0.00000E+00         0.00000E+00         0.23437E+06
 
   -0.61613E+06         0.43829E+06         0.00000E+00
    0.43829E+06         0.18110E+07         0.00000E+00
    0.00000E+00         0.00000E+00         0.23896E+06
 
   -0.59138E+06         0.47802E+06         0.00000E+00
    0.47802E+06         0.18090E+07         0.00000E+00
    0.00000E+00         0.00000E+00         0.24352E+06
 
   -0.56666E+06         0.51742E+06         0.00000E+00
    0.51742E+06         0.18068E+07         0.00000E+00
    0.00000E+00         0.00000E+00         0.24802E+06
 
   -0.54197E+06         0.55650E+06         0.00000E+00
    0.55650E+06         0.18044E+07         0.00000E+00
    0.00000E+00         0.00000E+00         0.25248E+06
 
   -0.51731E+06         0.59527E+06         0.00000E+00
    0.59527E+06         0.18018E+07         0.00000E+00
    0.00000E+00         0.00000E+00         0.25690E+06
 
   -0.49267E+06         0.63372E+06         0.00000E+00
    0.63372E+06         0.17991E+07         0.00000E+00
    0.00000E+00         0.00000E+00         0.26128E+06
 
   -0.46804E+06         0.67186E+06         0.00000E+00
    0.67186E+06         0.17961E+07         0.00000E+00
    0.00000E+00         0.00000E+00         0.26561E+06
 
   -0.44344E+06         0.70970E+06         0.00000E+00
    0.70970E+06         0.17929E+07         0.00000E+00
    0.00000E+00         0.00000E+00         0.26990E+06
 
   -0.41884E+06         0.74723E+06         0.00000E+00
    0.74723E+06         0.17895E+07         0.00000E+00
    0.00000E+00         0.00000E+00         0.27414E+06
 
   -0.39425E+06         0.78447E+06         0.00000E+00
    0.78447E+06         0.17860E+07         0.00000E+00
    0.00000E+00         0.00000E+00         0.27834E+06
 
   -0.36966E+06         0.82141E+06         0.00000E+00
    0.82141E+06         0.17822E+07         0.00000E+00
    0.00000E+00         0.00000E+00         0.28250E+06
 
   -0.34506E+06         0.85806E+06         0.00000E+00
    0.85806E+06         0.17782E+07         0.00000E+00
    0.00000E+00         0.00000E+00         0.28662E+06
 
   -0.32046E+06         0.89442E+06         0.00000E+00
    0.89442E+06         0.17739E+07         0.00000E+00
    0.00000E+00         0.00000E+00         0.29070E+06
 
   -0.29584E+06         0.93049E+06         0.00000E+00
    0.93049E+06         0.17695E+07         0.00000E+00
    0.00000E+00         0.00000E+00         0.29473E+06
 
   -0.27119E+06         0.96628E+06         0.00000E+00
    0.96628E+06         0.17648E+07         0.00000E+00
    0.00000E+00         0.00000E+00         0.29872E+06
 
   -0.24652E+06         0.10018E+07         0.00000E+00
    0.10018E+07         0.17599E+07         0.00000E+00
    0.00000E+00         0.00000E+00         0.30268E+06
 
   -0.22181E+06         0.10370E+07         0.00000E+00
    0.10370E+07         0.17548E+07         0.00000E+00
    0.00000E+00         0.00000E+00         0.30659E+06
 
   -0.19706E+06         0.10720E+07         0.00000E+00
    0.10720E+07         0.17494E+07         0.00000E+00
    0.00000E+00         0.00000E+00         0.31046E+06
 
   -0.17226E+06         0.11066E+07         0.00000E+00
    0.11066E+07         0.17437E+07         0.00000E+00
    0.00000E+00         0.00000E+00         0.31430E+06
 
   -0.14741E+06         0.11410E+07         0.00000E+00
    0.11410E+07         0.17379E+07         0.00000E+00
    0.00000E+00         0.00000E+00         0.31809E+06
 
   -0.12249E+06         0.11752E+07         0.00000E+00
    0.11752E+07         0.17317E+07         0.00000E+00
    0.00000E+00         0.00000E+00         0.32185E+06
 
   -0.97495E+05         0.12090E+07         0.00000E+00
    0.12090E+07         0.17253E+07         0.00000E+00
    0.00000E+00         0.00000E+00         0.32557E+06
 
   -0.72424E+05         0.12426E+07         0.00000E+00
    0.12426E+07         0.17187E+07         0.00000E+00
    0.00000E+00         0.00000E+00         0.32925E+06
 
   -0.47267E+05         0.12759E+07         0.00000E+00
    0.12759E+07         0.17117E+07         0.00000E+00
    0.00000E+00         0.00000E+00         0.33290E+06
 
   -0.22013E+05         0.13090E+07         0.00000E+00
    0.13090E+07         0.17045E+07         0.00000E+00
    0.00000E+00         0.00000E+00         0.33650E+06
 
    0.33438E+04         0.13418E+07         0.00000E+00
    0.13418E+07         0.16970E+07         0.00000E+00
    0.00000E+00         0.00000E+00         0.34008E+06
 
    0.28813E+05         0.13743E+07         0.00000E+00
    0.13743E+07         0.16893E+07         0.00000E+00
    0.00000E+00         0.00000E+00         0.34362E+06
 
    0.54404E+05         0.14065E+07         0.00000E+00
    0.14065E+07         0.16812E+07         0.00000E+00
    0.00000E+00         0.00000E+00         0.34712E+06
 
    0.80125E+05         0.14385E+07         0.00000E+00
    0.14385E+07         0.16728E+07         0.00000E+00
    0.00000E+00         0.00000E+00         0.35059E+06
 
    0.10599E+06         0.14702E+07         0.00000E+00
    0.14702E+07         0.16642E+07         0.00000E+00
    0.00000E+00         0.00000E+00         0.35403E+06
 
    0.13199E+06         0.15016E+07         0.00000E+00
    0.15016E+07         0.16552E+07         0.00000E+00
    0.00000E+00         0.00000E+00         0.35743E+06
 
    0.15816E+06         0.15328E+07         0.00000E+00
    0.15328E+07         0.16459E+07         0.00000E+00
    0.00000E+00         0.00000E+00         0.36081E+06
 
    0.18449E+06         0.15637E+07         0.00000E+00
    0.15637E+07         0.16362E+07         0.00000E+00
    0.00000E+00         0.00000E+00         0.36415E+06
 
    0.21101E+06         0.15943E+07         0.00000E+00
    0.15943E+07         0.16263E+07         0.00000E+00
    0.00000E+00         0.00000E+00         0.36746E+06
 
    0.23770E+06         0.16247E+07         0.00000E+00
    0.16247E+07         0.16160E+07         0.00000E+00
    0.00000E+00         0.00000E+00         0.37074E+06
 
    0.26460E+06         0.16548E+07         0.00000E+00
    0.16548E+07         0.16054E+07         0.00000E+00
    0.00000E+00         0.00000E+00         0.37399E+06
 
    0.29170E+06         0.16845E+07         0.00000E+00
    0.16845E+07         0.15944E+07         0.00000E+00
    0.00000E+00         0.00000E+00         0.37721E+06
 
    0.31901E+06         0.17141E+07         0.00000E+00
    0.17141E+07         0.15830E+07         0.00000E+00
    0.00000E+00         0.00000E+00         0.38041E+06
 
    0.34655E+06         0.17433E+07         0.00000E+00
    0.17433E+07         0.15713E+07         0.00000E+00
    0.00000E+00         0.00000E+00         0.38358E+06
 
    0.37433E+06         0.17722E+07         0.00000E+00
    0.17722E+07         0.15593E+07         0.00000E+00
    0.00000E+00         0.00000E+00         0.38672E+06
 
   -0.83204E+06         0.21623E+05         0.00000E+00
    0.21623E+05         0.16398E+07         0.00000E+00
    0.00000E+00         0.00000E+00         0.16155E+06
 
   -0.80875E+06         0.63980E+05         0.00000E+00
    0.63980E+05         0.16396E+07         0.00000E+00
    0.00000E+00         0.00000E+00         0.16617E+06
 
   -0.78548E+06         0.10596E+06         0.00000E+00
    0.10596E+06         0.16393E+07         0.00000E+00
    0.00000E+00         0.00000E+00         0.17076E+06
 
   -0.76223E+06         0.14758E+06         0.00000E+00
    0.14758E+06         0.16387E+07         0.00000E+00
    0.00000E+00         0.00000E+00         0.17530E+06
 
   -0.73900E+06         0.18882E+06         0.00000E+00
    0.18882E+06         0.16380E+07         0.00000E+00
    0.00000E+00         0.00000E+00         0.17980E+06
 
   -0.71579E+06         0.22971E+06         0.00000E+00
    0.22971E+06         0.16371E+07         0.00000E+00
    0.00000E+00         0.00000E+00         0.18427E+06
 
   -0.69261E+06         0.27024E+06         0.00000E+00
    0.27024E+06         0.16361E+07         0.00000E+00
    0.00000E+00         0.00000E+00         0.18869E+06
 
   -0.66944E+06         0.31042E+06         0.00000E+00
    0.31042E+06         0.16348E+07         0.00000E+00
    0.00000E+00         0.00000E+00         0.19308E+06
 
   -0.64630E+06         0.35025E+06         0.00000E+00
    0.35025E+06         0.16334E+07         0.00000E+00
    0.00000E+00         0.00000E+00         0.19743E+06
 
   -0.62317E+06         0.38973E+06         0.00000E+00
    0.38973E+06         0.16318E+07         0.00000E+00
    0.00000E+00         0.00000E+00         0.20173E+06
 
   -0.60007E+06         0.42887E+06         0.00000E+00
    0.42887E+06         0.16301E+07         0.00000E+00
    0.00000E+00         0.00000E+00         0.20600E+06
 
   -0.57697E+06         0.46767E+06         0.00000E+00
    0.46767E+06         0.16281E+07         0.00000E+00
    0.00000E+00         0.00000E+00         0.21023E+06
 
   -0.55390E+06         0.50614E+06         0.00000E+00
    0.50614E+06         0.16260E+07         0.00000E+00
    0.00000E+00         0.00000E+00         0.21442E+06
 
   -0.53083E+06         0.54427E+06         0.00000E+00
    0.54427E+06         0.16237E+07         0.00000E+00
    0.00000E+00         0.00000E+00         0.21857E+06
 
   -0.50777E+06         0.58208E+06         0.00000E+00
    0.58208E+06         0.16212E+07         0.00000E+00
    0.00000E+00         0.00000E+00         0.22268E+06
 
   -0.48472E+06         0.61956E+06         0.00000E+00
    0.61956E+06         0.16185E+07         0.00000E+00
    0.00000E+00         0.00000E+00         0.22675E+06
 
   -0.46167E+06         0.65672E+06         0.00000E+00
    0.65672E+06         0.16156E+07         0.00000E+00
    0.00000E+00         0.00000E+00         0.23079E+06
 
   -0.43861E+06         0.69356E+06         0.00000E+00
    0.69356E+06         0.16125E+07         0.00000E+00
    0.00000E+00         0.00000E+00         0.23478E+06
 
   -0.41556E+06         0.73008E+06         0.00000E+00
    0.73008E+06         0.16092E+07         0.00000E+00
    0.00000E+00         0.00000E+00         0.23874E+06
 
   -0.39249E+06         0.76629E+06         0.00000E+00
    0.76629E+06         0.16058E+07         0.00000E+00
    0.00000E+00         0.00000E+00         0.24266E+06
 
   -0.36941E+06         0.80219E+06         0.00000E+00
    0.80219E+06         0.16021E+07         0.00000E+00
    0.00000E+00         0.00000E+00         0.24654E+06
 
   -0.34632E+06         0.83778E+06         0.00000E+00
    0.83778E+06         0.15982E+07         0.00000E+00
    0.00000E+00         0.00000E+00         0.25038E+06
 
   -0.32320E+06         0.87306E+06         0.00000E+00
    0.87306E+06         0.15941E+07         0.00000E+00
    0.00000E+00         0.00000E+00         0.25419E+06
 
   -0.30005E+06         0.90803E+06         0.00000E+00
    0.90803E+06         0.15898E+07         0.00000E+00
    0.00000E+00         0.00000E+00         0.25796E+06
 
   -0.27687E+06         0.94270E+06         0.00000E+00
    0.94270E+06         0.15853E+07         0.00000E+00
    0.00000E+00         0.00000E+00         0.26169E+06
 
   -0.25365E+06         0.97707E+06         0.00000E+00
    0.97707E+06         0.15806E+07         0.00000E+00
    0.00000E+00         0.00000E+00         0.26539E+06
 
   -0.23039E+06         0.10111E+07         0.00000E+00
    0.10111E+07         0.15756E+07         0.00000E+00
    0.00000E+00         0.00000E+00         0.26905E+06
 
   -0.20708E+06         0.10449E+07         0.00000E+00
    0.10449E+07         0.15705E+07         0.00000E+00
    0.00000E+00         0.00000E+00         0.27267E+06
 
   -0.18371E+06         0.10784E+07         0.00000E+00
    0.10784E+07         0.15650E+07         0.00000E+00
    0.00000E+00         0.00000E+00         0.27627E+06
 
   -0.16028E+06         0.11116E+07         0.00000E+00
    0.11116E+07         0.15594E+07         0.00000E+00
    0.00000E+00         0.00000E+00         0.27982E+06
 
   -0.13678E+06         0.11444E+07         0.00000E+00
    0.11444E+07         0.15535E+07         0.00000E+00
    0.00000E+00         0.00000E+00         0.28334E+06
 
   -0.11320E+06         0.11770E+07         0.00000E+00
    0.11770E+07         0.15474E+07         0.00000E+00
    0.00000E+00         0.00000E+00         0.28683E+06
 
   -0.89547E+05         0.12093E+07         0.00000E+00
    0.12093E+07         0.15410E+07         0.00000E+00
    0.00000E+00         0.00000E+00         0.29029E+06
 
   -0.65800E+05         0.12413E+07         0.00000E+00
    0.12413E+07         0.15343E+07         0.00000E+00
    0.00000E+00         0.00000E+00         0.29371E+06
 
   -0.41955E+05         0.12730E+07         0.00000E+00
    0.12730E+07         0.15274E+07         0.00000E+00
    0.00000E+00         0.00000E+00         0.29710E+06
 
   -0.18007E+05         0.13044E+07         0.00000E+00
    0.13044E+07         0.15203E+07         0.00000E+00
    0.00000E+00         0.00000E+00         0.30045E+06
 
    0.60528E+04         0.13355E+07         0.00000E+00
    0.13355E+07         0.15128E+07         0.00000E+00
    0.00000E+00         0.00000E+00         0.30378E+06
 
    0.30232E+05         0.13663E+07         0.00000E+00
    0.13663E+07         0.15051E+07         0.00000E+00
    0.00000E+00         0.00000E+00         0.30707E+06
 
    0.54539E+05         0.13968E+07         0.00000E+00
    0.13968E+07         0.14972E+07         0.00000E+00
    0.00000E+00         0.00000E+00         0.31034E+06
 
    0.78981E+05         0.14271E+07         0.00000E+00
    0.14271E+07         0.14889E+07         0.00000E+00
    0.00000E+00         0.00000E+00         0.31357E+06
 
    0.10357E+06         0.14570E+07         0.00000E+00
    0.14570E+07         0.14803E+07         0.00000E+00
    0.00000E+00         0.00000E+00         0.31678E+06
 
    0.12830E+06         0.14866E+07         0.00000E+00
    0.14866E+07         0.14715E+07         0.00000E+00
    0.00000E+00         0.00000E+00         0.31996E+06
 
    0.15320E+06         0.15159E+07         0.00000E+00
    0.15159E+07         0.14623E+07         0.00000E+00
    0.00000E+00         0.00000E+00         0.32311E+06
 
    0.17827E+06         0.15449E+07         0.00000E+00
    0.15449E+07         0.14529E+07         0.00000E+00
    0.00000E+00         0.00000E+00         0.32623E+06
 
    0.20351E+06         0.15737E+07         0.00000E+00
    0.15737E+07         0.14431E+07         0.00000E+00
    0.00000E+00         0.00000E+00         0.32932E+06
 
    0.22894E+06         0.16021E+07         0.00000E+00
    0.16021E+07         0.14330E+07         0.00000E+00
    0.00000E+00         0.00000E+00         0.33239E+06
 
    0.25457E+06         0.16302E+07         0.00000E+00
    0.16302E+07         0.14226E+07         0.00000E+00
    0.00000E+00         0.00000E+00         0.33543E+06
 
    0.28040E+06         0.16579E+07         0.00000E+00
    0.16579E+07         0.14118E+07         0.00000E+00
    0.00000E+00         0.00000E+00         0.33845E+06
 
    0.30644E+06         0.16854E+07         0.00000E+00
    0.16854E+07         0.14008E+07         0.00000E+00
    0.00000E+00         0.00000E+00         0.34144E+06
 
    0.33270E+06         0.17126E+07         0.00000E+00
    0.17126E+07         0.13894E+07         0.00000E+00
    0.00000E+00         0.00000E+00         0.34441E+06
 
   -0.79015E+06         0.21184E+05         0.00000E+00
    0.21184E+05         0.14711E+07         0.00000E+00
    0.00000E+00         0.00000E+00         0.13620E+06
 
   -0.76873E+06         0.62672E+05         0.00000E+00
    0.62672E+05         0.14710E+07         0.00000E+00
    0.00000E+00         0.00000E+00         0.14045E+06
 
   -0.74731E+06         0.10379E+06         0.00000E+00
    0.10379E+06         0.14706E+07         0.00000E+00
    0.00000E+00         0.00000E+00         0.14466E+06
 
   -0.72590E+06         0.14454E+06         0.00000E+00
    0.14454E+06         0.14701E+07         0.00000E+00
    0.00000E+00         0.00000E+00         0.14884E+06
 
   -0.70448E+06         0.18492E+06         0.00000E+00
    0.18492E+06         0.14694E+07         0.00000E+00
    0.00000E+00         0.00000E+00         0.15299E+06
 
   -0.68308E+06         0.22495E+06         0.00000E+00
    0.22495E+06         0.14686E+07         0.00000E+00
    0.00000E+00         0.00000E+00         0.15710E+06
 
   -0.66167E+06         0.26461E+06         0.00000E+00
    0.26461E+06         0.14676E+07         0.00000E+00
    0.00000E+00         0.00000E+00         0.16118E+06
 
   -0.64027E+06         0.30392E+06         0.00000E+00
    0.30392E+06         0.14664E+07         0.00000E+00
    0.00000E+00         0.00000E+00         0.16522E+06
 
   -0.61888E+06         0.34287E+06         0.00000E+00
    0.34287E+06         0.14650E+07         0.00000E+00
    0.00000E+00         0.00000E+00         0.16922E+06
 
   -0.59748E+06         0.38148E+06         0.00000E+00
    0.38148E+06         0.14635E+07         0.00000E+00
    0.00000E+00         0.00000E+00         0.17320E+06
 
   -0.57609E+06         0.41973E+06         0.00000E+00
    0.41973E+06         0.14618E+07         0.00000E+00
    0.00000E+00         0.00000E+00         0.17714E+06
 
   -0.55470E+06         0.45765E+06         0.00000E+00
    0.45765E+06         0.14599E+07         0.00000E+00
    0.00000E+00         0.00000E+00         0.18104E+06
 
   -0.53331E+06         0.49521E+06         0.00000E+00
    0.49521E+06         0.14578E+07         0.00000E+00
    0.00000E+00         0.00000E+00         0.18491E+06
 
   -0.51192E+06         0.53244E+06         0.00000E+00
    0.53244E+06         0.14556E+07         0.00000E+00
    0.00000E+00         0.00000E+00         0.18874E+06
 
   -0.49052E+06         0.56934E+06         0.00000E+00
    0.56934E+06         0.14532E+07         0.00000E+00
    0.00000E+00         0.00000E+00         0.19254E+06
 
   -0.46911E+06         0.60589E+06         0.00000E+00
    0.60589E+06         0.14506E+07         0.00000E+00
    0.00000E+00         0.00000E+00         0.19631E+06
 
   -0.44769E+06         0.64211E+06         0.00000E+00
    0.64211E+06         0.14479E+07         0.00000E+00
    0.00000E+00         0.00000E+00         0.20004E+06
 
   -0.42626E+06         0.67801E+06         0.00000E+00
    0.67801E+06         0.14449E+07         0.00000E+00
    0.00000E+00         0.00000E+00         0.20373E+06
 
   -0.40482E+06         0.71357E+06         0.00000E+00
    0.71357E+06         0.14418E+07         0.00000E+00
    0.00000E+00         0.00000E+00         0.20740E+06
 
   -0.38335E+06         0.74880E+06         0.00000E+00
    0.74880E+06         0.14385E+07         0.00000E+00
    0.00000E+00         0.00000E+00         0.21103E+06
 
   -0.36186E+06         0.78371E+06         0.00000E+00
    0.78371E+06         0.14350E+07         0.00000E+00
    0.00000E+00         0.00000E+00         0.21462E+06
 
   -0.34035E+06         0.81829E+06         0.00000E+00
    0.81829E+06         0.14313E+07         0.00000E+00
    0.00000E+00         0.00000E+00         0.21818E+06
 
   -0.31880E+06         0.85255E+06         0.00000E+00
    0.85255E+06         0.14274E+07         0.00000E+00
    0.00000E+00         0.00000E+00         0.22171E+06
 
   -0.29722E+06         0.88649E+06         0.00000E+00
    0.88649E+06         0.14233E+07         0.00000E+00
    0.00000E+00         0.00000E+00         0.22521E+06
 
   -0.27560E+06         0.92011E+06         0.00000E+00
    0.92011E+06         0.14190E+07         0.00000E+00
    0.00000E+00         0.00000E+00         0.22867E+06
 
   -0.25393E+06         0.95340E+06         0.00000E+00
    0.95340E+06         0.14145E+07         0.00000E+00
    0.00000E+00         0.00000E+00         0.23210E+06
 
   -0.23222E+06         0.98638E+06         0.00000E+00
    0.98638E+06         0.14097E+07         0.00000E+00
    0.00000E+00         0.00000E+00         0.23550E+06
 
   -0.21045E+06         0.10190E+07         0.00000E+00
    0.10190E+07         0.14048E+07         0.00000E+00
    0.00000E+00         0.00000E+00         0.23887E+06
 
   -0.18862E+06         0.10514E+07         0.00000E+00
    0.10514E+07         0.13997E+07         0.00000E+00
    0.00000E+00         0.00000E+00         0.24221E+06
 
   -0.16672E+06         0.10834E+07         0.00000E+00
    0.10834E+07         0.13943E+07         0.00000E+00
    0.00000E+00         0.00000E+00         0.24552E+06
 
   -0.14476E+06         0.11151E+07         0.00000E+00
    0.11151E+07         0.13887E+07         0.00000E+00
    0.00000E+00         0.00000E+00         0.24879E+06
 
   -0.12271E+06         0.11465E+07         0.00000E+00
    0.11465E+07         0.13829E+07         0.00000E+00
    0.00000E+00         0.00000E+00         0.25204E+06
 
   -0.10059E+06         0.11776E+07         0.00000E+00
    0.11776E+07         0.13768E+07         0.00000E+00
    0.00000E+00         0.00000E+00         0.25525E+06
 
   -0.78372E+05         0.12083E+07         0.00000E+00
    0.12083E+07         0.13706E+07         0.00000E+00
    0.00000E+00         0.00000E+00         0.25844E+06
 
   -0.56061E+05         0.12388E+07         0.00000E+00
    0.12388E+07         0.13640E+07         0.00000E+00
    0.00000E+00         0.00000E+00         0.26159E+06
 
   -0.33648E+05         0.12689E+07         0.00000E+00
    0.12689E+07         0.13573E+07         0.00000E+00
    0.00000E+00         0.00000E+00         0.26472E+06
 
   -0.11126E+05         0.12987E+07         0.00000E+00
    0.12987E+07         0.13502E+07         0.00000E+00
    0.00000E+00         0.00000E+00         0.26782E+06
 
    0.11511E+05         0.13282E+07         0.00000E+00
    0.13282E+07         0.13430E+07         0.00000E+00
    0.00000E+00         0.00000E+00         0.27090E+06
 
    0.34272E+05         0.13573E+07         0.00000E+00
    0.13573E+07         0.13354E+07         0.00000E+00
    0.00000E+00         0.00000E+00         0.27394E+06
 
    0.57161E+05         0.13862E+07         0.00000E+00
    0.13862E+07         0.13276E+07         0.00000E+00
    0.00000E+00         0.00000E+00         0.27696E+06
 
    0.80188E+05         0.14147E+07         0.00000E+00
    0.14147E+07         0.13196E+07         0.00000E+00
    0.00000E+00         0.00000E+00         0.27995E+06
 
    0.10336E+06         0.14429E+07         0.00000E+00
    0.14429E+07         0.13112E+07         0.00000E+00
    0.00000E+00         0.00000E+00         0.28292E+06
 
    0.12668E+06         0.14707E+07         0.00000E+00
    0.14707E+07         0.13026E+07         0.00000E+00
    0.00000E+00         0.00000E+00         0.28586E+06
 
    0.15016E+06         0.14983E+07         0.00000E+00
    0.14983E+07         0.12937E+07         0.00000E+00
    0.00000E+00         0.00000E+00         0.28878E+06
 
    0.17381E+06         0.15255E+07         0.00000E+00
    0.15255E+07         0.12845E+07         0.00000E+00
    0.00000E+00         0.00000E+00         0.29167E+06
 
    0.19763E+06         0.15523E+07         0.00000E+00
    0.15523E+07         0.12751E+07         0.00000E+00
    0.00000E+00         0.00000E+00         0.29454E+06
 
    0.22164E+06         0.15789E+07         0.00000E+00
    0.15789E+07         0.12653E+07         0.00000E+00
    0.00000E+00         0.00000E+00         0.29738E+06
 
    0.24583E+06         0.16050E+07         0.00000E+00
    0.16050E+07         0.12552E+07         0.00000E+00
    0.00000E+00         0.00000E+00         0.30021E+06
 
    0.27022E+06         0.16309E+07         0.00000E+00
    0.16309E+07         0.12448E+07         0.00000E+00
    0.00000E+00         0.00000E+00         0.30301E+06
 
    0.29482E+06         0.16564E+07         0.00000E+00
    0.16564E+07         0.12341E+07         0.00000E+00
    0.00000E+00         0.00000E+00         0.30579E+06
 
   -0.74112E+06         0.20762E+05         0.00000E+00
    0.20762E+05         0.13139E+07         0.00000E+00
    0.00000E+00         0.00000E+00         0.11455E+06
 
   -0.72156E+06         0.61418E+05         0.00000E+00
    0.61418E+05         0.13137E+07         0.00000E+00
    0.00000E+00         0.00000E+00         0.11843E+06
 
   -0.70198E+06         0.10171E+06         0.00000E+00
    0.10171E+06         0.13134E+07         0.00000E+00
    0.00000E+00         0.00000E+00         0.12228E+06
 
   -0.68239E+06         0.14163E+06         0.00000E+00
    0.14163E+06         0.13129E+07         0.00000E+00
    0.00000E+00         0.00000E+00         0.12610E+06
 
   -0.66280E+06         0.18119E+06         0.00000E+00
    0.18119E+06         0.13122E+07         0.00000E+00
    0.00000E+00         0.00000E+00         0.12989E+06
 
   -0.64319E+06         0.22039E+06         0.00000E+00
    0.22039E+06         0.13114E+07         0.00000E+00
    0.00000E+00         0.00000E+00         0.13365E+06
 
   -0.62358E+06         0.25922E+06         0.00000E+00
    0.25922E+06         0.13105E+07         0.00000E+00
    0.00000E+00         0.00000E+00         0.13738E+06
 
   -0.60396E+06         0.29770E+06         0.00000E+00
    0.29770E+06         0.13093E+07         0.00000E+00
    0.00000E+00         0.00000E+00         0.14108E+06
 
   -0.58433E+06         0.33583E+06         0.00000E+00
    0.33583E+06         0.13081E+07         0.00000E+00
    0.00000E+00         0.00000E+00         0.14475E+06
 
   -0.56469E+06         0.37360E+06         0.00000E+00
    0.37360E+06         0.13066E+07         0.00000E+00
    0.00000E+00         0.00000E+00         0.14838E+06
 
   -0.54504E+06         0.41102E+06         0.00000E+00
    0.41102E+06         0.13050E+07         0.00000E+00
    0.00000E+00         0.00000E+00         0.15199E+06
 
   -0.52538E+06         0.44808E+06         0.00000E+00
    0.44808E+06         0.13032E+07         0.00000E+00
    0.00000E+00         0.00000E+00         0.15557E+06
 
   -0.50571E+06         0.48480E+06         0.00000E+00
    0.48480E+06         0.13013E+07         0.00000E+00
    0.00000E+00         0.00000E+00         0.15911E+06
 
   -0.48603E+06         0.52118E+06         0.00000E+00
    0.52118E+06         0.12992E+07         0.00000E+00
    0.00000E+00         0.00000E+00         0.16263E+06
 
   -0.46634E+06         0.55720E+06         0.00000E+00
    0.55720E+06         0.12969E+07         0.00000E+00
    0.00000E+00         0.00000E+00         0.16611E+06
 
   -0.44663E+06         0.59289E+06         0.00000E+00
    0.59289E+06         0.12945E+07         0.00000E+00
    0.00000E+00         0.00000E+00         0.16957E+06
 
   -0.42690E+06         0.62823E+06         0.00000E+00
    0.62823E+06         0.12919E+07         0.00000E+00
    0.00000E+00         0.00000E+00         0.17299E+06
 
   -0.40715E+06         0.66322E+06         0.00000E+00
    0.66322E+06         0.12891E+07         0.00000E+00
    0.00000E+00         0.00000E+00         0.17639E+06
 
   -0.38737E+06         0.69788E+06         0.00000E+00
    0.69788E+06         0.12861E+07         0.00000E+00
    0.00000E+00         0.00000E+00         0.17975E+06
 
   -0.36757E+06         0.73220E+06         0.00000E+00
    0.73220E+06         0.12830E+07         0.00000E+00
    0.00000E+00         0.00000E+00         0.18308E+06
 
   -0.34774E+06         0.76618E+06         0.00000E+00
    0.76618E+06         0.12797E+07         0.00000E+00
    0.00000E+00         0.00000E+00         0.18639E+06
 
   -0.32788E+06         0.79982E+06         0.00000E+00
    0.79982E+06         0.12762E+07         0.00000E+00
    0.00000E+00         0.00000E+00         0.18966E+06
 
   -0.30799E+06         0.83313E+06         0.00000E+00
    0.83313E+06         0.12725E+07         0.00000E+00
    0.00000E+00         0.00000E+00         0.19291E+06
 
   -0.28805E+06         0.86609E+06         0.00000E+00
    0.86609E+06         0.12687E+07         0.00000E+00
    0.00000E+00         0.00000E+00         0.19613E+06
 
   -0.26807E+06         0.89873E+06         0.00000E+00
    0.89873E+06         0.12646E+07         0.00000E+00
    0.00000E+00         0.00000E+00         0.19931E+06
 
   -0.24804E+06         0.93102E+06         0.00000E+00
    0.93102E+06         0.12604E+07         0.00000E+00
    0.00000E+00         0.00000E+00         0.20247E+06
 
   -0.22796E+06         0.96298E+06         0.00000E+00
    0.96298E+06         0.12560E+07         0.00000E+00
    0.00000E+00         0.00000E+00         0.20560E+06
 
   -0.20783E+06         0.99461E+06         0.00000E+00
    0.99461E+06         0.12514E+07         0.00000E+00
    0.00000E+00         0.00000E+00         0.20871E+06
 
   -0.18763E+06         0.10259E+07         0.00000E+00
    0.10259E+07         0.12465E+07         0.00000E+00
    0.00000E+00         0.00000E+00         0.21178E+06
 
   -0.16737E+06         0.10569E+07         0.00000E+00
    0.10569E+07         0.12415E+07         0.00000E+00
    0.00000E+00         0.00000E+00         0.21483E+06
 
   -0.14703E+06         0.10875E+07         0.00000E+00
    0.10875E+07         0.12363E+07         0.00000E+00
    0.00000E+00         0.00000E+00         0.21785E+06
 
   -0.12662E+06         0.11178E+07         0.00000E+00
    0.11178E+07         0.12308E+07         0.00000E+00
    0.00000E+00         0.00000E+00         0.22084E+06
 
   -0.10613E+06         0.11477E+07         0.00000E+00
    0.11477E+07         0.12252E+07         0.00000E+00
    0.00000E+00         0.00000E+00         0.22381E+06
 
   -0.85557E+05         0.11773E+07         0.00000E+00
    0.11773E+07         0.12193E+07         0.00000E+00
    0.00000E+00         0.00000E+00         0.22675E+06
 
   -0.64888E+05         0.12066E+07         0.00000E+00
    0.12066E+07         0.12132E+07         0.00000E+00
    0.00000E+00         0.00000E+00         0.22966E+06
 
   -0.44122E+05         0.12355E+07         0.00000E+00
    0.12355E+07         0.12069E+07         0.00000E+00
    0.00000E+00         0.00000E+00         0.23255E+06
 
   -0.23252E+05         0.12641E+07         0.00000E+00
    0.12641E+07         0.12003E+07         0.00000E+00
    0.00000E+00         0.00000E+00         0.23541E+06
 
   -0.22719E+04         0.12924E+07         0.00000E+00
    0.12924E+07         0.11935E+07         0.00000E+00
    0.00000E+00         0.00000E+00         0.23825E+06
 
    0.18824E+05         0.13203E+07         0.00000E+00
    0.13203E+07         0.11865E+07         0.00000E+00
    0.00000E+00         0.00000E+00         0.24106E+06
 
    0.40041E+05         0.13478E+07         0.00000E+00
    0.13478E+07         0.11792E+07         0.00000E+00
    0.00000E+00         0.00000E+00         0.24385E+06
 
    0.61387E+05         0.13751E+07         0.00000E+00
    0.13751E+07         0.11717E+07         0.00000E+00
    0.00000E+00         0.00000E+00         0.24662E+06
 
    0.82868E+05         0.14019E+07         0.00000E+00
    0.14019E+07         0.11640E+07         0.00000E+00
    0.00000E+00         0.00000E+00         0.24937E+06
 
    0.10449E+06         0.14284E+07         0.00000E+00
    0.14284E+07         0.11559E+07         0.00000E+00
    0.00000E+00         0.00000E+00         0.25209E+06
 
    0.12626E+06         0.14546E+07         0.00000E+00
    0.14546E+07         0.11477E+07         0.00000E+00
    0.00000E+00         0.00000E+00         0.25479E+06
 
    0.14819E+06         0.14804E+07         0.00000E+00
    0.14804E+07         0.11391E+07         0.00000E+00
    0.00000E+00         0.00000E+00         0.25746E+06
 
    0.17027E+06         0.15059E+07         0.00000E+00
    0.15059E+07         0.11303E+07         0.00000E+00
    0.00000E+00         0.00000E+00         0.26012E+06
 
    0.19253E+06         0.15310E+07         0.00000E+00
    0.15310E+07         0.11212E+07         0.00000E+00
    0.00000E+00         0.00000E+00         0.26275E+06
 
    0.21496E+06         0.15557E+07         0.00000E+00
    0.15557E+07         0.11119E+07         0.00000E+00
    0.00000E+00         0.00000E+00         0.26537E+06
 
    0.23757E+06         0.15801E+07         0.00000E+00
    0.15801E+07         0.11022E+07         0.00000E+00
    0.00000E+00         0.00000E+00         0.26796E+06
 
    0.26037E+06         0.16040E+07         0.00000E+00
    0.16040E+07         0.10923E+07         0.00000E+00
    0.00000E+00         0.00000E+00         0.27054E+06
 
   -0.68576E+06         0.20364E+05         0.00000E+00
    0.20364E+05         0.11670E+07         0.00000E+00
    0.00000E+00         0.00000E+00         0.96248E+05
 
   -0.66803E+06         0.60236E+05         0.00000E+00
    0.60236E+05         0.11668E+07         0.00000E+00
    0.00000E+00         0.00000E+00         0.99763E+05
 
   -0.65028E+06         0.99743E+05         0.00000E+00
    0.99743E+05         0.11665E+07         0.00000E+00
    0.00000E+00         0.00000E+00         0.10325E+06
 
   -0.63251E+06         0.13889E+06         0.00000E+00
    0.13889E+06         0.11661E+07         0.00000E+00
    0.00000E+00         0.00000E+00         0.10672E+06
 
   -0.61472E+06         0.17767E+06         0.00000E+00
    0.17767E+06         0.11655E+07         0.00000E+00
    0.00000E+00         0.00000E+00         0.11015E+06
 
   -0.59692E+06         0.21609E+06         0.00000E+00
    0.21609E+06         0.11647E+07         0.00000E+00
    0.00000E+00         0.00000E+00         0.11356E+06
 
   -0.57910E+06         0.25415E+06         0.00000E+00
    0.25415E+06         0.11638E+07         0.00000E+00
    0.00000E+00         0.00000E+00         0.11695E+06
 
   -0.56127E+06         0.29186E+06         0.00000E+00
    0.29186E+06         0.11628E+07         0.00000E+00
    0.00000E+00         0.00000E+00         0.12030E+06
 
   -0.54341E+06         0.32921E+06         0.00000E+00
    0.32921E+06         0.11616E+07         0.00000E+00
    0.00000E+00         0.00000E+00         0.12363E+06
 
   -0.52555E+06         0.36620E+06         0.00000E+00
    0.36620E+06         0.11602E+07         0.00000E+00
    0.00000E+00         0.00000E+00         0.12694E+06
 
   -0.50767E+06         0.40283E+06         0.00000E+00
    0.40283E+06         0.11587E+07         0.00000E+00
    0.00000E+00         0.00000E+00         0.13021E+06
 
   -0.48977E+06         0.43911E+06         0.00000E+00
    0.43911E+06         0.11571E+07         0.00000E+00
    0.00000E+00         0.00000E+00         0.13346E+06
 
   -0.47185E+06         0.47504E+06         0.00000E+00
    0.47504E+06         0.11553E+07         0.00000E+00
    0.00000E+00         0.00000E+00         0.13668E+06
 
   -0.45392E+06         0.51061E+06         0.00000E+00
    0.51061E+06         0.11533E+07         0.00000E+00
    0.00000E+00         0.00000E+00         0.13988E+06
 
   -0.43597E+06         0.54583E+06         0.00000E+00
    0.54583E+06         0.11512E+07         0.00000E+00
    0.00000E+00         0.00000E+00         0.14305E+06
 
   -0.41799E+06         0.58070E+06         0.00000E+00
    0.58070E+06         0.11489E+07         0.00000E+00
    0.00000E+00         0.00000E+00         0.14619E+06
 
   -0.40000E+06         0.61522E+06         0.00000E+00
    0.61522E+06         0.11465E+07         0.00000E+00
    0.00000E+00         0.00000E+00         0.14930E+06
 
   -0.38197E+06         0.64939E+06         0.00000E+00
    0.64939E+06         0.11439E+07         0.00000E+00
    0.00000E+00         0.00000E+00         0.15239E+06
 
   -0.36393E+06         0.68321E+06         0.00000E+00
    0.68321E+06         0.11412E+07         0.00000E+00
    0.00000E+00         0.00000E+00         0.15545E+06
 
   -0.34585E+06         0.71668E+06         0.00000E+00
    0.71668E+06         0.11383E+07         0.00000E+00
    0.00000E+00         0.00000E+00         0.15849E+06
 
   -0.32774E+06         0.74980E+06         0.00000E+00
    0.74980E+06         0.11352E+07         0.00000E+00
    0.00000E+00         0.00000E+00         0.16150E+06
 
   -0.30959E+06         0.78257E+06         0.00000E+00
    0.78257E+06         0.11320E+07         0.00000E+00
    0.00000E+00         0.00000E+00         0.16448E+06
 
   -0.29141E+06         0.81499E+06         0.00000E+00
    0.81499E+06         0.11286E+07         0.00000E+00
    0.00000E+00         0.00000E+00         0.16744E+06
 
   -0.27319E+06         0.84706E+06         0.00000E+00
    0.84706E+06         0.11250E+07         0.00000E+00
    0.00000E+00         0.00000E+00         0.17037E+06
 
   -0.25492E+06         0.87879E+06         0.00000E+00
    0.87879E+06         0.11213E+07         0.00000E+00
    0.00000E+00         0.00000E+00         0.17327E+06
 
   -0.23660E+06         0.91016E+06         0.00000E+00
    0.91016E+06         0.11174E+07         0.00000E+00
    0.00000E+00         0.00000E+00         0.17615E+06
 
   -0.21824E+06         0.94119E+06         0.00000E+00
    0.94119E+06         0.11133E+07         0.00000E+00
    0.00000E+00         0.00000E+00         0.17901E+06
 
   -0.19982E+06         0.97186E+06         0.00000E+00
    0.97186E+06         0.11090E+07         0.00000E+00
    0.00000E+00         0.00000E+00         0.18184E+06
 
   -0.18134E+06         0.10022E+07         0.00000E+00
    0.10022E+07         0.11045E+07         0.00000E+00
    0.00000E+00         0.00000E+00         0.18464E+06
 
   -0.16279E+06         0.10322E+07         0.00000E+00
    0.10322E+07         0.10999E+07         0.00000E+00
    0.00000E+00         0.00000E+00         0.18742E+06
 
   -0.14418E+06         0.10618E+07         0.00000E+00
    0.10618E+07         0.10951E+07         0.00000E+00
    0.00000E+00         0.00000E+00         0.19018E+06
 
   -0.12549E+06         0.10910E+07         0.00000E+00
    0.10910E+07         0.10900E+07         0.00000E+00
    0.00000E+00         0.00000E+00         0.19291E+06
 
   -0.10673E+06         0.11200E+07         0.00000E+00
    0.11200E+07         0.10848E+07         0.00000E+00
    0.00000E+00         0.00000E+00         0.19562E+06
 
   -0.87890E+05         0.11485E+07         0.00000E+00
    0.11485E+07         0.10794E+07         0.00000E+00
    0.00000E+00         0.00000E+00         0.19830E+06
 
   -0.68961E+05         0.11767E+07         0.00000E+00
    0.11767E+07         0.10738E+07         0.00000E+00
    0.00000E+00         0.00000E+00         0.20096E+06
 
   -0.49940E+05         0.12046E+07         0.00000E+00
    0.12046E+07         0.10679E+07         0.00000E+00
    0.00000E+00         0.00000E+00         0.20360E+06
 
   -0.30822E+05         0.12321E+07         0.00000E+00
    0.12321E+07         0.10619E+07         0.00000E+00
    0.00000E+00         0.00000E+00         0.20622E+06
 
   -0.11602E+05         0.12592E+07         0.00000E+00
    0.12592E+07         0.10557E+07         0.00000E+00
    0.00000E+00         0.00000E+00         0.20881E+06
 
    0.77249E+04         0.12859E+07         0.00000E+00
    0.12859E+07         0.10492E+07         0.00000E+00
    0.00000E+00         0.00000E+00         0.21138E+06
 
    0.27165E+05         0.13123E+07         0.00000E+00
    0.13123E+07         0.10425E+07         0.00000E+00
    0.00000E+00         0.00000E+00         0.21394E+06
 
    0.46723E+05         0.13384E+07         0.00000E+00
    0.13384E+07         0.10356E+07         0.00000E+00
    0.00000E+00         0.00000E+00         0.21647E+06
 
    0.66406E+05         0.13640E+07         0.00000E+00
    0.13640E+07         0.10285E+07         0.00000E+00
    0.00000E+00         0.00000E+00         0.21898E+06
 
    0.86218E+05         0.13893E+07         0.00000E+00
    0.13893E+07         0.10211E+07         0.00000E+00
    0.00000E+00         0.00000E+00         0.22147E+06
 
    0.10617E+06         0.14143E+07         0.00000E+00
    0.14143E+07         0.10135E+07         0.00000E+00
    0.00000E+00         0.00000E+00         0.22393E+06
 
    0.12626E+06         0.14388E+07         0.00000E+00
    0.14388E+07         0.10057E+07         0.00000E+00
    0.00000E+00         0.00000E+00         0.22638E+06
 
    0.14649E+06         0.14630E+07         0.00000E+00
    0.14630E+07         0.99759E+06         0.00000E+00
    0.00000E+00         0.00000E+00         0.22882E+06
 
    0.16689E+06         0.14868E+07         0.00000E+00
    0.14868E+07         0.98926E+06         0.00000E+00
    0.00000E+00         0.00000E+00         0.23123E+06
 
    0.18744E+06         0.15102E+07         0.00000E+00
    0.15102E+07         0.98068E+06         0.00000E+00
    0.00000E+00         0.00000E+00         0.23362E+06
 
    0.20815E+06         0.15332E+07         0.00000E+00
    0.15332E+07         0.97184E+06         0.00000E+00
    0.00000E+00         0.00000E+00         0.23600E+06
 
    0.22904E+06         0.15558E+07         0.00000E+00
    0.15558E+07         0.96275E+06         0.00000E+00
    0.00000E+00         0.00000E+00         0.23836E+06
 
   -0.62479E+06         0.19995E+05         0.00000E+00
    0.19995E+05         0.10295E+07         0.00000E+00
    0.00000E+00         0.00000E+00         0.80947E+05
 
   -0.60888E+06         0.59141E+05         0.00000E+00
    0.59141E+05         0.10294E+07         0.00000E+00
    0.00000E+00         0.00000E+00         0.84102E+05
 
   -0.59293E+06         0.97926E+05         0.00000E+00
    0.97926E+05         0.10291E+07         0.00000E+00
    0.00000E+00         0.00000E+00         0.87235E+05
 
   -0.57697E+06         0.13635E+06         0.00000E+00
    0.13635E+06         0.10287E+07         0.00000E+00
    0.00000E+00         0.00000E+00         0.90345E+05
 
   -0.56098E+06         0.17442E+06         0.00000E+00
    0.17442E+06         0.10281E+07         0.00000E+00
    0.00000E+00         0.00000E+00         0.93431E+05
 
   -0.54498E+06         0.21212E+06         0.00000E+00
    0.21212E+06         0.10275E+07         0.00000E+00
    0.00000E+00         0.00000E+00         0.96494E+05
 
   -0.52895E+06         0.24947E+06         0.00000E+00
    0.24947E+06         0.10266E+07         0.00000E+00
    0.00000E+00         0.00000E+00         0.99534E+05
 
   -0.51291E+06         0.28646E+06         0.00000E+00
    0.28646E+06         0.10257E+07         0.00000E+00
    0.00000E+00         0.00000E+00         0.10255E+06
 
   -0.49685E+06         0.32309E+06         0.00000E+00
    0.32309E+06         0.10246E+07         0.00000E+00
    0.00000E+00         0.00000E+00         0.10554E+06
 
   -0.48077E+06         0.35936E+06         0.00000E+00
    0.35936E+06         0.10233E+07         0.00000E+00
    0.00000E+00         0.00000E+00         0.10851E+06
 
   -0.46467E+06         0.39528E+06         0.00000E+00
    0.39528E+06         0.10220E+07         0.00000E+00
    0.00000E+00         0.00000E+00         0.11146E+06
 
   -0.44855E+06         0.43083E+06         0.00000E+00
    0.43083E+06         0.10204E+07         0.00000E+00
    0.00000E+00         0.00000E+00         0.11438E+06
 
   -0.43241E+06         0.46603E+06         0.00000E+00
    0.46603E+06         0.10188E+07         0.00000E+00
    0.00000E+00         0.00000E+00         0.11728E+06
 
   -0.41626E+06         0.50087E+06         0.00000E+00
    0.50087E+06         0.10170E+07         0.00000E+00
    0.00000E+00         0.00000E+00         0.12015E+06
 
   -0.40008E+06         0.53536E+06         0.00000E+00
    0.53536E+06         0.10151E+07         0.00000E+00
    0.00000E+00         0.00000E+00         0.12300E+06
 
   -0.38387E+06         0.56948E+06         0.00000E+00
    0.56948E+06         0.10130E+07         0.00000E+00
    0.00000E+00         0.00000E+00         0.12583E+06
 
   -0.36765E+06         0.60325E+06         0.00000E+00
    0.60325E+06         0.10108E+07         0.00000E+00
    0.00000E+00         0.00000E+00         0.12863E+06
 
   -0.35140E+06         0.63666E+06         0.00000E+00
    0.63666E+06         0.10085E+07         0.00000E+00
    0.00000E+00         0.00000E+00         0.13141E+06
 
   -0.33512E+06         0.66971E+06         0.00000E+00
    0.66971E+06         0.10060E+07         0.00000E+00
    0.00000E+00         0.00000E+00         0.13417E+06
 
   -0.31881E+06         0.70241E+06         0.00000E+00
    0.70241E+06         0.10033E+07         0.00000E+00
    0.00000E+00         0.00000E+00         0.13690E+06
 
   -0.30247E+06         0.73474E+06         0.00000E+00
    0.73474E+06         0.10005E+07         0.00000E+00
    0.00000E+00         0.00000E+00         0.13961E+06
 
   -0.28610E+06         0.76672E+06         0.00000E+00
    0.76672E+06         0.99759E+06         0.00000E+00
    0.00000E+00         0.00000E+00         0.14230E+06
 
   -0.26969E+06         0.79833E+06         0.00000E+00
    0.79833E+06         0.99449E+06         0.00000E+00
    0.00000E+00         0.00000E+00         0.14496E+06
 
   -0.25324E+06         0.82959E+06         0.00000E+00
    0.82959E+06         0.99124E+06         0.00000E+00
    0.00000E+00         0.00000E+00         0.14760E+06
 
   -0.23675E+06         0.86049E+06         0.00000E+00
    0.86049E+06         0.98784E+06         0.00000E+00
    0.00000E+00         0.00000E+00         0.15022E+06
 
   -0.22021E+06         0.89102E+06         0.00000E+00
    0.89102E+06         0.98428E+06         0.00000E+00
    0.00000E+00         0.00000E+00         0.15281E+06
 
   -0.20363E+06         0.92119E+06         0.00000E+00
    0.92119E+06         0.98056E+06         0.00000E+00
    0.00000E+00         0.00000E+00         0.15539E+06
 
   -0.18699E+06         0.95100E+06         0.00000E+00
    0.95100E+06         0.97667E+06         0.00000E+00
    0.00000E+00         0.00000E+00         0.15794E+06
 
   -0.17030E+06         0.98045E+06         0.00000E+00
    0.98045E+06         0.97262E+06         0.00000E+00
    0.00000E+00         0.00000E+00         0.16047E+06
 
   -0.15355E+06         0.10095E+07         0.00000E+00
    0.10095E+07         0.96840E+06         0.00000E+00
    0.00000E+00         0.00000E+00         0.16297E+06
 
   -0.13673E+06         0.10382E+07         0.00000E+00
    0.10382E+07         0.96401E+06         0.00000E+00
    0.00000E+00         0.00000E+00         0.16546E+06
 
   -0.11985E+06         0.10666E+07         0.00000E+00
    0.10666E+07         0.95945E+06         0.00000E+00
    0.00000E+00         0.00000E+00         0.16792E+06
 
   -0.10290E+06         0.10946E+07         0.00000E+00
    0.10946E+07         0.95471E+06         0.00000E+00
    0.00000E+00         0.00000E+00         0.17036E+06
 
   -0.85875E+05         0.11222E+07         0.00000E+00
    0.11222E+07         0.94980E+06         0.00000E+00
    0.00000E+00         0.00000E+00         0.17278E+06
 
   -0.68770E+05         0.11494E+07         0.00000E+00
    0.11494E+07         0.94470E+06         0.00000E+00
    0.00000E+00         0.00000E+00         0.17519E+06
 
   -0.51582E+05         0.11763E+07         0.00000E+00
    0.11763E+07         0.93942E+06         0.00000E+00
    0.00000E+00         0.00000E+00         0.17757E+06
 
   -0.34305E+05         0.12028E+07         0.00000E+00
    0.12028E+07         0.93394E+06         0.00000E+00
    0.00000E+00         0.00000E+00         0.17993E+06
 
   -0.16936E+05         0.12289E+07         0.00000E+00
    0.12289E+07         0.92828E+06         0.00000E+00
    0.00000E+00         0.00000E+00         0.18227E+06
 
    0.53027E+03         0.12546E+07         0.00000E+00
    0.12546E+07         0.92242E+06         0.00000E+00
    0.00000E+00         0.00000E+00         0.18459E+06
 
    0.18099E+05         0.12799E+07         0.00000E+00
    0.12799E+07         0.91637E+06         0.00000E+00
    0.00000E+00         0.00000E+00         0.18689E+06
 
    0.35775E+05         0.13049E+07         0.00000E+00
    0.13049E+07         0.91011E+06         0.00000E+00
    0.00000E+00         0.00000E+00         0.18918E+06
 
    0.53563E+05         0.13295E+07         0.00000E+00
    0.13295E+07         0.90366E+06         0.00000E+00
    0.00000E+00         0.00000E+00         0.19144E+06
 
    0.71468E+05         0.13537E+07         0.00000E+00
    0.13537E+07         0.89699E+06         0.00000E+00
    0.00000E+00         0.00000E+00         0.19369E+06
 
    0.89496E+05         0.13775E+07         0.00000E+00
    0.13775E+07         0.89011E+06         0.00000E+00
    0.00000E+00         0.00000E+00         0.19592E+06
 
    0.10765E+06         0.14009E+07         0.00000E+00
    0.14009E+07         0.88302E+06         0.00000E+00
    0.00000E+00         0.00000E+00         0.19813E+06
 
    0.12594E+06         0.14239E+07         0.00000E+00
    0.14239E+07         0.87571E+06         0.00000E+00
    0.00000E+00         0.00000E+00         0.20033E+06
 
    0.14437E+06         0.14465E+07         0.00000E+00
    0.14465E+07         0.86817E+06         0.00000E+00
    0.00000E+00         0.00000E+00         0.20251E+06
 
    0.16294E+06         0.14687E+07         0.00000E+00
    0.14687E+07         0.86042E+06         0.00000E+00
    0.00000E+00         0.00000E+00         0.20467E+06
 
    0.18166E+06         0.14905E+07         0.00000E+00
    0.14905E+07         0.85243E+06         0.00000E+00
    0.00000E+00         0.00000E+00         0.20682E+06
 
    0.20053E+06         0.15119E+07         0.00000E+00
    0.15119E+07         0.84421E+06         0.00000E+00
    0.00000E+00         0.00000E+00         0.20895E+06
 
   -0.55887E+06         0.19661E+05         0.00000E+00
    0.19661E+05         0.90048E+06         0.00000E+00
    0.00000E+00         0.00000E+00         0.68321E+05
 
   -0.54475E+06         0.58149E+05         0.00000E+00
    0.58149E+05         0.90035E+06         0.00000E+00
    0.00000E+00         0.00000E+00         0.71121E+05
 
   -0.53060E+06         0.96281E+05         0.00000E+00
    0.96281E+05         0.90010E+06         0.00000E+00
    0.00000E+00         0.00000E+00         0.73901E+05
 
   -0.51643E+06         0.13406E+06         0.00000E+00
    0.13406E+06         0.89973E+06         0.00000E+00
    0.00000E+00         0.00000E+00         0.76661E+05
 
   -0.50223E+06         0.17147E+06         0.00000E+00
    0.17147E+06         0.89924E+06         0.00000E+00
    0.00000E+00         0.00000E+00         0.79401E+05
 
   -0.48802E+06         0.20853E+06         0.00000E+00
    0.20853E+06         0.89862E+06         0.00000E+00
    0.00000E+00         0.00000E+00         0.82120E+05
 
   -0.47379E+06         0.24524E+06         0.00000E+00
    0.24524E+06         0.89788E+06         0.00000E+00
    0.00000E+00         0.00000E+00         0.84819E+05
 
   -0.45954E+06         0.28158E+06         0.00000E+00
    0.28158E+06         0.89702E+06         0.00000E+00
    0.00000E+00         0.00000E+00         0.87497E+05
 
   -0.44527E+06         0.31756E+06         0.00000E+00
    0.31756E+06         0.89604E+06         0.00000E+00
    0.00000E+00         0.00000E+00         0.90154E+05
 
   -0.43099E+06         0.35319E+06         0.00000E+00
    0.35319E+06         0.89494E+06         0.00000E+00
    0.00000E+00         0.00000E+00         0.92791E+05
 
   -0.41668E+06         0.38845E+06         0.00000E+00
    0.38845E+06         0.89372E+06         0.00000E+00
    0.00000E+00         0.00000E+00         0.95407E+05
 
   -0.40236E+06         0.42336E+06         0.00000E+00
    0.42336E+06         0.89237E+06         0.00000E+00
    0.00000E+00         0.00000E+00         0.98001E+05
 
   -0.38802E+06         0.45790E+06         0.00000E+00
    0.45790E+06         0.89090E+06         0.00000E+00
    0.00000E+00         0.00000E+00         0.10058E+06
 
   -0.37366E+06         0.49208E+06         0.00000E+00
    0.49208E+06         0.88930E+06         0.00000E+00
    0.00000E+00         0.00000E+00         0.10313E+06
 
   -0.35928E+06         0.52590E+06         0.00000E+00
    0.52590E+06         0.88758E+06         0.00000E+00
    0.00000E+00         0.00000E+00         0.10566E+06
 
   -0.34489E+06         0.55936E+06         0.00000E+00
    0.55936E+06         0.88574E+06         0.00000E+00
    0.00000E+00         0.00000E+00         0.10817E+06
 
   -0.33046E+06         0.59245E+06         0.00000E+00
    0.59245E+06         0.88377E+06         0.00000E+00
    0.00000E+00         0.00000E+00         0.11066E+06
 
   -0.31602E+06         0.62518E+06         0.00000E+00
    0.62518E+06         0.88167E+06         0.00000E+00
    0.00000E+00         0.00000E+00         0.11313E+06
 
   -0.30155E+06         0.65754E+06         0.00000E+00
    0.65754E+06         0.87944E+06         0.00000E+00
    0.00000E+00         0.00000E+00         0.11558E+06
 
   -0.28705E+06         0.68954E+06         0.00000E+00
    0.68954E+06         0.87709E+06         0.00000E+00
    0.00000E+00         0.00000E+00         0.11801E+06
 
   -0.27253E+06         0.72117E+06         0.00000E+00
    0.72117E+06         0.87460E+06         0.00000E+00
    0.00000E+00         0.00000E+00         0.12041E+06
 
   -0.25797E+06         0.75243E+06         0.00000E+00
    0.75243E+06         0.87198E+06         0.00000E+00
    0.00000E+00         0.00000E+00         0.12280E+06
 
   -0.24339E+06         0.78333E+06         0.00000E+00
    0.78333E+06         0.86922E+06         0.00000E+00
    0.00000E+00         0.00000E+00         0.12517E+06
 
   -0.22876E+06         0.81385E+06         0.00000E+00
    0.81385E+06         0.86633E+06         0.00000E+00
    0.00000E+00         0.00000E+00         0.12751E+06
 
   -0.21410E+06         0.84401E+06         0.00000E+00
    0.84401E+06         0.86329E+06         0.00000E+00
    0.00000E+00         0.00000E+00         0.12984E+06
 
   -0.19940E+06         0.87379E+06         0.00000E+00
    0.87379E+06         0.86012E+06         0.00000E+00
    0.00000E+00         0.00000E+00         0.13214E+06
 
   -0.18466E+06         0.90320E+06         0.00000E+00
    0.90320E+06         0.85681E+06         0.00000E+00
    0.00000E+00         0.00000E+00         0.13443E+06
 
   -0.16987E+06         0.93223E+06         0.00000E+00
    0.93223E+06         0.85335E+06         0.00000E+00
    0.00000E+00         0.00000E+00         0.13670E+06
 
   -0.15503E+06         0.96089E+06         0.00000E+00
    0.96089E+06         0.84974E+06         0.00000E+00
    0.00000E+00         0.00000E+00         0.13894E+06
 
   -0.14014E+06         0.98918E+06         0.00000E+00
    0.98918E+06         0.84599E+06         0.00000E+00
    0.00000E+00         0.00000E+00         0.14117E+06
 
   -0.12519E+06         0.10171E+07         0.00000E+00
    0.10171E+07         0.84208E+06         0.00000E+00
    0.00000E+00         0.00000E+00         0.14338E+06
 
   -0.11019E+06         0.10446E+07         0.00000E+00
    0.10446E+07         0.83802E+06         0.00000E+00
    0.00000E+00         0.00000E+00         0.14557E+06
 
   -0.95117E+05         0.10717E+07         0.00000E+00
    0.10717E+07         0.83381E+06         0.00000E+00
    0.00000E+00         0.00000E+00         0.14774E+06
 
   -0.79982E+05         0.10985E+07         0.00000E+00
    0.10985E+07         0.82943E+06         0.00000E+00
    0.00000E+00         0.00000E+00         0.14989E+06
 
   -0.64778E+05         0.11249E+07         0.00000E+00
    0.11249E+07         0.82490E+06         0.00000E+00
    0.00000E+00         0.00000E+00         0.15202E+06
 
   -0.49499E+05         0.11508E+07         0.00000E+00
    0.11508E+07         0.82020E+06         0.00000E+00
    0.00000E+00         0.00000E+00         0.15414E+06
 
   -0.34143E+05         0.11764E+07         0.00000E+00
    0.11764E+07         0.81533E+06         0.00000E+00
    0.00000E+00         0.00000E+00         0.15624E+06
 
   -0.18704E+05         0.12016E+07         0.00000E+00
    0.12016E+07         0.81029E+06         0.00000E+00
    0.00000E+00         0.00000E+00         0.15832E+06
 
   -0.31797E+04         0.12264E+07         0.00000E+00
    0.12264E+07         0.80508E+06         0.00000E+00
    0.00000E+00         0.00000E+00         0.16038E+06
 
    0.12435E+05         0.12509E+07         0.00000E+00
    0.12509E+07         0.79970E+06         0.00000E+00
    0.00000E+00         0.00000E+00         0.16243E+06
 
    0.28145E+05         0.12749E+07         0.00000E+00
    0.12749E+07         0.79414E+06         0.00000E+00
    0.00000E+00         0.00000E+00         0.16446E+06
 
    0.43954E+05         0.12985E+07         0.00000E+00
    0.12985E+07         0.78840E+06         0.00000E+00
    0.00000E+00         0.00000E+00         0.16647E+06
 
    0.59866E+05         0.13217E+07         0.00000E+00
    0.13217E+07         0.78247E+06         0.00000E+00
    0.00000E+00         0.00000E+00         0.16847E+06
 
    0.75887E+05         0.13445E+07         0.00000E+00
    0.13445E+07         0.77636E+06         0.00000E+00
    0.00000E+00         0.00000E+00         0.17045E+06
 
    0.92020E+05         0.13668E+07         0.00000E+00
    0.13668E+07         0.77005E+06         0.00000E+00
    0.00000E+00         0.00000E+00         0.17241E+06
 
    0.10827E+06         0.13888E+07         0.00000E+00
    0.13888E+07         0.76356E+06         0.00000E+00
    0.00000E+00         0.00000E+00         0.17437E+06
 
    0.12464E+06         0.14104E+07         0.00000E+00
    0.14104E+07         0.75686E+06         0.00000E+00
    0.00000E+00         0.00000E+00         0.17630E+06
 
    0.14115E+06         0.14315E+07         0.00000E+00
    0.14315E+07         0.74997E+06         0.00000E+00
    0.00000E+00         0.00000E+00         0.17822E+06
 
    0.15778E+06         0.14522E+07         0.00000E+00
    0.14522E+07         0.74287E+06         0.00000E+00
    0.00000E+00         0.00000E+00         0.18013E+06
 
    0.17455E+06         0.14725E+07         0.00000E+00
    0.14725E+07         0.73557E+06         0.00000E+00
    0.00000E+00         0.00000E+00         0.18202E+06
 
   -0.48860E+06         0.19365E+05         0.00000E+00
    0.19365E+05         0.77890E+06         0.00000E+00
    0.00000E+00         0.00000E+00         0.58060E+05
 
   -0.47624E+06         0.57273E+05         0.00000E+00
    0.57273E+05         0.77879E+06         0.00000E+00
    0.00000E+00         0.00000E+00         0.60510E+05
 
   -0.46386E+06         0.94828E+05         0.00000E+00
    0.94828E+05         0.77857E+06         0.00000E+00
    0.00000E+00         0.00000E+00         0.62942E+05
 
   -0.45147E+06         0.13203E+06         0.00000E+00
    0.13203E+06         0.77825E+06         0.00000E+00
    0.00000E+00         0.00000E+00         0.65356E+05
 
   -0.43906E+06         0.16888E+06         0.00000E+00
    0.16888E+06         0.77782E+06         0.00000E+00
    0.00000E+00         0.00000E+00         0.67752E+05
 
   -0.42663E+06         0.20537E+06         0.00000E+00
    0.20537E+06         0.77729E+06         0.00000E+00
    0.00000E+00         0.00000E+00         0.70130E+05
 
   -0.41419E+06         0.24150E+06         0.00000E+00
    0.24150E+06         0.77665E+06         0.00000E+00
    0.00000E+00         0.00000E+00         0.72491E+05
 
   -0.40174E+06         0.27728E+06         0.00000E+00
    0.27728E+06         0.77590E+06         0.00000E+00
    0.00000E+00         0.00000E+00         0.74832E+05
 
   -0.38927E+06         0.31269E+06         0.00000E+00
    0.31269E+06         0.77505E+06         0.00000E+00
    0.00000E+00         0.00000E+00         0.77156E+05
 
   -0.37678E+06         0.34775E+06         0.00000E+00
    0.34775E+06         0.77409E+06         0.00000E+00
    0.00000E+00         0.00000E+00         0.79461E+05
 
   -0.36429E+06         0.38244E+06         0.00000E+00
    0.38244E+06         0.77303E+06         0.00000E+00
    0.00000E+00         0.00000E+00         0.81748E+05
 
   -0.35178E+06         0.41677E+06         0.00000E+00
    0.41677E+06         0.77186E+06         0.00000E+00
    0.00000E+00         0.00000E+00         0.84016E+05
 
   -0.33925E+06         0.45074E+06         0.00000E+00
    0.45074E+06         0.77058E+06         0.00000E+00
    0.00000E+00         0.00000E+00         0.86266E+05
 
   -0.32671E+06         0.48434E+06         0.00000E+00
    0.48434E+06         0.76920E+06         0.00000E+00
    0.00000E+00         0.00000E+00         0.88497E+05
 
   -0.31416E+06         0.51757E+06         0.00000E+00
    0.51757E+06         0.76771E+06         0.00000E+00
    0.00000E+00         0.00000E+00         0.90710E+05
 
   -0.30159E+06         0.55044E+06         0.00000E+00
    0.55044E+06         0.76611E+06         0.00000E+00
    0.00000E+00         0.00000E+00         0.92904E+05
 
   -0.28900E+06         0.58294E+06         0.00000E+00
    0.58294E+06         0.76440E+06         0.00000E+00
    0.00000E+00         0.00000E+00         0.95080E+05
 
   -0.27639E+06         0.61507E+06         0.00000E+00
    0.61507E+06         0.76258E+06         0.00000E+00
    0.00000E+00         0.00000E+00         0.97237E+05
 
   -0.26377E+06         0.64683E+06         0.00000E+00
    0.64683E+06         0.76065E+06         0.00000E+00
    0.00000E+00         0.00000E+00         0.99376E+05
 
   -0.25112E+06         0.67821E+06         0.00000E+00
    0.67821E+06         0.75860E+06         0.00000E+00
    0.00000E+00         0.00000E+00         0.10150E+06
 
   -0.23845E+06         0.70923E+06         0.00000E+00
    0.70923E+06         0.75644E+06         0.00000E+00
    0.00000E+00         0.00000E+00         0.10360E+06
 
   -0.22575E+06         0.73986E+06         0.00000E+00
    0.73986E+06         0.75417E+06         0.00000E+00
    0.00000E+00         0.00000E+00         0.10568E+06
 
   -0.21303E+06         0.77012E+06         0.00000E+00
    0.77012E+06         0.75178E+06         0.00000E+00
    0.00000E+00         0.00000E+00         0.10775E+06
 
   -0.20028E+06         0.80001E+06         0.00000E+00
    0.80001E+06         0.74927E+06         0.00000E+00
    0.00000E+00         0.00000E+00         0.10980E+06
 
   -0.18750E+06         0.82951E+06         0.00000E+00
    0.82951E+06         0.74664E+06         0.00000E+00
    0.00000E+00         0.00000E+00         0.11183E+06
 
   -0.17468E+06         0.85863E+06         0.00000E+00
    0.85863E+06         0.74389E+06         0.00000E+00
    0.00000E+00         0.00000E+00         0.11384E+06
 
   -0.16183E+06         0.88737E+06         0.00000E+00
    0.88737E+06         0.74101E+06         0.00000E+00
    0.00000E+00         0.00000E+00         0.11584E+06
 
   -0.14895E+06         0.91572E+06         0.00000E+00
    0.91572E+06         0.73801E+06         0.00000E+00
    0.00000E+00         0.00000E+00         0.11781E+06
 
   -0.13602E+06         0.94369E+06         0.00000E+00
    0.94369E+06         0.73488E+06         0.00000E+00
    0.00000E+00         0.00000E+00         0.11977E+06
 
   -0.12304E+06         0.97127E+06         0.00000E+00
    0.97127E+06         0.73162E+06         0.00000E+00
    0.00000E+00         0.00000E+00         0.12172E+06
 
   -0.11002E+06         0.99846E+06         0.00000E+00
    0.99846E+06         0.72823E+06         0.00000E+00
    0.00000E+00         0.00000E+00         0.12364E+06
 
   -0.96955E+05         0.10253E+07         0.00000E+00
    0.10253E+07         0.72471E+06         0.00000E+00
    0.00000E+00         0.00000E+00         0.12555E+06
 
   -0.83833E+05         0.10517E+07         0.00000E+00
    0.10517E+07         0.72105E+06         0.00000E+00
    0.00000E+00         0.00000E+00         0.12744E+06
 
   -0.70654E+05         0.10777E+07         0.00000E+00
    0.10777E+07         0.71726E+06         0.00000E+00
    0.00000E+00         0.00000E+00         0.12932E+06
 
   -0.57417E+05         0.11033E+07         0.00000E+00
    0.11033E+07         0.71332E+06         0.00000E+00
    0.00000E+00         0.00000E+00         0.13118E+06
 
   -0.44116E+05         0.11285E+07         0.00000E+00
    0.11285E+07         0.70924E+06         0.00000E+00
    0.00000E+00         0.00000E+00         0.13302E+06
 
   -0.30749E+05         0.11533E+07         0.00000E+00
    0.11533E+07         0.70501E+06         0.00000E+00
    0.00000E+00         0.00000E+00         0.13485E+06
 
   -0.17312E+05         0.11777E+07         0.00000E+00
    0.11777E+07         0.70064E+06         0.00000E+00
    0.00000E+00         0.00000E+00         0.13667E+06
 
   -0.38013E+04         0.12017E+07         0.00000E+00
    0.12017E+07         0.69612E+06         0.00000E+00
    0.00000E+00         0.00000E+00         0.13846E+06
 
    0.97867E+04         0.12253E+07         0.00000E+00
    0.12253E+07         0.69144E+06         0.00000E+00
    0.00000E+00         0.00000E+00         0.14025E+06
 
    0.23456E+05         0.12484E+07         0.00000E+00
    0.12484E+07         0.68661E+06         0.00000E+00
    0.00000E+00         0.00000E+00         0.14201E+06
 
    0.37210E+05         0.12712E+07         0.00000E+00
    0.12712E+07         0.68162E+06         0.00000E+00
    0.00000E+00         0.00000E+00         0.14377E+06
 
    0.51054E+05         0.12935E+07         0.00000E+00
    0.12935E+07         0.67647E+06         0.00000E+00
    0.00000E+00         0.00000E+00         0.14551E+06
 
    0.64991E+05         0.13154E+07         0.00000E+00
    0.13154E+07         0.67116E+06         0.00000E+00
    0.00000E+00         0.00000E+00         0.14723E+06
 
    0.79025E+05         0.13369E+07         0.00000E+00
    0.13369E+07         0.66568E+06         0.00000E+00
    0.00000E+00         0.00000E+00         0.14894E+06
 
    0.93160E+05         0.13580E+07         0.00000E+00
    0.13580E+07         0.66004E+06         0.00000E+00
    0.00000E+00         0.00000E+00         0.15064E+06
 
    0.10740E+06         0.13786E+07         0.00000E+00
    0.13786E+07         0.65422E+06         0.00000E+00
    0.00000E+00         0.00000E+00         0.15232E+06
 
    0.12175E+06         0.13988E+07         0.00000E+00
    0.13988E+07         0.64823E+06         0.00000E+00
    0.00000E+00         0.00000E+00         0.15400E+06
 
    0.13622E+06         0.14185E+07         0.00000E+00
    0.14185E+07         0.64206E+06         0.00000E+00
    0.00000E+00         0.00000E+00         0.15566E+06
 
    0.15080E+06         0.14378E+07         0.00000E+00
    0.14378E+07         0.63571E+06         0.00000E+00
    0.00000E+00         0.00000E+00         0.15730E+06
 
   -0.41449E+06         0.19113E+05         0.00000E+00
    0.19113E+05         0.66385E+06         0.00000E+00
    0.00000E+00         0.00000E+00         0.49871E+05
 
   -0.40389E+06         0.56525E+05         0.00000E+00
    0.56525E+05         0.66376E+06         0.00000E+00
    0.00000E+00         0.00000E+00         0.51974E+05
 
   -0.39327E+06         0.93589E+05         0.00000E+00
    0.93589E+05         0.66358E+06         0.00000E+00
    0.00000E+00         0.00000E+00         0.54062E+05
 
   -0.38264E+06         0.13030E+06         0.00000E+00
    0.13030E+06         0.66331E+06         0.00000E+00
    0.00000E+00         0.00000E+00         0.56134E+05
 
   -0.37200E+06         0.16666E+06         0.00000E+00
    0.16666E+06         0.66295E+06         0.00000E+00
    0.00000E+00         0.00000E+00         0.58189E+05
 
   -0.36135E+06         0.20267E+06         0.00000E+00
    0.20267E+06         0.66250E+06         0.00000E+00
    0.00000E+00         0.00000E+00         0.60229E+05
 
   -0.35070E+06         0.23832E+06         0.00000E+00
    0.23832E+06         0.66197E+06         0.00000E+00
    0.00000E+00         0.00000E+00         0.62253E+05
 
   -0.34004E+06         0.27361E+06         0.00000E+00
    0.27361E+06         0.66134E+06         0.00000E+00
    0.00000E+00         0.00000E+00         0.64261E+05
 
   -0.32937E+06         0.30854E+06         0.00000E+00
    0.30854E+06         0.66063E+06         0.00000E+00
    0.00000E+00         0.00000E+00         0.66252E+05
 
   -0.31870E+06         0.34311E+06         0.00000E+00
    0.34311E+06         0.65983E+06         0.00000E+00
    0.00000E+00         0.00000E+00         0.68227E+05
 
   -0.30802E+06         0.37731E+06         0.00000E+00
    0.37731E+06         0.65895E+06         0.00000E+00
    0.00000E+00         0.00000E+00         0.70186E+05
 
   -0.29733E+06         0.41115E+06         0.00000E+00
    0.41115E+06         0.65797E+06         0.00000E+00
    0.00000E+00         0.00000E+00         0.72128E+05
 
   -0.28663E+06         0.44463E+06         0.00000E+00
    0.44463E+06         0.65690E+06         0.00000E+00
    0.00000E+00         0.00000E+00         0.74054E+05
 
   -0.27593E+06         0.47774E+06         0.00000E+00
    0.47774E+06         0.65575E+06         0.00000E+00
    0.00000E+00         0.00000E+00         0.75964E+05
 
   -0.26522E+06         0.51047E+06         0.00000E+00
    0.51047E+06         0.65450E+06         0.00000E+00
    0.00000E+00         0.00000E+00         0.77857E+05
 
   -0.25450E+06         0.54284E+06         0.00000E+00
    0.54284E+06         0.65317E+06         0.00000E+00
    0.00000E+00         0.00000E+00         0.79734E+05
 
   -0.24377E+06         0.57483E+06         0.00000E+00
    0.57483E+06         0.65174E+06         0.00000E+00
    0.00000E+00         0.00000E+00         0.81594E+05
 
   -0.23303E+06         0.60645E+06         0.00000E+00
    0.60645E+06         0.65022E+06         0.00000E+00
    0.00000E+00         0.00000E+00         0.83438E+05
 
   -0.22227E+06         0.63769E+06         0.00000E+00
    0.63769E+06         0.64860E+06         0.00000E+00
    0.00000E+00         0.00000E+00         0.85266E+05
 
   -0.21151E+06         0.66856E+06         0.00000E+00
    0.66856E+06         0.64690E+06         0.00000E+00
    0.00000E+00         0.00000E+00         0.87078E+05
 
   -0.20072E+06         0.69904E+06         0.00000E+00
    0.69904E+06         0.64509E+06         0.00000E+00
    0.00000E+00         0.00000E+00         0.88873E+05
 
   -0.18993E+06         0.72914E+06         0.00000E+00
    0.72914E+06         0.64319E+06         0.00000E+00
    0.00000E+00         0.00000E+00         0.90653E+05
 
   -0.17911E+06         0.75886E+06         0.00000E+00
    0.75886E+06         0.64119E+06         0.00000E+00
    0.00000E+00         0.00000E+00         0.92416E+05
 
   -0.16827E+06         0.78819E+06         0.00000E+00
    0.78819E+06         0.63909E+06         0.00000E+00
    0.00000E+00         0.00000E+00         0.94163E+05
 
   -0.15741E+06         0.81714E+06         0.00000E+00
    0.81714E+06         0.63689E+06         0.00000E+00
    0.00000E+00         0.00000E+00         0.95895E+05
 
   -0.14653E+06         0.84569E+06         0.00000E+00
    0.84569E+06         0.63458E+06         0.00000E+00
    0.00000E+00         0.00000E+00         0.97611E+05
 
   -0.13562E+06         0.87386E+06         0.00000E+00
    0.87386E+06         0.63218E+06         0.00000E+00
    0.00000E+00         0.00000E+00         0.99311E+05
 
   -0.12468E+06         0.90163E+06         0.00000E+00
    0.90163E+06         0.62966E+06         0.00000E+00
    0.00000E+00         0.00000E+00         0.10100E+06
 
   -0.11371E+06         0.92900E+06         0.00000E+00
    0.92900E+06         0.62704E+06         0.00000E+00
    0.00000E+00         0.00000E+00         0.10267E+06
 
   -0.10271E+06         0.95598E+06         0.00000E+00
    0.95598E+06         0.62431E+06         0.00000E+00
    0.00000E+00         0.00000E+00         0.10432E+06
 
   -0.91669E+05         0.98256E+06         0.00000E+00
    0.98256E+06         0.62147E+06         0.00000E+00
    0.00000E+00         0.00000E+00         0.10596E+06
 
   -0.80591E+05         0.10087E+07         0.00000E+00
    0.10087E+07         0.61851E+06         0.00000E+00
    0.00000E+00         0.00000E+00         0.10758E+06
 
   -0.69471E+05         0.10345E+07         0.00000E+00
    0.10345E+07         0.61544E+06         0.00000E+00
    0.00000E+00         0.00000E+00         0.10919E+06
 
   -0.58306E+05         0.10599E+07         0.00000E+00
    0.10599E+07         0.61225E+06         0.00000E+00
    0.00000E+00         0.00000E+00         0.11079E+06
 
   -0.47094E+05         0.10848E+07         0.00000E+00
    0.10848E+07         0.60895E+06         0.00000E+00
    0.00000E+00         0.00000E+00         0.11237E+06
 
   -0.35832E+05         0.11094E+07         0.00000E+00
    0.11094E+07         0.60552E+06         0.00000E+00
    0.00000E+00         0.00000E+00         0.11394E+06
 
   -0.24516E+05         0.11335E+07         0.00000E+00
    0.11335E+07         0.60197E+06         0.00000E+00
    0.00000E+00         0.00000E+00         0.11549E+06
 
   -0.13143E+05         0.11572E+07         0.00000E+00
    0.11572E+07         0.59829E+06         0.00000E+00
    0.00000E+00         0.00000E+00         0.11703E+06
 
   -0.17095E+04         0.11805E+07         0.00000E+00
    0.11805E+07         0.59449E+06         0.00000E+00
    0.00000E+00         0.00000E+00         0.11856E+06
 
    0.97871E+04         0.12034E+07         0.00000E+00
    0.12034E+07         0.59055E+06         0.00000E+00
    0.00000E+00         0.00000E+00         0.12007E+06
 
    0.21351E+05         0.12258E+07         0.00000E+00
    0.12258E+07         0.58648E+06         0.00000E+00
    0.00000E+00         0.00000E+00         0.12157E+06
 
    0.32984E+05         0.12478E+07         0.00000E+00
    0.12478E+07         0.58228E+06         0.00000E+00
    0.00000E+00         0.00000E+00         0.12305E+06
 
    0.44692E+05         0.12694E+07         0.00000E+00
    0.12694E+07         0.57795E+06         0.00000E+00
    0.00000E+00         0.00000E+00         0.12453E+06
 
    0.56477E+05         0.12906E+07         0.00000E+00
    0.12906E+07         0.57347E+06         0.00000E+00
    0.00000E+00         0.00000E+00         0.12599E+06
 
    0.68342E+05         0.13113E+07         0.00000E+00
    0.13113E+07         0.56885E+06         0.00000E+00
    0.00000E+00         0.00000E+00         0.12744E+06
 
    0.80293E+05         0.13315E+07         0.00000E+00
    0.13315E+07         0.56409E+06         0.00000E+00
    0.00000E+00         0.00000E+00         0.12888E+06
 
    0.92332E+05         0.13514E+07         0.00000E+00
    0.13514E+07         0.55918E+06         0.00000E+00
    0.00000E+00         0.00000E+00         0.13030E+06
 
    0.10446E+06         0.13707E+07         0.00000E+00
    0.13707E+07         0.55412E+06         0.00000E+00
    0.00000E+00         0.00000E+00         0.13172E+06
 
    0.11669E+06         0.13896E+07         0.00000E+00
    0.13896E+07         0.54891E+06         0.00000E+00
    0.00000E+00         0.00000E+00         0.13312E+06
 
    0.12902E+06         0.14081E+07         0.00000E+00
    0.14081E+07         0.54354E+06         0.00000E+00
    0.00000E+00         0.00000E+00         0.13451E+06
 
   -0.33704E+06         0.18907E+05         0.00000E+00
    0.18907E+05         0.55440E+06         0.00000E+00
    0.00000E+00         0.00000E+00         0.43473E+05
 
   -0.32816E+06         0.55917E+05         0.00000E+00
    0.55917E+05         0.55433E+06         0.00000E+00
    0.00000E+00         0.00000E+00         0.45234E+05
 
   -0.31929E+06         0.92580E+05         0.00000E+00
    0.92580E+05         0.55419E+06         0.00000E+00
    0.00000E+00         0.00000E+00         0.46980E+05
 
   -0.31041E+06         0.12890E+06         0.00000E+00
    0.12890E+06         0.55398E+06         0.00000E+00
    0.00000E+00         0.00000E+00         0.48712E+05
 
   -0.30154E+06         0.16486E+06         0.00000E+00
    0.16486E+06         0.55369E+06         0.00000E+00
    0.00000E+00         0.00000E+00         0.50431E+05
 
   -0.29267E+06         0.20047E+06         0.00000E+00
    0.20047E+06         0.55334E+06         0.00000E+00
    0.00000E+00         0.00000E+00         0.52134E+05
 
   -0.28380E+06         0.23572E+06         0.00000E+00
    0.23572E+06         0.55292E+06         0.00000E+00
    0.00000E+00         0.00000E+00         0.53824E+05
 
   -0.27493E+06         0.27062E+06         0.00000E+00
    0.27062E+06         0.55243E+06         0.00000E+00
    0.00000E+00         0.00000E+00         0.55499E+05
 
   -0.26607E+06         0.30516E+06         0.00000E+00
    0.30516E+06         0.55187E+06         0.00000E+00
    0.00000E+00         0.00000E+00         0.57160E+05
 
   -0.25721E+06         0.33933E+06         0.00000E+00
    0.33933E+06         0.55124E+06         0.00000E+00
    0.00000E+00         0.00000E+00         0.58806E+05
 
   -0.24835E+06         0.37314E+06         0.00000E+00
    0.37314E+06         0.55054E+06         0.00000E+00
    0.00000E+00         0.00000E+00         0.60437E+05
 
   -0.23950E+06         0.40658E+06         0.00000E+00
    0.40658E+06         0.54977E+06         0.00000E+00
    0.00000E+00         0.00000E+00         0.62054E+05
 
   -0.23065E+06         0.43966E+06         0.00000E+00
    0.43966E+06         0.54893E+06         0.00000E+00
    0.00000E+00         0.00000E+00         0.63657E+05
 
   -0.22179E+06         0.47236E+06         0.00000E+00
    0.47236E+06         0.54802E+06         0.00000E+00
    0.00000E+00         0.00000E+00         0.65244E+05
 
   -0.21295E+06         0.50469E+06         0.00000E+00
    0.50469E+06         0.54703E+06         0.00000E+00
    0.00000E+00         0.00000E+00         0.66818E+05
 
   -0.20410E+06         0.53665E+06         0.00000E+00
    0.53665E+06         0.54598E+06         0.00000E+00
    0.00000E+00         0.00000E+00         0.68376E+05
 
   -0.19525E+06         0.56822E+06         0.00000E+00
    0.56822E+06         0.54485E+06         0.00000E+00
    0.00000E+00         0.00000E+00         0.69921E+05
 
   -0.18640E+06         0.59942E+06         0.00000E+00
    0.59942E+06         0.54365E+06         0.00000E+00
    0.00000E+00         0.00000E+00         0.71450E+05
 
   -0.17754E+06         0.63024E+06         0.00000E+00
    0.63024E+06         0.54237E+06         0.00000E+00
    0.00000E+00         0.00000E+00         0.72966E+05
 
   -0.16868E+06         0.66068E+06         0.00000E+00
    0.66068E+06         0.54102E+06         0.00000E+00
    0.00000E+00         0.00000E+00         0.74467E+05
 
   -0.15982E+06         0.69072E+06         0.00000E+00
    0.69072E+06         0.53959E+06         0.00000E+00
    0.00000E+00         0.00000E+00         0.75953E+05
 
   -0.15095E+06         0.72038E+06         0.00000E+00
    0.72038E+06         0.53808E+06         0.00000E+00
    0.00000E+00         0.00000E+00         0.77425E+05
 
   -0.14207E+06         0.74966E+06         0.00000E+00
    0.74966E+06         0.53649E+06         0.00000E+00
    0.00000E+00         0.00000E+00         0.78884E+05
 
   -0.13319E+06         0.77853E+06         0.00000E+00
    0.77853E+06         0.53482E+06         0.00000E+00
    0.00000E+00         0.00000E+00         0.80328E+05
 
   -0.12429E+06         0.80702E+06         0.00000E+00
    0.80702E+06         0.53308E+06         0.00000E+00
    0.00000E+00         0.00000E+00         0.81758E+05
 
   -0.11537E+06         0.83511E+06         0.00000E+00
    0.83511E+06         0.53124E+06         0.00000E+00
    0.00000E+00         0.00000E+00         0.83174E+05
 
   -0.10645E+06         0.86279E+06         0.00000E+00
    0.86279E+06         0.52933E+06         0.00000E+00
    0.00000E+00         0.00000E+00         0.84577E+05
 
   -0.97500E+05         0.89008E+06         0.00000E+00
    0.89008E+06         0.52733E+06         0.00000E+00
    0.00000E+00         0.00000E+00         0.85965E+05
 
   -0.88535E+05         0.91696E+06         0.00000E+00
    0.91696E+06         0.52524E+06         0.00000E+00
    0.00000E+00         0.00000E+00         0.87341E+05
 
   -0.79547E+05         0.94344E+06         0.00000E+00
    0.94344E+06         0.52306E+06         0.00000E+00
    0.00000E+00         0.00000E+00         0.88703E+05
 
   -0.70535E+05         0.96951E+06         0.00000E+00
    0.96951E+06         0.52079E+06         0.00000E+00
    0.00000E+00         0.00000E+00         0.90051E+05
 
   -0.61497E+05         0.99517E+06         0.00000E+00
    0.99517E+06         0.51843E+06         0.00000E+00
    0.00000E+00         0.00000E+00         0.91387E+05
 
   -0.52429E+05         0.10204E+07         0.00000E+00
    0.10204E+07         0.51598E+06         0.00000E+00
    0.00000E+00         0.00000E+00         0.92709E+05
 
   -0.43329E+05         0.10452E+07         0.00000E+00
    0.10452E+07         0.51343E+06         0.00000E+00
    0.00000E+00         0.00000E+00         0.94019E+05
 
   -0.34195E+05         0.10696E+07         0.00000E+00
    0.10696E+07         0.51078E+06         0.00000E+00
    0.00000E+00         0.00000E+00         0.95316E+05
 
   -0.25024E+05         0.10936E+07         0.00000E+00
    0.10936E+07         0.50803E+06         0.00000E+00
    0.00000E+00         0.00000E+00         0.96601E+05
 
   -0.15813E+05         0.11172E+07         0.00000E+00
    0.11172E+07         0.50518E+06         0.00000E+00
    0.00000E+00         0.00000E+00         0.97874E+05
 
   -0.65594E+04         0.11403E+07         0.00000E+00
    0.11403E+07         0.50223E+06         0.00000E+00
    0.00000E+00         0.00000E+00         0.99134E+05
 
    0.27400E+04         0.11630E+07         0.00000E+00
    0.11630E+07         0.49917E+06         0.00000E+00
    0.00000E+00         0.00000E+00         0.10038E+06
 
    0.12088E+05         0.11853E+07         0.00000E+00
    0.11853E+07         0.49601E+06         0.00000E+00
    0.00000E+00         0.00000E+00         0.10162E+06
 
    0.21487E+05         0.12071E+07         0.00000E+00
    0.12071E+07         0.49273E+06         0.00000E+00
    0.00000E+00         0.00000E+00         0.10284E+06
 
    0.30942E+05         0.12285E+07         0.00000E+00
    0.12285E+07         0.48935E+06         0.00000E+00
    0.00000E+00         0.00000E+00         0.10406E+06
 
    0.40454E+05         0.12495E+07         0.00000E+00
    0.12495E+07         0.48585E+06         0.00000E+00
    0.00000E+00         0.00000E+00         0.10526E+06
 
    0.50027E+05         0.12700E+07         0.00000E+00
    0.12700E+07         0.48224E+06         0.00000E+00
    0.00000E+00         0.00000E+00         0.10645E+06
 
    0.59664E+05         0.12900E+07         0.00000E+00
    0.12900E+07         0.47851E+06         0.00000E+00
    0.00000E+00         0.00000E+00         0.10763E+06
 
    0.69369E+05         0.13096E+07         0.00000E+00
    0.13096E+07         0.47466E+06         0.00000E+00
    0.00000E+00         0.00000E+00         0.10881E+06
 
    0.79144E+05         0.13288E+07         0.00000E+00
    0.13288E+07         0.47069E+06         0.00000E+00
    0.00000E+00         0.00000E+00         0.10997E+06
 
    0.88993E+05         0.13475E+07         0.00000E+00
    0.13475E+07         0.46659E+06         0.00000E+00
    0.00000E+00         0.00000E+00         0.11112E+06
 
    0.98920E+05         0.13657E+07         0.00000E+00
    0.13657E+07         0.46237E+06         0.00000E+00
    0.00000E+00         0.00000E+00         0.11226E+06
 
    0.10893E+06         0.13835E+07         0.00000E+00
    0.13835E+07         0.45802E+06         0.00000E+00
    0.00000E+00         0.00000E+00         0.11339E+06
 
   -0.25666E+06         0.18752E+05         0.00000E+00
    0.18752E+05         0.44966E+06         0.00000E+00
    0.00000E+00         0.00000E+00         0.38599E+05
 
   -0.24951E+06         0.55457E+05         0.00000E+00
    0.55457E+05         0.44961E+06         0.00000E+00
    0.00000E+00         0.00000E+00         0.40020E+05
 
   -0.24237E+06         0.91818E+05         0.00000E+00
    0.91818E+05         0.44950E+06         0.00000E+00
    0.00000E+00         0.00000E+00         0.41428E+05
 
   -0.23524E+06         0.12783E+06         0.00000E+00
    0.12783E+06         0.44935E+06         0.00000E+00
    0.00000E+00         0.00000E+00         0.42823E+05
 
   -0.22812E+06         0.16350E+06         0.00000E+00
    0.16350E+06         0.44915E+06         0.00000E+00
    0.00000E+00         0.00000E+00         0.44205E+05
 
   -0.22102E+06         0.19881E+06         0.00000E+00
    0.19881E+06         0.44890E+06         0.00000E+00
    0.00000E+00         0.00000E+00         0.45575E+05
 
   -0.21394E+06         0.23376E+06         0.00000E+00
    0.23376E+06         0.44860E+06         0.00000E+00
    0.00000E+00         0.00000E+00         0.46932E+05
 
   -0.20687E+06         0.26836E+06         0.00000E+00
    0.26836E+06         0.44825E+06         0.00000E+00
    0.00000E+00         0.00000E+00         0.48276E+05
 
   -0.19981E+06         0.30260E+06         0.00000E+00
    0.30260E+06         0.44784E+06         0.00000E+00
    0.00000E+00         0.00000E+00         0.49606E+05
 
   -0.19277E+06         0.33647E+06         0.00000E+00
    0.33647E+06         0.44739E+06         0.00000E+00
    0.00000E+00         0.00000E+00         0.50924E+05
 
   -0.18575E+06         0.36998E+06         0.00000E+00
    0.36998E+06         0.44689E+06         0.00000E+00
    0.00000E+00         0.00000E+00         0.52229E+05
 
   -0.17874E+06         0.40312E+06         0.00000E+00
    0.40312E+06         0.44634E+06         0.00000E+00
    0.00000E+00         0.00000E+00         0.53521E+05
 
   -0.17174E+06         0.43589E+06         0.00000E+00
    0.43589E+06         0.44574E+06         0.00000E+00
    0.00000E+00         0.00000E+00         0.54800E+05
 
   -0.16475E+06         0.46828E+06         0.00000E+00
    0.46828E+06         0.44508E+06         0.00000E+00
    0.00000E+00         0.00000E+00         0.56065E+05
 
   -0.15778E+06         0.50030E+06         0.00000E+00
    0.50030E+06         0.44437E+06         0.00000E+00
    0.00000E+00         0.00000E+00         0.57318E+05
 
   -0.15082E+06         0.53194E+06         0.00000E+00
    0.53194E+06         0.44361E+06         0.00000E+00
    0.00000E+00         0.00000E+00         0.58558E+05
 
   -0.14387E+06         0.56320E+06         0.00000E+00
    0.56320E+06         0.44280E+06         0.00000E+00
    0.00000E+00         0.00000E+00         0.59785E+05
 
   -0.13693E+06         0.59408E+06         0.00000E+00
    0.59408E+06         0.44193E+06         0.00000E+00
    0.00000E+00         0.00000E+00         0.60999E+05
 
   -0.13000E+06         0.62457E+06         0.00000E+00
    0.62457E+06         0.44101E+06         0.00000E+00
    0.00000E+00         0.00000E+00         0.62201E+05
 
   -0.12308E+06         0.65467E+06         0.00000E+00
    0.65467E+06         0.44003E+06         0.00000E+00
    0.00000E+00         0.00000E+00         0.63389E+05
 
   -0.11617E+06         0.68438E+06         0.00000E+00
    0.68438E+06         0.43899E+06         0.00000E+00
    0.00000E+00         0.00000E+00         0.64565E+05
 
   -0.10925E+06         0.71370E+06         0.00000E+00
    0.71370E+06         0.43790E+06         0.00000E+00
    0.00000E+00         0.00000E+00         0.65728E+05
 
   -0.10235E+06         0.74262E+06         0.00000E+00
    0.74262E+06         0.43674E+06         0.00000E+00
    0.00000E+00         0.00000E+00         0.66879E+05
 
   -0.95442E+05         0.77114E+06         0.00000E+00
    0.77114E+06         0.43553E+06         0.00000E+00
    0.00000E+00         0.00000E+00         0.68017E+05
 
   -0.88536E+05         0.79927E+06         0.00000E+00
    0.79927E+06         0.43425E+06         0.00000E+00
    0.00000E+00         0.00000E+00         0.69143E+05
 
   -0.81630E+05         0.82698E+06         0.00000E+00
    0.82698E+06         0.43292E+06         0.00000E+00
    0.00000E+00         0.00000E+00         0.70257E+05
 
   -0.74720E+05         0.85430E+06         0.00000E+00
    0.85430E+06         0.43151E+06         0.00000E+00
    0.00000E+00         0.00000E+00         0.71359E+05
 
   -0.67805E+05         0.88120E+06         0.00000E+00
    0.88120E+06         0.43005E+06         0.00000E+00
    0.00000E+00         0.00000E+00         0.72448E+05
 
   -0.60883E+05         0.90770E+06         0.00000E+00
    0.90770E+06         0.42851E+06         0.00000E+00
    0.00000E+00         0.00000E+00         0.73526E+05
 
   -0.53952E+05         0.93378E+06         0.00000E+00
    0.93378E+06         0.42691E+06         0.00000E+00
    0.00000E+00         0.00000E+00         0.74592E+05
 
   -0.47009E+05         0.95944E+06         0.00000E+00
    0.95944E+06         0.42524E+06         0.00000E+00
    0.00000E+00         0.00000E+00         0.75646E+05
 
   -0.40054E+05         0.98469E+06         0.00000E+00
    0.98469E+06         0.42350E+06         0.00000E+00
    0.00000E+00         0.00000E+00         0.76689E+05
 
   -0.33082E+05         0.10095E+07         0.00000E+00
    0.10095E+07         0.42168E+06         0.00000E+00
    0.00000E+00         0.00000E+00         0.77720E+05
 
   -0.26093E+05         0.10339E+07         0.00000E+00
    0.10339E+07         0.41979E+06         0.00000E+00
    0.00000E+00         0.00000E+00         0.78740E+05
 
   -0.19083E+05         0.10579E+07         0.00000E+00
    0.10579E+07         0.41783E+06         0.00000E+00
    0.00000E+00         0.00000E+00         0.79749E+05
 
   -0.12051E+05         0.10814E+07         0.00000E+00
    0.10814E+07         0.41579E+06         0.00000E+00
    0.00000E+00         0.00000E+00         0.80747E+05
 
   -0.49931E+04         0.11045E+07         0.00000E+00
    0.11045E+07         0.41367E+06         0.00000E+00
    0.00000E+00         0.00000E+00         0.81735E+05
 
    0.20923E+04         0.11272E+07         0.00000E+00
    0.11272E+07         0.41147E+06         0.00000E+00
    0.00000E+00         0.00000E+00         0.82711E+05
 
    0.92080E+04         0.11494E+07         0.00000E+00
    0.11494E+07         0.40918E+06         0.00000E+00
    0.00000E+00         0.00000E+00         0.83678E+05
 
    0.16357E+05         0.11712E+07         0.00000E+00
    0.11712E+07         0.40681E+06         0.00000E+00
    0.00000E+00         0.00000E+00         0.84634E+05
 
    0.23541E+05         0.11926E+07         0.00000E+00
    0.11926E+07         0.40436E+06         0.00000E+00
    0.00000E+00         0.00000E+00         0.85580E+05
 
    0.30764E+05         0.12134E+07         0.00000E+00
    0.12134E+07         0.40182E+06         0.00000E+00
    0.00000E+00         0.00000E+00         0.86516E+05
 
    0.38028E+05         0.12339E+07         0.00000E+00
    0.12339E+07         0.39918E+06         0.00000E+00
    0.00000E+00         0.00000E+00         0.87442E+05
 
    0.45336E+05         0.12539E+07         0.00000E+00
    0.12539E+07         0.39646E+06         0.00000E+00
    0.00000E+00         0.00000E+00         0.88359E+05
 
    0.52691E+05         0.12734E+07         0.00000E+00
    0.12734E+07         0.39364E+06         0.00000E+00
    0.00000E+00         0.00000E+00         0.89267E+05
 
    0.60095E+05         0.12924E+07         0.00000E+00
    0.12924E+07         0.39073E+06         0.00000E+00
    0.00000E+00         0.00000E+00         0.90165E+05
 
    0.67553E+05         0.13110E+07         0.00000E+00
    0.13110E+07         0.38772E+06         0.00000E+00
    0.00000E+00         0.00000E+00         0.91055E+05
 
    0.75065E+05         0.13292E+07         0.00000E+00
    0.13292E+07         0.38461E+06         0.00000E+00
    0.00000E+00         0.00000E+00         0.91936E+05
 
    0.82637E+05         0.13468E+07         0.00000E+00
    0.13468E+07         0.38140E+06         0.00000E+00
    0.00000E+00         0.00000E+00         0.92808E+05
 
    0.90270E+05         0.13640E+07         0.00000E+00
    0.13640E+07         0.37809E+06         0.00000E+00
    0.00000E+00         0.00000E+00         0.93672E+05
 
   -0.17376E+06         0.18649E+05         0.00000E+00
    0.18649E+05         0.34871E+06         0.00000E+00
    0.00000E+00         0.00000E+00         0.34991E+05
 
   -0.16831E+06         0.55154E+05         0.00000E+00
    0.55154E+05         0.34868E+06         0.00000E+00
    0.00000E+00         0.00000E+00         0.36074E+05
 
   -0.16289E+06         0.91316E+05         0.00000E+00
    0.91316E+05         0.34862E+06         0.00000E+00
    0.00000E+00         0.00000E+00         0.37145E+05
 
   -0.15751E+06         0.12713E+06         0.00000E+00
    0.12713E+06         0.34853E+06         0.00000E+00
    0.00000E+00         0.00000E+00         0.38205E+05
 
   -0.15215E+06         0.16260E+06         0.00000E+00
    0.16260E+06         0.34842E+06         0.00000E+00
    0.00000E+00         0.00000E+00         0.39254E+05
 
   -0.14682E+06         0.19771E+06         0.00000E+00
    0.19771E+06         0.34827E+06         0.00000E+00
    0.00000E+00         0.00000E+00         0.40290E+05
 
   -0.14152E+06         0.23247E+06         0.00000E+00
    0.23247E+06         0.34809E+06         0.00000E+00
    0.00000E+00         0.00000E+00         0.41315E+05
 
   -0.13625E+06         0.26687E+06         0.00000E+00
    0.26687E+06         0.34789E+06         0.00000E+00
    0.00000E+00         0.00000E+00         0.42328E+05
 
   -0.13101E+06         0.30091E+06         0.00000E+00
    0.30091E+06         0.34765E+06         0.00000E+00
    0.00000E+00         0.00000E+00         0.43330E+05
 
   -0.12579E+06         0.33458E+06         0.00000E+00
    0.33458E+06         0.34739E+06         0.00000E+00
    0.00000E+00         0.00000E+00         0.44320E+05
 
   -0.12061E+06         0.36788E+06         0.00000E+00
    0.36788E+06         0.34710E+06         0.00000E+00
    0.00000E+00         0.00000E+00         0.45298E+05
 
   -0.11545E+06         0.40082E+06         0.00000E+00
    0.40082E+06         0.34677E+06         0.00000E+00
    0.00000E+00         0.00000E+00         0.46264E+05
 
   -0.11032E+06         0.43338E+06         0.00000E+00
    0.43338E+06         0.34642E+06         0.00000E+00
    0.00000E+00         0.00000E+00         0.47219E+05
 
   -0.10522E+06         0.46556E+06         0.00000E+00
    0.46556E+06         0.34603E+06         0.00000E+00
    0.00000E+00         0.00000E+00         0.48162E+05
 
   -0.10014E+06         0.49737E+06         0.00000E+00
    0.49737E+06         0.34561E+06         0.00000E+00
    0.00000E+00         0.00000E+00         0.49094E+05
 
   -0.95086E+05         0.52879E+06         0.00000E+00
    0.52879E+06         0.34516E+06         0.00000E+00
    0.00000E+00         0.00000E+00         0.50014E+05
 
   -0.90058E+05         0.55983E+06         0.00000E+00
    0.55983E+06         0.34467E+06         0.00000E+00
    0.00000E+00         0.00000E+00         0.50923E+05
 
   -0.85052E+05         0.59049E+06         0.00000E+00
    0.59049E+06         0.34415E+06         0.00000E+00
    0.00000E+00         0.00000E+00         0.51820E+05
 
   -0.80068E+05         0.62075E+06         0.00000E+00
    0.62075E+06         0.34360E+06         0.00000E+00
    0.00000E+00         0.00000E+00         0.52706E+05
 
   -0.75105E+05         0.65062E+06         0.00000E+00
    0.65062E+06         0.34301E+06         0.00000E+00
    0.00000E+00         0.00000E+00         0.53580E+05
 
   -0.70161E+05         0.68009E+06         0.00000E+00
    0.68009E+06         0.34238E+06         0.00000E+00
    0.00000E+00         0.00000E+00         0.54444E+05
 
   -0.65235E+05         0.70917E+06         0.00000E+00
    0.70917E+06         0.34171E+06         0.00000E+00
    0.00000E+00         0.00000E+00         0.55296E+05
 
   -0.60325E+05         0.73784E+06         0.00000E+00
    0.73784E+06         0.34101E+06         0.00000E+00
    0.00000E+00         0.00000E+00         0.56137E+05
 
   -0.55431E+05         0.76611E+06         0.00000E+00
    0.76611E+06         0.34027E+06         0.00000E+00
    0.00000E+00         0.00000E+00         0.56967E+05
 
   -0.50551E+05         0.79398E+06         0.00000E+00
    0.79398E+06         0.33948E+06         0.00000E+00
    0.00000E+00         0.00000E+00         0.57786E+05
 
   -0.45682E+05         0.82143E+06         0.00000E+00
    0.82143E+06         0.33866E+06         0.00000E+00
    0.00000E+00         0.00000E+00         0.58595E+05
 
   -0.40824E+05         0.84848E+06         0.00000E+00
    0.84848E+06         0.33779E+06         0.00000E+00
    0.00000E+00         0.00000E+00         0.59393E+05
 
   -0.35974E+05         0.87510E+06         0.00000E+00
    0.87510E+06         0.33687E+06         0.00000E+00
    0.00000E+00         0.00000E+00         0.60180E+05
 
   -0.31131E+05         0.90131E+06         0.00000E+00
    0.90131E+06         0.33592E+06         0.00000E+00
    0.00000E+00         0.00000E+00         0.60957E+05
 
   -0.26293E+05         0.92710E+06         0.00000E+00
    0.92710E+06         0.33491E+06         0.00000E+00
    0.00000E+00         0.00000E+00         0.61724E+05
 
   -0.21457E+05         0.95247E+06         0.00000E+00
    0.95247E+06         0.33386E+06         0.00000E+00
    0.00000E+00         0.00000E+00         0.62480E+05
 
   -0.16623E+05         0.97741E+06         0.00000E+00
    0.97741E+06         0.33275E+06         0.00000E+00
    0.00000E+00         0.00000E+00         0.63226E+05
 
   -0.11787E+05         0.10019E+07         0.00000E+00
    0.10019E+07         0.33160E+06         0.00000E+00
    0.00000E+00         0.00000E+00         0.63963E+05
 
   -0.69486E+04         0.10260E+07         0.00000E+00
    0.10260E+07         0.33039E+06         0.00000E+00
    0.00000E+00         0.00000E+00         0.64689E+05
 
   -0.21045E+04         0.10496E+07         0.00000E+00
    0.10496E+07         0.32914E+06         0.00000E+00
    0.00000E+00         0.00000E+00         0.65406E+05
 
    0.27472E+04         0.10728E+07         0.00000E+00
    0.10728E+07         0.32782E+06         0.00000E+00
    0.00000E+00         0.00000E+00         0.66114E+05
 
    0.76086E+04         0.10956E+07         0.00000E+00
    0.10956E+07         0.32645E+06         0.00000E+00
    0.00000E+00         0.00000E+00         0.66812E+05
 
    0.12482E+05         0.11179E+07         0.00000E+00
    0.11179E+07         0.32502E+06         0.00000E+00
    0.00000E+00         0.00000E+00         0.67500E+05
 
    0.17370E+05         0.11398E+07         0.00000E+00
    0.11398E+07         0.32353E+06         0.00000E+00
    0.00000E+00         0.00000E+00         0.68180E+05
 
    0.22275E+05         0.11612E+07         0.00000E+00
    0.11612E+07         0.32198E+06         0.00000E+00
    0.00000E+00         0.00000E+00         0.68851E+05
 
    0.27198E+05         0.11822E+07         0.00000E+00
    0.11822E+07         0.32037E+06         0.00000E+00
    0.00000E+00         0.00000E+00         0.69513E+05
 
    0.32144E+05         0.12027E+07         0.00000E+00
    0.12027E+07         0.31869E+06         0.00000E+00
    0.00000E+00         0.00000E+00         0.70167E+05
 
    0.37113E+05         0.12227E+07         0.00000E+00
    0.12227E+07         0.31695E+06         0.00000E+00
    0.00000E+00         0.00000E+00         0.70812E+05
 
    0.42109E+05         0.12423E+07         0.00000E+00
    0.12423E+07         0.31514E+06         0.00000E+00
    0.00000E+00         0.00000E+00         0.71449E+05
 
    0.47134E+05         0.12614E+07         0.00000E+00
    0.12614E+07         0.31326E+06         0.00000E+00
    0.00000E+00         0.00000E+00         0.72078E+05
 
    0.52191E+05         0.12801E+07         0.00000E+00
    0.12801E+07         0.31130E+06         0.00000E+00
    0.00000E+00         0.00000E+00         0.72699E+05
 
    0.57282E+05         0.12982E+07         0.00000E+00
    0.12982E+07         0.30928E+06         0.00000E+00
    0.00000E+00         0.00000E+00         0.73312E+05
 
    0.62409E+05         0.13159E+07         0.00000E+00
    0.13159E+07         0.30718E+06         0.00000E+00
    0.00000E+00         0.00000E+00         0.73918E+05
 
    0.67577E+05         0.13331E+07         0.00000E+00
    0.13331E+07         0.30501E+06         0.00000E+00
    0.00000E+00         0.00000E+00         0.74516E+05
 
    0.72786E+05         0.13498E+07         0.00000E+00
    0.13498E+07         0.30275E+06         0.00000E+00
    0.00000E+00         0.00000E+00         0.75108E+05
 
   -0.88673E+05         0.18602E+05         0.00000E+00
    0.18602E+05         0.25067E+06         0.00000E+00
    0.00000E+00         0.00000E+00         0.32400E+05
 
   -0.84932E+05         0.55015E+05         0.00000E+00
    0.55015E+05         0.25067E+06         0.00000E+00
    0.00000E+00         0.00000E+00         0.33147E+05
 
   -0.81238E+05         0.91085E+05         0.00000E+00
    0.91085E+05         0.25065E+06         0.00000E+00
    0.00000E+00         0.00000E+00         0.33883E+05
 
   -0.77589E+05         0.12681E+06         0.00000E+00
    0.12681E+06         0.25063E+06         0.00000E+00
    0.00000E+00         0.00000E+00         0.34608E+05
 
   -0.73987E+05         0.16218E+06         0.00000E+00
    0.16218E+06         0.25060E+06         0.00000E+00
    0.00000E+00         0.00000E+00         0.35323E+05
 
   -0.70430E+05         0.19721E+06         0.00000E+00
    0.19721E+06         0.25056E+06         0.00000E+00
    0.00000E+00         0.00000E+00         0.36027E+05
 
   -0.66918E+05         0.23187E+06         0.00000E+00
    0.23187E+06         0.25052E+06         0.00000E+00
    0.00000E+00         0.00000E+00         0.36720E+05
 
   -0.63452E+05         0.26617E+06         0.00000E+00
    0.26617E+06         0.25047E+06         0.00000E+00
    0.00000E+00         0.00000E+00         0.37403E+05
 
   -0.60030E+05         0.30012E+06         0.00000E+00
    0.30012E+06         0.25041E+06         0.00000E+00
    0.00000E+00         0.00000E+00         0.38075E+05
 
   -0.56653E+05         0.33369E+06         0.00000E+00
    0.33369E+06         0.25034E+06         0.00000E+00
    0.00000E+00         0.00000E+00         0.38736E+05
 
   -0.53319E+05         0.36690E+06         0.00000E+00
    0.36690E+06         0.25026E+06         0.00000E+00
    0.00000E+00         0.00000E+00         0.39387E+05
 
   -0.50028E+05         0.39973E+06         0.00000E+00
    0.39973E+06         0.25017E+06         0.00000E+00
    0.00000E+00         0.00000E+00         0.40028E+05
 
   -0.46778E+05         0.43218E+06         0.00000E+00
    0.43218E+06         0.25007E+06         0.00000E+00
    0.00000E+00         0.00000E+00         0.40658E+05
 
   -0.43570E+05         0.46426E+06         0.00000E+00
    0.46426E+06         0.24996E+06         0.00000E+00
    0.00000E+00         0.00000E+00         0.41278E+05
 
   -0.40403E+05         0.49596E+06         0.00000E+00
    0.49596E+06         0.24984E+06         0.00000E+00
    0.00000E+00         0.00000E+00         0.41887E+05
 
   -0.37274E+05         0.52727E+06         0.00000E+00
    0.52727E+06         0.24970E+06         0.00000E+00
    0.00000E+00         0.00000E+00         0.42486E+05
 
   -0.34184E+05         0.55819E+06         0.00000E+00
    0.55819E+06         0.24956E+06         0.00000E+00
    0.00000E+00         0.00000E+00         0.43075E+05
 
   -0.31132E+05         0.58872E+06         0.00000E+00
    0.58872E+06         0.24940E+06         0.00000E+00
    0.00000E+00         0.00000E+00         0.43653E+05
 
   -0.28115E+05         0.61886E+06         0.00000E+00
    0.61886E+06         0.24923E+06         0.00000E+00
    0.00000E+00         0.00000E+00         0.44222E+05
 
   -0.25133E+05         0.64860E+06         0.00000E+00
    0.64860E+06         0.24904E+06         0.00000E+00
    0.00000E+00         0.00000E+00         0.44781E+05
 
   -0.22185E+05         0.67794E+06         0.00000E+00
    0.67794E+06         0.24883E+06         0.00000E+00
    0.00000E+00         0.00000E+00         0.45330E+05
 
   -0.19269E+05         0.70687E+06         0.00000E+00
    0.70687E+06         0.24861E+06         0.00000E+00
    0.00000E+00         0.00000E+00         0.45868E+05
 
   -0.16384E+05         0.73540E+06         0.00000E+00
    0.73540E+06         0.24837E+06         0.00000E+00
    0.00000E+00         0.00000E+00         0.46398E+05
 
   -0.13528E+05         0.76353E+06         0.00000E+00
    0.76353E+06         0.24811E+06         0.00000E+00
    0.00000E+00         0.00000E+00         0.46917E+05
 
   -0.10700E+05         0.79124E+06         0.00000E+00
    0.79124E+06         0.24784E+06         0.00000E+00
    0.00000E+00         0.00000E+00         0.47427E+05
 
   -0.78987E+04         0.81853E+06         0.00000E+00
    0.81853E+06         0.24754E+06         0.00000E+00
    0.00000E+00         0.00000E+00         0.47928E+05
 
   -0.51220E+04         0.84541E+06         0.00000E+00
    0.84541E+06         0.24722E+06         0.00000E+00
    0.00000E+00         0.00000E+00         0.48419E+05
 
   -0.23684E+04         0.87187E+06         0.00000E+00
    0.87187E+06         0.24688E+06         0.00000E+00
    0.00000E+00         0.00000E+00         0.48902E+05
 
    0.36382E+03         0.89790E+06         0.00000E+00
    0.89790E+06         0.24651E+06         0.00000E+00
    0.00000E+00         0.00000E+00         0.49375E+05
 
    0.30764E+04         0.92351E+06         0.00000E+00
    0.92351E+06         0.24612E+06         0.00000E+00
    0.00000E+00         0.00000E+00         0.49839E+05
 
    0.57710E+04         0.94869E+06         0.00000E+00
    0.94869E+06         0.24570E+06         0.00000E+00
    0.00000E+00         0.00000E+00         0.50294E+05
 
    0.84497E+04         0.97343E+06         0.00000E+00
    0.97343E+06         0.24525E+06         0.00000E+00
    0.00000E+00         0.00000E+00         0.50741E+05
 
    0.11114E+05         0.99774E+06         0.00000E+00
    0.99774E+06         0.24478E+06         0.00000E+00
    0.00000E+00         0.00000E+00         0.51179E+05
 
    0.13766E+05         0.10216E+07         0.00000E+00
    0.10216E+07         0.24427E+06         0.00000E+00
    0.00000E+00         0.00000E+00         0.51608E+05
 
    0.16408E+05         0.10450E+07         0.00000E+00
    0.10450E+07         0.24374E+06         0.00000E+00
    0.00000E+00         0.00000E+00         0.52029E+05
 
    0.19042E+05         0.10680E+07         0.00000E+00
    0.10680E+07         0.24317E+06         0.00000E+00
    0.00000E+00         0.00000E+00         0.52442E+05
 
    0.21669E+05         0.10906E+07         0.00000E+00
    0.10906E+07         0.24257E+06         0.00000E+00
    0.00000E+00         0.00000E+00         0.52847E+05
 
    0.24292E+05         0.11126E+07         0.00000E+00
    0.11126E+07         0.24193E+06         0.00000E+00
    0.00000E+00         0.00000E+00         0.53244E+05
 
    0.26913E+05         0.11343E+07         0.00000E+00
    0.11343E+07         0.24125E+06         0.00000E+00
    0.00000E+00         0.00000E+00         0.53634E+05
 
    0.29534E+05         0.11554E+07         0.00000E+00
    0.11554E+07         0.24054E+06         0.00000E+00
    0.00000E+00         0.00000E+00         0.54015E+05
 
    0.32156E+05         0.11761E+07         0.00000E+00
    0.11761E+07         0.23979E+06         0.00000E+00
    0.00000E+00         0.00000E+00         0.54389E+05
 
    0.34784E+05         0.11964E+07         0.00000E+00
    0.11964E+07         0.23900E+06         0.00000E+00
    0.00000E+00         0.00000E+00         0.54756E+05
 
    0.37417E+05         0.12161E+07         0.00000E+00
    0.12161E+07         0.23816E+06         0.00000E+00
    0.00000E+00         0.00000E+00         0.55116E+05
 
    0.40060E+05         0.12354E+07         0.00000E+00
    0.12354E+07         0.23728E+06         0.00000E+00
    0.00000E+00         0.00000E+00         0.55468E+05
 
    0.42713E+05         0.12543E+07         0.00000E+00
    0.12543E+07         0.23636E+06         0.00000E+00
    0.00000E+00         0.00000E+00         0.55814E+05
 
    0.45379E+05         0.12726E+07         0.00000E+00
    0.12726E+07         0.23539E+06         0.00000E+00
    0.00000E+00         0.00000E+00         0.56153E+05
 
    0.48061E+05         0.12905E+07         0.00000E+00
    0.12905E+07         0.23437E+06         0.00000E+00
    0.00000E+00         0.00000E+00         0.56486E+05
 
    0.50761E+05         0.13078E+07         0.00000E+00
    0.13078E+07         0.23330E+06         0.00000E+00
    0.00000E+00         0.00000E+00         0.56812E+05
 
    0.53481E+05         0.13247E+07         0.00000E+00
    0.13247E+07         0.23218E+06         0.00000E+00
    0.00000E+00         0.00000E+00         0.57132E+05
 
    0.56224E+05         0.13411E+07         0.00000E+00
    0.13411E+07         0.23100E+06         0.00000E+00
    0.00000E+00         0.00000E+00         0.57446E+05
 
   -0.17432E+04         0.18613E+05         0.00000E+00
    0.18613E+05         0.15467E+06         0.00000E+00
    0.00000E+00         0.00000E+00         0.30585E+05
 
    0.29338E+03         0.55046E+05         0.00000E+00
    0.55046E+05         0.15468E+06         0.00000E+00
    0.00000E+00         0.00000E+00         0.30995E+05
 
    0.22648E+04         0.91136E+05         0.00000E+00
    0.91136E+05         0.15471E+06         0.00000E+00
    0.00000E+00         0.00000E+00         0.31396E+05
 
    0.41715E+04         0.12688E+06         0.00000E+00
    0.12688E+06         0.15476E+06         0.00000E+00
    0.00000E+00         0.00000E+00         0.31786E+05
 
    0.60140E+04         0.16227E+06         0.00000E+00
    0.16227E+06         0.15482E+06         0.00000E+00
    0.00000E+00         0.00000E+00         0.32167E+05
 
    0.77929E+04         0.19731E+06         0.00000E+00
    0.19731E+06         0.15490E+06         0.00000E+00
    0.00000E+00         0.00000E+00         0.32538E+05
 
    0.95088E+04         0.23199E+06         0.00000E+00
    0.23199E+06         0.15499E+06         0.00000E+00
    0.00000E+00         0.00000E+00         0.32899E+05
 
    0.11162E+05         0.26631E+06         0.00000E+00
    0.26631E+06         0.15509E+06         0.00000E+00
    0.00000E+00         0.00000E+00         0.33251E+05
 
    0.12755E+05         0.30026E+06         0.00000E+00
    0.30026E+06         0.15521E+06         0.00000E+00
    0.00000E+00         0.00000E+00         0.33593E+05
 
    0.14286E+05         0.33384E+06         0.00000E+00
    0.33384E+06         0.15534E+06         0.00000E+00
    0.00000E+00         0.00000E+00         0.33925E+05
 
    0.15757E+05         0.36705E+06         0.00000E+00
    0.36705E+06         0.15548E+06         0.00000E+00
    0.00000E+00         0.00000E+00         0.34248E+05
 
    0.17170E+05         0.39989E+06         0.00000E+00
    0.39989E+06         0.15563E+06         0.00000E+00
    0.00000E+00         0.00000E+00         0.34561E+05
 
    0.18524E+05         0.43235E+06         0.00000E+00
    0.43235E+06         0.15580E+06         0.00000E+00
    0.00000E+00         0.00000E+00         0.34865E+05
 
    0.19821E+05         0.46442E+06         0.00000E+00
    0.46442E+06         0.15598E+06         0.00000E+00
    0.00000E+00         0.00000E+00         0.35159E+05
 
    0.21063E+05         0.49611E+06         0.00000E+00
    0.49611E+06         0.15616E+06         0.00000E+00
    0.00000E+00         0.00000E+00         0.35445E+05
 
    0.22249E+05         0.52741E+06         0.00000E+00
    0.52741E+06         0.15636E+06         0.00000E+00
    0.00000E+00         0.00000E+00         0.35721E+05
 
    0.23382E+05         0.55832E+06         0.00000E+00
    0.55832E+06         0.15656E+06         0.00000E+00
    0.00000E+00         0.00000E+00         0.35988E+05
 
    0.24462E+05         0.58883E+06         0.00000E+00
    0.58883E+06         0.15677E+06         0.00000E+00
    0.00000E+00         0.00000E+00         0.36247E+05
 
    0.25491E+05         0.61895E+06         0.00000E+00
    0.61895E+06         0.15699E+06         0.00000E+00
    0.00000E+00         0.00000E+00         0.36496E+05
 
    0.26470E+05         0.64867E+06         0.00000E+00
    0.64867E+06         0.15721E+06         0.00000E+00
    0.00000E+00         0.00000E+00         0.36737E+05
 
    0.27400E+05         0.67798E+06         0.00000E+00
    0.67798E+06         0.15744E+06         0.00000E+00
    0.00000E+00         0.00000E+00         0.36969E+05
 
    0.28283E+05         0.70688E+06         0.00000E+00
    0.70688E+06         0.15768E+06         0.00000E+00
    0.00000E+00         0.00000E+00         0.37192E+05
 
    0.29120E+05         0.73537E+06         0.00000E+00
    0.73537E+06         0.15791E+06         0.00000E+00
    0.00000E+00         0.00000E+00         0.37407E+05
 
    0.29912E+05         0.76345E+06         0.00000E+00
    0.76345E+06         0.15816E+06         0.00000E+00
    0.00000E+00         0.00000E+00         0.37613E+05
 
    0.30661E+05         0.79112E+06         0.00000E+00
    0.79112E+06         0.15840E+06         0.00000E+00
    0.00000E+00         0.00000E+00         0.37812E+05
 
    0.31369E+05         0.81836E+06         0.00000E+00
    0.81836E+06         0.15864E+06         0.00000E+00
    0.00000E+00         0.00000E+00         0.38002E+05
 
    0.32037E+05         0.84518E+06         0.00000E+00
    0.84518E+06         0.15888E+06         0.00000E+00
    0.00000E+00         0.00000E+00         0.38184E+05
 
    0.32666E+05         0.87157E+06         0.00000E+00
    0.87157E+06         0.15912E+06         0.00000E+00
    0.00000E+00         0.00000E+00         0.38358E+05
 
    0.33258E+05         0.89754E+06         0.00000E+00
    0.89754E+06         0.15936E+06         0.00000E+00
    0.00000E+00         0.00000E+00         0.38524E+05
 
    0.33816E+05         0.92307E+06         0.00000E+00
    0.92307E+06         0.15960E+06         0.00000E+00
    0.00000E+00         0.00000E+00         0.38683E+05
 
    0.34339E+05         0.94817E+06         0.00000E+00
    0.94817E+06         0.15983E+06         0.00000E+00
    0.00000E+00         0.00000E+00         0.38834E+05
 
    0.34831E+05         0.97283E+06         0.00000E+00
    0.97283E+06         0.16006E+06         0.00000E+00
    0.00000E+00         0.00000E+00         0.38978E+05
 
    0.35293E+05         0.99705E+06         0.00000E+00
    0.99705E+06         0.16028E+06         0.00000E+00
    0.00000E+00         0.00000E+00         0.39114E+05
 
    0.35727E+05         0.10208E+07         0.00000E+00
    0.10208E+07         0.16049E+06         0.00000E+00
    0.00000E+00         0.00000E+00         0.39243E+05
 
    0.36134E+05         0.10441E+07         0.00000E+00
    0.10441E+07         0.16069E+06         0.00000E+00
    0.00000E+00         0.00000E+00         0.39365E+05
 
    0.36516E+05         0.10670E+07         0.00000E+00
    0.10670E+07         0.16088E+06         0.00000E+00
    0.00000E+00         0.00000E+00         0.39480E+05
 
    0.36875E+05         0.10894E+07         0.00000E+00
    0.10894E+07         0.16107E+06         0.00000E+00
    0.00000E+00         0.00000E+00         0.39588E+05
 
    0.37213E+05         0.11114E+07         0.00000E+00
    0.11114E+07         0.16124E+06         0.00000E+00
    0.00000E+00         0.00000E+00         0.39690E+05
 
    0.37532E+05         0.11329E+07         0.00000E+00
    0.11329E+07         0.16139E+06         0.00000E+00
    0.00000E+00         0.00000E+00         0.39785E+05
 
    0.37834E+05         0.11539E+07         0.00000E+00
    0.11539E+07         0.16153E+06         0.00000E+00
    0.00000E+00         0.00000E+00         0.39874E+05
 
    0.38121E+05         0.11745E+07         0.00000E+00
    0.11745E+07         0.16166E+06         0.00000E+00
    0.00000E+00         0.00000E+00         0.39956E+05
 
    0.38394E+05         0.11946E+07         0.00000E+00
    0.11946E+07         0.16177E+06         0.00000E+00
    0.00000E+00         0.00000E+00         0.40032E+05
 
    0.38655E+05         0.12142E+07         0.00000E+00
    0.12142E+07         0.16186E+06         0.00000E+00
    0.00000E+00         0.00000E+00         0.40102E+05
 
    0.38907E+05         0.12333E+07         0.00000E+00
    0.12333E+07         0.16193E+06         0.00000E+00
    0.00000E+00         0.00000E+00         0.40167E+05
 
    0.39152E+05         0.12520E+07         0.00000E+00
    0.12520E+07         0.16198E+06         0.00000E+00
    0.00000E+00         0.00000E+00         0.40225E+05
 
    0.39391E+05         0.12701E+07         0.00000E+00
    0.12701E+07         0.16200E+06         0.00000E+00
    0.00000E+00         0.00000E+00         0.40278E+05
 
    0.39626E+05         0.12878E+07         0.00000E+00
    0.12878E+07         0.16200E+06         0.00000E+00
    0.00000E+00         0.00000E+00         0.40326E+05
 
    0.39861E+05         0.13050E+07         0.00000E+00
    0.13050E+07         0.16198E+06         0.00000E+00
    0.00000E+00         0.00000E+00         0.40368E+05
 
    0.40095E+05         0.13217E+07         0.00000E+00
    0.13217E+07         0.16193E+06         0.00000E+00
    0.00000E+00         0.00000E+00         0.40406E+05
 
    0.40333E+05         0.13378E+07         0.00000E+00
    0.13378E+07         0.16186E+06         0.00000E+00
    0.00000E+00         0.00000E+00         0.40438E+05
 
    0.86726E+05         0.18682E+05         0.00000E+00
    0.18682E+05         0.59808E+05         0.00000E+00
    0.00000E+00         0.00000E+00         0.29307E+05
 
    0.87054E+05         0.55251E+05         0.00000E+00
    0.55251E+05         0.59847E+05         0.00000E+00
    0.00000E+00         0.00000E+00         0.29380E+05
 
    0.87296E+05         0.91475E+05         0.00000E+00
    0.91475E+05         0.59925E+05         0.00000E+00
    0.00000E+00         0.00000E+00         0.29444E+05
 
    0.87453E+05         0.12735E+06         0.00000E+00
    0.12735E+06         0.60042E+05         0.00000E+00
    0.00000E+00         0.00000E+00         0.29499E+05
 
    0.87527E+05         0.16287E+06         0.00000E+00
    0.16287E+06         0.60196E+05         0.00000E+00
    0.00000E+00         0.00000E+00         0.29545E+05
 
    0.87519E+05         0.19804E+06         0.00000E+00
    0.19804E+06         0.60387E+05         0.00000E+00
    0.00000E+00         0.00000E+00         0.29581E+05
 
    0.87429E+05         0.23284E+06         0.00000E+00
    0.23284E+06         0.60615E+05         0.00000E+00
    0.00000E+00         0.00000E+00         0.29609E+05
 
    0.87259E+05         0.26728E+06         0.00000E+00
    0.26728E+06         0.60879E+05         0.00000E+00
    0.00000E+00         0.00000E+00         0.29628E+05
 
    0.87009E+05         0.30136E+06         0.00000E+00
    0.30136E+06         0.61179E+05         0.00000E+00
    0.00000E+00         0.00000E+00         0.29638E+05
 
    0.86681E+05         0.33506E+06         0.00000E+00
    0.33506E+06         0.61514E+05         0.00000E+00
    0.00000E+00         0.00000E+00         0.29639E+05
 
    0.86276E+05         0.36838E+06         0.00000E+00
    0.36838E+06         0.61882E+05         0.00000E+00
    0.00000E+00         0.00000E+00         0.29632E+05
 
    0.85795E+05         0.40133E+06         0.00000E+00
    0.40133E+06         0.62285E+05         0.00000E+00
    0.00000E+00         0.00000E+00         0.29616E+05
 
    0.85239E+05         0.43390E+06         0.00000E+00
    0.43390E+06         0.62720E+05         0.00000E+00
    0.00000E+00         0.00000E+00         0.29592E+05
 
    0.84609E+05         0.46608E+06         0.00000E+00
    0.46608E+06         0.63188E+05         0.00000E+00
    0.00000E+00         0.00000E+00         0.29559E+05
 
    0.83907E+05         0.49787E+06         0.00000E+00
    0.49787E+06         0.63687E+05         0.00000E+00
    0.00000E+00         0.00000E+00         0.29519E+05
 
    0.83134E+05         0.52927E+06         0.00000E+00
    0.52927E+06         0.64217E+05         0.00000E+00
    0.00000E+00         0.00000E+00         0.29470E+05
 
    0.82291E+05         0.56027E+06         0.00000E+00
    0.56027E+06         0.64777E+05         0.00000E+00
    0.00000E+00         0.00000E+00         0.29414E+05
 
    0.81379E+05         0.59088E+06         0.00000E+00
    0.59088E+06         0.65366E+05         0.00000E+00
    0.00000E+00         0.00000E+00         0.29349E+05
 
    0.80400E+05         0.62108E+06         0.00000E+00
    0.62108E+06         0.65984E+05         0.00000E+00
    0.00000E+00         0.00000E+00         0.29277E+05
 
    0.79355E+05         0.65088E+06         0.00000E+00
    0.65088E+06         0.66630E+05         0.00000E+00
    0.00000E+00         0.00000E+00         0.29197E+05
 
    0.78245E+05         0.68027E+06         0.00000E+00
    0.68027E+06         0.67303E+05         0.00000E+00
    0.00000E+00         0.00000E+00         0.29110E+05
 
    0.77073E+05         0.70924E+06         0.00000E+00
    0.70924E+06         0.68001E+05         0.00000E+00
    0.00000E+00         0.00000E+00         0.29015E+05
 
    0.75839E+05         0.73781E+06         0.00000E+00
    0.73781E+06         0.68725E+05         0.00000E+00
    0.00000E+00         0.00000E+00         0.28913E+05
 
    0.74544E+05         0.76595E+06         0.00000E+00
    0.76595E+06         0.69474E+05         0.00000E+00
    0.00000E+00         0.00000E+00         0.28804E+05
 
    0.73191E+05         0.79368E+06         0.00000E+00
    0.79368E+06         0.70245E+05         0.00000E+00
    0.00000E+00         0.00000E+00         0.28687E+05
 
    0.71780E+05         0.82097E+06         0.00000E+00
    0.82097E+06         0.71040E+05         0.00000E+00
    0.00000E+00         0.00000E+00         0.28564E+05
 
    0.70314E+05         0.84785E+06         0.00000E+00
    0.84785E+06         0.71856E+05         0.00000E+00
    0.00000E+00         0.00000E+00         0.28434E+05
 
    0.68793E+05         0.87429E+06         0.00000E+00
    0.87429E+06         0.72693E+05         0.00000E+00
    0.00000E+00         0.00000E+00         0.28297E+05
 
    0.67219E+05         0.90029E+06         0.00000E+00
    0.90029E+06         0.73549E+05         0.00000E+00
    0.00000E+00         0.00000E+00         0.28154E+05
 
    0.65595E+05         0.92586E+06         0.00000E+00
    0.92586E+06         0.74425E+05         0.00000E+00
    0.00000E+00         0.00000E+00         0.28004E+05
 
    0.63920E+05         0.95099E+06         0.00000E+00
    0.95099E+06         0.75318E+05         0.00000E+00
    0.00000E+00         0.00000E+00         0.27848E+05
 
    0.62198E+05         0.97568E+06         0.00000E+00
    0.97568E+06         0.76229E+05         0.00000E+00
    0.00000E+00         0.00000E+00         0.27685E+05
 
    0.60429E+05         0.99991E+06         0.00000E+00
    0.99991E+06         0.77155E+05         0.00000E+00
    0.00000E+00         0.00000E+00         0.27517E+05
 
    0.58615E+05         0.10237E+07         0.00000E+00
    0.10237E+07         0.78096E+05         0.00000E+00
    0.00000E+00         0.00000E+00         0.27342E+05
 
    0.56758E+05         0.10470E+07         0.00000E+00
    0.10470E+07         0.79051E+05         0.00000E+00
    0.00000E+00         0.00000E+00         0.27162E+05
 
    0.54859E+05         0.10699E+07         0.00000E+00
    0.10699E+07         0.80019E+05         0.00000E+00
    0.00000E+00         0.00000E+00         0.26976E+05
 
    0.52921E+05         0.10923E+07         0.00000E+00
    0.10923E+07         0.80999E+05         0.00000E+00
    0.00000E+00         0.00000E+00         0.26784E+05
 
    0.50944E+05         0.11143E+07         0.00000E+00
    0.11143E+07         0.81990E+05         0.00000E+00
    0.00000E+00         0.00000E+00         0.26587E+05
 
    0.48931E+05         0.11358E+07         0.00000E+00
    0.11358E+07         0.82990E+05         0.00000E+00
    0.00000E+00         0.00000E+00         0.26384E+05
 
    0.46883E+05         0.11568E+07         0.00000E+00
    0.11568E+07         0.83999E+05         0.00000E+00
    0.00000E+00         0.00000E+00         0.26176E+05
 
    0.44801E+05         0.11773E+07         0.00000E+00
    0.11773E+07         0.85016E+05         0.00000E+00
    0.00000E+00         0.00000E+00         0.25963E+05
 
    0.42689E+05         0.11974E+07         0.00000E+00
    0.11974E+07         0.86039E+05         0.00000E+00
    0.00000E+00         0.00000E+00         0.25746E+05
 
    0.40546E+05         0.12170E+07         0.00000E+00
    0.12170E+07         0.87068E+05         0.00000E+00
    0.00000E+00         0.00000E+00         0.25523E+05
 
    0.38376E+05         0.12360E+07         0.00000E+00
    0.12360E+07         0.88101E+05         0.00000E+00
    0.00000E+00         0.00000E+00         0.25295E+05
 
    0.36179E+05         0.12546E+07         0.00000E+00
    0.12546E+07         0.89137E+05         0.00000E+00
    0.00000E+00         0.00000E+00         0.25063E+05
 
    0.33958E+05         0.12728E+07         0.00000E+00
    0.12728E+07         0.90175E+05         0.00000E+00
    0.00000E+00         0.00000E+00         0.24827E+05
 
    0.31714E+05         0.12904E+07         0.00000E+00
    0.12904E+07         0.91214E+05         0.00000E+00
    0.00000E+00         0.00000E+00         0.24586E+05
 
    0.29450E+05         0.13075E+07         0.00000E+00
    0.13075E+07         0.92253E+05         0.00000E+00
    0.00000E+00         0.00000E+00         0.24341E+05
 
    0.27166E+05         0.13241E+07         0.00000E+00
    0.13241E+07         0.93291E+05         0.00000E+00
    0.00000E+00         0.00000E+00         0.24091E+05
 
    0.24865E+05         0.13402E+07         0.00000E+00
    0.13402E+07         0.94326E+05         0.00000E+00
    0.00000E+00         0.00000E+00         0.23838E+05
 
    0.17644E+06         0.18812E+05         0.00000E+00
    0.18812E+05        -0.34785E+05         0.00000E+00
    0.00000E+00         0.00000E+00         0.28331E+05
 
    0.17505E+06         0.55635E+05         0.00000E+00
    0.55635E+05        -0.34722E+05         0.00000E+00
    0.00000E+00         0.00000E+00         0.28065E+05
 
    0.17355E+06         0.92109E+05         0.00000E+00
    0.92109E+05        -0.34596E+05         0.00000E+00
    0.00000E+00         0.00000E+00         0.27791E+05
 
    0.17194E+06         0.12823E+06         0.00000E+00
    0.12823E+06        -0.34408E+05         0.00000E+00
    0.00000E+00         0.00000E+00         0.27507E+05
 
    0.17024E+06         0.16400E+06         0.00000E+00
    0.16400E+06        -0.34159E+05         0.00000E+00
    0.00000E+00         0.00000E+00         0.27216E+05
 
    0.16843E+06         0.19941E+06         0.00000E+00
    0.19941E+06        -0.33851E+05         0.00000E+00
    0.00000E+00         0.00000E+00         0.26916E+05
 
    0.16652E+06         0.23445E+06         0.00000E+00
    0.23445E+06        -0.33482E+05         0.00000E+00
    0.00000E+00         0.00000E+00         0.26607E+05
 
    0.16451E+06         0.26913E+06         0.00000E+00
    0.26913E+06        -0.33055E+05         0.00000E+00
    0.00000E+00         0.00000E+00         0.26291E+05
 
    0.16240E+06         0.30343E+06         0.00000E+00
    0.30343E+06        -0.32570E+05         0.00000E+00
    0.00000E+00         0.00000E+00         0.25967E+05
 
    0.16020E+06         0.33736E+06         0.00000E+00
    0.33736E+06        -0.32028E+05         0.00000E+00
    0.00000E+00         0.00000E+00         0.25634E+05
 
    0.15790E+06         0.37091E+06         0.00000E+00
    0.37091E+06        -0.31429E+05         0.00000E+00
    0.00000E+00         0.00000E+00         0.25295E+05
 
    0.15551E+06         0.40408E+06         0.00000E+00
    0.40408E+06        -0.30774E+05         0.00000E+00
    0.00000E+00         0.00000E+00         0.24947E+05
 
    0.15303E+06         0.43687E+06         0.00000E+00
    0.43687E+06        -0.30064E+05         0.00000E+00
    0.00000E+00         0.00000E+00         0.24593E+05
 
    0.15045E+06         0.46926E+06         0.00000E+00
    0.46926E+06        -0.29300E+05         0.00000E+00
    0.00000E+00         0.00000E+00         0.24231E+05
 
    0.14779E+06         0.50126E+06         0.00000E+00
    0.50126E+06        -0.28483E+05         0.00000E+00
    0.00000E+00         0.00000E+00         0.23861E+05
 
    0.14504E+06         0.53287E+06         0.00000E+00
    0.53287E+06        -0.27612E+05         0.00000E+00
    0.00000E+00         0.00000E+00         0.23485E+05
 
    0.14220E+06         0.56407E+06         0.00000E+00
    0.56407E+06        -0.26690E+05         0.00000E+00
    0.00000E+00         0.00000E+00         0.23102E+05
 
    0.13928E+06         0.59488E+06         0.00000E+00
    0.59488E+06        -0.25716E+05         0.00000E+00
    0.00000E+00         0.00000E+00         0.22712E+05
 
    0.13627E+06         0.62528E+06         0.00000E+00
    0.62528E+06        -0.24692E+05         0.00000E+00
    0.00000E+00         0.00000E+00         0.22315E+05
 
    0.13318E+06         0.65527E+06         0.00000E+00
    0.65527E+06        -0.23619E+05         0.00000E+00
    0.00000E+00         0.00000E+00         0.21912E+05
 
    0.13001E+06         0.68484E+06         0.00000E+00
    0.68484E+06        -0.22496E+05         0.00000E+00
    0.00000E+00         0.00000E+00         0.21503E+05
 
    0.12676E+06         0.71400E+06         0.00000E+00
    0.71400E+06        -0.21326E+05         0.00000E+00
    0.00000E+00         0.00000E+00         0.21087E+05
 
    0.12343E+06         0.74274E+06         0.00000E+00
    0.74274E+06        -0.20109E+05         0.00000E+00
    0.00000E+00         0.00000E+00         0.20665E+05
 
    0.12003E+06         0.77106E+06         0.00000E+00
    0.77106E+06        -0.18845E+05         0.00000E+00
    0.00000E+00         0.00000E+00         0.20237E+05
 
    0.11655E+06         0.79896E+06         0.00000E+00
    0.79896E+06        -0.17535E+05         0.00000E+00
    0.00000E+00         0.00000E+00         0.19803E+05
 
    0.11300E+06         0.82642E+06         0.00000E+00
    0.82642E+06        -0.16182E+05         0.00000E+00
    0.00000E+00         0.00000E+00         0.19364E+05
 
    0.10938E+06         0.85346E+06         0.00000E+00
    0.85346E+06        -0.14784E+05         0.00000E+00
    0.00000E+00         0.00000E+00         0.18919E+05
 
    0.10568E+06         0.88005E+06         0.00000E+00
    0.88005E+06        -0.13343E+05         0.00000E+00
    0.00000E+00         0.00000E+00         0.18468E+05
 
    0.10192E+06         0.90621E+06         0.00000E+00
    0.90621E+06        -0.11860E+05         0.00000E+00
    0.00000E+00         0.00000E+00         0.18012E+05
 
    0.98088E+05         0.93193E+06         0.00000E+00
    0.93193E+06        -0.10336E+05         0.00000E+00
    0.00000E+00         0.00000E+00         0.17550E+05
 
    0.94191E+05         0.95720E+06         0.00000E+00
    0.95720E+06        -0.87718E+04         0.00000E+00
    0.00000E+00         0.00000E+00         0.17084E+05
 
    0.90229E+05         0.98202E+06         0.00000E+00
    0.98202E+06        -0.71678E+04         0.00000E+00
    0.00000E+00         0.00000E+00         0.16612E+05
 
    0.86205E+05         0.10064E+07         0.00000E+00
    0.10064E+07        -0.55252E+04         0.00000E+00
    0.00000E+00         0.00000E+00         0.16136E+05
 
    0.82118E+05         0.10303E+07         0.00000E+00
    0.10303E+07        -0.38449E+04         0.00000E+00
    0.00000E+00         0.00000E+00         0.15655E+05
 
    0.77971E+05         0.10538E+07         0.00000E+00
    0.10538E+07        -0.21277E+04         0.00000E+00
    0.00000E+00         0.00000E+00         0.15169E+05
 
    0.73766E+05         0.10768E+07         0.00000E+00
    0.10768E+07        -0.37448E+03         0.00000E+00
    0.00000E+00         0.00000E+00         0.14678E+05
 
    0.69504E+05         0.10993E+07         0.00000E+00
    0.10993E+07         0.14138E+04         0.00000E+00
    0.00000E+00         0.00000E+00         0.14183E+05
 
    0.65185E+05         0.11214E+07         0.00000E+00
    0.11214E+07         0.32362E+04         0.00000E+00
    0.00000E+00         0.00000E+00         0.13684E+05
 
    0.60813E+05         0.11429E+07         0.00000E+00
    0.11429E+07         0.50919E+04         0.00000E+00
    0.00000E+00         0.00000E+00         0.13181E+05
 
    0.56388E+05         0.11641E+07         0.00000E+00
    0.11641E+07         0.69799E+04         0.00000E+00
    0.00000E+00         0.00000E+00         0.12674E+05
 
    0.51912E+05         0.11847E+07         0.00000E+00
    0.11847E+07         0.88993E+04         0.00000E+00
    0.00000E+00         0.00000E+00         0.12162E+05
 
    0.47386E+05         0.12048E+07         0.00000E+00
    0.12048E+07         0.10849E+05         0.00000E+00
    0.00000E+00         0.00000E+00         0.11647E+05
 
    0.42812E+05         0.12245E+07         0.00000E+00
    0.12245E+07         0.12829E+05         0.00000E+00
    0.00000E+00         0.00000E+00         0.11128E+05
 
    0.38191E+05         0.12437E+07         0.00000E+00
    0.12437E+07         0.14837E+05         0.00000E+00
    0.00000E+00         0.00000E+00         0.10606E+05
 
    0.33525E+05         0.12624E+07         0.00000E+00
    0.12624E+07         0.16872E+05         0.00000E+00
    0.00000E+00         0.00000E+00         0.10080E+05
 
    0.28816E+05         0.12805E+07         0.00000E+00
    0.12805E+07         0.18935E+05         0.00000E+00
    0.00000E+00         0.00000E+00         0.95501E+04
 
    0.24064E+05         0.12982E+07         0.00000E+00
    0.12982E+07         0.21023E+05         0.00000E+00
    0.00000E+00         0.00000E+00         0.90175E+04
 
    0.19272E+05         0.13154E+07         0.00000E+00
    0.13154E+07         0.23136E+05         0.00000E+00
    0.00000E+00         0.00000E+00         0.84816E+04
 
    0.14441E+05         0.13320E+07         0.00000E+00
    0.13320E+07         0.25273E+05         0.00000E+00
    0.00000E+00         0.00000E+00         0.79428E+04
 
    0.95728E+04         0.13482E+07         0.00000E+00
    0.13482E+07         0.27432E+05         0.00000E+00
    0.00000E+00         0.00000E+00         0.74010E+04
 
    0.26711E+06         0.19003E+05         0.00000E+00
    0.19003E+05        -0.13000E+06         0.00000E+00
    0.00000E+00         0.00000E+00         0.27422E+05
 
    0.26398E+06         0.56199E+05         0.00000E+00
    0.56199E+05        -0.12991E+06         0.00000E+00
    0.00000E+00         0.00000E+00         0.26814E+05
 
    0.26072E+06         0.93042E+05         0.00000E+00
    0.93042E+05        -0.12974E+06         0.00000E+00
    0.00000E+00         0.00000E+00         0.26197E+05
 
    0.25734E+06         0.12953E+06         0.00000E+00
    0.12953E+06        -0.12948E+06         0.00000E+00
    0.00000E+00         0.00000E+00         0.25573E+05
 
    0.25383E+06         0.16566E+06         0.00000E+00
    0.16566E+06        -0.12913E+06         0.00000E+00
    0.00000E+00         0.00000E+00         0.24940E+05
 
    0.25021E+06         0.20142E+06         0.00000E+00
    0.20142E+06        -0.12870E+06         0.00000E+00
    0.00000E+00         0.00000E+00         0.24300E+05
 
    0.24646E+06         0.23682E+06         0.00000E+00
    0.23682E+06        -0.12819E+06         0.00000E+00
    0.00000E+00         0.00000E+00         0.23653E+05
 
    0.24259E+06         0.27184E+06         0.00000E+00
    0.27184E+06        -0.12760E+06         0.00000E+00
    0.00000E+00         0.00000E+00         0.22998E+05
 
    0.23861E+06         0.30649E+06         0.00000E+00
    0.30649E+06        -0.12693E+06         0.00000E+00
    0.00000E+00         0.00000E+00         0.22336E+05
 
    0.23451E+06         0.34077E+06         0.00000E+00
    0.34077E+06        -0.12618E+06         0.00000E+00
    0.00000E+00         0.00000E+00         0.21667E+05
 
    0.23031E+06         0.37465E+06         0.00000E+00
    0.37465E+06        -0.12535E+06         0.00000E+00
    0.00000E+00         0.00000E+00         0.20992E+05
 
    0.22598E+06         0.40816E+06         0.00000E+00
    0.40816E+06        -0.12444E+06         0.00000E+00
    0.00000E+00         0.00000E+00         0.20309E+05
 
    0.22155E+06         0.44127E+06         0.00000E+00
    0.44127E+06        -0.12345E+06         0.00000E+00
    0.00000E+00         0.00000E+00         0.19621E+05
 
    0.21702E+06         0.47399E+06         0.00000E+00
    0.47399E+06        -0.12239E+06         0.00000E+00
    0.00000E+00         0.00000E+00         0.18926E+05
 
    0.21237E+06         0.50631E+06         0.00000E+00
    0.50631E+06        -0.12125E+06         0.00000E+00
    0.00000E+00         0.00000E+00         0.18225E+05
 
    0.20762E+06         0.53823E+06         0.00000E+00
    0.53823E+06        -0.12003E+06         0.00000E+00
    0.00000E+00         0.00000E+00         0.17518E+05
 
    0.20277E+06         0.56975E+06         0.00000E+00
    0.56975E+06        -0.11874E+06         0.00000E+00
    0.00000E+00         0.00000E+00         0.16805E+05
 
    0.19781E+06         0.60087E+06         0.00000E+00
    0.60087E+06        -0.11738E+06         0.00000E+00
    0.00000E+00         0.00000E+00         0.16086E+05
 
    0.19276E+06         0.63157E+06         0.00000E+00
    0.63157E+06        -0.11595E+06         0.00000E+00
    0.00000E+00         0.00000E+00         0.15362E+05
 
    0.18761E+06         0.66186E+06         0.00000E+00
    0.66186E+06        -0.11444E+06         0.00000E+00
    0.00000E+00         0.00000E+00         0.14632E+05
 
    0.18235E+06         0.69173E+06         0.00000E+00
    0.69173E+06        -0.11287E+06         0.00000E+00
    0.00000E+00         0.00000E+00         0.13897E+05
 
    0.17701E+06         0.72119E+06         0.00000E+00
    0.72119E+06        -0.11122E+06         0.00000E+00
    0.00000E+00         0.00000E+00         0.13158E+05
 
    0.17157E+06         0.75022E+06         0.00000E+00
    0.75022E+06        -0.10950E+06         0.00000E+00
    0.00000E+00         0.00000E+00         0.12413E+05
 
    0.16603E+06         0.77882E+06         0.00000E+00
    0.77882E+06        -0.10772E+06         0.00000E+00
    0.00000E+00         0.00000E+00         0.11663E+05
 
    0.16041E+06         0.80700E+06         0.00000E+00
    0.80700E+06        -0.10587E+06         0.00000E+00
    0.00000E+00         0.00000E+00         0.10909E+05
 
    0.15470E+06         0.83474E+06         0.00000E+00
    0.83474E+06        -0.10395E+06         0.00000E+00
    0.00000E+00         0.00000E+00         0.10150E+05
 
    0.14889E+06         0.86204E+06         0.00000E+00
    0.86204E+06        -0.10196E+06         0.00000E+00
    0.00000E+00         0.00000E+00         0.93861E+04
 
    0.14301E+06         0.88891E+06         0.00000E+00
    0.88891E+06        -0.99913E+05         0.00000E+00
    0.00000E+00         0.00000E+00         0.86184E+04
 
    0.13703E+06         0.91533E+06         0.00000E+00
    0.91533E+06        -0.97798E+05         0.00000E+00
    0.00000E+00         0.00000E+00         0.78465E+04
 
    0.13097E+06         0.94131E+06         0.00000E+00
    0.94131E+06        -0.95619E+05         0.00000E+00
    0.00000E+00         0.00000E+00         0.70705E+04
 
    0.12483E+06         0.96684E+06         0.00000E+00
    0.96684E+06        -0.93377E+05         0.00000E+00
    0.00000E+00         0.00000E+00         0.62906E+04
 
    0.11861E+06         0.99192E+06         0.00000E+00
    0.99192E+06        -0.91073E+05         0.00000E+00
    0.00000E+00         0.00000E+00         0.55069E+04
 
    0.11230E+06         0.10165E+07         0.00000E+00
    0.10165E+07        -0.88707E+05         0.00000E+00
    0.00000E+00         0.00000E+00         0.47196E+04
 
    0.10592E+06         0.10407E+07         0.00000E+00
    0.10407E+07        -0.86280E+05         0.00000E+00
    0.00000E+00         0.00000E+00         0.39286E+04
 
    0.99465E+05         0.10644E+07         0.00000E+00
    0.10644E+07        -0.83794E+05         0.00000E+00
    0.00000E+00         0.00000E+00         0.31343E+04
 
    0.92930E+05         0.10876E+07         0.00000E+00
    0.10876E+07        -0.81248E+05         0.00000E+00
    0.00000E+00         0.00000E+00         0.23366E+04
 
    0.86321E+05         0.11104E+07         0.00000E+00
    0.11104E+07        -0.78643E+05         0.00000E+00
    0.00000E+00         0.00000E+00         0.15356E+04
 
    0.79639E+05         0.11327E+07         0.00000E+00
    0.11327E+07        -0.75981E+05         0.00000E+00
    0.00000E+00         0.00000E+00         0.73158E+03
 
    0.72884E+05         0.11545E+07         0.00000E+00
    0.11545E+07        -0.73262E+05         0.00000E+00
    0.00000E+00         0.00000E+00        -0.75457E+02
 
    0.66059E+05         0.11758E+07         0.00000E+00
    0.11758E+07        -0.70486E+05         0.00000E+00
    0.00000E+00         0.00000E+00        -0.88538E+03
 
    0.59165E+05         0.11967E+07         0.00000E+00
    0.11967E+07        -0.67655E+05         0.00000E+00
    0.00000E+00         0.00000E+00        -0.16981E+04
 
    0.52202E+05         0.12170E+07         0.00000E+00
    0.12170E+07        -0.64770E+05         0.00000E+00
    0.00000E+00         0.00000E+00        -0.25135E+04
 
    0.45173E+05         0.12369E+07         0.00000E+00
    0.12369E+07        -0.61830E+05         0.00000E+00
    0.00000E+00         0.00000E+00        -0.33314E+04
 
    0.38078E+05         0.12563E+07         0.00000E+00
    0.12563E+07        -0.58838E+05         0.00000E+00
    0.00000E+00         0.00000E+00        -0.41519E+04
 
    0.30920E+05         0.12752E+07         0.00000E+00
    0.12752E+07        -0.55793E+05         0.00000E+00
    0.00000E+00         0.00000E+00        -0.49747E+04
 
    0.23698E+05         0.12935E+07         0.00000E+00
    0.12935E+07        -0.52696E+05         0.00000E+00
    0.00000E+00         0.00000E+00        -0.57997E+04
 
    0.16414E+05         0.13114E+07         0.00000E+00
    0.13114E+07        -0.49549E+05         0.00000E+00
    0.00000E+00         0.00000E+00        -0.66270E+04
 
    0.90704E+04         0.13287E+07         0.00000E+00
    0.13287E+07        -0.46352E+05         0.00000E+00
    0.00000E+00         0.00000E+00        -0.74563E+04
 
    0.16675E+04         0.13456E+07         0.00000E+00
    0.13456E+07        -0.43105E+05         0.00000E+00
    0.00000E+00         0.00000E+00        -0.82876E+04
 
   -0.57932E+04         0.13619E+07         0.00000E+00
    0.13619E+07        -0.39811E+05         0.00000E+00
    0.00000E+00         0.00000E+00        -0.91207E+04
 
    0.35844E+06         0.19256E+05         0.00000E+00
    0.19256E+05        -0.22673E+06         0.00000E+00
    0.00000E+00         0.00000E+00         0.26343E+05
 
    0.35355E+06         0.56945E+05         0.00000E+00
    0.56945E+05        -0.22661E+06         0.00000E+00
    0.00000E+00         0.00000E+00         0.25387E+05
 
    0.34851E+06         0.94277E+05         0.00000E+00
    0.94277E+05        -0.22639E+06         0.00000E+00
    0.00000E+00         0.00000E+00         0.24424E+05
 
    0.34333E+06         0.13125E+06         0.00000E+00
    0.13125E+06        -0.22606E+06         0.00000E+00
    0.00000E+00         0.00000E+00         0.23454E+05
 
    0.33800E+06         0.16785E+06         0.00000E+00
    0.16785E+06        -0.22562E+06         0.00000E+00
    0.00000E+00         0.00000E+00         0.22476E+05
 
    0.33253E+06         0.20409E+06         0.00000E+00
    0.20409E+06        -0.22507E+06         0.00000E+00
    0.00000E+00         0.00000E+00         0.21492E+05
 
    0.32693E+06         0.23996E+06         0.00000E+00
    0.23996E+06        -0.22442E+06         0.00000E+00
    0.00000E+00         0.00000E+00         0.20501E+05
 
    0.32118E+06         0.27545E+06         0.00000E+00
    0.27545E+06        -0.22366E+06         0.00000E+00
    0.00000E+00         0.00000E+00         0.19504E+05
 
    0.31530E+06         0.31055E+06         0.00000E+00
    0.31055E+06        -0.22280E+06         0.00000E+00
    0.00000E+00         0.00000E+00         0.18500E+05
 
    0.30929E+06         0.34528E+06         0.00000E+00
    0.34528E+06        -0.22184E+06         0.00000E+00
    0.00000E+00         0.00000E+00         0.17491E+05
 
    0.30315E+06         0.37962E+06         0.00000E+00
    0.37962E+06        -0.22077E+06         0.00000E+00
    0.00000E+00         0.00000E+00         0.16475E+05
 
    0.29688E+06         0.41356E+06         0.00000E+00
    0.41356E+06        -0.21961E+06         0.00000E+00
    0.00000E+00         0.00000E+00         0.15454E+05
 
    0.29048E+06         0.44712E+06         0.00000E+00
    0.44712E+06        -0.21834E+06         0.00000E+00
    0.00000E+00         0.00000E+00         0.14428E+05
 
    0.28396E+06         0.48027E+06         0.00000E+00
    0.48027E+06        -0.21698E+06         0.00000E+00
    0.00000E+00         0.00000E+00         0.13396E+05
 
    0.27731E+06         0.51303E+06         0.00000E+00
    0.51303E+06        -0.21552E+06         0.00000E+00
    0.00000E+00         0.00000E+00         0.12359E+05
 
    0.27054E+06         0.54538E+06         0.00000E+00
    0.54538E+06        -0.21396E+06         0.00000E+00
    0.00000E+00         0.00000E+00         0.11317E+05
 
    0.26365E+06         0.57732E+06         0.00000E+00
    0.57732E+06        -0.21230E+06         0.00000E+00
    0.00000E+00         0.00000E+00         0.10271E+05
 
    0.25665E+06         0.60886E+06         0.00000E+00
    0.60886E+06        -0.21055E+06         0.00000E+00
    0.00000E+00         0.00000E+00         0.92197E+04
 
    0.24953E+06         0.63998E+06         0.00000E+00
    0.63998E+06        -0.20870E+06         0.00000E+00
    0.00000E+00         0.00000E+00         0.81644E+04
 
    0.24229E+06         0.67068E+06         0.00000E+00
    0.67068E+06        -0.20676E+06         0.00000E+00
    0.00000E+00         0.00000E+00         0.71048E+04
 
    0.23494E+06         0.70096E+06         0.00000E+00
    0.70096E+06        -0.20473E+06         0.00000E+00
    0.00000E+00         0.00000E+00         0.60411E+04
 
    0.22747E+06         0.73082E+06         0.00000E+00
    0.73082E+06        -0.20261E+06         0.00000E+00
    0.00000E+00         0.00000E+00         0.49735E+04
 
    0.21990E+06         0.76025E+06         0.00000E+00
    0.76025E+06        -0.20039E+06         0.00000E+00
    0.00000E+00         0.00000E+00         0.39022E+04
 
    0.21222E+06         0.78925E+06         0.00000E+00
    0.78925E+06        -0.19808E+06         0.00000E+00
    0.00000E+00         0.00000E+00         0.28273E+04
 
    0.20443E+06         0.81781E+06         0.00000E+00
    0.81781E+06        -0.19568E+06         0.00000E+00
    0.00000E+00         0.00000E+00         0.17489E+04
 
    0.19653E+06         0.84595E+06         0.00000E+00
    0.84595E+06        -0.19320E+06         0.00000E+00
    0.00000E+00         0.00000E+00         0.66719E+03
 
    0.18853E+06         0.87364E+06         0.00000E+00
    0.87364E+06        -0.19062E+06         0.00000E+00
    0.00000E+00         0.00000E+00        -0.41769E+03
 
    0.18043E+06         0.90088E+06         0.00000E+00
    0.90088E+06        -0.18796E+06         0.00000E+00
    0.00000E+00         0.00000E+00        -0.15056E+04
 
    0.17222E+06         0.92769E+06         0.00000E+00
    0.92769E+06        -0.18521E+06         0.00000E+00
    0.00000E+00         0.00000E+00        -0.25965E+04
 
    0.16392E+06         0.95404E+06         0.00000E+00
    0.95404E+06        -0.18237E+06         0.00000E+00
    0.00000E+00         0.00000E+00        -0.36901E+04
 
    0.15551E+06         0.97994E+06         0.00000E+00
    0.97994E+06        -0.17945E+06         0.00000E+00
    0.00000E+00         0.00000E+00        -0.47864E+04
 
    0.14701E+06         0.10054E+07         0.00000E+00
    0.10054E+07        -0.17644E+06         0.00000E+00
    0.00000E+00         0.00000E+00        -0.58852E+04
 
    0.13841E+06         0.10304E+07         0.00000E+00
    0.10304E+07        -0.17334E+06         0.00000E+00
    0.00000E+00         0.00000E+00        -0.69865E+04
 
    0.12972E+06         0.10549E+07         0.00000E+00
    0.10549E+07        -0.17017E+06         0.00000E+00
    0.00000E+00         0.00000E+00        -0.80900E+04
 
    0.12093E+06         0.10789E+07         0.00000E+00
    0.10789E+07        -0.16691E+06         0.00000E+00
    0.00000E+00         0.00000E+00        -0.91958E+04
 
    0.11204E+06         0.11025E+07         0.00000E+00
    0.11025E+07        -0.16356E+06         0.00000E+00
    0.00000E+00         0.00000E+00        -0.10304E+05
 
    0.10307E+06         0.11256E+07         0.00000E+00
    0.11256E+07        -0.16014E+06         0.00000E+00
    0.00000E+00         0.00000E+00        -0.11413E+05
 
    0.94003E+05         0.11483E+07         0.00000E+00
    0.11483E+07        -0.15663E+06         0.00000E+00
    0.00000E+00         0.00000E+00        -0.12525E+05
 
    0.84847E+05         0.11704E+07         0.00000E+00
    0.11704E+07        -0.15304E+06         0.00000E+00
    0.00000E+00         0.00000E+00        -0.13638E+05
 
    0.75603E+05         0.11921E+07         0.00000E+00
    0.11921E+07        -0.14937E+06         0.00000E+00
    0.00000E+00         0.00000E+00        -0.14754E+05
 
    0.66271E+05         0.12133E+07         0.00000E+00
    0.12133E+07        -0.14562E+06         0.00000E+00
    0.00000E+00         0.00000E+00        -0.15870E+05
 
    0.56853E+05         0.12340E+07         0.00000E+00
    0.12340E+07        -0.14180E+06         0.00000E+00
    0.00000E+00         0.00000E+00        -0.16988E+05
 
    0.47349E+05         0.12542E+07         0.00000E+00
    0.12542E+07        -0.13789E+06         0.00000E+00
    0.00000E+00         0.00000E+00        -0.18108E+05
 
    0.37761E+05         0.12739E+07         0.00000E+00
    0.12739E+07        -0.13390E+06         0.00000E+00
    0.00000E+00         0.00000E+00        -0.19229E+05
 
    0.28089E+05         0.12931E+07         0.00000E+00
    0.12931E+07        -0.12984E+06         0.00000E+00
    0.00000E+00         0.00000E+00        -0.20351E+05
 
    0.18335E+05         0.13118E+07         0.00000E+00
    0.13118E+07        -0.12571E+06         0.00000E+00
    0.00000E+00         0.00000E+00        -0.21474E+05
 
    0.84999E+04         0.13299E+07         0.00000E+00
    0.13299E+07        -0.12149E+06         0.00000E+00
    0.00000E+00         0.00000E+00        -0.22598E+05
 
   -0.14158E+04         0.13476E+07         0.00000E+00
    0.13476E+07        -0.11720E+06         0.00000E+00
    0.00000E+00         0.00000E+00        -0.23723E+05
 
   -0.11411E+05         0.13648E+07         0.00000E+00
    0.13648E+07        -0.11284E+06         0.00000E+00
    0.00000E+00         0.00000E+00        -0.24850E+05
 
   -0.21484E+05         0.13814E+07         0.00000E+00
    0.13814E+07        -0.10840E+06         0.00000E+00
    0.00000E+00         0.00000E+00        -0.25976E+05
 
    0.45013E+06         0.19571E+05         0.00000E+00
    0.19571E+05        -0.32587E+06         0.00000E+00
    0.00000E+00         0.00000E+00         0.24851E+05
 
    0.44345E+06         0.57873E+05         0.00000E+00
    0.57873E+05        -0.32574E+06         0.00000E+00
    0.00000E+00         0.00000E+00         0.23543E+05
 
    0.43660E+06         0.95812E+05         0.00000E+00
    0.95812E+05        -0.32547E+06         0.00000E+00
    0.00000E+00         0.00000E+00         0.22228E+05
 
    0.42959E+06         0.13338E+06         0.00000E+00
    0.13338E+06        -0.32506E+06         0.00000E+00
    0.00000E+00         0.00000E+00         0.20906E+05
 
    0.42242E+06         0.17059E+06         0.00000E+00
    0.17059E+06        -0.32453E+06         0.00000E+00
    0.00000E+00         0.00000E+00         0.19578E+05
 
    0.41508E+06         0.20741E+06         0.00000E+00
    0.20741E+06        -0.32386E+06         0.00000E+00
    0.00000E+00         0.00000E+00         0.18244E+05
 
    0.40759E+06         0.24386E+06         0.00000E+00
    0.24386E+06        -0.32307E+06         0.00000E+00
    0.00000E+00         0.00000E+00         0.16904E+05
 
    0.39994E+06         0.27993E+06         0.00000E+00
    0.27993E+06        -0.32215E+06         0.00000E+00
    0.00000E+00         0.00000E+00         0.15559E+05
 
    0.39214E+06         0.31561E+06         0.00000E+00
    0.31561E+06        -0.32110E+06         0.00000E+00
    0.00000E+00         0.00000E+00         0.14209E+05
 
    0.38419E+06         0.35090E+06         0.00000E+00
    0.35090E+06        -0.31992E+06         0.00000E+00
    0.00000E+00         0.00000E+00         0.12853E+05
 
    0.37609E+06         0.38580E+06         0.00000E+00
    0.38580E+06        -0.31863E+06         0.00000E+00
    0.00000E+00         0.00000E+00         0.11493E+05
 
    0.36785E+06         0.42031E+06         0.00000E+00
    0.42031E+06        -0.31720E+06         0.00000E+00
    0.00000E+00         0.00000E+00         0.10129E+05
 
    0.35946E+06         0.45442E+06         0.00000E+00
    0.45442E+06        -0.31566E+06         0.00000E+00
    0.00000E+00         0.00000E+00         0.87595E+04
 
    0.35093E+06         0.48812E+06         0.00000E+00
    0.48812E+06        -0.31400E+06         0.00000E+00
    0.00000E+00         0.00000E+00         0.73864E+04
 
    0.34226E+06         0.52142E+06         0.00000E+00
    0.52142E+06        -0.31221E+06         0.00000E+00
    0.00000E+00         0.00000E+00         0.60094E+04
 
    0.33345E+06         0.55431E+06         0.00000E+00
    0.55431E+06        -0.31031E+06         0.00000E+00
    0.00000E+00         0.00000E+00         0.46287E+04
 
    0.32451E+06         0.58679E+06         0.00000E+00
    0.58679E+06        -0.30828E+06         0.00000E+00
    0.00000E+00         0.00000E+00         0.32445E+04
 
    0.31543E+06         0.61885E+06         0.00000E+00
    0.61885E+06        -0.30614E+06         0.00000E+00
    0.00000E+00         0.00000E+00         0.18570E+04
 
    0.30622E+06         0.65050E+06         0.00000E+00
    0.65050E+06        -0.30389E+06         0.00000E+00
    0.00000E+00         0.00000E+00         0.46633E+03
 
    0.29688E+06         0.68172E+06         0.00000E+00
    0.68172E+06        -0.30151E+06         0.00000E+00
    0.00000E+00         0.00000E+00        -0.92727E+03
 
    0.28740E+06         0.71252E+06         0.00000E+00
    0.71252E+06        -0.29902E+06         0.00000E+00
    0.00000E+00         0.00000E+00        -0.23237E+04
 
    0.27781E+06         0.74290E+06         0.00000E+00
    0.74290E+06        -0.29642E+06         0.00000E+00
    0.00000E+00         0.00000E+00        -0.37227E+04
 
    0.26808E+06         0.77284E+06         0.00000E+00
    0.77284E+06        -0.29370E+06         0.00000E+00
    0.00000E+00         0.00000E+00        -0.51241E+04
 
    0.25823E+06         0.80235E+06         0.00000E+00
    0.80235E+06        -0.29087E+06         0.00000E+00
    0.00000E+00         0.00000E+00        -0.65278E+04
 
    0.24826E+06         0.83142E+06         0.00000E+00
    0.83142E+06        -0.28793E+06         0.00000E+00
    0.00000E+00         0.00000E+00        -0.79337E+04
 
    0.23816E+06         0.86005E+06         0.00000E+00
    0.86005E+06        -0.28487E+06         0.00000E+00
    0.00000E+00         0.00000E+00        -0.93416E+04
 
    0.22795E+06         0.88824E+06         0.00000E+00
    0.88824E+06        -0.28171E+06         0.00000E+00
    0.00000E+00         0.00000E+00        -0.10751E+05
 
    0.21761E+06         0.91598E+06         0.00000E+00
    0.91598E+06        -0.27843E+06         0.00000E+00
    0.00000E+00         0.00000E+00        -0.12163E+05
 
    0.20716E+06         0.94328E+06         0.00000E+00
    0.94328E+06        -0.27504E+06         0.00000E+00
    0.00000E+00         0.00000E+00        -0.13576E+05
 
    0.19659E+06         0.97012E+06         0.00000E+00
    0.97012E+06        -0.27154E+06         0.00000E+00
    0.00000E+00         0.00000E+00        -0.14990E+05
 
    0.18591E+06         0.99650E+06         0.00000E+00
    0.99650E+06        -0.26794E+06         0.00000E+00
    0.00000E+00         0.00000E+00        -0.16406E+05
 
    0.17511E+06         0.10224E+07         0.00000E+00
    0.10224E+07        -0.26422E+06         0.00000E+00
    0.00000E+00         0.00000E+00        -0.17823E+05
 
    0.16420E+06         0.10479E+07         0.00000E+00
    0.10479E+07        -0.26040E+06         0.00000E+00
    0.00000E+00         0.00000E+00        -0.19241E+05
 
    0.15317E+06         0.10729E+07         0.00000E+00
    0.10729E+07        -0.25647E+06         0.00000E+00
    0.00000E+00         0.00000E+00        -0.20660E+05
 
    0.14204E+06         0.10974E+07         0.00000E+00
    0.10974E+07        -0.25243E+06         0.00000E+00
    0.00000E+00         0.00000E+00        -0.22080E+05
 
    0.13079E+06         0.11215E+07         0.00000E+00
    0.11215E+07        -0.24829E+06         0.00000E+00
    0.00000E+00         0.00000E+00        -0.23500E+05
 
    0.11943E+06         0.11451E+07         0.00000E+00
    0.11451E+07        -0.24404E+06         0.00000E+00
    0.00000E+00         0.00000E+00        -0.24921E+05
 
    0.10797E+06         0.11682E+07         0.00000E+00
    0.11682E+07        -0.23969E+06         0.00000E+00
    0.00000E+00         0.00000E+00        -0.26343E+05
 
    0.96398E+05         0.11908E+07         0.00000E+00
    0.11908E+07        -0.23523E+06         0.00000E+00
    0.00000E+00         0.00000E+00        -0.27766E+05
 
    0.84720E+05         0.12129E+07         0.00000E+00
    0.12129E+07        -0.23066E+06         0.00000E+00
    0.00000E+00         0.00000E+00        -0.29188E+05
 
    0.72935E+05         0.12346E+07         0.00000E+00
    0.12346E+07        -0.22599E+06         0.00000E+00
    0.00000E+00         0.00000E+00        -0.30611E+05
 
    0.61046E+05         0.12557E+07         0.00000E+00
    0.12557E+07        -0.22122E+06         0.00000E+00
    0.00000E+00         0.00000E+00        -0.32034E+05
 
    0.49052E+05         0.12764E+07         0.00000E+00
    0.12764E+07        -0.21634E+06         0.00000E+00
    0.00000E+00         0.00000E+00        -0.33458E+05
 
    0.36956E+05         0.12965E+07         0.00000E+00
    0.12965E+07        -0.21136E+06         0.00000E+00
    0.00000E+00         0.00000E+00        -0.34881E+05
 
    0.24756E+05         0.13162E+07         0.00000E+00
    0.13162E+07        -0.20628E+06         0.00000E+00
    0.00000E+00         0.00000E+00        -0.36305E+05
 
    0.12455E+05         0.13353E+07         0.00000E+00
    0.13353E+07        -0.20109E+06         0.00000E+00
    0.00000E+00         0.00000E+00        -0.37728E+05
 
    0.52221E+02         0.13539E+07         0.00000E+00
    0.13539E+07        -0.19581E+06         0.00000E+00
    0.00000E+00         0.00000E+00        -0.39151E+05
 
   -0.12451E+05         0.13720E+07         0.00000E+00
    0.13720E+07        -0.19042E+06         0.00000E+00
    0.00000E+00         0.00000E+00        -0.40574E+05
 
   -0.25053E+05         0.13896E+07         0.00000E+00
    0.13896E+07        -0.18493E+06         0.00000E+00
    0.00000E+00         0.00000E+00        -0.41997E+05
 
   -0.37755E+05         0.14067E+07         0.00000E+00
    0.14067E+07        -0.17934E+06         0.00000E+00
    0.00000E+00         0.00000E+00        -0.43419E+05
 
    0.54186E+06         0.19946E+05         0.00000E+00
    0.19946E+05        -0.42837E+06         0.00000E+00
    0.00000E+00         0.00000E+00         0.22699E+05
 
    0.53336E+06         0.58982E+05         0.00000E+00
    0.58982E+05        -0.42821E+06         0.00000E+00
    0.00000E+00         0.00000E+00         0.21030E+05
 
    0.52467E+06         0.97647E+05         0.00000E+00
    0.97647E+05        -0.42789E+06         0.00000E+00
    0.00000E+00         0.00000E+00         0.19356E+05
 
    0.51579E+06         0.13594E+06         0.00000E+00
    0.13594E+06        -0.42741E+06         0.00000E+00
    0.00000E+00         0.00000E+00         0.17676E+05
 
    0.50674E+06         0.17385E+06         0.00000E+00
    0.17385E+06        -0.42678E+06         0.00000E+00
    0.00000E+00         0.00000E+00         0.15991E+05
 
    0.49751E+06         0.21138E+06         0.00000E+00
    0.21138E+06        -0.42600E+06         0.00000E+00
    0.00000E+00         0.00000E+00         0.14301E+05
 
    0.48810E+06         0.24853E+06         0.00000E+00
    0.24853E+06        -0.42507E+06         0.00000E+00
    0.00000E+00         0.00000E+00         0.12607E+05
 
    0.47852E+06         0.28529E+06         0.00000E+00
    0.28529E+06        -0.42398E+06         0.00000E+00
    0.00000E+00         0.00000E+00         0.10908E+05
 
    0.46877E+06         0.32166E+06         0.00000E+00
    0.32166E+06        -0.42275E+06         0.00000E+00
    0.00000E+00         0.00000E+00         0.92048E+04
 
    0.45885E+06         0.35763E+06         0.00000E+00
    0.35763E+06        -0.42136E+06         0.00000E+00
    0.00000E+00         0.00000E+00         0.74979E+04
 
    0.44877E+06         0.39321E+06         0.00000E+00
    0.39321E+06        -0.41983E+06         0.00000E+00
    0.00000E+00         0.00000E+00         0.57875E+04
 
    0.43853E+06         0.42838E+06         0.00000E+00
    0.42838E+06        -0.41816E+06         0.00000E+00
    0.00000E+00         0.00000E+00         0.40738E+04
 
    0.42812E+06         0.46315E+06         0.00000E+00
    0.46315E+06        -0.41634E+06         0.00000E+00
    0.00000E+00         0.00000E+00         0.23570E+04
 
    0.41756E+06         0.49752E+06         0.00000E+00
    0.49752E+06        -0.41438E+06         0.00000E+00
    0.00000E+00         0.00000E+00         0.63746E+03
 
    0.40685E+06         0.53147E+06         0.00000E+00
    0.53147E+06        -0.41227E+06         0.00000E+00
    0.00000E+00         0.00000E+00        -0.10847E+04
 
    0.39598E+06         0.56501E+06         0.00000E+00
    0.56501E+06        -0.41002E+06         0.00000E+00
    0.00000E+00         0.00000E+00        -0.28093E+04
 
    0.38496E+06         0.59814E+06         0.00000E+00
    0.59814E+06        -0.40764E+06         0.00000E+00
    0.00000E+00         0.00000E+00        -0.45360E+04
 
    0.37379E+06         0.63084E+06         0.00000E+00
    0.63084E+06        -0.40511E+06         0.00000E+00
    0.00000E+00         0.00000E+00        -0.62646E+04
 
    0.36247E+06         0.66313E+06         0.00000E+00
    0.66313E+06        -0.40244E+06         0.00000E+00
    0.00000E+00         0.00000E+00        -0.79950E+04
 
    0.35100E+06         0.69499E+06         0.00000E+00
    0.69499E+06        -0.39964E+06         0.00000E+00
    0.00000E+00         0.00000E+00        -0.97269E+04
 
    0.33939E+06         0.72642E+06         0.00000E+00
    0.72642E+06        -0.39669E+06         0.00000E+00
    0.00000E+00         0.00000E+00        -0.11460E+05
 
    0.32764E+06         0.75742E+06         0.00000E+00
    0.75742E+06        -0.39361E+06         0.00000E+00
    0.00000E+00         0.00000E+00        -0.13195E+05
 
    0.31575E+06         0.78798E+06         0.00000E+00
    0.78798E+06        -0.39040E+06         0.00000E+00
    0.00000E+00         0.00000E+00        -0.14930E+05
 
    0.30371E+06         0.81811E+06         0.00000E+00
    0.81811E+06        -0.38705E+06         0.00000E+00
    0.00000E+00         0.00000E+00        -0.16667E+05
 
    0.29154E+06         0.84780E+06         0.00000E+00
    0.84780E+06        -0.38356E+06         0.00000E+00
    0.00000E+00         0.00000E+00        -0.18404E+05
 
    0.27923E+06         0.87705E+06         0.00000E+00
    0.87705E+06        -0.37994E+06         0.00000E+00
    0.00000E+00         0.00000E+00        -0.20141E+05
 
    0.26679E+06         0.90585E+06         0.00000E+00
    0.90585E+06        -0.37618E+06         0.00000E+00
    0.00000E+00         0.00000E+00        -0.21879E+05
 
    0.25421E+06         0.93420E+06         0.00000E+00
    0.93420E+06        -0.37230E+06         0.00000E+00
    0.00000E+00         0.00000E+00        -0.23617E+05
 
    0.24150E+06         0.96210E+06         0.00000E+00
    0.96210E+06        -0.36827E+06         0.00000E+00
    0.00000E+00         0.00000E+00        -0.25356E+05
 
    0.22865E+06         0.98955E+06         0.00000E+00
    0.98955E+06        -0.36412E+06         0.00000E+00
    0.00000E+00         0.00000E+00        -0.27094E+05
 
    0.21567E+06         0.10165E+07         0.00000E+00
    0.10165E+07        -0.35983E+06         0.00000E+00
    0.00000E+00         0.00000E+00        -0.28832E+05
 
    0.20256E+06         0.10431E+07         0.00000E+00
    0.10431E+07        -0.35541E+06         0.00000E+00
    0.00000E+00         0.00000E+00        -0.30570E+05
 
    0.18933E+06         0.10691E+07         0.00000E+00
    0.10691E+07        -0.35086E+06         0.00000E+00
    0.00000E+00         0.00000E+00        -0.32308E+05
 
    0.17596E+06         0.10947E+07         0.00000E+00
    0.10947E+07        -0.34618E+06         0.00000E+00
    0.00000E+00         0.00000E+00        -0.34045E+05
 
    0.16247E+06         0.11198E+07         0.00000E+00
    0.11198E+07        -0.34137E+06         0.00000E+00
    0.00000E+00         0.00000E+00        -0.35781E+05
 
    0.14884E+06         0.11445E+07         0.00000E+00
    0.11445E+07        -0.33643E+06         0.00000E+00
    0.00000E+00         0.00000E+00        -0.37517E+05
 
    0.13510E+06         0.11687E+07         0.00000E+00
    0.11687E+07        -0.33136E+06         0.00000E+00
    0.00000E+00         0.00000E+00        -0.39252E+05
 
    0.12122E+06         0.11923E+07         0.00000E+00
    0.11923E+07        -0.32615E+06         0.00000E+00
    0.00000E+00         0.00000E+00        -0.40986E+05
 
    0.10722E+06         0.12156E+07         0.00000E+00
    0.12156E+07        -0.32082E+06         0.00000E+00
    0.00000E+00         0.00000E+00        -0.42720E+05
 
    0.93100E+05         0.12383E+07         0.00000E+00
    0.12383E+07        -0.31536E+06         0.00000E+00
    0.00000E+00         0.00000E+00        -0.44452E+05
 
    0.78853E+05         0.12605E+07         0.00000E+00
    0.12605E+07        -0.30977E+06         0.00000E+00
    0.00000E+00         0.00000E+00        -0.46183E+05
 
    0.64482E+05         0.12822E+07         0.00000E+00
    0.12822E+07        -0.30405E+06         0.00000E+00
    0.00000E+00         0.00000E+00        -0.47914E+05
 
    0.49989E+05         0.13035E+07         0.00000E+00
    0.13035E+07        -0.29820E+06         0.00000E+00
    0.00000E+00         0.00000E+00        -0.49642E+05
 
    0.35373E+05         0.13242E+07         0.00000E+00
    0.13242E+07        -0.29222E+06         0.00000E+00
    0.00000E+00         0.00000E+00        -0.51370E+05
 
    0.20635E+05         0.13444E+07         0.00000E+00
    0.13444E+07        -0.28612E+06         0.00000E+00
    0.00000E+00         0.00000E+00        -0.53097E+05
 
    0.57761E+04         0.13641E+07         0.00000E+00
    0.13641E+07        -0.27988E+06         0.00000E+00
    0.00000E+00         0.00000E+00        -0.54822E+05
 
   -0.92040E+04         0.13833E+07         0.00000E+00
    0.13833E+07        -0.27352E+06         0.00000E+00
    0.00000E+00         0.00000E+00        -0.56545E+05
 
   -0.24305E+05         0.14020E+07         0.00000E+00
    0.14020E+07        -0.26703E+06         0.00000E+00
    0.00000E+00         0.00000E+00        -0.58268E+05
 
   -0.39526E+05         0.14202E+07         0.00000E+00
    0.14202E+07        -0.26042E+06         0.00000E+00
    0.00000E+00         0.00000E+00        -0.59988E+05
 
   -0.54867E+05         0.14378E+07         0.00000E+00
    0.14378E+07        -0.25367E+06         0.00000E+00
    0.00000E+00         0.00000E+00        -0.61708E+05
 
    0.63329E+06         0.20382E+05         0.00000E+00
    0.20382E+05        -0.53515E+06         0.00000E+00
    0.00000E+00         0.00000E+00         0.19628E+05
 
    0.62292E+06         0.60269E+05         0.00000E+00
    0.60269E+05        -0.53496E+06         0.00000E+00
    0.00000E+00         0.00000E+00         0.17591E+05
 
    0.61235E+06         0.99777E+05         0.00000E+00
    0.99777E+05        -0.53460E+06         0.00000E+00
    0.00000E+00         0.00000E+00         0.15550E+05
 
    0.60158E+06         0.13890E+06         0.00000E+00
    0.13890E+06        -0.53405E+06         0.00000E+00
    0.00000E+00         0.00000E+00         0.13504E+05
 
    0.59060E+06         0.17764E+06         0.00000E+00
    0.17764E+06        -0.53333E+06         0.00000E+00
    0.00000E+00         0.00000E+00         0.11455E+05
 
    0.57944E+06         0.21599E+06         0.00000E+00
    0.21599E+06        -0.53243E+06         0.00000E+00
    0.00000E+00         0.00000E+00         0.94016E+04
 
    0.56808E+06         0.25395E+06         0.00000E+00
    0.25395E+06        -0.53136E+06         0.00000E+00
    0.00000E+00         0.00000E+00         0.73450E+04
 
    0.55654E+06         0.29152E+06         0.00000E+00
    0.29152E+06        -0.53011E+06         0.00000E+00
    0.00000E+00         0.00000E+00         0.52853E+04
 
    0.54481E+06         0.32869E+06         0.00000E+00
    0.32869E+06        -0.52869E+06         0.00000E+00
    0.00000E+00         0.00000E+00         0.32229E+04
 
    0.53290E+06         0.36545E+06         0.00000E+00
    0.36545E+06        -0.52711E+06         0.00000E+00
    0.00000E+00         0.00000E+00         0.11580E+04
 
    0.52080E+06         0.40181E+06         0.00000E+00
    0.40181E+06        -0.52535E+06         0.00000E+00
    0.00000E+00         0.00000E+00        -0.90899E+03
 
    0.50854E+06         0.43777E+06         0.00000E+00
    0.43777E+06        -0.52342E+06         0.00000E+00
    0.00000E+00         0.00000E+00        -0.29779E+04
 
    0.49609E+06         0.47332E+06         0.00000E+00
    0.47332E+06        -0.52133E+06         0.00000E+00
    0.00000E+00         0.00000E+00        -0.50483E+04
 
    0.48348E+06         0.50845E+06         0.00000E+00
    0.50845E+06        -0.51908E+06         0.00000E+00
    0.00000E+00         0.00000E+00        -0.71201E+04
 
    0.47069E+06         0.54317E+06         0.00000E+00
    0.54317E+06        -0.51665E+06         0.00000E+00
    0.00000E+00         0.00000E+00        -0.91930E+04
 
    0.45774E+06         0.57747E+06         0.00000E+00
    0.57747E+06        -0.51407E+06         0.00000E+00
    0.00000E+00         0.00000E+00        -0.11267E+05
 
    0.44462E+06         0.61136E+06         0.00000E+00
    0.61136E+06        -0.51132E+06         0.00000E+00
    0.00000E+00         0.00000E+00        -0.13341E+05
 
    0.43133E+06         0.64481E+06         0.00000E+00
    0.64481E+06        -0.50841E+06         0.00000E+00
    0.00000E+00         0.00000E+00        -0.15416E+05
 
    0.41789E+06         0.67785E+06         0.00000E+00
    0.67785E+06        -0.50534E+06         0.00000E+00
    0.00000E+00         0.00000E+00        -0.17491E+05
 
    0.40428E+06         0.71045E+06         0.00000E+00
    0.71045E+06        -0.50211E+06         0.00000E+00
    0.00000E+00         0.00000E+00        -0.19566E+05
 
    0.39052E+06         0.74262E+06         0.00000E+00
    0.74262E+06        -0.49872E+06         0.00000E+00
    0.00000E+00         0.00000E+00        -0.21640E+05
 
    0.37659E+06         0.77436E+06         0.00000E+00
    0.77436E+06        -0.49517E+06         0.00000E+00
    0.00000E+00         0.00000E+00        -0.23715E+05
 
    0.36252E+06         0.80566E+06         0.00000E+00
    0.80566E+06        -0.49146E+06         0.00000E+00
    0.00000E+00         0.00000E+00        -0.25788E+05
 
    0.34829E+06         0.83653E+06         0.00000E+00
    0.83653E+06        -0.48759E+06         0.00000E+00
    0.00000E+00         0.00000E+00        -0.27861E+05
 
    0.33390E+06         0.86695E+06         0.00000E+00
    0.86695E+06        -0.48357E+06         0.00000E+00
    0.00000E+00         0.00000E+00        -0.29933E+05
 
    0.31937E+06         0.89692E+06         0.00000E+00
    0.89692E+06        -0.47939E+06         0.00000E+00
    0.00000E+00         0.00000E+00        -0.32004E+05
 
    0.30468E+06         0.92645E+06         0.00000E+00
    0.92645E+06        -0.47505E+06         0.00000E+00
    0.00000E+00         0.00000E+00        -0.34074E+05
 
    0.28984E+06         0.95552E+06         0.00000E+00
    0.95552E+06        -0.47055E+06         0.00000E+00
    0.00000E+00         0.00000E+00        -0.36142E+05
 
    0.27486E+06         0.98415E+06         0.00000E+00
    0.98415E+06        -0.46590E+06         0.00000E+00
    0.00000E+00         0.00000E+00        -0.38209E+05
 
    0.25972E+06         0.10123E+07         0.00000E+00
    0.10123E+07        -0.46110E+06         0.00000E+00
    0.00000E+00         0.00000E+00        -0.40274E+05
 
    0.24444E+06         0.10400E+07         0.00000E+00
    0.10400E+07        -0.45613E+06         0.00000E+00
    0.00000E+00         0.00000E+00        -0.42338E+05
 
    0.22902E+06         0.10673E+07         0.00000E+00
    0.10673E+07        -0.45102E+06         0.00000E+00
    0.00000E+00         0.00000E+00        -0.44399E+05
 
    0.21345E+06         0.10940E+07         0.00000E+00
    0.10940E+07        -0.44574E+06         0.00000E+00
    0.00000E+00         0.00000E+00        -0.46459E+05
 
    0.19773E+06         0.11203E+07         0.00000E+00
    0.11203E+07        -0.44032E+06         0.00000E+00
    0.00000E+00         0.00000E+00        -0.48517E+05
 
    0.18187E+06         0.11462E+07         0.00000E+00
    0.11462E+07        -0.43473E+06         0.00000E+00
    0.00000E+00         0.00000E+00        -0.50572E+05
 
    0.16587E+06         0.11715E+07         0.00000E+00
    0.11715E+07        -0.42900E+06         0.00000E+00
    0.00000E+00         0.00000E+00        -0.52626E+05
 
    0.14972E+06         0.11964E+07         0.00000E+00
    0.11964E+07        -0.42310E+06         0.00000E+00
    0.00000E+00         0.00000E+00        -0.54677E+05
 
    0.13343E+06         0.12208E+07         0.00000E+00
    0.12208E+07        -0.41706E+06         0.00000E+00
    0.00000E+00         0.00000E+00        -0.56725E+05
 
    0.11700E+06         0.12447E+07         0.00000E+00
    0.12447E+07        -0.41086E+06         0.00000E+00
    0.00000E+00         0.00000E+00        -0.58771E+05
 
    0.10043E+06         0.12682E+07         0.00000E+00
    0.12682E+07        -0.40450E+06         0.00000E+00
    0.00000E+00         0.00000E+00        -0.60815E+05
 
    0.83710E+05         0.12911E+07         0.00000E+00
    0.12911E+07        -0.39799E+06         0.00000E+00
    0.00000E+00         0.00000E+00        -0.62856E+05
 
    0.66852E+05         0.13135E+07         0.00000E+00
    0.13135E+07        -0.39133E+06         0.00000E+00
    0.00000E+00         0.00000E+00        -0.64895E+05
 
    0.49853E+05         0.13355E+07         0.00000E+00
    0.13355E+07        -0.38451E+06         0.00000E+00
    0.00000E+00         0.00000E+00        -0.66931E+05
 
    0.32713E+05         0.13569E+07         0.00000E+00
    0.13569E+07        -0.37753E+06         0.00000E+00
    0.00000E+00         0.00000E+00        -0.68964E+05
 
    0.15432E+05         0.13779E+07         0.00000E+00
    0.13779E+07        -0.37041E+06         0.00000E+00
    0.00000E+00         0.00000E+00        -0.70995E+05
 
   -0.19898E+04         0.13983E+07         0.00000E+00
    0.13983E+07        -0.36312E+06         0.00000E+00
    0.00000E+00         0.00000E+00        -0.73023E+05
 
   -0.19553E+05         0.14182E+07         0.00000E+00
    0.14182E+07        -0.35569E+06         0.00000E+00
    0.00000E+00         0.00000E+00        -0.75048E+05
 
   -0.37257E+05         0.14376E+07         0.00000E+00
    0.14376E+07        -0.34809E+06         0.00000E+00
    0.00000E+00         0.00000E+00        -0.77070E+05
 
   -0.55101E+05         0.14564E+07         0.00000E+00
    0.14564E+07        -0.34035E+06         0.00000E+00
    0.00000E+00         0.00000E+00        -0.79090E+05
 
   -0.73087E+05         0.14748E+07         0.00000E+00
    0.14748E+07        -0.33245E+06         0.00000E+00
    0.00000E+00         0.00000E+00        -0.81107E+05
 
    0.72403E+06         0.20878E+05         0.00000E+00
    0.20878E+05        -0.64719E+06         0.00000E+00
    0.00000E+00         0.00000E+00         0.15369E+05
 
    0.71175E+06         0.61732E+05         0.00000E+00
    0.61732E+05        -0.64698E+06         0.00000E+00
    0.00000E+00         0.00000E+00         0.12955E+05
 
    0.69925E+06         0.10220E+06         0.00000E+00
    0.10220E+06        -0.64657E+06         0.00000E+00
    0.00000E+00         0.00000E+00         0.10538E+05
 
    0.68654E+06         0.14227E+06         0.00000E+00
    0.14227E+06        -0.64595E+06         0.00000E+00
    0.00000E+00         0.00000E+00         0.81177E+04
 
    0.67361E+06         0.18195E+06         0.00000E+00
    0.18195E+06        -0.64514E+06         0.00000E+00
    0.00000E+00         0.00000E+00         0.56951E+04
 
    0.66048E+06         0.22123E+06         0.00000E+00
    0.22123E+06        -0.64413E+06         0.00000E+00
    0.00000E+00         0.00000E+00         0.32702E+04
 
    0.64714E+06         0.26012E+06         0.00000E+00
    0.26012E+06        -0.64292E+06         0.00000E+00
    0.00000E+00         0.00000E+00         0.84358E+03
 
    0.63359E+06         0.29860E+06         0.00000E+00
    0.29860E+06        -0.64151E+06         0.00000E+00
    0.00000E+00         0.00000E+00        -0.15845E+04
 
    0.61985E+06         0.33668E+06         0.00000E+00
    0.33668E+06        -0.63992E+06         0.00000E+00
    0.00000E+00         0.00000E+00        -0.40138E+04
 
    0.60591E+06         0.37434E+06         0.00000E+00
    0.37434E+06        -0.63813E+06         0.00000E+00
    0.00000E+00         0.00000E+00        -0.64438E+04
 
    0.59178E+06         0.41160E+06         0.00000E+00
    0.41160E+06        -0.63615E+06         0.00000E+00
    0.00000E+00         0.00000E+00        -0.88743E+04
 
    0.57745E+06         0.44845E+06         0.00000E+00
    0.44845E+06        -0.63398E+06         0.00000E+00
    0.00000E+00         0.00000E+00        -0.11305E+05
 
    0.56294E+06         0.48488E+06         0.00000E+00
    0.48488E+06        -0.63162E+06         0.00000E+00
    0.00000E+00         0.00000E+00        -0.13736E+05
 
    0.54825E+06         0.52090E+06         0.00000E+00
    0.52090E+06        -0.62908E+06         0.00000E+00
    0.00000E+00         0.00000E+00        -0.16166E+05
 
    0.53337E+06         0.55649E+06         0.00000E+00
    0.55649E+06        -0.62634E+06         0.00000E+00
    0.00000E+00         0.00000E+00        -0.18595E+05
 
    0.51831E+06         0.59166E+06         0.00000E+00
    0.59166E+06        -0.62343E+06         0.00000E+00
    0.00000E+00         0.00000E+00        -0.21024E+05
 
    0.50307E+06         0.62641E+06         0.00000E+00
    0.62641E+06        -0.62033E+06         0.00000E+00
    0.00000E+00         0.00000E+00        -0.23452E+05
 
    0.48765E+06         0.66073E+06         0.00000E+00
    0.66073E+06        -0.61704E+06         0.00000E+00
    0.00000E+00         0.00000E+00        -0.25878E+05
 
    0.47206E+06         0.69462E+06         0.00000E+00
    0.69462E+06        -0.61357E+06         0.00000E+00
    0.00000E+00         0.00000E+00        -0.28302E+05
 
    0.45630E+06         0.72808E+06         0.00000E+00
    0.72808E+06        -0.60992E+06         0.00000E+00
    0.00000E+00         0.00000E+00        -0.30725E+05
 
    0.44036E+06         0.76111E+06         0.00000E+00
    0.76111E+06        -0.60609E+06         0.00000E+00
    0.00000E+00         0.00000E+00        -0.33146E+05
 
    0.42426E+06         0.79370E+06         0.00000E+00
    0.79370E+06        -0.60208E+06         0.00000E+00
    0.00000E+00         0.00000E+00        -0.35564E+05
 
    0.40798E+06         0.82585E+06         0.00000E+00
    0.82585E+06        -0.59789E+06         0.00000E+00
    0.00000E+00         0.00000E+00        -0.37980E+05
 
    0.39154E+06         0.85755E+06         0.00000E+00
    0.85755E+06        -0.59351E+06         0.00000E+00
    0.00000E+00         0.00000E+00        -0.40394E+05
 
    0.37493E+06         0.88882E+06         0.00000E+00
    0.88882E+06        -0.58896E+06         0.00000E+00
    0.00000E+00         0.00000E+00        -0.42805E+05
 
    0.35816E+06         0.91963E+06         0.00000E+00
    0.91963E+06        -0.58422E+06         0.00000E+00
    0.00000E+00         0.00000E+00        -0.45213E+05
 
    0.34122E+06         0.95000E+06         0.00000E+00
    0.95000E+06        -0.57931E+06         0.00000E+00
    0.00000E+00         0.00000E+00        -0.47617E+05
 
    0.32412E+06         0.97992E+06         0.00000E+00
    0.97992E+06        -0.57422E+06         0.00000E+00
    0.00000E+00         0.00000E+00        -0.50019E+05
 
    0.30686E+06         0.10094E+07         0.00000E+00
    0.10094E+07        -0.56895E+06         0.00000E+00
    0.00000E+00         0.00000E+00        -0.52418E+05
 
    0.28943E+06         0.10384E+07         0.00000E+00
    0.10384E+07        -0.56350E+06         0.00000E+00
    0.00000E+00         0.00000E+00        -0.54813E+05
 
    0.27185E+06         0.10669E+07         0.00000E+00
    0.10669E+07        -0.55787E+06         0.00000E+00
    0.00000E+00         0.00000E+00        -0.57204E+05
 
    0.25410E+06         0.10950E+07         0.00000E+00
    0.10950E+07        -0.55206E+06         0.00000E+00
    0.00000E+00         0.00000E+00        -0.59592E+05
 
    0.23619E+06         0.11226E+07         0.00000E+00
    0.11226E+07        -0.54607E+06         0.00000E+00
    0.00000E+00         0.00000E+00        -0.61976E+05
 
    0.21812E+06         0.11498E+07         0.00000E+00
    0.11498E+07        -0.53990E+06         0.00000E+00
    0.00000E+00         0.00000E+00        -0.64357E+05
 
    0.19989E+06         0.11764E+07         0.00000E+00
    0.11764E+07        -0.53356E+06         0.00000E+00
    0.00000E+00         0.00000E+00        -0.66733E+05
 
    0.18150E+06         0.12026E+07         0.00000E+00
    0.12026E+07        -0.52703E+06         0.00000E+00
    0.00000E+00         0.00000E+00        -0.69106E+05
 
    0.16296E+06         0.12283E+07         0.00000E+00
    0.12283E+07        -0.52033E+06         0.00000E+00
    0.00000E+00         0.00000E+00        -0.71475E+05
 
    0.14425E+06         0.12536E+07         0.00000E+00
    0.12536E+07        -0.51345E+06         0.00000E+00
    0.00000E+00         0.00000E+00        -0.73839E+05
 
    0.12538E+06         0.12783E+07         0.00000E+00
    0.12783E+07        -0.50638E+06         0.00000E+00
    0.00000E+00         0.00000E+00        -0.76200E+05
 
    0.10636E+06         0.13026E+07         0.00000E+00
    0.13026E+07        -0.49914E+06         0.00000E+00
    0.00000E+00         0.00000E+00        -0.78556E+05
 
    0.87175E+05         0.13264E+07         0.00000E+00
    0.13264E+07        -0.49172E+06         0.00000E+00
    0.00000E+00         0.00000E+00        -0.80909E+05
 
    0.67831E+05         0.13496E+07         0.00000E+00
    0.13496E+07        -0.48411E+06         0.00000E+00
    0.00000E+00         0.00000E+00        -0.83257E+05
 
    0.48328E+05         0.13724E+07         0.00000E+00
    0.13724E+07        -0.47633E+06         0.00000E+00
    0.00000E+00         0.00000E+00        -0.85601E+05
 
    0.28664E+05         0.13947E+07         0.00000E+00
    0.13947E+07        -0.46837E+06         0.00000E+00
    0.00000E+00         0.00000E+00        -0.87940E+05
 
    0.88408E+04         0.14165E+07         0.00000E+00
    0.14165E+07        -0.46022E+06         0.00000E+00
    0.00000E+00         0.00000E+00        -0.90276E+05
 
   -0.11143E+05         0.14377E+07         0.00000E+00
    0.14377E+07        -0.45189E+06         0.00000E+00
    0.00000E+00         0.00000E+00        -0.92607E+05
 
   -0.31288E+05         0.14585E+07         0.00000E+00
    0.14585E+07        -0.44338E+06         0.00000E+00
    0.00000E+00         0.00000E+00        -0.94934E+05
 
   -0.51594E+05         0.14787E+07         0.00000E+00
    0.14787E+07        -0.43469E+06         0.00000E+00
    0.00000E+00         0.00000E+00        -0.97257E+05
 
   -0.72061E+05         0.14984E+07         0.00000E+00
    0.14984E+07        -0.42581E+06         0.00000E+00
    0.00000E+00         0.00000E+00        -0.99575E+05
 
   -0.92691E+05         0.15176E+07         0.00000E+00
    0.15176E+07        -0.41676E+06         0.00000E+00
    0.00000E+00         0.00000E+00        -0.10189E+06
 
    0.81367E+06         0.21430E+05         0.00000E+00
    0.21430E+05        -0.76547E+06         0.00000E+00
    0.00000E+00         0.00000E+00         0.96392E+04
 
    0.79943E+06         0.63364E+05         0.00000E+00
    0.63364E+05        -0.76524E+06         0.00000E+00
    0.00000E+00         0.00000E+00         0.68376E+04
 
    0.78496E+06         0.10490E+06         0.00000E+00
    0.10490E+06        -0.76478E+06         0.00000E+00
    0.00000E+00         0.00000E+00         0.40345E+04
 
    0.77025E+06         0.14603E+06         0.00000E+00
    0.14603E+06        -0.76410E+06         0.00000E+00
    0.00000E+00         0.00000E+00         0.12302E+04
 
    0.75533E+06         0.18676E+06         0.00000E+00
    0.18676E+06        -0.76320E+06         0.00000E+00
    0.00000E+00         0.00000E+00        -0.15749E+04
 
    0.74018E+06         0.22709E+06         0.00000E+00
    0.22709E+06        -0.76208E+06         0.00000E+00
    0.00000E+00         0.00000E+00        -0.43803E+04
 
    0.72481E+06         0.26700E+06         0.00000E+00
    0.26700E+06        -0.76074E+06         0.00000E+00
    0.00000E+00         0.00000E+00        -0.71857E+04
 
    0.70923E+06         0.30651E+06         0.00000E+00
    0.30651E+06        -0.75918E+06         0.00000E+00
    0.00000E+00         0.00000E+00        -0.99906E+04
 
    0.69344E+06         0.34560E+06         0.00000E+00
    0.34560E+06        -0.75741E+06         0.00000E+00
    0.00000E+00         0.00000E+00        -0.12795E+05
 
    0.67744E+06         0.38428E+06         0.00000E+00
    0.38428E+06        -0.75543E+06         0.00000E+00
    0.00000E+00         0.00000E+00        -0.15598E+05
 
    0.66124E+06         0.42255E+06         0.00000E+00
    0.42255E+06        -0.75323E+06         0.00000E+00
    0.00000E+00         0.00000E+00        -0.18399E+05
 
    0.64483E+06         0.46039E+06         0.00000E+00
    0.46039E+06        -0.75083E+06         0.00000E+00
    0.00000E+00         0.00000E+00        -0.21199E+05
 
    0.62823E+06         0.49781E+06         0.00000E+00
    0.49781E+06        -0.74821E+06         0.00000E+00
    0.00000E+00         0.00000E+00        -0.23997E+05
 
    0.61143E+06         0.53482E+06         0.00000E+00
    0.53482E+06        -0.74539E+06         0.00000E+00
    0.00000E+00         0.00000E+00        -0.26792E+05
 
    0.59443E+06         0.57139E+06         0.00000E+00
    0.57139E+06        -0.74235E+06         0.00000E+00
    0.00000E+00         0.00000E+00        -0.29585E+05
 
    0.57724E+06         0.60754E+06         0.00000E+00
    0.60754E+06        -0.73911E+06         0.00000E+00
    0.00000E+00         0.00000E+00        -0.32374E+05
 
    0.55987E+06         0.64327E+06         0.00000E+00
    0.64327E+06        -0.73567E+06         0.00000E+00
    0.00000E+00         0.00000E+00        -0.35161E+05
 
    0.54230E+06         0.67856E+06         0.00000E+00
    0.67856E+06        -0.73202E+06         0.00000E+00
    0.00000E+00         0.00000E+00        -0.37944E+05
 
    0.52455E+06         0.71342E+06         0.00000E+00
    0.71342E+06        -0.72817E+06         0.00000E+00
    0.00000E+00         0.00000E+00        -0.40723E+05
 
    0.50661E+06         0.74784E+06         0.00000E+00
    0.74784E+06        -0.72411E+06         0.00000E+00
    0.00000E+00         0.00000E+00        -0.43499E+05
 
    0.48849E+06         0.78183E+06         0.00000E+00
    0.78183E+06        -0.71985E+06         0.00000E+00
    0.00000E+00         0.00000E+00        -0.46270E+05
 
    0.47019E+06         0.81538E+06         0.00000E+00
    0.81538E+06        -0.71538E+06         0.00000E+00
    0.00000E+00         0.00000E+00        -0.49038E+05
 
    0.45171E+06         0.84848E+06         0.00000E+00
    0.84848E+06        -0.71071E+06         0.00000E+00
    0.00000E+00         0.00000E+00        -0.51800E+05
 
    0.43305E+06         0.88115E+06         0.00000E+00
    0.88115E+06        -0.70584E+06         0.00000E+00
    0.00000E+00         0.00000E+00        -0.54559E+05
 
    0.41421E+06         0.91337E+06         0.00000E+00
    0.91337E+06        -0.70077E+06         0.00000E+00
    0.00000E+00         0.00000E+00        -0.57312E+05
 
    0.39520E+06         0.94514E+06         0.00000E+00
    0.94514E+06        -0.69550E+06         0.00000E+00
    0.00000E+00         0.00000E+00        -0.60060E+05
 
    0.37600E+06         0.97646E+06         0.00000E+00
    0.97646E+06        -0.69002E+06         0.00000E+00
    0.00000E+00         0.00000E+00        -0.62804E+05
 
    0.35663E+06         0.10073E+07         0.00000E+00
    0.10073E+07        -0.68434E+06         0.00000E+00
    0.00000E+00         0.00000E+00        -0.65542E+05
 
    0.33709E+06         0.10377E+07         0.00000E+00
    0.10377E+07        -0.67846E+06         0.00000E+00
    0.00000E+00         0.00000E+00        -0.68275E+05
 
    0.31737E+06         0.10677E+07         0.00000E+00
    0.10677E+07        -0.67238E+06         0.00000E+00
    0.00000E+00         0.00000E+00        -0.71002E+05
 
    0.29747E+06         0.10972E+07         0.00000E+00
    0.10972E+07        -0.66609E+06         0.00000E+00
    0.00000E+00         0.00000E+00        -0.73724E+05
 
    0.27740E+06         0.11262E+07         0.00000E+00
    0.11262E+07        -0.65961E+06         0.00000E+00
    0.00000E+00         0.00000E+00        -0.76441E+05
 
    0.25716E+06         0.11548E+07         0.00000E+00
    0.11548E+07        -0.65292E+06         0.00000E+00
    0.00000E+00         0.00000E+00        -0.79152E+05
 
    0.23674E+06         0.11829E+07         0.00000E+00
    0.11829E+07        -0.64602E+06         0.00000E+00
    0.00000E+00         0.00000E+00        -0.81857E+05
 
    0.21614E+06         0.12105E+07         0.00000E+00
    0.12105E+07        -0.63892E+06         0.00000E+00
    0.00000E+00         0.00000E+00        -0.84556E+05
 
    0.19538E+06         0.12377E+07         0.00000E+00
    0.12377E+07        -0.63162E+06         0.00000E+00
    0.00000E+00         0.00000E+00        -0.87250E+05
 
    0.17443E+06         0.12643E+07         0.00000E+00
    0.12643E+07        -0.62412E+06         0.00000E+00
    0.00000E+00         0.00000E+00        -0.89937E+05
 
    0.15331E+06         0.12905E+07         0.00000E+00
    0.12905E+07        -0.61641E+06         0.00000E+00
    0.00000E+00         0.00000E+00        -0.92619E+05
 
    0.13202E+06         0.13163E+07         0.00000E+00
    0.13163E+07        -0.60849E+06         0.00000E+00
    0.00000E+00         0.00000E+00        -0.95295E+05
 
    0.11055E+06         0.13415E+07         0.00000E+00
    0.13415E+07        -0.60037E+06         0.00000E+00
    0.00000E+00         0.00000E+00        -0.97965E+05
 
    0.88904E+05         0.13662E+07         0.00000E+00
    0.13662E+07        -0.59205E+06         0.00000E+00
    0.00000E+00         0.00000E+00        -0.10063E+06
 
    0.67080E+05         0.13905E+07         0.00000E+00
    0.13905E+07        -0.58351E+06         0.00000E+00
    0.00000E+00         0.00000E+00        -0.10329E+06
 
    0.45079E+05         0.14142E+07         0.00000E+00
    0.14142E+07        -0.57477E+06         0.00000E+00
    0.00000E+00         0.00000E+00        -0.10594E+06
 
    0.22900E+05         0.14375E+07         0.00000E+00
    0.14375E+07        -0.56582E+06         0.00000E+00
    0.00000E+00         0.00000E+00        -0.10858E+06
 
    0.54106E+03         0.14602E+07         0.00000E+00
    0.14602E+07        -0.55667E+06         0.00000E+00
    0.00000E+00         0.00000E+00        -0.11122E+06
 
   -0.21997E+05         0.14824E+07         0.00000E+00
    0.14824E+07        -0.54730E+06         0.00000E+00
    0.00000E+00         0.00000E+00        -0.11386E+06
 
   -0.44716E+05         0.15042E+07         0.00000E+00
    0.15042E+07        -0.53772E+06         0.00000E+00
    0.00000E+00         0.00000E+00        -0.11649E+06
 
   -0.67616E+05         0.15254E+07         0.00000E+00
    0.15254E+07        -0.52794E+06         0.00000E+00
    0.00000E+00         0.00000E+00        -0.11911E+06
 
   -0.90699E+05         0.15461E+07         0.00000E+00
    0.15461E+07        -0.51794E+06         0.00000E+00
    0.00000E+00         0.00000E+00        -0.12173E+06
 
   -0.11396E+06         0.15662E+07         0.00000E+00
    0.15662E+07        -0.50773E+06         0.00000E+00
    0.00000E+00         0.00000E+00        -0.12434E+06
 
    0.90173E+06         0.22038E+05         0.00000E+00
    0.22038E+05        -0.89103E+06         0.00000E+00
    0.00000E+00         0.00000E+00         0.21398E+04
 
    0.88547E+06         0.65160E+05         0.00000E+00
    0.65160E+05        -0.89078E+06         0.00000E+00
    0.00000E+00         0.00000E+00        -0.10607E+04
 
    0.86897E+06         0.10787E+06         0.00000E+00
    0.10787E+06        -0.89028E+06         0.00000E+00
    0.00000E+00         0.00000E+00        -0.42608E+04
 
    0.85224E+06         0.15017E+06         0.00000E+00
    0.15017E+06        -0.88953E+06         0.00000E+00
    0.00000E+00         0.00000E+00        -0.74598E+04
 
    0.83526E+06         0.19206E+06         0.00000E+00
    0.19206E+06        -0.88855E+06         0.00000E+00
    0.00000E+00         0.00000E+00        -0.10657E+05
 
    0.81806E+06         0.23353E+06         0.00000E+00
    0.23353E+06        -0.88732E+06         0.00000E+00
    0.00000E+00         0.00000E+00        -0.13853E+05
 
    0.80062E+06         0.27458E+06         0.00000E+00
    0.27458E+06        -0.88586E+06         0.00000E+00
    0.00000E+00         0.00000E+00        -0.17047E+05
 
    0.78297E+06         0.31522E+06         0.00000E+00
    0.31522E+06        -0.88415E+06         0.00000E+00
    0.00000E+00         0.00000E+00        -0.20237E+05
 
    0.76509E+06         0.35543E+06         0.00000E+00
    0.35543E+06        -0.88222E+06         0.00000E+00
    0.00000E+00         0.00000E+00        -0.23425E+05
 
    0.74700E+06         0.39523E+06         0.00000E+00
    0.39523E+06        -0.88005E+06         0.00000E+00
    0.00000E+00         0.00000E+00        -0.26609E+05
 
    0.72869E+06         0.43460E+06         0.00000E+00
    0.43460E+06        -0.87764E+06         0.00000E+00
    0.00000E+00         0.00000E+00        -0.29790E+05
 
    0.71017E+06         0.47355E+06         0.00000E+00
    0.47355E+06        -0.87501E+06         0.00000E+00
    0.00000E+00         0.00000E+00        -0.32966E+05
 
    0.69145E+06         0.51207E+06         0.00000E+00
    0.51207E+06        -0.87214E+06         0.00000E+00
    0.00000E+00         0.00000E+00        -0.36138E+05
 
    0.67252E+06         0.55016E+06         0.00000E+00
    0.55016E+06        -0.86905E+06         0.00000E+00
    0.00000E+00         0.00000E+00        -0.39306E+05
 
    0.65339E+06         0.58783E+06         0.00000E+00
    0.58783E+06        -0.86573E+06         0.00000E+00
    0.00000E+00         0.00000E+00        -0.42468E+05
 
    0.63405E+06         0.62506E+06         0.00000E+00
    0.62506E+06        -0.86218E+06         0.00000E+00
    0.00000E+00         0.00000E+00        -0.45625E+05
 
    0.61452E+06         0.66186E+06         0.00000E+00
    0.66186E+06        -0.85840E+06         0.00000E+00
    0.00000E+00         0.00000E+00        -0.48776E+05
 
    0.59479E+06         0.69823E+06         0.00000E+00
    0.69823E+06        -0.85440E+06         0.00000E+00
    0.00000E+00         0.00000E+00        -0.51922E+05
 
    0.57486E+06         0.73417E+06         0.00000E+00
    0.73417E+06        -0.85017E+06         0.00000E+00
    0.00000E+00         0.00000E+00        -0.55062E+05
 
    0.55474E+06         0.76966E+06         0.00000E+00
    0.76966E+06        -0.84572E+06         0.00000E+00
    0.00000E+00         0.00000E+00        -0.58195E+05
 
    0.53443E+06         0.80472E+06         0.00000E+00
    0.80472E+06        -0.84104E+06         0.00000E+00
    0.00000E+00         0.00000E+00        -0.61322E+05
 
    0.51392E+06         0.83934E+06         0.00000E+00
    0.83934E+06        -0.83614E+06         0.00000E+00
    0.00000E+00         0.00000E+00        -0.64443E+05
 
    0.49323E+06         0.87351E+06         0.00000E+00
    0.87351E+06        -0.83101E+06         0.00000E+00
    0.00000E+00         0.00000E+00        -0.67556E+05
 
    0.47234E+06         0.90724E+06         0.00000E+00
    0.90724E+06        -0.82566E+06         0.00000E+00
    0.00000E+00         0.00000E+00        -0.70663E+05
 
    0.45127E+06         0.94053E+06         0.00000E+00
    0.94053E+06        -0.82008E+06         0.00000E+00
    0.00000E+00         0.00000E+00        -0.73762E+05
 
    0.43001E+06         0.97336E+06         0.00000E+00
    0.97336E+06        -0.81428E+06         0.00000E+00
    0.00000E+00         0.00000E+00        -0.76855E+05
 
    0.40856E+06         0.10058E+07         0.00000E+00
    0.10058E+07        -0.80826E+06         0.00000E+00
    0.00000E+00         0.00000E+00        -0.79940E+05
 
    0.38692E+06         0.10377E+07         0.00000E+00
    0.10377E+07        -0.80201E+06         0.00000E+00
    0.00000E+00         0.00000E+00        -0.83017E+05
 
    0.36510E+06         0.10692E+07         0.00000E+00
    0.10692E+07        -0.79553E+06         0.00000E+00
    0.00000E+00         0.00000E+00        -0.86087E+05
 
    0.34309E+06         0.11002E+07         0.00000E+00
    0.11002E+07        -0.78884E+06         0.00000E+00
    0.00000E+00         0.00000E+00        -0.89150E+05
 
    0.32089E+06         0.11308E+07         0.00000E+00
    0.11308E+07        -0.78191E+06         0.00000E+00
    0.00000E+00         0.00000E+00        -0.92204E+05
 
    0.29850E+06         0.11609E+07         0.00000E+00
    0.11609E+07        -0.77476E+06         0.00000E+00
    0.00000E+00         0.00000E+00        -0.95251E+05
 
    0.27593E+06         0.11905E+07         0.00000E+00
    0.11905E+07        -0.76738E+06         0.00000E+00
    0.00000E+00         0.00000E+00        -0.98290E+05
 
    0.25317E+06         0.12197E+07         0.00000E+00
    0.12197E+07        -0.75977E+06         0.00000E+00
    0.00000E+00         0.00000E+00        -0.10132E+06
 
    0.23022E+06         0.12484E+07         0.00000E+00
    0.12484E+07        -0.75194E+06         0.00000E+00
    0.00000E+00         0.00000E+00        -0.10434E+06
 
    0.20708E+06         0.12766E+07         0.00000E+00
    0.12766E+07        -0.74388E+06         0.00000E+00
    0.00000E+00         0.00000E+00        -0.10736E+06
 
    0.18375E+06         0.13044E+07         0.00000E+00
    0.13044E+07        -0.73559E+06         0.00000E+00
    0.00000E+00         0.00000E+00        -0.11037E+06
 
    0.16023E+06         0.13317E+07         0.00000E+00
    0.13317E+07        -0.72706E+06         0.00000E+00
    0.00000E+00         0.00000E+00        -0.11337E+06
 
    0.13653E+06         0.13585E+07         0.00000E+00
    0.13585E+07        -0.71831E+06         0.00000E+00
    0.00000E+00         0.00000E+00        -0.11636E+06
 
    0.11262E+06         0.13848E+07         0.00000E+00
    0.13848E+07        -0.70933E+06         0.00000E+00
    0.00000E+00         0.00000E+00        -0.11934E+06
 
    0.88529E+05         0.14106E+07         0.00000E+00
    0.14106E+07        -0.70011E+06         0.00000E+00
    0.00000E+00         0.00000E+00        -0.12232E+06
 
    0.64240E+05         0.14360E+07         0.00000E+00
    0.14360E+07        -0.69066E+06         0.00000E+00
    0.00000E+00         0.00000E+00        -0.12528E+06
 
    0.39756E+05         0.14608E+07         0.00000E+00
    0.14608E+07        -0.68097E+06         0.00000E+00
    0.00000E+00         0.00000E+00        -0.12824E+06
 
    0.15075E+05         0.14852E+07         0.00000E+00
    0.14852E+07        -0.67105E+06         0.00000E+00
    0.00000E+00         0.00000E+00        -0.13120E+06
 
   -0.98032E+04         0.15091E+07         0.00000E+00
    0.15091E+07        -0.66090E+06         0.00000E+00
    0.00000E+00         0.00000E+00        -0.13414E+06
 
   -0.34880E+05         0.15324E+07         0.00000E+00
    0.15324E+07        -0.65050E+06         0.00000E+00
    0.00000E+00         0.00000E+00        -0.13708E+06
 
   -0.60158E+05         0.15553E+07         0.00000E+00
    0.15553E+07        -0.63987E+06         0.00000E+00
    0.00000E+00         0.00000E+00        -0.14001E+06
 
   -0.85636E+05         0.15776E+07         0.00000E+00
    0.15776E+07        -0.62900E+06         0.00000E+00
    0.00000E+00         0.00000E+00        -0.14293E+06
 
   -0.11132E+06         0.15994E+07         0.00000E+00
    0.15994E+07        -0.61789E+06         0.00000E+00
    0.00000E+00         0.00000E+00        -0.14584E+06
 
   -0.13720E+06         0.16207E+07         0.00000E+00
    0.16207E+07        -0.60653E+06         0.00000E+00
    0.00000E+00         0.00000E+00        -0.14875E+06
 
    0.98769E+06         0.22699E+05         0.00000E+00
    0.22699E+05        -0.10249E+07         0.00000E+00
    0.00000E+00         0.00000E+00        -0.74467E+04
 
    0.96936E+06         0.67110E+05         0.00000E+00
    0.67110E+05        -0.10246E+07         0.00000E+00
    0.00000E+00         0.00000E+00        -0.11058E+05
 
    0.95077E+06         0.11110E+06         0.00000E+00
    0.11110E+06        -0.10241E+07         0.00000E+00
    0.00000E+00         0.00000E+00        -0.14667E+05
 
    0.93195E+06         0.15467E+06         0.00000E+00
    0.15467E+06        -0.10233E+07         0.00000E+00
    0.00000E+00         0.00000E+00        -0.18272E+05
 
    0.91288E+06         0.19781E+06         0.00000E+00
    0.19781E+06        -0.10222E+07         0.00000E+00
    0.00000E+00         0.00000E+00        -0.21873E+05
 
    0.89357E+06         0.24053E+06         0.00000E+00
    0.24053E+06        -0.10209E+07         0.00000E+00
    0.00000E+00         0.00000E+00        -0.25469E+05
 
    0.87403E+06         0.28282E+06         0.00000E+00
    0.28282E+06        -0.10193E+07         0.00000E+00
    0.00000E+00         0.00000E+00        -0.29061E+05
 
    0.85425E+06         0.32469E+06         0.00000E+00
    0.32469E+06        -0.10175E+07         0.00000E+00
    0.00000E+00         0.00000E+00        -0.32647E+05
 
    0.83426E+06         0.36613E+06         0.00000E+00
    0.36613E+06        -0.10154E+07         0.00000E+00
    0.00000E+00         0.00000E+00        -0.36227E+05
 
    0.81404E+06         0.40714E+06         0.00000E+00
    0.40714E+06        -0.10130E+07         0.00000E+00
    0.00000E+00         0.00000E+00        -0.39801E+05
 
    0.79360E+06         0.44772E+06         0.00000E+00
    0.44772E+06        -0.10104E+07         0.00000E+00
    0.00000E+00         0.00000E+00        -0.43369E+05
 
    0.77294E+06         0.48787E+06         0.00000E+00
    0.48787E+06        -0.10076E+07         0.00000E+00
    0.00000E+00         0.00000E+00        -0.46930E+05
 
    0.75207E+06         0.52759E+06         0.00000E+00
    0.52759E+06        -0.10045E+07         0.00000E+00
    0.00000E+00         0.00000E+00        -0.50484E+05
 
    0.73098E+06         0.56688E+06         0.00000E+00
    0.56688E+06        -0.10011E+07         0.00000E+00
    0.00000E+00         0.00000E+00        -0.54030E+05
 
    0.70969E+06         0.60573E+06         0.00000E+00
    0.60573E+06        -0.99754E+06         0.00000E+00
    0.00000E+00         0.00000E+00        -0.57569E+05
 
    0.68819E+06         0.64415E+06         0.00000E+00
    0.64415E+06        -0.99369E+06         0.00000E+00
    0.00000E+00         0.00000E+00        -0.61100E+05
 
    0.66649E+06         0.68214E+06         0.00000E+00
    0.68214E+06        -0.98960E+06         0.00000E+00
    0.00000E+00         0.00000E+00        -0.64622E+05
 
    0.64458E+06         0.71968E+06         0.00000E+00
    0.71968E+06        -0.98526E+06         0.00000E+00
    0.00000E+00         0.00000E+00        -0.68136E+05
 
    0.62247E+06         0.75680E+06         0.00000E+00
    0.75680E+06        -0.98067E+06         0.00000E+00
    0.00000E+00         0.00000E+00        -0.71641E+05
 
    0.60015E+06         0.79347E+06         0.00000E+00
    0.79347E+06        -0.97584E+06         0.00000E+00
    0.00000E+00         0.00000E+00        -0.75137E+05
 
    0.57764E+06         0.82970E+06         0.00000E+00
    0.82970E+06        -0.97076E+06         0.00000E+00
    0.00000E+00         0.00000E+00        -0.78625E+05
 
    0.55493E+06         0.86549E+06         0.00000E+00
    0.86549E+06        -0.96544E+06         0.00000E+00
    0.00000E+00         0.00000E+00        -0.82102E+05
 
    0.53202E+06         0.90084E+06         0.00000E+00
    0.90084E+06        -0.95987E+06         0.00000E+00
    0.00000E+00         0.00000E+00        -0.85571E+05
 
    0.50891E+06         0.93575E+06         0.00000E+00
    0.93575E+06        -0.95406E+06         0.00000E+00
    0.00000E+00         0.00000E+00        -0.89030E+05
 
    0.48561E+06         0.97021E+06         0.00000E+00
    0.97021E+06        -0.94800E+06         0.00000E+00
    0.00000E+00         0.00000E+00        -0.92479E+05
 
    0.46210E+06         0.10042E+07         0.00000E+00
    0.10042E+07        -0.94169E+06         0.00000E+00
    0.00000E+00         0.00000E+00        -0.95918E+05
 
    0.43840E+06         0.10378E+07         0.00000E+00
    0.10378E+07        -0.93514E+06         0.00000E+00
    0.00000E+00         0.00000E+00        -0.99347E+05
 
    0.41451E+06         0.10709E+07         0.00000E+00
    0.10709E+07        -0.92834E+06         0.00000E+00
    0.00000E+00         0.00000E+00        -0.10277E+06
 
    0.39041E+06         0.11036E+07         0.00000E+00
    0.11036E+07        -0.92129E+06         0.00000E+00
    0.00000E+00         0.00000E+00        -0.10618E+06
 
    0.36612E+06         0.11358E+07         0.00000E+00
    0.11358E+07        -0.91400E+06         0.00000E+00
    0.00000E+00         0.00000E+00        -0.10957E+06
 
    0.34163E+06         0.11675E+07         0.00000E+00
    0.11675E+07        -0.90645E+06         0.00000E+00
    0.00000E+00         0.00000E+00        -0.11296E+06
 
    0.31694E+06         0.11988E+07         0.00000E+00
    0.11988E+07        -0.89865E+06         0.00000E+00
    0.00000E+00         0.00000E+00        -0.11634E+06
 
    0.29206E+06         0.12297E+07         0.00000E+00
    0.12297E+07        -0.89061E+06         0.00000E+00
    0.00000E+00         0.00000E+00        -0.11971E+06
 
    0.26697E+06         0.12601E+07         0.00000E+00
    0.12601E+07        -0.88231E+06         0.00000E+00
    0.00000E+00         0.00000E+00        -0.12307E+06
 
    0.24168E+06         0.12900E+07         0.00000E+00
    0.12900E+07        -0.87376E+06         0.00000E+00
    0.00000E+00         0.00000E+00        -0.12642E+06
 
    0.21619E+06         0.13194E+07         0.00000E+00
    0.13194E+07        -0.86495E+06         0.00000E+00
    0.00000E+00         0.00000E+00        -0.12975E+06
 
    0.19050E+06         0.13484E+07         0.00000E+00
    0.13484E+07        -0.85590E+06         0.00000E+00
    0.00000E+00         0.00000E+00        -0.13308E+06
 
    0.16460E+06         0.13769E+07         0.00000E+00
    0.13769E+07        -0.84658E+06         0.00000E+00
    0.00000E+00         0.00000E+00        -0.13640E+06
 
    0.13849E+06         0.14049E+07         0.00000E+00
    0.14049E+07        -0.83701E+06         0.00000E+00
    0.00000E+00         0.00000E+00        -0.13970E+06
 
    0.11218E+06         0.14325E+07         0.00000E+00
    0.14325E+07        -0.82718E+06         0.00000E+00
    0.00000E+00         0.00000E+00        -0.14300E+06
 
    0.85661E+05         0.14595E+07         0.00000E+00
    0.14595E+07        -0.81709E+06         0.00000E+00
    0.00000E+00         0.00000E+00        -0.14629E+06
 
    0.58929E+05         0.14861E+07         0.00000E+00
    0.14861E+07        -0.80674E+06         0.00000E+00
    0.00000E+00         0.00000E+00        -0.14956E+06
 
    0.31985E+05         0.15122E+07         0.00000E+00
    0.15122E+07        -0.79612E+06         0.00000E+00
    0.00000E+00         0.00000E+00        -0.15283E+06
 
    0.48276E+04         0.15378E+07         0.00000E+00
    0.15378E+07        -0.78525E+06         0.00000E+00
    0.00000E+00         0.00000E+00        -0.15608E+06
 
   -0.22546E+05         0.15629E+07         0.00000E+00
    0.15629E+07        -0.77411E+06         0.00000E+00
    0.00000E+00         0.00000E+00        -0.15933E+06
 
   -0.50138E+05         0.15876E+07         0.00000E+00
    0.15876E+07        -0.76270E+06         0.00000E+00
    0.00000E+00         0.00000E+00        -0.16257E+06
 
   -0.77949E+05         0.16117E+07         0.00000E+00
    0.16117E+07        -0.75103E+06         0.00000E+00
    0.00000E+00         0.00000E+00        -0.16580E+06
 
   -0.10598E+06         0.16353E+07         0.00000E+00
    0.16353E+07        -0.73908E+06         0.00000E+00
    0.00000E+00         0.00000E+00        -0.16901E+06
 
   -0.13424E+06         0.16584E+07         0.00000E+00
    0.16584E+07        -0.72687E+06         0.00000E+00
    0.00000E+00         0.00000E+00        -0.17222E+06
 
   -0.16272E+06         0.16810E+07         0.00000E+00
    0.16810E+07        -0.71439E+06         0.00000E+00
    0.00000E+00         0.00000E+00        -0.17542E+06
 
    0.10709E+07         0.23408E+05         0.00000E+00
    0.23408E+05        -0.11682E+07         0.00000E+00
    0.00000E+00         0.00000E+00        -0.19458E+05
 
    0.10505E+07         0.69207E+05         0.00000E+00
    0.69207E+05        -0.11679E+07         0.00000E+00
    0.00000E+00         0.00000E+00        -0.23494E+05
 
    0.10298E+07         0.11457E+06         0.00000E+00
    0.11457E+06        -0.11674E+07         0.00000E+00
    0.00000E+00         0.00000E+00        -0.27523E+05
 
    0.10088E+07         0.15950E+06         0.00000E+00
    0.15950E+06        -0.11665E+07         0.00000E+00
    0.00000E+00         0.00000E+00        -0.31546E+05
 
    0.98756E+06         0.20400E+06         0.00000E+00
    0.20400E+06        -0.11654E+07         0.00000E+00
    0.00000E+00         0.00000E+00        -0.35561E+05
 
    0.96611E+06         0.24806E+06         0.00000E+00
    0.24806E+06        -0.11640E+07         0.00000E+00
    0.00000E+00         0.00000E+00        -0.39569E+05
 
    0.94441E+06         0.29169E+06         0.00000E+00
    0.29169E+06        -0.11623E+07         0.00000E+00
    0.00000E+00         0.00000E+00        -0.43569E+05
 
    0.92249E+06         0.33488E+06         0.00000E+00
    0.33488E+06        -0.11603E+07         0.00000E+00
    0.00000E+00         0.00000E+00        -0.47560E+05
 
    0.90033E+06         0.37764E+06         0.00000E+00
    0.37764E+06        -0.11580E+07         0.00000E+00
    0.00000E+00         0.00000E+00        -0.51542E+05
 
    0.87795E+06         0.41996E+06         0.00000E+00
    0.41996E+06        -0.11555E+07         0.00000E+00
    0.00000E+00         0.00000E+00        -0.55515E+05
 
    0.85535E+06         0.46184E+06         0.00000E+00
    0.46184E+06        -0.11527E+07         0.00000E+00
    0.00000E+00         0.00000E+00        -0.59479E+05
 
    0.83252E+06         0.50329E+06         0.00000E+00
    0.50329E+06        -0.11497E+07         0.00000E+00
    0.00000E+00         0.00000E+00        -0.63432E+05
 
    0.80948E+06         0.54431E+06         0.00000E+00
    0.54431E+06        -0.11464E+07         0.00000E+00
    0.00000E+00         0.00000E+00        -0.67376E+05
 
    0.78623E+06         0.58488E+06         0.00000E+00
    0.58488E+06        -0.11428E+07         0.00000E+00
    0.00000E+00         0.00000E+00        -0.71308E+05
 
    0.76276E+06         0.62503E+06         0.00000E+00
    0.62503E+06        -0.11389E+07         0.00000E+00
    0.00000E+00         0.00000E+00        -0.75230E+05
 
    0.73908E+06         0.66473E+06         0.00000E+00
    0.66473E+06        -0.11348E+07         0.00000E+00
    0.00000E+00         0.00000E+00        -0.79141E+05
 
    0.71519E+06         0.70400E+06         0.00000E+00
    0.70400E+06        -0.11304E+07         0.00000E+00
    0.00000E+00         0.00000E+00        -0.83040E+05
 
    0.69109E+06         0.74283E+06         0.00000E+00
    0.74283E+06        -0.11257E+07         0.00000E+00
    0.00000E+00         0.00000E+00        -0.86928E+05
 
    0.66679E+06         0.78122E+06         0.00000E+00
    0.78122E+06        -0.11208E+07         0.00000E+00
    0.00000E+00         0.00000E+00        -0.90803E+05
 
    0.64228E+06         0.81917E+06         0.00000E+00
    0.81917E+06        -0.11156E+07         0.00000E+00
    0.00000E+00         0.00000E+00        -0.94667E+05
 
    0.61757E+06         0.85668E+06         0.00000E+00
    0.85668E+06        -0.11102E+07         0.00000E+00
    0.00000E+00         0.00000E+00        -0.98519E+05
 
    0.59265E+06         0.89376E+06         0.00000E+00
    0.89376E+06        -0.11044E+07         0.00000E+00
    0.00000E+00         0.00000E+00        -0.10236E+06
 
    0.56753E+06         0.93039E+06         0.00000E+00
    0.93039E+06        -0.10985E+07         0.00000E+00
    0.00000E+00         0.00000E+00        -0.10618E+06
 
    0.54220E+06         0.96658E+06         0.00000E+00
    0.96658E+06        -0.10922E+07         0.00000E+00
    0.00000E+00         0.00000E+00        -0.11000E+06
 
    0.51667E+06         0.10023E+07         0.00000E+00
    0.10023E+07        -0.10857E+07         0.00000E+00
    0.00000E+00         0.00000E+00        -0.11380E+06
 
    0.49094E+06         0.10376E+07         0.00000E+00
    0.10376E+07        -0.10789E+07         0.00000E+00
    0.00000E+00         0.00000E+00        -0.11759E+06
 
    0.46500E+06         0.10725E+07         0.00000E+00
    0.10725E+07        -0.10718E+07         0.00000E+00
    0.00000E+00         0.00000E+00        -0.12136E+06
 
    0.43886E+06         0.11069E+07         0.00000E+00
    0.11069E+07        -0.10645E+07         0.00000E+00
    0.00000E+00         0.00000E+00        -0.12513E+06
 
    0.41251E+06         0.11409E+07         0.00000E+00
    0.11409E+07        -0.10569E+07         0.00000E+00
    0.00000E+00         0.00000E+00        -0.12888E+06
 
    0.38596E+06         0.11744E+07         0.00000E+00
    0.11744E+07        -0.10490E+07         0.00000E+00
    0.00000E+00         0.00000E+00        -0.13261E+06
 
    0.35920E+06         0.12074E+07         0.00000E+00
    0.12074E+07        -0.10409E+07         0.00000E+00
    0.00000E+00         0.00000E+00        -0.13634E+06
 
    0.33223E+06         0.12400E+07         0.00000E+00
    0.12400E+07        -0.10325E+07         0.00000E+00
    0.00000E+00         0.00000E+00        -0.14005E+06
 
    0.30505E+06         0.12722E+07         0.00000E+00
    0.12722E+07        -0.10238E+07         0.00000E+00
    0.00000E+00         0.00000E+00        -0.14375E+06
 
    0.27766E+06         0.13039E+07         0.00000E+00
    0.13039E+07        -0.10148E+07         0.00000E+00
    0.00000E+00         0.00000E+00        -0.14743E+06
 
    0.25006E+06         0.13351E+07         0.00000E+00
    0.13351E+07        -0.10056E+07         0.00000E+00
    0.00000E+00         0.00000E+00        -0.15110E+06
 
    0.22224E+06         0.13659E+07         0.00000E+00
    0.13659E+07        -0.99605E+06         0.00000E+00
    0.00000E+00         0.00000E+00        -0.15476E+06
 
    0.19421E+06         0.13962E+07         0.00000E+00
    0.13962E+07        -0.98625E+06         0.00000E+00
    0.00000E+00         0.00000E+00        -0.15841E+06
 
    0.16596E+06         0.14261E+07         0.00000E+00
    0.14261E+07        -0.97616E+06         0.00000E+00
    0.00000E+00         0.00000E+00        -0.16204E+06
 
    0.13749E+06         0.14555E+07         0.00000E+00
    0.14555E+07        -0.96580E+06         0.00000E+00
    0.00000E+00         0.00000E+00        -0.16566E+06
 
    0.10880E+06         0.14844E+07         0.00000E+00
    0.14844E+07        -0.95514E+06         0.00000E+00
    0.00000E+00         0.00000E+00        -0.16927E+06
 
    0.79886E+05         0.15128E+07         0.00000E+00
    0.15128E+07        -0.94420E+06         0.00000E+00
    0.00000E+00         0.00000E+00        -0.17286E+06
 
    0.50745E+05         0.15408E+07         0.00000E+00
    0.15408E+07        -0.93298E+06         0.00000E+00
    0.00000E+00         0.00000E+00        -0.17645E+06
 
    0.21374E+05         0.15683E+07         0.00000E+00
    0.15683E+07        -0.92146E+06         0.00000E+00
    0.00000E+00         0.00000E+00        -0.18002E+06
 
   -0.82270E+04         0.15953E+07         0.00000E+00
    0.15953E+07        -0.90965E+06         0.00000E+00
    0.00000E+00         0.00000E+00        -0.18357E+06
 
   -0.38062E+05         0.16218E+07         0.00000E+00
    0.16218E+07        -0.89754E+06         0.00000E+00
    0.00000E+00         0.00000E+00        -0.18712E+06
 
   -0.68133E+05         0.16478E+07         0.00000E+00
    0.16478E+07        -0.88514E+06         0.00000E+00
    0.00000E+00         0.00000E+00        -0.19066E+06
 
   -0.98444E+05         0.16733E+07         0.00000E+00
    0.16733E+07        -0.87245E+06         0.00000E+00
    0.00000E+00         0.00000E+00        -0.19418E+06
 
   -0.12900E+06         0.16984E+07         0.00000E+00
    0.16984E+07        -0.85945E+06         0.00000E+00
    0.00000E+00         0.00000E+00        -0.19769E+06
 
   -0.15979E+06         0.17229E+07         0.00000E+00
    0.17229E+07        -0.84615E+06         0.00000E+00
    0.00000E+00         0.00000E+00        -0.20119E+06
 
   -0.19084E+06         0.17469E+07         0.00000E+00
    0.17469E+07        -0.83255E+06         0.00000E+00
    0.00000E+00         0.00000E+00        -0.20468E+06
 
    0.11508E+07         0.24162E+05         0.00000E+00
    0.24162E+05        -0.13221E+07         0.00000E+00
    0.00000E+00         0.00000E+00        -0.34255E+05
 
    0.11282E+07         0.71438E+05         0.00000E+00
    0.71438E+05        -0.13218E+07         0.00000E+00
    0.00000E+00         0.00000E+00        -0.38728E+05
 
    0.11052E+07         0.11827E+06         0.00000E+00
    0.11827E+06        -0.13212E+07         0.00000E+00
    0.00000E+00         0.00000E+00        -0.43190E+05
 
    0.10821E+07         0.16465E+06         0.00000E+00
    0.16465E+06        -0.13203E+07         0.00000E+00
    0.00000E+00         0.00000E+00        -0.47643E+05
 
    0.10587E+07         0.21059E+06         0.00000E+00
    0.21059E+06        -0.13191E+07         0.00000E+00
    0.00000E+00         0.00000E+00        -0.52084E+05
 
    0.10350E+07         0.25608E+06         0.00000E+00
    0.25608E+06        -0.13176E+07         0.00000E+00
    0.00000E+00         0.00000E+00        -0.56515E+05
 
    0.10111E+07         0.30113E+06         0.00000E+00
    0.30113E+06        -0.13158E+07         0.00000E+00
    0.00000E+00         0.00000E+00        -0.60933E+05
 
    0.98699E+06         0.34574E+06         0.00000E+00
    0.34574E+06        -0.13137E+07         0.00000E+00
    0.00000E+00         0.00000E+00        -0.65340E+05
 
    0.96264E+06         0.38990E+06         0.00000E+00
    0.38990E+06        -0.13113E+07         0.00000E+00
    0.00000E+00         0.00000E+00        -0.69733E+05
 
    0.93807E+06         0.43362E+06         0.00000E+00
    0.43362E+06        -0.13086E+07         0.00000E+00
    0.00000E+00         0.00000E+00        -0.74114E+05
 
    0.91327E+06         0.47690E+06         0.00000E+00
    0.47690E+06        -0.13057E+07         0.00000E+00
    0.00000E+00         0.00000E+00        -0.78482E+05
 
    0.88826E+06         0.51974E+06         0.00000E+00
    0.51974E+06        -0.13024E+07         0.00000E+00
    0.00000E+00         0.00000E+00        -0.82836E+05
 
    0.86303E+06         0.56214E+06         0.00000E+00
    0.56214E+06        -0.12989E+07         0.00000E+00
    0.00000E+00         0.00000E+00        -0.87176E+05
 
    0.83758E+06         0.60410E+06         0.00000E+00
    0.60410E+06        -0.12951E+07         0.00000E+00
    0.00000E+00         0.00000E+00        -0.91502E+05
 
    0.81192E+06         0.64563E+06         0.00000E+00
    0.64563E+06        -0.12910E+07         0.00000E+00
    0.00000E+00         0.00000E+00        -0.95813E+05
 
    0.78606E+06         0.68671E+06         0.00000E+00
    0.68671E+06        -0.12866E+07         0.00000E+00
    0.00000E+00         0.00000E+00        -0.10011E+06
 
    0.75998E+06         0.72735E+06         0.00000E+00
    0.72735E+06        -0.12819E+07         0.00000E+00
    0.00000E+00         0.00000E+00        -0.10439E+06
 
    0.73369E+06         0.76756E+06         0.00000E+00
    0.76756E+06        -0.12770E+07         0.00000E+00
    0.00000E+00         0.00000E+00        -0.10866E+06
 
    0.70719E+06         0.80733E+06         0.00000E+00
    0.80733E+06        -0.12717E+07         0.00000E+00
    0.00000E+00         0.00000E+00        -0.11291E+06
 
    0.68049E+06         0.84666E+06         0.00000E+00
    0.84666E+06        -0.12662E+07         0.00000E+00
    0.00000E+00         0.00000E+00        -0.11714E+06
 
    0.65358E+06         0.88555E+06         0.00000E+00
    0.88555E+06        -0.12604E+07         0.00000E+00
    0.00000E+00         0.00000E+00        -0.12136E+06
 
    0.62647E+06         0.92400E+06         0.00000E+00
    0.92400E+06        -0.12543E+07         0.00000E+00
    0.00000E+00         0.00000E+00        -0.12557E+06
 
    0.59914E+06         0.96202E+06         0.00000E+00
    0.96202E+06        -0.12479E+07         0.00000E+00
    0.00000E+00         0.00000E+00        -0.12976E+06
 
    0.57161E+06         0.99959E+06         0.00000E+00
    0.99959E+06        -0.12413E+07         0.00000E+00
    0.00000E+00         0.00000E+00        -0.13393E+06
 
    0.54388E+06         0.10367E+07         0.00000E+00
    0.10367E+07        -0.12343E+07         0.00000E+00
    0.00000E+00         0.00000E+00        -0.13809E+06
 
    0.51593E+06         0.10734E+07         0.00000E+00
    0.10734E+07        -0.12271E+07         0.00000E+00
    0.00000E+00         0.00000E+00        -0.14223E+06
 
    0.48778E+06         0.11097E+07         0.00000E+00
    0.11097E+07        -0.12195E+07         0.00000E+00
    0.00000E+00         0.00000E+00        -0.14635E+06
 
    0.45941E+06         0.11455E+07         0.00000E+00
    0.11455E+07        -0.12117E+07         0.00000E+00
    0.00000E+00         0.00000E+00        -0.15046E+06
 
    0.43083E+06         0.11809E+07         0.00000E+00
    0.11809E+07        -0.12036E+07         0.00000E+00
    0.00000E+00         0.00000E+00        -0.15455E+06
 
    0.40205E+06         0.12158E+07         0.00000E+00
    0.12158E+07        -0.11952E+07         0.00000E+00
    0.00000E+00         0.00000E+00        -0.15862E+06
 
    0.37304E+06         0.12503E+07         0.00000E+00
    0.12503E+07        -0.11865E+07         0.00000E+00
    0.00000E+00         0.00000E+00        -0.16268E+06
 
    0.34382E+06         0.12843E+07         0.00000E+00
    0.12843E+07        -0.11774E+07         0.00000E+00
    0.00000E+00         0.00000E+00        -0.16672E+06
 
    0.31438E+06         0.13179E+07         0.00000E+00
    0.13179E+07        -0.11681E+07         0.00000E+00
    0.00000E+00         0.00000E+00        -0.17075E+06
 
    0.28473E+06         0.13511E+07         0.00000E+00
    0.13511E+07        -0.11585E+07         0.00000E+00
    0.00000E+00         0.00000E+00        -0.17476E+06
 
    0.25485E+06         0.13838E+07         0.00000E+00
    0.13838E+07        -0.11486E+07         0.00000E+00
    0.00000E+00         0.00000E+00        -0.17876E+06
 
    0.22474E+06         0.14160E+07         0.00000E+00
    0.14160E+07        -0.11384E+07         0.00000E+00
    0.00000E+00         0.00000E+00        -0.18274E+06
 
    0.19441E+06         0.14478E+07         0.00000E+00
    0.14478E+07        -0.11279E+07         0.00000E+00
    0.00000E+00         0.00000E+00        -0.18670E+06
 
    0.16385E+06         0.14791E+07         0.00000E+00
    0.14791E+07        -0.11171E+07         0.00000E+00
    0.00000E+00         0.00000E+00        -0.19065E+06
 
    0.13306E+06         0.15100E+07         0.00000E+00
    0.15100E+07        -0.11059E+07         0.00000E+00
    0.00000E+00         0.00000E+00        -0.19458E+06
 
    0.10203E+06         0.15404E+07         0.00000E+00
    0.15404E+07        -0.10945E+07         0.00000E+00
    0.00000E+00         0.00000E+00        -0.19849E+06
 
    0.70763E+05         0.15703E+07         0.00000E+00
    0.15703E+07        -0.10827E+07         0.00000E+00
    0.00000E+00         0.00000E+00        -0.20239E+06
 
    0.39255E+05         0.15998E+07         0.00000E+00
    0.15998E+07        -0.10707E+07         0.00000E+00
    0.00000E+00         0.00000E+00        -0.20628E+06
 
    0.75026E+04         0.16288E+07         0.00000E+00
    0.16288E+07        -0.10583E+07         0.00000E+00
    0.00000E+00         0.00000E+00        -0.21015E+06
 
   -0.24497E+05         0.16574E+07         0.00000E+00
    0.16574E+07        -0.10455E+07         0.00000E+00
    0.00000E+00         0.00000E+00        -0.21401E+06
 
   -0.56748E+05         0.16854E+07         0.00000E+00
    0.16854E+07        -0.10325E+07         0.00000E+00
    0.00000E+00         0.00000E+00        -0.21785E+06
 
   -0.89253E+05         0.17130E+07         0.00000E+00
    0.17130E+07        -0.10191E+07         0.00000E+00
    0.00000E+00         0.00000E+00        -0.22168E+06
 
   -0.12202E+06         0.17401E+07         0.00000E+00
    0.17401E+07        -0.10054E+07         0.00000E+00
    0.00000E+00         0.00000E+00        -0.22549E+06
 
   -0.15504E+06         0.17667E+07         0.00000E+00
    0.17667E+07        -0.99141E+06         0.00000E+00
    0.00000E+00         0.00000E+00        -0.22929E+06
 
   -0.18833E+06         0.17928E+07         0.00000E+00
    0.17928E+07        -0.97705E+06         0.00000E+00
    0.00000E+00         0.00000E+00        -0.23308E+06
 
   -0.22189E+06         0.18185E+07         0.00000E+00
    0.18185E+07        -0.96236E+06         0.00000E+00
    0.00000E+00         0.00000E+00        -0.23685E+06
 
    0.12266E+07         0.24957E+05         0.00000E+00
    0.24957E+05        -0.14877E+07         0.00000E+00
    0.00000E+00         0.00000E+00        -0.52222E+05
 
    0.12017E+07         0.73789E+05         0.00000E+00
    0.73789E+05        -0.14874E+07         0.00000E+00
    0.00000E+00         0.00000E+00        -0.57145E+05
 
    0.11765E+07         0.12216E+06         0.00000E+00
    0.12216E+06        -0.14868E+07         0.00000E+00
    0.00000E+00         0.00000E+00        -0.62055E+05
 
    0.11511E+07         0.17008E+06         0.00000E+00
    0.17008E+06        -0.14858E+07         0.00000E+00
    0.00000E+00         0.00000E+00        -0.66949E+05
 
    0.11254E+07         0.21754E+06         0.00000E+00
    0.21754E+06        -0.14845E+07         0.00000E+00
    0.00000E+00         0.00000E+00        -0.71828E+05
 
    0.10995E+07         0.26454E+06         0.00000E+00
    0.26454E+06        -0.14830E+07         0.00000E+00
    0.00000E+00         0.00000E+00        -0.76692E+05
 
    0.10734E+07         0.31110E+06         0.00000E+00
    0.31110E+06        -0.14811E+07         0.00000E+00
    0.00000E+00         0.00000E+00        -0.81540E+05
 
    0.10470E+07         0.35720E+06         0.00000E+00
    0.35720E+06        -0.14789E+07         0.00000E+00
    0.00000E+00         0.00000E+00        -0.86371E+05
 
    0.10204E+07         0.40285E+06         0.00000E+00
    0.40285E+06        -0.14764E+07         0.00000E+00
    0.00000E+00         0.00000E+00        -0.91186E+05
 
    0.99365E+06         0.44806E+06         0.00000E+00
    0.44806E+06        -0.14736E+07         0.00000E+00
    0.00000E+00         0.00000E+00        -0.95984E+05
 
    0.96664E+06         0.49282E+06         0.00000E+00
    0.49282E+06        -0.14705E+07         0.00000E+00
    0.00000E+00         0.00000E+00        -0.10076E+06
 
    0.93941E+06         0.53713E+06         0.00000E+00
    0.53713E+06        -0.14670E+07         0.00000E+00
    0.00000E+00         0.00000E+00        -0.10553E+06
 
    0.91198E+06         0.58100E+06         0.00000E+00
    0.58100E+06        -0.14633E+07         0.00000E+00
    0.00000E+00         0.00000E+00        -0.11027E+06
 
    0.88433E+06         0.62443E+06         0.00000E+00
    0.62443E+06        -0.14593E+07         0.00000E+00
    0.00000E+00         0.00000E+00        -0.11500E+06
 
    0.85648E+06         0.66742E+06         0.00000E+00
    0.66742E+06        -0.14550E+07         0.00000E+00
    0.00000E+00         0.00000E+00        -0.11970E+06
 
    0.82841E+06         0.70997E+06         0.00000E+00
    0.70997E+06        -0.14504E+07         0.00000E+00
    0.00000E+00         0.00000E+00        -0.12439E+06
 
    0.80014E+06         0.75208E+06         0.00000E+00
    0.75208E+06        -0.14454E+07         0.00000E+00
    0.00000E+00         0.00000E+00        -0.12906E+06
 
    0.77167E+06         0.79376E+06         0.00000E+00
    0.79376E+06        -0.14402E+07         0.00000E+00
    0.00000E+00         0.00000E+00        -0.13371E+06
 
    0.74299E+06         0.83500E+06         0.00000E+00
    0.83500E+06        -0.14347E+07         0.00000E+00
    0.00000E+00         0.00000E+00        -0.13834E+06
 
    0.71410E+06         0.87580E+06         0.00000E+00
    0.87580E+06        -0.14289E+07         0.00000E+00
    0.00000E+00         0.00000E+00        -0.14295E+06
 
    0.68501E+06         0.91616E+06         0.00000E+00
    0.91616E+06        -0.14227E+07         0.00000E+00
    0.00000E+00         0.00000E+00        -0.14754E+06
 
    0.65571E+06         0.95610E+06         0.00000E+00
    0.95610E+06        -0.14163E+07         0.00000E+00
    0.00000E+00         0.00000E+00        -0.15211E+06
 
    0.62620E+06         0.99559E+06         0.00000E+00
    0.99559E+06        -0.14095E+07         0.00000E+00
    0.00000E+00         0.00000E+00        -0.15667E+06
 
    0.59649E+06         0.10347E+07         0.00000E+00
    0.10347E+07        -0.14025E+07         0.00000E+00
    0.00000E+00         0.00000E+00        -0.16120E+06
 
    0.56657E+06         0.10733E+07         0.00000E+00
    0.10733E+07        -0.13951E+07         0.00000E+00
    0.00000E+00         0.00000E+00        -0.16571E+06
 
    0.53644E+06         0.11115E+07         0.00000E+00
    0.11115E+07        -0.13875E+07         0.00000E+00
    0.00000E+00         0.00000E+00        -0.17020E+06
 
    0.50609E+06         0.11492E+07         0.00000E+00
    0.11492E+07        -0.13795E+07         0.00000E+00
    0.00000E+00         0.00000E+00        -0.17468E+06
 
    0.47554E+06         0.11866E+07         0.00000E+00
    0.11866E+07        -0.13712E+07         0.00000E+00
    0.00000E+00         0.00000E+00        -0.17913E+06
 
    0.44477E+06         0.12235E+07         0.00000E+00
    0.12235E+07        -0.13626E+07         0.00000E+00
    0.00000E+00         0.00000E+00        -0.18356E+06
 
    0.41378E+06         0.12599E+07         0.00000E+00
    0.12599E+07        -0.13536E+07         0.00000E+00
    0.00000E+00         0.00000E+00        -0.18797E+06
 
    0.38257E+06         0.12960E+07         0.00000E+00
    0.12960E+07        -0.13444E+07         0.00000E+00
    0.00000E+00         0.00000E+00        -0.19237E+06
 
    0.35115E+06         0.13315E+07         0.00000E+00
    0.13315E+07        -0.13348E+07         0.00000E+00
    0.00000E+00         0.00000E+00        -0.19674E+06
 
    0.31949E+06         0.13667E+07         0.00000E+00
    0.13667E+07        -0.13250E+07         0.00000E+00
    0.00000E+00         0.00000E+00        -0.20109E+06
 
    0.28761E+06         0.14014E+07         0.00000E+00
    0.14014E+07        -0.13148E+07         0.00000E+00
    0.00000E+00         0.00000E+00        -0.20543E+06
 
    0.25550E+06         0.14357E+07         0.00000E+00
    0.14357E+07        -0.13042E+07         0.00000E+00
    0.00000E+00         0.00000E+00        -0.20974E+06
 
    0.22316E+06         0.14695E+07         0.00000E+00
    0.14695E+07        -0.12934E+07         0.00000E+00
    0.00000E+00         0.00000E+00        -0.21404E+06
 
    0.19058E+06         0.15029E+07         0.00000E+00
    0.15029E+07        -0.12822E+07         0.00000E+00
    0.00000E+00         0.00000E+00        -0.21832E+06
 
    0.15776E+06         0.15358E+07         0.00000E+00
    0.15358E+07        -0.12706E+07         0.00000E+00
    0.00000E+00         0.00000E+00        -0.22257E+06
 
    0.12469E+06         0.15683E+07         0.00000E+00
    0.15683E+07        -0.12588E+07         0.00000E+00
    0.00000E+00         0.00000E+00        -0.22681E+06
 
    0.91380E+05         0.16004E+07         0.00000E+00
    0.16004E+07        -0.12466E+07         0.00000E+00
    0.00000E+00         0.00000E+00        -0.23103E+06
 
    0.57818E+05         0.16320E+07         0.00000E+00
    0.16320E+07        -0.12340E+07         0.00000E+00
    0.00000E+00         0.00000E+00        -0.23524E+06
 
    0.24000E+05         0.16631E+07         0.00000E+00
    0.16631E+07        -0.12211E+07         0.00000E+00
    0.00000E+00         0.00000E+00        -0.23942E+06
 
   -0.10077E+05         0.16938E+07         0.00000E+00
    0.16938E+07        -0.12079E+07         0.00000E+00
    0.00000E+00         0.00000E+00        -0.24359E+06
 
   -0.44417E+05         0.17240E+07         0.00000E+00
    0.17240E+07        -0.11943E+07         0.00000E+00
    0.00000E+00         0.00000E+00        -0.24774E+06
 
   -0.79024E+05         0.17538E+07         0.00000E+00
    0.17538E+07        -0.11803E+07         0.00000E+00
    0.00000E+00         0.00000E+00        -0.25187E+06
 
   -0.11390E+06         0.17831E+07         0.00000E+00
    0.17831E+07        -0.11660E+07         0.00000E+00
    0.00000E+00         0.00000E+00        -0.25599E+06
 
   -0.14906E+06         0.18119E+07         0.00000E+00
    0.18119E+07        -0.11514E+07         0.00000E+00
    0.00000E+00         0.00000E+00        -0.26008E+06
 
   -0.18449E+06         0.18402E+07         0.00000E+00
    0.18402E+07        -0.11363E+07         0.00000E+00
    0.00000E+00         0.00000E+00        -0.26417E+06
 
   -0.22022E+06         0.18681E+07         0.00000E+00
    0.18681E+07        -0.11209E+07         0.00000E+00
    0.00000E+00         0.00000E+00        -0.26823E+06
 
   -0.25623E+06         0.18955E+07         0.00000E+00
    0.18955E+07        -0.11052E+07         0.00000E+00
    0.00000E+00         0.00000E+00        -0.27228E+06
 
    0.12974E+07         0.25787E+05         0.00000E+00
    0.25787E+05        -0.16663E+07         0.00000E+00
    0.00000E+00         0.00000E+00        -0.73772E+05
 
    0.12702E+07         0.76246E+05         0.00000E+00
    0.76246E+05        -0.16660E+07         0.00000E+00
    0.00000E+00         0.00000E+00        -0.79159E+05
 
    0.12427E+07         0.12623E+06         0.00000E+00
    0.12623E+06        -0.16653E+07         0.00000E+00
    0.00000E+00         0.00000E+00        -0.84527E+05
 
    0.12149E+07         0.17575E+06         0.00000E+00
    0.17575E+06        -0.16643E+07         0.00000E+00
    0.00000E+00         0.00000E+00        -0.89876E+05
 
    0.11870E+07         0.22480E+06         0.00000E+00
    0.22480E+06        -0.16630E+07         0.00000E+00
    0.00000E+00         0.00000E+00        -0.95205E+05
 
    0.11588E+07         0.27339E+06         0.00000E+00
    0.27339E+06        -0.16613E+07         0.00000E+00
    0.00000E+00         0.00000E+00        -0.10051E+06
 
    0.11304E+07         0.32152E+06         0.00000E+00
    0.32152E+06        -0.16594E+07         0.00000E+00
    0.00000E+00         0.00000E+00        -0.10580E+06
 
    0.11017E+07         0.36919E+06         0.00000E+00
    0.36919E+06        -0.16571E+07         0.00000E+00
    0.00000E+00         0.00000E+00        -0.11107E+06
 
    0.10729E+07         0.41641E+06         0.00000E+00
    0.41641E+06        -0.16545E+07         0.00000E+00
    0.00000E+00         0.00000E+00        -0.11631E+06
 
    0.10439E+07         0.46318E+06         0.00000E+00
    0.46318E+06        -0.16515E+07         0.00000E+00
    0.00000E+00         0.00000E+00        -0.12153E+06
 
    0.10146E+07         0.50949E+06         0.00000E+00
    0.50949E+06        -0.16483E+07         0.00000E+00
    0.00000E+00         0.00000E+00        -0.12673E+06
 
    0.98518E+06         0.55536E+06         0.00000E+00
    0.55536E+06        -0.16447E+07         0.00000E+00
    0.00000E+00         0.00000E+00        -0.13191E+06
 
    0.95553E+06         0.60078E+06         0.00000E+00
    0.60078E+06        -0.16409E+07         0.00000E+00
    0.00000E+00         0.00000E+00        -0.13707E+06
 
    0.92567E+06         0.64576E+06         0.00000E+00
    0.64576E+06        -0.16367E+07         0.00000E+00
    0.00000E+00         0.00000E+00        -0.14220E+06
 
    0.89562E+06         0.69030E+06         0.00000E+00
    0.69030E+06        -0.16321E+07         0.00000E+00
    0.00000E+00         0.00000E+00        -0.14731E+06
 
    0.86536E+06         0.73439E+06         0.00000E+00
    0.73439E+06        -0.16273E+07         0.00000E+00
    0.00000E+00         0.00000E+00        -0.15239E+06
 
    0.83491E+06         0.77806E+06         0.00000E+00
    0.77806E+06        -0.16222E+07         0.00000E+00
    0.00000E+00         0.00000E+00        -0.15745E+06
 
    0.80425E+06         0.82129E+06         0.00000E+00
    0.82129E+06        -0.16167E+07         0.00000E+00
    0.00000E+00         0.00000E+00        -0.16249E+06
 
    0.77340E+06         0.86408E+06         0.00000E+00
    0.86408E+06        -0.16109E+07         0.00000E+00
    0.00000E+00         0.00000E+00        -0.16750E+06
 
    0.74234E+06         0.90644E+06         0.00000E+00
    0.90644E+06        -0.16048E+07         0.00000E+00
    0.00000E+00         0.00000E+00        -0.17249E+06
 
    0.71109E+06         0.94838E+06         0.00000E+00
    0.94838E+06        -0.15984E+07         0.00000E+00
    0.00000E+00         0.00000E+00        -0.17746E+06
 
    0.67963E+06         0.98988E+06         0.00000E+00
    0.98988E+06        -0.15916E+07         0.00000E+00
    0.00000E+00         0.00000E+00        -0.18240E+06
 
    0.64797E+06         0.10310E+07         0.00000E+00
    0.10310E+07        -0.15845E+07         0.00000E+00
    0.00000E+00         0.00000E+00        -0.18732E+06
 
    0.61611E+06         0.10716E+07         0.00000E+00
    0.10716E+07        -0.15771E+07         0.00000E+00
    0.00000E+00         0.00000E+00        -0.19221E+06
 
    0.58404E+06         0.11118E+07         0.00000E+00
    0.11118E+07        -0.15694E+07         0.00000E+00
    0.00000E+00         0.00000E+00        -0.19708E+06
 
    0.55176E+06         0.11516E+07         0.00000E+00
    0.11516E+07        -0.15614E+07         0.00000E+00
    0.00000E+00         0.00000E+00        -0.20192E+06
 
    0.51927E+06         0.11910E+07         0.00000E+00
    0.11910E+07        -0.15530E+07         0.00000E+00
    0.00000E+00         0.00000E+00        -0.20674E+06
 
    0.48657E+06         0.12299E+07         0.00000E+00
    0.12299E+07        -0.15443E+07         0.00000E+00
    0.00000E+00         0.00000E+00        -0.21154E+06
 
    0.45365E+06         0.12685E+07         0.00000E+00
    0.12685E+07        -0.15352E+07         0.00000E+00
    0.00000E+00         0.00000E+00        -0.21631E+06
 
    0.42051E+06         0.13066E+07         0.00000E+00
    0.13066E+07        -0.15258E+07         0.00000E+00
    0.00000E+00         0.00000E+00        -0.22106E+06
 
    0.38716E+06         0.13442E+07         0.00000E+00
    0.13442E+07        -0.15161E+07         0.00000E+00
    0.00000E+00         0.00000E+00        -0.22578E+06
 
    0.35357E+06         0.13815E+07         0.00000E+00
    0.13815E+07        -0.15060E+07         0.00000E+00
    0.00000E+00         0.00000E+00        -0.23049E+06
 
    0.31976E+06         0.14183E+07         0.00000E+00
    0.14183E+07        -0.14956E+07         0.00000E+00
    0.00000E+00         0.00000E+00        -0.23516E+06
 
    0.28571E+06         0.14547E+07         0.00000E+00
    0.14547E+07        -0.14848E+07         0.00000E+00
    0.00000E+00         0.00000E+00        -0.23982E+06
 
    0.25143E+06         0.14907E+07         0.00000E+00
    0.14907E+07        -0.14737E+07         0.00000E+00
    0.00000E+00         0.00000E+00        -0.24445E+06
 
    0.21691E+06         0.15262E+07         0.00000E+00
    0.15262E+07        -0.14622E+07         0.00000E+00
    0.00000E+00         0.00000E+00        -0.24906E+06
 
    0.18214E+06         0.15614E+07         0.00000E+00
    0.15614E+07        -0.14504E+07         0.00000E+00
    0.00000E+00         0.00000E+00        -0.25365E+06
 
    0.14713E+06         0.15960E+07         0.00000E+00
    0.15960E+07        -0.14382E+07         0.00000E+00
    0.00000E+00         0.00000E+00        -0.25821E+06
 
    0.11186E+06         0.16303E+07         0.00000E+00
    0.16303E+07        -0.14256E+07         0.00000E+00
    0.00000E+00         0.00000E+00        -0.26275E+06
 
    0.76336E+05         0.16641E+07         0.00000E+00
    0.16641E+07        -0.14127E+07         0.00000E+00
    0.00000E+00         0.00000E+00        -0.26727E+06
 
    0.40547E+05         0.16975E+07         0.00000E+00
    0.16975E+07        -0.13994E+07         0.00000E+00
    0.00000E+00         0.00000E+00        -0.27177E+06
 
    0.44902E+04         0.17304E+07         0.00000E+00
    0.17304E+07        -0.13857E+07         0.00000E+00
    0.00000E+00         0.00000E+00        -0.27625E+06
 
   -0.31839E+05         0.17629E+07         0.00000E+00
    0.17629E+07        -0.13717E+07         0.00000E+00
    0.00000E+00         0.00000E+00        -0.28070E+06
 
   -0.68446E+05         0.17950E+07         0.00000E+00
    0.17950E+07        -0.13573E+07         0.00000E+00
    0.00000E+00         0.00000E+00        -0.28514E+06
 
   -0.10534E+06         0.18266E+07         0.00000E+00
    0.18266E+07        -0.13424E+07         0.00000E+00
    0.00000E+00         0.00000E+00        -0.28956E+06
 
   -0.14252E+06         0.18578E+07         0.00000E+00
    0.18578E+07        -0.13272E+07         0.00000E+00
    0.00000E+00         0.00000E+00        -0.29395E+06
 
   -0.17999E+06         0.18885E+07         0.00000E+00
    0.18885E+07        -0.13117E+07         0.00000E+00
    0.00000E+00         0.00000E+00        -0.29833E+06
 
   -0.21776E+06         0.19187E+07         0.00000E+00
    0.19187E+07        -0.12957E+07         0.00000E+00
    0.00000E+00         0.00000E+00        -0.30268E+06
 
   -0.25584E+06         0.19485E+07         0.00000E+00
    0.19485E+07        -0.12793E+07         0.00000E+00
    0.00000E+00         0.00000E+00        -0.30702E+06
 
   -0.29423E+06         0.19779E+07         0.00000E+00
    0.19779E+07        -0.12625E+07         0.00000E+00
    0.00000E+00         0.00000E+00        -0.31134E+06
 
    0.13624E+07         0.26646E+05         0.00000E+00
    0.26646E+05        -0.18591E+07         0.00000E+00
    0.00000E+00         0.00000E+00        -0.99342E+05
 
    0.13327E+07         0.78791E+05         0.00000E+00
    0.78791E+05        -0.18587E+07         0.00000E+00
    0.00000E+00         0.00000E+00        -0.10521E+06
 
    0.13028E+07         0.13045E+06         0.00000E+00
    0.13045E+06        -0.18580E+07         0.00000E+00
    0.00000E+00         0.00000E+00        -0.11105E+06
 
    0.12727E+07         0.18163E+06         0.00000E+00
    0.18163E+06        -0.18570E+07         0.00000E+00
    0.00000E+00         0.00000E+00        -0.11686E+06
 
    0.12424E+07         0.23234E+06         0.00000E+00
    0.23234E+06        -0.18557E+07         0.00000E+00
    0.00000E+00         0.00000E+00        -0.12265E+06
 
    0.12119E+07         0.28258E+06         0.00000E+00
    0.28258E+06        -0.18540E+07         0.00000E+00
    0.00000E+00         0.00000E+00        -0.12841E+06
 
    0.11812E+07         0.33234E+06         0.00000E+00
    0.33234E+06        -0.18519E+07         0.00000E+00
    0.00000E+00         0.00000E+00        -0.13415E+06
 
    0.11503E+07         0.38165E+06         0.00000E+00
    0.38165E+06        -0.18496E+07         0.00000E+00
    0.00000E+00         0.00000E+00        -0.13986E+06
 
    0.11191E+07         0.43049E+06         0.00000E+00
    0.43049E+06        -0.18469E+07         0.00000E+00
    0.00000E+00         0.00000E+00        -0.14554E+06
 
    0.10878E+07         0.47888E+06         0.00000E+00
    0.47888E+06        -0.18438E+07         0.00000E+00
    0.00000E+00         0.00000E+00        -0.15120E+06
 
    0.10563E+07         0.52681E+06         0.00000E+00
    0.52681E+06        -0.18405E+07         0.00000E+00
    0.00000E+00         0.00000E+00        -0.15683E+06
 
    0.10247E+07         0.57430E+06         0.00000E+00
    0.57430E+06        -0.18368E+07         0.00000E+00
    0.00000E+00         0.00000E+00        -0.16243E+06
 
    0.99279E+06         0.62134E+06         0.00000E+00
    0.62134E+06        -0.18328E+07         0.00000E+00
    0.00000E+00         0.00000E+00        -0.16800E+06
 
    0.96073E+06         0.66794E+06         0.00000E+00
    0.66794E+06        -0.18284E+07         0.00000E+00
    0.00000E+00         0.00000E+00        -0.17354E+06
 
    0.92848E+06         0.71410E+06         0.00000E+00
    0.71410E+06        -0.18237E+07         0.00000E+00
    0.00000E+00         0.00000E+00        -0.17905E+06
 
    0.89604E+06         0.75983E+06         0.00000E+00
    0.75983E+06        -0.18187E+07         0.00000E+00
    0.00000E+00         0.00000E+00        -0.18454E+06
 
    0.86342E+06         0.80512E+06         0.00000E+00
    0.80512E+06        -0.18134E+07         0.00000E+00
    0.00000E+00         0.00000E+00        -0.19000E+06
 
    0.83060E+06         0.84998E+06         0.00000E+00
    0.84998E+06        -0.18077E+07         0.00000E+00
    0.00000E+00         0.00000E+00        -0.19542E+06
 
    0.79760E+06         0.89441E+06         0.00000E+00
    0.89441E+06        -0.18017E+07         0.00000E+00
    0.00000E+00         0.00000E+00        -0.20082E+06
 
    0.76441E+06         0.93842E+06         0.00000E+00
    0.93842E+06        -0.17954E+07         0.00000E+00
    0.00000E+00         0.00000E+00        -0.20619E+06
 
    0.73102E+06         0.98200E+06         0.00000E+00
    0.98200E+06        -0.17887E+07         0.00000E+00
    0.00000E+00         0.00000E+00        -0.21153E+06
 
    0.69744E+06         0.10252E+07         0.00000E+00
    0.10252E+07        -0.17817E+07         0.00000E+00
    0.00000E+00         0.00000E+00        -0.21684E+06
 
    0.66367E+06         0.10679E+07         0.00000E+00
    0.10679E+07        -0.17743E+07         0.00000E+00
    0.00000E+00         0.00000E+00        -0.22212E+06
 
    0.62970E+06         0.11102E+07         0.00000E+00
    0.11102E+07        -0.17666E+07         0.00000E+00
    0.00000E+00         0.00000E+00        -0.22738E+06
 
    0.59553E+06         0.11521E+07         0.00000E+00
    0.11521E+07        -0.17585E+07         0.00000E+00
    0.00000E+00         0.00000E+00        -0.23260E+06
 
    0.56115E+06         0.11936E+07         0.00000E+00
    0.11936E+07        -0.17501E+07         0.00000E+00
    0.00000E+00         0.00000E+00        -0.23780E+06
 
    0.52657E+06         0.12347E+07         0.00000E+00
    0.12347E+07        -0.17414E+07         0.00000E+00
    0.00000E+00         0.00000E+00        -0.24296E+06
 
    0.49177E+06         0.12754E+07         0.00000E+00
    0.12754E+07        -0.17323E+07         0.00000E+00
    0.00000E+00         0.00000E+00        -0.24810E+06
 
    0.45677E+06         0.13157E+07         0.00000E+00
    0.13157E+07        -0.17228E+07         0.00000E+00
    0.00000E+00         0.00000E+00        -0.25321E+06
 
    0.42154E+06         0.13555E+07         0.00000E+00
    0.13555E+07        -0.17130E+07         0.00000E+00
    0.00000E+00         0.00000E+00        -0.25829E+06
 
    0.38610E+06         0.13949E+07         0.00000E+00
    0.13949E+07        -0.17028E+07         0.00000E+00
    0.00000E+00         0.00000E+00        -0.26335E+06
 
    0.35042E+06         0.14340E+07         0.00000E+00
    0.14340E+07        -0.16923E+07         0.00000E+00
    0.00000E+00         0.00000E+00        -0.26837E+06
 
    0.31452E+06         0.14726E+07         0.00000E+00
    0.14726E+07        -0.16814E+07         0.00000E+00
    0.00000E+00         0.00000E+00        -0.27337E+06
 
    0.27838E+06         0.15108E+07         0.00000E+00
    0.15108E+07        -0.16701E+07         0.00000E+00
    0.00000E+00         0.00000E+00        -0.27834E+06
 
    0.24201E+06         0.15486E+07         0.00000E+00
    0.15486E+07        -0.16584E+07         0.00000E+00
    0.00000E+00         0.00000E+00        -0.28328E+06
 
    0.20539E+06         0.15860E+07         0.00000E+00
    0.15860E+07        -0.16464E+07         0.00000E+00
    0.00000E+00         0.00000E+00        -0.28820E+06
 
    0.16851E+06         0.16230E+07         0.00000E+00
    0.16230E+07        -0.16340E+07         0.00000E+00
    0.00000E+00         0.00000E+00        -0.29309E+06
 
    0.13139E+06         0.16595E+07         0.00000E+00
    0.16595E+07        -0.16212E+07         0.00000E+00
    0.00000E+00         0.00000E+00        -0.29795E+06
 
    0.93996E+05         0.16957E+07         0.00000E+00
    0.16957E+07        -0.16080E+07         0.00000E+00
    0.00000E+00         0.00000E+00        -0.30279E+06
 
    0.56339E+05         0.17314E+07         0.00000E+00
    0.17314E+07        -0.15944E+07         0.00000E+00
    0.00000E+00         0.00000E+00        -0.30760E+06
 
    0.18410E+05         0.17667E+07         0.00000E+00
    0.17667E+07        -0.15804E+07         0.00000E+00
    0.00000E+00         0.00000E+00        -0.31239E+06
 
   -0.19798E+05         0.18016E+07         0.00000E+00
    0.18016E+07        -0.15660E+07         0.00000E+00
    0.00000E+00         0.00000E+00        -0.31715E+06
 
   -0.58292E+05         0.18361E+07         0.00000E+00
    0.18361E+07        -0.15512E+07         0.00000E+00
    0.00000E+00         0.00000E+00        -0.32189E+06
 
   -0.97077E+05         0.18701E+07         0.00000E+00
    0.18701E+07        -0.15359E+07         0.00000E+00
    0.00000E+00         0.00000E+00        -0.32660E+06
 
   -0.13616E+06         0.19038E+07         0.00000E+00
    0.19038E+07        -0.15203E+07         0.00000E+00
    0.00000E+00         0.00000E+00        -0.33129E+06
 
   -0.17555E+06         0.19370E+07         0.00000E+00
    0.19370E+07        -0.15043E+07         0.00000E+00
    0.00000E+00         0.00000E+00        -0.33596E+06
 
   -0.21524E+06         0.19697E+07         0.00000E+00
    0.19697E+07        -0.14878E+07         0.00000E+00
    0.00000E+00         0.00000E+00        -0.34061E+06
 
   -0.25526E+06         0.20020E+07         0.00000E+00
    0.20020E+07        -0.14709E+07         0.00000E+00
    0.00000E+00         0.00000E+00        -0.34523E+06
 
   -0.29560E+06         0.20339E+07         0.00000E+00
    0.20339E+07        -0.14535E+07         0.00000E+00
    0.00000E+00         0.00000E+00        -0.34983E+06
 
   -0.33627E+06         0.20654E+07         0.00000E+00
    0.20654E+07        -0.14358E+07         0.00000E+00
    0.00000E+00         0.00000E+00        -0.35441E+06
 
    0.14204E+07         0.27527E+05         0.00000E+00
    0.27527E+05        -0.20674E+07         0.00000E+00
    0.00000E+00         0.00000E+00        -0.12940E+06
 
    0.13882E+07         0.81405E+05         0.00000E+00
    0.81405E+05        -0.20670E+07         0.00000E+00
    0.00000E+00         0.00000E+00        -0.13576E+06
 
    0.13559E+07         0.13479E+06         0.00000E+00
    0.13479E+06        -0.20663E+07         0.00000E+00
    0.00000E+00         0.00000E+00        -0.14208E+06
 
    0.13234E+07         0.18768E+06         0.00000E+00
    0.18768E+06        -0.20653E+07         0.00000E+00
    0.00000E+00         0.00000E+00        -0.14838E+06
 
    0.12907E+07         0.24009E+06         0.00000E+00
    0.24009E+06        -0.20639E+07         0.00000E+00
    0.00000E+00         0.00000E+00        -0.15464E+06
 
    0.12578E+07         0.29202E+06         0.00000E+00
    0.29202E+06        -0.20621E+07         0.00000E+00
    0.00000E+00         0.00000E+00        -0.16086E+06
 
    0.12248E+07         0.34347E+06         0.00000E+00
    0.34347E+06        -0.20601E+07         0.00000E+00
    0.00000E+00         0.00000E+00        -0.16706E+06
 
    0.11915E+07         0.39446E+06         0.00000E+00
    0.39446E+06        -0.20576E+07         0.00000E+00
    0.00000E+00         0.00000E+00        -0.17322E+06
 
    0.11581E+07         0.44499E+06         0.00000E+00
    0.44499E+06        -0.20549E+07         0.00000E+00
    0.00000E+00         0.00000E+00        -0.17935E+06
 
    0.11245E+07         0.49506E+06         0.00000E+00
    0.49506E+06        -0.20518E+07         0.00000E+00
    0.00000E+00         0.00000E+00        -0.18544E+06
 
    0.10908E+07         0.54467E+06         0.00000E+00
    0.54467E+06        -0.20483E+07         0.00000E+00
    0.00000E+00         0.00000E+00        -0.19150E+06
 
    0.10569E+07         0.59384E+06         0.00000E+00
    0.59384E+06        -0.20445E+07         0.00000E+00
    0.00000E+00         0.00000E+00        -0.19753E+06
 
    0.10228E+07         0.64256E+06         0.00000E+00
    0.64256E+06        -0.20404E+07         0.00000E+00
    0.00000E+00         0.00000E+00        -0.20352E+06
 
    0.98853E+06         0.69084E+06         0.00000E+00
    0.69084E+06        -0.20359E+07         0.00000E+00
    0.00000E+00         0.00000E+00        -0.20948E+06
 
    0.95410E+06         0.73869E+06         0.00000E+00
    0.73869E+06        -0.20311E+07         0.00000E+00
    0.00000E+00         0.00000E+00        -0.21541E+06
 
    0.91950E+06         0.78610E+06         0.00000E+00
    0.78610E+06        -0.20260E+07         0.00000E+00
    0.00000E+00         0.00000E+00        -0.22129E+06
 
    0.88474E+06         0.83309E+06         0.00000E+00
    0.83309E+06        -0.20205E+07         0.00000E+00
    0.00000E+00         0.00000E+00        -0.22715E+06
 
    0.84979E+06         0.87965E+06         0.00000E+00
    0.87965E+06        -0.20146E+07         0.00000E+00
    0.00000E+00         0.00000E+00        -0.23297E+06
 
    0.81468E+06         0.92580E+06         0.00000E+00
    0.92580E+06        -0.20084E+07         0.00000E+00
    0.00000E+00         0.00000E+00        -0.23875E+06
 
    0.77939E+06         0.97152E+06         0.00000E+00
    0.97152E+06        -0.20019E+07         0.00000E+00
    0.00000E+00         0.00000E+00        -0.24450E+06
 
    0.74392E+06         0.10168E+07         0.00000E+00
    0.10168E+07        -0.19950E+07         0.00000E+00
    0.00000E+00         0.00000E+00        -0.25022E+06
 
    0.70826E+06         0.10617E+07         0.00000E+00
    0.10617E+07        -0.19878E+07         0.00000E+00
    0.00000E+00         0.00000E+00        -0.25590E+06
 
    0.67243E+06         0.11062E+07         0.00000E+00
    0.11062E+07        -0.19801E+07         0.00000E+00
    0.00000E+00         0.00000E+00        -0.26154E+06
 
    0.63640E+06         0.11503E+07         0.00000E+00
    0.11503E+07        -0.19722E+07         0.00000E+00
    0.00000E+00         0.00000E+00        -0.26716E+06
 
    0.60019E+06         0.11940E+07         0.00000E+00
    0.11940E+07        -0.19639E+07         0.00000E+00
    0.00000E+00         0.00000E+00        -0.27273E+06
 
    0.56378E+06         0.12373E+07         0.00000E+00
    0.12373E+07        -0.19552E+07         0.00000E+00
    0.00000E+00         0.00000E+00        -0.27828E+06
 
    0.52717E+06         0.12802E+07         0.00000E+00
    0.12802E+07        -0.19461E+07         0.00000E+00
    0.00000E+00         0.00000E+00        -0.28379E+06
 
    0.49036E+06         0.13227E+07         0.00000E+00
    0.13227E+07        -0.19367E+07         0.00000E+00
    0.00000E+00         0.00000E+00        -0.28926E+06
 
    0.45334E+06         0.13648E+07         0.00000E+00
    0.13648E+07        -0.19269E+07         0.00000E+00
    0.00000E+00         0.00000E+00        -0.29470E+06
 
    0.41610E+06         0.14065E+07         0.00000E+00
    0.14065E+07        -0.19167E+07         0.00000E+00
    0.00000E+00         0.00000E+00        -0.30011E+06
 
    0.37865E+06         0.14478E+07         0.00000E+00
    0.14478E+07        -0.19061E+07         0.00000E+00
    0.00000E+00         0.00000E+00        -0.30549E+06
 
    0.34097E+06         0.14887E+07         0.00000E+00
    0.14887E+07        -0.18951E+07         0.00000E+00
    0.00000E+00         0.00000E+00        -0.31083E+06
 
    0.30307E+06         0.15292E+07         0.00000E+00
    0.15292E+07        -0.18838E+07         0.00000E+00
    0.00000E+00         0.00000E+00        -0.31614E+06
 
    0.26493E+06         0.15694E+07         0.00000E+00
    0.15694E+07        -0.18720E+07         0.00000E+00
    0.00000E+00         0.00000E+00        -0.32142E+06
 
    0.22655E+06         0.16091E+07         0.00000E+00
    0.16091E+07        -0.18599E+07         0.00000E+00
    0.00000E+00         0.00000E+00        -0.32667E+06
 
    0.18792E+06         0.16485E+07         0.00000E+00
    0.16485E+07        -0.18473E+07         0.00000E+00
    0.00000E+00         0.00000E+00        -0.33189E+06
 
    0.14903E+06         0.16874E+07         0.00000E+00
    0.16874E+07        -0.18344E+07         0.00000E+00
    0.00000E+00         0.00000E+00        -0.33707E+06
 
    0.10989E+06         0.17260E+07         0.00000E+00
    0.17260E+07        -0.18210E+07         0.00000E+00
    0.00000E+00         0.00000E+00        -0.34223E+06
 
    0.70482E+05         0.17642E+07         0.00000E+00
    0.17642E+07        -0.18072E+07         0.00000E+00
    0.00000E+00         0.00000E+00        -0.34735E+06
 
    0.30797E+05         0.18020E+07         0.00000E+00
    0.18020E+07        -0.17930E+07         0.00000E+00
    0.00000E+00         0.00000E+00        -0.35245E+06
 
   -0.91687E+04         0.18394E+07         0.00000E+00
    0.18394E+07        -0.17784E+07         0.00000E+00
    0.00000E+00         0.00000E+00        -0.35751E+06
 
   -0.49423E+05         0.18764E+07         0.00000E+00
    0.18764E+07        -0.17633E+07         0.00000E+00
    0.00000E+00         0.00000E+00        -0.36255E+06
 
   -0.89974E+05         0.19130E+07         0.00000E+00
    0.19130E+07        -0.17478E+07         0.00000E+00
    0.00000E+00         0.00000E+00        -0.36756E+06
 
   -0.13083E+06         0.19492E+07         0.00000E+00
    0.19492E+07        -0.17319E+07         0.00000E+00
    0.00000E+00         0.00000E+00        -0.37254E+06
 
   -0.17199E+06         0.19850E+07         0.00000E+00
    0.19850E+07        -0.17155E+07         0.00000E+00
    0.00000E+00         0.00000E+00        -0.37749E+06
 
   -0.21348E+06         0.20203E+07         0.00000E+00
    0.20203E+07        -0.16986E+07         0.00000E+00
    0.00000E+00         0.00000E+00        -0.38242E+06
 
   -0.25529E+06         0.20553E+07         0.00000E+00
    0.20553E+07        -0.16813E+07         0.00000E+00
    0.00000E+00         0.00000E+00        -0.38732E+06
 
   -0.29744E+06         0.20899E+07         0.00000E+00
    0.20899E+07        -0.16635E+07         0.00000E+00
    0.00000E+00         0.00000E+00        -0.39220E+06
 
   -0.33993E+06         0.21240E+07         0.00000E+00
    0.21240E+07        -0.16453E+07         0.00000E+00
    0.00000E+00         0.00000E+00        -0.39705E+06
 
   -0.38277E+06         0.21578E+07         0.00000E+00
    0.21578E+07        -0.16266E+07         0.00000E+00
    0.00000E+00         0.00000E+00        -0.40187E+06
 
    0.14703E+07         0.28423E+05         0.00000E+00
    0.28423E+05        -0.22925E+07         0.00000E+00
    0.00000E+00         0.00000E+00        -0.16446E+06
 
    0.14356E+07         0.84064E+05         0.00000E+00
    0.84064E+05        -0.22922E+07         0.00000E+00
    0.00000E+00         0.00000E+00        -0.17131E+06
 
    0.14008E+07         0.13920E+06         0.00000E+00
    0.13920E+06        -0.22915E+07         0.00000E+00
    0.00000E+00         0.00000E+00        -0.17813E+06
 
    0.13658E+07         0.19384E+06         0.00000E+00
    0.19384E+06        -0.22904E+07         0.00000E+00
    0.00000E+00         0.00000E+00        -0.18491E+06
 
    0.13307E+07         0.24798E+06         0.00000E+00
    0.24798E+06        -0.22890E+07         0.00000E+00
    0.00000E+00         0.00000E+00        -0.19165E+06
 
    0.12954E+07         0.30164E+06         0.00000E+00
    0.30164E+06        -0.22872E+07         0.00000E+00
    0.00000E+00         0.00000E+00        -0.19836E+06
 
    0.12600E+07         0.35483E+06         0.00000E+00
    0.35483E+06        -0.22851E+07         0.00000E+00
    0.00000E+00         0.00000E+00        -0.20502E+06
 
    0.12245E+07         0.40754E+06         0.00000E+00
    0.40754E+06        -0.22826E+07         0.00000E+00
    0.00000E+00         0.00000E+00        -0.21164E+06
 
    0.11887E+07         0.45979E+06         0.00000E+00
    0.45979E+06        -0.22798E+07         0.00000E+00
    0.00000E+00         0.00000E+00        -0.21822E+06
 
    0.11529E+07         0.51158E+06         0.00000E+00
    0.51158E+06        -0.22767E+07         0.00000E+00
    0.00000E+00         0.00000E+00        -0.22476E+06
 
    0.11169E+07         0.56292E+06         0.00000E+00
    0.56292E+06        -0.22732E+07         0.00000E+00
    0.00000E+00         0.00000E+00        -0.23126E+06
 
    0.10807E+07         0.61381E+06         0.00000E+00
    0.61381E+06        -0.22693E+07         0.00000E+00
    0.00000E+00         0.00000E+00        -0.23772E+06
 
    0.10445E+07         0.66426E+06         0.00000E+00
    0.66426E+06        -0.22651E+07         0.00000E+00
    0.00000E+00         0.00000E+00        -0.24413E+06
 
    0.10080E+07         0.71428E+06         0.00000E+00
    0.71428E+06        -0.22606E+07         0.00000E+00
    0.00000E+00         0.00000E+00        -0.25051E+06
 
    0.97145E+06         0.76386E+06         0.00000E+00
    0.76386E+06        -0.22557E+07         0.00000E+00
    0.00000E+00         0.00000E+00        -0.25684E+06
 
    0.93472E+06         0.81303E+06         0.00000E+00
    0.81303E+06        -0.22504E+07         0.00000E+00
    0.00000E+00         0.00000E+00        -0.26314E+06
 
    0.89785E+06         0.86177E+06         0.00000E+00
    0.86177E+06        -0.22448E+07         0.00000E+00
    0.00000E+00         0.00000E+00        -0.26939E+06
 
    0.86082E+06         0.91010E+06         0.00000E+00
    0.91010E+06        -0.22388E+07         0.00000E+00
    0.00000E+00         0.00000E+00        -0.27560E+06
 
    0.82364E+06         0.95802E+06         0.00000E+00
    0.95802E+06        -0.22325E+07         0.00000E+00
    0.00000E+00         0.00000E+00        -0.28177E+06
 
    0.78630E+06         0.10055E+07         0.00000E+00
    0.10055E+07        -0.22258E+07         0.00000E+00
    0.00000E+00         0.00000E+00        -0.28790E+06
 
    0.74880E+06         0.10526E+07         0.00000E+00
    0.10526E+07        -0.22187E+07         0.00000E+00
    0.00000E+00         0.00000E+00        -0.29399E+06
 
    0.71114E+06         0.10994E+07         0.00000E+00
    0.10994E+07        -0.22113E+07         0.00000E+00
    0.00000E+00         0.00000E+00        -0.30004E+06
 
    0.67331E+06         0.11457E+07         0.00000E+00
    0.11457E+07        -0.22035E+07         0.00000E+00
    0.00000E+00         0.00000E+00        -0.30604E+06
 
    0.63531E+06         0.11916E+07         0.00000E+00
    0.11916E+07        -0.21953E+07         0.00000E+00
    0.00000E+00         0.00000E+00        -0.31201E+06
 
    0.59712E+06         0.12372E+07         0.00000E+00
    0.12372E+07        -0.21868E+07         0.00000E+00
    0.00000E+00         0.00000E+00        -0.31794E+06
 
    0.55876E+06         0.12823E+07         0.00000E+00
    0.12823E+07        -0.21779E+07         0.00000E+00
    0.00000E+00         0.00000E+00        -0.32382E+06
 
    0.52021E+06         0.13271E+07         0.00000E+00
    0.13271E+07        -0.21685E+07         0.00000E+00
    0.00000E+00         0.00000E+00        -0.32967E+06
 
    0.48146E+06         0.13715E+07         0.00000E+00
    0.13715E+07        -0.21588E+07         0.00000E+00
    0.00000E+00         0.00000E+00        -0.33548E+06
 
    0.44252E+06         0.14156E+07         0.00000E+00
    0.14156E+07        -0.21487E+07         0.00000E+00
    0.00000E+00         0.00000E+00        -0.34124E+06
 
    0.40337E+06         0.14592E+07         0.00000E+00
    0.14592E+07        -0.21382E+07         0.00000E+00
    0.00000E+00         0.00000E+00        -0.34697E+06
 
    0.36401E+06         0.15025E+07         0.00000E+00
    0.15025E+07        -0.21273E+07         0.00000E+00
    0.00000E+00         0.00000E+00        -0.35267E+06
 
    0.32443E+06         0.15454E+07         0.00000E+00
    0.15454E+07        -0.21160E+07         0.00000E+00
    0.00000E+00         0.00000E+00        -0.35832E+06
 
    0.28463E+06         0.15880E+07         0.00000E+00
    0.15880E+07        -0.21043E+07         0.00000E+00
    0.00000E+00         0.00000E+00        -0.36394E+06
 
    0.24459E+06         0.16302E+07         0.00000E+00
    0.16302E+07        -0.20922E+07         0.00000E+00
    0.00000E+00         0.00000E+00        -0.36951E+06
 
    0.20432E+06         0.16720E+07         0.00000E+00
    0.16720E+07        -0.20796E+07         0.00000E+00
    0.00000E+00         0.00000E+00        -0.37506E+06
 
    0.16379E+06         0.17134E+07         0.00000E+00
    0.17134E+07        -0.20666E+07         0.00000E+00
    0.00000E+00         0.00000E+00        -0.38056E+06
 
    0.12302E+06         0.17545E+07         0.00000E+00
    0.17545E+07        -0.20532E+07         0.00000E+00
    0.00000E+00         0.00000E+00        -0.38603E+06
 
    0.81977E+05         0.17952E+07         0.00000E+00
    0.17952E+07        -0.20393E+07         0.00000E+00
    0.00000E+00         0.00000E+00        -0.39147E+06
 
    0.40666E+05         0.18356E+07         0.00000E+00
    0.18356E+07        -0.20250E+07         0.00000E+00
    0.00000E+00         0.00000E+00        -0.39687E+06
 
   -0.92483E+03         0.18755E+07         0.00000E+00
    0.18755E+07        -0.20103E+07         0.00000E+00
    0.00000E+00         0.00000E+00        -0.40224E+06
 
   -0.42803E+05         0.19152E+07         0.00000E+00
    0.19152E+07        -0.19950E+07         0.00000E+00
    0.00000E+00         0.00000E+00        -0.40757E+06
 
   -0.84978E+05         0.19544E+07         0.00000E+00
    0.19544E+07        -0.19794E+07         0.00000E+00
    0.00000E+00         0.00000E+00        -0.41287E+06
 
   -0.12746E+06         0.19933E+07         0.00000E+00
    0.19933E+07        -0.19632E+07         0.00000E+00
    0.00000E+00         0.00000E+00        -0.41814E+06
 
   -0.17025E+06         0.20318E+07         0.00000E+00
    0.20318E+07        -0.19466E+07         0.00000E+00
    0.00000E+00         0.00000E+00        -0.42337E+06
 
   -0.21337E+06         0.20699E+07         0.00000E+00
    0.20699E+07        -0.19295E+07         0.00000E+00
    0.00000E+00         0.00000E+00        -0.42858E+06
 
   -0.25682E+06         0.21077E+07         0.00000E+00
    0.21077E+07        -0.19119E+07         0.00000E+00
    0.00000E+00         0.00000E+00        -0.43375E+06
 
   -0.30061E+06         0.21450E+07         0.00000E+00
    0.21450E+07        -0.18939E+07         0.00000E+00
    0.00000E+00         0.00000E+00        -0.43889E+06
 
   -0.34476E+06         0.21820E+07         0.00000E+00
    0.21820E+07        -0.18753E+07         0.00000E+00
    0.00000E+00         0.00000E+00        -0.44401E+06
 
   -0.38927E+06         0.22186E+07         0.00000E+00
    0.22186E+07        -0.18562E+07         0.00000E+00
    0.00000E+00         0.00000E+00        -0.44910E+06
 
   -0.43414E+06         0.22548E+07         0.00000E+00
    0.22548E+07        -0.18366E+07         0.00000E+00
    0.00000E+00         0.00000E+00        -0.45415E+06
 
    0.15108E+07         0.29325E+05         0.00000E+00
    0.29325E+05        -0.25359E+07         0.00000E+00
    0.00000E+00         0.00000E+00        -0.20503E+06
 
    0.14736E+07         0.86744E+05         0.00000E+00
    0.86744E+05        -0.25356E+07         0.00000E+00
    0.00000E+00         0.00000E+00        -0.21240E+06
 
    0.14362E+07         0.14365E+06         0.00000E+00
    0.14365E+06        -0.25349E+07         0.00000E+00
    0.00000E+00         0.00000E+00        -0.21973E+06
 
    0.13988E+07         0.20005E+06         0.00000E+00
    0.20005E+06        -0.25338E+07         0.00000E+00
    0.00000E+00         0.00000E+00        -0.22700E+06
 
    0.13612E+07         0.25595E+06         0.00000E+00
    0.25595E+06        -0.25324E+07         0.00000E+00
    0.00000E+00         0.00000E+00        -0.23423E+06
 
    0.13235E+07         0.31137E+06         0.00000E+00
    0.31137E+06        -0.25306E+07         0.00000E+00
    0.00000E+00         0.00000E+00        -0.24142E+06
 
    0.12857E+07         0.36630E+06         0.00000E+00
    0.36630E+06        -0.25285E+07         0.00000E+00
    0.00000E+00         0.00000E+00        -0.24855E+06
 
    0.12478E+07         0.42076E+06         0.00000E+00
    0.42076E+06        -0.25260E+07         0.00000E+00
    0.00000E+00         0.00000E+00        -0.25564E+06
 
    0.12098E+07         0.47476E+06         0.00000E+00
    0.47476E+06        -0.25232E+07         0.00000E+00
    0.00000E+00         0.00000E+00        -0.26267E+06
 
    0.11717E+07         0.52831E+06         0.00000E+00
    0.52831E+06        -0.25200E+07         0.00000E+00
    0.00000E+00         0.00000E+00        -0.26966E+06
 
    0.11334E+07         0.58140E+06         0.00000E+00
    0.58140E+06        -0.25165E+07         0.00000E+00
    0.00000E+00         0.00000E+00        -0.27660E+06
 
    0.10951E+07         0.63405E+06         0.00000E+00
    0.63405E+06        -0.25126E+07         0.00000E+00
    0.00000E+00         0.00000E+00        -0.28350E+06
 
    0.10566E+07         0.68627E+06         0.00000E+00
    0.68627E+06        -0.25083E+07         0.00000E+00
    0.00000E+00         0.00000E+00        -0.29034E+06
 
    0.10181E+07         0.73806E+06         0.00000E+00
    0.73806E+06        -0.25037E+07         0.00000E+00
    0.00000E+00         0.00000E+00        -0.29714E+06
 
    0.97938E+06         0.78943E+06         0.00000E+00
    0.78943E+06        -0.24988E+07         0.00000E+00
    0.00000E+00         0.00000E+00        -0.30388E+06
 
    0.94057E+06         0.84039E+06         0.00000E+00
    0.84039E+06        -0.24935E+07         0.00000E+00
    0.00000E+00         0.00000E+00        -0.31058E+06
 
    0.90165E+06         0.89094E+06         0.00000E+00
    0.89094E+06        -0.24878E+07         0.00000E+00
    0.00000E+00         0.00000E+00        -0.31723E+06
 
    0.86259E+06         0.94109E+06         0.00000E+00
    0.94109E+06        -0.24817E+07         0.00000E+00
    0.00000E+00         0.00000E+00        -0.32383E+06
 
    0.82341E+06         0.99084E+06         0.00000E+00
    0.99084E+06        -0.24753E+07         0.00000E+00
    0.00000E+00         0.00000E+00        -0.33038E+06
 
    0.78409E+06         0.10402E+07         0.00000E+00
    0.10402E+07        -0.24685E+07         0.00000E+00
    0.00000E+00         0.00000E+00        -0.33689E+06
 
    0.74464E+06         0.10892E+07         0.00000E+00
    0.10892E+07        -0.24614E+07         0.00000E+00
    0.00000E+00         0.00000E+00        -0.34335E+06
 
    0.70505E+06         0.11378E+07         0.00000E+00
    0.11378E+07        -0.24538E+07         0.00000E+00
    0.00000E+00         0.00000E+00        -0.34975E+06
 
    0.66530E+06         0.11860E+07         0.00000E+00
    0.11860E+07        -0.24459E+07         0.00000E+00
    0.00000E+00         0.00000E+00        -0.35612E+06
 
    0.62541E+06         0.12338E+07         0.00000E+00
    0.12338E+07        -0.24376E+07         0.00000E+00
    0.00000E+00         0.00000E+00        -0.36243E+06
 
    0.58535E+06         0.12813E+07         0.00000E+00
    0.12813E+07        -0.24289E+07         0.00000E+00
    0.00000E+00         0.00000E+00        -0.36870E+06
 
    0.54513E+06         0.13285E+07         0.00000E+00
    0.13285E+07        -0.24198E+07         0.00000E+00
    0.00000E+00         0.00000E+00        -0.37492E+06
 
    0.50474E+06         0.13752E+07         0.00000E+00
    0.13752E+07        -0.24102E+07         0.00000E+00
    0.00000E+00         0.00000E+00        -0.38110E+06
 
    0.46417E+06         0.14216E+07         0.00000E+00
    0.14216E+07        -0.24003E+07         0.00000E+00
    0.00000E+00         0.00000E+00        -0.38723E+06
 
    0.42341E+06         0.14677E+07         0.00000E+00
    0.14677E+07        -0.23900E+07         0.00000E+00
    0.00000E+00         0.00000E+00        -0.39332E+06
 
    0.38246E+06         0.15134E+07         0.00000E+00
    0.15134E+07        -0.23793E+07         0.00000E+00
    0.00000E+00         0.00000E+00        -0.39936E+06
 
    0.34131E+06         0.15588E+07         0.00000E+00
    0.15588E+07        -0.23681E+07         0.00000E+00
    0.00000E+00         0.00000E+00        -0.40536E+06
 
    0.29995E+06         0.16038E+07         0.00000E+00
    0.16038E+07        -0.23565E+07         0.00000E+00
    0.00000E+00         0.00000E+00        -0.41131E+06
 
    0.25838E+06         0.16485E+07         0.00000E+00
    0.16485E+07        -0.23445E+07         0.00000E+00
    0.00000E+00         0.00000E+00        -0.41722E+06
 
    0.21657E+06         0.16928E+07         0.00000E+00
    0.16928E+07        -0.23320E+07         0.00000E+00
    0.00000E+00         0.00000E+00        -0.42309E+06
 
    0.17453E+06         0.17368E+07         0.00000E+00
    0.17368E+07        -0.23191E+07         0.00000E+00
    0.00000E+00         0.00000E+00        -0.42891E+06
 
    0.13225E+06         0.17805E+07         0.00000E+00
    0.17805E+07        -0.23057E+07         0.00000E+00
    0.00000E+00         0.00000E+00        -0.43470E+06
 
    0.89718E+05         0.18238E+07         0.00000E+00
    0.18238E+07        -0.22919E+07         0.00000E+00
    0.00000E+00         0.00000E+00        -0.44044E+06
 
    0.46920E+05         0.18668E+07         0.00000E+00
    0.18668E+07        -0.22776E+07         0.00000E+00
    0.00000E+00         0.00000E+00        -0.44614E+06
 
    0.38502E+04         0.19094E+07         0.00000E+00
    0.19094E+07        -0.22629E+07         0.00000E+00
    0.00000E+00         0.00000E+00        -0.45181E+06
 
   -0.39502E+05         0.19517E+07         0.00000E+00
    0.19517E+07        -0.22477E+07         0.00000E+00
    0.00000E+00         0.00000E+00        -0.45743E+06
 
   -0.83146E+05         0.19937E+07         0.00000E+00
    0.19937E+07        -0.22319E+07         0.00000E+00
    0.00000E+00         0.00000E+00        -0.46302E+06
 
   -0.12709E+06         0.20354E+07         0.00000E+00
    0.20354E+07        -0.22157E+07         0.00000E+00
    0.00000E+00         0.00000E+00        -0.46857E+06
 
   -0.17135E+06         0.20767E+07         0.00000E+00
    0.20767E+07        -0.21990E+07         0.00000E+00
    0.00000E+00         0.00000E+00        -0.47408E+06
 
   -0.21593E+06         0.21176E+07         0.00000E+00
    0.21176E+07        -0.21818E+07         0.00000E+00
    0.00000E+00         0.00000E+00        -0.47955E+06
 
   -0.26085E+06         0.21582E+07         0.00000E+00
    0.21582E+07        -0.21641E+07         0.00000E+00
    0.00000E+00         0.00000E+00        -0.48499E+06
 
   -0.30611E+06         0.21985E+07         0.00000E+00
    0.21985E+07        -0.21459E+07         0.00000E+00
    0.00000E+00         0.00000E+00        -0.49040E+06
 
   -0.35173E+06         0.22385E+07         0.00000E+00
    0.22385E+07        -0.21271E+07         0.00000E+00
    0.00000E+00         0.00000E+00        -0.49577E+06
 
   -0.39772E+06         0.22780E+07         0.00000E+00
    0.22780E+07        -0.21078E+07         0.00000E+00
    0.00000E+00         0.00000E+00        -0.50110E+06
 
   -0.44408E+06         0.23173E+07         0.00000E+00
    0.23173E+07        -0.20880E+07         0.00000E+00
    0.00000E+00         0.00000E+00        -0.50641E+06
 
   -0.49083E+06         0.23561E+07         0.00000E+00
    0.23561E+07        -0.20676E+07         0.00000E+00
    0.00000E+00         0.00000E+00        -0.51168E+06
 
    0.15406E+07         0.30224E+05         0.00000E+00
    0.30224E+05        -0.27990E+07         0.00000E+00
    0.00000E+00         0.00000E+00        -0.25169E+06
 
    0.15007E+07         0.89419E+05         0.00000E+00
    0.89419E+05        -0.27987E+07         0.00000E+00
    0.00000E+00         0.00000E+00        -0.25958E+06
 
    0.14608E+07         0.14809E+06         0.00000E+00
    0.14809E+06        -0.27980E+07         0.00000E+00
    0.00000E+00         0.00000E+00        -0.26742E+06
 
    0.14209E+07         0.20626E+06         0.00000E+00
    0.20626E+06        -0.27969E+07         0.00000E+00
    0.00000E+00         0.00000E+00        -0.27521E+06
 
    0.13808E+07         0.26392E+06         0.00000E+00
    0.26392E+06        -0.27955E+07         0.00000E+00
    0.00000E+00         0.00000E+00        -0.28293E+06
 
    0.13407E+07         0.32109E+06         0.00000E+00
    0.32109E+06        -0.27937E+07         0.00000E+00
    0.00000E+00         0.00000E+00        -0.29060E+06
 
    0.13005E+07         0.37778E+06         0.00000E+00
    0.37778E+06        -0.27916E+07         0.00000E+00
    0.00000E+00         0.00000E+00        -0.29821E+06
 
    0.12603E+07         0.43401E+06         0.00000E+00
    0.43401E+06        -0.27891E+07         0.00000E+00
    0.00000E+00         0.00000E+00        -0.30577E+06
 
    0.12200E+07         0.48977E+06         0.00000E+00
    0.48977E+06        -0.27863E+07         0.00000E+00
    0.00000E+00         0.00000E+00        -0.31327E+06
 
    0.11796E+07         0.54508E+06         0.00000E+00
    0.54508E+06        -0.27832E+07         0.00000E+00
    0.00000E+00         0.00000E+00        -0.32071E+06
 
    0.11392E+07         0.59995E+06         0.00000E+00
    0.59995E+06        -0.27796E+07         0.00000E+00
    0.00000E+00         0.00000E+00        -0.32809E+06
 
    0.10987E+07         0.65438E+06         0.00000E+00
    0.65438E+06        -0.27758E+07         0.00000E+00
    0.00000E+00         0.00000E+00        -0.33542E+06
 
    0.10581E+07         0.70839E+06         0.00000E+00
    0.70839E+06        -0.27715E+07         0.00000E+00
    0.00000E+00         0.00000E+00        -0.34269E+06
 
    0.10174E+07         0.76199E+06         0.00000E+00
    0.76199E+06        -0.27669E+07         0.00000E+00
    0.00000E+00         0.00000E+00        -0.34990E+06
 
    0.97667E+06         0.81517E+06         0.00000E+00
    0.81517E+06        -0.27620E+07         0.00000E+00
    0.00000E+00         0.00000E+00        -0.35706E+06
 
    0.93584E+06         0.86796E+06         0.00000E+00
    0.86796E+06        -0.27566E+07         0.00000E+00
    0.00000E+00         0.00000E+00        -0.36416E+06
 
    0.89493E+06         0.92035E+06         0.00000E+00
    0.92035E+06        -0.27509E+07         0.00000E+00
    0.00000E+00         0.00000E+00        -0.37120E+06
 
    0.85392E+06         0.97235E+06         0.00000E+00
    0.97235E+06        -0.27449E+07         0.00000E+00
    0.00000E+00         0.00000E+00        -0.37819E+06
 
    0.81282E+06         0.10240E+07         0.00000E+00
    0.10240E+07        -0.27384E+07         0.00000E+00
    0.00000E+00         0.00000E+00        -0.38512E+06
 
    0.77161E+06         0.10752E+07         0.00000E+00
    0.10752E+07        -0.27316E+07         0.00000E+00
    0.00000E+00         0.00000E+00        -0.39199E+06
 
    0.73030E+06         0.11261E+07         0.00000E+00
    0.11261E+07        -0.27244E+07         0.00000E+00
    0.00000E+00         0.00000E+00        -0.39881E+06
 
    0.68887E+06         0.11767E+07         0.00000E+00
    0.11767E+07        -0.27168E+07         0.00000E+00
    0.00000E+00         0.00000E+00        -0.40558E+06
 
    0.64732E+06         0.12268E+07         0.00000E+00
    0.12268E+07        -0.27088E+07         0.00000E+00
    0.00000E+00         0.00000E+00        -0.41229E+06
 
    0.60564E+06         0.12767E+07         0.00000E+00
    0.12767E+07        -0.27004E+07         0.00000E+00
    0.00000E+00         0.00000E+00        -0.41895E+06
 
    0.56382E+06         0.13262E+07         0.00000E+00
    0.13262E+07        -0.26916E+07         0.00000E+00
    0.00000E+00         0.00000E+00        -0.42555E+06
 
    0.52186E+06         0.13753E+07         0.00000E+00
    0.13753E+07        -0.26824E+07         0.00000E+00
    0.00000E+00         0.00000E+00        -0.43210E+06
 
    0.47975E+06         0.14241E+07         0.00000E+00
    0.14241E+07        -0.26727E+07         0.00000E+00
    0.00000E+00         0.00000E+00        -0.43859E+06
 
    0.43749E+06         0.14726E+07         0.00000E+00
    0.14726E+07        -0.26627E+07         0.00000E+00
    0.00000E+00         0.00000E+00        -0.44504E+06
 
    0.39505E+06         0.15208E+07         0.00000E+00
    0.15208E+07        -0.26522E+07         0.00000E+00
    0.00000E+00         0.00000E+00        -0.45143E+06
 
    0.35243E+06         0.15686E+07         0.00000E+00
    0.15686E+07        -0.26413E+07         0.00000E+00
    0.00000E+00         0.00000E+00        -0.45777E+06
 
    0.30963E+06         0.16162E+07         0.00000E+00
    0.16162E+07        -0.26299E+07         0.00000E+00
    0.00000E+00         0.00000E+00        -0.46406E+06
 
    0.26664E+06         0.16634E+07         0.00000E+00
    0.16634E+07        -0.26182E+07         0.00000E+00
    0.00000E+00         0.00000E+00        -0.47030E+06
 
    0.22343E+06         0.17103E+07         0.00000E+00
    0.17103E+07        -0.26059E+07         0.00000E+00
    0.00000E+00         0.00000E+00        -0.47650E+06
 
    0.18001E+06         0.17569E+07         0.00000E+00
    0.17569E+07        -0.25932E+07         0.00000E+00
    0.00000E+00         0.00000E+00        -0.48264E+06
 
    0.13636E+06         0.18032E+07         0.00000E+00
    0.18032E+07        -0.25800E+07         0.00000E+00
    0.00000E+00         0.00000E+00        -0.48873E+06
 
    0.92480E+05         0.18492E+07         0.00000E+00
    0.18492E+07        -0.25664E+07         0.00000E+00
    0.00000E+00         0.00000E+00        -0.49478E+06
 
    0.48348E+05         0.18949E+07         0.00000E+00
    0.18949E+07        -0.25522E+07         0.00000E+00
    0.00000E+00         0.00000E+00        -0.50078E+06
 
    0.39564E+04         0.19403E+07         0.00000E+00
    0.19403E+07        -0.25376E+07         0.00000E+00
    0.00000E+00         0.00000E+00        -0.50673E+06
 
   -0.40706E+05         0.19854E+07         0.00000E+00
    0.19854E+07        -0.25225E+07         0.00000E+00
    0.00000E+00         0.00000E+00        -0.51264E+06
 
   -0.85650E+05         0.20302E+07         0.00000E+00
    0.20302E+07        -0.25069E+07         0.00000E+00
    0.00000E+00         0.00000E+00        -0.51851E+06
 
   -0.13089E+06         0.20747E+07         0.00000E+00
    0.20747E+07        -0.24908E+07         0.00000E+00
    0.00000E+00         0.00000E+00        -0.52433E+06
 
   -0.17643E+06         0.21188E+07         0.00000E+00
    0.21188E+07        -0.24741E+07         0.00000E+00
    0.00000E+00         0.00000E+00        -0.53011E+06
 
   -0.22230E+06         0.21627E+07         0.00000E+00
    0.21627E+07        -0.24569E+07         0.00000E+00
    0.00000E+00         0.00000E+00        -0.53585E+06
 
   -0.26849E+06         0.22063E+07         0.00000E+00
    0.22063E+07        -0.24392E+07         0.00000E+00
    0.00000E+00         0.00000E+00        -0.54154E+06
 
   -0.31503E+06         0.22496E+07         0.00000E+00
    0.22496E+07        -0.24210E+07         0.00000E+00
    0.00000E+00         0.00000E+00        -0.54720E+06
 
   -0.36192E+06         0.22926E+07         0.00000E+00
    0.22926E+07        -0.24021E+07         0.00000E+00
    0.00000E+00         0.00000E+00        -0.55281E+06
 
   -0.40918E+06         0.23352E+07         0.00000E+00
    0.23352E+07        -0.23828E+07         0.00000E+00
    0.00000E+00         0.00000E+00        -0.55839E+06
 
   -0.45682E+06         0.23776E+07         0.00000E+00
    0.23776E+07        -0.23628E+07         0.00000E+00
    0.00000E+00         0.00000E+00        -0.56393E+06
 
   -0.50485E+06         0.24196E+07         0.00000E+00
    0.24196E+07        -0.23423E+07         0.00000E+00
    0.00000E+00         0.00000E+00        -0.56943E+06
 
   -0.55330E+06         0.24614E+07         0.00000E+00
    0.24614E+07        -0.23212E+07         0.00000E+00
    0.00000E+00         0.00000E+00        -0.57490E+06
 
    0.15581E+07         0.31109E+05         0.00000E+00
    0.31109E+05        -0.30832E+07         0.00000E+00
    0.00000E+00         0.00000E+00        -0.30504E+06
 
    0.15156E+07         0.92056E+05         0.00000E+00
    0.92056E+05        -0.30829E+07         0.00000E+00
    0.00000E+00         0.00000E+00        -0.31346E+06
 
    0.14731E+07         0.15248E+06         0.00000E+00
    0.15248E+06        -0.30822E+07         0.00000E+00
    0.00000E+00         0.00000E+00        -0.32182E+06
 
    0.14306E+07         0.21238E+06         0.00000E+00
    0.21238E+06        -0.30812E+07         0.00000E+00
    0.00000E+00         0.00000E+00        -0.33011E+06
 
    0.13881E+07         0.27179E+06         0.00000E+00
    0.27179E+06        -0.30798E+07         0.00000E+00
    0.00000E+00         0.00000E+00        -0.33834E+06
 
    0.13455E+07         0.33071E+06         0.00000E+00
    0.33071E+06        -0.30780E+07         0.00000E+00
    0.00000E+00         0.00000E+00        -0.34650E+06
 
    0.13030E+07         0.38915E+06         0.00000E+00
    0.38915E+06        -0.30760E+07         0.00000E+00
    0.00000E+00         0.00000E+00        -0.35459E+06
 
    0.12605E+07         0.44713E+06         0.00000E+00
    0.44713E+06        -0.30735E+07         0.00000E+00
    0.00000E+00         0.00000E+00        -0.36262E+06
 
    0.12179E+07         0.50465E+06         0.00000E+00
    0.50465E+06        -0.30708E+07         0.00000E+00
    0.00000E+00         0.00000E+00        -0.37058E+06
 
    0.11753E+07         0.56172E+06         0.00000E+00
    0.56172E+06        -0.30676E+07         0.00000E+00
    0.00000E+00         0.00000E+00        -0.37847E+06
 
    0.11327E+07         0.61837E+06         0.00000E+00
    0.61837E+06        -0.30642E+07         0.00000E+00
    0.00000E+00         0.00000E+00        -0.38630E+06
 
    0.10901E+07         0.67459E+06         0.00000E+00
    0.67459E+06        -0.30603E+07         0.00000E+00
    0.00000E+00         0.00000E+00        -0.39405E+06
 
    0.10474E+07         0.73040E+06         0.00000E+00
    0.73040E+06        -0.30561E+07         0.00000E+00
    0.00000E+00         0.00000E+00        -0.40175E+06
 
    0.10047E+07         0.78580E+06         0.00000E+00
    0.78580E+06        -0.30516E+07         0.00000E+00
    0.00000E+00         0.00000E+00        -0.40938E+06
 
    0.96198E+06         0.84082E+06         0.00000E+00
    0.84082E+06        -0.30467E+07         0.00000E+00
    0.00000E+00         0.00000E+00        -0.41694E+06
 
    0.91921E+06         0.89545E+06         0.00000E+00
    0.89545E+06        -0.30414E+07         0.00000E+00
    0.00000E+00         0.00000E+00        -0.42443E+06
 
    0.87640E+06         0.94971E+06         0.00000E+00
    0.94971E+06        -0.30357E+07         0.00000E+00
    0.00000E+00         0.00000E+00        -0.43187E+06
 
    0.83353E+06         0.10036E+07         0.00000E+00
    0.10036E+07        -0.30297E+07         0.00000E+00
    0.00000E+00         0.00000E+00        -0.43923E+06
 
    0.79061E+06         0.10571E+07         0.00000E+00
    0.10571E+07        -0.30233E+07         0.00000E+00
    0.00000E+00         0.00000E+00        -0.44653E+06
 
    0.74761E+06         0.11103E+07         0.00000E+00
    0.11103E+07        -0.30165E+07         0.00000E+00
    0.00000E+00         0.00000E+00        -0.45377E+06
 
    0.70455E+06         0.11632E+07         0.00000E+00
    0.11632E+07        -0.30093E+07         0.00000E+00
    0.00000E+00         0.00000E+00        -0.46095E+06
 
    0.66141E+06         0.12157E+07         0.00000E+00
    0.12157E+07        -0.30017E+07         0.00000E+00
    0.00000E+00         0.00000E+00        -0.46806E+06
 
    0.61817E+06         0.12679E+07         0.00000E+00
    0.12679E+07        -0.29937E+07         0.00000E+00
    0.00000E+00         0.00000E+00        -0.47510E+06
 
    0.57484E+06         0.13197E+07         0.00000E+00
    0.13197E+07        -0.29853E+07         0.00000E+00
    0.00000E+00         0.00000E+00        -0.48209E+06
 
    0.53140E+06         0.13713E+07         0.00000E+00
    0.13713E+07        -0.29765E+07         0.00000E+00
    0.00000E+00         0.00000E+00        -0.48902E+06
 
    0.48784E+06         0.14225E+07         0.00000E+00
    0.14225E+07        -0.29672E+07         0.00000E+00
    0.00000E+00         0.00000E+00        -0.49588E+06
 
    0.44416E+06         0.14735E+07         0.00000E+00
    0.14735E+07        -0.29576E+07         0.00000E+00
    0.00000E+00         0.00000E+00        -0.50268E+06
 
    0.40035E+06         0.15241E+07         0.00000E+00
    0.15241E+07        -0.29475E+07         0.00000E+00
    0.00000E+00         0.00000E+00        -0.50943E+06
 
    0.35638E+06         0.15745E+07         0.00000E+00
    0.15745E+07        -0.29369E+07         0.00000E+00
    0.00000E+00         0.00000E+00        -0.51611E+06
 
    0.31226E+06         0.16246E+07         0.00000E+00
    0.16246E+07        -0.29260E+07         0.00000E+00
    0.00000E+00         0.00000E+00        -0.52274E+06
 
    0.26798E+06         0.16744E+07         0.00000E+00
    0.16744E+07        -0.29145E+07         0.00000E+00
    0.00000E+00         0.00000E+00        -0.52931E+06
 
    0.22351E+06         0.17239E+07         0.00000E+00
    0.17239E+07        -0.29026E+07         0.00000E+00
    0.00000E+00         0.00000E+00        -0.53582E+06
 
    0.17885E+06         0.17731E+07         0.00000E+00
    0.17731E+07        -0.28902E+07         0.00000E+00
    0.00000E+00         0.00000E+00        -0.54228E+06
 
    0.13399E+06         0.18221E+07         0.00000E+00
    0.18221E+07        -0.28774E+07         0.00000E+00
    0.00000E+00         0.00000E+00        -0.54868E+06
 
    0.88915E+05         0.18708E+07         0.00000E+00
    0.18708E+07        -0.28640E+07         0.00000E+00
    0.00000E+00         0.00000E+00        -0.55502E+06
 
    0.43612E+05         0.19192E+07         0.00000E+00
    0.19192E+07        -0.28502E+07         0.00000E+00
    0.00000E+00         0.00000E+00        -0.56131E+06
 
   -0.19308E+04         0.19674E+07         0.00000E+00
    0.19674E+07        -0.28358E+07         0.00000E+00
    0.00000E+00         0.00000E+00        -0.56755E+06
 
   -0.47727E+05         0.20153E+07         0.00000E+00
    0.20153E+07        -0.28210E+07         0.00000E+00
    0.00000E+00         0.00000E+00        -0.57374E+06
 
   -0.93789E+05         0.20630E+07         0.00000E+00
    0.20630E+07        -0.28056E+07         0.00000E+00
    0.00000E+00         0.00000E+00        -0.57988E+06
 
   -0.14013E+06         0.21104E+07         0.00000E+00
    0.21104E+07        -0.27897E+07         0.00000E+00
    0.00000E+00         0.00000E+00        -0.58596E+06
 
   -0.18676E+06         0.21575E+07         0.00000E+00
    0.21575E+07        -0.27732E+07         0.00000E+00
    0.00000E+00         0.00000E+00        -0.59200E+06
 
   -0.23371E+06         0.22044E+07         0.00000E+00
    0.22044E+07        -0.27562E+07         0.00000E+00
    0.00000E+00         0.00000E+00        -0.59799E+06
 
   -0.28097E+06         0.22510E+07         0.00000E+00
    0.22510E+07        -0.27387E+07         0.00000E+00
    0.00000E+00         0.00000E+00        -0.60393E+06
 
   -0.32857E+06         0.22974E+07         0.00000E+00
    0.22974E+07        -0.27205E+07         0.00000E+00
    0.00000E+00         0.00000E+00        -0.60982E+06
 
   -0.37652E+06         0.23435E+07         0.00000E+00
    0.23435E+07        -0.27018E+07         0.00000E+00
    0.00000E+00         0.00000E+00        -0.61567E+06
 
   -0.42483E+06         0.23893E+07         0.00000E+00
    0.23893E+07        -0.26826E+07         0.00000E+00
    0.00000E+00         0.00000E+00        -0.62148E+06
 
   -0.47352E+06         0.24349E+07         0.00000E+00
    0.24349E+07        -0.26627E+07         0.00000E+00
    0.00000E+00         0.00000E+00        -0.62724E+06
 
   -0.52260E+06         0.24802E+07         0.00000E+00
    0.24802E+07        -0.26422E+07         0.00000E+00
    0.00000E+00         0.00000E+00        -0.63296E+06
 
   -0.57210E+06         0.25253E+07         0.00000E+00
    0.25253E+07        -0.26211E+07         0.00000E+00
    0.00000E+00         0.00000E+00        -0.63864E+06
 
   -0.62202E+06         0.25701E+07         0.00000E+00
    0.25701E+07        -0.25994E+07         0.00000E+00
    0.00000E+00         0.00000E+00        -0.64427E+06
 
    0.15616E+07         0.31968E+05         0.00000E+00
    0.31968E+05        -0.33901E+07         0.00000E+00
    0.00000E+00         0.00000E+00        -0.36570E+06
 
    0.15165E+07         0.94621E+05         0.00000E+00
    0.94621E+05        -0.33897E+07         0.00000E+00
    0.00000E+00         0.00000E+00        -0.37466E+06
 
    0.14714E+07         0.15675E+06         0.00000E+00
    0.15675E+06        -0.33891E+07         0.00000E+00
    0.00000E+00         0.00000E+00        -0.38354E+06
 
    0.14263E+07         0.21836E+06         0.00000E+00
    0.21836E+06        -0.33881E+07         0.00000E+00
    0.00000E+00         0.00000E+00        -0.39235E+06
 
    0.13813E+07         0.27947E+06         0.00000E+00
    0.27947E+06        -0.33867E+07         0.00000E+00
    0.00000E+00         0.00000E+00        -0.40108E+06
 
    0.13364E+07         0.34010E+06         0.00000E+00
    0.34010E+06        -0.33850E+07         0.00000E+00
    0.00000E+00         0.00000E+00        -0.40973E+06
 
    0.12915E+07         0.40026E+06         0.00000E+00
    0.40026E+06        -0.33830E+07         0.00000E+00
    0.00000E+00         0.00000E+00        -0.41830E+06
 
    0.12467E+07         0.45996E+06         0.00000E+00
    0.45996E+06        -0.33807E+07         0.00000E+00
    0.00000E+00         0.00000E+00        -0.42680E+06
 
    0.12019E+07         0.51921E+06         0.00000E+00
    0.51921E+06        -0.33780E+07         0.00000E+00
    0.00000E+00         0.00000E+00        -0.43521E+06
 
    0.11572E+07         0.57804E+06         0.00000E+00
    0.57804E+06        -0.33749E+07         0.00000E+00
    0.00000E+00         0.00000E+00        -0.44356E+06
 
    0.11124E+07         0.63644E+06         0.00000E+00
    0.63644E+06        -0.33715E+07         0.00000E+00
    0.00000E+00         0.00000E+00        -0.45182E+06
 
    0.10678E+07         0.69444E+06         0.00000E+00
    0.69444E+06        -0.33678E+07         0.00000E+00
    0.00000E+00         0.00000E+00        -0.46001E+06
 
    0.10231E+07         0.75204E+06         0.00000E+00
    0.75204E+06        -0.33637E+07         0.00000E+00
    0.00000E+00         0.00000E+00        -0.46812E+06
 
    0.97848E+06         0.80925E+06         0.00000E+00
    0.80925E+06        -0.33593E+07         0.00000E+00
    0.00000E+00         0.00000E+00        -0.47616E+06
 
    0.93386E+06         0.86610E+06         0.00000E+00
    0.86610E+06        -0.33545E+07         0.00000E+00
    0.00000E+00         0.00000E+00        -0.48412E+06
 
    0.88926E+06         0.92258E+06         0.00000E+00
    0.92258E+06        -0.33493E+07         0.00000E+00
    0.00000E+00         0.00000E+00        -0.49200E+06
 
    0.84466E+06         0.97871E+06         0.00000E+00
    0.97871E+06        -0.33437E+07         0.00000E+00
    0.00000E+00         0.00000E+00        -0.49981E+06
 
    0.80005E+06         0.10345E+07         0.00000E+00
    0.10345E+07        -0.33378E+07         0.00000E+00
    0.00000E+00         0.00000E+00        -0.50755E+06
 
    0.75542E+06         0.10900E+07         0.00000E+00
    0.10900E+07        -0.33315E+07         0.00000E+00
    0.00000E+00         0.00000E+00        -0.51521E+06
 
    0.71078E+06         0.11451E+07         0.00000E+00
    0.11451E+07        -0.33248E+07         0.00000E+00
    0.00000E+00         0.00000E+00        -0.52280E+06
 
    0.66610E+06         0.11999E+07         0.00000E+00
    0.11999E+07        -0.33177E+07         0.00000E+00
    0.00000E+00         0.00000E+00        -0.53032E+06
 
    0.62138E+06         0.12545E+07         0.00000E+00
    0.12545E+07        -0.33102E+07         0.00000E+00
    0.00000E+00         0.00000E+00        -0.53776E+06
 
    0.57661E+06         0.13087E+07         0.00000E+00
    0.13087E+07        -0.33023E+07         0.00000E+00
    0.00000E+00         0.00000E+00        -0.54513E+06
 
    0.53178E+06         0.13626E+07         0.00000E+00
    0.13626E+07        -0.32940E+07         0.00000E+00
    0.00000E+00         0.00000E+00        -0.55244E+06
 
    0.48688E+06         0.14163E+07         0.00000E+00
    0.14163E+07        -0.32852E+07         0.00000E+00
    0.00000E+00         0.00000E+00        -0.55967E+06
 
    0.44189E+06         0.14697E+07         0.00000E+00
    0.14697E+07        -0.32760E+07         0.00000E+00
    0.00000E+00         0.00000E+00        -0.56683E+06
 
    0.39681E+06         0.15228E+07         0.00000E+00
    0.15228E+07        -0.32664E+07         0.00000E+00
    0.00000E+00         0.00000E+00        -0.57393E+06
 
    0.35162E+06         0.15757E+07         0.00000E+00
    0.15757E+07        -0.32564E+07         0.00000E+00
    0.00000E+00         0.00000E+00        -0.58095E+06
 
    0.30631E+06         0.16283E+07         0.00000E+00
    0.16283E+07        -0.32459E+07         0.00000E+00
    0.00000E+00         0.00000E+00        -0.58791E+06
 
    0.26087E+06         0.16807E+07         0.00000E+00
    0.16807E+07        -0.32349E+07         0.00000E+00
    0.00000E+00         0.00000E+00        -0.59481E+06
 
    0.21529E+06         0.17328E+07         0.00000E+00
    0.17328E+07        -0.32235E+07         0.00000E+00
    0.00000E+00         0.00000E+00        -0.60163E+06
 
    0.16955E+06         0.17847E+07         0.00000E+00
    0.17847E+07        -0.32115E+07         0.00000E+00
    0.00000E+00         0.00000E+00        -0.60840E+06
 
    0.12364E+06         0.18364E+07         0.00000E+00
    0.18364E+07        -0.31991E+07         0.00000E+00
    0.00000E+00         0.00000E+00        -0.61510E+06
 
    0.77538E+05         0.18878E+07         0.00000E+00
    0.18878E+07        -0.31862E+07         0.00000E+00
    0.00000E+00         0.00000E+00        -0.62174E+06
 
    0.31242E+05         0.19390E+07         0.00000E+00
    0.19390E+07        -0.31728E+07         0.00000E+00
    0.00000E+00         0.00000E+00        -0.62831E+06
 
   -0.15268E+05         0.19900E+07         0.00000E+00
    0.19900E+07        -0.31589E+07         0.00000E+00
    0.00000E+00         0.00000E+00        -0.63483E+06
 
   -0.62006E+05         0.20408E+07         0.00000E+00
    0.20408E+07        -0.31444E+07         0.00000E+00
    0.00000E+00         0.00000E+00        -0.64129E+06
 
   -0.10899E+06         0.20913E+07         0.00000E+00
    0.20913E+07        -0.31294E+07         0.00000E+00
    0.00000E+00         0.00000E+00        -0.64768E+06
 
   -0.15623E+06         0.21417E+07         0.00000E+00
    0.21417E+07        -0.31139E+07         0.00000E+00
    0.00000E+00         0.00000E+00        -0.65402E+06
 
   -0.20374E+06         0.21918E+07         0.00000E+00
    0.21918E+07        -0.30978E+07         0.00000E+00
    0.00000E+00         0.00000E+00        -0.66031E+06
 
   -0.25154E+06         0.22418E+07         0.00000E+00
    0.22418E+07        -0.30811E+07         0.00000E+00
    0.00000E+00         0.00000E+00        -0.66654E+06
 
   -0.29965E+06         0.22915E+07         0.00000E+00
    0.22915E+07        -0.30639E+07         0.00000E+00
    0.00000E+00         0.00000E+00        -0.67271E+06
 
   -0.34808E+06         0.23410E+07         0.00000E+00
    0.23410E+07        -0.30461E+07         0.00000E+00
    0.00000E+00         0.00000E+00        -0.67883E+06
 
   -0.39685E+06         0.23903E+07         0.00000E+00
    0.23903E+07        -0.30276E+07         0.00000E+00
    0.00000E+00         0.00000E+00        -0.68490E+06
 
   -0.44597E+06         0.24394E+07         0.00000E+00
    0.24394E+07        -0.30086E+07         0.00000E+00
    0.00000E+00         0.00000E+00        -0.69092E+06
 
   -0.49546E+06         0.24883E+07         0.00000E+00
    0.24883E+07        -0.29890E+07         0.00000E+00
    0.00000E+00         0.00000E+00        -0.69688E+06
 
   -0.54534E+06         0.25370E+07         0.00000E+00
    0.25370E+07        -0.29687E+07         0.00000E+00
    0.00000E+00         0.00000E+00        -0.70280E+06
 
   -0.59563E+06         0.25854E+07         0.00000E+00
    0.25854E+07        -0.29478E+07         0.00000E+00
    0.00000E+00         0.00000E+00        -0.70868E+06
 
   -0.64633E+06         0.26337E+07         0.00000E+00
    0.26337E+07        -0.29262E+07         0.00000E+00
    0.00000E+00         0.00000E+00        -0.71450E+06
 
   -0.69748E+06         0.26817E+07         0.00000E+00
    0.26817E+07        -0.29039E+07         0.00000E+00
    0.00000E+00         0.00000E+00        -0.72028E+06
 
    0.15494E+07         0.32788E+05         0.00000E+00
    0.32788E+05        -0.37210E+07         0.00000E+00
    0.00000E+00         0.00000E+00        -0.43433E+06
 
    0.15016E+07         0.97078E+05         0.00000E+00
    0.97078E+05        -0.37207E+07         0.00000E+00
    0.00000E+00         0.00000E+00        -0.44383E+06
 
    0.14539E+07         0.16084E+06         0.00000E+00
    0.16084E+06        -0.37201E+07         0.00000E+00
    0.00000E+00         0.00000E+00        -0.45324E+06
 
    0.14063E+07         0.22410E+06         0.00000E+00
    0.22410E+06        -0.37191E+07         0.00000E+00
    0.00000E+00         0.00000E+00        -0.46256E+06
 
    0.13589E+07         0.28686E+06         0.00000E+00
    0.28686E+06        -0.37179E+07         0.00000E+00
    0.00000E+00         0.00000E+00        -0.47179E+06
 
    0.13116E+07         0.34914E+06         0.00000E+00
    0.34914E+06        -0.37163E+07         0.00000E+00
    0.00000E+00         0.00000E+00        -0.48094E+06
 
    0.12644E+07         0.41096E+06         0.00000E+00
    0.41096E+06        -0.37143E+07         0.00000E+00
    0.00000E+00         0.00000E+00        -0.48999E+06
 
    0.12173E+07         0.47233E+06         0.00000E+00
    0.47233E+06        -0.37121E+07         0.00000E+00
    0.00000E+00         0.00000E+00        -0.49895E+06
 
    0.11704E+07         0.53328E+06         0.00000E+00
    0.53328E+06        -0.37095E+07         0.00000E+00
    0.00000E+00         0.00000E+00        -0.50782E+06
 
    0.11236E+07         0.59381E+06         0.00000E+00
    0.59381E+06        -0.37066E+07         0.00000E+00
    0.00000E+00         0.00000E+00        -0.51661E+06
 
    0.10768E+07         0.65393E+06         0.00000E+00
    0.65393E+06        -0.37033E+07         0.00000E+00
    0.00000E+00         0.00000E+00        -0.52530E+06
 
    0.10302E+07         0.71367E+06         0.00000E+00
    0.71367E+06        -0.36997E+07         0.00000E+00
    0.00000E+00         0.00000E+00        -0.53391E+06
 
    0.98364E+06         0.77304E+06         0.00000E+00
    0.77304E+06        -0.36958E+07         0.00000E+00
    0.00000E+00         0.00000E+00        -0.54243E+06
 
    0.93718E+06         0.83204E+06         0.00000E+00
    0.83204E+06        -0.36915E+07         0.00000E+00
    0.00000E+00         0.00000E+00        -0.55087E+06
 
    0.89079E+06         0.89070E+06         0.00000E+00
    0.89070E+06        -0.36869E+07         0.00000E+00
    0.00000E+00         0.00000E+00        -0.55922E+06
 
    0.84447E+06         0.94902E+06         0.00000E+00
    0.94902E+06        -0.36819E+07         0.00000E+00
    0.00000E+00         0.00000E+00        -0.56748E+06
 
    0.79821E+06         0.10070E+07         0.00000E+00
    0.10070E+07        -0.36765E+07         0.00000E+00
    0.00000E+00         0.00000E+00        -0.57566E+06
 
    0.75200E+06         0.10647E+07         0.00000E+00
    0.10647E+07        -0.36707E+07         0.00000E+00
    0.00000E+00         0.00000E+00        -0.58375E+06
 
    0.70582E+06         0.11221E+07         0.00000E+00
    0.11221E+07        -0.36646E+07         0.00000E+00
    0.00000E+00         0.00000E+00        -0.59176E+06
 
    0.65968E+06         0.11792E+07         0.00000E+00
    0.11792E+07        -0.36581E+07         0.00000E+00
    0.00000E+00         0.00000E+00        -0.59968E+06
 
    0.61355E+06         0.12360E+07         0.00000E+00
    0.12360E+07        -0.36512E+07         0.00000E+00
    0.00000E+00         0.00000E+00        -0.60753E+06
 
    0.56742E+06         0.12926E+07         0.00000E+00
    0.12926E+07        -0.36439E+07         0.00000E+00
    0.00000E+00         0.00000E+00        -0.61529E+06
 
    0.52129E+06         0.13489E+07         0.00000E+00
    0.13489E+07        -0.36361E+07         0.00000E+00
    0.00000E+00         0.00000E+00        -0.62297E+06
 
    0.47514E+06         0.14049E+07         0.00000E+00
    0.14049E+07        -0.36280E+07         0.00000E+00
    0.00000E+00         0.00000E+00        -0.63057E+06
 
    0.42896E+06         0.14607E+07         0.00000E+00
    0.14607E+07        -0.36194E+07         0.00000E+00
    0.00000E+00         0.00000E+00        -0.63809E+06
 
    0.38274E+06         0.15163E+07         0.00000E+00
    0.15163E+07        -0.36104E+07         0.00000E+00
    0.00000E+00         0.00000E+00        -0.64553E+06
 
    0.33645E+06         0.15717E+07         0.00000E+00
    0.15717E+07        -0.36009E+07         0.00000E+00
    0.00000E+00         0.00000E+00        -0.65290E+06
 
    0.29010E+06         0.16268E+07         0.00000E+00
    0.16268E+07        -0.35910E+07         0.00000E+00
    0.00000E+00         0.00000E+00        -0.66019E+06
 
    0.24366E+06         0.16817E+07         0.00000E+00
    0.16817E+07        -0.35807E+07         0.00000E+00
    0.00000E+00         0.00000E+00        -0.66740E+06
 
    0.19711E+06         0.17365E+07         0.00000E+00
    0.17365E+07        -0.35698E+07         0.00000E+00
    0.00000E+00         0.00000E+00        -0.67454E+06
 
    0.15045E+06         0.17910E+07         0.00000E+00
    0.17910E+07        -0.35585E+07         0.00000E+00
    0.00000E+00         0.00000E+00        -0.68161E+06
 
    0.10366E+06         0.18454E+07         0.00000E+00
    0.18454E+07        -0.35467E+07         0.00000E+00
    0.00000E+00         0.00000E+00        -0.68860E+06
 
    0.56728E+05         0.18995E+07         0.00000E+00
    0.18995E+07        -0.35343E+07         0.00000E+00
    0.00000E+00         0.00000E+00        -0.69552E+06
 
    0.96279E+04         0.19535E+07         0.00000E+00
    0.19535E+07        -0.35215E+07         0.00000E+00
    0.00000E+00         0.00000E+00        -0.70237E+06
 
   -0.37651E+05         0.20073E+07         0.00000E+00
    0.20073E+07        -0.35081E+07         0.00000E+00
    0.00000E+00         0.00000E+00        -0.70916E+06
 
   -0.85126E+05         0.20610E+07         0.00000E+00
    0.20610E+07        -0.34942E+07         0.00000E+00
    0.00000E+00         0.00000E+00        -0.71587E+06
 
   -0.13281E+06         0.21145E+07         0.00000E+00
    0.21145E+07        -0.34798E+07         0.00000E+00
    0.00000E+00         0.00000E+00        -0.72252E+06
 
   -0.18073E+06         0.21678E+07         0.00000E+00
    0.21678E+07        -0.34648E+07         0.00000E+00
    0.00000E+00         0.00000E+00        -0.72910E+06
 
   -0.22889E+06         0.22210E+07         0.00000E+00
    0.22210E+07        -0.34492E+07         0.00000E+00
    0.00000E+00         0.00000E+00        -0.73562E+06
 
   -0.27732E+06         0.22740E+07         0.00000E+00
    0.22740E+07        -0.34330E+07         0.00000E+00
    0.00000E+00         0.00000E+00        -0.74207E+06
 
   -0.32603E+06         0.23268E+07         0.00000E+00
    0.23268E+07        -0.34163E+07         0.00000E+00
    0.00000E+00         0.00000E+00        -0.74846E+06
 
   -0.37505E+06         0.23795E+07         0.00000E+00
    0.23795E+07        -0.33989E+07         0.00000E+00
    0.00000E+00         0.00000E+00        -0.75480E+06
 
   -0.42438E+06         0.24321E+07         0.00000E+00
    0.24321E+07        -0.33810E+07         0.00000E+00
    0.00000E+00         0.00000E+00        -0.76107E+06
 
   -0.47404E+06         0.24845E+07         0.00000E+00
    0.24845E+07        -0.33624E+07         0.00000E+00
    0.00000E+00         0.00000E+00        -0.76728E+06
 
   -0.52407E+06         0.25367E+07         0.00000E+00
    0.25367E+07        -0.33431E+07         0.00000E+00
    0.00000E+00         0.00000E+00        -0.77344E+06
 
   -0.57447E+06         0.25888E+07         0.00000E+00
    0.25888E+07        -0.33232E+07         0.00000E+00
    0.00000E+00         0.00000E+00        -0.77954E+06
 
   -0.62526E+06         0.26408E+07         0.00000E+00
    0.26408E+07        -0.33027E+07         0.00000E+00
    0.00000E+00         0.00000E+00        -0.78559E+06
 
   -0.67646E+06         0.26926E+07         0.00000E+00
    0.26926E+07        -0.32815E+07         0.00000E+00
    0.00000E+00         0.00000E+00        -0.79158E+06
 
   -0.72810E+06         0.27442E+07         0.00000E+00
    0.27442E+07        -0.32595E+07         0.00000E+00
    0.00000E+00         0.00000E+00        -0.79753E+06
 
   -0.78019E+06         0.27957E+07         0.00000E+00
    0.27957E+07        -0.32369E+07         0.00000E+00
    0.00000E+00         0.00000E+00        -0.80342E+06
 
    0.15194E+07         0.33556E+05         0.00000E+00
    0.33556E+05        -0.40777E+07         0.00000E+00
    0.00000E+00         0.00000E+00        -0.51164E+06
 
    0.14690E+07         0.99384E+05         0.00000E+00
    0.99384E+05        -0.40774E+07         0.00000E+00
    0.00000E+00         0.00000E+00        -0.52168E+06
 
    0.14187E+07         0.16469E+06         0.00000E+00
    0.16469E+06        -0.40768E+07         0.00000E+00
    0.00000E+00         0.00000E+00        -0.53162E+06
 
    0.13686E+07         0.22950E+06         0.00000E+00
    0.22950E+06        -0.40759E+07         0.00000E+00
    0.00000E+00         0.00000E+00        -0.54145E+06
 
    0.13188E+07         0.29382E+06         0.00000E+00
    0.29382E+06        -0.40747E+07         0.00000E+00
    0.00000E+00         0.00000E+00        -0.55118E+06
 
    0.12692E+07         0.35767E+06         0.00000E+00
    0.35767E+06        -0.40732E+07         0.00000E+00
    0.00000E+00         0.00000E+00        -0.56080E+06
 
    0.12198E+07         0.42108E+06         0.00000E+00
    0.42108E+06        -0.40714E+07         0.00000E+00
    0.00000E+00         0.00000E+00        -0.57033E+06
 
    0.11706E+07         0.48406E+06         0.00000E+00
    0.48406E+06        -0.40693E+07         0.00000E+00
    0.00000E+00         0.00000E+00        -0.57975E+06
 
    0.11216E+07         0.54662E+06         0.00000E+00
    0.54662E+06        -0.40669E+07         0.00000E+00
    0.00000E+00         0.00000E+00        -0.58907E+06
 
    0.10727E+07         0.60879E+06         0.00000E+00
    0.60879E+06        -0.40642E+07         0.00000E+00
    0.00000E+00         0.00000E+00        -0.59829E+06
 
    0.10241E+07         0.67058E+06         0.00000E+00
    0.67058E+06        -0.40611E+07         0.00000E+00
    0.00000E+00         0.00000E+00        -0.60740E+06
 
    0.97559E+06         0.73201E+06         0.00000E+00
    0.73201E+06        -0.40577E+07         0.00000E+00
    0.00000E+00         0.00000E+00        -0.61642E+06
 
    0.92728E+06         0.79309E+06         0.00000E+00
    0.79309E+06        -0.40540E+07         0.00000E+00
    0.00000E+00         0.00000E+00        -0.62534E+06
 
    0.87912E+06         0.85383E+06         0.00000E+00
    0.85383E+06        -0.40499E+07         0.00000E+00
    0.00000E+00         0.00000E+00        -0.63416E+06
 
    0.83110E+06         0.91426E+06         0.00000E+00
    0.91426E+06        -0.40455E+07         0.00000E+00
    0.00000E+00         0.00000E+00        -0.64288E+06
 
    0.78322E+06         0.97439E+06         0.00000E+00
    0.97439E+06        -0.40408E+07         0.00000E+00
    0.00000E+00         0.00000E+00        -0.65151E+06
 
    0.73546E+06         0.10342E+07         0.00000E+00
    0.10342E+07        -0.40356E+07         0.00000E+00
    0.00000E+00         0.00000E+00        -0.66004E+06
 
    0.68781E+06         0.10938E+07         0.00000E+00
    0.10938E+07        -0.40302E+07         0.00000E+00
    0.00000E+00         0.00000E+00        -0.66847E+06
 
    0.64026E+06         0.11531E+07         0.00000E+00
    0.11531E+07        -0.40243E+07         0.00000E+00
    0.00000E+00         0.00000E+00        -0.67681E+06
 
    0.59280E+06         0.12121E+07         0.00000E+00
    0.12121E+07        -0.40180E+07         0.00000E+00
    0.00000E+00         0.00000E+00        -0.68505E+06
 
    0.54541E+06         0.12710E+07         0.00000E+00
    0.12710E+07        -0.40114E+07         0.00000E+00
    0.00000E+00         0.00000E+00        -0.69320E+06
 
    0.49807E+06         0.13295E+07         0.00000E+00
    0.13295E+07        -0.40044E+07         0.00000E+00
    0.00000E+00         0.00000E+00        -0.70126E+06
 
    0.45079E+06         0.13879E+07         0.00000E+00
    0.13879E+07        -0.39969E+07         0.00000E+00
    0.00000E+00         0.00000E+00        -0.70923E+06
 
    0.40353E+06         0.14461E+07         0.00000E+00
    0.14461E+07        -0.39890E+07         0.00000E+00
    0.00000E+00         0.00000E+00        -0.71710E+06
 
    0.35629E+06         0.15041E+07         0.00000E+00
    0.15041E+07        -0.39807E+07         0.00000E+00
    0.00000E+00         0.00000E+00        -0.72489E+06
 
    0.30905E+06         0.15619E+07         0.00000E+00
    0.15619E+07        -0.39720E+07         0.00000E+00
    0.00000E+00         0.00000E+00        -0.73259E+06
 
    0.26180E+06         0.16195E+07         0.00000E+00
    0.16195E+07        -0.39628E+07         0.00000E+00
    0.00000E+00         0.00000E+00        -0.74020E+06
 
    0.21451E+06         0.16769E+07         0.00000E+00
    0.16769E+07        -0.39532E+07         0.00000E+00
    0.00000E+00         0.00000E+00        -0.74773E+06
 
    0.16718E+06         0.17342E+07         0.00000E+00
    0.17342E+07        -0.39430E+07         0.00000E+00
    0.00000E+00         0.00000E+00        -0.75517E+06
 
    0.11978E+06         0.17914E+07         0.00000E+00
    0.17914E+07        -0.39324E+07         0.00000E+00
    0.00000E+00         0.00000E+00        -0.76253E+06
 
    0.72296E+05         0.18484E+07         0.00000E+00
    0.18484E+07        -0.39213E+07         0.00000E+00
    0.00000E+00         0.00000E+00        -0.76981E+06
 
    0.24714E+05         0.19053E+07         0.00000E+00
    0.19053E+07        -0.39097E+07         0.00000E+00
    0.00000E+00         0.00000E+00        -0.77700E+06
 
   -0.22985E+05         0.19620E+07         0.00000E+00
    0.19620E+07        -0.38976E+07         0.00000E+00
    0.00000E+00         0.00000E+00        -0.78412E+06
 
   -0.70821E+05         0.20187E+07         0.00000E+00
    0.20187E+07        -0.38850E+07         0.00000E+00
    0.00000E+00         0.00000E+00        -0.79116E+06
 
   -0.11881E+06         0.20752E+07         0.00000E+00
    0.20752E+07        -0.38718E+07         0.00000E+00
    0.00000E+00         0.00000E+00        -0.79812E+06
 
   -0.16698E+06         0.21316E+07         0.00000E+00
    0.21316E+07        -0.38580E+07         0.00000E+00
    0.00000E+00         0.00000E+00        -0.80500E+06
 
   -0.21533E+06         0.21879E+07         0.00000E+00
    0.21879E+07        -0.38437E+07         0.00000E+00
    0.00000E+00         0.00000E+00        -0.81181E+06
 
   -0.26390E+06         0.22441E+07         0.00000E+00
    0.22441E+07        -0.38288E+07         0.00000E+00
    0.00000E+00         0.00000E+00        -0.81855E+06
 
   -0.31270E+06         0.23002E+07         0.00000E+00
    0.23002E+07        -0.38134E+07         0.00000E+00
    0.00000E+00         0.00000E+00        -0.82521E+06
 
   -0.36175E+06         0.23562E+07         0.00000E+00
    0.23562E+07        -0.37973E+07         0.00000E+00
    0.00000E+00         0.00000E+00        -0.83181E+06
 
   -0.41108E+06         0.24121E+07         0.00000E+00
    0.24121E+07        -0.37806E+07         0.00000E+00
    0.00000E+00         0.00000E+00        -0.83833E+06
 
   -0.46070E+06         0.24679E+07         0.00000E+00
    0.24679E+07        -0.37632E+07         0.00000E+00
    0.00000E+00         0.00000E+00        -0.84479E+06
 
   -0.51063E+06         0.25236E+07         0.00000E+00
    0.25236E+07        -0.37453E+07         0.00000E+00
    0.00000E+00         0.00000E+00        -0.85118E+06
 
   -0.56089E+06         0.25793E+07         0.00000E+00
    0.25793E+07        -0.37266E+07         0.00000E+00
    0.00000E+00         0.00000E+00        -0.85751E+06
 
   -0.61151E+06         0.26348E+07         0.00000E+00
    0.26348E+07        -0.37073E+07         0.00000E+00
    0.00000E+00         0.00000E+00        -0.86377E+06
 
   -0.66251E+06         0.26903E+07         0.00000E+00
    0.26903E+07        -0.36873E+07         0.00000E+00
    0.00000E+00         0.00000E+00        -0.86997E+06
 
   -0.71390E+06         0.27457E+07         0.00000E+00
    0.27457E+07        -0.36667E+07         0.00000E+00
    0.00000E+00         0.00000E+00        -0.87611E+06
 
   -0.76571E+06         0.28010E+07         0.00000E+00
    0.28010E+07        -0.36453E+07         0.00000E+00
    0.00000E+00         0.00000E+00        -0.88219E+06
 
   -0.81797E+06         0.28562E+07         0.00000E+00
    0.28562E+07        -0.36231E+07         0.00000E+00
    0.00000E+00         0.00000E+00        -0.88822E+06
 
   -0.87068E+06         0.29113E+07         0.00000E+00
    0.29113E+07        -0.36003E+07         0.00000E+00
    0.00000E+00         0.00000E+00        -0.89419E+06
 
    0.14697E+07         0.34254E+05         0.00000E+00
    0.34254E+05        -0.44615E+07         0.00000E+00
    0.00000E+00         0.00000E+00        -0.59836E+06
 
    0.14166E+07         0.10149E+06         0.00000E+00
    0.10149E+06        -0.44612E+07         0.00000E+00
    0.00000E+00         0.00000E+00        -0.60893E+06
 
    0.13638E+07         0.16822E+06         0.00000E+00
    0.16822E+06        -0.44607E+07         0.00000E+00
    0.00000E+00         0.00000E+00        -0.61938E+06
 
    0.13113E+07         0.23446E+06         0.00000E+00
    0.23446E+06        -0.44599E+07         0.00000E+00
    0.00000E+00         0.00000E+00        -0.62972E+06
 
    0.12591E+07         0.30022E+06         0.00000E+00
    0.30022E+06        -0.44588E+07         0.00000E+00
    0.00000E+00         0.00000E+00        -0.63994E+06
 
    0.12073E+07         0.36554E+06         0.00000E+00
    0.36554E+06        -0.44575E+07         0.00000E+00
    0.00000E+00         0.00000E+00        -0.65004E+06
 
    0.11557E+07         0.43043E+06         0.00000E+00
    0.43043E+06        -0.44558E+07         0.00000E+00
    0.00000E+00         0.00000E+00        -0.66002E+06
 
    0.11044E+07         0.49491E+06         0.00000E+00
    0.49491E+06        -0.44539E+07         0.00000E+00
    0.00000E+00         0.00000E+00        -0.66989E+06
 
    0.10535E+07         0.55900E+06         0.00000E+00
    0.55900E+06        -0.44517E+07         0.00000E+00
    0.00000E+00         0.00000E+00        -0.67965E+06
 
    0.10028E+07         0.62272E+06         0.00000E+00
    0.62272E+06        -0.44492E+07         0.00000E+00
    0.00000E+00         0.00000E+00        -0.68929E+06
 
    0.95232E+06         0.68609E+06         0.00000E+00
    0.68609E+06        -0.44464E+07         0.00000E+00
    0.00000E+00         0.00000E+00        -0.69881E+06
 
    0.90214E+06         0.74913E+06         0.00000E+00
    0.74913E+06        -0.44432E+07         0.00000E+00
    0.00000E+00         0.00000E+00        -0.70822E+06
 
    0.85221E+06         0.81185E+06         0.00000E+00
    0.81185E+06        -0.44398E+07         0.00000E+00
    0.00000E+00         0.00000E+00        -0.71752E+06
 
    0.80251E+06         0.87427E+06         0.00000E+00
    0.87427E+06        -0.44361E+07         0.00000E+00
    0.00000E+00         0.00000E+00        -0.72671E+06
 
    0.75304E+06         0.93642E+06         0.00000E+00
    0.93642E+06        -0.44320E+07         0.00000E+00
    0.00000E+00         0.00000E+00        -0.73579E+06
 
    0.70377E+06         0.99830E+06         0.00000E+00
    0.99830E+06        -0.44275E+07         0.00000E+00
    0.00000E+00         0.00000E+00        -0.74475E+06
 
    0.65471E+06         0.10599E+07         0.00000E+00
    0.10599E+07        -0.44228E+07         0.00000E+00
    0.00000E+00         0.00000E+00        -0.75361E+06
 
    0.60582E+06         0.11213E+07         0.00000E+00
    0.11213E+07        -0.44176E+07         0.00000E+00
    0.00000E+00         0.00000E+00        -0.76236E+06
 
    0.55710E+06         0.11825E+07         0.00000E+00
    0.11825E+07        -0.44121E+07         0.00000E+00
    0.00000E+00         0.00000E+00        -0.77101E+06
 
    0.50853E+06         0.12435E+07         0.00000E+00
    0.12435E+07        -0.44063E+07         0.00000E+00
    0.00000E+00         0.00000E+00        -0.77955E+06
 
    0.46010E+06         0.13043E+07         0.00000E+00
    0.13043E+07        -0.44000E+07         0.00000E+00
    0.00000E+00         0.00000E+00        -0.78798E+06
 
    0.41179E+06         0.13649E+07         0.00000E+00
    0.13649E+07        -0.43933E+07         0.00000E+00
    0.00000E+00         0.00000E+00        -0.79631E+06
 
    0.36359E+06         0.14253E+07         0.00000E+00
    0.14253E+07        -0.43863E+07         0.00000E+00
    0.00000E+00         0.00000E+00        -0.80454E+06
 
    0.31547E+06         0.14856E+07         0.00000E+00
    0.14856E+07        -0.43788E+07         0.00000E+00
    0.00000E+00         0.00000E+00        -0.81267E+06
 
    0.26742E+06         0.15458E+07         0.00000E+00
    0.15458E+07        -0.43709E+07         0.00000E+00
    0.00000E+00         0.00000E+00        -0.82069E+06
 
    0.21943E+06         0.16058E+07         0.00000E+00
    0.16058E+07        -0.43625E+07         0.00000E+00
    0.00000E+00         0.00000E+00        -0.82862E+06
 
    0.17146E+06         0.16657E+07         0.00000E+00
    0.16657E+07        -0.43537E+07         0.00000E+00
    0.00000E+00         0.00000E+00        -0.83646E+06
 
    0.12352E+06         0.17255E+07         0.00000E+00
    0.17255E+07        -0.43445E+07         0.00000E+00
    0.00000E+00         0.00000E+00        -0.84419E+06
 
    0.75568E+05         0.17852E+07         0.00000E+00
    0.17852E+07        -0.43347E+07         0.00000E+00
    0.00000E+00         0.00000E+00        -0.85183E+06
 
    0.27594E+05         0.18448E+07         0.00000E+00
    0.18448E+07        -0.43245E+07         0.00000E+00
    0.00000E+00         0.00000E+00        -0.85938E+06
 
   -0.20423E+05         0.19043E+07         0.00000E+00
    0.19043E+07        -0.43138E+07         0.00000E+00
    0.00000E+00         0.00000E+00        -0.86684E+06
 
   -0.68503E+05         0.19638E+07         0.00000E+00
    0.19638E+07        -0.43025E+07         0.00000E+00
    0.00000E+00         0.00000E+00        -0.87421E+06
 
   -0.11667E+06         0.20232E+07         0.00000E+00
    0.20232E+07        -0.42908E+07         0.00000E+00
    0.00000E+00         0.00000E+00        -0.88148E+06
 
   -0.16494E+06         0.20825E+07         0.00000E+00
    0.20825E+07        -0.42784E+07         0.00000E+00
    0.00000E+00         0.00000E+00        -0.88867E+06
 
   -0.21333E+06         0.21418E+07         0.00000E+00
    0.21418E+07        -0.42656E+07         0.00000E+00
    0.00000E+00         0.00000E+00        -0.89578E+06
 
   -0.26187E+06         0.22011E+07         0.00000E+00
    0.22011E+07        -0.42521E+07         0.00000E+00
    0.00000E+00         0.00000E+00        -0.90280E+06
 
   -0.31058E+06         0.22603E+07         0.00000E+00
    0.22603E+07        -0.42381E+07         0.00000E+00
    0.00000E+00         0.00000E+00        -0.90974E+06
 
   -0.35948E+06         0.23194E+07         0.00000E+00
    0.23194E+07        -0.42235E+07         0.00000E+00
    0.00000E+00         0.00000E+00        -0.91659E+06
 
   -0.40860E+06         0.23786E+07         0.00000E+00
    0.23786E+07        -0.42082E+07         0.00000E+00
    0.00000E+00         0.00000E+00        -0.92337E+06
 
   -0.45794E+06         0.24377E+07         0.00000E+00
    0.24377E+07        -0.41924E+07         0.00000E+00
    0.00000E+00         0.00000E+00        -0.93007E+06
 
   -0.50755E+06         0.24968E+07         0.00000E+00
    0.24968E+07        -0.41759E+07         0.00000E+00
    0.00000E+00         0.00000E+00        -0.93669E+06
 
   -0.55744E+06         0.25559E+07         0.00000E+00
    0.25559E+07        -0.41587E+07         0.00000E+00
    0.00000E+00         0.00000E+00        -0.94323E+06
 
   -0.60763E+06         0.26149E+07         0.00000E+00
    0.26149E+07        -0.41409E+07         0.00000E+00
    0.00000E+00         0.00000E+00        -0.94971E+06
 
   -0.65815E+06         0.26740E+07         0.00000E+00
    0.26740E+07        -0.41224E+07         0.00000E+00
    0.00000E+00         0.00000E+00        -0.95611E+06
 
   -0.70902E+06         0.27330E+07         0.00000E+00
    0.27330E+07        -0.41032E+07         0.00000E+00
    0.00000E+00         0.00000E+00        -0.96244E+06
 
   -0.76027E+06         0.27920E+07         0.00000E+00
    0.27920E+07        -0.40833E+07         0.00000E+00
    0.00000E+00         0.00000E+00        -0.96870E+06
 
   -0.81191E+06         0.28510E+07         0.00000E+00
    0.28510E+07        -0.40626E+07         0.00000E+00
    0.00000E+00         0.00000E+00        -0.97490E+06
 
   -0.86398E+06         0.29100E+07         0.00000E+00
    0.29100E+07        -0.40412E+07         0.00000E+00
    0.00000E+00         0.00000E+00        -0.98103E+06
 
   -0.91650E+06         0.29690E+07         0.00000E+00
    0.29690E+07        -0.40190E+07         0.00000E+00
    0.00000E+00         0.00000E+00        -0.98710E+06
 
   -0.96948E+06         0.30279E+07         0.00000E+00
    0.30279E+07        -0.39961E+07         0.00000E+00
    0.00000E+00         0.00000E+00        -0.99311E+06
 
    0.13979E+07         0.34867E+05         0.00000E+00
    0.34867E+05        -0.48740E+07         0.00000E+00
    0.00000E+00         0.00000E+00        -0.69523E+06
 
    0.13421E+07         0.10335E+06         0.00000E+00
    0.10335E+06        -0.48738E+07         0.00000E+00
    0.00000E+00         0.00000E+00        -0.70633E+06
 
    0.12869E+07         0.17134E+06         0.00000E+00
    0.17134E+06        -0.48733E+07         0.00000E+00
    0.00000E+00         0.00000E+00        -0.71729E+06
 
    0.12320E+07         0.23886E+06         0.00000E+00
    0.23886E+06        -0.48726E+07         0.00000E+00
    0.00000E+00         0.00000E+00        -0.72812E+06
 
    0.11776E+07         0.30592E+06         0.00000E+00
    0.30592E+06        -0.48717E+07         0.00000E+00
    0.00000E+00         0.00000E+00        -0.73881E+06
 
    0.11236E+07         0.37256E+06         0.00000E+00
    0.37256E+06        -0.48705E+07         0.00000E+00
    0.00000E+00         0.00000E+00        -0.74938E+06
 
    0.10700E+07         0.43879E+06         0.00000E+00
    0.43879E+06        -0.48691E+07         0.00000E+00
    0.00000E+00         0.00000E+00        -0.75981E+06
 
    0.10168E+07         0.50465E+06         0.00000E+00
    0.50465E+06        -0.48674E+07         0.00000E+00
    0.00000E+00         0.00000E+00        -0.77011E+06
 
    0.96405E+06         0.57014E+06         0.00000E+00
    0.57014E+06        -0.48654E+07         0.00000E+00
    0.00000E+00         0.00000E+00        -0.78028E+06
 
    0.91162E+06         0.63529E+06         0.00000E+00
    0.63529E+06        -0.48632E+07         0.00000E+00
    0.00000E+00         0.00000E+00        -0.79032E+06
 
    0.85957E+06         0.70013E+06         0.00000E+00
    0.70013E+06        -0.48607E+07         0.00000E+00
    0.00000E+00         0.00000E+00        -0.80023E+06
 
    0.80786E+06         0.76468E+06         0.00000E+00
    0.76468E+06        -0.48580E+07         0.00000E+00
    0.00000E+00         0.00000E+00        -0.81002E+06
 
    0.75650E+06         0.82895E+06         0.00000E+00
    0.82895E+06        -0.48549E+07         0.00000E+00
    0.00000E+00         0.00000E+00        -0.81968E+06
 
    0.70546E+06         0.89296E+06         0.00000E+00
    0.89296E+06        -0.48515E+07         0.00000E+00
    0.00000E+00         0.00000E+00        -0.82921E+06
 
    0.65473E+06         0.95673E+06         0.00000E+00
    0.95673E+06        -0.48478E+07         0.00000E+00
    0.00000E+00         0.00000E+00        -0.83862E+06
 
    0.60430E+06         0.10203E+07         0.00000E+00
    0.10203E+07        -0.48438E+07         0.00000E+00
    0.00000E+00         0.00000E+00        -0.84790E+06
 
    0.55414E+06         0.10836E+07         0.00000E+00
    0.10836E+07        -0.48395E+07         0.00000E+00
    0.00000E+00         0.00000E+00        -0.85707E+06
 
    0.50425E+06         0.11468E+07         0.00000E+00
    0.11468E+07        -0.48348E+07         0.00000E+00
    0.00000E+00         0.00000E+00        -0.86611E+06
 
    0.45460E+06         0.12098E+07         0.00000E+00
    0.12098E+07        -0.48298E+07         0.00000E+00
    0.00000E+00         0.00000E+00        -0.87504E+06
 
    0.40518E+06         0.12727E+07         0.00000E+00
    0.12727E+07        -0.48244E+07         0.00000E+00
    0.00000E+00         0.00000E+00        -0.88384E+06
 
    0.35597E+06         0.13354E+07         0.00000E+00
    0.13354E+07        -0.48186E+07         0.00000E+00
    0.00000E+00         0.00000E+00        -0.89253E+06
 
    0.30695E+06         0.13980E+07         0.00000E+00
    0.13980E+07        -0.48125E+07         0.00000E+00
    0.00000E+00         0.00000E+00        -0.90110E+06
 
    0.25810E+06         0.14605E+07         0.00000E+00
    0.14605E+07        -0.48059E+07         0.00000E+00
    0.00000E+00         0.00000E+00        -0.90956E+06
 
    0.20941E+06         0.15229E+07         0.00000E+00
    0.15229E+07        -0.47990E+07         0.00000E+00
    0.00000E+00         0.00000E+00        -0.91791E+06
 
    0.16084E+06         0.15852E+07         0.00000E+00
    0.15852E+07        -0.47916E+07         0.00000E+00
    0.00000E+00         0.00000E+00        -0.92615E+06
 
    0.11238E+06         0.16474E+07         0.00000E+00
    0.16474E+07        -0.47837E+07         0.00000E+00
    0.00000E+00         0.00000E+00        -0.93427E+06
 
    0.64016E+05         0.17096E+07         0.00000E+00
    0.17096E+07        -0.47755E+07         0.00000E+00
    0.00000E+00         0.00000E+00        -0.94229E+06
 
    0.15718E+05         0.17718E+07         0.00000E+00
    0.17718E+07        -0.47667E+07         0.00000E+00
    0.00000E+00         0.00000E+00        -0.95020E+06
 
   -0.32534E+05         0.18339E+07         0.00000E+00
    0.18339E+07        -0.47575E+07         0.00000E+00
    0.00000E+00         0.00000E+00        -0.95801E+06
 
   -0.80762E+05         0.18960E+07         0.00000E+00
    0.18960E+07        -0.47478E+07         0.00000E+00
    0.00000E+00         0.00000E+00        -0.96571E+06
 
   -0.12899E+06         0.19581E+07         0.00000E+00
    0.19581E+07        -0.47376E+07         0.00000E+00
    0.00000E+00         0.00000E+00        -0.97331E+06
 
   -0.17724E+06         0.20202E+07         0.00000E+00
    0.20202E+07        -0.47268E+07         0.00000E+00
    0.00000E+00         0.00000E+00        -0.98081E+06
 
   -0.22553E+06         0.20823E+07         0.00000E+00
    0.20823E+07        -0.47156E+07         0.00000E+00
    0.00000E+00         0.00000E+00        -0.98822E+06
 
   -0.27389E+06         0.21444E+07         0.00000E+00
    0.21444E+07        -0.47037E+07         0.00000E+00
    0.00000E+00         0.00000E+00        -0.99552E+06
 
   -0.32234E+06         0.22065E+07         0.00000E+00
    0.22065E+07        -0.46913E+07         0.00000E+00
    0.00000E+00         0.00000E+00        -0.10027E+07
 
   -0.37091E+06         0.22687E+07         0.00000E+00
    0.22687E+07        -0.46783E+07         0.00000E+00
    0.00000E+00         0.00000E+00        -0.10099E+07
 
   -0.41962E+06         0.23309E+07         0.00000E+00
    0.23309E+07        -0.46648E+07         0.00000E+00
    0.00000E+00         0.00000E+00        -0.10169E+07
 
   -0.46849E+06         0.23931E+07         0.00000E+00
    0.23931E+07        -0.46506E+07         0.00000E+00
    0.00000E+00         0.00000E+00        -0.10238E+07
 
   -0.51755E+06         0.24554E+07         0.00000E+00
    0.24554E+07        -0.46357E+07         0.00000E+00
    0.00000E+00         0.00000E+00        -0.10307E+07
 
   -0.56683E+06         0.25178E+07         0.00000E+00
    0.25178E+07        -0.46203E+07         0.00000E+00
    0.00000E+00         0.00000E+00        -0.10374E+07
 
   -0.61635E+06         0.25801E+07         0.00000E+00
    0.25801E+07        -0.46041E+07         0.00000E+00
    0.00000E+00         0.00000E+00        -0.10441E+07
 
   -0.66614E+06         0.26426E+07         0.00000E+00
    0.26426E+07        -0.45873E+07         0.00000E+00
    0.00000E+00         0.00000E+00        -0.10507E+07
 
   -0.71621E+06         0.27051E+07         0.00000E+00
    0.27051E+07        -0.45698E+07         0.00000E+00
    0.00000E+00         0.00000E+00        -0.10572E+07
 
   -0.76661E+06         0.27677E+07         0.00000E+00
    0.27677E+07        -0.45516E+07         0.00000E+00
    0.00000E+00         0.00000E+00        -0.10636E+07
 
   -0.81734E+06         0.28303E+07         0.00000E+00
    0.28303E+07        -0.45327E+07         0.00000E+00
    0.00000E+00         0.00000E+00        -0.10700E+07
 
   -0.86845E+06         0.28930E+07         0.00000E+00
    0.28930E+07        -0.45130E+07         0.00000E+00
    0.00000E+00         0.00000E+00        -0.10763E+07
 
   -0.91996E+06         0.29558E+07         0.00000E+00
    0.29558E+07        -0.44925E+07         0.00000E+00
    0.00000E+00         0.00000E+00        -0.10825E+07
 
   -0.97189E+06         0.30187E+07         0.00000E+00
    0.30187E+07        -0.44713E+07         0.00000E+00
    0.00000E+00         0.00000E+00        -0.10886E+07
 
   -0.10243E+07         0.30816E+07         0.00000E+00
    0.30816E+07        -0.44492E+07         0.00000E+00
    0.00000E+00         0.00000E+00        -0.10947E+07
 
   -0.10771E+07         0.31446E+07         0.00000E+00
    0.31446E+07        -0.44264E+07         0.00000E+00
    0.00000E+00         0.00000E+00        -0.11007E+07
 
    0.13015E+07         0.35373E+05         0.00000E+00
    0.35373E+05        -0.53168E+07         0.00000E+00
    0.00000E+00         0.00000E+00        -0.80304E+06
 
    0.12433E+07         0.10491E+06         0.00000E+00
    0.10491E+06        -0.53166E+07         0.00000E+00
    0.00000E+00         0.00000E+00        -0.81465E+06
 
    0.11856E+07         0.17397E+06         0.00000E+00
    0.17397E+06        -0.53162E+07         0.00000E+00
    0.00000E+00         0.00000E+00        -0.82611E+06
 
    0.11285E+07         0.24257E+06         0.00000E+00
    0.24257E+06        -0.53156E+07         0.00000E+00
    0.00000E+00         0.00000E+00        -0.83742E+06
 
    0.10720E+07         0.31075E+06         0.00000E+00
    0.31075E+06        -0.53149E+07         0.00000E+00
    0.00000E+00         0.00000E+00        -0.84857E+06
 
    0.10160E+07         0.37854E+06         0.00000E+00
    0.37854E+06        -0.53139E+07         0.00000E+00
    0.00000E+00         0.00000E+00        -0.85958E+06
 
    0.96053E+06         0.44595E+06         0.00000E+00
    0.44595E+06        -0.53127E+07         0.00000E+00
    0.00000E+00         0.00000E+00        -0.87044E+06
 
    0.90558E+06         0.51301E+06         0.00000E+00
    0.51301E+06        -0.53113E+07         0.00000E+00
    0.00000E+00         0.00000E+00        -0.88115E+06
 
    0.85113E+06         0.57975E+06         0.00000E+00
    0.57975E+06        -0.53097E+07         0.00000E+00
    0.00000E+00         0.00000E+00        -0.89171E+06
 
    0.79718E+06         0.64619E+06         0.00000E+00
    0.64619E+06        -0.53078E+07         0.00000E+00
    0.00000E+00         0.00000E+00        -0.90213E+06
 
    0.74370E+06         0.71236E+06         0.00000E+00
    0.71236E+06        -0.53057E+07         0.00000E+00
    0.00000E+00         0.00000E+00        -0.91241E+06
 
    0.69068E+06         0.77827E+06         0.00000E+00
    0.77827E+06        -0.53034E+07         0.00000E+00
    0.00000E+00         0.00000E+00        -0.92254E+06
 
    0.63810E+06         0.84396E+06         0.00000E+00
    0.84396E+06        -0.53008E+07         0.00000E+00
    0.00000E+00         0.00000E+00        -0.93253E+06
 
    0.58595E+06         0.90944E+06         0.00000E+00
    0.90944E+06        -0.52979E+07         0.00000E+00
    0.00000E+00         0.00000E+00        -0.94238E+06
 
    0.53421E+06         0.97474E+06         0.00000E+00
    0.97474E+06        -0.52947E+07         0.00000E+00
    0.00000E+00         0.00000E+00        -0.95209E+06
 
    0.48286E+06         0.10399E+07         0.00000E+00
    0.10399E+07        -0.52912E+07         0.00000E+00
    0.00000E+00         0.00000E+00        -0.96167E+06
 
    0.43188E+06         0.11048E+07         0.00000E+00
    0.11048E+07        -0.52874E+07         0.00000E+00
    0.00000E+00         0.00000E+00        -0.97110E+06
 
    0.38125E+06         0.11697E+07         0.00000E+00
    0.11697E+07        -0.52833E+07         0.00000E+00
    0.00000E+00         0.00000E+00        -0.98041E+06
 
    0.33096E+06         0.12345E+07         0.00000E+00
    0.12345E+07        -0.52789E+07         0.00000E+00
    0.00000E+00         0.00000E+00        -0.98958E+06
 
    0.28098E+06         0.12991E+07         0.00000E+00
    0.12991E+07        -0.52741E+07         0.00000E+00
    0.00000E+00         0.00000E+00        -0.99862E+06
 
    0.23128E+06         0.13637E+07         0.00000E+00
    0.13637E+07        -0.52689E+07         0.00000E+00
    0.00000E+00         0.00000E+00        -0.10075E+07
 
    0.18186E+06         0.14282E+07         0.00000E+00
    0.14282E+07        -0.52634E+07         0.00000E+00
    0.00000E+00         0.00000E+00        -0.10163E+07
 
    0.13268E+06         0.14927E+07         0.00000E+00
    0.14927E+07        -0.52575E+07         0.00000E+00
    0.00000E+00         0.00000E+00        -0.10250E+07
 
    0.83721E+05         0.15572E+07         0.00000E+00
    0.15572E+07        -0.52512E+07         0.00000E+00
    0.00000E+00         0.00000E+00        -0.10335E+07
 
    0.34965E+05         0.16216E+07         0.00000E+00
    0.16216E+07        -0.52445E+07         0.00000E+00
    0.00000E+00         0.00000E+00        -0.10419E+07
 
   -0.13616E+05         0.16861E+07         0.00000E+00
    0.16861E+07        -0.52373E+07         0.00000E+00
    0.00000E+00         0.00000E+00        -0.10502E+07
 
   -0.62044E+05         0.17506E+07         0.00000E+00
    0.17506E+07        -0.52297E+07         0.00000E+00
    0.00000E+00         0.00000E+00        -0.10583E+07
 
   -0.11035E+06         0.18151E+07         0.00000E+00
    0.18151E+07        -0.52216E+07         0.00000E+00
    0.00000E+00         0.00000E+00        -0.10664E+07
 
   -0.15854E+06         0.18797E+07         0.00000E+00
    0.18797E+07        -0.52131E+07         0.00000E+00
    0.00000E+00         0.00000E+00        -0.10743E+07
 
   -0.20666E+06         0.19443E+07         0.00000E+00
    0.19443E+07        -0.52041E+07         0.00000E+00
    0.00000E+00         0.00000E+00        -0.10821E+07
 
   -0.25473E+06         0.20089E+07         0.00000E+00
    0.20089E+07        -0.51945E+07         0.00000E+00
    0.00000E+00         0.00000E+00        -0.10898E+07
 
   -0.30278E+06         0.20737E+07         0.00000E+00
    0.20737E+07        -0.51844E+07         0.00000E+00
    0.00000E+00         0.00000E+00        -0.10974E+07
 
   -0.35082E+06         0.21385E+07         0.00000E+00
    0.21385E+07        -0.51738E+07         0.00000E+00
    0.00000E+00         0.00000E+00        -0.11049E+07
 
   -0.39889E+06         0.22035E+07         0.00000E+00
    0.22035E+07        -0.51626E+07         0.00000E+00
    0.00000E+00         0.00000E+00        -0.11123E+07
 
   -0.44701E+06         0.22685E+07         0.00000E+00
    0.22685E+07        -0.51509E+07         0.00000E+00
    0.00000E+00         0.00000E+00        -0.11196E+07
 
   -0.49521E+06         0.23336E+07         0.00000E+00
    0.23336E+07        -0.51385E+07         0.00000E+00
    0.00000E+00         0.00000E+00        -0.11268E+07
 
   -0.54352E+06         0.23989E+07         0.00000E+00
    0.23989E+07        -0.51256E+07         0.00000E+00
    0.00000E+00         0.00000E+00        -0.11338E+07
 
   -0.59197E+06         0.24643E+07         0.00000E+00
    0.24643E+07        -0.51120E+07         0.00000E+00
    0.00000E+00         0.00000E+00        -0.11408E+07
 
   -0.64058E+06         0.25298E+07         0.00000E+00
    0.25298E+07        -0.50978E+07         0.00000E+00
    0.00000E+00         0.00000E+00        -0.11477E+07
 
   -0.68938E+06         0.25955E+07         0.00000E+00
    0.25955E+07        -0.50829E+07         0.00000E+00
    0.00000E+00         0.00000E+00        -0.11544E+07
 
   -0.73840E+06         0.26613E+07         0.00000E+00
    0.26613E+07        -0.50673E+07         0.00000E+00
    0.00000E+00         0.00000E+00        -0.11611E+07
 
   -0.78766E+06         0.27272E+07         0.00000E+00
    0.27272E+07        -0.50510E+07         0.00000E+00
    0.00000E+00         0.00000E+00        -0.11677E+07
 
   -0.83720E+06         0.27933E+07         0.00000E+00
    0.27933E+07        -0.50340E+07         0.00000E+00
    0.00000E+00         0.00000E+00        -0.11742E+07
 
   -0.88705E+06         0.28596E+07         0.00000E+00
    0.28596E+07        -0.50163E+07         0.00000E+00
    0.00000E+00         0.00000E+00        -0.11807E+07
 
   -0.93723E+06         0.29260E+07         0.00000E+00
    0.29260E+07        -0.49978E+07         0.00000E+00
    0.00000E+00         0.00000E+00        -0.11870E+07
 
   -0.98778E+06         0.29925E+07         0.00000E+00
    0.29925E+07        -0.49785E+07         0.00000E+00
    0.00000E+00         0.00000E+00        -0.11933E+07
 
   -0.10387E+07         0.30592E+07         0.00000E+00
    0.30592E+07        -0.49584E+07         0.00000E+00
    0.00000E+00         0.00000E+00        -0.11994E+07
 
   -0.10901E+07         0.31261E+07         0.00000E+00
    0.31261E+07        -0.49375E+07         0.00000E+00
    0.00000E+00         0.00000E+00        -0.12055E+07
 
   -0.11419E+07         0.31932E+07         0.00000E+00
    0.31932E+07        -0.49158E+07         0.00000E+00
    0.00000E+00         0.00000E+00        -0.12115E+07
 
   -0.11942E+07         0.32604E+07         0.00000E+00
    0.32604E+07        -0.48933E+07         0.00000E+00
    0.00000E+00         0.00000E+00        -0.12175E+07
 
    0.11781E+07         0.35751E+05         0.00000E+00
    0.35751E+05        -0.57912E+07         0.00000E+00
    0.00000E+00         0.00000E+00        -0.92262E+06
 
    0.11175E+07         0.10610E+06         0.00000E+00
    0.10610E+06        -0.57911E+07         0.00000E+00
    0.00000E+00         0.00000E+00        -0.93472E+06
 
    0.10575E+07         0.17599E+06         0.00000E+00
    0.17599E+06        -0.57908E+07         0.00000E+00
    0.00000E+00         0.00000E+00        -0.94665E+06
 
    0.99833E+06         0.24545E+06         0.00000E+00
    0.24545E+06        -0.57904E+07         0.00000E+00
    0.00000E+00         0.00000E+00        -0.95842E+06
 
    0.93981E+06         0.31453E+06         0.00000E+00
    0.31453E+06        -0.57899E+07         0.00000E+00
    0.00000E+00         0.00000E+00        -0.97001E+06
 
    0.88197E+06         0.38324E+06         0.00000E+00
    0.38324E+06        -0.57891E+07         0.00000E+00
    0.00000E+00         0.00000E+00        -0.98143E+06
 
    0.82480E+06         0.45162E+06         0.00000E+00
    0.45162E+06        -0.57883E+07         0.00000E+00
    0.00000E+00         0.00000E+00        -0.99269E+06
 
    0.76828E+06         0.51970E+06         0.00000E+00
    0.51970E+06        -0.57872E+07         0.00000E+00
    0.00000E+00         0.00000E+00        -0.10038E+07
 
    0.71240E+06         0.58749E+06         0.00000E+00
    0.58749E+06        -0.57860E+07         0.00000E+00
    0.00000E+00         0.00000E+00        -0.10147E+07
 
    0.65713E+06         0.65504E+06         0.00000E+00
    0.65504E+06        -0.57845E+07         0.00000E+00
    0.00000E+00         0.00000E+00        -0.10255E+07
 
    0.60246E+06         0.72236E+06         0.00000E+00
    0.72236E+06        -0.57829E+07         0.00000E+00
    0.00000E+00         0.00000E+00        -0.10361E+07
 
    0.54837E+06         0.78948E+06         0.00000E+00
    0.78948E+06        -0.57810E+07         0.00000E+00
    0.00000E+00         0.00000E+00        -0.10465E+07
 
    0.49484E+06         0.85643E+06         0.00000E+00
    0.85643E+06        -0.57790E+07         0.00000E+00
    0.00000E+00         0.00000E+00        -0.10568E+07
 
    0.44185E+06         0.92323E+06         0.00000E+00
    0.92323E+06        -0.57766E+07         0.00000E+00
    0.00000E+00         0.00000E+00        -0.10670E+07
 
    0.38938E+06         0.98991E+06         0.00000E+00
    0.98991E+06        -0.57741E+07         0.00000E+00
    0.00000E+00         0.00000E+00        -0.10769E+07
 
    0.33741E+06         0.10565E+07         0.00000E+00
    0.10565E+07        -0.57712E+07         0.00000E+00
    0.00000E+00         0.00000E+00        -0.10868E+07
 
    0.28591E+06         0.11230E+07         0.00000E+00
    0.11230E+07        -0.57681E+07         0.00000E+00
    0.00000E+00         0.00000E+00        -0.10964E+07
 
    0.23487E+06         0.11894E+07         0.00000E+00
    0.11894E+07        -0.57647E+07         0.00000E+00
    0.00000E+00         0.00000E+00        -0.11060E+07
 
    0.18425E+06         0.12558E+07         0.00000E+00
    0.12558E+07        -0.57610E+07         0.00000E+00
    0.00000E+00         0.00000E+00        -0.11153E+07
 
    0.13404E+06         0.13222E+07         0.00000E+00
    0.13222E+07        -0.57569E+07         0.00000E+00
    0.00000E+00         0.00000E+00        -0.11246E+07
 
    0.84208E+05         0.13885E+07         0.00000E+00
    0.13885E+07        -0.57525E+07         0.00000E+00
    0.00000E+00         0.00000E+00        -0.11337E+07
 
    0.34730E+05         0.14549E+07         0.00000E+00
    0.14549E+07        -0.57478E+07         0.00000E+00
    0.00000E+00         0.00000E+00        -0.11426E+07
 
   -0.14420E+05         0.15214E+07         0.00000E+00
    0.15214E+07        -0.57427E+07         0.00000E+00
    0.00000E+00         0.00000E+00        -0.11514E+07
 
   -0.63267E+05         0.15878E+07         0.00000E+00
    0.15878E+07        -0.57372E+07         0.00000E+00
    0.00000E+00         0.00000E+00        -0.11601E+07
 
   -0.11184E+06         0.16544E+07         0.00000E+00
    0.16544E+07        -0.57313E+07         0.00000E+00
    0.00000E+00         0.00000E+00        -0.11686E+07
 
   -0.16016E+06         0.17210E+07         0.00000E+00
    0.17210E+07        -0.57249E+07         0.00000E+00
    0.00000E+00         0.00000E+00        -0.11770E+07
 
   -0.20826E+06         0.17878E+07         0.00000E+00
    0.17878E+07        -0.57182E+07         0.00000E+00
    0.00000E+00         0.00000E+00        -0.11853E+07
 
   -0.25617E+06         0.18546E+07         0.00000E+00
    0.18546E+07        -0.57109E+07         0.00000E+00
    0.00000E+00         0.00000E+00        -0.11934E+07
 
   -0.30392E+06         0.19216E+07         0.00000E+00
    0.19216E+07        -0.57033E+07         0.00000E+00
    0.00000E+00         0.00000E+00        -0.12014E+07
 
   -0.35152E+06         0.19887E+07         0.00000E+00
    0.19887E+07        -0.56951E+07         0.00000E+00
    0.00000E+00         0.00000E+00        -0.12093E+07
 
   -0.39902E+06         0.20560E+07         0.00000E+00
    0.20560E+07        -0.56864E+07         0.00000E+00
    0.00000E+00         0.00000E+00        -0.12171E+07
 
   -0.44644E+06         0.21234E+07         0.00000E+00
    0.21234E+07        -0.56771E+07         0.00000E+00
    0.00000E+00         0.00000E+00        -0.12247E+07
 
   -0.49381E+06         0.21910E+07         0.00000E+00
    0.21910E+07        -0.56674E+07         0.00000E+00
    0.00000E+00         0.00000E+00        -0.12322E+07
 
   -0.54117E+06         0.22588E+07         0.00000E+00
    0.22588E+07        -0.56570E+07         0.00000E+00
    0.00000E+00         0.00000E+00        -0.12396E+07
 
   -0.58853E+06         0.23268E+07         0.00000E+00
    0.23268E+07        -0.56461E+07         0.00000E+00
    0.00000E+00         0.00000E+00        -0.12469E+07
 
   -0.63593E+06         0.23950E+07         0.00000E+00
    0.23950E+07        -0.56346E+07         0.00000E+00
    0.00000E+00         0.00000E+00        -0.12541E+07
 
   -0.68340E+06         0.24634E+07         0.00000E+00
    0.24634E+07        -0.56224E+07         0.00000E+00
    0.00000E+00         0.00000E+00        -0.12612E+07
 
   -0.73098E+06         0.25320E+07         0.00000E+00
    0.25320E+07        -0.56097E+07         0.00000E+00
    0.00000E+00         0.00000E+00        -0.12681E+07
 
   -0.77868E+06         0.26008E+07         0.00000E+00
    0.26008E+07        -0.55962E+07         0.00000E+00
    0.00000E+00         0.00000E+00        -0.12750E+07
 
   -0.82655E+06         0.26699E+07         0.00000E+00
    0.26699E+07        -0.55821E+07         0.00000E+00
    0.00000E+00         0.00000E+00        -0.12817E+07
 
   -0.87462E+06         0.27392E+07         0.00000E+00
    0.27392E+07        -0.55672E+07         0.00000E+00
    0.00000E+00         0.00000E+00        -0.12884E+07
 
   -0.92291E+06         0.28088E+07         0.00000E+00
    0.28088E+07        -0.55517E+07         0.00000E+00
    0.00000E+00         0.00000E+00        -0.12949E+07
 
   -0.97145E+06         0.28786E+07         0.00000E+00
    0.28786E+07        -0.55354E+07         0.00000E+00
    0.00000E+00         0.00000E+00        -0.13014E+07
 
   -0.10203E+07         0.29486E+07         0.00000E+00
    0.29486E+07        -0.55183E+07         0.00000E+00
    0.00000E+00         0.00000E+00        -0.13077E+07
 
   -0.10694E+07         0.30189E+07         0.00000E+00
    0.30189E+07        -0.55005E+07         0.00000E+00
    0.00000E+00         0.00000E+00        -0.13140E+07
 
   -0.11190E+07         0.30895E+07         0.00000E+00
    0.30895E+07        -0.54818E+07         0.00000E+00
    0.00000E+00         0.00000E+00        -0.13202E+07
 
   -0.11688E+07         0.31603E+07         0.00000E+00
    0.31603E+07        -0.54624E+07         0.00000E+00
    0.00000E+00         0.00000E+00        -0.13262E+07
 
   -0.12192E+07         0.32314E+07         0.00000E+00
    0.32314E+07        -0.54421E+07         0.00000E+00
    0.00000E+00         0.00000E+00        -0.13322E+07
 
   -0.12699E+07         0.33027E+07         0.00000E+00
    0.33027E+07        -0.54209E+07         0.00000E+00
    0.00000E+00         0.00000E+00        -0.13382E+07
 
   -0.13211E+07         0.33743E+07         0.00000E+00
    0.33743E+07        -0.53988E+07         0.00000E+00
    0.00000E+00         0.00000E+00        -0.13440E+07
 
    0.10248E+07         0.35977E+05         0.00000E+00
    0.35977E+05        -0.62988E+07         0.00000E+00
    0.00000E+00         0.00000E+00        -0.10548E+07
 
    0.96189E+06         0.10684E+06         0.00000E+00
    0.10684E+06        -0.62987E+07         0.00000E+00
    0.00000E+00         0.00000E+00        -0.10674E+07
 
    0.89987E+06         0.17728E+06         0.00000E+00
    0.17728E+06        -0.62986E+07         0.00000E+00
    0.00000E+00         0.00000E+00        -0.10797E+07
 
    0.83871E+06         0.24734E+06         0.00000E+00
    0.24734E+06        -0.62984E+07         0.00000E+00
    0.00000E+00         0.00000E+00        -0.10919E+07
 
    0.77841E+06         0.31705E+06         0.00000E+00
    0.31705E+06        -0.62981E+07         0.00000E+00
    0.00000E+00         0.00000E+00        -0.11039E+07
 
    0.71894E+06         0.38643E+06         0.00000E+00
    0.38643E+06        -0.62977E+07         0.00000E+00
    0.00000E+00         0.00000E+00        -0.11157E+07
 
    0.66029E+06         0.45554E+06         0.00000E+00
    0.45554E+06        -0.62971E+07         0.00000E+00
    0.00000E+00         0.00000E+00        -0.11274E+07
 
    0.60244E+06         0.52438E+06         0.00000E+00
    0.52438E+06        -0.62965E+07         0.00000E+00
    0.00000E+00         0.00000E+00        -0.11388E+07
 
    0.54537E+06         0.59300E+06         0.00000E+00
    0.59300E+06        -0.62957E+07         0.00000E+00
    0.00000E+00         0.00000E+00        -0.11501E+07
 
    0.48906E+06         0.66143E+06         0.00000E+00
    0.66143E+06        -0.62948E+07         0.00000E+00
    0.00000E+00         0.00000E+00        -0.11611E+07
 
    0.43348E+06         0.72970E+06         0.00000E+00
    0.72970E+06        -0.62937E+07         0.00000E+00
    0.00000E+00         0.00000E+00        -0.11720E+07
 
    0.37862E+06         0.79783E+06         0.00000E+00
    0.79783E+06        -0.62925E+07         0.00000E+00
    0.00000E+00         0.00000E+00        -0.11828E+07
 
    0.32445E+06         0.86585E+06         0.00000E+00
    0.86585E+06        -0.62910E+07         0.00000E+00
    0.00000E+00         0.00000E+00        -0.11933E+07
 
    0.27094E+06         0.93379E+06         0.00000E+00
    0.93379E+06        -0.62894E+07         0.00000E+00
    0.00000E+00         0.00000E+00        -0.12037E+07
 
    0.21808E+06         0.10017E+07         0.00000E+00
    0.10017E+07        -0.62875E+07         0.00000E+00
    0.00000E+00         0.00000E+00        -0.12139E+07
 
    0.16583E+06         0.10695E+07         0.00000E+00
    0.10695E+07        -0.62855E+07         0.00000E+00
    0.00000E+00         0.00000E+00        -0.12239E+07
 
    0.11417E+06         0.11374E+07         0.00000E+00
    0.11374E+07        -0.62831E+07         0.00000E+00
    0.00000E+00         0.00000E+00        -0.12338E+07
 
    0.63067E+05         0.12052E+07         0.00000E+00
    0.12052E+07        -0.62806E+07         0.00000E+00
    0.00000E+00         0.00000E+00        -0.12435E+07
 
    0.12504E+05         0.12731E+07         0.00000E+00
    0.12731E+07        -0.62777E+07         0.00000E+00
    0.00000E+00         0.00000E+00        -0.12530E+07
 
   -0.37553E+05         0.13411E+07         0.00000E+00
    0.13411E+07        -0.62745E+07         0.00000E+00
    0.00000E+00         0.00000E+00        -0.12624E+07
 
   -0.87132E+05         0.14092E+07         0.00000E+00
    0.14092E+07        -0.62710E+07         0.00000E+00
    0.00000E+00         0.00000E+00        -0.12716E+07
 
   -0.13626E+06         0.14773E+07         0.00000E+00
    0.14773E+07        -0.62672E+07         0.00000E+00
    0.00000E+00         0.00000E+00        -0.12807E+07
 
   -0.18497E+06         0.15456E+07         0.00000E+00
    0.15456E+07        -0.62631E+07         0.00000E+00
    0.00000E+00         0.00000E+00        -0.12896E+07
 
   -0.23329E+06         0.16140E+07         0.00000E+00
    0.16140E+07        -0.62585E+07         0.00000E+00
    0.00000E+00         0.00000E+00        -0.12984E+07
 
   -0.28126E+06         0.16826E+07         0.00000E+00
    0.16826E+07        -0.62536E+07         0.00000E+00
    0.00000E+00         0.00000E+00        -0.13070E+07
 
   -0.32889E+06         0.17513E+07         0.00000E+00
    0.17513E+07        -0.62483E+07         0.00000E+00
    0.00000E+00         0.00000E+00        -0.13154E+07
 
   -0.37623E+06         0.18203E+07         0.00000E+00
    0.18203E+07        -0.62426E+07         0.00000E+00
    0.00000E+00         0.00000E+00        -0.13238E+07
 
   -0.42330E+06         0.18894E+07         0.00000E+00
    0.18894E+07        -0.62364E+07         0.00000E+00
    0.00000E+00         0.00000E+00        -0.13319E+07
 
   -0.47014E+06         0.19588E+07         0.00000E+00
    0.19588E+07        -0.62297E+07         0.00000E+00
    0.00000E+00         0.00000E+00        -0.13400E+07
 
   -0.51678E+06         0.20284E+07         0.00000E+00
    0.20284E+07        -0.62225E+07         0.00000E+00
    0.00000E+00         0.00000E+00        -0.13479E+07
 
   -0.56325E+06         0.20983E+07         0.00000E+00
    0.20983E+07        -0.62149E+07         0.00000E+00
    0.00000E+00         0.00000E+00        -0.13556E+07
 
   -0.60958E+06         0.21684E+07         0.00000E+00
    0.21684E+07        -0.62067E+07         0.00000E+00
    0.00000E+00         0.00000E+00        -0.13633E+07
 
   -0.65581E+06         0.22388E+07         0.00000E+00
    0.22388E+07        -0.61980E+07         0.00000E+00
    0.00000E+00         0.00000E+00        -0.13708E+07
 
   -0.70197E+06         0.23095E+07         0.00000E+00
    0.23095E+07        -0.61887E+07         0.00000E+00
    0.00000E+00         0.00000E+00        -0.13781E+07
 
   -0.74809E+06         0.23805E+07         0.00000E+00
    0.23805E+07        -0.61788E+07         0.00000E+00
    0.00000E+00         0.00000E+00        -0.13854E+07
 
   -0.79421E+06         0.24517E+07         0.00000E+00
    0.24517E+07        -0.61683E+07         0.00000E+00
    0.00000E+00         0.00000E+00        -0.13925E+07
 
   -0.84036E+06         0.25233E+07         0.00000E+00
    0.25233E+07        -0.61572E+07         0.00000E+00
    0.00000E+00         0.00000E+00        -0.13995E+07
 
   -0.88657E+06         0.25952E+07         0.00000E+00
    0.25952E+07        -0.61454E+07         0.00000E+00
    0.00000E+00         0.00000E+00        -0.14064E+07
 
   -0.93289E+06         0.26675E+07         0.00000E+00
    0.26675E+07        -0.61329E+07         0.00000E+00
    0.00000E+00         0.00000E+00        -0.14132E+07
 
   -0.97933E+06         0.27400E+07         0.00000E+00
    0.27400E+07        -0.61198E+07         0.00000E+00
    0.00000E+00         0.00000E+00        -0.14198E+07
 
   -0.10259E+07         0.28129E+07         0.00000E+00
    0.28129E+07        -0.61059E+07         0.00000E+00
    0.00000E+00         0.00000E+00        -0.14264E+07
 
   -0.10727E+07         0.28862E+07         0.00000E+00
    0.28862E+07        -0.60913E+07         0.00000E+00
    0.00000E+00         0.00000E+00        -0.14328E+07
 
   -0.11198E+07         0.29598E+07         0.00000E+00
    0.29598E+07        -0.60759E+07         0.00000E+00
    0.00000E+00         0.00000E+00        -0.14391E+07
 
   -0.11671E+07         0.30338E+07         0.00000E+00
    0.30338E+07        -0.60598E+07         0.00000E+00
    0.00000E+00         0.00000E+00        -0.14454E+07
 
   -0.12147E+07         0.31081E+07         0.00000E+00
    0.31081E+07        -0.60428E+07         0.00000E+00
    0.00000E+00         0.00000E+00        -0.14515E+07
 
   -0.12627E+07         0.31828E+07         0.00000E+00
    0.31828E+07        -0.60250E+07         0.00000E+00
    0.00000E+00         0.00000E+00        -0.14575E+07
 
   -0.13110E+07         0.32578E+07         0.00000E+00
    0.32578E+07        -0.60064E+07         0.00000E+00
    0.00000E+00         0.00000E+00        -0.14635E+07
 
   -0.13598E+07         0.33333E+07         0.00000E+00
    0.33333E+07        -0.59869E+07         0.00000E+00
    0.00000E+00         0.00000E+00        -0.14693E+07
 
   -0.14089E+07         0.34090E+07         0.00000E+00
    0.34090E+07        -0.59665E+07         0.00000E+00
    0.00000E+00         0.00000E+00        -0.14751E+07
 
   -0.14586E+07         0.34852E+07         0.00000E+00
    0.34852E+07        -0.59451E+07         0.00000E+00
    0.00000E+00         0.00000E+00        -0.14807E+07
 
    0.83867E+06         0.36023E+05         0.00000E+00
    0.36023E+05        -0.68409E+07         0.00000E+00
    0.00000E+00         0.00000E+00        -0.12004E+07
 
    0.77367E+06         0.10706E+06         0.00000E+00
    0.10706E+06        -0.68409E+07         0.00000E+00
    0.00000E+00         0.00000E+00        -0.12134E+07
 
    0.70974E+06         0.17773E+06         0.00000E+00
    0.17773E+06        -0.68409E+07         0.00000E+00
    0.00000E+00         0.00000E+00        -0.12262E+07
 
    0.64686E+06         0.24805E+06         0.00000E+00
    0.24805E+06        -0.68409E+07         0.00000E+00
    0.00000E+00         0.00000E+00        -0.12388E+07
 
    0.58501E+06         0.31807E+06         0.00000E+00
    0.31807E+06        -0.68409E+07         0.00000E+00
    0.00000E+00         0.00000E+00        -0.12512E+07
 
    0.52417E+06         0.38783E+06         0.00000E+00
    0.38783E+06        -0.68408E+07         0.00000E+00
    0.00000E+00         0.00000E+00        -0.12633E+07
 
    0.46431E+06         0.45736E+06         0.00000E+00
    0.45736E+06        -0.68407E+07         0.00000E+00
    0.00000E+00         0.00000E+00        -0.12753E+07
 
    0.40542E+06         0.52669E+06         0.00000E+00
    0.52669E+06        -0.68406E+07         0.00000E+00
    0.00000E+00         0.00000E+00        -0.12870E+07
 
    0.34747E+06         0.59587E+06         0.00000E+00
    0.59587E+06        -0.68403E+07         0.00000E+00
    0.00000E+00         0.00000E+00        -0.12986E+07
 
    0.29043E+06         0.66492E+06         0.00000E+00
    0.66492E+06        -0.68400E+07         0.00000E+00
    0.00000E+00         0.00000E+00        -0.13099E+07
 
    0.23428E+06         0.73388E+06         0.00000E+00
    0.73388E+06        -0.68396E+07         0.00000E+00
    0.00000E+00         0.00000E+00        -0.13211E+07
 
    0.17899E+06         0.80277E+06         0.00000E+00
    0.80277E+06        -0.68391E+07         0.00000E+00
    0.00000E+00         0.00000E+00        -0.13320E+07
 
    0.12454E+06         0.87164E+06         0.00000E+00
    0.87164E+06        -0.68384E+07         0.00000E+00
    0.00000E+00         0.00000E+00        -0.13428E+07
 
    0.70888E+05         0.94050E+06         0.00000E+00
    0.94050E+06        -0.68376E+07         0.00000E+00
    0.00000E+00         0.00000E+00        -0.13533E+07
 
    0.18013E+05         0.10094E+07         0.00000E+00
    0.10094E+07        -0.68366E+07         0.00000E+00
    0.00000E+00         0.00000E+00        -0.13637E+07
 
   -0.34117E+05         0.10783E+07         0.00000E+00
    0.10783E+07        -0.68354E+07         0.00000E+00
    0.00000E+00         0.00000E+00        -0.13739E+07
 
   -0.85532E+05         0.11474E+07         0.00000E+00
    0.11474E+07        -0.68340E+07         0.00000E+00
    0.00000E+00         0.00000E+00        -0.13839E+07
 
   -0.13626E+06         0.12165E+07         0.00000E+00
    0.12165E+07        -0.68324E+07         0.00000E+00
    0.00000E+00         0.00000E+00        -0.13937E+07
 
   -0.18634E+06         0.12857E+07         0.00000E+00
    0.12857E+07        -0.68306E+07         0.00000E+00
    0.00000E+00         0.00000E+00        -0.14034E+07
 
   -0.23581E+06         0.13552E+07         0.00000E+00
    0.13552E+07        -0.68284E+07         0.00000E+00
    0.00000E+00         0.00000E+00        -0.14128E+07
 
   -0.28468E+06         0.14248E+07         0.00000E+00
    0.14248E+07        -0.68260E+07         0.00000E+00
    0.00000E+00         0.00000E+00        -0.14221E+07
 
   -0.33301E+06         0.14946E+07         0.00000E+00
    0.14946E+07        -0.68233E+07         0.00000E+00
    0.00000E+00         0.00000E+00        -0.14313E+07
 
   -0.38081E+06         0.15646E+07         0.00000E+00
    0.15646E+07        -0.68203E+07         0.00000E+00
    0.00000E+00         0.00000E+00        -0.14402E+07
 
   -0.42813E+06         0.16348E+07         0.00000E+00
    0.16348E+07        -0.68169E+07         0.00000E+00
    0.00000E+00         0.00000E+00        -0.14490E+07
 
   -0.47501E+06         0.17053E+07         0.00000E+00
    0.17053E+07        -0.68132E+07         0.00000E+00
    0.00000E+00         0.00000E+00        -0.14576E+07
 
   -0.52147E+06         0.17761E+07         0.00000E+00
    0.17761E+07        -0.68091E+07         0.00000E+00
    0.00000E+00         0.00000E+00        -0.14661E+07
 
   -0.56755E+06         0.18472E+07         0.00000E+00
    0.18472E+07        -0.68045E+07         0.00000E+00
    0.00000E+00         0.00000E+00        -0.14744E+07
 
   -0.61328E+06         0.19186E+07         0.00000E+00
    0.19186E+07        -0.67995E+07         0.00000E+00
    0.00000E+00         0.00000E+00        -0.14826E+07
 
   -0.65871E+06         0.19904E+07         0.00000E+00
    0.19904E+07        -0.67941E+07         0.00000E+00
    0.00000E+00         0.00000E+00        -0.14906E+07
 
   -0.70388E+06         0.20625E+07         0.00000E+00
    0.20625E+07        -0.67882E+07         0.00000E+00
    0.00000E+00         0.00000E+00        -0.14984E+07
 
   -0.74880E+06         0.21349E+07         0.00000E+00
    0.21349E+07        -0.67818E+07         0.00000E+00
    0.00000E+00         0.00000E+00        -0.15061E+07
 
   -0.79353E+06         0.22077E+07         0.00000E+00
    0.22077E+07        -0.67749E+07         0.00000E+00
    0.00000E+00         0.00000E+00        -0.15137E+07
 
   -0.83810E+06         0.22809E+07         0.00000E+00
    0.22809E+07        -0.67674E+07         0.00000E+00
    0.00000E+00         0.00000E+00        -0.15211E+07
 
   -0.88254E+06         0.23544E+07         0.00000E+00
    0.23544E+07        -0.67594E+07         0.00000E+00
    0.00000E+00         0.00000E+00        -0.15284E+07
 
   -0.92690E+06         0.24284E+07         0.00000E+00
    0.24284E+07        -0.67507E+07         0.00000E+00
    0.00000E+00         0.00000E+00        -0.15355E+07
 
   -0.97120E+06         0.25028E+07         0.00000E+00
    0.25028E+07        -0.67415E+07         0.00000E+00
    0.00000E+00         0.00000E+00        -0.15425E+07
 
   -0.10155E+07         0.25776E+07         0.00000E+00
    0.25776E+07        -0.67316E+07         0.00000E+00
    0.00000E+00         0.00000E+00        -0.15494E+07
 
   -0.10598E+07         0.26529E+07         0.00000E+00
    0.26529E+07        -0.67210E+07         0.00000E+00
    0.00000E+00         0.00000E+00        -0.15562E+07
 
   -0.11042E+07         0.27286E+07         0.00000E+00
    0.27286E+07        -0.67098E+07         0.00000E+00
    0.00000E+00         0.00000E+00        -0.15628E+07
 
   -0.11487E+07         0.28047E+07         0.00000E+00
    0.28047E+07        -0.66979E+07         0.00000E+00
    0.00000E+00         0.00000E+00        -0.15693E+07
 
   -0.11933E+07         0.28813E+07         0.00000E+00
    0.28813E+07        -0.66852E+07         0.00000E+00
    0.00000E+00         0.00000E+00        -0.15757E+07
 
   -0.12381E+07         0.29584E+07         0.00000E+00
    0.29584E+07        -0.66717E+07         0.00000E+00
    0.00000E+00         0.00000E+00        -0.15820E+07
 
   -0.12831E+07         0.30359E+07         0.00000E+00
    0.30359E+07        -0.66575E+07         0.00000E+00
    0.00000E+00         0.00000E+00        -0.15881E+07
 
   -0.13283E+07         0.31139E+07         0.00000E+00
    0.31139E+07        -0.66425E+07         0.00000E+00
    0.00000E+00         0.00000E+00        -0.15942E+07
 
   -0.13738E+07         0.31924E+07         0.00000E+00
    0.31924E+07        -0.66267E+07         0.00000E+00
    0.00000E+00         0.00000E+00        -0.16001E+07
 
   -0.14197E+07         0.32713E+07         0.00000E+00
    0.32713E+07        -0.66100E+07         0.00000E+00
    0.00000E+00         0.00000E+00        -0.16059E+07
 
   -0.14659E+07         0.33507E+07         0.00000E+00
    0.33507E+07        -0.65924E+07         0.00000E+00
    0.00000E+00         0.00000E+00        -0.16117E+07
 
   -0.15125E+07         0.34306E+07         0.00000E+00
    0.34306E+07        -0.65740E+07         0.00000E+00
    0.00000E+00         0.00000E+00        -0.16173E+07
 
   -0.15596E+07         0.35110E+07         0.00000E+00
    0.35110E+07        -0.65546E+07         0.00000E+00
    0.00000E+00         0.00000E+00        -0.16228E+07
 
   -0.16071E+07         0.35919E+07         0.00000E+00
    0.35919E+07        -0.65342E+07         0.00000E+00
    0.00000E+00         0.00000E+00        -0.16283E+07
 
    0.61656E+06         0.35857E+05         0.00000E+00
    0.35857E+05        -0.74187E+07         0.00000E+00
    0.00000E+00         0.00000E+00        -0.13604E+07
 
    0.54969E+06         0.10667E+06         0.00000E+00
    0.10667E+06        -0.74188E+07         0.00000E+00
    0.00000E+00         0.00000E+00        -0.13738E+07
 
    0.48411E+06         0.17717E+06         0.00000E+00
    0.17717E+06        -0.74190E+07         0.00000E+00
    0.00000E+00         0.00000E+00        -0.13870E+07
 
    0.41977E+06         0.24738E+06         0.00000E+00
    0.24738E+06        -0.74193E+07         0.00000E+00
    0.00000E+00         0.00000E+00        -0.13999E+07
 
    0.35666E+06         0.31735E+06         0.00000E+00
    0.31735E+06        -0.74196E+07         0.00000E+00
    0.00000E+00         0.00000E+00        -0.14126E+07
 
    0.29475E+06         0.38712E+06         0.00000E+00
    0.38712E+06        -0.74200E+07         0.00000E+00
    0.00000E+00         0.00000E+00        -0.14250E+07
 
    0.23401E+06         0.45673E+06         0.00000E+00
    0.45673E+06        -0.74204E+07         0.00000E+00
    0.00000E+00         0.00000E+00        -0.14373E+07
 
    0.17442E+06         0.52622E+06         0.00000E+00
    0.52622E+06        -0.74208E+07         0.00000E+00
    0.00000E+00         0.00000E+00        -0.14493E+07
 
    0.11595E+06         0.59563E+06         0.00000E+00
    0.59563E+06        -0.74212E+07         0.00000E+00
    0.00000E+00         0.00000E+00        -0.14610E+07
 
    0.58565E+05         0.66500E+06         0.00000E+00
    0.66500E+06        -0.74216E+07         0.00000E+00
    0.00000E+00         0.00000E+00        -0.14726E+07
 
    0.22356E+04         0.73435E+06         0.00000E+00
    0.73435E+06        -0.74219E+07         0.00000E+00
    0.00000E+00         0.00000E+00        -0.14839E+07
 
   -0.53070E+05         0.80373E+06         0.00000E+00
    0.80373E+06        -0.74222E+07         0.00000E+00
    0.00000E+00         0.00000E+00        -0.14951E+07
 
   -0.10738E+06         0.87317E+06         0.00000E+00
    0.87317E+06        -0.74224E+07         0.00000E+00
    0.00000E+00         0.00000E+00        -0.15060E+07
 
   -0.16074E+06         0.94270E+06         0.00000E+00
    0.94270E+06        -0.74226E+07         0.00000E+00
    0.00000E+00         0.00000E+00        -0.15167E+07
 
   -0.21318E+06         0.10124E+07         0.00000E+00
    0.10124E+07        -0.74226E+07         0.00000E+00
    0.00000E+00         0.00000E+00        -0.15271E+07
 
   -0.26472E+06         0.10822E+07         0.00000E+00
    0.10822E+07        -0.74224E+07         0.00000E+00
    0.00000E+00         0.00000E+00        -0.15374E+07
 
   -0.31542E+06         0.11521E+07         0.00000E+00
    0.11521E+07        -0.74221E+07         0.00000E+00
    0.00000E+00         0.00000E+00        -0.15475E+07
 
   -0.36530E+06         0.12223E+07         0.00000E+00
    0.12223E+07        -0.74217E+07         0.00000E+00
    0.00000E+00         0.00000E+00        -0.15574E+07
 
   -0.41440E+06         0.12928E+07         0.00000E+00
    0.12928E+07        -0.74210E+07         0.00000E+00
    0.00000E+00         0.00000E+00        -0.15671E+07
 
   -0.46276E+06         0.13635E+07         0.00000E+00
    0.13635E+07        -0.74201E+07         0.00000E+00
    0.00000E+00         0.00000E+00        -0.15766E+07
 
   -0.51043E+06         0.14344E+07         0.00000E+00
    0.14344E+07        -0.74190E+07         0.00000E+00
    0.00000E+00         0.00000E+00        -0.15859E+07
 
   -0.55742E+06         0.15057E+07         0.00000E+00
    0.15057E+07        -0.74176E+07         0.00000E+00
    0.00000E+00         0.00000E+00        -0.15950E+07
 
   -0.60380E+06         0.15774E+07         0.00000E+00
    0.15774E+07        -0.74159E+07         0.00000E+00
    0.00000E+00         0.00000E+00        -0.16039E+07
 
   -0.64958E+06         0.16493E+07         0.00000E+00
    0.16493E+07        -0.74139E+07         0.00000E+00
    0.00000E+00         0.00000E+00        -0.16127E+07
 
   -0.69483E+06         0.17217E+07         0.00000E+00
    0.17217E+07        -0.74115E+07         0.00000E+00
    0.00000E+00         0.00000E+00        -0.16213E+07
 
   -0.73956E+06         0.17944E+07         0.00000E+00
    0.17944E+07        -0.74088E+07         0.00000E+00
    0.00000E+00         0.00000E+00        -0.16297E+07
 
   -0.78384E+06         0.18676E+07         0.00000E+00
    0.18676E+07        -0.74056E+07         0.00000E+00
    0.00000E+00         0.00000E+00        -0.16379E+07
 
   -0.82768E+06         0.19412E+07         0.00000E+00
    0.19412E+07        -0.74021E+07         0.00000E+00
    0.00000E+00         0.00000E+00        -0.16460E+07
 
   -0.87114E+06         0.20152E+07         0.00000E+00
    0.20152E+07        -0.73981E+07         0.00000E+00
    0.00000E+00         0.00000E+00        -0.16539E+07
 
   -0.91426E+06         0.20897E+07         0.00000E+00
    0.20897E+07        -0.73937E+07         0.00000E+00
    0.00000E+00         0.00000E+00        -0.16616E+07
 
   -0.95707E+06         0.21647E+07         0.00000E+00
    0.21647E+07        -0.73888E+07         0.00000E+00
    0.00000E+00         0.00000E+00        -0.16692E+07
 
   -0.99963E+06         0.22401E+07         0.00000E+00
    0.22401E+07        -0.73833E+07         0.00000E+00
    0.00000E+00         0.00000E+00        -0.16766E+07
 
   -0.10420E+07         0.23161E+07         0.00000E+00
    0.23161E+07        -0.73773E+07         0.00000E+00
    0.00000E+00         0.00000E+00        -0.16839E+07
 
   -0.10841E+07         0.23926E+07         0.00000E+00
    0.23926E+07        -0.73708E+07         0.00000E+00
    0.00000E+00         0.00000E+00        -0.16910E+07
 
   -0.11261E+07         0.24696E+07         0.00000E+00
    0.24696E+07        -0.73636E+07         0.00000E+00
    0.00000E+00         0.00000E+00        -0.16979E+07
 
   -0.11680E+07         0.25471E+07         0.00000E+00
    0.25471E+07        -0.73558E+07         0.00000E+00
    0.00000E+00         0.00000E+00        -0.17048E+07
 
   -0.12099E+07         0.26252E+07         0.00000E+00
    0.26252E+07        -0.73474E+07         0.00000E+00
    0.00000E+00         0.00000E+00        -0.17115E+07
 
   -0.12517E+07         0.27038E+07         0.00000E+00
    0.27038E+07        -0.73383E+07         0.00000E+00
    0.00000E+00         0.00000E+00        -0.17180E+07
 
   -0.12936E+07         0.27831E+07         0.00000E+00
    0.27831E+07        -0.73286E+07         0.00000E+00
    0.00000E+00         0.00000E+00        -0.17244E+07
 
   -0.13355E+07         0.28628E+07         0.00000E+00
    0.28628E+07        -0.73181E+07         0.00000E+00
    0.00000E+00         0.00000E+00        -0.17307E+07
 
   -0.13775E+07         0.29432E+07         0.00000E+00
    0.29432E+07        -0.73068E+07         0.00000E+00
    0.00000E+00         0.00000E+00        -0.17369E+07
 
   -0.14197E+07         0.30241E+07         0.00000E+00
    0.30241E+07        -0.72948E+07         0.00000E+00
    0.00000E+00         0.00000E+00        -0.17429E+07
 
   -0.14620E+07         0.31056E+07         0.00000E+00
    0.31056E+07        -0.72820E+07         0.00000E+00
    0.00000E+00         0.00000E+00        -0.17488E+07
 
   -0.15046E+07         0.31877E+07         0.00000E+00
    0.31877E+07        -0.72684E+07         0.00000E+00
    0.00000E+00         0.00000E+00        -0.17546E+07
 
   -0.15474E+07         0.32704E+07         0.00000E+00
    0.32704E+07        -0.72540E+07         0.00000E+00
    0.00000E+00         0.00000E+00        -0.17603E+07
 
   -0.15906E+07         0.33538E+07         0.00000E+00
    0.33538E+07        -0.72386E+07         0.00000E+00
    0.00000E+00         0.00000E+00        -0.17658E+07
 
   -0.16341E+07         0.34377E+07         0.00000E+00
    0.34377E+07        -0.72224E+07         0.00000E+00
    0.00000E+00         0.00000E+00        -0.17713E+07
 
   -0.16780E+07         0.35222E+07         0.00000E+00
    0.35222E+07        -0.72052E+07         0.00000E+00
    0.00000E+00         0.00000E+00        -0.17766E+07
 
   -0.17223E+07         0.36073E+07         0.00000E+00
    0.36073E+07        -0.71871E+07         0.00000E+00
    0.00000E+00         0.00000E+00        -0.17819E+07
 
   -0.17671E+07         0.36931E+07         0.00000E+00
    0.36931E+07        -0.71680E+07         0.00000E+00
    0.00000E+00         0.00000E+00        -0.17870E+07
 
    0.35508E+06         0.35444E+05         0.00000E+00
    0.35444E+05        -0.80335E+07         0.00000E+00
    0.00000E+00         0.00000E+00        -0.15357E+07
 
    0.28664E+06         0.10557E+06         0.00000E+00
    0.10557E+06        -0.80337E+07         0.00000E+00
    0.00000E+00         0.00000E+00        -0.15494E+07
 
    0.21969E+06         0.17544E+06         0.00000E+00
    0.17544E+06        -0.80341E+07         0.00000E+00
    0.00000E+00         0.00000E+00        -0.15629E+07
 
    0.15423E+06         0.24509E+06         0.00000E+00
    0.24509E+06        -0.80347E+07         0.00000E+00
    0.00000E+00         0.00000E+00        -0.15761E+07
 
    0.90205E+05         0.31458E+06         0.00000E+00
    0.31458E+06        -0.80354E+07         0.00000E+00
    0.00000E+00         0.00000E+00        -0.15890E+07
 
    0.27599E+05         0.38395E+06         0.00000E+00
    0.38395E+06        -0.80363E+07         0.00000E+00
    0.00000E+00         0.00000E+00        -0.16017E+07
 
   -0.33625E+05         0.45325E+06         0.00000E+00
    0.45325E+06        -0.80372E+07         0.00000E+00
    0.00000E+00         0.00000E+00        -0.16142E+07
 
   -0.93500E+05         0.52251E+06         0.00000E+00
    0.52251E+06        -0.80383E+07         0.00000E+00
    0.00000E+00         0.00000E+00        -0.16264E+07
 
   -0.15206E+06         0.59178E+06         0.00000E+00
    0.59178E+06        -0.80395E+07         0.00000E+00
    0.00000E+00         0.00000E+00        -0.16383E+07
 
   -0.20935E+06         0.66110E+06         0.00000E+00
    0.66110E+06        -0.80407E+07         0.00000E+00
    0.00000E+00         0.00000E+00        -0.16500E+07
 
   -0.26539E+06         0.73051E+06         0.00000E+00
    0.73051E+06        -0.80419E+07         0.00000E+00
    0.00000E+00         0.00000E+00        -0.16615E+07
 
   -0.32023E+06         0.80005E+06         0.00000E+00
    0.80005E+06        -0.80432E+07         0.00000E+00
    0.00000E+00         0.00000E+00        -0.16727E+07
 
   -0.37391E+06         0.86975E+06         0.00000E+00
    0.86975E+06        -0.80444E+07         0.00000E+00
    0.00000E+00         0.00000E+00        -0.16837E+07
 
   -0.42646E+06         0.93965E+06         0.00000E+00
    0.93965E+06        -0.80456E+07         0.00000E+00
    0.00000E+00         0.00000E+00        -0.16944E+07
 
   -0.47794E+06         0.10098E+07         0.00000E+00
    0.10098E+07        -0.80468E+07         0.00000E+00
    0.00000E+00         0.00000E+00        -0.17049E+07
 
   -0.52837E+06         0.10802E+07         0.00000E+00
    0.10802E+07        -0.80479E+07         0.00000E+00
    0.00000E+00         0.00000E+00        -0.17153E+07
 
   -0.57780E+06         0.11509E+07         0.00000E+00
    0.11509E+07        -0.80489E+07         0.00000E+00
    0.00000E+00         0.00000E+00        -0.17253E+07
 
   -0.62627E+06         0.12219E+07         0.00000E+00
    0.12219E+07        -0.80497E+07         0.00000E+00
    0.00000E+00         0.00000E+00        -0.17352E+07
 
   -0.67383E+06         0.12933E+07         0.00000E+00
    0.12933E+07        -0.80505E+07         0.00000E+00
    0.00000E+00         0.00000E+00        -0.17449E+07
 
   -0.72052E+06         0.13651E+07         0.00000E+00
    0.13651E+07        -0.80510E+07         0.00000E+00
    0.00000E+00         0.00000E+00        -0.17543E+07
 
   -0.76638E+06         0.14372E+07         0.00000E+00
    0.14372E+07        -0.80513E+07         0.00000E+00
    0.00000E+00         0.00000E+00        -0.17635E+07
 
   -0.81146E+06         0.15099E+07         0.00000E+00
    0.15099E+07        -0.80514E+07         0.00000E+00
    0.00000E+00         0.00000E+00        -0.17726E+07
 
   -0.85580E+06         0.15829E+07         0.00000E+00
    0.15829E+07        -0.80512E+07         0.00000E+00
    0.00000E+00         0.00000E+00        -0.17814E+07
 
   -0.89945E+06         0.16565E+07         0.00000E+00
    0.16565E+07        -0.80508E+07         0.00000E+00
    0.00000E+00         0.00000E+00        -0.17900E+07
 
   -0.94246E+06         0.17305E+07         0.00000E+00
    0.17305E+07        -0.80500E+07         0.00000E+00
    0.00000E+00         0.00000E+00        -0.17985E+07
 
   -0.98486E+06         0.18051E+07         0.00000E+00
    0.18051E+07        -0.80489E+07         0.00000E+00
    0.00000E+00         0.00000E+00        -0.18068E+07
 
   -0.10267E+07         0.18802E+07         0.00000E+00
    0.18802E+07        -0.80474E+07         0.00000E+00
    0.00000E+00         0.00000E+00        -0.18148E+07
 
   -0.10680E+07         0.19559E+07         0.00000E+00
    0.19559E+07        -0.80456E+07         0.00000E+00
    0.00000E+00         0.00000E+00        -0.18227E+07
 
   -0.11089E+07         0.20322E+07         0.00000E+00
    0.20322E+07        -0.80433E+07         0.00000E+00
    0.00000E+00         0.00000E+00        -0.18304E+07
 
   -0.11493E+07         0.21090E+07         0.00000E+00
    0.21090E+07        -0.80405E+07         0.00000E+00
    0.00000E+00         0.00000E+00        -0.18380E+07
 
   -0.11894E+07         0.21865E+07         0.00000E+00
    0.21865E+07        -0.80373E+07         0.00000E+00
    0.00000E+00         0.00000E+00        -0.18453E+07
 
   -0.12292E+07         0.22646E+07         0.00000E+00
    0.22646E+07        -0.80336E+07         0.00000E+00
    0.00000E+00         0.00000E+00        -0.18525E+07
 
   -0.12686E+07         0.23433E+07         0.00000E+00
    0.23433E+07        -0.80293E+07         0.00000E+00
    0.00000E+00         0.00000E+00        -0.18596E+07
 
   -0.13078E+07         0.24227E+07         0.00000E+00
    0.24227E+07        -0.80245E+07         0.00000E+00
    0.00000E+00         0.00000E+00        -0.18665E+07
 
   -0.13469E+07         0.25027E+07         0.00000E+00
    0.25027E+07        -0.80191E+07         0.00000E+00
    0.00000E+00         0.00000E+00        -0.18732E+07
 
   -0.13857E+07         0.25834E+07         0.00000E+00
    0.25834E+07        -0.80130E+07         0.00000E+00
    0.00000E+00         0.00000E+00        -0.18798E+07
 
   -0.14245E+07         0.26648E+07         0.00000E+00
    0.26648E+07        -0.80064E+07         0.00000E+00
    0.00000E+00         0.00000E+00        -0.18862E+07
 
   -0.14632E+07         0.27468E+07         0.00000E+00
    0.27468E+07        -0.79990E+07         0.00000E+00
    0.00000E+00         0.00000E+00        -0.18924E+07
 
   -0.15019E+07         0.28296E+07         0.00000E+00
    0.28296E+07        -0.79909E+07         0.00000E+00
    0.00000E+00         0.00000E+00        -0.18986E+07
 
   -0.15407E+07         0.29130E+07         0.00000E+00
    0.29130E+07        -0.79822E+07         0.00000E+00
    0.00000E+00         0.00000E+00        -0.19046E+07
 
   -0.15795E+07         0.29972E+07         0.00000E+00
    0.29972E+07        -0.79726E+07         0.00000E+00
    0.00000E+00         0.00000E+00        -0.19104E+07
 
   -0.16184E+07         0.30821E+07         0.00000E+00
    0.30821E+07        -0.79623E+07         0.00000E+00
    0.00000E+00         0.00000E+00        -0.19161E+07
 
   -0.16574E+07         0.31677E+07         0.00000E+00
    0.31677E+07        -0.79512E+07         0.00000E+00
    0.00000E+00         0.00000E+00        -0.19217E+07
 
   -0.16967E+07         0.32540E+07         0.00000E+00
    0.32540E+07        -0.79392E+07         0.00000E+00
    0.00000E+00         0.00000E+00        -0.19272E+07
 
   -0.17362E+07         0.33410E+07         0.00000E+00
    0.33410E+07        -0.79264E+07         0.00000E+00
    0.00000E+00         0.00000E+00        -0.19325E+07
 
   -0.17761E+07         0.34288E+07         0.00000E+00
    0.34288E+07        -0.79127E+07         0.00000E+00
    0.00000E+00         0.00000E+00        -0.19377E+07
 
   -0.18162E+07         0.35173E+07         0.00000E+00
    0.35173E+07        -0.78980E+07         0.00000E+00
    0.00000E+00         0.00000E+00        -0.19428E+07
 
   -0.18567E+07         0.36066E+07         0.00000E+00
    0.36066E+07        -0.78825E+07         0.00000E+00
    0.00000E+00         0.00000E+00        -0.19478E+07
 
   -0.18976E+07         0.36966E+07         0.00000E+00
    0.36966E+07        -0.78659E+07         0.00000E+00
    0.00000E+00         0.00000E+00        -0.19527E+07
 
   -0.19390E+07         0.37873E+07         0.00000E+00
    0.37873E+07        -0.78484E+07         0.00000E+00
    0.00000E+00         0.00000E+00        -0.19575E+07
 
    0.50642E+05         0.34743E+05         0.00000E+00
    0.34743E+05        -0.86864E+07         0.00000E+00
    0.00000E+00         0.00000E+00        -0.17271E+07
 
   -0.19043E+05         0.10364E+06         0.00000E+00
    0.10364E+06        -0.86867E+07         0.00000E+00
    0.00000E+00         0.00000E+00        -0.17411E+07
 
   -0.86967E+05         0.17235E+06         0.00000E+00
    0.17235E+06        -0.86873E+07         0.00000E+00
    0.00000E+00         0.00000E+00        -0.17549E+07
 
   -0.15316E+06         0.24094E+06         0.00000E+00
    0.24094E+06        -0.86883E+07         0.00000E+00
    0.00000E+00         0.00000E+00        -0.17683E+07
 
   -0.21767E+06         0.30945E+06         0.00000E+00
    0.30945E+06        -0.86894E+07         0.00000E+00
    0.00000E+00         0.00000E+00        -0.17814E+07
 
   -0.28053E+06         0.37794E+06         0.00000E+00
    0.37794E+06        -0.86908E+07         0.00000E+00
    0.00000E+00         0.00000E+00        -0.17943E+07
 
   -0.34177E+06         0.44646E+06         0.00000E+00
    0.44646E+06        -0.86925E+07         0.00000E+00
    0.00000E+00         0.00000E+00        -0.18068E+07
 
   -0.40144E+06         0.51504E+06         0.00000E+00
    0.51504E+06        -0.86943E+07         0.00000E+00
    0.00000E+00         0.00000E+00        -0.18191E+07
 
   -0.45958E+06         0.58375E+06         0.00000E+00
    0.58375E+06        -0.86963E+07         0.00000E+00
    0.00000E+00         0.00000E+00        -0.18312E+07
 
   -0.51623E+06         0.65261E+06         0.00000E+00
    0.65261E+06        -0.86984E+07         0.00000E+00
    0.00000E+00         0.00000E+00        -0.18429E+07
 
   -0.57145E+06         0.72169E+06         0.00000E+00
    0.72169E+06        -0.87007E+07         0.00000E+00
    0.00000E+00         0.00000E+00        -0.18544E+07
 
   -0.62526E+06         0.79101E+06         0.00000E+00
    0.79101E+06        -0.87031E+07         0.00000E+00
    0.00000E+00         0.00000E+00        -0.18657E+07
 
   -0.67772E+06         0.86062E+06         0.00000E+00
    0.86062E+06        -0.87055E+07         0.00000E+00
    0.00000E+00         0.00000E+00        -0.18767E+07
 
   -0.72888E+06         0.93055E+06         0.00000E+00
    0.93055E+06        -0.87080E+07         0.00000E+00
    0.00000E+00         0.00000E+00        -0.18874E+07
 
   -0.77878E+06         0.10008E+07         0.00000E+00
    0.10008E+07        -0.87105E+07         0.00000E+00
    0.00000E+00         0.00000E+00        -0.18979E+07
 
   -0.82748E+06         0.10715E+07         0.00000E+00
    0.10715E+07        -0.87130E+07         0.00000E+00
    0.00000E+00         0.00000E+00        -0.19081E+07
 
   -0.87502E+06         0.11427E+07         0.00000E+00
    0.11427E+07        -0.87155E+07         0.00000E+00
    0.00000E+00         0.00000E+00        -0.19181E+07
 
   -0.92144E+06         0.12143E+07         0.00000E+00
    0.12143E+07        -0.87178E+07         0.00000E+00
    0.00000E+00         0.00000E+00        -0.19279E+07
 
   -0.96681E+06         0.12863E+07         0.00000E+00
    0.12863E+07        -0.87201E+07         0.00000E+00
    0.00000E+00         0.00000E+00        -0.19374E+07
 
   -0.10112E+07         0.13589E+07         0.00000E+00
    0.13589E+07        -0.87223E+07         0.00000E+00
    0.00000E+00         0.00000E+00        -0.19467E+07
 
   -0.10546E+07         0.14321E+07         0.00000E+00
    0.14321E+07        -0.87243E+07         0.00000E+00
    0.00000E+00         0.00000E+00        -0.19558E+07
 
   -0.10971E+07         0.15058E+07         0.00000E+00
    0.15058E+07        -0.87261E+07         0.00000E+00
    0.00000E+00         0.00000E+00        -0.19646E+07
 
   -0.11387E+07         0.15802E+07         0.00000E+00
    0.15802E+07        -0.87277E+07         0.00000E+00
    0.00000E+00         0.00000E+00        -0.19733E+07
 
   -0.11795E+07         0.16551E+07         0.00000E+00
    0.16551E+07        -0.87290E+07         0.00000E+00
    0.00000E+00         0.00000E+00        -0.19817E+07
 
   -0.12196E+07         0.17308E+07         0.00000E+00
    0.17308E+07        -0.87301E+07         0.00000E+00
    0.00000E+00         0.00000E+00        -0.19899E+07
 
   -0.12590E+07         0.18070E+07         0.00000E+00
    0.18070E+07        -0.87309E+07         0.00000E+00
    0.00000E+00         0.00000E+00        -0.19980E+07
 
   -0.12977E+07         0.18840E+07         0.00000E+00
    0.18840E+07        -0.87313E+07         0.00000E+00
    0.00000E+00         0.00000E+00        -0.20058E+07
 
   -0.13358E+07         0.19617E+07         0.00000E+00
    0.19617E+07        -0.87313E+07         0.00000E+00
    0.00000E+00         0.00000E+00        -0.20134E+07
 
   -0.13734E+07         0.20401E+07         0.00000E+00
    0.20401E+07        -0.87309E+07         0.00000E+00
    0.00000E+00         0.00000E+00        -0.20209E+07
 
   -0.14105E+07         0.21192E+07         0.00000E+00
    0.21192E+07        -0.87302E+07         0.00000E+00
    0.00000E+00         0.00000E+00        -0.20281E+07
 
   -0.14471E+07         0.21991E+07         0.00000E+00
    0.21991E+07        -0.87289E+07         0.00000E+00
    0.00000E+00         0.00000E+00        -0.20352E+07
 
   -0.14834E+07         0.22798E+07         0.00000E+00
    0.22798E+07        -0.87271E+07         0.00000E+00
    0.00000E+00         0.00000E+00        -0.20421E+07
 
   -0.15193E+07         0.23612E+07         0.00000E+00
    0.23612E+07        -0.87249E+07         0.00000E+00
    0.00000E+00         0.00000E+00        -0.20488E+07
 
   -0.15549E+07         0.24435E+07         0.00000E+00
    0.24435E+07        -0.87220E+07         0.00000E+00
    0.00000E+00         0.00000E+00        -0.20554E+07
 
   -0.15902E+07         0.25265E+07         0.00000E+00
    0.25265E+07        -0.87186E+07         0.00000E+00
    0.00000E+00         0.00000E+00        -0.20618E+07
 
   -0.16254E+07         0.26104E+07         0.00000E+00
    0.26104E+07        -0.87146E+07         0.00000E+00
    0.00000E+00         0.00000E+00        -0.20680E+07
 
   -0.16604E+07         0.26950E+07         0.00000E+00
    0.26950E+07        -0.87099E+07         0.00000E+00
    0.00000E+00         0.00000E+00        -0.20740E+07
 
   -0.16953E+07         0.27805E+07         0.00000E+00
    0.27805E+07        -0.87045E+07         0.00000E+00
    0.00000E+00         0.00000E+00        -0.20800E+07
 
   -0.17301E+07         0.28669E+07         0.00000E+00
    0.28669E+07        -0.86985E+07         0.00000E+00
    0.00000E+00         0.00000E+00        -0.20857E+07
 
   -0.17650E+07         0.29540E+07         0.00000E+00
    0.29540E+07        -0.86917E+07         0.00000E+00
    0.00000E+00         0.00000E+00        -0.20913E+07
 
   -0.17999E+07         0.30421E+07         0.00000E+00
    0.30421E+07        -0.86841E+07         0.00000E+00
    0.00000E+00         0.00000E+00        -0.20968E+07
 
   -0.18349E+07         0.31310E+07         0.00000E+00
    0.31310E+07        -0.86757E+07         0.00000E+00
    0.00000E+00         0.00000E+00        -0.21021E+07
 
   -0.18700E+07         0.32207E+07         0.00000E+00
    0.32207E+07        -0.86666E+07         0.00000E+00
    0.00000E+00         0.00000E+00        -0.21073E+07
 
   -0.19053E+07         0.33113E+07         0.00000E+00
    0.33113E+07        -0.86565E+07         0.00000E+00
    0.00000E+00         0.00000E+00        -0.21124E+07
 
   -0.19408E+07         0.34028E+07         0.00000E+00
    0.34028E+07        -0.86456E+07         0.00000E+00
    0.00000E+00         0.00000E+00        -0.21173E+07
 
   -0.19766E+07         0.34951E+07         0.00000E+00
    0.34951E+07        -0.86338E+07         0.00000E+00
    0.00000E+00         0.00000E+00        -0.21221E+07
 
   -0.20127E+07         0.35884E+07         0.00000E+00
    0.35884E+07        -0.86211E+07         0.00000E+00
    0.00000E+00         0.00000E+00        -0.21268E+07
 
   -0.20492E+07         0.36825E+07         0.00000E+00
    0.36825E+07        -0.86074E+07         0.00000E+00
    0.00000E+00         0.00000E+00        -0.21313E+07
 
   -0.20861E+07         0.37774E+07         0.00000E+00
    0.37774E+07        -0.85927E+07         0.00000E+00
    0.00000E+00         0.00000E+00        -0.21358E+07
 
   -0.21234E+07         0.38733E+07         0.00000E+00
    0.38733E+07        -0.85769E+07         0.00000E+00
    0.00000E+00         0.00000E+00        -0.21401E+07
 
   -0.30064E+06         0.33709E+05         0.00000E+00
    0.33709E+05        -0.93781E+07         0.00000E+00
    0.00000E+00         0.00000E+00        -0.19358E+07
 
   -0.37113E+06         0.10075E+06         0.00000E+00
    0.10075E+06        -0.93786E+07         0.00000E+00
    0.00000E+00         0.00000E+00        -0.19499E+07
 
   -0.43958E+06         0.16770E+06         0.00000E+00
    0.16770E+06        -0.93795E+07         0.00000E+00
    0.00000E+00         0.00000E+00        -0.19638E+07
 
   -0.50602E+06         0.23463E+06         0.00000E+00
    0.23463E+06        -0.93808E+07         0.00000E+00
    0.00000E+00         0.00000E+00        -0.19774E+07
 
   -0.57050E+06         0.30160E+06         0.00000E+00
    0.30160E+06        -0.93825E+07         0.00000E+00
    0.00000E+00         0.00000E+00        -0.19906E+07
 
   -0.63307E+06         0.36865E+06         0.00000E+00
    0.36865E+06        -0.93846E+07         0.00000E+00
    0.00000E+00         0.00000E+00        -0.20035E+07
 
   -0.69376E+06         0.43586E+06         0.00000E+00
    0.43586E+06        -0.93870E+07         0.00000E+00
    0.00000E+00         0.00000E+00        -0.20161E+07
 
   -0.75265E+06         0.50326E+06         0.00000E+00
    0.50326E+06        -0.93897E+07         0.00000E+00
    0.00000E+00         0.00000E+00        -0.20285E+07
 
   -0.80976E+06         0.57090E+06         0.00000E+00
    0.57090E+06        -0.93927E+07         0.00000E+00
    0.00000E+00         0.00000E+00        -0.20405E+07
 
   -0.86516E+06         0.63885E+06         0.00000E+00
    0.63885E+06        -0.93959E+07         0.00000E+00
    0.00000E+00         0.00000E+00        -0.20522E+07
 
   -0.91889E+06         0.70714E+06         0.00000E+00
    0.70714E+06        -0.93993E+07         0.00000E+00
    0.00000E+00         0.00000E+00        -0.20636E+07
 
   -0.97102E+06         0.77581E+06         0.00000E+00
    0.77581E+06        -0.94030E+07         0.00000E+00
    0.00000E+00         0.00000E+00        -0.20748E+07
 
   -0.10216E+07         0.84492E+06         0.00000E+00
    0.84492E+06        -0.94068E+07         0.00000E+00
    0.00000E+00         0.00000E+00        -0.20857E+07
 
   -0.10707E+07         0.91450E+06         0.00000E+00
    0.91450E+06        -0.94107E+07         0.00000E+00
    0.00000E+00         0.00000E+00        -0.20963E+07
 
   -0.11183E+07         0.98460E+06         0.00000E+00
    0.98460E+06        -0.94147E+07         0.00000E+00
    0.00000E+00         0.00000E+00        -0.21066E+07
 
   -0.11645E+07         0.10552E+07         0.00000E+00
    0.10552E+07        -0.94188E+07         0.00000E+00
    0.00000E+00         0.00000E+00        -0.21167E+07
 
   -0.12095E+07         0.11265E+07         0.00000E+00
    0.11265E+07        -0.94229E+07         0.00000E+00
    0.00000E+00         0.00000E+00        -0.21265E+07
 
   -0.12531E+07         0.11983E+07         0.00000E+00
    0.11983E+07        -0.94271E+07         0.00000E+00
    0.00000E+00         0.00000E+00        -0.21360E+07
 
   -0.12955E+07         0.12708E+07         0.00000E+00
    0.12708E+07        -0.94311E+07         0.00000E+00
    0.00000E+00         0.00000E+00        -0.21453E+07
 
   -0.13368E+07         0.13440E+07         0.00000E+00
    0.13440E+07        -0.94352E+07         0.00000E+00
    0.00000E+00         0.00000E+00        -0.21544E+07
 
   -0.13770E+07         0.14179E+07         0.00000E+00
    0.14179E+07        -0.94391E+07         0.00000E+00
    0.00000E+00         0.00000E+00        -0.21632E+07
 
   -0.14161E+07         0.14925E+07         0.00000E+00
    0.14925E+07        -0.94428E+07         0.00000E+00
    0.00000E+00         0.00000E+00        -0.21718E+07
 
   -0.14543E+07         0.15679E+07         0.00000E+00
    0.15679E+07        -0.94464E+07         0.00000E+00
    0.00000E+00         0.00000E+00        -0.21801E+07
 
   -0.14916E+07         0.16441E+07         0.00000E+00
    0.16441E+07        -0.94498E+07         0.00000E+00
    0.00000E+00         0.00000E+00        -0.21883E+07
 
   -0.15279E+07         0.17211E+07         0.00000E+00
    0.17211E+07        -0.94530E+07         0.00000E+00
    0.00000E+00         0.00000E+00        -0.21962E+07
 
   -0.15635E+07         0.17990E+07         0.00000E+00
    0.17990E+07        -0.94558E+07         0.00000E+00
    0.00000E+00         0.00000E+00        -0.22039E+07
 
   -0.15984E+07         0.18776E+07         0.00000E+00
    0.18776E+07        -0.94584E+07         0.00000E+00
    0.00000E+00         0.00000E+00        -0.22113E+07
 
   -0.16325E+07         0.19572E+07         0.00000E+00
    0.19572E+07        -0.94606E+07         0.00000E+00
    0.00000E+00         0.00000E+00        -0.22186E+07
 
   -0.16660E+07         0.20376E+07         0.00000E+00
    0.20376E+07        -0.94624E+07         0.00000E+00
    0.00000E+00         0.00000E+00        -0.22257E+07
 
   -0.16990E+07         0.21190E+07         0.00000E+00
    0.21190E+07        -0.94639E+07         0.00000E+00
    0.00000E+00         0.00000E+00        -0.22326E+07
 
   -0.17314E+07         0.22012E+07         0.00000E+00
    0.22012E+07        -0.94648E+07         0.00000E+00
    0.00000E+00         0.00000E+00        -0.22392E+07
 
   -0.17634E+07         0.22844E+07         0.00000E+00
    0.22844E+07        -0.94653E+07         0.00000E+00
    0.00000E+00         0.00000E+00        -0.22457E+07
 
   -0.17949E+07         0.23685E+07         0.00000E+00
    0.23685E+07        -0.94653E+07         0.00000E+00
    0.00000E+00         0.00000E+00        -0.22520E+07
 
   -0.18262E+07         0.24536E+07         0.00000E+00
    0.24536E+07        -0.94647E+07         0.00000E+00
    0.00000E+00         0.00000E+00        -0.22582E+07
 
   -0.18571E+07         0.25396E+07         0.00000E+00
    0.25396E+07        -0.94636E+07         0.00000E+00
    0.00000E+00         0.00000E+00        -0.22641E+07
 
   -0.18878E+07         0.26266E+07         0.00000E+00
    0.26266E+07        -0.94618E+07         0.00000E+00
    0.00000E+00         0.00000E+00        -0.22699E+07
 
   -0.19183E+07         0.27146E+07         0.00000E+00
    0.27146E+07        -0.94594E+07         0.00000E+00
    0.00000E+00         0.00000E+00        -0.22755E+07
 
   -0.19486E+07         0.28036E+07         0.00000E+00
    0.28036E+07        -0.94563E+07         0.00000E+00
    0.00000E+00         0.00000E+00        -0.22810E+07
 
   -0.19789E+07         0.28935E+07         0.00000E+00
    0.28935E+07        -0.94525E+07         0.00000E+00
    0.00000E+00         0.00000E+00        -0.22863E+07
 
   -0.20091E+07         0.29845E+07         0.00000E+00
    0.29845E+07        -0.94480E+07         0.00000E+00
    0.00000E+00         0.00000E+00        -0.22914E+07
 
   -0.20394E+07         0.30764E+07         0.00000E+00
    0.30764E+07        -0.94427E+07         0.00000E+00
    0.00000E+00         0.00000E+00        -0.22964E+07
 
   -0.20697E+07         0.31694E+07         0.00000E+00
    0.31694E+07        -0.94365E+07         0.00000E+00
    0.00000E+00         0.00000E+00        -0.23013E+07
 
   -0.21002E+07         0.32633E+07         0.00000E+00
    0.32633E+07        -0.94296E+07         0.00000E+00
    0.00000E+00         0.00000E+00        -0.23060E+07
 
   -0.21308E+07         0.33583E+07         0.00000E+00
    0.33583E+07        -0.94218E+07         0.00000E+00
    0.00000E+00         0.00000E+00        -0.23105E+07
 
   -0.21616E+07         0.34543E+07         0.00000E+00
    0.34543E+07        -0.94131E+07         0.00000E+00
    0.00000E+00         0.00000E+00        -0.23149E+07
 
   -0.21927E+07         0.35513E+07         0.00000E+00
    0.35513E+07        -0.94035E+07         0.00000E+00
    0.00000E+00         0.00000E+00        -0.23192E+07
 
   -0.22241E+07         0.36493E+07         0.00000E+00
    0.36493E+07        -0.93929E+07         0.00000E+00
    0.00000E+00         0.00000E+00        -0.23234E+07
 
   -0.22559E+07         0.37483E+07         0.00000E+00
    0.37483E+07        -0.93813E+07         0.00000E+00
    0.00000E+00         0.00000E+00        -0.23274E+07
 
   -0.22880E+07         0.38483E+07         0.00000E+00
    0.38483E+07        -0.93688E+07         0.00000E+00
    0.00000E+00         0.00000E+00        -0.23314E+07
 
   -0.23206E+07         0.39494E+07         0.00000E+00
    0.39494E+07        -0.93552E+07         0.00000E+00
    0.00000E+00         0.00000E+00        -0.23352E+07
 
   -0.70290E+06         0.32289E+05         0.00000E+00
    0.32289E+05        -0.10110E+08         0.00000E+00
    0.00000E+00         0.00000E+00        -0.21625E+07
 
   -0.77368E+06         0.96747E+05         0.00000E+00
    0.96747E+05        -0.10110E+08         0.00000E+00
    0.00000E+00         0.00000E+00        -0.21768E+07
 
   -0.84209E+06         0.16124E+06         0.00000E+00
    0.16124E+06        -0.10111E+08         0.00000E+00
    0.00000E+00         0.00000E+00        -0.21907E+07
 
   -0.90818E+06         0.22584E+06         0.00000E+00
    0.22584E+06        -0.10113E+08         0.00000E+00
    0.00000E+00         0.00000E+00        -0.22043E+07
 
   -0.97202E+06         0.29061E+06         0.00000E+00
    0.29061E+06        -0.10115E+08         0.00000E+00
    0.00000E+00         0.00000E+00        -0.22175E+07
 
   -0.10336E+07         0.35561E+06         0.00000E+00
    0.35561E+06        -0.10118E+08         0.00000E+00
    0.00000E+00         0.00000E+00        -0.22304E+07
 
   -0.10931E+07         0.42089E+06         0.00000E+00
    0.42089E+06        -0.10122E+08         0.00000E+00
    0.00000E+00         0.00000E+00        -0.22429E+07
 
   -0.11505E+07         0.48653E+06         0.00000E+00
    0.48653E+06        -0.10125E+08         0.00000E+00
    0.00000E+00         0.00000E+00        -0.22552E+07
 
   -0.12059E+07         0.55256E+06         0.00000E+00
    0.55256E+06        -0.10129E+08         0.00000E+00
    0.00000E+00         0.00000E+00        -0.22670E+07
 
   -0.12593E+07         0.61905E+06         0.00000E+00
    0.61905E+06        -0.10134E+08         0.00000E+00
    0.00000E+00         0.00000E+00        -0.22786E+07
 
   -0.13108E+07         0.68605E+06         0.00000E+00
    0.68605E+06        -0.10139E+08         0.00000E+00
    0.00000E+00         0.00000E+00        -0.22899E+07
 
   -0.13605E+07         0.75360E+06         0.00000E+00
    0.75360E+06        -0.10144E+08         0.00000E+00
    0.00000E+00         0.00000E+00        -0.23008E+07
 
   -0.14084E+07         0.82176E+06         0.00000E+00
    0.82176E+06        -0.10149E+08         0.00000E+00
    0.00000E+00         0.00000E+00        -0.23115E+07
 
   -0.14545E+07         0.89055E+06         0.00000E+00
    0.89055E+06        -0.10155E+08         0.00000E+00
    0.00000E+00         0.00000E+00        -0.23218E+07
 
   -0.14991E+07         0.96004E+06         0.00000E+00
    0.96004E+06        -0.10160E+08         0.00000E+00
    0.00000E+00         0.00000E+00        -0.23319E+07
 
   -0.15421E+07         0.10302E+07         0.00000E+00
    0.10302E+07        -0.10166E+08         0.00000E+00
    0.00000E+00         0.00000E+00        -0.23417E+07
 
   -0.15835E+07         0.11012E+07         0.00000E+00
    0.11012E+07        -0.10172E+08         0.00000E+00
    0.00000E+00         0.00000E+00        -0.23512E+07
 
   -0.16235E+07         0.11730E+07         0.00000E+00
    0.11730E+07        -0.10178E+08         0.00000E+00
    0.00000E+00         0.00000E+00        -0.23604E+07
 
   -0.16622E+07         0.12456E+07         0.00000E+00
    0.12456E+07        -0.10184E+08         0.00000E+00
    0.00000E+00         0.00000E+00        -0.23693E+07
 
   -0.16995E+07         0.13191E+07         0.00000E+00
    0.13191E+07        -0.10191E+08         0.00000E+00
    0.00000E+00         0.00000E+00        -0.23780E+07
 
   -0.17356E+07         0.13934E+07         0.00000E+00
    0.13934E+07        -0.10197E+08         0.00000E+00
    0.00000E+00         0.00000E+00        -0.23865E+07
 
   -0.17706E+07         0.14687E+07         0.00000E+00
    0.14687E+07        -0.10203E+08         0.00000E+00
    0.00000E+00         0.00000E+00        -0.23946E+07
 
   -0.18044E+07         0.15450E+07         0.00000E+00
    0.15450E+07        -0.10208E+08         0.00000E+00
    0.00000E+00         0.00000E+00        -0.24026E+07
 
   -0.18372E+07         0.16222E+07         0.00000E+00
    0.16222E+07        -0.10214E+08         0.00000E+00
    0.00000E+00         0.00000E+00        -0.24103E+07
 
   -0.18690E+07         0.17004E+07         0.00000E+00
    0.17004E+07        -0.10220E+08         0.00000E+00
    0.00000E+00         0.00000E+00        -0.24177E+07
 
   -0.19000E+07         0.17796E+07         0.00000E+00
    0.17796E+07        -0.10225E+08         0.00000E+00
    0.00000E+00         0.00000E+00        -0.24250E+07
 
   -0.19300E+07         0.18598E+07         0.00000E+00
    0.18598E+07        -0.10230E+08         0.00000E+00
    0.00000E+00         0.00000E+00        -0.24320E+07
 
   -0.19594E+07         0.19411E+07         0.00000E+00
    0.19411E+07        -0.10234E+08         0.00000E+00
    0.00000E+00         0.00000E+00        -0.24388E+07
 
   -0.19880E+07         0.20235E+07         0.00000E+00
    0.20235E+07        -0.10239E+08         0.00000E+00
    0.00000E+00         0.00000E+00        -0.24454E+07
 
   -0.20159E+07         0.21069E+07         0.00000E+00
    0.21069E+07        -0.10243E+08         0.00000E+00
    0.00000E+00         0.00000E+00        -0.24517E+07
 
   -0.20433E+07         0.21915E+07         0.00000E+00
    0.21915E+07        -0.10246E+08         0.00000E+00
    0.00000E+00         0.00000E+00        -0.24579E+07
 
   -0.20702E+07         0.22771E+07         0.00000E+00
    0.22771E+07        -0.10249E+08         0.00000E+00
    0.00000E+00         0.00000E+00        -0.24639E+07
 
   -0.20966E+07         0.23639E+07         0.00000E+00
    0.23639E+07        -0.10252E+08         0.00000E+00
    0.00000E+00         0.00000E+00        -0.24697E+07
 
   -0.21226E+07         0.24517E+07         0.00000E+00
    0.24517E+07        -0.10254E+08         0.00000E+00
    0.00000E+00         0.00000E+00        -0.24753E+07
 
   -0.21483E+07         0.25407E+07         0.00000E+00
    0.25407E+07        -0.10255E+08         0.00000E+00
    0.00000E+00         0.00000E+00        -0.24807E+07
 
   -0.21737E+07         0.26309E+07         0.00000E+00
    0.26309E+07        -0.10256E+08         0.00000E+00
    0.00000E+00         0.00000E+00        -0.24859E+07
 
   -0.21989E+07         0.27222E+07         0.00000E+00
    0.27222E+07        -0.10256E+08         0.00000E+00
    0.00000E+00         0.00000E+00        -0.24910E+07
 
   -0.22239E+07         0.28146E+07         0.00000E+00
    0.28146E+07        -0.10255E+08         0.00000E+00
    0.00000E+00         0.00000E+00        -0.24959E+07
 
   -0.22488E+07         0.29082E+07         0.00000E+00
    0.29082E+07        -0.10254E+08         0.00000E+00
    0.00000E+00         0.00000E+00        -0.25006E+07
 
   -0.22737E+07         0.30029E+07         0.00000E+00
    0.30029E+07        -0.10252E+08         0.00000E+00
    0.00000E+00         0.00000E+00        -0.25052E+07
 
   -0.22986E+07         0.30988E+07         0.00000E+00
    0.30988E+07        -0.10249E+08         0.00000E+00
    0.00000E+00         0.00000E+00        -0.25096E+07
 
   -0.23235E+07         0.31959E+07         0.00000E+00
    0.31959E+07        -0.10246E+08         0.00000E+00
    0.00000E+00         0.00000E+00        -0.25139E+07
 
   -0.23485E+07         0.32941E+07         0.00000E+00
    0.32941E+07        -0.10241E+08         0.00000E+00
    0.00000E+00         0.00000E+00        -0.25180E+07
 
   -0.23737E+07         0.33935E+07         0.00000E+00
    0.33935E+07        -0.10236E+08         0.00000E+00
    0.00000E+00         0.00000E+00        -0.25220E+07
 
   -0.23991E+07         0.34940E+07         0.00000E+00
    0.34940E+07        -0.10230E+08         0.00000E+00
    0.00000E+00         0.00000E+00        -0.25258E+07
 
   -0.24248E+07         0.35957E+07         0.00000E+00
    0.35957E+07        -0.10223E+08         0.00000E+00
    0.00000E+00         0.00000E+00        -0.25295E+07
 
   -0.24508E+07         0.36986E+07         0.00000E+00
    0.36986E+07        -0.10215E+08         0.00000E+00
    0.00000E+00         0.00000E+00        -0.25331E+07
 
   -0.24771E+07         0.38026E+07         0.00000E+00
    0.38026E+07        -0.10206E+08         0.00000E+00
    0.00000E+00         0.00000E+00        -0.25365E+07
 
   -0.25038E+07         0.39078E+07         0.00000E+00
    0.39078E+07        -0.10195E+08         0.00000E+00
    0.00000E+00         0.00000E+00        -0.25399E+07
 
   -0.25309E+07         0.40141E+07         0.00000E+00
    0.40141E+07        -0.10184E+08         0.00000E+00
    0.00000E+00         0.00000E+00        -0.25431E+07
 
   -0.11606E+07         0.30426E+05         0.00000E+00
    0.30426E+05        -0.10881E+08         0.00000E+00
    0.00000E+00         0.00000E+00        -0.24084E+07
 
   -0.12310E+07         0.91480E+05         0.00000E+00
    0.91480E+05        -0.10882E+08         0.00000E+00
    0.00000E+00         0.00000E+00        -0.24226E+07
 
   -0.12987E+07         0.15272E+06         0.00000E+00
    0.15272E+06        -0.10884E+08         0.00000E+00
    0.00000E+00         0.00000E+00        -0.24365E+07
 
   -0.13637E+07         0.21422E+06         0.00000E+00
    0.21422E+06        -0.10886E+08         0.00000E+00
    0.00000E+00         0.00000E+00        -0.24499E+07
 
   -0.14262E+07         0.27605E+06         0.00000E+00
    0.27605E+06        -0.10889E+08         0.00000E+00
    0.00000E+00         0.00000E+00        -0.24630E+07
 
   -0.14861E+07         0.33827E+06         0.00000E+00
    0.33827E+06        -0.10893E+08         0.00000E+00
    0.00000E+00         0.00000E+00        -0.24757E+07
 
   -0.15436E+07         0.40096E+06         0.00000E+00
    0.40096E+06        -0.10897E+08         0.00000E+00
    0.00000E+00         0.00000E+00        -0.24881E+07
 
   -0.15986E+07         0.46418E+06         0.00000E+00
    0.46418E+06        -0.10902E+08         0.00000E+00
    0.00000E+00         0.00000E+00        -0.25000E+07
 
   -0.16514E+07         0.52798E+06         0.00000E+00
    0.52798E+06        -0.10907E+08         0.00000E+00
    0.00000E+00         0.00000E+00        -0.25117E+07
 
   -0.17019E+07         0.59242E+06         0.00000E+00
    0.59242E+06        -0.10913E+08         0.00000E+00
    0.00000E+00         0.00000E+00        -0.25230E+07
 
   -0.17503E+07         0.65756E+06         0.00000E+00
    0.65756E+06        -0.10919E+08         0.00000E+00
    0.00000E+00         0.00000E+00        -0.25339E+07
 
   -0.17966E+07         0.72345E+06         0.00000E+00
    0.72345E+06        -0.10926E+08         0.00000E+00
    0.00000E+00         0.00000E+00        -0.25445E+07
 
   -0.18409E+07         0.79014E+06         0.00000E+00
    0.79014E+06        -0.10933E+08         0.00000E+00
    0.00000E+00         0.00000E+00        -0.25548E+07
 
   -0.18833E+07         0.85768E+06         0.00000E+00
    0.85768E+06        -0.10940E+08         0.00000E+00
    0.00000E+00         0.00000E+00        -0.25647E+07
 
   -0.19238E+07         0.92610E+06         0.00000E+00
    0.92610E+06        -0.10948E+08         0.00000E+00
    0.00000E+00         0.00000E+00        -0.25744E+07
 
   -0.19625E+07         0.99545E+06         0.00000E+00
    0.99545E+06        -0.10956E+08         0.00000E+00
    0.00000E+00         0.00000E+00        -0.25837E+07
 
   -0.19996E+07         0.10658E+07         0.00000E+00
    0.10658E+07        -0.10964E+08         0.00000E+00
    0.00000E+00         0.00000E+00        -0.25927E+07
 
   -0.20350E+07         0.11371E+07         0.00000E+00
    0.11371E+07        -0.10972E+08         0.00000E+00
    0.00000E+00         0.00000E+00        -0.26015E+07
 
   -0.20689E+07         0.12095E+07         0.00000E+00
    0.12095E+07        -0.10981E+08         0.00000E+00
    0.00000E+00         0.00000E+00        -0.26099E+07
 
   -0.21013E+07         0.12829E+07         0.00000E+00
    0.12829E+07        -0.10989E+08         0.00000E+00
    0.00000E+00         0.00000E+00        -0.26181E+07
 
   -0.21324E+07         0.13574E+07         0.00000E+00
    0.13574E+07        -0.10998E+08         0.00000E+00
    0.00000E+00         0.00000E+00        -0.26260E+07
 
   -0.21621E+07         0.14331E+07         0.00000E+00
    0.14331E+07        -0.11006E+08         0.00000E+00
    0.00000E+00         0.00000E+00        -0.26337E+07
 
   -0.21907E+07         0.15099E+07         0.00000E+00
    0.15099E+07        -0.11014E+08         0.00000E+00
    0.00000E+00         0.00000E+00        -0.26410E+07
 
   -0.22181E+07         0.15879E+07         0.00000E+00
    0.15879E+07        -0.11023E+08         0.00000E+00
    0.00000E+00         0.00000E+00        -0.26482E+07
 
   -0.22444E+07         0.16671E+07         0.00000E+00
    0.16671E+07        -0.11031E+08         0.00000E+00
    0.00000E+00         0.00000E+00        -0.26550E+07
 
   -0.22697E+07         0.17476E+07         0.00000E+00
    0.17476E+07        -0.11039E+08         0.00000E+00
    0.00000E+00         0.00000E+00        -0.26617E+07
 
   -0.22940E+07         0.18292E+07         0.00000E+00
    0.18292E+07        -0.11046E+08         0.00000E+00
    0.00000E+00         0.00000E+00        -0.26681E+07
 
   -0.23176E+07         0.19121E+07         0.00000E+00
    0.19121E+07        -0.11054E+08         0.00000E+00
    0.00000E+00         0.00000E+00        -0.26743E+07
 
   -0.23403E+07         0.19963E+07         0.00000E+00
    0.19963E+07        -0.11061E+08         0.00000E+00
    0.00000E+00         0.00000E+00        -0.26802E+07
 
   -0.23624E+07         0.20817E+07         0.00000E+00
    0.20817E+07        -0.11067E+08         0.00000E+00
    0.00000E+00         0.00000E+00        -0.26860E+07
 
   -0.23838E+07         0.21685E+07         0.00000E+00
    0.21685E+07        -0.11074E+08         0.00000E+00
    0.00000E+00         0.00000E+00        -0.26915E+07
 
   -0.24047E+07         0.22565E+07         0.00000E+00
    0.22565E+07        -0.11080E+08         0.00000E+00
    0.00000E+00         0.00000E+00        -0.26968E+07
 
   -0.24250E+07         0.23458E+07         0.00000E+00
    0.23458E+07        -0.11085E+08         0.00000E+00
    0.00000E+00         0.00000E+00        -0.27020E+07
 
   -0.24449E+07         0.24364E+07         0.00000E+00
    0.24364E+07        -0.11090E+08         0.00000E+00
    0.00000E+00         0.00000E+00        -0.27069E+07
 
   -0.24645E+07         0.25284E+07         0.00000E+00
    0.25284E+07        -0.11094E+08         0.00000E+00
    0.00000E+00         0.00000E+00        -0.27117E+07
 
   -0.24838E+07         0.26217E+07         0.00000E+00
    0.26217E+07        -0.11098E+08         0.00000E+00
    0.00000E+00         0.00000E+00        -0.27163E+07
 
   -0.25028E+07         0.27163E+07         0.00000E+00
    0.27163E+07        -0.11101E+08         0.00000E+00
    0.00000E+00         0.00000E+00        -0.27207E+07
 
   -0.25216E+07         0.28122E+07         0.00000E+00
    0.28122E+07        -0.11103E+08         0.00000E+00
    0.00000E+00         0.00000E+00        -0.27249E+07
 
   -0.25404E+07         0.29094E+07         0.00000E+00
    0.29094E+07        -0.11104E+08         0.00000E+00
    0.00000E+00         0.00000E+00        -0.27289E+07
 
   -0.25590E+07         0.30080E+07         0.00000E+00
    0.30080E+07        -0.11105E+08         0.00000E+00
    0.00000E+00         0.00000E+00        -0.27329E+07
 
   -0.25777E+07         0.31079E+07         0.00000E+00
    0.31079E+07        -0.11105E+08         0.00000E+00
    0.00000E+00         0.00000E+00        -0.27366E+07
 
   -0.25964E+07         0.32091E+07         0.00000E+00
    0.32091E+07        -0.11105E+08         0.00000E+00
    0.00000E+00         0.00000E+00        -0.27402E+07
 
   -0.26153E+07         0.33116E+07         0.00000E+00
    0.33116E+07        -0.11103E+08         0.00000E+00
    0.00000E+00         0.00000E+00        -0.27436E+07
 
   -0.26343E+07         0.34154E+07         0.00000E+00
    0.34154E+07        -0.11100E+08         0.00000E+00
    0.00000E+00         0.00000E+00        -0.27469E+07
 
   -0.26535E+07         0.35206E+07         0.00000E+00
    0.35206E+07        -0.11097E+08         0.00000E+00
    0.00000E+00         0.00000E+00        -0.27501E+07
 
   -0.26730E+07         0.36270E+07         0.00000E+00
    0.36270E+07        -0.11093E+08         0.00000E+00
    0.00000E+00         0.00000E+00        -0.27531E+07
 
   -0.26928E+07         0.37348E+07         0.00000E+00
    0.37348E+07        -0.11087E+08         0.00000E+00
    0.00000E+00         0.00000E+00        -0.27560E+07
 
   -0.27130E+07         0.38439E+07         0.00000E+00
    0.38439E+07        -0.11081E+08         0.00000E+00
    0.00000E+00         0.00000E+00        -0.27588E+07
 
   -0.27335E+07         0.39543E+07         0.00000E+00
    0.39543E+07        -0.11074E+08         0.00000E+00
    0.00000E+00         0.00000E+00        -0.27614E+07
 
   -0.27545E+07         0.40660E+07         0.00000E+00
    0.40660E+07        -0.11065E+08         0.00000E+00
    0.00000E+00         0.00000E+00        -0.27639E+07
 
   -0.16786E+07         0.28055E+05         0.00000E+00
    0.28055E+05        -0.11693E+08         0.00000E+00
    0.00000E+00         0.00000E+00        -0.26744E+07
 
   -0.17478E+07         0.84768E+05         0.00000E+00
    0.84768E+05        -0.11694E+08         0.00000E+00
    0.00000E+00         0.00000E+00        -0.26884E+07
 
   -0.18140E+07         0.14185E+06         0.00000E+00
    0.14185E+06        -0.11696E+08         0.00000E+00
    0.00000E+00         0.00000E+00        -0.27021E+07
 
   -0.18770E+07         0.19938E+06         0.00000E+00
    0.19938E+06        -0.11699E+08         0.00000E+00
    0.00000E+00         0.00000E+00        -0.27153E+07
 
   -0.19372E+07         0.25743E+06         0.00000E+00
    0.25743E+06        -0.11703E+08         0.00000E+00
    0.00000E+00         0.00000E+00        -0.27280E+07
 
   -0.19944E+07         0.31609E+06         0.00000E+00
    0.31609E+06        -0.11708E+08         0.00000E+00
    0.00000E+00         0.00000E+00        -0.27404E+07
 
   -0.20489E+07         0.37542E+06         0.00000E+00
    0.37542E+06        -0.11713E+08         0.00000E+00
    0.00000E+00         0.00000E+00        -0.27524E+07
 
   -0.21007E+07         0.43549E+06         0.00000E+00
    0.43549E+06        -0.11719E+08         0.00000E+00
    0.00000E+00         0.00000E+00        -0.27640E+07
 
   -0.21498E+07         0.49636E+06         0.00000E+00
    0.49636E+06        -0.11726E+08         0.00000E+00
    0.00000E+00         0.00000E+00        -0.27751E+07
 
   -0.21965E+07         0.55809E+06         0.00000E+00
    0.55809E+06        -0.11733E+08         0.00000E+00
    0.00000E+00         0.00000E+00        -0.27860E+07
 
   -0.22407E+07         0.62075E+06         0.00000E+00
    0.62075E+06        -0.11741E+08         0.00000E+00
    0.00000E+00         0.00000E+00        -0.27964E+07
 
   -0.22826E+07         0.68439E+06         0.00000E+00
    0.68439E+06        -0.11750E+08         0.00000E+00
    0.00000E+00         0.00000E+00        -0.28065E+07
 
   -0.23222E+07         0.74906E+06         0.00000E+00
    0.74906E+06        -0.11759E+08         0.00000E+00
    0.00000E+00         0.00000E+00        -0.28162E+07
 
   -0.23596E+07         0.81480E+06         0.00000E+00
    0.81480E+06        -0.11768E+08         0.00000E+00
    0.00000E+00         0.00000E+00        -0.28256E+07
 
   -0.23950E+07         0.88167E+06         0.00000E+00
    0.88167E+06        -0.11778E+08         0.00000E+00
    0.00000E+00         0.00000E+00        -0.28346E+07
 
   -0.24284E+07         0.94970E+06         0.00000E+00
    0.94970E+06        -0.11788E+08         0.00000E+00
    0.00000E+00         0.00000E+00        -0.28434E+07
 
   -0.24600E+07         0.10189E+07         0.00000E+00
    0.10189E+07        -0.11799E+08         0.00000E+00
    0.00000E+00         0.00000E+00        -0.28518E+07
 
   -0.24897E+07         0.10894E+07         0.00000E+00
    0.10894E+07        -0.11810E+08         0.00000E+00
    0.00000E+00         0.00000E+00        -0.28599E+07
 
   -0.25177E+07         0.11612E+07         0.00000E+00
    0.11612E+07        -0.11821E+08         0.00000E+00
    0.00000E+00         0.00000E+00        -0.28676E+07
 
   -0.25441E+07         0.12342E+07         0.00000E+00
    0.12342E+07        -0.11832E+08         0.00000E+00
    0.00000E+00         0.00000E+00        -0.28751E+07
 
   -0.25691E+07         0.13086E+07         0.00000E+00
    0.13086E+07        -0.11843E+08         0.00000E+00
    0.00000E+00         0.00000E+00        -0.28823E+07
 
   -0.25925E+07         0.13844E+07         0.00000E+00
    0.13844E+07        -0.11854E+08         0.00000E+00
    0.00000E+00         0.00000E+00        -0.28893E+07
 
   -0.26147E+07         0.14615E+07         0.00000E+00
    0.14615E+07        -0.11865E+08         0.00000E+00
    0.00000E+00         0.00000E+00        -0.28959E+07
 
   -0.26355E+07         0.15401E+07         0.00000E+00
    0.15401E+07        -0.11876E+08         0.00000E+00
    0.00000E+00         0.00000E+00        -0.29023E+07
 
   -0.26552E+07         0.16201E+07         0.00000E+00
    0.16201E+07        -0.11887E+08         0.00000E+00
    0.00000E+00         0.00000E+00        -0.29085E+07
 
   -0.26739E+07         0.17015E+07         0.00000E+00
    0.17015E+07        -0.11898E+08         0.00000E+00
    0.00000E+00         0.00000E+00        -0.29143E+07
 
   -0.26915E+07         0.17844E+07         0.00000E+00
    0.17844E+07        -0.11909E+08         0.00000E+00
    0.00000E+00         0.00000E+00        -0.29200E+07
 
   -0.27082E+07         0.18688E+07         0.00000E+00
    0.18688E+07        -0.11919E+08         0.00000E+00
    0.00000E+00         0.00000E+00        -0.29254E+07
 
   -0.27241E+07         0.19546E+07         0.00000E+00
    0.19546E+07        -0.11929E+08         0.00000E+00
    0.00000E+00         0.00000E+00        -0.29306E+07
 
   -0.27392E+07         0.20419E+07         0.00000E+00
    0.20419E+07        -0.11939E+08         0.00000E+00
    0.00000E+00         0.00000E+00        -0.29356E+07
 
   -0.27536E+07         0.21308E+07         0.00000E+00
    0.21308E+07        -0.11948E+08         0.00000E+00
    0.00000E+00         0.00000E+00        -0.29403E+07
 
   -0.27674E+07         0.22211E+07         0.00000E+00
    0.22211E+07        -0.11957E+08         0.00000E+00
    0.00000E+00         0.00000E+00        -0.29449E+07
 
   -0.27808E+07         0.23129E+07         0.00000E+00
    0.23129E+07        -0.11965E+08         0.00000E+00
    0.00000E+00         0.00000E+00        -0.29492E+07
 
   -0.27936E+07         0.24063E+07         0.00000E+00
    0.24063E+07        -0.11973E+08         0.00000E+00
    0.00000E+00         0.00000E+00        -0.29534E+07
 
   -0.28061E+07         0.25012E+07         0.00000E+00
    0.25012E+07        -0.11981E+08         0.00000E+00
    0.00000E+00         0.00000E+00        -0.29573E+07
 
   -0.28183E+07         0.25976E+07         0.00000E+00
    0.25976E+07        -0.11987E+08         0.00000E+00
    0.00000E+00         0.00000E+00        -0.29611E+07
 
   -0.28303E+07         0.26954E+07         0.00000E+00
    0.26954E+07        -0.11993E+08         0.00000E+00
    0.00000E+00         0.00000E+00        -0.29647E+07
 
   -0.28420E+07         0.27948E+07         0.00000E+00
    0.27948E+07        -0.11999E+08         0.00000E+00
    0.00000E+00         0.00000E+00        -0.29682E+07
 
   -0.28537E+07         0.28958E+07         0.00000E+00
    0.28958E+07        -0.12003E+08         0.00000E+00
    0.00000E+00         0.00000E+00        -0.29714E+07
 
   -0.28653E+07         0.29982E+07         0.00000E+00
    0.29982E+07        -0.12007E+08         0.00000E+00
    0.00000E+00         0.00000E+00        -0.29746E+07
 
   -0.28770E+07         0.31021E+07         0.00000E+00
    0.31021E+07        -0.12011E+08         0.00000E+00
    0.00000E+00         0.00000E+00        -0.29775E+07
 
   -0.28887E+07         0.32075E+07         0.00000E+00
    0.32075E+07        -0.12013E+08         0.00000E+00
    0.00000E+00         0.00000E+00        -0.29803E+07
 
   -0.29005E+07         0.33143E+07         0.00000E+00
    0.33143E+07        -0.12014E+08         0.00000E+00
    0.00000E+00         0.00000E+00        -0.29830E+07
 
   -0.29126E+07         0.34227E+07         0.00000E+00
    0.34227E+07        -0.12015E+08         0.00000E+00
    0.00000E+00         0.00000E+00        -0.29855E+07
 
   -0.29248E+07         0.35325E+07         0.00000E+00
    0.35325E+07        -0.12015E+08         0.00000E+00
    0.00000E+00         0.00000E+00        -0.29879E+07
 
   -0.29374E+07         0.36438E+07         0.00000E+00
    0.36438E+07        -0.12013E+08         0.00000E+00
    0.00000E+00         0.00000E+00        -0.29901E+07
 
   -0.29503E+07         0.37566E+07         0.00000E+00
    0.37566E+07        -0.12011E+08         0.00000E+00
    0.00000E+00         0.00000E+00        -0.29923E+07
 
   -0.29636E+07         0.38707E+07         0.00000E+00
    0.38707E+07        -0.12008E+08         0.00000E+00
    0.00000E+00         0.00000E+00        -0.29943E+07
 
   -0.29773E+07         0.39864E+07         0.00000E+00
    0.39864E+07        -0.12003E+08         0.00000E+00
    0.00000E+00         0.00000E+00        -0.29961E+07
 
   -0.29915E+07         0.41034E+07         0.00000E+00
    0.41034E+07        -0.11998E+08         0.00000E+00
    0.00000E+00         0.00000E+00        -0.29979E+07
 
   -0.22620E+07         0.25105E+05         0.00000E+00
    0.25105E+05        -0.12546E+08         0.00000E+00
    0.00000E+00         0.00000E+00        -0.29616E+07
 
   -0.23291E+07         0.76419E+05         0.00000E+00
    0.76419E+05        -0.12547E+08         0.00000E+00
    0.00000E+00         0.00000E+00        -0.29753E+07
 
   -0.23926E+07         0.12832E+06         0.00000E+00
    0.12832E+06        -0.12550E+08         0.00000E+00
    0.00000E+00         0.00000E+00        -0.29885E+07
 
   -0.24527E+07         0.18091E+06         0.00000E+00
    0.18091E+06        -0.12553E+08         0.00000E+00
    0.00000E+00         0.00000E+00        -0.30012E+07
 
   -0.25094E+07         0.23426E+06         0.00000E+00
    0.23426E+06        -0.12558E+08         0.00000E+00
    0.00000E+00         0.00000E+00        -0.30135E+07
 
   -0.25629E+07         0.28846E+06         0.00000E+00
    0.28846E+06        -0.12564E+08         0.00000E+00
    0.00000E+00         0.00000E+00        -0.30253E+07
 
   -0.26132E+07         0.34358E+06         0.00000E+00
    0.34358E+06        -0.12570E+08         0.00000E+00
    0.00000E+00         0.00000E+00        -0.30367E+07
 
   -0.26605E+07         0.39970E+06         0.00000E+00
    0.39970E+06        -0.12578E+08         0.00000E+00
    0.00000E+00         0.00000E+00        -0.30477E+07
 
   -0.27048E+07         0.45688E+06         0.00000E+00
    0.45688E+06        -0.12586E+08         0.00000E+00
    0.00000E+00         0.00000E+00        -0.30582E+07
 
   -0.27464E+07         0.51518E+06         0.00000E+00
    0.51518E+06        -0.12595E+08         0.00000E+00
    0.00000E+00         0.00000E+00        -0.30683E+07
 
   -0.27852E+07         0.57468E+06         0.00000E+00
    0.57468E+06        -0.12605E+08         0.00000E+00
    0.00000E+00         0.00000E+00        -0.30781E+07
 
   -0.28214E+07         0.63541E+06         0.00000E+00
    0.63541E+06        -0.12616E+08         0.00000E+00
    0.00000E+00         0.00000E+00        -0.30874E+07
 
   -0.28550E+07         0.69745E+06         0.00000E+00
    0.69745E+06        -0.12627E+08         0.00000E+00
    0.00000E+00         0.00000E+00        -0.30964E+07
 
   -0.28863E+07         0.76084E+06         0.00000E+00
    0.76084E+06        -0.12639E+08         0.00000E+00
    0.00000E+00         0.00000E+00        -0.31050E+07
 
   -0.29153E+07         0.82561E+06         0.00000E+00
    0.82561E+06        -0.12651E+08         0.00000E+00
    0.00000E+00         0.00000E+00        -0.31133E+07
 
   -0.29422E+07         0.89183E+06         0.00000E+00
    0.89183E+06        -0.12664E+08         0.00000E+00
    0.00000E+00         0.00000E+00        -0.31212E+07
 
   -0.29669E+07         0.95952E+06         0.00000E+00
    0.95952E+06        -0.12677E+08         0.00000E+00
    0.00000E+00         0.00000E+00        -0.31287E+07
 
   -0.29897E+07         0.10287E+07         0.00000E+00
    0.10287E+07        -0.12690E+08         0.00000E+00
    0.00000E+00         0.00000E+00        -0.31360E+07
 
   -0.30106E+07         0.10995E+07         0.00000E+00
    0.10995E+07        -0.12704E+08         0.00000E+00
    0.00000E+00         0.00000E+00        -0.31429E+07
 
   -0.30298E+07         0.11718E+07         0.00000E+00
    0.11718E+07        -0.12718E+08         0.00000E+00
    0.00000E+00         0.00000E+00        -0.31495E+07
 
   -0.30473E+07         0.12457E+07         0.00000E+00
    0.12457E+07        -0.12732E+08         0.00000E+00
    0.00000E+00         0.00000E+00        -0.31558E+07
 
   -0.30632E+07         0.13213E+07         0.00000E+00
    0.13213E+07        -0.12746E+08         0.00000E+00
    0.00000E+00         0.00000E+00        -0.31618E+07
 
   -0.30777E+07         0.13985E+07         0.00000E+00
    0.13985E+07        -0.12760E+08         0.00000E+00
    0.00000E+00         0.00000E+00        -0.31676E+07
 
   -0.30909E+07         0.14773E+07         0.00000E+00
    0.14773E+07        -0.12774E+08         0.00000E+00
    0.00000E+00         0.00000E+00        -0.31730E+07
 
   -0.31028E+07         0.15579E+07         0.00000E+00
    0.15579E+07        -0.12788E+08         0.00000E+00
    0.00000E+00         0.00000E+00        -0.31782E+07
 
   -0.31135E+07         0.16401E+07         0.00000E+00
    0.16401E+07        -0.12802E+08         0.00000E+00
    0.00000E+00         0.00000E+00        -0.31832E+07
 
   -0.31232E+07         0.17240E+07         0.00000E+00
    0.17240E+07        -0.12816E+08         0.00000E+00
    0.00000E+00         0.00000E+00        -0.31879E+07
 
   -0.31319E+07         0.18097E+07         0.00000E+00
    0.18097E+07        -0.12830E+08         0.00000E+00
    0.00000E+00         0.00000E+00        -0.31924E+07
 
   -0.31398E+07         0.18971E+07         0.00000E+00
    0.18971E+07        -0.12843E+08         0.00000E+00
    0.00000E+00         0.00000E+00        -0.31966E+07
 
   -0.31469E+07         0.19862E+07         0.00000E+00
    0.19862E+07        -0.12856E+08         0.00000E+00
    0.00000E+00         0.00000E+00        -0.32006E+07
 
   -0.31532E+07         0.20770E+07         0.00000E+00
    0.20770E+07        -0.12869E+08         0.00000E+00
    0.00000E+00         0.00000E+00        -0.32044E+07
 
   -0.31590E+07         0.21696E+07         0.00000E+00
    0.21696E+07        -0.12881E+08         0.00000E+00
    0.00000E+00         0.00000E+00        -0.32080E+07
 
   -0.31642E+07         0.22639E+07         0.00000E+00
    0.22639E+07        -0.12893E+08         0.00000E+00
    0.00000E+00         0.00000E+00        -0.32114E+07
 
   -0.31690E+07         0.23600E+07         0.00000E+00
    0.23600E+07        -0.12904E+08         0.00000E+00
    0.00000E+00         0.00000E+00        -0.32146E+07
 
   -0.31734E+07         0.24577E+07         0.00000E+00
    0.24577E+07        -0.12915E+08         0.00000E+00
    0.00000E+00         0.00000E+00        -0.32177E+07
 
   -0.31775E+07         0.25572E+07         0.00000E+00
    0.25572E+07        -0.12925E+08         0.00000E+00
    0.00000E+00         0.00000E+00        -0.32205E+07
 
   -0.31814E+07         0.26584E+07         0.00000E+00
    0.26584E+07        -0.12934E+08         0.00000E+00
    0.00000E+00         0.00000E+00        -0.32232E+07
 
   -0.31852E+07         0.27613E+07         0.00000E+00
    0.27613E+07        -0.12943E+08         0.00000E+00
    0.00000E+00         0.00000E+00        -0.32257E+07
 
   -0.31888E+07         0.28659E+07         0.00000E+00
    0.28659E+07        -0.12951E+08         0.00000E+00
    0.00000E+00         0.00000E+00        -0.32280E+07
 
   -0.31925E+07         0.29721E+07         0.00000E+00
    0.29721E+07        -0.12959E+08         0.00000E+00
    0.00000E+00         0.00000E+00        -0.32302E+07
 
   -0.31963E+07         0.30801E+07         0.00000E+00
    0.30801E+07        -0.12965E+08         0.00000E+00
    0.00000E+00         0.00000E+00        -0.32323E+07
 
   -0.32001E+07         0.31897E+07         0.00000E+00
    0.31897E+07        -0.12971E+08         0.00000E+00
    0.00000E+00         0.00000E+00        -0.32342E+07
 
   -0.32041E+07         0.33010E+07         0.00000E+00
    0.33010E+07        -0.12976E+08         0.00000E+00
    0.00000E+00         0.00000E+00        -0.32360E+07
 
   -0.32084E+07         0.34139E+07         0.00000E+00
    0.34139E+07        -0.12980E+08         0.00000E+00
    0.00000E+00         0.00000E+00        -0.32376E+07
 
   -0.32130E+07         0.35285E+07         0.00000E+00
    0.35285E+07        -0.12983E+08         0.00000E+00
    0.00000E+00         0.00000E+00        -0.32391E+07
 
   -0.32179E+07         0.36446E+07         0.00000E+00
    0.36446E+07        -0.12985E+08         0.00000E+00
    0.00000E+00         0.00000E+00        -0.32405E+07
 
   -0.32231E+07         0.37624E+07         0.00000E+00
    0.37624E+07        -0.12986E+08         0.00000E+00
    0.00000E+00         0.00000E+00        -0.32418E+07
 
   -0.32289E+07         0.38817E+07         0.00000E+00
    0.38817E+07        -0.12986E+08         0.00000E+00
    0.00000E+00         0.00000E+00        -0.32429E+07
 
   -0.32351E+07         0.40026E+07         0.00000E+00
    0.40026E+07        -0.12985E+08         0.00000E+00
    0.00000E+00         0.00000E+00        -0.32440E+07
 
   -0.32418E+07         0.41251E+07         0.00000E+00
    0.41251E+07        -0.12983E+08         0.00000E+00
    0.00000E+00         0.00000E+00        -0.32449E+07
 
   -0.29164E+07         0.21503E+05         0.00000E+00
    0.21503E+05        -0.13439E+08         0.00000E+00
    0.00000E+00         0.00000E+00        -0.32712E+07
 
   -0.29801E+07         0.66234E+05         0.00000E+00
    0.66234E+05        -0.13441E+08         0.00000E+00
    0.00000E+00         0.00000E+00        -0.32842E+07
 
   -0.30397E+07         0.11183E+06         0.00000E+00
    0.11183E+06        -0.13444E+08         0.00000E+00
    0.00000E+00         0.00000E+00        -0.32967E+07
 
   -0.30955E+07         0.15840E+06         0.00000E+00
    0.15840E+06        -0.13448E+08         0.00000E+00
    0.00000E+00         0.00000E+00        -0.33087E+07
 
   -0.31475E+07         0.20602E+06         0.00000E+00
    0.20602E+06        -0.13454E+08         0.00000E+00
    0.00000E+00         0.00000E+00        -0.33203E+07
 
   -0.31958E+07         0.25479E+06         0.00000E+00
    0.25479E+06        -0.13461E+08         0.00000E+00
    0.00000E+00         0.00000E+00        -0.33313E+07
 
   -0.32406E+07         0.30477E+06         0.00000E+00
    0.30477E+06        -0.13469E+08         0.00000E+00
    0.00000E+00         0.00000E+00        -0.33418E+07
 
   -0.32820E+07         0.35606E+06         0.00000E+00
    0.35606E+06        -0.13478E+08         0.00000E+00
    0.00000E+00         0.00000E+00        -0.33519E+07
 
   -0.33201E+07         0.40872E+06         0.00000E+00
    0.40872E+06        -0.13488E+08         0.00000E+00
    0.00000E+00         0.00000E+00        -0.33616E+07
 
   -0.33551E+07         0.46281E+06         0.00000E+00
    0.46281E+06        -0.13499E+08         0.00000E+00
    0.00000E+00         0.00000E+00        -0.33708E+07
 
   -0.33870E+07         0.51840E+06         0.00000E+00
    0.51840E+06        -0.13511E+08         0.00000E+00
    0.00000E+00         0.00000E+00        -0.33796E+07
 
   -0.34161E+07         0.57555E+06         0.00000E+00
    0.57555E+06        -0.13524E+08         0.00000E+00
    0.00000E+00         0.00000E+00        -0.33879E+07
 
   -0.34424E+07         0.63431E+06         0.00000E+00
    0.63431E+06        -0.13537E+08         0.00000E+00
    0.00000E+00         0.00000E+00        -0.33959E+07
 
   -0.34661E+07         0.69473E+06         0.00000E+00
    0.69473E+06        -0.13551E+08         0.00000E+00
    0.00000E+00         0.00000E+00        -0.34035E+07
 
   -0.34872E+07         0.75686E+06         0.00000E+00
    0.75686E+06        -0.13566E+08         0.00000E+00
    0.00000E+00         0.00000E+00        -0.34107E+07
 
   -0.35060E+07         0.82073E+06         0.00000E+00
    0.82073E+06        -0.13581E+08         0.00000E+00
    0.00000E+00         0.00000E+00        -0.34175E+07
 
   -0.35225E+07         0.88639E+06         0.00000E+00
    0.88639E+06        -0.13597E+08         0.00000E+00
    0.00000E+00         0.00000E+00        -0.34240E+07
 
   -0.35369E+07         0.95386E+06         0.00000E+00
    0.95386E+06        -0.13614E+08         0.00000E+00
    0.00000E+00         0.00000E+00        -0.34301E+07
 
   -0.35493E+07         0.10232E+07         0.00000E+00
    0.10232E+07        -0.13630E+08         0.00000E+00
    0.00000E+00         0.00000E+00        -0.34359E+07
 
   -0.35598E+07         0.10944E+07         0.00000E+00
    0.10944E+07        -0.13647E+08         0.00000E+00
    0.00000E+00         0.00000E+00        -0.34414E+07
 
   -0.35685E+07         0.11675E+07         0.00000E+00
    0.11675E+07        -0.13664E+08         0.00000E+00
    0.00000E+00         0.00000E+00        -0.34466E+07
 
   -0.35755E+07         0.12425E+07         0.00000E+00
    0.12425E+07        -0.13682E+08         0.00000E+00
    0.00000E+00         0.00000E+00        -0.34515E+07
 
   -0.35811E+07         0.13195E+07         0.00000E+00
    0.13195E+07        -0.13699E+08         0.00000E+00
    0.00000E+00         0.00000E+00        -0.34561E+07
 
   -0.35852E+07         0.13984E+07         0.00000E+00
    0.13984E+07        -0.13717E+08         0.00000E+00
    0.00000E+00         0.00000E+00        -0.34604E+07
 
   -0.35879E+07         0.14792E+07         0.00000E+00
    0.14792E+07        -0.13734E+08         0.00000E+00
    0.00000E+00         0.00000E+00        -0.34644E+07
 
   -0.35895E+07         0.15621E+07         0.00000E+00
    0.15621E+07        -0.13752E+08         0.00000E+00
    0.00000E+00         0.00000E+00        -0.34682E+07
 
   -0.35900E+07         0.16469E+07         0.00000E+00
    0.16469E+07        -0.13769E+08         0.00000E+00
    0.00000E+00         0.00000E+00        -0.34718E+07
 
   -0.35894E+07         0.17337E+07         0.00000E+00
    0.17337E+07        -0.13786E+08         0.00000E+00
    0.00000E+00         0.00000E+00        -0.34751E+07
 
   -0.35880E+07         0.18225E+07         0.00000E+00
    0.18225E+07        -0.13803E+08         0.00000E+00
    0.00000E+00         0.00000E+00        -0.34782E+07
 
   -0.35858E+07         0.19133E+07         0.00000E+00
    0.19133E+07        -0.13820E+08         0.00000E+00
    0.00000E+00         0.00000E+00        -0.34811E+07
 
   -0.35829E+07         0.20060E+07         0.00000E+00
    0.20060E+07        -0.13836E+08         0.00000E+00
    0.00000E+00         0.00000E+00        -0.34837E+07
 
   -0.35794E+07         0.21007E+07         0.00000E+00
    0.21007E+07        -0.13852E+08         0.00000E+00
    0.00000E+00         0.00000E+00        -0.34862E+07
 
   -0.35754E+07         0.21974E+07         0.00000E+00
    0.21974E+07        -0.13867E+08         0.00000E+00
    0.00000E+00         0.00000E+00        -0.34885E+07
 
   -0.35710E+07         0.22961E+07         0.00000E+00
    0.22961E+07        -0.13882E+08         0.00000E+00
    0.00000E+00         0.00000E+00        -0.34906E+07
 
   -0.35662E+07         0.23967E+07         0.00000E+00
    0.23967E+07        -0.13896E+08         0.00000E+00
    0.00000E+00         0.00000E+00        -0.34925E+07
 
   -0.35612E+07         0.24993E+07         0.00000E+00
    0.24993E+07        -0.13910E+08         0.00000E+00
    0.00000E+00         0.00000E+00        -0.34942E+07
 
   -0.35560E+07         0.26038E+07         0.00000E+00
    0.26038E+07        -0.13923E+08         0.00000E+00
    0.00000E+00         0.00000E+00        -0.34958E+07
 
   -0.35508E+07         0.27102E+07         0.00000E+00
    0.27102E+07        -0.13936E+08         0.00000E+00
    0.00000E+00         0.00000E+00        -0.34973E+07
 
   -0.35455E+07         0.28184E+07         0.00000E+00
    0.28184E+07        -0.13947E+08         0.00000E+00
    0.00000E+00         0.00000E+00        -0.34986E+07
 
   -0.35403E+07         0.29286E+07         0.00000E+00
    0.29286E+07        -0.13958E+08         0.00000E+00
    0.00000E+00         0.00000E+00        -0.34997E+07
 
   -0.35352E+07         0.30407E+07         0.00000E+00
    0.30407E+07        -0.13968E+08         0.00000E+00
    0.00000E+00         0.00000E+00        -0.35007E+07
 
   -0.35304E+07         0.31545E+07         0.00000E+00
    0.31545E+07        -0.13978E+08         0.00000E+00
    0.00000E+00         0.00000E+00        -0.35016E+07
 
   -0.35257E+07         0.32703E+07         0.00000E+00
    0.32703E+07        -0.13986E+08         0.00000E+00
    0.00000E+00         0.00000E+00        -0.35024E+07
 
   -0.35214E+07         0.33878E+07         0.00000E+00
    0.33878E+07        -0.13994E+08         0.00000E+00
    0.00000E+00         0.00000E+00        -0.35030E+07
 
   -0.35175E+07         0.35071E+07         0.00000E+00
    0.35071E+07        -0.14000E+08         0.00000E+00
    0.00000E+00         0.00000E+00        -0.35035E+07
 
   -0.35140E+07         0.36281E+07         0.00000E+00
    0.36281E+07        -0.14006E+08         0.00000E+00
    0.00000E+00         0.00000E+00        -0.35040E+07
 
   -0.35109E+07         0.37509E+07         0.00000E+00
    0.37509E+07        -0.14010E+08         0.00000E+00
    0.00000E+00         0.00000E+00        -0.35043E+07
 
   -0.35084E+07         0.38755E+07         0.00000E+00
    0.38755E+07        -0.14014E+08         0.00000E+00
    0.00000E+00         0.00000E+00        -0.35045E+07
 
   -0.35065E+07         0.40017E+07         0.00000E+00
    0.40017E+07        -0.14017E+08         0.00000E+00
    0.00000E+00         0.00000E+00        -0.35046E+07
 
   -0.35051E+07         0.41297E+07         0.00000E+00
    0.41297E+07        -0.14018E+08         0.00000E+00
    0.00000E+00         0.00000E+00        -0.35046E+07
 
   -0.36477E+07         0.17171E+05         0.00000E+00
    0.17171E+05        -0.14373E+08         0.00000E+00
    0.00000E+00         0.00000E+00        -0.36041E+07
 
   -0.37064E+07         0.54014E+05         0.00000E+00
    0.54014E+05        -0.14374E+08         0.00000E+00
    0.00000E+00         0.00000E+00        -0.36162E+07
 
   -0.37607E+07         0.92068E+05         0.00000E+00
    0.92068E+05        -0.14378E+08         0.00000E+00
    0.00000E+00         0.00000E+00        -0.36277E+07
 
   -0.38105E+07         0.13143E+06         0.00000E+00
    0.13143E+06        -0.14383E+08         0.00000E+00
    0.00000E+00         0.00000E+00        -0.36387E+07
 
   -0.38561E+07         0.17221E+06         0.00000E+00
    0.17221E+06        -0.14390E+08         0.00000E+00
    0.00000E+00         0.00000E+00        -0.36492E+07
 
   -0.38977E+07         0.21448E+06         0.00000E+00
    0.21448E+06        -0.14398E+08         0.00000E+00
    0.00000E+00         0.00000E+00        -0.36591E+07
 
   -0.39353E+07         0.25834E+06         0.00000E+00
    0.25834E+06        -0.14407E+08         0.00000E+00
    0.00000E+00         0.00000E+00        -0.36685E+07
 
   -0.39691E+07         0.30386E+06         0.00000E+00
    0.30386E+06        -0.14418E+08         0.00000E+00
    0.00000E+00         0.00000E+00        -0.36774E+07
 
   -0.39993E+07         0.35111E+06         0.00000E+00
    0.35111E+06        -0.14430E+08         0.00000E+00
    0.00000E+00         0.00000E+00        -0.36859E+07
 
   -0.40261E+07         0.40016E+06         0.00000E+00
    0.40016E+06        -0.14443E+08         0.00000E+00
    0.00000E+00         0.00000E+00        -0.36938E+07
 
   -0.40495E+07         0.45108E+06         0.00000E+00
    0.45108E+06        -0.14457E+08         0.00000E+00
    0.00000E+00         0.00000E+00        -0.37014E+07
 
   -0.40697E+07         0.50391E+06         0.00000E+00
    0.50391E+06        -0.14472E+08         0.00000E+00
    0.00000E+00         0.00000E+00        -0.37084E+07
 
   -0.40870E+07         0.55872E+06         0.00000E+00
    0.55872E+06        -0.14488E+08         0.00000E+00
    0.00000E+00         0.00000E+00        -0.37151E+07
 
   -0.41014E+07         0.61555E+06         0.00000E+00
    0.61555E+06        -0.14505E+08         0.00000E+00
    0.00000E+00         0.00000E+00        -0.37213E+07
 
   -0.41130E+07         0.67443E+06         0.00000E+00
    0.67443E+06        -0.14523E+08         0.00000E+00
    0.00000E+00         0.00000E+00        -0.37272E+07
 
   -0.41221E+07         0.73542E+06         0.00000E+00
    0.73542E+06        -0.14541E+08         0.00000E+00
    0.00000E+00         0.00000E+00        -0.37327E+07
 
   -0.41288E+07         0.79854E+06         0.00000E+00
    0.79854E+06        -0.14560E+08         0.00000E+00
    0.00000E+00         0.00000E+00        -0.37378E+07
 
   -0.41332E+07         0.86383E+06         0.00000E+00
    0.86383E+06        -0.14579E+08         0.00000E+00
    0.00000E+00         0.00000E+00        -0.37425E+07
 
   -0.41354E+07         0.93130E+06         0.00000E+00
    0.93130E+06        -0.14599E+08         0.00000E+00
    0.00000E+00         0.00000E+00        -0.37469E+07
 
   -0.41356E+07         0.10010E+07         0.00000E+00
    0.10010E+07        -0.14619E+08         0.00000E+00
    0.00000E+00         0.00000E+00        -0.37510E+07
 
   -0.41340E+07         0.10729E+07         0.00000E+00
    0.10729E+07        -0.14640E+08         0.00000E+00
    0.00000E+00         0.00000E+00        -0.37548E+07
 
   -0.41306E+07         0.11471E+07         0.00000E+00
    0.11471E+07        -0.14661E+08         0.00000E+00
    0.00000E+00         0.00000E+00        -0.37583E+07
 
   -0.41256E+07         0.12235E+07         0.00000E+00
    0.12235E+07        -0.14682E+08         0.00000E+00
    0.00000E+00         0.00000E+00        -0.37614E+07
 
   -0.41191E+07         0.13022E+07         0.00000E+00
    0.13022E+07        -0.14703E+08         0.00000E+00
    0.00000E+00         0.00000E+00        -0.37644E+07
 
   -0.41113E+07         0.13831E+07         0.00000E+00
    0.13831E+07        -0.14724E+08         0.00000E+00
    0.00000E+00         0.00000E+00        -0.37670E+07
 
   -0.41023E+07         0.14664E+07         0.00000E+00
    0.14664E+07        -0.14745E+08         0.00000E+00
    0.00000E+00         0.00000E+00        -0.37694E+07
 
   -0.40921E+07         0.15519E+07         0.00000E+00
    0.15519E+07        -0.14766E+08         0.00000E+00
    0.00000E+00         0.00000E+00        -0.37716E+07
 
   -0.40810E+07         0.16397E+07         0.00000E+00
    0.16397E+07        -0.14786E+08         0.00000E+00
    0.00000E+00         0.00000E+00        -0.37735E+07
 
   -0.40689E+07         0.17297E+07         0.00000E+00
    0.17297E+07        -0.14807E+08         0.00000E+00
    0.00000E+00         0.00000E+00        -0.37752E+07
 
   -0.40561E+07         0.18220E+07         0.00000E+00
    0.18220E+07        -0.14827E+08         0.00000E+00
    0.00000E+00         0.00000E+00        -0.37767E+07
 
   -0.40427E+07         0.19166E+07         0.00000E+00
    0.19166E+07        -0.14847E+08         0.00000E+00
    0.00000E+00         0.00000E+00        -0.37780E+07
 
   -0.40287E+07         0.20134E+07         0.00000E+00
    0.20134E+07        -0.14867E+08         0.00000E+00
    0.00000E+00         0.00000E+00        -0.37791E+07
 
   -0.40142E+07         0.21124E+07         0.00000E+00
    0.21124E+07        -0.14886E+08         0.00000E+00
    0.00000E+00         0.00000E+00        -0.37801E+07
 
   -0.39994E+07         0.22136E+07         0.00000E+00
    0.22136E+07        -0.14905E+08         0.00000E+00
    0.00000E+00         0.00000E+00        -0.37809E+07
 
   -0.39843E+07         0.23171E+07         0.00000E+00
    0.23171E+07        -0.14923E+08         0.00000E+00
    0.00000E+00         0.00000E+00        -0.37815E+07
 
   -0.39691E+07         0.24227E+07         0.00000E+00
    0.24227E+07        -0.14941E+08         0.00000E+00
    0.00000E+00         0.00000E+00        -0.37819E+07
 
   -0.39537E+07         0.25304E+07         0.00000E+00
    0.25304E+07        -0.14958E+08         0.00000E+00
    0.00000E+00         0.00000E+00        -0.37823E+07
 
   -0.39384E+07         0.26403E+07         0.00000E+00
    0.26403E+07        -0.14974E+08         0.00000E+00
    0.00000E+00         0.00000E+00        -0.37825E+07
 
   -0.39232E+07         0.27523E+07         0.00000E+00
    0.27523E+07        -0.14989E+08         0.00000E+00
    0.00000E+00         0.00000E+00        -0.37825E+07
 
   -0.39081E+07         0.28664E+07         0.00000E+00
    0.28664E+07        -0.15004E+08         0.00000E+00
    0.00000E+00         0.00000E+00        -0.37825E+07
 
   -0.38933E+07         0.29826E+07         0.00000E+00
    0.29826E+07        -0.15018E+08         0.00000E+00
    0.00000E+00         0.00000E+00        -0.37823E+07
 
   -0.38788E+07         0.31007E+07         0.00000E+00
    0.31007E+07        -0.15031E+08         0.00000E+00
    0.00000E+00         0.00000E+00        -0.37820E+07
 
   -0.38647E+07         0.32209E+07         0.00000E+00
    0.32209E+07        -0.15044E+08         0.00000E+00
    0.00000E+00         0.00000E+00        -0.37817E+07
 
   -0.38510E+07         0.33431E+07         0.00000E+00
    0.33431E+07        -0.15055E+08         0.00000E+00
    0.00000E+00         0.00000E+00        -0.37812E+07
 
   -0.38378E+07         0.34672E+07         0.00000E+00
    0.34672E+07        -0.15065E+08         0.00000E+00
    0.00000E+00         0.00000E+00        -0.37806E+07
 
   -0.38251E+07         0.35932E+07         0.00000E+00
    0.35932E+07        -0.15075E+08         0.00000E+00
    0.00000E+00         0.00000E+00        -0.37800E+07
 
   -0.38131E+07         0.37211E+07         0.00000E+00
    0.37211E+07        -0.15083E+08         0.00000E+00
    0.00000E+00         0.00000E+00        -0.37793E+07
 
   -0.38017E+07         0.38508E+07         0.00000E+00
    0.38508E+07        -0.15091E+08         0.00000E+00
    0.00000E+00         0.00000E+00        -0.37785E+07
 
   -0.37909E+07         0.39824E+07         0.00000E+00
    0.39824E+07        -0.15097E+08         0.00000E+00
    0.00000E+00         0.00000E+00        -0.37776E+07
 
   -0.37809E+07         0.41158E+07         0.00000E+00
    0.41158E+07        -0.15102E+08         0.00000E+00
    0.00000E+00         0.00000E+00        -0.37766E+07
 
   -0.44621E+07         0.12035E+05         0.00000E+00
    0.12035E+05        -0.15345E+08         0.00000E+00
    0.00000E+00         0.00000E+00        -0.39614E+07
 
   -0.45140E+07         0.39572E+05         0.00000E+00
    0.39572E+05        -0.15347E+08         0.00000E+00
    0.00000E+00         0.00000E+00        -0.39723E+07
 
   -0.45609E+07         0.68739E+05         0.00000E+00
    0.68739E+05        -0.15351E+08         0.00000E+00
    0.00000E+00         0.00000E+00        -0.39825E+07
 
   -0.46029E+07         0.99643E+05         0.00000E+00
    0.99643E+05        -0.15357E+08         0.00000E+00
    0.00000E+00         0.00000E+00        -0.39921E+07
 
   -0.46402E+07         0.13238E+06         0.00000E+00
    0.13238E+06        -0.15365E+08         0.00000E+00
    0.00000E+00         0.00000E+00        -0.40011E+07
 
   -0.46730E+07         0.16705E+06         0.00000E+00
    0.16705E+06        -0.15375E+08         0.00000E+00
    0.00000E+00         0.00000E+00        -0.40095E+07
 
   -0.47015E+07         0.20373E+06         0.00000E+00
    0.20373E+06        -0.15386E+08         0.00000E+00
    0.00000E+00         0.00000E+00        -0.40174E+07
 
   -0.47258E+07         0.24249E+06         0.00000E+00
    0.24249E+06        -0.15398E+08         0.00000E+00
    0.00000E+00         0.00000E+00        -0.40248E+07
 
   -0.47461E+07         0.28342E+06         0.00000E+00
    0.28342E+06        -0.15412E+08         0.00000E+00
    0.00000E+00         0.00000E+00        -0.40317E+07
 
   -0.47627E+07         0.32658E+06         0.00000E+00
    0.32658E+06        -0.15427E+08         0.00000E+00
    0.00000E+00         0.00000E+00        -0.40380E+07
 
   -0.47756E+07         0.37202E+06         0.00000E+00
    0.37202E+06        -0.15444E+08         0.00000E+00
    0.00000E+00         0.00000E+00        -0.40439E+07
 
   -0.47851E+07         0.41980E+06         0.00000E+00
    0.41980E+06        -0.15462E+08         0.00000E+00
    0.00000E+00         0.00000E+00        -0.40493E+07
 
   -0.47914E+07         0.46996E+06         0.00000E+00
    0.46996E+06        -0.15480E+08         0.00000E+00
    0.00000E+00         0.00000E+00        -0.40543E+07
 
   -0.47945E+07         0.52256E+06         0.00000E+00
    0.52256E+06        -0.15500E+08         0.00000E+00
    0.00000E+00         0.00000E+00        -0.40589E+07
 
   -0.47948E+07         0.57761E+06         0.00000E+00
    0.57761E+06        -0.15520E+08         0.00000E+00
    0.00000E+00         0.00000E+00        -0.40630E+07
 
   -0.47924E+07         0.63517E+06         0.00000E+00
    0.63517E+06        -0.15542E+08         0.00000E+00
    0.00000E+00         0.00000E+00        -0.40668E+07
 
   -0.47873E+07         0.69525E+06         0.00000E+00
    0.69525E+06        -0.15563E+08         0.00000E+00
    0.00000E+00         0.00000E+00        -0.40702E+07
 
   -0.47799E+07         0.75789E+06         0.00000E+00
    0.75789E+06        -0.15586E+08         0.00000E+00
    0.00000E+00         0.00000E+00        -0.40732E+07
 
   -0.47702E+07         0.82309E+06         0.00000E+00
    0.82309E+06        -0.15609E+08         0.00000E+00
    0.00000E+00         0.00000E+00        -0.40759E+07
 
   -0.47584E+07         0.89087E+06         0.00000E+00
    0.89087E+06        -0.15633E+08         0.00000E+00
    0.00000E+00         0.00000E+00        -0.40782E+07
 
   -0.47447E+07         0.96125E+06         0.00000E+00
    0.96125E+06        -0.15657E+08         0.00000E+00
    0.00000E+00         0.00000E+00        -0.40803E+07
 
   -0.47292E+07         0.10342E+07         0.00000E+00
    0.10342E+07        -0.15681E+08         0.00000E+00
    0.00000E+00         0.00000E+00        -0.40820E+07
 
   -0.47120E+07         0.11098E+07         0.00000E+00
    0.11098E+07        -0.15705E+08         0.00000E+00
    0.00000E+00         0.00000E+00        -0.40835E+07
 
   -0.46934E+07         0.11880E+07         0.00000E+00
    0.11880E+07        -0.15730E+08         0.00000E+00
    0.00000E+00         0.00000E+00        -0.40847E+07
 
   -0.46734E+07         0.12688E+07         0.00000E+00
    0.12688E+07        -0.15755E+08         0.00000E+00
    0.00000E+00         0.00000E+00        -0.40856E+07
 
   -0.46521E+07         0.13522E+07         0.00000E+00
    0.13522E+07        -0.15779E+08         0.00000E+00
    0.00000E+00         0.00000E+00        -0.40863E+07
 
   -0.46298E+07         0.14382E+07         0.00000E+00
    0.14382E+07        -0.15804E+08         0.00000E+00
    0.00000E+00         0.00000E+00        -0.40868E+07
 
   -0.46066E+07         0.15268E+07         0.00000E+00
    0.15268E+07        -0.15829E+08         0.00000E+00
    0.00000E+00         0.00000E+00        -0.40871E+07
 
   -0.45825E+07         0.16179E+07         0.00000E+00
    0.16179E+07        -0.15853E+08         0.00000E+00
    0.00000E+00         0.00000E+00        -0.40871E+07
 
   -0.45577E+07         0.17116E+07         0.00000E+00
    0.17116E+07        -0.15877E+08         0.00000E+00
    0.00000E+00         0.00000E+00        -0.40870E+07
 
   -0.45323E+07         0.18079E+07         0.00000E+00
    0.18079E+07        -0.15901E+08         0.00000E+00
    0.00000E+00         0.00000E+00        -0.40867E+07
 
   -0.45064E+07         0.19067E+07         0.00000E+00
    0.19067E+07        -0.15925E+08         0.00000E+00
    0.00000E+00         0.00000E+00        -0.40862E+07
 
   -0.44802E+07         0.20079E+07         0.00000E+00
    0.20079E+07        -0.15948E+08         0.00000E+00
    0.00000E+00         0.00000E+00        -0.40856E+07
 
   -0.44537E+07         0.21117E+07         0.00000E+00
    0.21117E+07        -0.15971E+08         0.00000E+00
    0.00000E+00         0.00000E+00        -0.40849E+07
 
   -0.44271E+07         0.22178E+07         0.00000E+00
    0.22178E+07        -0.15993E+08         0.00000E+00
    0.00000E+00         0.00000E+00        -0.40840E+07
 
   -0.44005E+07         0.23264E+07         0.00000E+00
    0.23264E+07        -0.16014E+08         0.00000E+00
    0.00000E+00         0.00000E+00        -0.40829E+07
 
   -0.43738E+07         0.24375E+07         0.00000E+00
    0.24375E+07        -0.16035E+08         0.00000E+00
    0.00000E+00         0.00000E+00        -0.40818E+07
 
   -0.43474E+07         0.25508E+07         0.00000E+00
    0.25508E+07        -0.16056E+08         0.00000E+00
    0.00000E+00         0.00000E+00        -0.40806E+07
 
   -0.43211E+07         0.26665E+07         0.00000E+00
    0.26665E+07        -0.16075E+08         0.00000E+00
    0.00000E+00         0.00000E+00        -0.40792E+07
 
   -0.42952E+07         0.27845E+07         0.00000E+00
    0.27845E+07        -0.16094E+08         0.00000E+00
    0.00000E+00         0.00000E+00        -0.40778E+07
 
   -0.42696E+07         0.29048E+07         0.00000E+00
    0.29048E+07        -0.16112E+08         0.00000E+00
    0.00000E+00         0.00000E+00        -0.40763E+07
 
   -0.42446E+07         0.30272E+07         0.00000E+00
    0.30272E+07        -0.16129E+08         0.00000E+00
    0.00000E+00         0.00000E+00        -0.40747E+07
 
   -0.42200E+07         0.31519E+07         0.00000E+00
    0.31519E+07        -0.16145E+08         0.00000E+00
    0.00000E+00         0.00000E+00        -0.40731E+07
 
   -0.41961E+07         0.32787E+07         0.00000E+00
    0.32787E+07        -0.16161E+08         0.00000E+00
    0.00000E+00         0.00000E+00        -0.40714E+07
 
   -0.41729E+07         0.34077E+07         0.00000E+00
    0.34077E+07        -0.16175E+08         0.00000E+00
    0.00000E+00         0.00000E+00        -0.40696E+07
 
   -0.41503E+07         0.35387E+07         0.00000E+00
    0.35387E+07        -0.16189E+08         0.00000E+00
    0.00000E+00         0.00000E+00        -0.40678E+07
 
   -0.41286E+07         0.36717E+07         0.00000E+00
    0.36717E+07        -0.16201E+08         0.00000E+00
    0.00000E+00         0.00000E+00        -0.40659E+07
 
   -0.41077E+07         0.38067E+07         0.00000E+00
    0.38067E+07        -0.16213E+08         0.00000E+00
    0.00000E+00         0.00000E+00        -0.40640E+07
 
   -0.40876E+07         0.39437E+07         0.00000E+00
    0.39437E+07        -0.16223E+08         0.00000E+00
    0.00000E+00         0.00000E+00        -0.40621E+07
 
   -0.40684E+07         0.40825E+07         0.00000E+00
    0.40825E+07        -0.16232E+08         0.00000E+00
    0.00000E+00         0.00000E+00        -0.40601E+07
 
   -0.53661E+07         0.60301E+04         0.00000E+00
    0.60301E+04        -0.16356E+08         0.00000E+00
    0.00000E+00         0.00000E+00        -0.43444E+07
 
   -0.54089E+07         0.22753E+05         0.00000E+00
    0.22753E+05        -0.16358E+08         0.00000E+00
    0.00000E+00         0.00000E+00        -0.43534E+07
 
   -0.54462E+07         0.41620E+05         0.00000E+00
    0.41620E+05        -0.16363E+08         0.00000E+00
    0.00000E+00         0.00000E+00        -0.43618E+07
 
   -0.54780E+07         0.62738E+05         0.00000E+00
    0.62738E+05        -0.16370E+08         0.00000E+00
    0.00000E+00         0.00000E+00        -0.43696E+07
 
   -0.55046E+07         0.86206E+05         0.00000E+00
    0.86206E+05        -0.16379E+08         0.00000E+00
    0.00000E+00         0.00000E+00        -0.43767E+07
 
   -0.55263E+07         0.11211E+06         0.00000E+00
    0.11211E+06        -0.16390E+08         0.00000E+00
    0.00000E+00         0.00000E+00        -0.43832E+07
 
   -0.55433E+07         0.14054E+06         0.00000E+00
    0.14054E+06        -0.16402E+08         0.00000E+00
    0.00000E+00         0.00000E+00        -0.43891E+07
 
   -0.55557E+07         0.17156E+06         0.00000E+00
    0.17156E+06        -0.16417E+08         0.00000E+00
    0.00000E+00         0.00000E+00        -0.43945E+07
 
   -0.55639E+07         0.20525E+06         0.00000E+00
    0.20525E+06        -0.16433E+08         0.00000E+00
    0.00000E+00         0.00000E+00        -0.43993E+07
 
   -0.55679E+07         0.24165E+06         0.00000E+00
    0.24165E+06        -0.16450E+08         0.00000E+00
    0.00000E+00         0.00000E+00        -0.44036E+07
 
   -0.55681E+07         0.28083E+06         0.00000E+00
    0.28083E+06        -0.16469E+08         0.00000E+00
    0.00000E+00         0.00000E+00        -0.44075E+07
 
   -0.55647E+07         0.32282E+06         0.00000E+00
    0.32282E+06        -0.16489E+08         0.00000E+00
    0.00000E+00         0.00000E+00        -0.44108E+07
 
   -0.55577E+07         0.36767E+06         0.00000E+00
    0.36767E+06        -0.16511E+08         0.00000E+00
    0.00000E+00         0.00000E+00        -0.44137E+07
 
   -0.55476E+07         0.41541E+06         0.00000E+00
    0.41541E+06        -0.16533E+08         0.00000E+00
    0.00000E+00         0.00000E+00        -0.44161E+07
 
   -0.55343E+07         0.46607E+06         0.00000E+00
    0.46607E+06        -0.16556E+08         0.00000E+00
    0.00000E+00         0.00000E+00        -0.44181E+07
 
   -0.55182E+07         0.51968E+06         0.00000E+00
    0.51968E+06        -0.16581E+08         0.00000E+00
    0.00000E+00         0.00000E+00        -0.44198E+07
 
   -0.54994E+07         0.57624E+06         0.00000E+00
    0.57624E+06        -0.16606E+08         0.00000E+00
    0.00000E+00         0.00000E+00        -0.44210E+07
 
   -0.54782E+07         0.63577E+06         0.00000E+00
    0.63577E+06        -0.16631E+08         0.00000E+00
    0.00000E+00         0.00000E+00        -0.44219E+07
 
   -0.54546E+07         0.69829E+06         0.00000E+00
    0.69829E+06        -0.16658E+08         0.00000E+00
    0.00000E+00         0.00000E+00        -0.44225E+07
 
   -0.54289E+07         0.76379E+06         0.00000E+00
    0.76379E+06        -0.16685E+08         0.00000E+00
    0.00000E+00         0.00000E+00        -0.44227E+07
 
   -0.54012E+07         0.83228E+06         0.00000E+00
    0.83228E+06        -0.16712E+08         0.00000E+00
    0.00000E+00         0.00000E+00        -0.44226E+07
 
   -0.53717E+07         0.90376E+06         0.00000E+00
    0.90376E+06        -0.16740E+08         0.00000E+00
    0.00000E+00         0.00000E+00        -0.44223E+07
 
   -0.53406E+07         0.97821E+06         0.00000E+00
    0.97821E+06        -0.16768E+08         0.00000E+00
    0.00000E+00         0.00000E+00        -0.44217E+07
 
   -0.53081E+07         0.10556E+07         0.00000E+00
    0.10556E+07        -0.16796E+08         0.00000E+00
    0.00000E+00         0.00000E+00        -0.44208E+07
 
   -0.52742E+07         0.11360E+07         0.00000E+00
    0.11360E+07        -0.16824E+08         0.00000E+00
    0.00000E+00         0.00000E+00        -0.44197E+07
 
   -0.52391E+07         0.12194E+07         0.00000E+00
    0.12194E+07        -0.16853E+08         0.00000E+00
    0.00000E+00         0.00000E+00        -0.44184E+07
 
   -0.52031E+07         0.13056E+07         0.00000E+00
    0.13056E+07        -0.16881E+08         0.00000E+00
    0.00000E+00         0.00000E+00        -0.44168E+07
 
   -0.51661E+07         0.13948E+07         0.00000E+00
    0.13948E+07        -0.16910E+08         0.00000E+00
    0.00000E+00         0.00000E+00        -0.44151E+07
 
   -0.51284E+07         0.14869E+07         0.00000E+00
    0.14869E+07        -0.16938E+08         0.00000E+00
    0.00000E+00         0.00000E+00        -0.44132E+07
 
   -0.50901E+07         0.15818E+07         0.00000E+00
    0.15818E+07        -0.16966E+08         0.00000E+00
    0.00000E+00         0.00000E+00        -0.44112E+07
 
   -0.50514E+07         0.16796E+07         0.00000E+00
    0.16796E+07        -0.16994E+08         0.00000E+00
    0.00000E+00         0.00000E+00        -0.44090E+07
 
   -0.50123E+07         0.17801E+07         0.00000E+00
    0.17801E+07        -0.17021E+08         0.00000E+00
    0.00000E+00         0.00000E+00        -0.44067E+07
 
   -0.49729E+07         0.18835E+07         0.00000E+00
    0.18835E+07        -0.17048E+08         0.00000E+00
    0.00000E+00         0.00000E+00        -0.44042E+07
 
   -0.49335E+07         0.19896E+07         0.00000E+00
    0.19896E+07        -0.17075E+08         0.00000E+00
    0.00000E+00         0.00000E+00        -0.44017E+07
 
   -0.48940E+07         0.20985E+07         0.00000E+00
    0.20985E+07        -0.17101E+08         0.00000E+00
    0.00000E+00         0.00000E+00        -0.43990E+07
 
   -0.48547E+07         0.22100E+07         0.00000E+00
    0.22100E+07        -0.17127E+08         0.00000E+00
    0.00000E+00         0.00000E+00        -0.43963E+07
 
   -0.48155E+07         0.23241E+07         0.00000E+00
    0.23241E+07        -0.17152E+08         0.00000E+00
    0.00000E+00         0.00000E+00        -0.43935E+07
 
   -0.47767E+07         0.24409E+07         0.00000E+00
    0.24409E+07        -0.17176E+08         0.00000E+00
    0.00000E+00         0.00000E+00        -0.43906E+07
 
   -0.47383E+07         0.25602E+07         0.00000E+00
    0.25602E+07        -0.17200E+08         0.00000E+00
    0.00000E+00         0.00000E+00        -0.43877E+07
 
   -0.47005E+07         0.26821E+07         0.00000E+00
    0.26821E+07        -0.17223E+08         0.00000E+00
    0.00000E+00         0.00000E+00        -0.43847E+07
 
   -0.46632E+07         0.28064E+07         0.00000E+00
    0.28064E+07        -0.17245E+08         0.00000E+00
    0.00000E+00         0.00000E+00        -0.43817E+07
 
   -0.46266E+07         0.29332E+07         0.00000E+00
    0.29332E+07        -0.17266E+08         0.00000E+00
    0.00000E+00         0.00000E+00        -0.43786E+07
 
   -0.45907E+07         0.30623E+07         0.00000E+00
    0.30623E+07        -0.17287E+08         0.00000E+00
    0.00000E+00         0.00000E+00        -0.43755E+07
 
   -0.45557E+07         0.31938E+07         0.00000E+00
    0.31938E+07        -0.17307E+08         0.00000E+00
    0.00000E+00         0.00000E+00        -0.43725E+07
 
   -0.45216E+07         0.33276E+07         0.00000E+00
    0.33276E+07        -0.17325E+08         0.00000E+00
    0.00000E+00         0.00000E+00        -0.43694E+07
 
   -0.44884E+07         0.34636E+07         0.00000E+00
    0.34636E+07        -0.17343E+08         0.00000E+00
    0.00000E+00         0.00000E+00        -0.43663E+07
 
   -0.44563E+07         0.36018E+07         0.00000E+00
    0.36018E+07        -0.17359E+08         0.00000E+00
    0.00000E+00         0.00000E+00        -0.43632E+07
 
   -0.44252E+07         0.37421E+07         0.00000E+00
    0.37421E+07        -0.17375E+08         0.00000E+00
    0.00000E+00         0.00000E+00        -0.43601E+07
 
   -0.43953E+07         0.38844E+07         0.00000E+00
    0.38844E+07        -0.17390E+08         0.00000E+00
    0.00000E+00         0.00000E+00        -0.43570E+07
 
   -0.43665E+07         0.40288E+07         0.00000E+00
    0.40288E+07        -0.17403E+08         0.00000E+00
    0.00000E+00         0.00000E+00        -0.43539E+07
 
   -0.63662E+07        -0.89251E+03         0.00000E+00
   -0.89251E+03        -0.17403E+08         0.00000E+00
    0.00000E+00         0.00000E+00        -0.47539E+07
 
   -0.63971E+07         0.34585E+04         0.00000E+00
    0.34585E+04        -0.17406E+08         0.00000E+00
    0.00000E+00         0.00000E+00        -0.47606E+07
 
   -0.64219E+07         0.10580E+05         0.00000E+00
    0.10580E+05        -0.17411E+08         0.00000E+00
    0.00000E+00         0.00000E+00        -0.47667E+07
 
   -0.64407E+07         0.20575E+05         0.00000E+00
    0.20575E+05        -0.17419E+08         0.00000E+00
    0.00000E+00         0.00000E+00        -0.47720E+07
 
   -0.64538E+07         0.33537E+05         0.00000E+00
    0.33537E+05        -0.17429E+08         0.00000E+00
    0.00000E+00         0.00000E+00        -0.47767E+07
 
   -0.64616E+07         0.49547E+05         0.00000E+00
    0.49547E+05        -0.17442E+08         0.00000E+00
    0.00000E+00         0.00000E+00        -0.47807E+07
 
   -0.64644E+07         0.68679E+05         0.00000E+00
    0.68679E+05        -0.17456E+08         0.00000E+00
    0.00000E+00         0.00000E+00        -0.47841E+07
 
   -0.64622E+07         0.90997E+05         0.00000E+00
    0.90997E+05        -0.17472E+08         0.00000E+00
    0.00000E+00         0.00000E+00        -0.47869E+07
 
   -0.64555E+07         0.11656E+06         0.00000E+00
    0.11656E+06        -0.17490E+08         0.00000E+00
    0.00000E+00         0.00000E+00        -0.47891E+07
 
   -0.64445E+07         0.14540E+06         0.00000E+00
    0.14540E+06        -0.17510E+08         0.00000E+00
    0.00000E+00         0.00000E+00        -0.47909E+07
 
   -0.64293E+07         0.17758E+06         0.00000E+00
    0.17758E+06        -0.17531E+08         0.00000E+00
    0.00000E+00         0.00000E+00        -0.47921E+07
 
   -0.64104E+07         0.21312E+06         0.00000E+00
    0.21312E+06        -0.17554E+08         0.00000E+00
    0.00000E+00         0.00000E+00        -0.47928E+07
 
   -0.63878E+07         0.25204E+06         0.00000E+00
    0.25204E+06        -0.17577E+08         0.00000E+00
    0.00000E+00         0.00000E+00        -0.47930E+07
 
   -0.63618E+07         0.29437E+06         0.00000E+00
    0.29437E+06        -0.17602E+08         0.00000E+00
    0.00000E+00         0.00000E+00        -0.47929E+07
 
   -0.63327E+07         0.34012E+06         0.00000E+00
    0.34012E+06        -0.17629E+08         0.00000E+00
    0.00000E+00         0.00000E+00        -0.47923E+07
 
   -0.63007E+07         0.38929E+06         0.00000E+00
    0.38929E+06        -0.17656E+08         0.00000E+00
    0.00000E+00         0.00000E+00        -0.47913E+07
 
   -0.62660E+07         0.44190E+06         0.00000E+00
    0.44190E+06        -0.17684E+08         0.00000E+00
    0.00000E+00         0.00000E+00        -0.47899E+07
 
   -0.62287E+07         0.49793E+06         0.00000E+00
    0.49793E+06        -0.17712E+08         0.00000E+00
    0.00000E+00         0.00000E+00        -0.47882E+07
 
   -0.61891E+07         0.55739E+06         0.00000E+00
    0.55739E+06        -0.17742E+08         0.00000E+00
    0.00000E+00         0.00000E+00        -0.47862E+07
 
   -0.61474E+07         0.62026E+06         0.00000E+00
    0.62026E+06        -0.17772E+08         0.00000E+00
    0.00000E+00         0.00000E+00        -0.47838E+07
 
   -0.61038E+07         0.68654E+06         0.00000E+00
    0.68654E+06        -0.17802E+08         0.00000E+00
    0.00000E+00         0.00000E+00        -0.47812E+07
 
   -0.60584E+07         0.75620E+06         0.00000E+00
    0.75620E+06        -0.17833E+08         0.00000E+00
    0.00000E+00         0.00000E+00        -0.47784E+07
 
   -0.60115E+07         0.82923E+06         0.00000E+00
    0.82923E+06        -0.17865E+08         0.00000E+00
    0.00000E+00         0.00000E+00        -0.47752E+07
 
   -0.59632E+07         0.90561E+06         0.00000E+00
    0.90561E+06        -0.17896E+08         0.00000E+00
    0.00000E+00         0.00000E+00        -0.47719E+07
 
   -0.59137E+07         0.98532E+06         0.00000E+00
    0.98532E+06        -0.17928E+08         0.00000E+00
    0.00000E+00         0.00000E+00        -0.47684E+07
 
   -0.58631E+07         0.10683E+07         0.00000E+00
    0.10683E+07        -0.17960E+08         0.00000E+00
    0.00000E+00         0.00000E+00        -0.47646E+07
 
   -0.58116E+07         0.11546E+07         0.00000E+00
    0.11546E+07        -0.17992E+08         0.00000E+00
    0.00000E+00         0.00000E+00        -0.47607E+07
 
   -0.57593E+07         0.12441E+07         0.00000E+00
    0.12441E+07        -0.18024E+08         0.00000E+00
    0.00000E+00         0.00000E+00        -0.47567E+07
 
   -0.57064E+07         0.13368E+07         0.00000E+00
    0.13368E+07        -0.18056E+08         0.00000E+00
    0.00000E+00         0.00000E+00        -0.47525E+07
 
   -0.56531E+07         0.14328E+07         0.00000E+00
    0.14328E+07        -0.18088E+08         0.00000E+00
    0.00000E+00         0.00000E+00        -0.47482E+07
 
   -0.55995E+07         0.15318E+07         0.00000E+00
    0.15318E+07        -0.18119E+08         0.00000E+00
    0.00000E+00         0.00000E+00        -0.47437E+07
 
   -0.55456E+07         0.16340E+07         0.00000E+00
    0.16340E+07        -0.18151E+08         0.00000E+00
    0.00000E+00         0.00000E+00        -0.47392E+07
 
   -0.54917E+07         0.17392E+07         0.00000E+00
    0.17392E+07        -0.18182E+08         0.00000E+00
    0.00000E+00         0.00000E+00        -0.47347E+07
 
   -0.54379E+07         0.18475E+07         0.00000E+00
    0.18475E+07        -0.18212E+08         0.00000E+00
    0.00000E+00         0.00000E+00        -0.47300E+07
 
   -0.53843E+07         0.19588E+07         0.00000E+00
    0.19588E+07        -0.18242E+08         0.00000E+00
    0.00000E+00         0.00000E+00        -0.47253E+07
 
   -0.53309E+07         0.20730E+07         0.00000E+00
    0.20730E+07        -0.18272E+08         0.00000E+00
    0.00000E+00         0.00000E+00        -0.47206E+07
 
   -0.52781E+07         0.21902E+07         0.00000E+00
    0.21902E+07        -0.18301E+08         0.00000E+00
    0.00000E+00         0.00000E+00        -0.47159E+07
 
   -0.52257E+07         0.23102E+07         0.00000E+00
    0.23102E+07        -0.18330E+08         0.00000E+00
    0.00000E+00         0.00000E+00        -0.47111E+07
 
   -0.51740E+07         0.24330E+07         0.00000E+00
    0.24330E+07        -0.18358E+08         0.00000E+00
    0.00000E+00         0.00000E+00        -0.47064E+07
 
   -0.51230E+07         0.25586E+07         0.00000E+00
    0.25586E+07        -0.18385E+08         0.00000E+00
    0.00000E+00         0.00000E+00        -0.47016E+07
 
   -0.50729E+07         0.26869E+07         0.00000E+00
    0.26869E+07        -0.18412E+08         0.00000E+00
    0.00000E+00         0.00000E+00        -0.46969E+07
 
   -0.50237E+07         0.28179E+07         0.00000E+00
    0.28179E+07        -0.18437E+08         0.00000E+00
    0.00000E+00         0.00000E+00        -0.46922E+07
 
   -0.49755E+07         0.29514E+07         0.00000E+00
    0.29514E+07        -0.18462E+08         0.00000E+00
    0.00000E+00         0.00000E+00        -0.46875E+07
 
   -0.49285E+07         0.30875E+07         0.00000E+00
    0.30875E+07        -0.18486E+08         0.00000E+00
    0.00000E+00         0.00000E+00        -0.46829E+07
 
   -0.48826E+07         0.32261E+07         0.00000E+00
    0.32261E+07        -0.18509E+08         0.00000E+00
    0.00000E+00         0.00000E+00        -0.46783E+07
 
   -0.48380E+07         0.33671E+07         0.00000E+00
    0.33671E+07        -0.18531E+08         0.00000E+00
    0.00000E+00         0.00000E+00        -0.46738E+07
 
   -0.47947E+07         0.35104E+07         0.00000E+00
    0.35104E+07        -0.18552E+08         0.00000E+00
    0.00000E+00         0.00000E+00        -0.46694E+07
 
   -0.47528E+07         0.36560E+07         0.00000E+00
    0.36560E+07        -0.18572E+08         0.00000E+00
    0.00000E+00         0.00000E+00        -0.46650E+07
 
   -0.47124E+07         0.38038E+07         0.00000E+00
    0.38038E+07        -0.18591E+08         0.00000E+00
    0.00000E+00         0.00000E+00        -0.46607E+07
 
   -0.46734E+07         0.39537E+07         0.00000E+00
    0.39537E+07        -0.18609E+08         0.00000E+00
    0.00000E+00         0.00000E+00        -0.46564E+07
 
   -0.74689E+07        -0.87550E+04         0.00000E+00
   -0.87550E+04        -0.18486E+08         0.00000E+00
    0.00000E+00         0.00000E+00        -0.51909E+07
 
   -0.74844E+07        -0.18323E+05         0.00000E+00
   -0.18323E+05        -0.18489E+08         0.00000E+00
    0.00000E+00         0.00000E+00        -0.51946E+07
 
   -0.74932E+07        -0.24361E+05         0.00000E+00
   -0.24361E+05        -0.18495E+08         0.00000E+00
    0.00000E+00         0.00000E+00        -0.51976E+07
 
   -0.74956E+07        -0.26777E+05         0.00000E+00
   -0.26777E+05        -0.18504E+08         0.00000E+00
    0.00000E+00         0.00000E+00        -0.51998E+07
 
   -0.74919E+07        -0.25491E+05         0.00000E+00
   -0.25491E+05        -0.18515E+08         0.00000E+00
    0.00000E+00         0.00000E+00        -0.52014E+07
 
   -0.74826E+07        -0.20434E+05         0.00000E+00
   -0.20434E+05        -0.18529E+08         0.00000E+00
    0.00000E+00         0.00000E+00        -0.52022E+07
 
   -0.74678E+07        -0.11551E+05         0.00000E+00
   -0.11551E+05        -0.18544E+08         0.00000E+00
    0.00000E+00         0.00000E+00        -0.52024E+07
 
   -0.74479E+07         0.12063E+04         0.00000E+00
    0.12063E+04        -0.18562E+08         0.00000E+00
    0.00000E+00         0.00000E+00        -0.52021E+07
 
   -0.74233E+07         0.17874E+05         0.00000E+00
    0.17874E+05        -0.18582E+08         0.00000E+00
    0.00000E+00         0.00000E+00        -0.52011E+07
 
   -0.73941E+07         0.38478E+05         0.00000E+00
    0.38478E+05        -0.18604E+08         0.00000E+00
    0.00000E+00         0.00000E+00        -0.51996E+07
 
   -0.73608E+07         0.63040E+05         0.00000E+00
    0.63040E+05        -0.18627E+08         0.00000E+00
    0.00000E+00         0.00000E+00        -0.51975E+07
 
   -0.73235E+07         0.91569E+05         0.00000E+00
    0.91569E+05        -0.18652E+08         0.00000E+00
    0.00000E+00         0.00000E+00        -0.51950E+07
 
   -0.72825E+07         0.12407E+06         0.00000E+00
    0.12407E+06        -0.18678E+08         0.00000E+00
    0.00000E+00         0.00000E+00        -0.51921E+07
 
   -0.72381E+07         0.16054E+06         0.00000E+00
    0.16054E+06        -0.18705E+08         0.00000E+00
    0.00000E+00         0.00000E+00        -0.51887E+07
 
   -0.71906E+07         0.20097E+06         0.00000E+00
    0.20097E+06        -0.18734E+08         0.00000E+00
    0.00000E+00         0.00000E+00        -0.51849E+07
 
   -0.71402E+07         0.24535E+06         0.00000E+00
    0.24535E+06        -0.18763E+08         0.00000E+00
    0.00000E+00         0.00000E+00        -0.51807E+07
 
   -0.70870E+07         0.29366E+06         0.00000E+00
    0.29366E+06        -0.18794E+08         0.00000E+00
    0.00000E+00         0.00000E+00        -0.51762E+07
 
   -0.70315E+07         0.34587E+06         0.00000E+00
    0.34587E+06        -0.18825E+08         0.00000E+00
    0.00000E+00         0.00000E+00        -0.51713E+07
 
   -0.69737E+07         0.40196E+06         0.00000E+00
    0.40196E+06        -0.18857E+08         0.00000E+00
    0.00000E+00         0.00000E+00        -0.51662E+07
 
   -0.69139E+07         0.46191E+06         0.00000E+00
    0.46191E+06        -0.18890E+08         0.00000E+00
    0.00000E+00         0.00000E+00        -0.51607E+07
 
   -0.68523E+07         0.52568E+06         0.00000E+00
    0.52568E+06        -0.18923E+08         0.00000E+00
    0.00000E+00         0.00000E+00        -0.51551E+07
 
   -0.67891E+07         0.59324E+06         0.00000E+00
    0.59324E+06        -0.18957E+08         0.00000E+00
    0.00000E+00         0.00000E+00        -0.51492E+07
 
   -0.67244E+07         0.66455E+06         0.00000E+00
    0.66455E+06        -0.18991E+08         0.00000E+00
    0.00000E+00         0.00000E+00        -0.51431E+07
 
   -0.66585E+07         0.73958E+06         0.00000E+00
    0.73958E+06        -0.19025E+08         0.00000E+00
    0.00000E+00         0.00000E+00        -0.51368E+07
 
   -0.65915E+07         0.81830E+06         0.00000E+00
    0.81830E+06        -0.19060E+08         0.00000E+00
    0.00000E+00         0.00000E+00        -0.51304E+07
 
   -0.65237E+07         0.90065E+06         0.00000E+00
    0.90065E+06        -0.19095E+08         0.00000E+00
    0.00000E+00         0.00000E+00        -0.51238E+07
 
   -0.64551E+07         0.98662E+06         0.00000E+00
    0.98662E+06        -0.19130E+08         0.00000E+00
    0.00000E+00         0.00000E+00        -0.51171E+07
 
   -0.63859E+07         0.10761E+07         0.00000E+00
    0.10761E+07        -0.19166E+08         0.00000E+00
    0.00000E+00         0.00000E+00        -0.51103E+07
 
   -0.63162E+07         0.11692E+07         0.00000E+00
    0.11692E+07        -0.19201E+08         0.00000E+00
    0.00000E+00         0.00000E+00        -0.51034E+07
 
   -0.62463E+07         0.12658E+07         0.00000E+00
    0.12658E+07        -0.19236E+08         0.00000E+00
    0.00000E+00         0.00000E+00        -0.50964E+07
 
   -0.61763E+07         0.13657E+07         0.00000E+00
    0.13657E+07        -0.19271E+08         0.00000E+00
    0.00000E+00         0.00000E+00        -0.50894E+07
 
   -0.61063E+07         0.14691E+07         0.00000E+00
    0.14691E+07        -0.19306E+08         0.00000E+00
    0.00000E+00         0.00000E+00        -0.50824E+07
 
   -0.60364E+07         0.15759E+07         0.00000E+00
    0.15759E+07        -0.19340E+08         0.00000E+00
    0.00000E+00         0.00000E+00        -0.50753E+07
 
   -0.59668E+07         0.16860E+07         0.00000E+00
    0.16860E+07        -0.19375E+08         0.00000E+00
    0.00000E+00         0.00000E+00        -0.50683E+07
 
   -0.58976E+07         0.17994E+07         0.00000E+00
    0.17994E+07        -0.19409E+08         0.00000E+00
    0.00000E+00         0.00000E+00        -0.50612E+07
 
   -0.58289E+07         0.19160E+07         0.00000E+00
    0.19160E+07        -0.19442E+08         0.00000E+00
    0.00000E+00         0.00000E+00        -0.50542E+07
 
   -0.57609E+07         0.20357E+07         0.00000E+00
    0.20357E+07        -0.19475E+08         0.00000E+00
    0.00000E+00         0.00000E+00        -0.50473E+07
 
   -0.56937E+07         0.21587E+07         0.00000E+00
    0.21587E+07        -0.19508E+08         0.00000E+00
    0.00000E+00         0.00000E+00        -0.50404E+07
 
   -0.56274E+07         0.22847E+07         0.00000E+00
    0.22847E+07        -0.19540E+08         0.00000E+00
    0.00000E+00         0.00000E+00        -0.50335E+07
 
   -0.55620E+07         0.24137E+07         0.00000E+00
    0.24137E+07        -0.19572E+08         0.00000E+00
    0.00000E+00         0.00000E+00        -0.50267E+07
 
   -0.54979E+07         0.25457E+07         0.00000E+00
    0.25457E+07        -0.19603E+08         0.00000E+00
    0.00000E+00         0.00000E+00        -0.50201E+07
 
   -0.54349E+07         0.26806E+07         0.00000E+00
    0.26806E+07        -0.19633E+08         0.00000E+00
    0.00000E+00         0.00000E+00        -0.50135E+07
 
   -0.53733E+07         0.28184E+07         0.00000E+00
    0.28184E+07        -0.19662E+08         0.00000E+00
    0.00000E+00         0.00000E+00        -0.50070E+07
 
   -0.53132E+07         0.29589E+07         0.00000E+00
    0.29589E+07        -0.19690E+08         0.00000E+00
    0.00000E+00         0.00000E+00        -0.50007E+07
 
   -0.52545E+07         0.31022E+07         0.00000E+00
    0.31022E+07        -0.19718E+08         0.00000E+00
    0.00000E+00         0.00000E+00        -0.49945E+07
 
   -0.51975E+07         0.32480E+07         0.00000E+00
    0.32480E+07        -0.19745E+08         0.00000E+00
    0.00000E+00         0.00000E+00        -0.49884E+07
 
   -0.51422E+07         0.33965E+07         0.00000E+00
    0.33965E+07        -0.19770E+08         0.00000E+00
    0.00000E+00         0.00000E+00        -0.49825E+07
 
   -0.50887E+07         0.35473E+07         0.00000E+00
    0.35473E+07        -0.19795E+08         0.00000E+00
    0.00000E+00         0.00000E+00        -0.49767E+07
 
   -0.50371E+07         0.37006E+07         0.00000E+00
    0.37006E+07        -0.19818E+08         0.00000E+00
    0.00000E+00         0.00000E+00        -0.49711E+07
 
   -0.49873E+07         0.38561E+07         0.00000E+00
    0.38561E+07        -0.19841E+08         0.00000E+00
    0.00000E+00         0.00000E+00        -0.49656E+07
 
   -0.86800E+07        -0.17543E+05         0.00000E+00
   -0.17543E+05        -0.19601E+08         0.00000E+00
    0.00000E+00         0.00000E+00        -0.56562E+07
 
   -0.86758E+07        -0.42485E+05         0.00000E+00
   -0.42485E+05        -0.19605E+08         0.00000E+00
    0.00000E+00         0.00000E+00        -0.56561E+07
 
   -0.86645E+07        -0.62979E+05         0.00000E+00
   -0.62979E+05        -0.19611E+08         0.00000E+00
    0.00000E+00         0.00000E+00        -0.56552E+07
 
   -0.86464E+07        -0.78953E+05         0.00000E+00
   -0.78953E+05        -0.19621E+08         0.00000E+00
    0.00000E+00         0.00000E+00        -0.56535E+07
 
   -0.86220E+07        -0.90350E+05         0.00000E+00
   -0.90350E+05        -0.19633E+08         0.00000E+00
    0.00000E+00         0.00000E+00        -0.56510E+07
 
   -0.85916E+07        -0.97125E+05         0.00000E+00
   -0.97125E+05        -0.19648E+08         0.00000E+00
    0.00000E+00         0.00000E+00        -0.56479E+07
 
   -0.85556E+07        -0.99250E+05         0.00000E+00
   -0.99250E+05        -0.19665E+08         0.00000E+00
    0.00000E+00         0.00000E+00        -0.56441E+07
 
   -0.85144E+07        -0.96705E+05         0.00000E+00
   -0.96705E+05        -0.19684E+08         0.00000E+00
    0.00000E+00         0.00000E+00        -0.56398E+07
 
   -0.84683E+07        -0.89485E+05         0.00000E+00
   -0.89485E+05        -0.19706E+08         0.00000E+00
    0.00000E+00         0.00000E+00        -0.56348E+07
 
   -0.84176E+07        -0.77593E+05         0.00000E+00
   -0.77593E+05        -0.19729E+08         0.00000E+00
    0.00000E+00         0.00000E+00        -0.56293E+07
 
   -0.83627E+07        -0.61042E+05         0.00000E+00
   -0.61042E+05        -0.19754E+08         0.00000E+00
    0.00000E+00         0.00000E+00        -0.56233E+07
 
   -0.83040E+07        -0.39854E+05         0.00000E+00
   -0.39854E+05        -0.19780E+08         0.00000E+00
    0.00000E+00         0.00000E+00        -0.56168E+07
 
   -0.82416E+07        -0.14058E+05         0.00000E+00
   -0.14058E+05        -0.19808E+08         0.00000E+00
    0.00000E+00         0.00000E+00        -0.56099E+07
 
   -0.81760E+07         0.16310E+05         0.00000E+00
    0.16310E+05        -0.19837E+08         0.00000E+00
    0.00000E+00         0.00000E+00        -0.56026E+07
 
   -0.81073E+07         0.51209E+05         0.00000E+00
    0.51209E+05        -0.19867E+08         0.00000E+00
    0.00000E+00         0.00000E+00        -0.55949E+07
 
   -0.80359E+07         0.90594E+05         0.00000E+00
    0.90594E+05        -0.19899E+08         0.00000E+00
    0.00000E+00         0.00000E+00        -0.55869E+07
 
   -0.79620E+07         0.13441E+06         0.00000E+00
    0.13441E+06        -0.19931E+08         0.00000E+00
    0.00000E+00         0.00000E+00        -0.55786E+07
 
   -0.78858E+07         0.18262E+06         0.00000E+00
    0.18262E+06        -0.19964E+08         0.00000E+00
    0.00000E+00         0.00000E+00        -0.55700E+07
 
   -0.78076E+07         0.23515E+06         0.00000E+00
    0.23515E+06        -0.19998E+08         0.00000E+00
    0.00000E+00         0.00000E+00        -0.55611E+07
 
   -0.77276E+07         0.29196E+06         0.00000E+00
    0.29196E+06        -0.20032E+08         0.00000E+00
    0.00000E+00         0.00000E+00        -0.55520E+07
 
   -0.76460E+07         0.35299E+06         0.00000E+00
    0.35299E+06        -0.20068E+08         0.00000E+00
    0.00000E+00         0.00000E+00        -0.55427E+07
 
   -0.75630E+07         0.41819E+06         0.00000E+00
    0.41819E+06        -0.20103E+08         0.00000E+00
    0.00000E+00         0.00000E+00        -0.55332E+07
 
   -0.74788E+07         0.48749E+06         0.00000E+00
    0.48749E+06        -0.20139E+08         0.00000E+00
    0.00000E+00         0.00000E+00        -0.55236E+07
 
   -0.73936E+07         0.56084E+06         0.00000E+00
    0.56084E+06        -0.20176E+08         0.00000E+00
    0.00000E+00         0.00000E+00        -0.55139E+07
 
   -0.73075E+07         0.63820E+06         0.00000E+00
    0.63820E+06        -0.20213E+08         0.00000E+00
    0.00000E+00         0.00000E+00        -0.55041E+07
 
   -0.72207E+07         0.71950E+06         0.00000E+00
    0.71950E+06        -0.20250E+08         0.00000E+00
    0.00000E+00         0.00000E+00        -0.54941E+07
 
   -0.71335E+07         0.80471E+06         0.00000E+00
    0.80471E+06        -0.20287E+08         0.00000E+00
    0.00000E+00         0.00000E+00        -0.54842E+07
 
   -0.70458E+07         0.89377E+06         0.00000E+00
    0.89377E+06        -0.20325E+08         0.00000E+00
    0.00000E+00         0.00000E+00        -0.54741E+07
 
   -0.69580E+07         0.98664E+06         0.00000E+00
    0.98664E+06        -0.20363E+08         0.00000E+00
    0.00000E+00         0.00000E+00        -0.54641E+07
 
   -0.68700E+07         0.10833E+07         0.00000E+00
    0.10833E+07        -0.20400E+08         0.00000E+00
    0.00000E+00         0.00000E+00        -0.54541E+07
 
   -0.67822E+07         0.11836E+07         0.00000E+00
    0.11836E+07        -0.20438E+08         0.00000E+00
    0.00000E+00         0.00000E+00        -0.54441E+07
 
   -0.66945E+07         0.12876E+07         0.00000E+00
    0.12876E+07        -0.20476E+08         0.00000E+00
    0.00000E+00         0.00000E+00        -0.54341E+07
 
   -0.66072E+07         0.13953E+07         0.00000E+00
    0.13953E+07        -0.20514E+08         0.00000E+00
    0.00000E+00         0.00000E+00        -0.54242E+07
 
   -0.65205E+07         0.15066E+07         0.00000E+00
    0.15066E+07        -0.20551E+08         0.00000E+00
    0.00000E+00         0.00000E+00        -0.54144E+07
 
   -0.64343E+07         0.16214E+07         0.00000E+00
    0.16214E+07        -0.20589E+08         0.00000E+00
    0.00000E+00         0.00000E+00        -0.54046E+07
 
   -0.63489E+07         0.17397E+07         0.00000E+00
    0.17397E+07        -0.20626E+08         0.00000E+00
    0.00000E+00         0.00000E+00        -0.53950E+07
 
   -0.62644E+07         0.18615E+07         0.00000E+00
    0.18615E+07        -0.20663E+08         0.00000E+00
    0.00000E+00         0.00000E+00        -0.53855E+07
 
   -0.61809E+07         0.19867E+07         0.00000E+00
    0.19867E+07        -0.20700E+08         0.00000E+00
    0.00000E+00         0.00000E+00        -0.53761E+07
 
   -0.60985E+07         0.21153E+07         0.00000E+00
    0.21153E+07        -0.20736E+08         0.00000E+00
    0.00000E+00         0.00000E+00        -0.53669E+07
 
   -0.60175E+07         0.22473E+07         0.00000E+00
    0.22473E+07        -0.20771E+08         0.00000E+00
    0.00000E+00         0.00000E+00        -0.53578E+07
 
   -0.59379E+07         0.23825E+07         0.00000E+00
    0.23825E+07        -0.20807E+08         0.00000E+00
    0.00000E+00         0.00000E+00        -0.53489E+07
 
   -0.58598E+07         0.25209E+07         0.00000E+00
    0.25209E+07        -0.20841E+08         0.00000E+00
    0.00000E+00         0.00000E+00        -0.53402E+07
 
   -0.57834E+07         0.26624E+07         0.00000E+00
    0.26624E+07        -0.20875E+08         0.00000E+00
    0.00000E+00         0.00000E+00        -0.53317E+07
 
   -0.57088E+07         0.28071E+07         0.00000E+00
    0.28071E+07        -0.20908E+08         0.00000E+00
    0.00000E+00         0.00000E+00        -0.53234E+07
 
   -0.56361E+07         0.29547E+07         0.00000E+00
    0.29547E+07        -0.20941E+08         0.00000E+00
    0.00000E+00         0.00000E+00        -0.53154E+07
 
   -0.55655E+07         0.31053E+07         0.00000E+00
    0.31053E+07        -0.20972E+08         0.00000E+00
    0.00000E+00         0.00000E+00        -0.53076E+07
 
   -0.54970E+07         0.32586E+07         0.00000E+00
    0.32586E+07        -0.21003E+08         0.00000E+00
    0.00000E+00         0.00000E+00        -0.53000E+07
 
   -0.54308E+07         0.34147E+07         0.00000E+00
    0.34147E+07        -0.21033E+08         0.00000E+00
    0.00000E+00         0.00000E+00        -0.52927E+07
 
   -0.53670E+07         0.35735E+07         0.00000E+00
    0.35735E+07        -0.21061E+08         0.00000E+00
    0.00000E+00         0.00000E+00        -0.52856E+07
 
   -0.53056E+07         0.37347E+07         0.00000E+00
    0.37347E+07        -0.21089E+08         0.00000E+00
    0.00000E+00         0.00000E+00        -0.52788E+07
 
   -0.10004E+08        -0.27196E+05         0.00000E+00
   -0.27196E+05        -0.20747E+08         0.00000E+00
    0.00000E+00         0.00000E+00        -0.61503E+07
 
   -0.99754E+07        -0.68768E+05         0.00000E+00
   -0.68768E+05        -0.20751E+08         0.00000E+00
    0.00000E+00         0.00000E+00        -0.61453E+07
 
   -0.99390E+07        -0.10478E+06         0.00000E+00
   -0.10478E+06        -0.20758E+08         0.00000E+00
    0.00000E+00         0.00000E+00        -0.61394E+07
 
   -0.98956E+07        -0.13520E+06         0.00000E+00
   -0.13520E+06        -0.20768E+08         0.00000E+00
    0.00000E+00         0.00000E+00        -0.61328E+07
 
   -0.98457E+07        -0.16000E+06         0.00000E+00
   -0.16000E+06        -0.20781E+08         0.00000E+00
    0.00000E+00         0.00000E+00        -0.61254E+07
 
   -0.97897E+07        -0.17917E+06         0.00000E+00
   -0.17917E+06        -0.20797E+08         0.00000E+00
    0.00000E+00         0.00000E+00        -0.61174E+07
 
   -0.97281E+07        -0.19273E+06         0.00000E+00
   -0.19273E+06        -0.20815E+08         0.00000E+00
    0.00000E+00         0.00000E+00        -0.61086E+07
 
   -0.96613E+07        -0.20070E+06         0.00000E+00
   -0.20070E+06        -0.20835E+08         0.00000E+00
    0.00000E+00         0.00000E+00        -0.60993E+07
 
   -0.95897E+07        -0.20312E+06         0.00000E+00
   -0.20312E+06        -0.20858E+08         0.00000E+00
    0.00000E+00         0.00000E+00        -0.60895E+07
 
   -0.95138E+07        -0.20005E+06         0.00000E+00
   -0.20005E+06        -0.20882E+08         0.00000E+00
    0.00000E+00         0.00000E+00        -0.60791E+07
 
   -0.94338E+07        -0.19154E+06         0.00000E+00
   -0.19154E+06        -0.20908E+08         0.00000E+00
    0.00000E+00         0.00000E+00        -0.60683E+07
 
   -0.93502E+07        -0.17767E+06         0.00000E+00
   -0.17767E+06        -0.20935E+08         0.00000E+00
    0.00000E+00         0.00000E+00        -0.60570E+07
 
   -0.92633E+07        -0.15852E+06         0.00000E+00
   -0.15852E+06        -0.20963E+08         0.00000E+00
    0.00000E+00         0.00000E+00        -0.60453E+07
 
   -0.91734E+07        -0.13417E+06         0.00000E+00
   -0.13417E+06        -0.20993E+08         0.00000E+00
    0.00000E+00         0.00000E+00        -0.60333E+07
 
   -0.90809E+07        -0.10472E+06         0.00000E+00
   -0.10472E+06        -0.21024E+08         0.00000E+00
    0.00000E+00         0.00000E+00        -0.60210E+07
 
   -0.89859E+07        -0.70245E+05         0.00000E+00
   -0.70245E+05        -0.21056E+08         0.00000E+00
    0.00000E+00         0.00000E+00        -0.60084E+07
 
   -0.88888E+07        -0.30854E+05         0.00000E+00
   -0.30854E+05        -0.21089E+08         0.00000E+00
    0.00000E+00         0.00000E+00        -0.59955E+07
 
   -0.87897E+07         0.13361E+05         0.00000E+00
    0.13361E+05        -0.21122E+08         0.00000E+00
    0.00000E+00         0.00000E+00        -0.59824E+07
 
   -0.86891E+07         0.62307E+05         0.00000E+00
    0.62307E+05        -0.21157E+08         0.00000E+00
    0.00000E+00         0.00000E+00        -0.59692E+07
 
   -0.85870E+07         0.11589E+06         0.00000E+00
    0.11589E+06        -0.21192E+08         0.00000E+00
    0.00000E+00         0.00000E+00        -0.59557E+07
 
   -0.84836E+07         0.17403E+06         0.00000E+00
    0.17403E+06        -0.21227E+08         0.00000E+00
    0.00000E+00         0.00000E+00        -0.59422E+07
 
   -0.83792E+07         0.23662E+06         0.00000E+00
    0.23662E+06        -0.21264E+08         0.00000E+00
    0.00000E+00         0.00000E+00        -0.59285E+07
 
   -0.82739E+07         0.30361E+06         0.00000E+00
    0.30361E+06        -0.21300E+08         0.00000E+00
    0.00000E+00         0.00000E+00        -0.59148E+07
 
   -0.81679E+07         0.37490E+06         0.00000E+00
    0.37490E+06        -0.21337E+08         0.00000E+00
    0.00000E+00         0.00000E+00        -0.59011E+07
 
   -0.80614E+07         0.45042E+06         0.00000E+00
    0.45042E+06        -0.21375E+08         0.00000E+00
    0.00000E+00         0.00000E+00        -0.58873E+07
 
   -0.79544E+07         0.53012E+06         0.00000E+00
    0.53012E+06        -0.21413E+08         0.00000E+00
    0.00000E+00         0.00000E+00        -0.58735E+07
 
   -0.78472E+07         0.61393E+06         0.00000E+00
    0.61393E+06        -0.21451E+08         0.00000E+00
    0.00000E+00         0.00000E+00        -0.58597E+07
 
   -0.77399E+07         0.70180E+06         0.00000E+00
    0.70180E+06        -0.21490E+08         0.00000E+00
    0.00000E+00         0.00000E+00        -0.58460E+07
 
   -0.76326E+07         0.79368E+06         0.00000E+00
    0.79368E+06        -0.21529E+08         0.00000E+00
    0.00000E+00         0.00000E+00        -0.58324E+07
 
   -0.75254E+07         0.88953E+06         0.00000E+00
    0.88953E+06        -0.21569E+08         0.00000E+00
    0.00000E+00         0.00000E+00        -0.58188E+07
 
   -0.74185E+07         0.98931E+06         0.00000E+00
    0.98931E+06        -0.21608E+08         0.00000E+00
    0.00000E+00         0.00000E+00        -0.58053E+07
 
   -0.73120E+07         0.10930E+07         0.00000E+00
    0.10930E+07        -0.21648E+08         0.00000E+00
    0.00000E+00         0.00000E+00        -0.57920E+07
 
   -0.72061E+07         0.12005E+07         0.00000E+00
    0.12005E+07        -0.21688E+08         0.00000E+00
    0.00000E+00         0.00000E+00        -0.57788E+07
 
   -0.71008E+07         0.13119E+07         0.00000E+00
    0.13119E+07        -0.21728E+08         0.00000E+00
    0.00000E+00         0.00000E+00        -0.57658E+07
 
   -0.69963E+07         0.14271E+07         0.00000E+00
    0.14271E+07        -0.21769E+08         0.00000E+00
    0.00000E+00         0.00000E+00        -0.57530E+07
 
   -0.68927E+07         0.15461E+07         0.00000E+00
    0.15461E+07        -0.21809E+08         0.00000E+00
    0.00000E+00         0.00000E+00        -0.57403E+07
 
   -0.67902E+07         0.16688E+07         0.00000E+00
    0.16688E+07        -0.21849E+08         0.00000E+00
    0.00000E+00         0.00000E+00        -0.57279E+07
 
   -0.66889E+07         0.17953E+07         0.00000E+00
    0.17953E+07        -0.21889E+08         0.00000E+00
    0.00000E+00         0.00000E+00        -0.57157E+07
 
   -0.65890E+07         0.19255E+07         0.00000E+00
    0.19255E+07        -0.21930E+08         0.00000E+00
    0.00000E+00         0.00000E+00        -0.57037E+07
 
   -0.64906E+07         0.20593E+07         0.00000E+00
    0.20593E+07        -0.21969E+08         0.00000E+00
    0.00000E+00         0.00000E+00        -0.56920E+07
 
   -0.63939E+07         0.21968E+07         0.00000E+00
    0.21968E+07        -0.22009E+08         0.00000E+00
    0.00000E+00         0.00000E+00        -0.56806E+07
 
   -0.62990E+07         0.23378E+07         0.00000E+00
    0.23378E+07        -0.22048E+08         0.00000E+00
    0.00000E+00         0.00000E+00        -0.56695E+07
 
   -0.62061E+07         0.24824E+07         0.00000E+00
    0.24824E+07        -0.22087E+08         0.00000E+00
    0.00000E+00         0.00000E+00        -0.56586E+07
 
   -0.61154E+07         0.26305E+07         0.00000E+00
    0.26305E+07        -0.22125E+08         0.00000E+00
    0.00000E+00         0.00000E+00        -0.56482E+07
 
   -0.60269E+07         0.27820E+07         0.00000E+00
    0.27820E+07        -0.22163E+08         0.00000E+00
    0.00000E+00         0.00000E+00        -0.56380E+07
 
   -0.59410E+07         0.29367E+07         0.00000E+00
    0.29367E+07        -0.22200E+08         0.00000E+00
    0.00000E+00         0.00000E+00        -0.56282E+07
 
   -0.58577E+07         0.30948E+07         0.00000E+00
    0.30948E+07        -0.22236E+08         0.00000E+00
    0.00000E+00         0.00000E+00        -0.56187E+07
 
   -0.57771E+07         0.32559E+07         0.00000E+00
    0.32559E+07        -0.22271E+08         0.00000E+00
    0.00000E+00         0.00000E+00        -0.56097E+07
 
   -0.56996E+07         0.34200E+07         0.00000E+00
    0.34200E+07        -0.22305E+08         0.00000E+00
    0.00000E+00         0.00000E+00        -0.56010E+07
 
   -0.56251E+07         0.35871E+07         0.00000E+00
    0.35871E+07        -0.22338E+08         0.00000E+00
    0.00000E+00         0.00000E+00        -0.55927E+07
 
   -0.11445E+08        -0.37612E+05         0.00000E+00
   -0.37612E+05        -0.21921E+08         0.00000E+00
    0.00000E+00         0.00000E+00        -0.66733E+07
 
   -0.11385E+08        -0.96739E+05         0.00000E+00
   -0.96739E+05        -0.21925E+08         0.00000E+00
    0.00000E+00         0.00000E+00        -0.66621E+07
 
   -0.11318E+08        -0.14896E+06         0.00000E+00
   -0.14896E+06        -0.21933E+08         0.00000E+00
    0.00000E+00         0.00000E+00        -0.66501E+07
 
   -0.11243E+08        -0.19428E+06         0.00000E+00
   -0.19428E+06        -0.21943E+08         0.00000E+00
    0.00000E+00         0.00000E+00        -0.66373E+07
 
   -0.11162E+08        -0.23272E+06         0.00000E+00
   -0.23272E+06        -0.21957E+08         0.00000E+00
    0.00000E+00         0.00000E+00        -0.66238E+07
 
   -0.11075E+08        -0.26435E+06         0.00000E+00
   -0.26435E+06        -0.21973E+08         0.00000E+00
    0.00000E+00         0.00000E+00        -0.66096E+07
 
   -0.10983E+08        -0.28923E+06         0.00000E+00
   -0.28923E+06        -0.21991E+08         0.00000E+00
    0.00000E+00         0.00000E+00        -0.65949E+07
 
   -0.10886E+08        -0.30746E+06         0.00000E+00
   -0.30746E+06        -0.22012E+08         0.00000E+00
    0.00000E+00         0.00000E+00        -0.65795E+07
 
   -0.10784E+08        -0.31915E+06         0.00000E+00
   -0.31915E+06        -0.22034E+08         0.00000E+00
    0.00000E+00         0.00000E+00        -0.65637E+07
 
   -0.10679E+08        -0.32442E+06         0.00000E+00
   -0.32442E+06        -0.22058E+08         0.00000E+00
    0.00000E+00         0.00000E+00        -0.65474E+07
 
   -0.10570E+08        -0.32342E+06         0.00000E+00
   -0.32342E+06        -0.22083E+08         0.00000E+00
    0.00000E+00         0.00000E+00        -0.65307E+07
 
   -0.10458E+08        -0.31629E+06         0.00000E+00
   -0.31629E+06        -0.22110E+08         0.00000E+00
    0.00000E+00         0.00000E+00        -0.65136E+07
 
   -0.10343E+08        -0.30318E+06         0.00000E+00
   -0.30318E+06        -0.22138E+08         0.00000E+00
    0.00000E+00         0.00000E+00        -0.64963E+07
 
   -0.10226E+08        -0.28427E+06         0.00000E+00
   -0.28427E+06        -0.22167E+08         0.00000E+00
    0.00000E+00         0.00000E+00        -0.64787E+07
 
   -0.10107E+08        -0.25971E+06         0.00000E+00
   -0.25971E+06        -0.22197E+08         0.00000E+00
    0.00000E+00         0.00000E+00        -0.64608E+07
 
   -0.99862E+07        -0.22966E+06         0.00000E+00
   -0.22966E+06        -0.22228E+08         0.00000E+00
    0.00000E+00         0.00000E+00        -0.64427E+07
 
   -0.98637E+07        -0.19429E+06         0.00000E+00
   -0.19429E+06        -0.22259E+08         0.00000E+00
    0.00000E+00         0.00000E+00        -0.64245E+07
 
   -0.97400E+07        -0.15374E+06         0.00000E+00
   -0.15374E+06        -0.22291E+08         0.00000E+00
    0.00000E+00         0.00000E+00        -0.64062E+07
 
   -0.96152E+07        -0.10818E+06         0.00000E+00
   -0.10818E+06        -0.22324E+08         0.00000E+00
    0.00000E+00         0.00000E+00        -0.63878E+07
 
   -0.94896E+07        -0.57742E+05         0.00000E+00
   -0.57742E+05        -0.22357E+08         0.00000E+00
    0.00000E+00         0.00000E+00        -0.63694E+07
 
   -0.93632E+07        -0.25582E+04         0.00000E+00
   -0.25582E+04        -0.22391E+08         0.00000E+00
    0.00000E+00         0.00000E+00        -0.63509E+07
 
   -0.92363E+07         0.57245E+05         0.00000E+00
    0.57245E+05        -0.22426E+08         0.00000E+00
    0.00000E+00         0.00000E+00        -0.63324E+07
 
   -0.91090E+07         0.12156E+06         0.00000E+00
    0.12156E+06        -0.22461E+08         0.00000E+00
    0.00000E+00         0.00000E+00        -0.63140E+07
 
   -0.89814E+07         0.19028E+06         0.00000E+00
    0.19028E+06        -0.22497E+08         0.00000E+00
    0.00000E+00         0.00000E+00        -0.62956E+07
 
   -0.88536E+07         0.26331E+06         0.00000E+00
    0.26331E+06        -0.22533E+08         0.00000E+00
    0.00000E+00         0.00000E+00        -0.62773E+07
 
   -0.87257E+07         0.34059E+06         0.00000E+00
    0.34059E+06        -0.22570E+08         0.00000E+00
    0.00000E+00         0.00000E+00        -0.62591E+07
 
   -0.85979E+07         0.42205E+06         0.00000E+00
    0.42205E+06        -0.22607E+08         0.00000E+00
    0.00000E+00         0.00000E+00        -0.62411E+07
 
   -0.84702E+07         0.50763E+06         0.00000E+00
    0.50763E+06        -0.22646E+08         0.00000E+00
    0.00000E+00         0.00000E+00        -0.62231E+07
 
   -0.83427E+07         0.59730E+06         0.00000E+00
    0.59730E+06        -0.22684E+08         0.00000E+00
    0.00000E+00         0.00000E+00        -0.62054E+07
 
   -0.82155E+07         0.69101E+06         0.00000E+00
    0.69101E+06        -0.22724E+08         0.00000E+00
    0.00000E+00         0.00000E+00        -0.61878E+07
 
   -0.80887E+07         0.78876E+06         0.00000E+00
    0.78876E+06        -0.22763E+08         0.00000E+00
    0.00000E+00         0.00000E+00        -0.61704E+07
 
   -0.79625E+07         0.89053E+06         0.00000E+00
    0.89053E+06        -0.22804E+08         0.00000E+00
    0.00000E+00         0.00000E+00        -0.61533E+07
 
   -0.78368E+07         0.99630E+06         0.00000E+00
    0.99630E+06        -0.22845E+08         0.00000E+00
    0.00000E+00         0.00000E+00        -0.61364E+07
 
   -0.77119E+07         0.11061E+07         0.00000E+00
    0.11061E+07        -0.22887E+08         0.00000E+00
    0.00000E+00         0.00000E+00        -0.61197E+07
 
   -0.75878E+07         0.12199E+07         0.00000E+00
    0.12199E+07        -0.22929E+08         0.00000E+00
    0.00000E+00         0.00000E+00        -0.61034E+07
 
   -0.74647E+07         0.13378E+07         0.00000E+00
    0.13378E+07        -0.22972E+08         0.00000E+00
    0.00000E+00         0.00000E+00        -0.60873E+07
 
   -0.73427E+07         0.14597E+07         0.00000E+00
    0.14597E+07        -0.23015E+08         0.00000E+00
    0.00000E+00         0.00000E+00        -0.60715E+07
 
   -0.72220E+07         0.15856E+07         0.00000E+00
    0.15856E+07        -0.23058E+08         0.00000E+00
    0.00000E+00         0.00000E+00        -0.60561E+07
 
   -0.71027E+07         0.17156E+07         0.00000E+00
    0.17156E+07        -0.23102E+08         0.00000E+00
    0.00000E+00         0.00000E+00        -0.60410E+07
 
   -0.69851E+07         0.18497E+07         0.00000E+00
    0.18497E+07        -0.23146E+08         0.00000E+00
    0.00000E+00         0.00000E+00        -0.60263E+07
 
   -0.68692E+07         0.19879E+07         0.00000E+00
    0.19879E+07        -0.23190E+08         0.00000E+00
    0.00000E+00         0.00000E+00        -0.60119E+07
 
   -0.67553E+07         0.21302E+07         0.00000E+00
    0.21302E+07        -0.23235E+08         0.00000E+00
    0.00000E+00         0.00000E+00        -0.59980E+07
 
   -0.66436E+07         0.22764E+07         0.00000E+00
    0.22764E+07        -0.23279E+08         0.00000E+00
    0.00000E+00         0.00000E+00        -0.59845E+07
 
   -0.65343E+07         0.24268E+07         0.00000E+00
    0.24268E+07        -0.23323E+08         0.00000E+00
    0.00000E+00         0.00000E+00        -0.59714E+07
 
   -0.64277E+07         0.25810E+07         0.00000E+00
    0.25810E+07        -0.23366E+08         0.00000E+00
    0.00000E+00         0.00000E+00        -0.59588E+07
 
   -0.63239E+07         0.27392E+07         0.00000E+00
    0.27392E+07        -0.23409E+08         0.00000E+00
    0.00000E+00         0.00000E+00        -0.59467E+07
 
   -0.62233E+07         0.29012E+07         0.00000E+00
    0.29012E+07        -0.23452E+08         0.00000E+00
    0.00000E+00         0.00000E+00        -0.59350E+07
 
   -0.61259E+07         0.30670E+07         0.00000E+00
    0.30670E+07        -0.23494E+08         0.00000E+00
    0.00000E+00         0.00000E+00        -0.59239E+07
 
   -0.60322E+07         0.32364E+07         0.00000E+00
    0.32364E+07        -0.23534E+08         0.00000E+00
    0.00000E+00         0.00000E+00        -0.59133E+07
 
   -0.59423E+07         0.34093E+07         0.00000E+00
    0.34093E+07        -0.23574E+08         0.00000E+00
    0.00000E+00         0.00000E+00        -0.59033E+07
 
   -0.13004E+08        -0.48663E+05         0.00000E+00
   -0.48663E+05        -0.23120E+08         0.00000E+00
    0.00000E+00         0.00000E+00        -0.72248E+07
 
   -0.12906E+08        -0.12581E+06         0.00000E+00
   -0.12581E+06        -0.23124E+08         0.00000E+00
    0.00000E+00         0.00000E+00        -0.72059E+07
 
   -0.12799E+08        -0.19434E+06         0.00000E+00
   -0.19434E+06        -0.23132E+08         0.00000E+00
    0.00000E+00         0.00000E+00        -0.71863E+07
 
   -0.12687E+08        -0.25437E+06         0.00000E+00
   -0.25437E+06        -0.23143E+08         0.00000E+00
    0.00000E+00         0.00000E+00        -0.71658E+07
 
   -0.12568E+08        -0.30599E+06         0.00000E+00
   -0.30599E+06        -0.23156E+08         0.00000E+00
    0.00000E+00         0.00000E+00        -0.71447E+07
 
   -0.12443E+08        -0.34933E+06         0.00000E+00
   -0.34933E+06        -0.23172E+08         0.00000E+00
    0.00000E+00         0.00000E+00        -0.71230E+07
 
   -0.12315E+08        -0.38457E+06         0.00000E+00
   -0.38457E+06        -0.23190E+08         0.00000E+00
    0.00000E+00         0.00000E+00        -0.71008E+07
 
   -0.12182E+08        -0.41191E+06         0.00000E+00
   -0.41191E+06        -0.23209E+08         0.00000E+00
    0.00000E+00         0.00000E+00        -0.70781E+07
 
   -0.12045E+08        -0.43158E+06         0.00000E+00
   -0.43158E+06        -0.23230E+08         0.00000E+00
    0.00000E+00         0.00000E+00        -0.70550E+07
 
   -0.11906E+08        -0.44382E+06         0.00000E+00
   -0.44382E+06        -0.23252E+08         0.00000E+00
    0.00000E+00         0.00000E+00        -0.70316E+07
 
   -0.11764E+08        -0.44890E+06         0.00000E+00
   -0.44890E+06        -0.23276E+08         0.00000E+00
    0.00000E+00         0.00000E+00        -0.70078E+07
 
   -0.11620E+08        -0.44708E+06         0.00000E+00
   -0.44708E+06        -0.23300E+08         0.00000E+00
    0.00000E+00         0.00000E+00        -0.69839E+07
 
   -0.11474E+08        -0.43863E+06         0.00000E+00
   -0.43863E+06        -0.23325E+08         0.00000E+00
    0.00000E+00         0.00000E+00        -0.69597E+07
 
   -0.11327E+08        -0.42383E+06         0.00000E+00
   -0.42383E+06        -0.23351E+08         0.00000E+00
    0.00000E+00         0.00000E+00        -0.69355E+07
 
   -0.11179E+08        -0.40295E+06         0.00000E+00
   -0.40295E+06        -0.23377E+08         0.00000E+00
    0.00000E+00         0.00000E+00        -0.69111E+07
 
   -0.11030E+08        -0.37626E+06         0.00000E+00
   -0.37626E+06        -0.23404E+08         0.00000E+00
    0.00000E+00         0.00000E+00        -0.68868E+07
 
   -0.10881E+08        -0.34402E+06         0.00000E+00
   -0.34402E+06        -0.23431E+08         0.00000E+00
    0.00000E+00         0.00000E+00        -0.68624E+07
 
   -0.10732E+08        -0.30646E+06         0.00000E+00
   -0.30646E+06        -0.23459E+08         0.00000E+00
    0.00000E+00         0.00000E+00        -0.68380E+07
 
   -0.10582E+08        -0.26380E+06         0.00000E+00
   -0.26380E+06        -0.23487E+08         0.00000E+00
    0.00000E+00         0.00000E+00        -0.68137E+07
 
   -0.10432E+08        -0.21626E+06         0.00000E+00
   -0.21626E+06        -0.23516E+08         0.00000E+00
    0.00000E+00         0.00000E+00        -0.67895E+07
 
   -0.10282E+08        -0.16403E+06         0.00000E+00
   -0.16403E+06        -0.23545E+08         0.00000E+00
    0.00000E+00         0.00000E+00        -0.67655E+07
 
   -0.10133E+08        -0.10726E+06         0.00000E+00
   -0.10726E+06        -0.23575E+08         0.00000E+00
    0.00000E+00         0.00000E+00        -0.67416E+07
 
   -0.99836E+07        -0.46112E+05         0.00000E+00
   -0.46112E+05        -0.23605E+08         0.00000E+00
    0.00000E+00         0.00000E+00        -0.67178E+07
 
   -0.98345E+07         0.19299E+05         0.00000E+00
    0.19299E+05        -0.23637E+08         0.00000E+00
    0.00000E+00         0.00000E+00        -0.66943E+07
 
   -0.96856E+07         0.88866E+05         0.00000E+00
    0.88866E+05        -0.23669E+08         0.00000E+00
    0.00000E+00         0.00000E+00        -0.66709E+07
 
   -0.95371E+07         0.16251E+06         0.00000E+00
    0.16251E+06        -0.23702E+08         0.00000E+00
    0.00000E+00         0.00000E+00        -0.66478E+07
 
   -0.93888E+07         0.24016E+06         0.00000E+00
    0.24016E+06        -0.23736E+08         0.00000E+00
    0.00000E+00         0.00000E+00        -0.66249E+07
 
   -0.92409E+07         0.32178E+06         0.00000E+00
    0.32178E+06        -0.23771E+08         0.00000E+00
    0.00000E+00         0.00000E+00        -0.66023E+07
 
   -0.90933E+07         0.40735E+06         0.00000E+00
    0.40735E+06        -0.23807E+08         0.00000E+00
    0.00000E+00         0.00000E+00        -0.65800E+07
 
   -0.89461E+07         0.49686E+06         0.00000E+00
    0.49686E+06        -0.23844E+08         0.00000E+00
    0.00000E+00         0.00000E+00        -0.65580E+07
 
   -0.87993E+07         0.59033E+06         0.00000E+00
    0.59033E+06        -0.23882E+08         0.00000E+00
    0.00000E+00         0.00000E+00        -0.65363E+07
 
   -0.86529E+07         0.68778E+06         0.00000E+00
    0.68778E+06        -0.23921E+08         0.00000E+00
    0.00000E+00         0.00000E+00        -0.65149E+07
 
   -0.85071E+07         0.78925E+06         0.00000E+00
    0.78925E+06        -0.23962E+08         0.00000E+00
    0.00000E+00         0.00000E+00        -0.64938E+07
 
   -0.83618E+07         0.89481E+06         0.00000E+00
    0.89481E+06        -0.24004E+08         0.00000E+00
    0.00000E+00         0.00000E+00        -0.64731E+07
 
   -0.82172E+07         0.10045E+07         0.00000E+00
    0.10045E+07        -0.24047E+08         0.00000E+00
    0.00000E+00         0.00000E+00        -0.64527E+07
 
   -0.80733E+07         0.11184E+07         0.00000E+00
    0.11184E+07        -0.24091E+08         0.00000E+00
    0.00000E+00         0.00000E+00        -0.64328E+07
 
   -0.79303E+07         0.12367E+07         0.00000E+00
    0.12367E+07        -0.24136E+08         0.00000E+00
    0.00000E+00         0.00000E+00        -0.64132E+07
 
   -0.77884E+07         0.13593E+07         0.00000E+00
    0.13593E+07        -0.24182E+08         0.00000E+00
    0.00000E+00         0.00000E+00        -0.63941E+07
 
   -0.76476E+07         0.14864E+07         0.00000E+00
    0.14864E+07        -0.24230E+08         0.00000E+00
    0.00000E+00         0.00000E+00        -0.63754E+07
 
   -0.75083E+07         0.16181E+07         0.00000E+00
    0.16181E+07        -0.24278E+08         0.00000E+00
    0.00000E+00         0.00000E+00        -0.63572E+07
 
   -0.73706E+07         0.17544E+07         0.00000E+00
    0.17544E+07        -0.24327E+08         0.00000E+00
    0.00000E+00         0.00000E+00        -0.63395E+07
 
   -0.72348E+07         0.18954E+07         0.00000E+00
    0.18954E+07        -0.24377E+08         0.00000E+00
    0.00000E+00         0.00000E+00        -0.63223E+07
 
   -0.71012E+07         0.20411E+07         0.00000E+00
    0.20411E+07        -0.24427E+08         0.00000E+00
    0.00000E+00         0.00000E+00        -0.63056E+07
 
   -0.69700E+07         0.21916E+07         0.00000E+00
    0.21916E+07        -0.24477E+08         0.00000E+00
    0.00000E+00         0.00000E+00        -0.62895E+07
 
   -0.68416E+07         0.23470E+07         0.00000E+00
    0.23470E+07        -0.24528E+08         0.00000E+00
    0.00000E+00         0.00000E+00        -0.62739E+07
 
   -0.67163E+07         0.25071E+07         0.00000E+00
    0.25071E+07        -0.24579E+08         0.00000E+00
    0.00000E+00         0.00000E+00        -0.62590E+07
 
   -0.65944E+07         0.26720E+07         0.00000E+00
    0.26720E+07        -0.24629E+08         0.00000E+00
    0.00000E+00         0.00000E+00        -0.62447E+07
 
   -0.64764E+07         0.28416E+07         0.00000E+00
    0.28416E+07        -0.24679E+08         0.00000E+00
    0.00000E+00         0.00000E+00        -0.62311E+07
 
   -0.63626E+07         0.30158E+07         0.00000E+00
    0.30158E+07        -0.24728E+08         0.00000E+00
    0.00000E+00         0.00000E+00        -0.62181E+07
 
   -0.62534E+07         0.31945E+07         0.00000E+00
    0.31945E+07        -0.24776E+08         0.00000E+00
    0.00000E+00         0.00000E+00        -0.62059E+07
 
   -0.14679E+08        -0.60240E+05         0.00000E+00
   -0.60240E+05        -0.24340E+08         0.00000E+00
    0.00000E+00         0.00000E+00        -0.78039E+07
 
   -0.14532E+08        -0.15517E+06         0.00000E+00
   -0.15517E+06        -0.24345E+08         0.00000E+00
    0.00000E+00         0.00000E+00        -0.77754E+07
 
   -0.14378E+08        -0.23941E+06         0.00000E+00
   -0.23941E+06        -0.24352E+08         0.00000E+00
    0.00000E+00         0.00000E+00        -0.77461E+07
 
   -0.14218E+08        -0.31294E+06         0.00000E+00
   -0.31294E+06        -0.24363E+08         0.00000E+00
    0.00000E+00         0.00000E+00        -0.77162E+07
 
   -0.14053E+08        -0.37603E+06         0.00000E+00
   -0.37603E+06        -0.24375E+08         0.00000E+00
    0.00000E+00         0.00000E+00        -0.76856E+07
 
   -0.13883E+08        -0.42903E+06         0.00000E+00
   -0.42903E+06        -0.24390E+08         0.00000E+00
    0.00000E+00         0.00000E+00        -0.76546E+07
 
   -0.13711E+08        -0.47230E+06         0.00000E+00
   -0.47230E+06        -0.24405E+08         0.00000E+00
    0.00000E+00         0.00000E+00        -0.76232E+07
 
   -0.13535E+08        -0.50620E+06         0.00000E+00
   -0.50620E+06        -0.24422E+08         0.00000E+00
    0.00000E+00         0.00000E+00        -0.75915E+07
 
   -0.13358E+08        -0.53115E+06         0.00000E+00
   -0.53115E+06        -0.24440E+08         0.00000E+00
    0.00000E+00         0.00000E+00        -0.75596E+07
 
   -0.13180E+08        -0.54758E+06         0.00000E+00
   -0.54758E+06        -0.24458E+08         0.00000E+00
    0.00000E+00         0.00000E+00        -0.75275E+07
 
   -0.13001E+08        -0.55596E+06         0.00000E+00
   -0.55596E+06        -0.24476E+08         0.00000E+00
    0.00000E+00         0.00000E+00        -0.74954E+07
 
   -0.12821E+08        -0.55675E+06         0.00000E+00
   -0.55675E+06        -0.24495E+08         0.00000E+00
    0.00000E+00         0.00000E+00        -0.74632E+07
 
   -0.12642E+08        -0.55043E+06         0.00000E+00
   -0.55043E+06        -0.24513E+08         0.00000E+00
    0.00000E+00         0.00000E+00        -0.74311E+07
 
   -0.12464E+08        -0.53744E+06         0.00000E+00
   -0.53744E+06        -0.24532E+08         0.00000E+00
    0.00000E+00         0.00000E+00        -0.73991E+07
 
   -0.12286E+08        -0.51823E+06         0.00000E+00
   -0.51823E+06        -0.24551E+08         0.00000E+00
    0.00000E+00         0.00000E+00        -0.73673E+07
 
   -0.12109E+08        -0.49320E+06         0.00000E+00
   -0.49320E+06        -0.24570E+08         0.00000E+00
    0.00000E+00         0.00000E+00        -0.73356E+07
 
   -0.11933E+08        -0.46274E+06         0.00000E+00
   -0.46274E+06        -0.24589E+08         0.00000E+00
    0.00000E+00         0.00000E+00        -0.73042E+07
 
   -0.11758E+08        -0.42717E+06         0.00000E+00
   -0.42717E+06        -0.24608E+08         0.00000E+00
    0.00000E+00         0.00000E+00        -0.72731E+07
 
   -0.11584E+08        -0.38682E+06         0.00000E+00
   -0.38682E+06        -0.24627E+08         0.00000E+00
    0.00000E+00         0.00000E+00        -0.72422E+07
 
   -0.11411E+08        -0.34195E+06         0.00000E+00
   -0.34195E+06        -0.24647E+08         0.00000E+00
    0.00000E+00         0.00000E+00        -0.72116E+07
 
   -0.11239E+08        -0.29281E+06         0.00000E+00
   -0.29281E+06        -0.24668E+08         0.00000E+00
    0.00000E+00         0.00000E+00        -0.71814E+07
 
   -0.11068E+08        -0.23959E+06         0.00000E+00
   -0.23959E+06        -0.24689E+08         0.00000E+00
    0.00000E+00         0.00000E+00        -0.71515E+07
 
   -0.10899E+08        -0.18246E+06         0.00000E+00
   -0.18246E+06        -0.24712E+08         0.00000E+00
    0.00000E+00         0.00000E+00        -0.71220E+07
 
   -0.10729E+08        -0.12157E+06         0.00000E+00
   -0.12157E+06        -0.24735E+08         0.00000E+00
    0.00000E+00         0.00000E+00        -0.70929E+07
 
   -0.10561E+08        -0.57014E+05         0.00000E+00
   -0.57014E+05        -0.24759E+08         0.00000E+00
    0.00000E+00         0.00000E+00        -0.70641E+07
 
   -0.10394E+08         0.11128E+05         0.00000E+00
    0.11128E+05        -0.24785E+08         0.00000E+00
    0.00000E+00         0.00000E+00        -0.70357E+07
 
   -0.10226E+08         0.82813E+05         0.00000E+00
    0.82813E+05        -0.24812E+08         0.00000E+00
    0.00000E+00         0.00000E+00        -0.70076E+07
 
   -0.10060E+08         0.15802E+06         0.00000E+00
    0.15802E+06        -0.24840E+08         0.00000E+00
    0.00000E+00         0.00000E+00        -0.69800E+07
 
   -0.98932E+07         0.23676E+06         0.00000E+00
    0.23676E+06        -0.24871E+08         0.00000E+00
    0.00000E+00         0.00000E+00        -0.69528E+07
 
   -0.97271E+07         0.31907E+06         0.00000E+00
    0.31907E+06        -0.24903E+08         0.00000E+00
    0.00000E+00         0.00000E+00        -0.69260E+07
 
   -0.95611E+07         0.40501E+06         0.00000E+00
    0.40501E+06        -0.24937E+08         0.00000E+00
    0.00000E+00         0.00000E+00        -0.68995E+07
 
   -0.93952E+07         0.49466E+06         0.00000E+00
    0.49466E+06        -0.24972E+08         0.00000E+00
    0.00000E+00         0.00000E+00        -0.68735E+07
 
   -0.92294E+07         0.58813E+06         0.00000E+00
    0.58813E+06        -0.25010E+08         0.00000E+00
    0.00000E+00         0.00000E+00        -0.68480E+07
 
   -0.90637E+07         0.68557E+06         0.00000E+00
    0.68557E+06        -0.25050E+08         0.00000E+00
    0.00000E+00         0.00000E+00        -0.68228E+07
 
   -0.88981E+07         0.78711E+06         0.00000E+00
    0.78711E+06        -0.25092E+08         0.00000E+00
    0.00000E+00         0.00000E+00        -0.67981E+07
 
   -0.87326E+07         0.89294E+06         0.00000E+00
    0.89294E+06        -0.25137E+08         0.00000E+00
    0.00000E+00         0.00000E+00        -0.67738E+07
 
   -0.85672E+07         0.10032E+07         0.00000E+00
    0.10032E+07        -0.25183E+08         0.00000E+00
    0.00000E+00         0.00000E+00        -0.67501E+07
 
   -0.84022E+07         0.11182E+07         0.00000E+00
    0.11182E+07        -0.25232E+08         0.00000E+00
    0.00000E+00         0.00000E+00        -0.67268E+07
 
   -0.82377E+07         0.12381E+07         0.00000E+00
    0.12381E+07        -0.25282E+08         0.00000E+00
    0.00000E+00         0.00000E+00        -0.67040E+07
 
   -0.80739E+07         0.13631E+07         0.00000E+00
    0.13631E+07        -0.25335E+08         0.00000E+00
    0.00000E+00         0.00000E+00        -0.66817E+07
 
   -0.79110E+07         0.14934E+07         0.00000E+00
    0.14934E+07        -0.25389E+08         0.00000E+00
    0.00000E+00         0.00000E+00        -0.66600E+07
 
   -0.77494E+07         0.16292E+07         0.00000E+00
    0.16292E+07        -0.25445E+08         0.00000E+00
    0.00000E+00         0.00000E+00        -0.66389E+07
 
   -0.75895E+07         0.17708E+07         0.00000E+00
    0.17708E+07        -0.25503E+08         0.00000E+00
    0.00000E+00         0.00000E+00        -0.66185E+07
 
   -0.74315E+07         0.19182E+07         0.00000E+00
    0.19182E+07        -0.25562E+08         0.00000E+00
    0.00000E+00         0.00000E+00        -0.65986E+07
 
   -0.72760E+07         0.20716E+07         0.00000E+00
    0.20716E+07        -0.25621E+08         0.00000E+00
    0.00000E+00         0.00000E+00        -0.65795E+07
 
   -0.71235E+07         0.22312E+07         0.00000E+00
    0.22312E+07        -0.25682E+08         0.00000E+00
    0.00000E+00         0.00000E+00        -0.65610E+07
 
   -0.69744E+07         0.23970E+07         0.00000E+00
    0.23970E+07        -0.25742E+08         0.00000E+00
    0.00000E+00         0.00000E+00        -0.65434E+07
 
   -0.68295E+07         0.25690E+07         0.00000E+00
    0.25690E+07        -0.25803E+08         0.00000E+00
    0.00000E+00         0.00000E+00        -0.65265E+07
 
   -0.66892E+07         0.27472E+07         0.00000E+00
    0.27472E+07        -0.25863E+08         0.00000E+00
    0.00000E+00         0.00000E+00        -0.65105E+07
 
   -0.65542E+07         0.29314E+07         0.00000E+00
    0.29314E+07        -0.25923E+08         0.00000E+00
    0.00000E+00         0.00000E+00        -0.64954E+07
 
   -0.16466E+08        -0.72444E+05         0.00000E+00
   -0.72444E+05        -0.25579E+08         0.00000E+00
    0.00000E+00         0.00000E+00        -0.84090E+07
 
   -0.16257E+08        -0.18432E+06         0.00000E+00
   -0.18432E+06        -0.25584E+08         0.00000E+00
    0.00000E+00         0.00000E+00        -0.83682E+07
 
   -0.16042E+08        -0.28169E+06         0.00000E+00
   -0.28169E+06        -0.25591E+08         0.00000E+00
    0.00000E+00         0.00000E+00        -0.83265E+07
 
   -0.15823E+08        -0.36570E+06         0.00000E+00
   -0.36570E+06        -0.25600E+08         0.00000E+00
    0.00000E+00         0.00000E+00        -0.82844E+07
 
   -0.15600E+08        -0.43677E+06         0.00000E+00
   -0.43677E+06        -0.25610E+08         0.00000E+00
    0.00000E+00         0.00000E+00        -0.82420E+07
 
   -0.15376E+08        -0.49534E+06         0.00000E+00
   -0.49534E+06        -0.25621E+08         0.00000E+00
    0.00000E+00         0.00000E+00        -0.81994E+07
 
   -0.15150E+08        -0.54197E+06         0.00000E+00
   -0.54197E+06        -0.25633E+08         0.00000E+00
    0.00000E+00         0.00000E+00        -0.81566E+07
 
   -0.14925E+08        -0.57739E+06         0.00000E+00
   -0.57739E+06        -0.25644E+08         0.00000E+00
    0.00000E+00         0.00000E+00        -0.81138E+07
 
   -0.14702E+08        -0.60244E+06         0.00000E+00
   -0.60244E+06        -0.25654E+08         0.00000E+00
    0.00000E+00         0.00000E+00        -0.80711E+07
 
   -0.14480E+08        -0.61799E+06         0.00000E+00
   -0.61799E+06        -0.25664E+08         0.00000E+00
    0.00000E+00         0.00000E+00        -0.80287E+07
 
   -0.14260E+08        -0.62489E+06         0.00000E+00
   -0.62489E+06        -0.25672E+08         0.00000E+00
    0.00000E+00         0.00000E+00        -0.79865E+07
 
   -0.14044E+08        -0.62397E+06         0.00000E+00
   -0.62397E+06        -0.25679E+08         0.00000E+00
    0.00000E+00         0.00000E+00        -0.79447E+07
 
   -0.13831E+08        -0.61599E+06         0.00000E+00
   -0.61599E+06        -0.25686E+08         0.00000E+00
    0.00000E+00         0.00000E+00        -0.79033E+07
 
   -0.13621E+08        -0.60165E+06         0.00000E+00
   -0.60165E+06        -0.25692E+08         0.00000E+00
    0.00000E+00         0.00000E+00        -0.78625E+07
 
   -0.13414E+08        -0.58157E+06         0.00000E+00
   -0.58157E+06        -0.25697E+08         0.00000E+00
    0.00000E+00         0.00000E+00        -0.78222E+07
 
   -0.13210E+08        -0.55631E+06         0.00000E+00
   -0.55631E+06        -0.25703E+08         0.00000E+00
    0.00000E+00         0.00000E+00        -0.77825E+07
 
   -0.13009E+08        -0.52635E+06         0.00000E+00
   -0.52635E+06        -0.25708E+08         0.00000E+00
    0.00000E+00         0.00000E+00        -0.77434E+07
 
   -0.12812E+08        -0.49210E+06         0.00000E+00
   -0.49210E+06        -0.25713E+08         0.00000E+00
    0.00000E+00         0.00000E+00        -0.77049E+07
 
   -0.12616E+08        -0.45391E+06         0.00000E+00
   -0.45391E+06        -0.25718E+08         0.00000E+00
    0.00000E+00         0.00000E+00        -0.76670E+07
 
   -0.12424E+08        -0.41210E+06         0.00000E+00
   -0.41210E+06        -0.25725E+08         0.00000E+00
    0.00000E+00         0.00000E+00        -0.76297E+07
 
   -0.12233E+08        -0.36690E+06         0.00000E+00
   -0.36690E+06        -0.25732E+08         0.00000E+00
    0.00000E+00         0.00000E+00        -0.75930E+07
 
   -0.12044E+08        -0.31853E+06         0.00000E+00
   -0.31853E+06        -0.25740E+08         0.00000E+00
    0.00000E+00         0.00000E+00        -0.75569E+07
 
   -0.11857E+08        -0.26713E+06         0.00000E+00
   -0.26713E+06        -0.25750E+08         0.00000E+00
    0.00000E+00         0.00000E+00        -0.75214E+07
 
   -0.11672E+08        -0.21284E+06         0.00000E+00
   -0.21284E+06        -0.25761E+08         0.00000E+00
    0.00000E+00         0.00000E+00        -0.74865E+07
 
   -0.11487E+08        -0.15572E+06         0.00000E+00
   -0.15572E+06        -0.25773E+08         0.00000E+00
    0.00000E+00         0.00000E+00        -0.74522E+07
 
   -0.11304E+08        -0.95836E+05         0.00000E+00
   -0.95836E+05        -0.25788E+08         0.00000E+00
    0.00000E+00         0.00000E+00        -0.74184E+07
 
   -0.11121E+08        -0.33196E+05         0.00000E+00
   -0.33196E+05        -0.25805E+08         0.00000E+00
    0.00000E+00         0.00000E+00        -0.73851E+07
 
   -0.10938E+08         0.32216E+05         0.00000E+00
    0.32216E+05        -0.25824E+08         0.00000E+00
    0.00000E+00         0.00000E+00        -0.73524E+07
 
   -0.10756E+08         0.10045E+06         0.00000E+00
    0.10045E+06        -0.25845E+08         0.00000E+00
    0.00000E+00         0.00000E+00        -0.73202E+07
 
   -0.10573E+08         0.17158E+06         0.00000E+00
    0.17158E+06        -0.25869E+08         0.00000E+00
    0.00000E+00         0.00000E+00        -0.72885E+07
 
   -0.10390E+08         0.24572E+06         0.00000E+00
    0.24572E+06        -0.25896E+08         0.00000E+00
    0.00000E+00         0.00000E+00        -0.72572E+07
 
   -0.10206E+08         0.32302E+06         0.00000E+00
    0.32302E+06        -0.25926E+08         0.00000E+00
    0.00000E+00         0.00000E+00        -0.72265E+07
 
   -0.10022E+08         0.40364E+06         0.00000E+00
    0.40364E+06        -0.25959E+08         0.00000E+00
    0.00000E+00         0.00000E+00        -0.71962E+07
 
   -0.98372E+07         0.48780E+06         0.00000E+00
    0.48780E+06        -0.25995E+08         0.00000E+00
    0.00000E+00         0.00000E+00        -0.71664E+07
 
   -0.96512E+07         0.57574E+06         0.00000E+00
    0.57574E+06        -0.26034E+08         0.00000E+00
    0.00000E+00         0.00000E+00        -0.71370E+07
 
   -0.94640E+07         0.66775E+06         0.00000E+00
    0.66775E+06        -0.26077E+08         0.00000E+00
    0.00000E+00         0.00000E+00        -0.71082E+07
 
   -0.92758E+07         0.76413E+06         0.00000E+00
    0.76413E+06        -0.26123E+08         0.00000E+00
    0.00000E+00         0.00000E+00        -0.70797E+07
 
   -0.90864E+07         0.86525E+06         0.00000E+00
    0.86525E+06        -0.26173E+08         0.00000E+00
    0.00000E+00         0.00000E+00        -0.70518E+07
 
   -0.88959E+07         0.97151E+06         0.00000E+00
    0.97151E+06        -0.26226E+08         0.00000E+00
    0.00000E+00         0.00000E+00        -0.70244E+07
 
   -0.87046E+07         0.10833E+07         0.00000E+00
    0.10833E+07        -0.26283E+08         0.00000E+00
    0.00000E+00         0.00000E+00        -0.69974E+07
 
   -0.85125E+07         0.12012E+07         0.00000E+00
    0.12012E+07        -0.26343E+08         0.00000E+00
    0.00000E+00         0.00000E+00        -0.69711E+07
 
   -0.83201E+07         0.13255E+07         0.00000E+00
    0.13255E+07        -0.26406E+08         0.00000E+00
    0.00000E+00         0.00000E+00        -0.69453E+07
 
   -0.81278E+07         0.14568E+07         0.00000E+00
    0.14568E+07        -0.26473E+08         0.00000E+00
    0.00000E+00         0.00000E+00        -0.69201E+07
 
   -0.79361E+07         0.15955E+07         0.00000E+00
    0.15955E+07        -0.26542E+08         0.00000E+00
    0.00000E+00         0.00000E+00        -0.68957E+07
 
   -0.77457E+07         0.17420E+07         0.00000E+00
    0.17420E+07        -0.26614E+08         0.00000E+00
    0.00000E+00         0.00000E+00        -0.68720E+07
 
   -0.75574E+07         0.18967E+07         0.00000E+00
    0.18967E+07        -0.26688E+08         0.00000E+00
    0.00000E+00         0.00000E+00        -0.68491E+07
 
   -0.73720E+07         0.20597E+07         0.00000E+00
    0.20597E+07        -0.26763E+08         0.00000E+00
    0.00000E+00         0.00000E+00        -0.68270E+07
 
   -0.71901E+07         0.22312E+07         0.00000E+00
    0.22312E+07        -0.26839E+08         0.00000E+00
    0.00000E+00         0.00000E+00        -0.68058E+07
 
   -0.70127E+07         0.24113E+07         0.00000E+00
    0.24113E+07        -0.26915E+08         0.00000E+00
    0.00000E+00         0.00000E+00        -0.67854E+07
 
   -0.68412E+07         0.26008E+07         0.00000E+00
    0.26008E+07        -0.26991E+08         0.00000E+00
    0.00000E+00         0.00000E+00        -0.67664E+07
 
   -0.18355E+08        -0.85696E+05         0.00000E+00
   -0.85696E+05        -0.26832E+08         0.00000E+00
    0.00000E+00         0.00000E+00        -0.90374E+07
 
   -0.18063E+08        -0.21018E+06         0.00000E+00
   -0.21018E+06        -0.26835E+08         0.00000E+00
    0.00000E+00         0.00000E+00        -0.89795E+07
 
   -0.17769E+08        -0.31801E+06         0.00000E+00
   -0.31801E+06        -0.26842E+08         0.00000E+00
    0.00000E+00         0.00000E+00        -0.89221E+07
 
   -0.17472E+08        -0.40710E+06         0.00000E+00
   -0.40710E+06        -0.26850E+08         0.00000E+00
    0.00000E+00         0.00000E+00        -0.88644E+07
 
   -0.17175E+08        -0.47794E+06         0.00000E+00
   -0.47794E+06        -0.26857E+08         0.00000E+00
    0.00000E+00         0.00000E+00        -0.88064E+07
 
   -0.16882E+08        -0.53216E+06         0.00000E+00
   -0.53216E+06        -0.26861E+08         0.00000E+00
    0.00000E+00         0.00000E+00        -0.87485E+07
 
   -0.16594E+08        -0.57173E+06         0.00000E+00
   -0.57173E+06        -0.26861E+08         0.00000E+00
    0.00000E+00         0.00000E+00        -0.86910E+07
 
   -0.16312E+08        -0.59867E+06         0.00000E+00
   -0.59867E+06        -0.26859E+08         0.00000E+00
    0.00000E+00         0.00000E+00        -0.86341E+07
 
   -0.16038E+08        -0.61480E+06         0.00000E+00
   -0.61480E+06        -0.26853E+08         0.00000E+00
    0.00000E+00         0.00000E+00        -0.85782E+07
 
   -0.15772E+08        -0.62174E+06         0.00000E+00
   -0.62174E+06        -0.26844E+08         0.00000E+00
    0.00000E+00         0.00000E+00        -0.85232E+07
 
   -0.15513E+08        -0.62088E+06         0.00000E+00
   -0.62088E+06        -0.26833E+08         0.00000E+00
    0.00000E+00         0.00000E+00        -0.84693E+07
 
   -0.15262E+08        -0.61338E+06         0.00000E+00
   -0.61338E+06        -0.26821E+08         0.00000E+00
    0.00000E+00         0.00000E+00        -0.84166E+07
 
   -0.15019E+08        -0.60023E+06         0.00000E+00
   -0.60023E+06        -0.26807E+08         0.00000E+00
    0.00000E+00         0.00000E+00        -0.83651E+07
 
   -0.14782E+08        -0.58223E+06         0.00000E+00
   -0.58223E+06        -0.26792E+08         0.00000E+00
    0.00000E+00         0.00000E+00        -0.83147E+07
 
   -0.14551E+08        -0.56005E+06         0.00000E+00
   -0.56005E+06        -0.26776E+08         0.00000E+00
    0.00000E+00         0.00000E+00        -0.82655E+07
 
   -0.14326E+08        -0.53425E+06         0.00000E+00
   -0.53425E+06        -0.26761E+08         0.00000E+00
    0.00000E+00         0.00000E+00        -0.82174E+07
 
   -0.14107E+08        -0.50526E+06         0.00000E+00
   -0.50526E+06        -0.26745E+08         0.00000E+00
    0.00000E+00         0.00000E+00        -0.81704E+07
 
   -0.13892E+08        -0.47347E+06         0.00000E+00
   -0.47347E+06        -0.26731E+08         0.00000E+00
    0.00000E+00         0.00000E+00        -0.81246E+07
 
   -0.13681E+08        -0.43916E+06         0.00000E+00
   -0.43916E+06        -0.26718E+08         0.00000E+00
    0.00000E+00         0.00000E+00        -0.80797E+07
 
   -0.13474E+08        -0.40256E+06         0.00000E+00
   -0.40256E+06        -0.26705E+08         0.00000E+00
    0.00000E+00         0.00000E+00        -0.80359E+07
 
   -0.13270E+08        -0.36386E+06         0.00000E+00
   -0.36386E+06        -0.26695E+08         0.00000E+00
    0.00000E+00         0.00000E+00        -0.79930E+07
 
   -0.13069E+08        -0.32320E+06         0.00000E+00
   -0.32320E+06        -0.26686E+08         0.00000E+00
    0.00000E+00         0.00000E+00        -0.79510E+07
 
   -0.12869E+08        -0.28068E+06         0.00000E+00
   -0.28068E+06        -0.26680E+08         0.00000E+00
    0.00000E+00         0.00000E+00        -0.79098E+07
 
   -0.12672E+08        -0.23636E+06         0.00000E+00
   -0.23636E+06        -0.26675E+08         0.00000E+00
    0.00000E+00         0.00000E+00        -0.78695E+07
 
   -0.12476E+08        -0.19027E+06         0.00000E+00
   -0.19027E+06        -0.26674E+08         0.00000E+00
    0.00000E+00         0.00000E+00        -0.78300E+07
 
   -0.12281E+08        -0.14243E+06         0.00000E+00
   -0.14243E+06        -0.26675E+08         0.00000E+00
    0.00000E+00         0.00000E+00        -0.77912E+07
 
   -0.12087E+08        -0.92811E+05         0.00000E+00
   -0.92811E+05        -0.26679E+08         0.00000E+00
    0.00000E+00         0.00000E+00        -0.77531E+07
 
   -0.11892E+08        -0.41358E+05         0.00000E+00
   -0.41358E+05        -0.26686E+08         0.00000E+00
    0.00000E+00         0.00000E+00        -0.77156E+07
 
   -0.11697E+08         0.12001E+05         0.00000E+00
    0.12001E+05        -0.26696E+08         0.00000E+00
    0.00000E+00         0.00000E+00        -0.76788E+07
 
   -0.11502E+08         0.67372E+05         0.00000E+00
    0.67372E+05        -0.26710E+08         0.00000E+00
    0.00000E+00         0.00000E+00        -0.76425E+07
 
   -0.11306E+08         0.12489E+06         0.00000E+00
    0.12489E+06        -0.26728E+08         0.00000E+00
    0.00000E+00         0.00000E+00        -0.76068E+07
 
   -0.11108E+08         0.18472E+06         0.00000E+00
    0.18472E+06        -0.26750E+08         0.00000E+00
    0.00000E+00         0.00000E+00        -0.75715E+07
 
   -0.10909E+08         0.24705E+06         0.00000E+00
    0.24705E+06        -0.26775E+08         0.00000E+00
    0.00000E+00         0.00000E+00        -0.75368E+07
 
   -0.10707E+08         0.31214E+06         0.00000E+00
    0.31214E+06        -0.26805E+08         0.00000E+00
    0.00000E+00         0.00000E+00        -0.75024E+07
 
   -0.10503E+08         0.38027E+06         0.00000E+00
    0.38027E+06        -0.26840E+08         0.00000E+00
    0.00000E+00         0.00000E+00        -0.74685E+07
 
   -0.10296E+08         0.45176E+06         0.00000E+00
    0.45176E+06        -0.26879E+08         0.00000E+00
    0.00000E+00         0.00000E+00        -0.74350E+07
 
   -0.10086E+08         0.52702E+06         0.00000E+00
    0.52702E+06        -0.26923E+08         0.00000E+00
    0.00000E+00         0.00000E+00        -0.74018E+07
 
   -0.98731E+07         0.60649E+06         0.00000E+00
    0.60649E+06        -0.26972E+08         0.00000E+00
    0.00000E+00         0.00000E+00        -0.73689E+07
 
   -0.96563E+07         0.69071E+06         0.00000E+00
    0.69071E+06        -0.27026E+08         0.00000E+00
    0.00000E+00         0.00000E+00        -0.73364E+07
 
   -0.94359E+07         0.78032E+06         0.00000E+00
    0.78032E+06        -0.27085E+08         0.00000E+00
    0.00000E+00         0.00000E+00        -0.73043E+07
 
   -0.92117E+07         0.87602E+06         0.00000E+00
    0.87602E+06        -0.27151E+08         0.00000E+00
    0.00000E+00         0.00000E+00        -0.72724E+07
 
   -0.89837E+07         0.97866E+06         0.00000E+00
    0.97866E+06        -0.27221E+08         0.00000E+00
    0.00000E+00         0.00000E+00        -0.72410E+07
 
   -0.87522E+07         0.10892E+07         0.00000E+00
    0.10892E+07        -0.27298E+08         0.00000E+00
    0.00000E+00         0.00000E+00        -0.72100E+07
 
   -0.85176E+07         0.12087E+07         0.00000E+00
    0.12087E+07        -0.27380E+08         0.00000E+00
    0.00000E+00         0.00000E+00        -0.71795E+07
 
   -0.82807E+07         0.13383E+07         0.00000E+00
    0.13383E+07        -0.27467E+08         0.00000E+00
    0.00000E+00         0.00000E+00        -0.71496E+07
 
   -0.80428E+07         0.14792E+07         0.00000E+00
    0.14792E+07        -0.27560E+08         0.00000E+00
    0.00000E+00         0.00000E+00        -0.71205E+07
 
   -0.78054E+07         0.16326E+07         0.00000E+00
    0.16326E+07        -0.27656E+08         0.00000E+00
    0.00000E+00         0.00000E+00        -0.70923E+07
 
   -0.75706E+07         0.17991E+07         0.00000E+00
    0.17991E+07        -0.27756E+08         0.00000E+00
    0.00000E+00         0.00000E+00        -0.70653E+07
 
   -0.73401E+07         0.19786E+07         0.00000E+00
    0.19786E+07        -0.27856E+08         0.00000E+00
    0.00000E+00         0.00000E+00        -0.70392E+07
 
   -0.71132E+07         0.21689E+07         0.00000E+00
    0.21689E+07        -0.27953E+08         0.00000E+00
    0.00000E+00         0.00000E+00        -0.70133E+07
 
   -0.20333E+08        -0.10267E+06         0.00000E+00
   -0.10267E+06        -0.28094E+08         0.00000E+00
    0.00000E+00         0.00000E+00        -0.96853E+07
 
   -0.19918E+08        -0.24320E+06         0.00000E+00
   -0.24320E+06        -0.28113E+08         0.00000E+00
    0.00000E+00         0.00000E+00        -0.96063E+07
 
   -0.19498E+08        -0.34201E+06         0.00000E+00
   -0.34201E+06        -0.28119E+08         0.00000E+00
    0.00000E+00         0.00000E+00        -0.95234E+07
 
   -0.19090E+08        -0.41002E+06         0.00000E+00
   -0.41002E+06        -0.28112E+08         0.00000E+00
    0.00000E+00         0.00000E+00        -0.94405E+07
 
   -0.18699E+08        -0.45535E+06         0.00000E+00
   -0.45535E+06        -0.28096E+08         0.00000E+00
    0.00000E+00         0.00000E+00        -0.93591E+07
 
   -0.18328E+08        -0.48390E+06         0.00000E+00
   -0.48390E+06        -0.28072E+08         0.00000E+00
    0.00000E+00         0.00000E+00        -0.92800E+07
 
   -0.17976E+08        -0.49995E+06         0.00000E+00
   -0.49995E+06        -0.28041E+08         0.00000E+00
    0.00000E+00         0.00000E+00        -0.92035E+07
 
   -0.17643E+08        -0.50659E+06         0.00000E+00
   -0.50659E+06        -0.28006E+08         0.00000E+00
    0.00000E+00         0.00000E+00        -0.91297E+07
 
   -0.17327E+08        -0.50606E+06         0.00000E+00
   -0.50606E+06        -0.27967E+08         0.00000E+00
    0.00000E+00         0.00000E+00        -0.90587E+07
 
   -0.17026E+08        -0.50002E+06         0.00000E+00
   -0.50002E+06        -0.27925E+08         0.00000E+00
    0.00000E+00         0.00000E+00        -0.89902E+07
 
   -0.16739E+08        -0.48966E+06         0.00000E+00
   -0.48966E+06        -0.27883E+08         0.00000E+00
    0.00000E+00         0.00000E+00        -0.89242E+07
 
   -0.16464E+08        -0.47590E+06         0.00000E+00
   -0.47590E+06        -0.27839E+08         0.00000E+00
    0.00000E+00         0.00000E+00        -0.88606E+07
 
   -0.16200E+08        -0.45941E+06         0.00000E+00
   -0.45941E+06        -0.27796E+08         0.00000E+00
    0.00000E+00         0.00000E+00        -0.87992E+07
 
   -0.15947E+08        -0.44072E+06         0.00000E+00
   -0.44072E+06        -0.27753E+08         0.00000E+00
    0.00000E+00         0.00000E+00        -0.87399E+07
 
   -0.15702E+08        -0.42019E+06         0.00000E+00
   -0.42019E+06        -0.27711E+08         0.00000E+00
    0.00000E+00         0.00000E+00        -0.86826E+07
 
   -0.15465E+08        -0.39813E+06         0.00000E+00
   -0.39813E+06        -0.27670E+08         0.00000E+00
    0.00000E+00         0.00000E+00        -0.86270E+07
 
   -0.15234E+08        -0.37476E+06         0.00000E+00
   -0.37476E+06        -0.27632E+08         0.00000E+00
    0.00000E+00         0.00000E+00        -0.85732E+07
 
   -0.15010E+08        -0.35026E+06         0.00000E+00
   -0.35026E+06        -0.27595E+08         0.00000E+00
    0.00000E+00         0.00000E+00        -0.85210E+07
 
   -0.14790E+08        -0.32474E+06         0.00000E+00
   -0.32474E+06        -0.27561E+08         0.00000E+00
    0.00000E+00         0.00000E+00        -0.84703E+07
 
   -0.14575E+08        -0.29829E+06         0.00000E+00
   -0.29829E+06        -0.27529E+08         0.00000E+00
    0.00000E+00         0.00000E+00        -0.84210E+07
 
   -0.14364E+08        -0.27099E+06         0.00000E+00
   -0.27099E+06        -0.27501E+08         0.00000E+00
    0.00000E+00         0.00000E+00        -0.83730E+07
 
   -0.14156E+08        -0.24287E+06         0.00000E+00
   -0.24287E+06        -0.27475E+08         0.00000E+00
    0.00000E+00         0.00000E+00        -0.83262E+07
 
   -0.13950E+08        -0.21395E+06         0.00000E+00
   -0.21395E+06        -0.27452E+08         0.00000E+00
    0.00000E+00         0.00000E+00        -0.82805E+07
 
   -0.13746E+08        -0.18423E+06         0.00000E+00
   -0.18423E+06        -0.27433E+08         0.00000E+00
    0.00000E+00         0.00000E+00        -0.82359E+07
 
   -0.13544E+08        -0.15371E+06         0.00000E+00
   -0.15371E+06        -0.27417E+08         0.00000E+00
    0.00000E+00         0.00000E+00        -0.81922E+07
 
   -0.13342E+08        -0.12236E+06         0.00000E+00
   -0.12236E+06        -0.27405E+08         0.00000E+00
    0.00000E+00         0.00000E+00        -0.81494E+07
 
   -0.13141E+08        -0.90123E+05         0.00000E+00
   -0.90123E+05        -0.27396E+08         0.00000E+00
    0.00000E+00         0.00000E+00        -0.81075E+07
 
   -0.12939E+08        -0.56956E+05         0.00000E+00
   -0.56956E+05        -0.27392E+08         0.00000E+00
    0.00000E+00         0.00000E+00        -0.80663E+07
 
   -0.12737E+08        -0.22781E+05         0.00000E+00
   -0.22781E+05        -0.27392E+08         0.00000E+00
    0.00000E+00         0.00000E+00        -0.80258E+07
 
   -0.12534E+08         0.12492E+05         0.00000E+00
    0.12492E+05        -0.27396E+08         0.00000E+00
    0.00000E+00         0.00000E+00        -0.79859E+07
 
   -0.12328E+08         0.48972E+05         0.00000E+00
    0.48972E+05        -0.27404E+08         0.00000E+00
    0.00000E+00         0.00000E+00        -0.79465E+07
 
   -0.12121E+08         0.86790E+05         0.00000E+00
    0.86790E+05        -0.27418E+08         0.00000E+00
    0.00000E+00         0.00000E+00        -0.79077E+07
 
   -0.11911E+08         0.12610E+06         0.00000E+00
    0.12610E+06        -0.27436E+08         0.00000E+00
    0.00000E+00         0.00000E+00        -0.78692E+07
 
   -0.11697E+08         0.16710E+06         0.00000E+00
    0.16710E+06        -0.27459E+08         0.00000E+00
    0.00000E+00         0.00000E+00        -0.78312E+07
 
   -0.11480E+08         0.21000E+06         0.00000E+00
    0.21000E+06        -0.27487E+08         0.00000E+00
    0.00000E+00         0.00000E+00        -0.77934E+07
 
   -0.11258E+08         0.25507E+06         0.00000E+00
    0.25507E+06        -0.27521E+08         0.00000E+00
    0.00000E+00         0.00000E+00        -0.77558E+07
 
   -0.11031E+08         0.30264E+06         0.00000E+00
    0.30264E+06        -0.27561E+08         0.00000E+00
    0.00000E+00         0.00000E+00        -0.77184E+07
 
   -0.10799E+08         0.35309E+06         0.00000E+00
    0.35309E+06        -0.27606E+08         0.00000E+00
    0.00000E+00         0.00000E+00        -0.76810E+07
 
   -0.10560E+08         0.40691E+06         0.00000E+00
    0.40691E+06        -0.27659E+08         0.00000E+00
    0.00000E+00         0.00000E+00        -0.76437E+07
 
   -0.10314E+08         0.46466E+06         0.00000E+00
    0.46466E+06        -0.27718E+08         0.00000E+00
    0.00000E+00         0.00000E+00        -0.76064E+07
 
   -0.10060E+08         0.52709E+06         0.00000E+00
    0.52709E+06        -0.27785E+08         0.00000E+00
    0.00000E+00         0.00000E+00        -0.75689E+07
 
   -0.97971E+07         0.59509E+06         0.00000E+00
    0.59509E+06        -0.27859E+08         0.00000E+00
    0.00000E+00         0.00000E+00        -0.75313E+07
 
   -0.95249E+07         0.66981E+06         0.00000E+00
    0.66981E+06        -0.27942E+08         0.00000E+00
    0.00000E+00         0.00000E+00        -0.74934E+07
 
   -0.92425E+07         0.75271E+06         0.00000E+00
    0.75271E+06        -0.28034E+08         0.00000E+00
    0.00000E+00         0.00000E+00        -0.74553E+07
 
   -0.89494E+07         0.84570E+06         0.00000E+00
    0.84570E+06        -0.28135E+08         0.00000E+00
    0.00000E+00         0.00000E+00        -0.74169E+07
 
   -0.86453E+07         0.95124E+06         0.00000E+00
    0.95124E+06        -0.28246E+08         0.00000E+00
    0.00000E+00         0.00000E+00        -0.73784E+07
 
   -0.83310E+07         0.10726E+07         0.00000E+00
    0.10726E+07        -0.28368E+08         0.00000E+00
    0.00000E+00         0.00000E+00        -0.73399E+07
 
   -0.80087E+07         0.12140E+07         0.00000E+00
    0.12140E+07        -0.28501E+08         0.00000E+00
    0.00000E+00         0.00000E+00        -0.73020E+07
 
   -0.76843E+07         0.13811E+07         0.00000E+00
    0.13811E+07        -0.28645E+08         0.00000E+00
    0.00000E+00         0.00000E+00        -0.72659E+07
 
   -0.73712E+07         0.15810E+07         0.00000E+00
    0.15810E+07        -0.28800E+08         0.00000E+00
    0.00000E+00         0.00000E+00        -0.72342E+07
 
   -0.22304E+08        -0.14855E+06         0.00000E+00
   -0.14855E+06        -0.29392E+08         0.00000E+00
    0.00000E+00         0.00000E+00        -0.10339E+08
 
   -0.21633E+08        -0.19256E+06         0.00000E+00
   -0.19256E+06        -0.29341E+08         0.00000E+00
    0.00000E+00         0.00000E+00        -0.10195E+08
 
   -0.21051E+08        -0.21407E+06         0.00000E+00
   -0.21407E+06        -0.29276E+08         0.00000E+00
    0.00000E+00         0.00000E+00        -0.10066E+08
 
   -0.20537E+08        -0.22345E+06         0.00000E+00
   -0.22345E+06        -0.29204E+08         0.00000E+00
    0.00000E+00         0.00000E+00        -0.99483E+07
 
   -0.20075E+08        -0.22601E+06         0.00000E+00
   -0.22601E+06        -0.29127E+08         0.00000E+00
    0.00000E+00         0.00000E+00        -0.98404E+07
 
   -0.19654E+08        -0.22456E+06         0.00000E+00
   -0.22456E+06        -0.29047E+08         0.00000E+00
    0.00000E+00         0.00000E+00        -0.97404E+07
 
   -0.19267E+08        -0.22064E+06         0.00000E+00
   -0.22064E+06        -0.28967E+08         0.00000E+00
    0.00000E+00         0.00000E+00        -0.96469E+07
 
   -0.18908E+08        -0.21514E+06         0.00000E+00
   -0.21514E+06        -0.28888E+08         0.00000E+00
    0.00000E+00         0.00000E+00        -0.95591E+07
 
   -0.18572E+08        -0.20858E+06         0.00000E+00
   -0.20858E+06        -0.28809E+08         0.00000E+00
    0.00000E+00         0.00000E+00        -0.94762E+07
 
   -0.18257E+08        -0.20127E+06         0.00000E+00
   -0.20127E+06        -0.28732E+08         0.00000E+00
    0.00000E+00         0.00000E+00        -0.93978E+07
 
   -0.17958E+08        -0.19343E+06         0.00000E+00
   -0.19343E+06        -0.28658E+08         0.00000E+00
    0.00000E+00         0.00000E+00        -0.93232E+07
 
   -0.17675E+08        -0.18517E+06         0.00000E+00
   -0.18517E+06        -0.28586E+08         0.00000E+00
    0.00000E+00         0.00000E+00        -0.92521E+07
 
   -0.17404E+08        -0.17660E+06         0.00000E+00
   -0.17660E+06        -0.28517E+08         0.00000E+00
    0.00000E+00         0.00000E+00        -0.91841E+07
 
   -0.17145E+08        -0.16777E+06         0.00000E+00
   -0.16777E+06        -0.28451E+08         0.00000E+00
    0.00000E+00         0.00000E+00        -0.91190E+07
 
   -0.16895E+08        -0.15872E+06         0.00000E+00
   -0.15872E+06        -0.28388E+08         0.00000E+00
    0.00000E+00         0.00000E+00        -0.90565E+07
 
   -0.16654E+08        -0.14947E+06         0.00000E+00
   -0.14947E+06        -0.28328E+08         0.00000E+00
    0.00000E+00         0.00000E+00        -0.89964E+07
 
   -0.16420E+08        -0.14005E+06         0.00000E+00
   -0.14005E+06        -0.28272E+08         0.00000E+00
    0.00000E+00         0.00000E+00        -0.89384E+07
 
   -0.16192E+08        -0.13047E+06         0.00000E+00
   -0.13047E+06        -0.28220E+08         0.00000E+00
    0.00000E+00         0.00000E+00        -0.88824E+07
 
   -0.15970E+08        -0.12074E+06         0.00000E+00
   -0.12074E+06        -0.28171E+08         0.00000E+00
    0.00000E+00         0.00000E+00        -0.88282E+07
 
   -0.15752E+08        -0.11085E+06         0.00000E+00
   -0.11085E+06        -0.28126E+08         0.00000E+00
    0.00000E+00         0.00000E+00        -0.87757E+07
 
   -0.15539E+08        -0.10080E+06         0.00000E+00
   -0.10080E+06        -0.28085E+08         0.00000E+00
    0.00000E+00         0.00000E+00        -0.87247E+07
 
   -0.15328E+08        -0.90588E+05         0.00000E+00
   -0.90588E+05        -0.28048E+08         0.00000E+00
    0.00000E+00         0.00000E+00        -0.86752E+07
 
   -0.15120E+08        -0.80205E+05         0.00000E+00
   -0.80205E+05        -0.28015E+08         0.00000E+00
    0.00000E+00         0.00000E+00        -0.86269E+07
 
   -0.14913E+08        -0.69638E+05         0.00000E+00
   -0.69638E+05        -0.27986E+08         0.00000E+00
    0.00000E+00         0.00000E+00        -0.85799E+07
 
   -0.14708E+08        -0.58871E+05         0.00000E+00
   -0.58871E+05        -0.27961E+08         0.00000E+00
    0.00000E+00         0.00000E+00        -0.85339E+07
 
   -0.14504E+08        -0.47887E+05         0.00000E+00
   -0.47887E+05        -0.27941E+08         0.00000E+00
    0.00000E+00         0.00000E+00        -0.84889E+07
 
   -0.14300E+08        -0.36662E+05         0.00000E+00
   -0.36662E+05        -0.27924E+08         0.00000E+00
    0.00000E+00         0.00000E+00        -0.84448E+07
 
   -0.14095E+08        -0.25172E+05         0.00000E+00
   -0.25172E+05        -0.27913E+08         0.00000E+00
    0.00000E+00         0.00000E+00        -0.84015E+07
 
   -0.13889E+08        -0.13385E+05         0.00000E+00
   -0.13385E+05        -0.27906E+08         0.00000E+00
    0.00000E+00         0.00000E+00        -0.83590E+07
 
   -0.13682E+08        -0.12654E+04         0.00000E+00
   -0.12654E+04        -0.27903E+08         0.00000E+00
    0.00000E+00         0.00000E+00        -0.83170E+07
 
   -0.13472E+08         0.11228E+05         0.00000E+00
    0.11228E+05        -0.27906E+08         0.00000E+00
    0.00000E+00         0.00000E+00        -0.82756E+07
 
   -0.13260E+08         0.24145E+05         0.00000E+00
    0.24145E+05        -0.27913E+08         0.00000E+00
    0.00000E+00         0.00000E+00        -0.82347E+07
 
   -0.13045E+08         0.37544E+05         0.00000E+00
    0.37544E+05        -0.27926E+08         0.00000E+00
    0.00000E+00         0.00000E+00        -0.81942E+07
 
   -0.12825E+08         0.51493E+05         0.00000E+00
    0.51493E+05        -0.27944E+08         0.00000E+00
    0.00000E+00         0.00000E+00        -0.81539E+07
 
   -0.12601E+08         0.66075E+05         0.00000E+00
    0.66075E+05        -0.27968E+08         0.00000E+00
    0.00000E+00         0.00000E+00        -0.81138E+07
 
   -0.12371E+08         0.81390E+05         0.00000E+00
    0.81390E+05        -0.27998E+08         0.00000E+00
    0.00000E+00         0.00000E+00        -0.80738E+07
 
   -0.12135E+08         0.97560E+05         0.00000E+00
    0.97560E+05        -0.28034E+08         0.00000E+00
    0.00000E+00         0.00000E+00        -0.80338E+07
 
   -0.11892E+08         0.11473E+06         0.00000E+00
    0.11473E+06        -0.28077E+08         0.00000E+00
    0.00000E+00         0.00000E+00        -0.79937E+07
 
   -0.11640E+08         0.13310E+06         0.00000E+00
    0.13310E+06        -0.28126E+08         0.00000E+00
    0.00000E+00         0.00000E+00        -0.79533E+07
 
   -0.11379E+08         0.15289E+06         0.00000E+00
    0.15289E+06        -0.28184E+08         0.00000E+00
    0.00000E+00         0.00000E+00        -0.79124E+07
 
   -0.11106E+08         0.17441E+06         0.00000E+00
    0.17441E+06        -0.28249E+08         0.00000E+00
    0.00000E+00         0.00000E+00        -0.78711E+07
 
   -0.10821E+08         0.19806E+06         0.00000E+00
    0.19806E+06        -0.28323E+08         0.00000E+00
    0.00000E+00         0.00000E+00        -0.78289E+07
 
   -0.10522E+08         0.22438E+06         0.00000E+00
    0.22438E+06        -0.28407E+08         0.00000E+00
    0.00000E+00         0.00000E+00        -0.77858E+07
 
   -0.10205E+08         0.25408E+06         0.00000E+00
    0.25408E+06        -0.28502E+08         0.00000E+00
    0.00000E+00         0.00000E+00        -0.77413E+07
 
   -0.98677E+07         0.28822E+06         0.00000E+00
    0.28822E+06        -0.28609E+08         0.00000E+00
    0.00000E+00         0.00000E+00        -0.76953E+07
 
   -0.95062E+07         0.32827E+06         0.00000E+00
    0.32827E+06        -0.28730E+08         0.00000E+00
    0.00000E+00         0.00000E+00        -0.76471E+07
 
   -0.91149E+07         0.37650E+06         0.00000E+00
    0.37650E+06        -0.28867E+08         0.00000E+00
    0.00000E+00         0.00000E+00        -0.75963E+07
 
   -0.86864E+07         0.43649E+06         0.00000E+00
    0.43649E+06        -0.29023E+08         0.00000E+00
    0.00000E+00         0.00000E+00        -0.75419E+07
 
   -0.82102E+07         0.51417E+06         0.00000E+00
    0.51417E+06        -0.29203E+08         0.00000E+00
    0.00000E+00         0.00000E+00        -0.74825E+07
 
   -0.76696E+07         0.61998E+06         0.00000E+00
    0.61998E+06        -0.29411E+08         0.00000E+00
    0.00000E+00         0.00000E+00        -0.74161E+07
 
TENSORS stresstot double 
   -0.55269E+08        -0.11843E+06         0.00000E+00
   -0.11843E+06        -0.50030E+08         0.00000E+00
    0.00000E+00         0.00000E+00        -0.59937E+08
 
   -0.55330E+08        -0.10585E+06         0.00000E+00
   -0.10585E+06        -0.50045E+08         0.00000E+00
    0.00000E+00         0.00000E+00        -0.60576E+08
 
   -0.55472E+08        -0.10901E+06         0.00000E+00
   -0.10901E+06        -0.50064E+08         0.00000E+00
    0.00000E+00         0.00000E+00        -0.61145E+08
 
   -0.55653E+08        -0.11899E+06         0.00000E+00
   -0.11899E+06        -0.50089E+08         0.00000E+00
    0.00000E+00         0.00000E+00        -0.61654E+08
 
   -0.55863E+08        -0.13468E+06         0.00000E+00
   -0.13468E+06        -0.50127E+08         0.00000E+00
    0.00000E+00         0.00000E+00        -0.62087E+08
 
   -0.56100E+08        -0.15268E+06         0.00000E+00
   -0.15268E+06        -0.50178E+08         0.00000E+00
    0.00000E+00         0.00000E+00        -0.62407E+08
 
   -0.56347E+08        -0.16672E+06         0.00000E+00
   -0.16672E+06        -0.50241E+08         0.00000E+00
    0.00000E+00         0.00000E+00        -0.62586E+08
 
   -0.56599E+08        -0.17247E+06         0.00000E+00
   -0.17247E+06        -0.50302E+08         0.00000E+00
    0.00000E+00         0.00000E+00        -0.62725E+08
 
   -0.56851E+08        -0.16892E+06         0.00000E+00
   -0.16892E+06        -0.50363E+08         0.00000E+00
    0.00000E+00         0.00000E+00        -0.62862E+08
 
   -0.57091E+08        -0.16025E+06         0.00000E+00
   -0.16025E+06        -0.50423E+08         0.00000E+00
    0.00000E+00         0.00000E+00        -0.62991E+08
 
   -0.57318E+08        -0.15004E+06         0.00000E+00
   -0.15004E+06        -0.50478E+08         0.00000E+00
    0.00000E+00         0.00000E+00        -0.63108E+08
 
   -0.57530E+08        -0.14072E+06         0.00000E+00
   -0.14072E+06        -0.50530E+08         0.00000E+00
    0.00000E+00         0.00000E+00        -0.63215E+08
 
   -0.57730E+08        -0.13301E+06         0.00000E+00
   -0.13301E+06        -0.50579E+08         0.00000E+00
    0.00000E+00         0.00000E+00        -0.63315E+08
 
   -0.57920E+08        -0.12710E+06         0.00000E+00
   -0.12710E+06        -0.50627E+08         0.00000E+00
    0.00000E+00         0.00000E+00        -0.63409E+08
 
   -0.58101E+08        -0.12294E+06         0.00000E+00
   -0.12294E+06        -0.50677E+08         0.00000E+00
    0.00000E+00         0.00000E+00        -0.63485E+08
 
   -0.58274E+08        -0.11965E+06         0.00000E+00
   -0.11965E+06        -0.50728E+08         0.00000E+00
    0.00000E+00         0.00000E+00        -0.63538E+08
 
   -0.58440E+08        -0.11691E+06         0.00000E+00
   -0.11691E+06        -0.50777E+08         0.00000E+00
    0.00000E+00         0.00000E+00        -0.63588E+08
 
   -0.58601E+08        -0.11404E+06         0.00000E+00
   -0.11404E+06        -0.50824E+08         0.00000E+00
    0.00000E+00         0.00000E+00        -0.63631E+08
 
   -0.58758E+08        -0.11058E+06         0.00000E+00
   -0.11058E+06        -0.50870E+08         0.00000E+00
    0.00000E+00         0.00000E+00        -0.63671E+08
 
   -0.58911E+08        -0.10653E+06         0.00000E+00
   -0.10653E+06        -0.50913E+08         0.00000E+00
    0.00000E+00         0.00000E+00        -0.63710E+08
 
   -0.59061E+08        -0.10200E+06         0.00000E+00
   -0.10200E+06        -0.50954E+08         0.00000E+00
    0.00000E+00         0.00000E+00        -0.63749E+08
 
   -0.59208E+08        -0.97067E+05         0.00000E+00
   -0.97067E+05        -0.50994E+08         0.00000E+00
    0.00000E+00         0.00000E+00        -0.63786E+08
 
   -0.59354E+08        -0.91798E+05         0.00000E+00
   -0.91798E+05        -0.51031E+08         0.00000E+00
    0.00000E+00         0.00000E+00        -0.63823E+08
 
   -0.59497E+08        -0.86239E+05         0.00000E+00
   -0.86239E+05        -0.51066E+08         0.00000E+00
    0.00000E+00         0.00000E+00        -0.63858E+08
 
   -0.59641E+08        -0.80414E+05         0.00000E+00
   -0.80414E+05        -0.51098E+08         0.00000E+00
    0.00000E+00         0.00000E+00        -0.63893E+08
 
   -0.59783E+08        -0.74331E+05         0.00000E+00
   -0.74331E+05        -0.51129E+08         0.00000E+00
    0.00000E+00         0.00000E+00        -0.63928E+08
 
   -0.59926E+08        -0.67979E+05         0.00000E+00
   -0.67979E+05        -0.51156E+08         0.00000E+00
    0.00000E+00         0.00000E+00        -0.63962E+08
 
   -0.60070E+08        -0.61333E+05         0.00000E+00
   -0.61333E+05        -0.51182E+08         0.00000E+00
    0.00000E+00         0.00000E+00        -0.63996E+08
 
   -0.60215E+08        -0.54350E+05         0.00000E+00
   -0.54350E+05        -0.51204E+08         0.00000E+00
    0.00000E+00         0.00000E+00        -0.64030E+08
 
   -0.60362E+08        -0.46969E+05         0.00000E+00
   -0.46969E+05        -0.51224E+08         0.00000E+00
    0.00000E+00         0.00000E+00        -0.64063E+08
 
   -0.60512E+08        -0.39106E+05         0.00000E+00
   -0.39106E+05        -0.51240E+08         0.00000E+00
    0.00000E+00         0.00000E+00        -0.64096E+08
 
   -0.60665E+08        -0.30643E+05         0.00000E+00
   -0.30643E+05        -0.51254E+08         0.00000E+00
    0.00000E+00         0.00000E+00        -0.64130E+08
 
   -0.60823E+08        -0.21419E+05         0.00000E+00
   -0.21419E+05        -0.51264E+08         0.00000E+00
    0.00000E+00         0.00000E+00        -0.64163E+08
 
   -0.60986E+08        -0.11196E+05         0.00000E+00
   -0.11196E+05        -0.51270E+08         0.00000E+00
    0.00000E+00         0.00000E+00        -0.64197E+08
 
   -0.61155E+08         0.38820E+03         0.00000E+00
    0.38820E+03        -0.51272E+08         0.00000E+00
    0.00000E+00         0.00000E+00        -0.64231E+08
 
   -0.61326E+08         0.14399E+05         0.00000E+00
    0.14399E+05        -0.51269E+08         0.00000E+00
    0.00000E+00         0.00000E+00        -0.64256E+08
 
   -0.61491E+08         0.31491E+05         0.00000E+00
    0.31491E+05        -0.51260E+08         0.00000E+00
    0.00000E+00         0.00000E+00        -0.64252E+08
 
   -0.61622E+08         0.47776E+05         0.00000E+00
    0.47776E+05        -0.51247E+08         0.00000E+00
    0.00000E+00         0.00000E+00        -0.64181E+08
 
   -0.61732E+08         0.57792E+05         0.00000E+00
    0.57792E+05        -0.51224E+08         0.00000E+00
    0.00000E+00         0.00000E+00        -0.64086E+08
 
   -0.61830E+08         0.64095E+05         0.00000E+00
    0.64095E+05        -0.51199E+08         0.00000E+00
    0.00000E+00         0.00000E+00        -0.63987E+08
 
   -0.61916E+08         0.71845E+05         0.00000E+00
    0.71845E+05        -0.51170E+08         0.00000E+00
    0.00000E+00         0.00000E+00        -0.63880E+08
 
   -0.61991E+08         0.80806E+05         0.00000E+00
    0.80806E+05        -0.51138E+08         0.00000E+00
    0.00000E+00         0.00000E+00        -0.63765E+08
 
   -0.62057E+08         0.89926E+05         0.00000E+00
    0.89926E+05        -0.51103E+08         0.00000E+00
    0.00000E+00         0.00000E+00        -0.63641E+08
 
   -0.62117E+08         0.10049E+06         0.00000E+00
    0.10049E+06        -0.51065E+08         0.00000E+00
    0.00000E+00         0.00000E+00        -0.63507E+08
 
   -0.62167E+08         0.11343E+06         0.00000E+00
    0.11343E+06        -0.51021E+08         0.00000E+00
    0.00000E+00         0.00000E+00        -0.63360E+08
 
   -0.62209E+08         0.12864E+06         0.00000E+00
    0.12864E+06        -0.50973E+08         0.00000E+00
    0.00000E+00         0.00000E+00        -0.63199E+08
 
   -0.62245E+08         0.14741E+06         0.00000E+00
    0.14741E+06        -0.50919E+08         0.00000E+00
    0.00000E+00         0.00000E+00        -0.63019E+08
 
   -0.62266E+08         0.17054E+06         0.00000E+00
    0.17054E+06        -0.50858E+08         0.00000E+00
    0.00000E+00         0.00000E+00        -0.62823E+08
 
   -0.62277E+08         0.20037E+06         0.00000E+00
    0.20037E+06        -0.50790E+08         0.00000E+00
    0.00000E+00         0.00000E+00        -0.62604E+08
 
   -0.62271E+08         0.24115E+06         0.00000E+00
    0.24115E+06        -0.50717E+08         0.00000E+00
    0.00000E+00         0.00000E+00        -0.62370E+08
 
   -0.55444E+08         0.29386E+04         0.00000E+00
    0.29386E+04        -0.49933E+08         0.00000E+00
    0.00000E+00         0.00000E+00        -0.62259E+08
 
   -0.55533E+08        -0.79111E+05         0.00000E+00
   -0.79111E+05        -0.49921E+08         0.00000E+00
    0.00000E+00         0.00000E+00        -0.62266E+08
 
   -0.55678E+08        -0.15057E+06         0.00000E+00
   -0.15057E+06        -0.49927E+08         0.00000E+00
    0.00000E+00         0.00000E+00        -0.62302E+08
 
   -0.55855E+08        -0.21341E+06         0.00000E+00
   -0.21341E+06        -0.49943E+08         0.00000E+00
    0.00000E+00         0.00000E+00        -0.62356E+08
 
   -0.56051E+08        -0.26749E+06         0.00000E+00
   -0.26749E+06        -0.49959E+08         0.00000E+00
    0.00000E+00         0.00000E+00        -0.62410E+08
 
   -0.56256E+08        -0.31027E+06         0.00000E+00
   -0.31027E+06        -0.49970E+08         0.00000E+00
    0.00000E+00         0.00000E+00        -0.62458E+08
 
   -0.56464E+08        -0.34183E+06         0.00000E+00
   -0.34183E+06        -0.49976E+08         0.00000E+00
    0.00000E+00         0.00000E+00        -0.62498E+08
 
   -0.56674E+08        -0.36518E+06         0.00000E+00
   -0.36518E+06        -0.49995E+08         0.00000E+00
    0.00000E+00         0.00000E+00        -0.62550E+08
 
   -0.56886E+08        -0.38157E+06         0.00000E+00
   -0.38157E+06        -0.50019E+08         0.00000E+00
    0.00000E+00         0.00000E+00        -0.62608E+08
 
   -0.57096E+08        -0.39124E+06         0.00000E+00
   -0.39124E+06        -0.50051E+08         0.00000E+00
    0.00000E+00         0.00000E+00        -0.62666E+08
 
   -0.57303E+08        -0.39457E+06         0.00000E+00
   -0.39457E+06        -0.50090E+08         0.00000E+00
    0.00000E+00         0.00000E+00        -0.62717E+08
 
   -0.57504E+08        -0.39261E+06         0.00000E+00
   -0.39261E+06        -0.50134E+08         0.00000E+00
    0.00000E+00         0.00000E+00        -0.62765E+08
 
   -0.57698E+08        -0.38699E+06         0.00000E+00
   -0.38699E+06        -0.50181E+08         0.00000E+00
    0.00000E+00         0.00000E+00        -0.62814E+08
 
   -0.57885E+08        -0.37883E+06         0.00000E+00
   -0.37883E+06        -0.50228E+08         0.00000E+00
    0.00000E+00         0.00000E+00        -0.62861E+08
 
   -0.58063E+08        -0.36864E+06         0.00000E+00
   -0.36864E+06        -0.50271E+08         0.00000E+00
    0.00000E+00         0.00000E+00        -0.62905E+08
 
   -0.58234E+08        -0.35682E+06         0.00000E+00
   -0.35682E+06        -0.50309E+08         0.00000E+00
    0.00000E+00         0.00000E+00        -0.62947E+08
 
   -0.58399E+08        -0.34377E+06         0.00000E+00
   -0.34377E+06        -0.50346E+08         0.00000E+00
    0.00000E+00         0.00000E+00        -0.62987E+08
 
   -0.58558E+08        -0.32991E+06         0.00000E+00
   -0.32991E+06        -0.50383E+08         0.00000E+00
    0.00000E+00         0.00000E+00        -0.63026E+08
 
   -0.58712E+08        -0.31561E+06         0.00000E+00
   -0.31561E+06        -0.50418E+08         0.00000E+00
    0.00000E+00         0.00000E+00        -0.63064E+08
 
   -0.58863E+08        -0.30090E+06         0.00000E+00
   -0.30090E+06        -0.50451E+08         0.00000E+00
    0.00000E+00         0.00000E+00        -0.63101E+08
 
   -0.59010E+08        -0.28575E+06         0.00000E+00
   -0.28575E+06        -0.50483E+08         0.00000E+00
    0.00000E+00         0.00000E+00        -0.63137E+08
 
   -0.59156E+08        -0.27012E+06         0.00000E+00
   -0.27012E+06        -0.50512E+08         0.00000E+00
    0.00000E+00         0.00000E+00        -0.63172E+08
 
   -0.59299E+08        -0.25400E+06         0.00000E+00
   -0.25400E+06        -0.50540E+08         0.00000E+00
    0.00000E+00         0.00000E+00        -0.63206E+08
 
   -0.59441E+08        -0.23734E+06         0.00000E+00
   -0.23734E+06        -0.50566E+08         0.00000E+00
    0.00000E+00         0.00000E+00        -0.63239E+08
 
   -0.59582E+08        -0.22012E+06         0.00000E+00
   -0.22012E+06        -0.50590E+08         0.00000E+00
    0.00000E+00         0.00000E+00        -0.63272E+08
 
   -0.59722E+08        -0.20227E+06         0.00000E+00
   -0.20227E+06        -0.50612E+08         0.00000E+00
    0.00000E+00         0.00000E+00        -0.63305E+08
 
   -0.59862E+08        -0.18373E+06         0.00000E+00
   -0.18373E+06        -0.50632E+08         0.00000E+00
    0.00000E+00         0.00000E+00        -0.63337E+08
 
   -0.60003E+08        -0.16439E+06         0.00000E+00
   -0.16439E+06        -0.50649E+08         0.00000E+00
    0.00000E+00         0.00000E+00        -0.63368E+08
 
   -0.60145E+08        -0.14412E+06         0.00000E+00
   -0.14412E+06        -0.50664E+08         0.00000E+00
    0.00000E+00         0.00000E+00        -0.63400E+08
 
   -0.60288E+08        -0.12275E+06         0.00000E+00
   -0.12275E+06        -0.50677E+08         0.00000E+00
    0.00000E+00         0.00000E+00        -0.63431E+08
 
   -0.60432E+08        -0.10008E+06         0.00000E+00
   -0.10008E+06        -0.50686E+08         0.00000E+00
    0.00000E+00         0.00000E+00        -0.63462E+08
 
   -0.60579E+08        -0.75834E+05         0.00000E+00
   -0.75834E+05        -0.50694E+08         0.00000E+00
    0.00000E+00         0.00000E+00        -0.63493E+08
 
   -0.60729E+08        -0.49677E+05         0.00000E+00
   -0.49677E+05        -0.50698E+08         0.00000E+00
    0.00000E+00         0.00000E+00        -0.63523E+08
 
   -0.60881E+08        -0.21183E+05         0.00000E+00
   -0.21183E+05        -0.50699E+08         0.00000E+00
    0.00000E+00         0.00000E+00        -0.63554E+08
 
   -0.61037E+08         0.10179E+05         0.00000E+00
    0.10179E+05        -0.50697E+08         0.00000E+00
    0.00000E+00         0.00000E+00        -0.63585E+08
 
   -0.61196E+08         0.44385E+05         0.00000E+00
    0.44385E+05        -0.50691E+08         0.00000E+00
    0.00000E+00         0.00000E+00        -0.63615E+08
 
   -0.61357E+08         0.80725E+05         0.00000E+00
    0.80725E+05        -0.50683E+08         0.00000E+00
    0.00000E+00         0.00000E+00        -0.63639E+08
 
   -0.61508E+08         0.11902E+06         0.00000E+00
    0.11902E+06        -0.50669E+08         0.00000E+00
    0.00000E+00         0.00000E+00        -0.63631E+08
 
   -0.61639E+08         0.15780E+06         0.00000E+00
    0.15780E+06        -0.50662E+08         0.00000E+00
    0.00000E+00         0.00000E+00        -0.63575E+08
 
   -0.61743E+08         0.19178E+06         0.00000E+00
    0.19178E+06        -0.50643E+08         0.00000E+00
    0.00000E+00         0.00000E+00        -0.63473E+08
 
   -0.61828E+08         0.21809E+06         0.00000E+00
    0.21809E+06        -0.50615E+08         0.00000E+00
    0.00000E+00         0.00000E+00        -0.63350E+08
 
   -0.61899E+08         0.24202E+06         0.00000E+00
    0.24202E+06        -0.50584E+08         0.00000E+00
    0.00000E+00         0.00000E+00        -0.63224E+08
 
   -0.61954E+08         0.26962E+06         0.00000E+00
    0.26962E+06        -0.50549E+08         0.00000E+00
    0.00000E+00         0.00000E+00        -0.63092E+08
 
   -0.61996E+08         0.30176E+06         0.00000E+00
    0.30176E+06        -0.50510E+08         0.00000E+00
    0.00000E+00         0.00000E+00        -0.62951E+08
 
   -0.62026E+08         0.33802E+06         0.00000E+00
    0.33802E+06        -0.50468E+08         0.00000E+00
    0.00000E+00         0.00000E+00        -0.62803E+08
 
   -0.62041E+08         0.38067E+06         0.00000E+00
    0.38067E+06        -0.50422E+08         0.00000E+00
    0.00000E+00         0.00000E+00        -0.62648E+08
 
   -0.62042E+08         0.43110E+06         0.00000E+00
    0.43110E+06        -0.50371E+08         0.00000E+00
    0.00000E+00         0.00000E+00        -0.62482E+08
 
   -0.62023E+08         0.49067E+06         0.00000E+00
    0.49067E+06        -0.50315E+08         0.00000E+00
    0.00000E+00         0.00000E+00        -0.62308E+08
 
   -0.61977E+08         0.55980E+06         0.00000E+00
    0.55980E+06        -0.50251E+08         0.00000E+00
    0.00000E+00         0.00000E+00        -0.62125E+08
 
   -0.61893E+08         0.63767E+06         0.00000E+00
    0.63767E+06        -0.50176E+08         0.00000E+00
    0.00000E+00         0.00000E+00        -0.61933E+08
 
   -0.55706E+08        -0.21108E+05         0.00000E+00
   -0.21108E+05        -0.50025E+08         0.00000E+00
    0.00000E+00         0.00000E+00        -0.61879E+08
 
   -0.55855E+08        -0.83125E+05         0.00000E+00
   -0.83125E+05        -0.50037E+08         0.00000E+00
    0.00000E+00         0.00000E+00        -0.61911E+08
 
   -0.56001E+08        -0.15209E+06         0.00000E+00
   -0.15209E+06        -0.50039E+08         0.00000E+00
    0.00000E+00         0.00000E+00        -0.61941E+08
 
   -0.56152E+08        -0.21886E+06         0.00000E+00
   -0.21886E+06        -0.50036E+08         0.00000E+00
    0.00000E+00         0.00000E+00        -0.61970E+08
 
   -0.56310E+08        -0.27916E+06         0.00000E+00
   -0.27916E+06        -0.50033E+08         0.00000E+00
    0.00000E+00         0.00000E+00        -0.62001E+08
 
   -0.56474E+08        -0.33242E+06         0.00000E+00
   -0.33242E+06        -0.50032E+08         0.00000E+00
    0.00000E+00         0.00000E+00        -0.62034E+08
 
   -0.56643E+08        -0.37915E+06         0.00000E+00
   -0.37915E+06        -0.50036E+08         0.00000E+00
    0.00000E+00         0.00000E+00        -0.62069E+08
 
   -0.56815E+08        -0.41878E+06         0.00000E+00
   -0.41878E+06        -0.50037E+08         0.00000E+00
    0.00000E+00         0.00000E+00        -0.62103E+08
 
   -0.56990E+08        -0.45048E+06         0.00000E+00
   -0.45048E+06        -0.50039E+08         0.00000E+00
    0.00000E+00         0.00000E+00        -0.62139E+08
 
   -0.57165E+08        -0.47427E+06         0.00000E+00
   -0.47427E+06        -0.50042E+08         0.00000E+00
    0.00000E+00         0.00000E+00        -0.62174E+08
 
   -0.57340E+08        -0.49057E+06         0.00000E+00
   -0.49057E+06        -0.50046E+08         0.00000E+00
    0.00000E+00         0.00000E+00        -0.62210E+08
 
   -0.57513E+08        -0.50009E+06         0.00000E+00
   -0.50009E+06        -0.50052E+08         0.00000E+00
    0.00000E+00         0.00000E+00        -0.62246E+08
 
   -0.57684E+08        -0.50330E+06         0.00000E+00
   -0.50330E+06        -0.50059E+08         0.00000E+00
    0.00000E+00         0.00000E+00        -0.62281E+08
 
   -0.57851E+08        -0.50081E+06         0.00000E+00
   -0.50081E+06        -0.50067E+08         0.00000E+00
    0.00000E+00         0.00000E+00        -0.62316E+08
 
   -0.58015E+08        -0.49363E+06         0.00000E+00
   -0.49363E+06        -0.50078E+08         0.00000E+00
    0.00000E+00         0.00000E+00        -0.62351E+08
 
   -0.58174E+08        -0.48291E+06         0.00000E+00
   -0.48291E+06        -0.50091E+08         0.00000E+00
    0.00000E+00         0.00000E+00        -0.62386E+08
 
   -0.58329E+08        -0.46942E+06         0.00000E+00
   -0.46942E+06        -0.50105E+08         0.00000E+00
    0.00000E+00         0.00000E+00        -0.62420E+08
 
   -0.58481E+08        -0.45360E+06         0.00000E+00
   -0.45360E+06        -0.50119E+08         0.00000E+00
    0.00000E+00         0.00000E+00        -0.62453E+08
 
   -0.58629E+08        -0.43577E+06         0.00000E+00
   -0.43577E+06        -0.50132E+08         0.00000E+00
    0.00000E+00         0.00000E+00        -0.62485E+08
 
   -0.58775E+08        -0.41624E+06         0.00000E+00
   -0.41624E+06        -0.50146E+08         0.00000E+00
    0.00000E+00         0.00000E+00        -0.62517E+08
 
   -0.58918E+08        -0.39525E+06         0.00000E+00
   -0.39525E+06        -0.50159E+08         0.00000E+00
    0.00000E+00         0.00000E+00        -0.62548E+08
 
   -0.59059E+08        -0.37294E+06         0.00000E+00
   -0.37294E+06        -0.50171E+08         0.00000E+00
    0.00000E+00         0.00000E+00        -0.62579E+08
 
   -0.59197E+08        -0.34940E+06         0.00000E+00
   -0.34940E+06        -0.50182E+08         0.00000E+00
    0.00000E+00         0.00000E+00        -0.62609E+08
 
   -0.59335E+08        -0.32468E+06         0.00000E+00
   -0.32468E+06        -0.50192E+08         0.00000E+00
    0.00000E+00         0.00000E+00        -0.62638E+08
 
   -0.59471E+08        -0.29880E+06         0.00000E+00
   -0.29880E+06        -0.50201E+08         0.00000E+00
    0.00000E+00         0.00000E+00        -0.62667E+08
 
   -0.59607E+08        -0.27173E+06         0.00000E+00
   -0.27173E+06        -0.50208E+08         0.00000E+00
    0.00000E+00         0.00000E+00        -0.62696E+08
 
   -0.59742E+08        -0.24342E+06         0.00000E+00
   -0.24342E+06        -0.50214E+08         0.00000E+00
    0.00000E+00         0.00000E+00        -0.62724E+08
 
   -0.59877E+08        -0.21378E+06         0.00000E+00
   -0.21378E+06        -0.50218E+08         0.00000E+00
    0.00000E+00         0.00000E+00        -0.62752E+08
 
   -0.60012E+08        -0.18272E+06         0.00000E+00
   -0.18272E+06        -0.50220E+08         0.00000E+00
    0.00000E+00         0.00000E+00        -0.62779E+08
 
   -0.60148E+08        -0.15006E+06         0.00000E+00
   -0.15006E+06        -0.50220E+08         0.00000E+00
    0.00000E+00         0.00000E+00        -0.62806E+08
 
   -0.60284E+08        -0.11564E+06         0.00000E+00
   -0.11564E+06        -0.50218E+08         0.00000E+00
    0.00000E+00         0.00000E+00        -0.62833E+08
 
   -0.60421E+08        -0.79227E+05         0.00000E+00
   -0.79227E+05        -0.50214E+08         0.00000E+00
    0.00000E+00         0.00000E+00        -0.62860E+08
 
   -0.60559E+08        -0.40570E+05         0.00000E+00
   -0.40570E+05        -0.50208E+08         0.00000E+00
    0.00000E+00         0.00000E+00        -0.62886E+08
 
   -0.60698E+08         0.60680E+03         0.00000E+00
    0.60680E+03        -0.50200E+08         0.00000E+00
    0.00000E+00         0.00000E+00        -0.62912E+08
 
   -0.60839E+08         0.44575E+05         0.00000E+00
    0.44575E+05        -0.50190E+08         0.00000E+00
    0.00000E+00         0.00000E+00        -0.62938E+08
 
   -0.60981E+08         0.91781E+05         0.00000E+00
    0.91781E+05        -0.50177E+08         0.00000E+00
    0.00000E+00         0.00000E+00        -0.62964E+08
 
   -0.61126E+08         0.14245E+06         0.00000E+00
    0.14245E+06        -0.50164E+08         0.00000E+00
    0.00000E+00         0.00000E+00        -0.62991E+08
 
   -0.61274E+08         0.19487E+06         0.00000E+00
    0.19487E+06        -0.50149E+08         0.00000E+00
    0.00000E+00         0.00000E+00        -0.63017E+08
 
   -0.61420E+08         0.24799E+06         0.00000E+00
    0.24799E+06        -0.50120E+08         0.00000E+00
    0.00000E+00         0.00000E+00        -0.63030E+08
 
   -0.61545E+08         0.30447E+06         0.00000E+00
    0.30447E+06        -0.50095E+08         0.00000E+00
    0.00000E+00         0.00000E+00        -0.62993E+08
 
   -0.61645E+08         0.36349E+06         0.00000E+00
    0.36349E+06        -0.50085E+08         0.00000E+00
    0.00000E+00         0.00000E+00        -0.62905E+08
 
   -0.61709E+08         0.41922E+06         0.00000E+00
    0.41922E+06        -0.50054E+08         0.00000E+00
    0.00000E+00         0.00000E+00        -0.62766E+08
 
   -0.61751E+08         0.46812E+06         0.00000E+00
    0.46812E+06        -0.50014E+08         0.00000E+00
    0.00000E+00         0.00000E+00        -0.62610E+08
 
   -0.61774E+08         0.51552E+06         0.00000E+00
    0.51552E+06        -0.49970E+08         0.00000E+00
    0.00000E+00         0.00000E+00        -0.62453E+08
 
   -0.61775E+08         0.56842E+06         0.00000E+00
    0.56842E+06        -0.49922E+08         0.00000E+00
    0.00000E+00         0.00000E+00        -0.62294E+08
 
   -0.61757E+08         0.62807E+06         0.00000E+00
    0.62807E+06        -0.49872E+08         0.00000E+00
    0.00000E+00         0.00000E+00        -0.62135E+08
 
   -0.61720E+08         0.69441E+06         0.00000E+00
    0.69441E+06        -0.49821E+08         0.00000E+00
    0.00000E+00         0.00000E+00        -0.61978E+08
 
   -0.61668E+08         0.76526E+06         0.00000E+00
    0.76526E+06        -0.49768E+08         0.00000E+00
    0.00000E+00         0.00000E+00        -0.61826E+08
 
   -0.61601E+08         0.84042E+06         0.00000E+00
    0.84042E+06        -0.49715E+08         0.00000E+00
    0.00000E+00         0.00000E+00        -0.61680E+08
 
   -0.61524E+08         0.91675E+06         0.00000E+00
    0.91675E+06        -0.49666E+08         0.00000E+00
    0.00000E+00         0.00000E+00        -0.61547E+08
 
   -0.56038E+08        -0.48563E+05         0.00000E+00
   -0.48563E+05        -0.49994E+08         0.00000E+00
    0.00000E+00         0.00000E+00        -0.61438E+08
 
   -0.56176E+08        -0.11611E+06         0.00000E+00
   -0.11611E+06        -0.49997E+08         0.00000E+00
    0.00000E+00         0.00000E+00        -0.61466E+08
 
   -0.56311E+08        -0.17689E+06         0.00000E+00
   -0.17689E+06        -0.50001E+08         0.00000E+00
    0.00000E+00         0.00000E+00        -0.61494E+08
 
   -0.56444E+08        -0.23348E+06         0.00000E+00
   -0.23348E+06        -0.50006E+08         0.00000E+00
    0.00000E+00         0.00000E+00        -0.61521E+08
 
   -0.56577E+08        -0.28615E+06         0.00000E+00
   -0.28615E+06        -0.50008E+08         0.00000E+00
    0.00000E+00         0.00000E+00        -0.61548E+08
 
   -0.56712E+08        -0.33407E+06         0.00000E+00
   -0.33407E+06        -0.50007E+08         0.00000E+00
    0.00000E+00         0.00000E+00        -0.61575E+08
 
   -0.56848E+08        -0.37628E+06         0.00000E+00
   -0.37628E+06        -0.50004E+08         0.00000E+00
    0.00000E+00         0.00000E+00        -0.61602E+08
 
   -0.56988E+08        -0.41248E+06         0.00000E+00
   -0.41248E+06        -0.50001E+08         0.00000E+00
    0.00000E+00         0.00000E+00        -0.61629E+08
 
   -0.57128E+08        -0.44277E+06         0.00000E+00
   -0.44277E+06        -0.49996E+08         0.00000E+00
    0.00000E+00         0.00000E+00        -0.61656E+08
 
   -0.57270E+08        -0.46713E+06         0.00000E+00
   -0.46713E+06        -0.49991E+08         0.00000E+00
    0.00000E+00         0.00000E+00        -0.61684E+08
 
   -0.57413E+08        -0.48561E+06         0.00000E+00
   -0.48561E+06        -0.49986E+08         0.00000E+00
    0.00000E+00         0.00000E+00        -0.61711E+08
 
   -0.57556E+08        -0.49833E+06         0.00000E+00
   -0.49833E+06        -0.49980E+08         0.00000E+00
    0.00000E+00         0.00000E+00        -0.61739E+08
 
   -0.57699E+08        -0.50562E+06         0.00000E+00
   -0.50562E+06        -0.49974E+08         0.00000E+00
    0.00000E+00         0.00000E+00        -0.61766E+08
 
   -0.57841E+08        -0.50789E+06         0.00000E+00
   -0.50789E+06        -0.49969E+08         0.00000E+00
    0.00000E+00         0.00000E+00        -0.61794E+08
 
   -0.57983E+08        -0.50546E+06         0.00000E+00
   -0.50546E+06        -0.49963E+08         0.00000E+00
    0.00000E+00         0.00000E+00        -0.61821E+08
 
   -0.58123E+08        -0.49862E+06         0.00000E+00
   -0.49862E+06        -0.49958E+08         0.00000E+00
    0.00000E+00         0.00000E+00        -0.61848E+08
 
   -0.58262E+08        -0.48775E+06         0.00000E+00
   -0.48775E+06        -0.49954E+08         0.00000E+00
    0.00000E+00         0.00000E+00        -0.61875E+08
 
   -0.58400E+08        -0.47330E+06         0.00000E+00
   -0.47330E+06        -0.49949E+08         0.00000E+00
    0.00000E+00         0.00000E+00        -0.61901E+08
 
   -0.58536E+08        -0.45566E+06         0.00000E+00
   -0.45566E+06        -0.49945E+08         0.00000E+00
    0.00000E+00         0.00000E+00        -0.61928E+08
 
   -0.58670E+08        -0.43516E+06         0.00000E+00
   -0.43516E+06        -0.49940E+08         0.00000E+00
    0.00000E+00         0.00000E+00        -0.61954E+08
 
   -0.58803E+08        -0.41204E+06         0.00000E+00
   -0.41204E+06        -0.49936E+08         0.00000E+00
    0.00000E+00         0.00000E+00        -0.61979E+08
 
   -0.58935E+08        -0.38654E+06         0.00000E+00
   -0.38654E+06        -0.49930E+08         0.00000E+00
    0.00000E+00         0.00000E+00        -0.62005E+08
 
   -0.59065E+08        -0.35883E+06         0.00000E+00
   -0.35883E+06        -0.49925E+08         0.00000E+00
    0.00000E+00         0.00000E+00        -0.62030E+08
 
   -0.59195E+08        -0.32906E+06         0.00000E+00
   -0.32906E+06        -0.49918E+08         0.00000E+00
    0.00000E+00         0.00000E+00        -0.62054E+08
 
   -0.59323E+08        -0.29731E+06         0.00000E+00
   -0.29731E+06        -0.49910E+08         0.00000E+00
    0.00000E+00         0.00000E+00        -0.62078E+08
 
   -0.59451E+08        -0.26364E+06         0.00000E+00
   -0.26364E+06        -0.49901E+08         0.00000E+00
    0.00000E+00         0.00000E+00        -0.62102E+08
 
   -0.59578E+08        -0.22808E+06         0.00000E+00
   -0.22808E+06        -0.49891E+08         0.00000E+00
    0.00000E+00         0.00000E+00        -0.62126E+08
 
   -0.59705E+08        -0.19061E+06         0.00000E+00
   -0.19061E+06        -0.49880E+08         0.00000E+00
    0.00000E+00         0.00000E+00        -0.62149E+08
 
   -0.59831E+08        -0.15122E+06         0.00000E+00
   -0.15122E+06        -0.49867E+08         0.00000E+00
    0.00000E+00         0.00000E+00        -0.62171E+08
 
   -0.59957E+08        -0.10982E+06         0.00000E+00
   -0.10982E+06        -0.49853E+08         0.00000E+00
    0.00000E+00         0.00000E+00        -0.62194E+08
 
   -0.60083E+08        -0.66335E+05         0.00000E+00
   -0.66335E+05        -0.49837E+08         0.00000E+00
    0.00000E+00         0.00000E+00        -0.62216E+08
 
   -0.60209E+08        -0.20640E+05         0.00000E+00
   -0.20640E+05        -0.49819E+08         0.00000E+00
    0.00000E+00         0.00000E+00        -0.62237E+08
 
   -0.60335E+08         0.27413E+05         0.00000E+00
    0.27413E+05        -0.49799E+08         0.00000E+00
    0.00000E+00         0.00000E+00        -0.62258E+08
 
   -0.60461E+08         0.78005E+05         0.00000E+00
    0.78005E+05        -0.49778E+08         0.00000E+00
    0.00000E+00         0.00000E+00        -0.62279E+08
 
   -0.60587E+08         0.13137E+06         0.00000E+00
    0.13137E+06        -0.49755E+08         0.00000E+00
    0.00000E+00         0.00000E+00        -0.62300E+08
 
   -0.60713E+08         0.18775E+06         0.00000E+00
    0.18775E+06        -0.49730E+08         0.00000E+00
    0.00000E+00         0.00000E+00        -0.62320E+08
 
   -0.60839E+08         0.24754E+06         0.00000E+00
    0.24754E+06        -0.49703E+08         0.00000E+00
    0.00000E+00         0.00000E+00        -0.62340E+08
 
   -0.60964E+08         0.31190E+06         0.00000E+00
    0.31190E+06        -0.49674E+08         0.00000E+00
    0.00000E+00         0.00000E+00        -0.62359E+08
 
   -0.61089E+08         0.38071E+06         0.00000E+00
    0.38071E+06        -0.49648E+08         0.00000E+00
    0.00000E+00         0.00000E+00        -0.62379E+08
 
   -0.61215E+08         0.45031E+06         0.00000E+00
    0.45031E+06        -0.49618E+08         0.00000E+00
    0.00000E+00         0.00000E+00        -0.62398E+08
 
   -0.61332E+08         0.52036E+06         0.00000E+00
    0.52036E+06        -0.49564E+08         0.00000E+00
    0.00000E+00         0.00000E+00        -0.62397E+08
 
   -0.61415E+08         0.59481E+06         0.00000E+00
    0.59481E+06        -0.49522E+08         0.00000E+00
    0.00000E+00         0.00000E+00        -0.62336E+08
 
   -0.61465E+08         0.67322E+06         0.00000E+00
    0.67322E+06        -0.49505E+08         0.00000E+00
    0.00000E+00         0.00000E+00        -0.62225E+08
 
   -0.61479E+08         0.75061E+06         0.00000E+00
    0.75061E+06        -0.49468E+08         0.00000E+00
    0.00000E+00         0.00000E+00        -0.62070E+08
 
   -0.61466E+08         0.82046E+06         0.00000E+00
    0.82046E+06        -0.49418E+08         0.00000E+00
    0.00000E+00         0.00000E+00        -0.61898E+08
 
   -0.61432E+08         0.88367E+06         0.00000E+00
    0.88367E+06        -0.49364E+08         0.00000E+00
    0.00000E+00         0.00000E+00        -0.61727E+08
 
   -0.61381E+08         0.94432E+06         0.00000E+00
    0.94432E+06        -0.49311E+08         0.00000E+00
    0.00000E+00         0.00000E+00        -0.61569E+08
 
   -0.61312E+08         0.10094E+07         0.00000E+00
    0.10094E+07        -0.49257E+08         0.00000E+00
    0.00000E+00         0.00000E+00        -0.61421E+08
 
   -0.61234E+08         0.10781E+07         0.00000E+00
    0.10781E+07        -0.49208E+08         0.00000E+00
    0.00000E+00         0.00000E+00        -0.61287E+08
 
   -0.61147E+08         0.11493E+07         0.00000E+00
    0.11493E+07        -0.49160E+08         0.00000E+00
    0.00000E+00         0.00000E+00        -0.61163E+08
 
   -0.56408E+08        -0.42324E+05         0.00000E+00
   -0.42324E+05        -0.50002E+08         0.00000E+00
    0.00000E+00         0.00000E+00        -0.61018E+08
 
   -0.56504E+08        -0.11097E+06         0.00000E+00
   -0.11097E+06        -0.49999E+08         0.00000E+00
    0.00000E+00         0.00000E+00        -0.61037E+08
 
   -0.56604E+08        -0.17189E+06         0.00000E+00
   -0.17189E+06        -0.49995E+08         0.00000E+00
    0.00000E+00         0.00000E+00        -0.61056E+08
 
   -0.56707E+08        -0.22555E+06         0.00000E+00
   -0.22555E+06        -0.49991E+08         0.00000E+00
    0.00000E+00         0.00000E+00        -0.61076E+08
 
   -0.56813E+08        -0.27268E+06         0.00000E+00
   -0.27268E+06        -0.49986E+08         0.00000E+00
    0.00000E+00         0.00000E+00        -0.61096E+08
 
   -0.56920E+08        -0.31392E+06         0.00000E+00
   -0.31392E+06        -0.49979E+08         0.00000E+00
    0.00000E+00         0.00000E+00        -0.61116E+08
 
   -0.57029E+08        -0.34972E+06         0.00000E+00
   -0.34972E+06        -0.49972E+08         0.00000E+00
    0.00000E+00         0.00000E+00        -0.61136E+08
 
   -0.57141E+08        -0.38024E+06         0.00000E+00
   -0.38024E+06        -0.49964E+08         0.00000E+00
    0.00000E+00         0.00000E+00        -0.61157E+08
 
   -0.57254E+08        -0.40552E+06         0.00000E+00
   -0.40552E+06        -0.49954E+08         0.00000E+00
    0.00000E+00         0.00000E+00        -0.61178E+08
 
   -0.57368E+08        -0.42566E+06         0.00000E+00
   -0.42566E+06        -0.49943E+08         0.00000E+00
    0.00000E+00         0.00000E+00        -0.61198E+08
 
   -0.57484E+08        -0.44079E+06         0.00000E+00
   -0.44079E+06        -0.49932E+08         0.00000E+00
    0.00000E+00         0.00000E+00        -0.61219E+08
 
   -0.57602E+08        -0.45104E+06         0.00000E+00
   -0.45104E+06        -0.49919E+08         0.00000E+00
    0.00000E+00         0.00000E+00        -0.61240E+08
 
   -0.57720E+08        -0.45656E+06         0.00000E+00
   -0.45656E+06        -0.49906E+08         0.00000E+00
    0.00000E+00         0.00000E+00        -0.61261E+08
 
   -0.57839E+08        -0.45747E+06         0.00000E+00
   -0.45747E+06        -0.49892E+08         0.00000E+00
    0.00000E+00         0.00000E+00        -0.61282E+08
 
   -0.57959E+08        -0.45397E+06         0.00000E+00
   -0.45397E+06        -0.49877E+08         0.00000E+00
    0.00000E+00         0.00000E+00        -0.61303E+08
 
   -0.58078E+08        -0.44630E+06         0.00000E+00
   -0.44630E+06        -0.49862E+08         0.00000E+00
    0.00000E+00         0.00000E+00        -0.61324E+08
 
   -0.58198E+08        -0.43465E+06         0.00000E+00
   -0.43465E+06        -0.49847E+08         0.00000E+00
    0.00000E+00         0.00000E+00        -0.61345E+08
 
   -0.58318E+08        -0.41921E+06         0.00000E+00
   -0.41921E+06        -0.49831E+08         0.00000E+00
    0.00000E+00         0.00000E+00        -0.61366E+08
 
   -0.58437E+08        -0.40019E+06         0.00000E+00
   -0.40019E+06        -0.49814E+08         0.00000E+00
    0.00000E+00         0.00000E+00        -0.61386E+08
 
   -0.58557E+08        -0.37780E+06         0.00000E+00
   -0.37780E+06        -0.49797E+08         0.00000E+00
    0.00000E+00         0.00000E+00        -0.61407E+08
 
   -0.58676E+08        -0.35222E+06         0.00000E+00
   -0.35222E+06        -0.49779E+08         0.00000E+00
    0.00000E+00         0.00000E+00        -0.61427E+08
 
   -0.58794E+08        -0.32363E+06         0.00000E+00
   -0.32363E+06        -0.49761E+08         0.00000E+00
    0.00000E+00         0.00000E+00        -0.61447E+08
 
   -0.58912E+08        -0.29217E+06         0.00000E+00
   -0.29217E+06        -0.49742E+08         0.00000E+00
    0.00000E+00         0.00000E+00        -0.61467E+08
 
   -0.59029E+08        -0.25797E+06         0.00000E+00
   -0.25797E+06        -0.49722E+08         0.00000E+00
    0.00000E+00         0.00000E+00        -0.61486E+08
 
   -0.59146E+08        -0.22114E+06         0.00000E+00
   -0.22114E+06        -0.49701E+08         0.00000E+00
    0.00000E+00         0.00000E+00        -0.61506E+08
 
   -0.59263E+08        -0.18175E+06         0.00000E+00
   -0.18175E+06        -0.49680E+08         0.00000E+00
    0.00000E+00         0.00000E+00        -0.61525E+08
 
   -0.59379E+08        -0.13987E+06         0.00000E+00
   -0.13987E+06        -0.49656E+08         0.00000E+00
    0.00000E+00         0.00000E+00        -0.61543E+08
 
   -0.59495E+08        -0.95514E+05         0.00000E+00
   -0.95514E+05        -0.49632E+08         0.00000E+00
    0.00000E+00         0.00000E+00        -0.61561E+08
 
   -0.59610E+08        -0.48709E+05         0.00000E+00
   -0.48709E+05        -0.49606E+08         0.00000E+00
    0.00000E+00         0.00000E+00        -0.61579E+08
 
   -0.59725E+08         0.55713E+03         0.00000E+00
    0.55713E+03        -0.49579E+08         0.00000E+00
    0.00000E+00         0.00000E+00        -0.61597E+08
 
   -0.59839E+08         0.52314E+05         0.00000E+00
    0.52314E+05        -0.49550E+08         0.00000E+00
    0.00000E+00         0.00000E+00        -0.61614E+08
 
   -0.59953E+08         0.10661E+06         0.00000E+00
    0.10661E+06        -0.49519E+08         0.00000E+00
    0.00000E+00         0.00000E+00        -0.61630E+08
 
   -0.60066E+08         0.16353E+06         0.00000E+00
    0.16353E+06        -0.49487E+08         0.00000E+00
    0.00000E+00         0.00000E+00        -0.61647E+08
 
   -0.60178E+08         0.22315E+06         0.00000E+00
    0.22315E+06        -0.49453E+08         0.00000E+00
    0.00000E+00         0.00000E+00        -0.61662E+08
 
   -0.60289E+08         0.28561E+06         0.00000E+00
    0.28561E+06        -0.49416E+08         0.00000E+00
    0.00000E+00         0.00000E+00        -0.61677E+08
 
   -0.60399E+08         0.35107E+06         0.00000E+00
    0.35107E+06        -0.49378E+08         0.00000E+00
    0.00000E+00         0.00000E+00        -0.61692E+08
 
   -0.60507E+08         0.41969E+06         0.00000E+00
    0.41969E+06        -0.49339E+08         0.00000E+00
    0.00000E+00         0.00000E+00        -0.61705E+08
 
   -0.60613E+08         0.49146E+06         0.00000E+00
    0.49146E+06        -0.49297E+08         0.00000E+00
    0.00000E+00         0.00000E+00        -0.61718E+08
 
   -0.60717E+08         0.56687E+06         0.00000E+00
    0.56687E+06        -0.49253E+08         0.00000E+00
    0.00000E+00         0.00000E+00        -0.61730E+08
 
   -0.60816E+08         0.64750E+06         0.00000E+00
    0.64750E+06        -0.49208E+08         0.00000E+00
    0.00000E+00         0.00000E+00        -0.61741E+08
 
   -0.60911E+08         0.73205E+06         0.00000E+00
    0.73205E+06        -0.49169E+08         0.00000E+00
    0.00000E+00         0.00000E+00        -0.61752E+08
 
   -0.61001E+08         0.81469E+06         0.00000E+00
    0.81469E+06        -0.49127E+08         0.00000E+00
    0.00000E+00         0.00000E+00        -0.61762E+08
 
   -0.61078E+08         0.89477E+06         0.00000E+00
    0.89477E+06        -0.49050E+08         0.00000E+00
    0.00000E+00         0.00000E+00        -0.61753E+08
 
   -0.61121E+08         0.97594E+06         0.00000E+00
    0.97594E+06        -0.48981E+08         0.00000E+00
    0.00000E+00         0.00000E+00        -0.61694E+08
 
   -0.61131E+08         0.10584E+07         0.00000E+00
    0.10584E+07        -0.48948E+08         0.00000E+00
    0.00000E+00         0.00000E+00        -0.61590E+08
 
   -0.61118E+08         0.11398E+07         0.00000E+00
    0.11398E+07        -0.48921E+08         0.00000E+00
    0.00000E+00         0.00000E+00        -0.61460E+08
 
   -0.61066E+08         0.12158E+07         0.00000E+00
    0.12158E+07        -0.48872E+08         0.00000E+00
    0.00000E+00         0.00000E+00        -0.61293E+08
 
   -0.61000E+08         0.12778E+07         0.00000E+00
    0.12778E+07        -0.48817E+08         0.00000E+00
    0.00000E+00         0.00000E+00        -0.61128E+08
 
   -0.60913E+08         0.13292E+07         0.00000E+00
    0.13292E+07        -0.48755E+08         0.00000E+00
    0.00000E+00         0.00000E+00        -0.60966E+08
 
   -0.60815E+08         0.13757E+07         0.00000E+00
    0.13757E+07        -0.48699E+08         0.00000E+00
    0.00000E+00         0.00000E+00        -0.60826E+08
 
   -0.56741E+08        -0.36843E+05         0.00000E+00
   -0.36843E+05        -0.50001E+08         0.00000E+00
    0.00000E+00         0.00000E+00        -0.60596E+08
 
   -0.56804E+08        -0.94859E+05         0.00000E+00
   -0.94859E+05        -0.49998E+08         0.00000E+00
    0.00000E+00         0.00000E+00        -0.60608E+08
 
   -0.56871E+08        -0.14693E+06         0.00000E+00
   -0.14693E+06        -0.49993E+08         0.00000E+00
    0.00000E+00         0.00000E+00        -0.60621E+08
 
   -0.56943E+08        -0.19314E+06         0.00000E+00
   -0.19314E+06        -0.49987E+08         0.00000E+00
    0.00000E+00         0.00000E+00        -0.60634E+08
 
   -0.57019E+08        -0.23361E+06         0.00000E+00
   -0.23361E+06        -0.49978E+08         0.00000E+00
    0.00000E+00         0.00000E+00        -0.60647E+08
 
   -0.57098E+08        -0.26852E+06         0.00000E+00
   -0.26852E+06        -0.49968E+08         0.00000E+00
    0.00000E+00         0.00000E+00        -0.60661E+08
 
   -0.57180E+08        -0.29806E+06         0.00000E+00
   -0.29806E+06        -0.49956E+08         0.00000E+00
    0.00000E+00         0.00000E+00        -0.60675E+08
 
   -0.57266E+08        -0.32245E+06         0.00000E+00
   -0.32245E+06        -0.49943E+08         0.00000E+00
    0.00000E+00         0.00000E+00        -0.60690E+08
 
   -0.57354E+08        -0.34191E+06         0.00000E+00
   -0.34191E+06        -0.49929E+08         0.00000E+00
    0.00000E+00         0.00000E+00        -0.60704E+08
 
   -0.57444E+08        -0.35660E+06         0.00000E+00
   -0.35660E+06        -0.49913E+08         0.00000E+00
    0.00000E+00         0.00000E+00        -0.60719E+08
 
   -0.57536E+08        -0.36665E+06         0.00000E+00
   -0.36665E+06        -0.49897E+08         0.00000E+00
    0.00000E+00         0.00000E+00        -0.60734E+08
 
   -0.57630E+08        -0.37220E+06         0.00000E+00
   -0.37220E+06        -0.49879E+08         0.00000E+00
    0.00000E+00         0.00000E+00        -0.60750E+08
 
   -0.57726E+08        -0.37337E+06         0.00000E+00
   -0.37337E+06        -0.49860E+08         0.00000E+00
    0.00000E+00         0.00000E+00        -0.60765E+08
 
   -0.57824E+08        -0.37030E+06         0.00000E+00
   -0.37030E+06        -0.49840E+08         0.00000E+00
    0.00000E+00         0.00000E+00        -0.60781E+08
 
   -0.57922E+08        -0.36311E+06         0.00000E+00
   -0.36311E+06        -0.49820E+08         0.00000E+00
    0.00000E+00         0.00000E+00        -0.60796E+08
 
   -0.58022E+08        -0.35192E+06         0.00000E+00
   -0.35192E+06        -0.49798E+08         0.00000E+00
    0.00000E+00         0.00000E+00        -0.60812E+08
 
   -0.58123E+08        -0.33685E+06         0.00000E+00
   -0.33685E+06        -0.49776E+08         0.00000E+00
    0.00000E+00         0.00000E+00        -0.60828E+08
 
   -0.58224E+08        -0.31803E+06         0.00000E+00
   -0.31803E+06        -0.49753E+08         0.00000E+00
    0.00000E+00         0.00000E+00        -0.60843E+08
 
   -0.58326E+08        -0.29558E+06         0.00000E+00
   -0.29558E+06        -0.49729E+08         0.00000E+00
    0.00000E+00         0.00000E+00        -0.60859E+08
 
   -0.58428E+08        -0.26962E+06         0.00000E+00
   -0.26962E+06        -0.49704E+08         0.00000E+00
    0.00000E+00         0.00000E+00        -0.60874E+08
 
   -0.58531E+08        -0.24025E+06         0.00000E+00
   -0.24025E+06        -0.49678E+08         0.00000E+00
    0.00000E+00         0.00000E+00        -0.60890E+08
 
   -0.58634E+08        -0.20758E+06         0.00000E+00
   -0.20758E+06        -0.49652E+08         0.00000E+00
    0.00000E+00         0.00000E+00        -0.60905E+08
 
   -0.58737E+08        -0.17170E+06         0.00000E+00
   -0.17170E+06        -0.49625E+08         0.00000E+00
    0.00000E+00         0.00000E+00        -0.60920E+08
 
   -0.58840E+08        -0.13271E+06         0.00000E+00
   -0.13271E+06        -0.49596E+08         0.00000E+00
    0.00000E+00         0.00000E+00        -0.60935E+08
 
   -0.58942E+08        -0.90652E+05         0.00000E+00
   -0.90652E+05        -0.49567E+08         0.00000E+00
    0.00000E+00         0.00000E+00        -0.60950E+08
 
   -0.59045E+08        -0.45603E+05         0.00000E+00
   -0.45603E+05        -0.49537E+08         0.00000E+00
    0.00000E+00         0.00000E+00        -0.60964E+08
 
   -0.59148E+08         0.23974E+04         0.00000E+00
    0.23974E+04        -0.49505E+08         0.00000E+00
    0.00000E+00         0.00000E+00        -0.60979E+08
 
   -0.59250E+08         0.53319E+05         0.00000E+00
    0.53319E+05        -0.49473E+08         0.00000E+00
    0.00000E+00         0.00000E+00        -0.60992E+08
 
   -0.59352E+08         0.10714E+06         0.00000E+00
    0.10714E+06        -0.49439E+08         0.00000E+00
    0.00000E+00         0.00000E+00        -0.61006E+08
 
   -0.59453E+08         0.16387E+06         0.00000E+00
    0.16387E+06        -0.49404E+08         0.00000E+00
    0.00000E+00         0.00000E+00        -0.61019E+08
 
   -0.59553E+08         0.22350E+06         0.00000E+00
    0.22350E+06        -0.49367E+08         0.00000E+00
    0.00000E+00         0.00000E+00        -0.61032E+08
 
   -0.59653E+08         0.28607E+06         0.00000E+00
    0.28607E+06        -0.49329E+08         0.00000E+00
    0.00000E+00         0.00000E+00        -0.61044E+08
 
   -0.59752E+08         0.35158E+06         0.00000E+00
    0.35158E+06        -0.49289E+08         0.00000E+00
    0.00000E+00         0.00000E+00        -0.61056E+08
 
   -0.59850E+08         0.42009E+06         0.00000E+00
    0.42009E+06        -0.49248E+08         0.00000E+00
    0.00000E+00         0.00000E+00        -0.61067E+08
 
   -0.59946E+08         0.49162E+06         0.00000E+00
    0.49162E+06        -0.49205E+08         0.00000E+00
    0.00000E+00         0.00000E+00        -0.61078E+08
 
   -0.60041E+08         0.56621E+06         0.00000E+00
    0.56621E+06        -0.49160E+08         0.00000E+00
    0.00000E+00         0.00000E+00        -0.61088E+08
 
   -0.60133E+08         0.64386E+06         0.00000E+00
    0.64386E+06        -0.49114E+08         0.00000E+00
    0.00000E+00         0.00000E+00        -0.61097E+08
 
   -0.60223E+08         0.72466E+06         0.00000E+00
    0.72466E+06        -0.49066E+08         0.00000E+00
    0.00000E+00         0.00000E+00        -0.61106E+08
 
   -0.60310E+08         0.80849E+06         0.00000E+00
    0.80849E+06        -0.49016E+08         0.00000E+00
    0.00000E+00         0.00000E+00        -0.61113E+08
 
   -0.60393E+08         0.89482E+06         0.00000E+00
    0.89482E+06        -0.48965E+08         0.00000E+00
    0.00000E+00         0.00000E+00        -0.61119E+08
 
   -0.60471E+08         0.98402E+06         0.00000E+00
    0.98402E+06        -0.48911E+08         0.00000E+00
    0.00000E+00         0.00000E+00        -0.61124E+08
 
   -0.60544E+08         0.10775E+07         0.00000E+00
    0.10775E+07        -0.48855E+08         0.00000E+00
    0.00000E+00         0.00000E+00        -0.61128E+08
 
   -0.60609E+08         0.11732E+07         0.00000E+00
    0.11732E+07        -0.48808E+08         0.00000E+00
    0.00000E+00         0.00000E+00        -0.61131E+08
 
   -0.60667E+08         0.12632E+07         0.00000E+00
    0.12632E+07        -0.48767E+08         0.00000E+00
    0.00000E+00         0.00000E+00        -0.61135E+08
 
   -0.60717E+08         0.13466E+07         0.00000E+00
    0.13466E+07        -0.48685E+08         0.00000E+00
    0.00000E+00         0.00000E+00        -0.61128E+08
 
   -0.60757E+08         0.14231E+07         0.00000E+00
    0.14231E+07        -0.48592E+08         0.00000E+00
    0.00000E+00         0.00000E+00        -0.61103E+08
 
   -0.60760E+08         0.14966E+07         0.00000E+00
    0.14966E+07        -0.48508E+08         0.00000E+00
    0.00000E+00         0.00000E+00        -0.61027E+08
 
   -0.60745E+08         0.15676E+07         0.00000E+00
    0.15676E+07        -0.48448E+08         0.00000E+00
    0.00000E+00         0.00000E+00        -0.60929E+08
 
   -0.60696E+08         0.16267E+07         0.00000E+00
    0.16267E+07        -0.48422E+08         0.00000E+00
    0.00000E+00         0.00000E+00        -0.60798E+08
 
   -0.60615E+08         0.16778E+07         0.00000E+00
    0.16778E+07        -0.48360E+08         0.00000E+00
    0.00000E+00         0.00000E+00        -0.60647E+08
 
   -0.57017E+08        -0.28889E+05         0.00000E+00
   -0.28889E+05        -0.50001E+08         0.00000E+00
    0.00000E+00         0.00000E+00        -0.60172E+08
 
   -0.57051E+08        -0.74779E+05         0.00000E+00
   -0.74779E+05        -0.49998E+08         0.00000E+00
    0.00000E+00         0.00000E+00        -0.60178E+08
 
   -0.57091E+08        -0.11557E+06         0.00000E+00
   -0.11557E+06        -0.49992E+08         0.00000E+00
    0.00000E+00         0.00000E+00        -0.60185E+08
 
   -0.57136E+08        -0.15141E+06         0.00000E+00
   -0.15141E+06        -0.49985E+08         0.00000E+00
    0.00000E+00         0.00000E+00        -0.60192E+08
 
   -0.57185E+08        -0.18243E+06         0.00000E+00
   -0.18243E+06        -0.49975E+08         0.00000E+00
    0.00000E+00         0.00000E+00        -0.60200E+08
 
   -0.57239E+08        -0.20870E+06         0.00000E+00
   -0.20870E+06        -0.49963E+08         0.00000E+00
    0.00000E+00         0.00000E+00        -0.60209E+08
 
   -0.57297E+08        -0.23033E+06         0.00000E+00
   -0.23033E+06        -0.49949E+08         0.00000E+00
    0.00000E+00         0.00000E+00        -0.60217E+08
 
   -0.57358E+08        -0.24742E+06         0.00000E+00
   -0.24742E+06        -0.49934E+08         0.00000E+00
    0.00000E+00         0.00000E+00        -0.60227E+08
 
   -0.57423E+08        -0.26005E+06         0.00000E+00
   -0.26005E+06        -0.49917E+08         0.00000E+00
    0.00000E+00         0.00000E+00        -0.60236E+08
 
   -0.57491E+08        -0.26834E+06         0.00000E+00
   -0.26834E+06        -0.49899E+08         0.00000E+00
    0.00000E+00         0.00000E+00        -0.60246E+08
 
   -0.57561E+08        -0.27239E+06         0.00000E+00
   -0.27239E+06        -0.49879E+08         0.00000E+00
    0.00000E+00         0.00000E+00        -0.60256E+08
 
   -0.57634E+08        -0.27228E+06         0.00000E+00
   -0.27228E+06        -0.49858E+08         0.00000E+00
    0.00000E+00         0.00000E+00        -0.60267E+08
 
   -0.57709E+08        -0.26813E+06         0.00000E+00
   -0.26813E+06        -0.49837E+08         0.00000E+00
    0.00000E+00         0.00000E+00        -0.60277E+08
 
   -0.57786E+08        -0.26000E+06         0.00000E+00
   -0.26000E+06        -0.49814E+08         0.00000E+00
    0.00000E+00         0.00000E+00        -0.60288E+08
 
   -0.57865E+08        -0.24800E+06         0.00000E+00
   -0.24800E+06        -0.49790E+08         0.00000E+00
    0.00000E+00         0.00000E+00        -0.60299E+08
 
   -0.57945E+08        -0.23220E+06         0.00000E+00
   -0.23220E+06        -0.49765E+08         0.00000E+00
    0.00000E+00         0.00000E+00        -0.60310E+08
 
   -0.58027E+08        -0.21268E+06         0.00000E+00
   -0.21268E+06        -0.49739E+08         0.00000E+00
    0.00000E+00         0.00000E+00        -0.60321E+08
 
   -0.58110E+08        -0.18952E+06         0.00000E+00
   -0.18952E+06        -0.49712E+08         0.00000E+00
    0.00000E+00         0.00000E+00        -0.60333E+08
 
   -0.58194E+08        -0.16280E+06         0.00000E+00
   -0.16280E+06        -0.49684E+08         0.00000E+00
    0.00000E+00         0.00000E+00        -0.60344E+08
 
   -0.58279E+08        -0.13257E+06         0.00000E+00
   -0.13257E+06        -0.49655E+08         0.00000E+00
    0.00000E+00         0.00000E+00        -0.60355E+08
 
   -0.58365E+08        -0.98919E+05         0.00000E+00
   -0.98919E+05        -0.49626E+08         0.00000E+00
    0.00000E+00         0.00000E+00        -0.60366E+08
 
   -0.58451E+08        -0.61892E+05         0.00000E+00
   -0.61892E+05        -0.49596E+08         0.00000E+00
    0.00000E+00         0.00000E+00        -0.60378E+08
 
   -0.58538E+08        -0.21548E+05         0.00000E+00
   -0.21548E+05        -0.49565E+08         0.00000E+00
    0.00000E+00         0.00000E+00        -0.60389E+08
 
   -0.58625E+08         0.22064E+05         0.00000E+00
    0.22064E+05        -0.49533E+08         0.00000E+00
    0.00000E+00         0.00000E+00        -0.60400E+08
 
   -0.58713E+08         0.68902E+05         0.00000E+00
    0.68902E+05        -0.49500E+08         0.00000E+00
    0.00000E+00         0.00000E+00        -0.60411E+08
 
   -0.58800E+08         0.11893E+06         0.00000E+00
    0.11893E+06        -0.49466E+08         0.00000E+00
    0.00000E+00         0.00000E+00        -0.60421E+08
 
   -0.58887E+08         0.17212E+06         0.00000E+00
    0.17212E+06        -0.49432E+08         0.00000E+00
    0.00000E+00         0.00000E+00        -0.60432E+08
 
   -0.58974E+08         0.22846E+06         0.00000E+00
    0.22846E+06        -0.49397E+08         0.00000E+00
    0.00000E+00         0.00000E+00        -0.60442E+08
 
   -0.59061E+08         0.28792E+06         0.00000E+00
    0.28792E+06        -0.49360E+08         0.00000E+00
    0.00000E+00         0.00000E+00        -0.60452E+08
 
   -0.59147E+08         0.35051E+06         0.00000E+00
    0.35051E+06        -0.49323E+08         0.00000E+00
    0.00000E+00         0.00000E+00        -0.60462E+08
 
   -0.59232E+08         0.41621E+06         0.00000E+00
    0.41621E+06        -0.49285E+08         0.00000E+00
    0.00000E+00         0.00000E+00        -0.60472E+08
 
   -0.59317E+08         0.48503E+06         0.00000E+00
    0.48503E+06        -0.49246E+08         0.00000E+00
    0.00000E+00         0.00000E+00        -0.60481E+08
 
   -0.59401E+08         0.55696E+06         0.00000E+00
    0.55696E+06        -0.49206E+08         0.00000E+00
    0.00000E+00         0.00000E+00        -0.60490E+08
 
   -0.59483E+08         0.63202E+06         0.00000E+00
    0.63202E+06        -0.49165E+08         0.00000E+00
    0.00000E+00         0.00000E+00        -0.60498E+08
 
   -0.59564E+08         0.71019E+06         0.00000E+00
    0.71019E+06        -0.49123E+08         0.00000E+00
    0.00000E+00         0.00000E+00        -0.60506E+08
 
   -0.59643E+08         0.79146E+06         0.00000E+00
    0.79146E+06        -0.49081E+08         0.00000E+00
    0.00000E+00         0.00000E+00        -0.60513E+08
 
   -0.59720E+08         0.87581E+06         0.00000E+00
    0.87581E+06        -0.49037E+08         0.00000E+00
    0.00000E+00         0.00000E+00        -0.60520E+08
 
   -0.59795E+08         0.96314E+06         0.00000E+00
    0.96314E+06        -0.48993E+08         0.00000E+00
    0.00000E+00         0.00000E+00        -0.60526E+08
 
   -0.59868E+08         0.10534E+07         0.00000E+00
    0.10534E+07        -0.48948E+08         0.00000E+00
    0.00000E+00         0.00000E+00        -0.60531E+08
 
   -0.59937E+08         0.11466E+07         0.00000E+00
    0.11466E+07        -0.48902E+08         0.00000E+00
    0.00000E+00         0.00000E+00        -0.60536E+08
 
   -0.60004E+08         0.12423E+07         0.00000E+00
    0.12423E+07        -0.48856E+08         0.00000E+00
    0.00000E+00         0.00000E+00        -0.60540E+08
 
   -0.60067E+08         0.13398E+07         0.00000E+00
    0.13398E+07        -0.48810E+08         0.00000E+00
    0.00000E+00         0.00000E+00        -0.60543E+08
 
   -0.60126E+08         0.14391E+07         0.00000E+00
    0.14391E+07        -0.48761E+08         0.00000E+00
    0.00000E+00         0.00000E+00        -0.60546E+08
 
   -0.60182E+08         0.15423E+07         0.00000E+00
    0.15423E+07        -0.48709E+08         0.00000E+00
    0.00000E+00         0.00000E+00        -0.60546E+08
 
   -0.60232E+08         0.16479E+07         0.00000E+00
    0.16479E+07        -0.48665E+08         0.00000E+00
    0.00000E+00         0.00000E+00        -0.60548E+08
 
   -0.60275E+08         0.17525E+07         0.00000E+00
    0.17525E+07        -0.48624E+08         0.00000E+00
    0.00000E+00         0.00000E+00        -0.60548E+08
 
   -0.60316E+08         0.18480E+07         0.00000E+00
    0.18480E+07        -0.48589E+08         0.00000E+00
    0.00000E+00         0.00000E+00        -0.60549E+08
 
   -0.60356E+08         0.19343E+07         0.00000E+00
    0.19343E+07        -0.48523E+08         0.00000E+00
    0.00000E+00         0.00000E+00        -0.60544E+08
 
   -0.60404E+08         0.20150E+07         0.00000E+00
    0.20150E+07        -0.48413E+08         0.00000E+00
    0.00000E+00         0.00000E+00        -0.60532E+08
 
   -0.60434E+08         0.20820E+07         0.00000E+00
    0.20820E+07        -0.48325E+08         0.00000E+00
    0.00000E+00         0.00000E+00        -0.60480E+08
 
   -0.57224E+08        -0.20844E+05         0.00000E+00
   -0.20844E+05        -0.50001E+08         0.00000E+00
    0.00000E+00         0.00000E+00        -0.59743E+08
 
   -0.57236E+08        -0.53298E+05         0.00000E+00
   -0.53298E+05        -0.49998E+08         0.00000E+00
    0.00000E+00         0.00000E+00        -0.59745E+08
 
   -0.57253E+08        -0.81810E+05         0.00000E+00
   -0.81810E+05        -0.49992E+08         0.00000E+00
    0.00000E+00         0.00000E+00        -0.59748E+08
 
   -0.57276E+08        -0.10636E+06         0.00000E+00
   -0.10636E+06        -0.49984E+08         0.00000E+00
    0.00000E+00         0.00000E+00        -0.59751E+08
 
   -0.57303E+08        -0.12694E+06         0.00000E+00
   -0.12694E+06        -0.49974E+08         0.00000E+00
    0.00000E+00         0.00000E+00        -0.59754E+08
 
   -0.57336E+08        -0.14359E+06         0.00000E+00
   -0.14359E+06        -0.49962E+08         0.00000E+00
    0.00000E+00         0.00000E+00        -0.59758E+08
 
   -0.57372E+08        -0.15632E+06         0.00000E+00
   -0.15632E+06        -0.49948E+08         0.00000E+00
    0.00000E+00         0.00000E+00        -0.59763E+08
 
   -0.57413E+08        -0.16517E+06         0.00000E+00
   -0.16517E+06        -0.49932E+08         0.00000E+00
    0.00000E+00         0.00000E+00        -0.59767E+08
 
   -0.57457E+08        -0.17019E+06         0.00000E+00
   -0.17019E+06        -0.49915E+08         0.00000E+00
    0.00000E+00         0.00000E+00        -0.59773E+08
 
   -0.57505E+08        -0.17140E+06         0.00000E+00
   -0.17140E+06        -0.49896E+08         0.00000E+00
    0.00000E+00         0.00000E+00        -0.59779E+08
 
   -0.57555E+08        -0.16885E+06         0.00000E+00
   -0.16885E+06        -0.49875E+08         0.00000E+00
    0.00000E+00         0.00000E+00        -0.59785E+08
 
   -0.57608E+08        -0.16260E+06         0.00000E+00
   -0.16260E+06        -0.49854E+08         0.00000E+00
    0.00000E+00         0.00000E+00        -0.59791E+08
 
   -0.57664E+08        -0.15268E+06         0.00000E+00
   -0.15268E+06        -0.49831E+08         0.00000E+00
    0.00000E+00         0.00000E+00        -0.59798E+08
 
   -0.57723E+08        -0.13914E+06         0.00000E+00
   -0.13914E+06        -0.49807E+08         0.00000E+00
    0.00000E+00         0.00000E+00        -0.59804E+08
 
   -0.57783E+08        -0.12204E+06         0.00000E+00
   -0.12204E+06        -0.49782E+08         0.00000E+00
    0.00000E+00         0.00000E+00        -0.59811E+08
 
   -0.57845E+08        -0.10142E+06         0.00000E+00
   -0.10142E+06        -0.49756E+08         0.00000E+00
    0.00000E+00         0.00000E+00        -0.59819E+08
 
   -0.57909E+08        -0.77323E+05         0.00000E+00
   -0.77323E+05        -0.49729E+08         0.00000E+00
    0.00000E+00         0.00000E+00        -0.59826E+08
 
   -0.57975E+08        -0.49804E+05         0.00000E+00
   -0.49804E+05        -0.49701E+08         0.00000E+00
    0.00000E+00         0.00000E+00        -0.59834E+08
 
   -0.58042E+08        -0.18904E+05         0.00000E+00
   -0.18904E+05        -0.49672E+08         0.00000E+00
    0.00000E+00         0.00000E+00        -0.59841E+08
 
   -0.58110E+08         0.15334E+05         0.00000E+00
    0.15334E+05        -0.49643E+08         0.00000E+00
    0.00000E+00         0.00000E+00        -0.59849E+08
 
   -0.58179E+08         0.52871E+05         0.00000E+00
    0.52871E+05        -0.49613E+08         0.00000E+00
    0.00000E+00         0.00000E+00        -0.59857E+08
 
   -0.58249E+08         0.93666E+05         0.00000E+00
    0.93666E+05        -0.49582E+08         0.00000E+00
    0.00000E+00         0.00000E+00        -0.59865E+08
 
   -0.58319E+08         0.13768E+06         0.00000E+00
    0.13768E+06        -0.49551E+08         0.00000E+00
    0.00000E+00         0.00000E+00        -0.59873E+08
 
   -0.58390E+08         0.18489E+06         0.00000E+00
    0.18489E+06        -0.49519E+08         0.00000E+00
    0.00000E+00         0.00000E+00        -0.59880E+08
 
   -0.58462E+08         0.23525E+06         0.00000E+00
    0.23525E+06        -0.49486E+08         0.00000E+00
    0.00000E+00         0.00000E+00        -0.59888E+08
 
   -0.58533E+08         0.28874E+06         0.00000E+00
    0.28874E+06        -0.49453E+08         0.00000E+00
    0.00000E+00         0.00000E+00        -0.59896E+08
 
   -0.58605E+08         0.34533E+06         0.00000E+00
    0.34533E+06        -0.49420E+08         0.00000E+00
    0.00000E+00         0.00000E+00        -0.59903E+08
 
   -0.58676E+08         0.40498E+06         0.00000E+00
    0.40498E+06        -0.49386E+08         0.00000E+00
    0.00000E+00         0.00000E+00        -0.59911E+08
 
   -0.58748E+08         0.46768E+06         0.00000E+00
    0.46768E+06        -0.49351E+08         0.00000E+00
    0.00000E+00         0.00000E+00        -0.59918E+08
 
   -0.58818E+08         0.53339E+06         0.00000E+00
    0.53339E+06        -0.49316E+08         0.00000E+00
    0.00000E+00         0.00000E+00        -0.59925E+08
 
   -0.58889E+08         0.60210E+06         0.00000E+00
    0.60210E+06        -0.49281E+08         0.00000E+00
    0.00000E+00         0.00000E+00        -0.59932E+08
 
   -0.58958E+08         0.67375E+06         0.00000E+00
    0.67375E+06        -0.49245E+08         0.00000E+00
    0.00000E+00         0.00000E+00        -0.59939E+08
 
   -0.59027E+08         0.74832E+06         0.00000E+00
    0.74832E+06        -0.49210E+08         0.00000E+00
    0.00000E+00         0.00000E+00        -0.59946E+08
 
   -0.59094E+08         0.82575E+06         0.00000E+00
    0.82575E+06        -0.49174E+08         0.00000E+00
    0.00000E+00         0.00000E+00        -0.59952E+08
 
   -0.59161E+08         0.90600E+06         0.00000E+00
    0.90600E+06        -0.49138E+08         0.00000E+00
    0.00000E+00         0.00000E+00        -0.59958E+08
 
   -0.59225E+08         0.98898E+06         0.00000E+00
    0.98898E+06        -0.49102E+08         0.00000E+00
    0.00000E+00         0.00000E+00        -0.59964E+08
 
   -0.59289E+08         0.10746E+07         0.00000E+00
    0.10746E+07        -0.49066E+08         0.00000E+00
    0.00000E+00         0.00000E+00        -0.59970E+08
 
   -0.59350E+08         0.11627E+07         0.00000E+00
    0.11627E+07        -0.49031E+08         0.00000E+00
    0.00000E+00         0.00000E+00        -0.59975E+08
 
   -0.59410E+08         0.12533E+07         0.00000E+00
    0.12533E+07        -0.48996E+08         0.00000E+00
    0.00000E+00         0.00000E+00        -0.59980E+08
 
   -0.59468E+08         0.13460E+07         0.00000E+00
    0.13460E+07        -0.48961E+08         0.00000E+00
    0.00000E+00         0.00000E+00        -0.59984E+08
 
   -0.59523E+08         0.14407E+07         0.00000E+00
    0.14407E+07        -0.48927E+08         0.00000E+00
    0.00000E+00         0.00000E+00        -0.59989E+08
 
   -0.59577E+08         0.15372E+07         0.00000E+00
    0.15372E+07        -0.48894E+08         0.00000E+00
    0.00000E+00         0.00000E+00        -0.59993E+08
 
   -0.59629E+08         0.16353E+07         0.00000E+00
    0.16353E+07        -0.48862E+08         0.00000E+00
    0.00000E+00         0.00000E+00        -0.59997E+08
 
   -0.59679E+08         0.17338E+07         0.00000E+00
    0.17338E+07        -0.48832E+08         0.00000E+00
    0.00000E+00         0.00000E+00        -0.60001E+08
 
   -0.59728E+08         0.18324E+07         0.00000E+00
    0.18324E+07        -0.48801E+08         0.00000E+00
    0.00000E+00         0.00000E+00        -0.60004E+08
 
   -0.59779E+08         0.19314E+07         0.00000E+00
    0.19314E+07        -0.48771E+08         0.00000E+00
    0.00000E+00         0.00000E+00        -0.60008E+08
 
   -0.59829E+08         0.20320E+07         0.00000E+00
    0.20320E+07        -0.48740E+08         0.00000E+00
    0.00000E+00         0.00000E+00        -0.60012E+08
 
   -0.59882E+08         0.21333E+07         0.00000E+00
    0.21333E+07        -0.48716E+08         0.00000E+00
    0.00000E+00         0.00000E+00        -0.60018E+08
 
   -0.59939E+08         0.22328E+07         0.00000E+00
    0.22328E+07        -0.48700E+08         0.00000E+00
    0.00000E+00         0.00000E+00        -0.60026E+08
 
   -0.60006E+08         0.23269E+07         0.00000E+00
    0.23269E+07        -0.48686E+08         0.00000E+00
    0.00000E+00         0.00000E+00        -0.60037E+08
 
   -0.57362E+08        -0.13118E+05         0.00000E+00
   -0.13118E+05        -0.50001E+08         0.00000E+00
    0.00000E+00         0.00000E+00        -0.59312E+08
 
   -0.57356E+08        -0.32479E+05         0.00000E+00
   -0.32479E+05        -0.49998E+08         0.00000E+00
    0.00000E+00         0.00000E+00        -0.59311E+08
 
   -0.57356E+08        -0.48796E+05         0.00000E+00
   -0.48796E+05        -0.49993E+08         0.00000E+00
    0.00000E+00         0.00000E+00        -0.59310E+08
 
   -0.57361E+08        -0.62015E+05         0.00000E+00
   -0.62015E+05        -0.49985E+08         0.00000E+00
    0.00000E+00         0.00000E+00        -0.59309E+08
 
   -0.57371E+08        -0.72090E+05         0.00000E+00
   -0.72090E+05        -0.49976E+08         0.00000E+00
    0.00000E+00         0.00000E+00        -0.59309E+08
 
   -0.57386E+08        -0.78983E+05         0.00000E+00
   -0.78983E+05        -0.49964E+08         0.00000E+00
    0.00000E+00         0.00000E+00        -0.59310E+08
 
   -0.57405E+08        -0.82668E+05         0.00000E+00
   -0.82668E+05        -0.49950E+08         0.00000E+00
    0.00000E+00         0.00000E+00        -0.59311E+08
 
   -0.57427E+08        -0.83130E+05         0.00000E+00
   -0.83130E+05        -0.49935E+08         0.00000E+00
    0.00000E+00         0.00000E+00        -0.59312E+08
 
   -0.57454E+08        -0.80358E+05         0.00000E+00
   -0.80358E+05        -0.49918E+08         0.00000E+00
    0.00000E+00         0.00000E+00        -0.59314E+08
 
   -0.57484E+08        -0.74352E+05         0.00000E+00
   -0.74352E+05        -0.49900E+08         0.00000E+00
    0.00000E+00         0.00000E+00        -0.59317E+08
 
   -0.57517E+08        -0.65113E+05         0.00000E+00
   -0.65113E+05        -0.49880E+08         0.00000E+00
    0.00000E+00         0.00000E+00        -0.59319E+08
 
   -0.57553E+08        -0.52651E+05         0.00000E+00
   -0.52651E+05        -0.49859E+08         0.00000E+00
    0.00000E+00         0.00000E+00        -0.59322E+08
 
   -0.57592E+08        -0.36976E+05         0.00000E+00
   -0.36976E+05        -0.49837E+08         0.00000E+00
    0.00000E+00         0.00000E+00        -0.59326E+08
 
   -0.57633E+08        -0.18106E+05         0.00000E+00
   -0.18106E+05        -0.49814E+08         0.00000E+00
    0.00000E+00         0.00000E+00        -0.59329E+08
 
   -0.57677E+08         0.39423E+04         0.00000E+00
    0.39423E+04        -0.49790E+08         0.00000E+00
    0.00000E+00         0.00000E+00        -0.59333E+08
 
   -0.57723E+08         0.29148E+05         0.00000E+00
    0.29148E+05        -0.49765E+08         0.00000E+00
    0.00000E+00         0.00000E+00        -0.59337E+08
 
   -0.57770E+08         0.57487E+05         0.00000E+00
    0.57487E+05        -0.49739E+08         0.00000E+00
    0.00000E+00         0.00000E+00        -0.59342E+08
 
   -0.57820E+08         0.88937E+05         0.00000E+00
    0.88937E+05        -0.49712E+08         0.00000E+00
    0.00000E+00         0.00000E+00        -0.59346E+08
 
   -0.57870E+08         0.12347E+06         0.00000E+00
    0.12347E+06        -0.49684E+08         0.00000E+00
    0.00000E+00         0.00000E+00        -0.59351E+08
 
   -0.57923E+08         0.16106E+06         0.00000E+00
    0.16106E+06        -0.49656E+08         0.00000E+00
    0.00000E+00         0.00000E+00        -0.59356E+08
 
   -0.57976E+08         0.20168E+06         0.00000E+00
    0.20168E+06        -0.49628E+08         0.00000E+00
    0.00000E+00         0.00000E+00        -0.59361E+08
 
   -0.58030E+08         0.24530E+06         0.00000E+00
    0.24530E+06        -0.49599E+08         0.00000E+00
    0.00000E+00         0.00000E+00        -0.59366E+08
 
   -0.58085E+08         0.29190E+06         0.00000E+00
    0.29190E+06        -0.49569E+08         0.00000E+00
    0.00000E+00         0.00000E+00        -0.59371E+08
 
   -0.58141E+08         0.34143E+06         0.00000E+00
    0.34143E+06        -0.49539E+08         0.00000E+00
    0.00000E+00         0.00000E+00        -0.59376E+08
 
   -0.58197E+08         0.39387E+06         0.00000E+00
    0.39387E+06        -0.49509E+08         0.00000E+00
    0.00000E+00         0.00000E+00        -0.59381E+08
 
   -0.58254E+08         0.44918E+06         0.00000E+00
    0.44918E+06        -0.49478E+08         0.00000E+00
    0.00000E+00         0.00000E+00        -0.59386E+08
 
   -0.58311E+08         0.50733E+06         0.00000E+00
    0.50733E+06        -0.49447E+08         0.00000E+00
    0.00000E+00         0.00000E+00        -0.59392E+08
 
   -0.58368E+08         0.56828E+06         0.00000E+00
    0.56828E+06        -0.49417E+08         0.00000E+00
    0.00000E+00         0.00000E+00        -0.59397E+08
 
   -0.58425E+08         0.63198E+06         0.00000E+00
    0.63198E+06        -0.49386E+08         0.00000E+00
    0.00000E+00         0.00000E+00        -0.59402E+08
 
   -0.58481E+08         0.69838E+06         0.00000E+00
    0.69838E+06        -0.49355E+08         0.00000E+00
    0.00000E+00         0.00000E+00        -0.59407E+08
 
   -0.58537E+08         0.76744E+06         0.00000E+00
    0.76744E+06        -0.49324E+08         0.00000E+00
    0.00000E+00         0.00000E+00        -0.59412E+08
 
   -0.58593E+08         0.83909E+06         0.00000E+00
    0.83909E+06        -0.49293E+08         0.00000E+00
    0.00000E+00         0.00000E+00        -0.59417E+08
 
   -0.58648E+08         0.91327E+06         0.00000E+00
    0.91327E+06        -0.49262E+08         0.00000E+00
    0.00000E+00         0.00000E+00        -0.59422E+08
 
   -0.58703E+08         0.98989E+06         0.00000E+00
    0.98989E+06        -0.49232E+08         0.00000E+00
    0.00000E+00         0.00000E+00        -0.59427E+08
 
   -0.58756E+08         0.10689E+07         0.00000E+00
    0.10689E+07        -0.49202E+08         0.00000E+00
    0.00000E+00         0.00000E+00        -0.59432E+08
 
   -0.58809E+08         0.11501E+07         0.00000E+00
    0.11501E+07        -0.49173E+08         0.00000E+00
    0.00000E+00         0.00000E+00        -0.59436E+08
 
   -0.58861E+08         0.12335E+07         0.00000E+00
    0.12335E+07        -0.49144E+08         0.00000E+00
    0.00000E+00         0.00000E+00        -0.59441E+08
 
   -0.58912E+08         0.13188E+07         0.00000E+00
    0.13188E+07        -0.49116E+08         0.00000E+00
    0.00000E+00         0.00000E+00        -0.59445E+08
 
   -0.58961E+08         0.14061E+07         0.00000E+00
    0.14061E+07        -0.49088E+08         0.00000E+00
    0.00000E+00         0.00000E+00        -0.59450E+08
 
   -0.59010E+08         0.14950E+07         0.00000E+00
    0.14950E+07        -0.49061E+08         0.00000E+00
    0.00000E+00         0.00000E+00        -0.59454E+08
 
   -0.59057E+08         0.15855E+07         0.00000E+00
    0.15855E+07        -0.49036E+08         0.00000E+00
    0.00000E+00         0.00000E+00        -0.59458E+08
 
   -0.59104E+08         0.16773E+07         0.00000E+00
    0.16773E+07        -0.49010E+08         0.00000E+00
    0.00000E+00         0.00000E+00        -0.59463E+08
 
   -0.59150E+08         0.17702E+07         0.00000E+00
    0.17702E+07        -0.48986E+08         0.00000E+00
    0.00000E+00         0.00000E+00        -0.59467E+08
 
   -0.59196E+08         0.18643E+07         0.00000E+00
    0.18643E+07        -0.48963E+08         0.00000E+00
    0.00000E+00         0.00000E+00        -0.59472E+08
 
   -0.59242E+08         0.19595E+07         0.00000E+00
    0.19595E+07        -0.48940E+08         0.00000E+00
    0.00000E+00         0.00000E+00        -0.59476E+08
 
   -0.59288E+08         0.20557E+07         0.00000E+00
    0.20557E+07        -0.48918E+08         0.00000E+00
    0.00000E+00         0.00000E+00        -0.59481E+08
 
   -0.59335E+08         0.21525E+07         0.00000E+00
    0.21525E+07        -0.48896E+08         0.00000E+00
    0.00000E+00         0.00000E+00        -0.59486E+08
 
   -0.59383E+08         0.22505E+07         0.00000E+00
    0.22505E+07        -0.48874E+08         0.00000E+00
    0.00000E+00         0.00000E+00        -0.59491E+08
 
   -0.59432E+08         0.23511E+07         0.00000E+00
    0.23511E+07        -0.48850E+08         0.00000E+00
    0.00000E+00         0.00000E+00        -0.59496E+08
 
   -0.59479E+08         0.24568E+07         0.00000E+00
    0.24568E+07        -0.48824E+08         0.00000E+00
    0.00000E+00         0.00000E+00        -0.59501E+08
 
   -0.57434E+08        -0.61246E+04         0.00000E+00
   -0.61246E+04        -0.50001E+08         0.00000E+00
    0.00000E+00         0.00000E+00        -0.58881E+08
 
   -0.57416E+08        -0.13358E+05         0.00000E+00
   -0.13358E+05        -0.49998E+08         0.00000E+00
    0.00000E+00         0.00000E+00        -0.58876E+08
 
   -0.57402E+08        -0.18311E+05         0.00000E+00
   -0.18311E+05        -0.49994E+08         0.00000E+00
    0.00000E+00         0.00000E+00        -0.58873E+08
 
   -0.57393E+08        -0.20891E+05         0.00000E+00
   -0.20891E+05        -0.49987E+08         0.00000E+00
    0.00000E+00         0.00000E+00        -0.58870E+08
 
   -0.57389E+08        -0.21022E+05         0.00000E+00
   -0.21022E+05        -0.49978E+08         0.00000E+00
    0.00000E+00         0.00000E+00        -0.58867E+08
 
   -0.57390E+08        -0.18636E+05         0.00000E+00
   -0.18636E+05        -0.49967E+08         0.00000E+00
    0.00000E+00         0.00000E+00        -0.58865E+08
 
   -0.57394E+08        -0.13679E+05         0.00000E+00
   -0.13679E+05        -0.49955E+08         0.00000E+00
    0.00000E+00         0.00000E+00        -0.58863E+08
 
   -0.57402E+08        -0.61017E+04         0.00000E+00
   -0.61017E+04        -0.49941E+08         0.00000E+00
    0.00000E+00         0.00000E+00        -0.58862E+08
 
   -0.57414E+08         0.41330E+04         0.00000E+00
    0.41330E+04        -0.49926E+08         0.00000E+00
    0.00000E+00         0.00000E+00        -0.58861E+08
 
   -0.57429E+08         0.17056E+05         0.00000E+00
    0.17056E+05        -0.49909E+08         0.00000E+00
    0.00000E+00         0.00000E+00        -0.58861E+08
 
   -0.57447E+08         0.32693E+05         0.00000E+00
    0.32693E+05        -0.49891E+08         0.00000E+00
    0.00000E+00         0.00000E+00        -0.58861E+08
 
   -0.57469E+08         0.51059E+05         0.00000E+00
    0.51059E+05        -0.49871E+08         0.00000E+00
    0.00000E+00         0.00000E+00        -0.58862E+08
 
   -0.57493E+08         0.72168E+05         0.00000E+00
    0.72168E+05        -0.49851E+08         0.00000E+00
    0.00000E+00         0.00000E+00        -0.58862E+08
 
   -0.57519E+08         0.96026E+05         0.00000E+00
    0.96026E+05        -0.49829E+08         0.00000E+00
    0.00000E+00         0.00000E+00        -0.58863E+08
 
   -0.57548E+08         0.12264E+06         0.00000E+00
    0.12264E+06        -0.49807E+08         0.00000E+00
    0.00000E+00         0.00000E+00        -0.58865E+08
 
   -0.57579E+08         0.15200E+06         0.00000E+00
    0.15200E+06        -0.49784E+08         0.00000E+00
    0.00000E+00         0.00000E+00        -0.58866E+08
 
   -0.57612E+08         0.18410E+06         0.00000E+00
    0.18410E+06        -0.49760E+08         0.00000E+00
    0.00000E+00         0.00000E+00        -0.58868E+08
 
   -0.57647E+08         0.21894E+06         0.00000E+00
    0.21894E+06        -0.49736E+08         0.00000E+00
    0.00000E+00         0.00000E+00        -0.58870E+08
 
   -0.57683E+08         0.25650E+06         0.00000E+00
    0.25650E+06        -0.49710E+08         0.00000E+00
    0.00000E+00         0.00000E+00        -0.58872E+08
 
   -0.57721E+08         0.29677E+06         0.00000E+00
    0.29677E+06        -0.49685E+08         0.00000E+00
    0.00000E+00         0.00000E+00        -0.58875E+08
 
   -0.57760E+08         0.33972E+06         0.00000E+00
    0.33972E+06        -0.49659E+08         0.00000E+00
    0.00000E+00         0.00000E+00        -0.58877E+08
 
   -0.57800E+08         0.38535E+06         0.00000E+00
    0.38535E+06        -0.49632E+08         0.00000E+00
    0.00000E+00         0.00000E+00        -0.58880E+08
 
   -0.57841E+08         0.43361E+06         0.00000E+00
    0.43361E+06        -0.49606E+08         0.00000E+00
    0.00000E+00         0.00000E+00        -0.58883E+08
 
   -0.57883E+08         0.48449E+06         0.00000E+00
    0.48449E+06        -0.49579E+08         0.00000E+00
    0.00000E+00         0.00000E+00        -0.58886E+08
 
   -0.57926E+08         0.53795E+06         0.00000E+00
    0.53795E+06        -0.49551E+08         0.00000E+00
    0.00000E+00         0.00000E+00        -0.58889E+08
 
   -0.57969E+08         0.59395E+06         0.00000E+00
    0.59395E+06        -0.49524E+08         0.00000E+00
    0.00000E+00         0.00000E+00        -0.58892E+08
 
   -0.58013E+08         0.65247E+06         0.00000E+00
    0.65247E+06        -0.49497E+08         0.00000E+00
    0.00000E+00         0.00000E+00        -0.58895E+08
 
   -0.58057E+08         0.71345E+06         0.00000E+00
    0.71345E+06        -0.49470E+08         0.00000E+00
    0.00000E+00         0.00000E+00        -0.58899E+08
 
   -0.58101E+08         0.77685E+06         0.00000E+00
    0.77685E+06        -0.49442E+08         0.00000E+00
    0.00000E+00         0.00000E+00        -0.58902E+08
 
   -0.58145E+08         0.84262E+06         0.00000E+00
    0.84262E+06        -0.49415E+08         0.00000E+00
    0.00000E+00         0.00000E+00        -0.58906E+08
 
   -0.58189E+08         0.91069E+06         0.00000E+00
    0.91069E+06        -0.49389E+08         0.00000E+00
    0.00000E+00         0.00000E+00        -0.58909E+08
 
   -0.58233E+08         0.98102E+06         0.00000E+00
    0.98102E+06        -0.49362E+08         0.00000E+00
    0.00000E+00         0.00000E+00        -0.58912E+08
 
   -0.58276E+08         0.10535E+07         0.00000E+00
    0.10535E+07        -0.49336E+08         0.00000E+00
    0.00000E+00         0.00000E+00        -0.58916E+08
 
   -0.58320E+08         0.11281E+07         0.00000E+00
    0.11281E+07        -0.49310E+08         0.00000E+00
    0.00000E+00         0.00000E+00        -0.58920E+08
 
   -0.58362E+08         0.12048E+07         0.00000E+00
    0.12048E+07        -0.49285E+08         0.00000E+00
    0.00000E+00         0.00000E+00        -0.58923E+08
 
   -0.58405E+08         0.12834E+07         0.00000E+00
    0.12834E+07        -0.49260E+08         0.00000E+00
    0.00000E+00         0.00000E+00        -0.58927E+08
 
   -0.58447E+08         0.13638E+07         0.00000E+00
    0.13638E+07        -0.49236E+08         0.00000E+00
    0.00000E+00         0.00000E+00        -0.58930E+08
 
   -0.58489E+08         0.14461E+07         0.00000E+00
    0.14461E+07        -0.49212E+08         0.00000E+00
    0.00000E+00         0.00000E+00        -0.58934E+08
 
   -0.58530E+08         0.15300E+07         0.00000E+00
    0.15300E+07        -0.49189E+08         0.00000E+00
    0.00000E+00         0.00000E+00        -0.58937E+08
 
   -0.58570E+08         0.16155E+07         0.00000E+00
    0.16155E+07        -0.49167E+08         0.00000E+00
    0.00000E+00         0.00000E+00        -0.58941E+08
 
   -0.58610E+08         0.17025E+07         0.00000E+00
    0.17025E+07        -0.49145E+08         0.00000E+00
    0.00000E+00         0.00000E+00        -0.58945E+08
 
   -0.58650E+08         0.17911E+07         0.00000E+00
    0.17911E+07        -0.49124E+08         0.00000E+00
    0.00000E+00         0.00000E+00        -0.58948E+08
 
   -0.58690E+08         0.18811E+07         0.00000E+00
    0.18811E+07        -0.49103E+08         0.00000E+00
    0.00000E+00         0.00000E+00        -0.58952E+08
 
   -0.58729E+08         0.19725E+07         0.00000E+00
    0.19725E+07        -0.49083E+08         0.00000E+00
    0.00000E+00         0.00000E+00        -0.58956E+08
 
   -0.58769E+08         0.20654E+07         0.00000E+00
    0.20654E+07        -0.49063E+08         0.00000E+00
    0.00000E+00         0.00000E+00        -0.58960E+08
 
   -0.58808E+08         0.21598E+07         0.00000E+00
    0.21598E+07        -0.49043E+08         0.00000E+00
    0.00000E+00         0.00000E+00        -0.58964E+08
 
   -0.58847E+08         0.22560E+07         0.00000E+00
    0.22560E+07        -0.49024E+08         0.00000E+00
    0.00000E+00         0.00000E+00        -0.58968E+08
 
   -0.58886E+08         0.23540E+07         0.00000E+00
    0.23540E+07        -0.49005E+08         0.00000E+00
    0.00000E+00         0.00000E+00        -0.58972E+08
 
   -0.58924E+08         0.24536E+07         0.00000E+00
    0.24536E+07        -0.48987E+08         0.00000E+00
    0.00000E+00         0.00000E+00        -0.58976E+08
 
   -0.58963E+08         0.25541E+07         0.00000E+00
    0.25541E+07        -0.48970E+08         0.00000E+00
    0.00000E+00         0.00000E+00        -0.58980E+08
 
   -0.57448E+08        -0.23463E+02         0.00000E+00
   -0.23463E+02        -0.50001E+08         0.00000E+00
    0.00000E+00         0.00000E+00        -0.58450E+08
 
   -0.57420E+08         0.35122E+04         0.00000E+00
    0.35122E+04        -0.49999E+08         0.00000E+00
    0.00000E+00         0.00000E+00        -0.58444E+08
 
   -0.57396E+08         0.87295E+04         0.00000E+00
    0.87295E+04        -0.49995E+08         0.00000E+00
    0.00000E+00         0.00000E+00        -0.58438E+08
 
   -0.57377E+08         0.15729E+05         0.00000E+00
    0.15729E+05        -0.49989E+08         0.00000E+00
    0.00000E+00         0.00000E+00        -0.58433E+08
 
   -0.57362E+08         0.24603E+05         0.00000E+00
    0.24603E+05        -0.49981E+08         0.00000E+00
    0.00000E+00         0.00000E+00        -0.58429E+08
 
   -0.57351E+08         0.35431E+05         0.00000E+00
    0.35431E+05        -0.49972E+08         0.00000E+00
    0.00000E+00         0.00000E+00        -0.58425E+08
 
   -0.57343E+08         0.48286E+05         0.00000E+00
    0.48286E+05        -0.49961E+08         0.00000E+00
    0.00000E+00         0.00000E+00        -0.58421E+08
 
   -0.57340E+08         0.63229E+05         0.00000E+00
    0.63229E+05        -0.49948E+08         0.00000E+00
    0.00000E+00         0.00000E+00        -0.58418E+08
 
   -0.57339E+08         0.80316E+05         0.00000E+00
    0.80316E+05        -0.49935E+08         0.00000E+00
    0.00000E+00         0.00000E+00        -0.58415E+08
 
   -0.57342E+08         0.99594E+05         0.00000E+00
    0.99594E+05        -0.49920E+08         0.00000E+00
    0.00000E+00         0.00000E+00        -0.58413E+08
 
   -0.57348E+08         0.12110E+06         0.00000E+00
    0.12110E+06        -0.49903E+08         0.00000E+00
    0.00000E+00         0.00000E+00        -0.58411E+08
 
   -0.57357E+08         0.14487E+06         0.00000E+00
    0.14487E+06        -0.49886E+08         0.00000E+00
    0.00000E+00         0.00000E+00        -0.58409E+08
 
   -0.57368E+08         0.17094E+06         0.00000E+00
    0.17094E+06        -0.49868E+08         0.00000E+00
    0.00000E+00         0.00000E+00        -0.58408E+08
 
   -0.57382E+08         0.19931E+06         0.00000E+00
    0.19931E+06        -0.49849E+08         0.00000E+00
    0.00000E+00         0.00000E+00        -0.58407E+08
 
   -0.57398E+08         0.23002E+06         0.00000E+00
    0.23002E+06        -0.49829E+08         0.00000E+00
    0.00000E+00         0.00000E+00        -0.58406E+08
 
   -0.57417E+08         0.26306E+06         0.00000E+00
    0.26306E+06        -0.49809E+08         0.00000E+00
    0.00000E+00         0.00000E+00        -0.58405E+08
 
   -0.57437E+08         0.29846E+06         0.00000E+00
    0.29846E+06        -0.49787E+08         0.00000E+00
    0.00000E+00         0.00000E+00        -0.58405E+08
 
   -0.57459E+08         0.33620E+06         0.00000E+00
    0.33620E+06        -0.49766E+08         0.00000E+00
    0.00000E+00         0.00000E+00        -0.58405E+08
 
   -0.57483E+08         0.37629E+06         0.00000E+00
    0.37629E+06        -0.49743E+08         0.00000E+00
    0.00000E+00         0.00000E+00        -0.58405E+08
 
   -0.57508E+08         0.41872E+06         0.00000E+00
    0.41872E+06        -0.49720E+08         0.00000E+00
    0.00000E+00         0.00000E+00        -0.58406E+08
 
   -0.57534E+08         0.46348E+06         0.00000E+00
    0.46348E+06        -0.49697E+08         0.00000E+00
    0.00000E+00         0.00000E+00        -0.58407E+08
 
   -0.57562E+08         0.51056E+06         0.00000E+00
    0.51056E+06        -0.49674E+08         0.00000E+00
    0.00000E+00         0.00000E+00        -0.58408E+08
 
   -0.57591E+08         0.55994E+06         0.00000E+00
    0.55994E+06        -0.49650E+08         0.00000E+00
    0.00000E+00         0.00000E+00        -0.58409E+08
 
   -0.57621E+08         0.61160E+06         0.00000E+00
    0.61160E+06        -0.49627E+08         0.00000E+00
    0.00000E+00         0.00000E+00        -0.58410E+08
 
   -0.57652E+08         0.66551E+06         0.00000E+00
    0.66551E+06        -0.49603E+08         0.00000E+00
    0.00000E+00         0.00000E+00        -0.58411E+08
 
   -0.57683E+08         0.72165E+06         0.00000E+00
    0.72165E+06        -0.49579E+08         0.00000E+00
    0.00000E+00         0.00000E+00        -0.58413E+08
 
   -0.57715E+08         0.77998E+06         0.00000E+00
    0.77998E+06        -0.49555E+08         0.00000E+00
    0.00000E+00         0.00000E+00        -0.58414E+08
 
   -0.57747E+08         0.84048E+06         0.00000E+00
    0.84048E+06        -0.49531E+08         0.00000E+00
    0.00000E+00         0.00000E+00        -0.58416E+08
 
   -0.57780E+08         0.90309E+06         0.00000E+00
    0.90309E+06        -0.49508E+08         0.00000E+00
    0.00000E+00         0.00000E+00        -0.58418E+08
 
   -0.57813E+08         0.96778E+06         0.00000E+00
    0.96778E+06        -0.49484E+08         0.00000E+00
    0.00000E+00         0.00000E+00        -0.58420E+08
 
   -0.57847E+08         0.10345E+07         0.00000E+00
    0.10345E+07        -0.49461E+08         0.00000E+00
    0.00000E+00         0.00000E+00        -0.58422E+08
 
   -0.57880E+08         0.11032E+07         0.00000E+00
    0.11032E+07        -0.49438E+08         0.00000E+00
    0.00000E+00         0.00000E+00        -0.58424E+08
 
   -0.57914E+08         0.11739E+07         0.00000E+00
    0.11739E+07        -0.49416E+08         0.00000E+00
    0.00000E+00         0.00000E+00        -0.58426E+08
 
   -0.57947E+08         0.12464E+07         0.00000E+00
    0.12464E+07        -0.49393E+08         0.00000E+00
    0.00000E+00         0.00000E+00        -0.58428E+08
 
   -0.57981E+08         0.13208E+07         0.00000E+00
    0.13208E+07        -0.49372E+08         0.00000E+00
    0.00000E+00         0.00000E+00        -0.58431E+08
 
   -0.58014E+08         0.13969E+07         0.00000E+00
    0.13969E+07        -0.49350E+08         0.00000E+00
    0.00000E+00         0.00000E+00        -0.58433E+08
 
   -0.58047E+08         0.14748E+07         0.00000E+00
    0.14748E+07        -0.49330E+08         0.00000E+00
    0.00000E+00         0.00000E+00        -0.58436E+08
 
   -0.58080E+08         0.15544E+07         0.00000E+00
    0.15544E+07        -0.49309E+08         0.00000E+00
    0.00000E+00         0.00000E+00        -0.58438E+08
 
   -0.58113E+08         0.16356E+07         0.00000E+00
    0.16356E+07        -0.49290E+08         0.00000E+00
    0.00000E+00         0.00000E+00        -0.58441E+08
 
   -0.58146E+08         0.17184E+07         0.00000E+00
    0.17184E+07        -0.49270E+08         0.00000E+00
    0.00000E+00         0.00000E+00        -0.58444E+08
 
   -0.58178E+08         0.18028E+07         0.00000E+00
    0.18028E+07        -0.49251E+08         0.00000E+00
    0.00000E+00         0.00000E+00        -0.58446E+08
 
   -0.58210E+08         0.18887E+07         0.00000E+00
    0.18887E+07        -0.49233E+08         0.00000E+00
    0.00000E+00         0.00000E+00        -0.58449E+08
 
   -0.58242E+08         0.19762E+07         0.00000E+00
    0.19762E+07        -0.49215E+08         0.00000E+00
    0.00000E+00         0.00000E+00        -0.58452E+08
 
   -0.58274E+08         0.20652E+07         0.00000E+00
    0.20652E+07        -0.49198E+08         0.00000E+00
    0.00000E+00         0.00000E+00        -0.58455E+08
 
   -0.58306E+08         0.21558E+07         0.00000E+00
    0.21558E+07        -0.49181E+08         0.00000E+00
    0.00000E+00         0.00000E+00        -0.58458E+08
 
   -0.58337E+08         0.22479E+07         0.00000E+00
    0.22479E+07        -0.49165E+08         0.00000E+00
    0.00000E+00         0.00000E+00        -0.58461E+08
 
   -0.58368E+08         0.23415E+07         0.00000E+00
    0.23415E+07        -0.49150E+08         0.00000E+00
    0.00000E+00         0.00000E+00        -0.58464E+08
 
   -0.58399E+08         0.24366E+07         0.00000E+00
    0.24366E+07        -0.49134E+08         0.00000E+00
    0.00000E+00         0.00000E+00        -0.58467E+08
 
   -0.58430E+08         0.25332E+07         0.00000E+00
    0.25332E+07        -0.49120E+08         0.00000E+00
    0.00000E+00         0.00000E+00        -0.58470E+08
 
   -0.58460E+08         0.26316E+07         0.00000E+00
    0.26316E+07        -0.49106E+08         0.00000E+00
    0.00000E+00         0.00000E+00        -0.58474E+08
 
   -0.57410E+08         0.51601E+04         0.00000E+00
    0.51601E+04        -0.50001E+08         0.00000E+00
    0.00000E+00         0.00000E+00        -0.58023E+08
 
   -0.57375E+08         0.17990E+05         0.00000E+00
    0.17990E+05        -0.49999E+08         0.00000E+00
    0.00000E+00         0.00000E+00        -0.58016E+08
 
   -0.57343E+08         0.32037E+05         0.00000E+00
    0.32037E+05        -0.49996E+08         0.00000E+00
    0.00000E+00         0.00000E+00        -0.58009E+08
 
   -0.57316E+08         0.47404E+05         0.00000E+00
    0.47404E+05        -0.49990E+08         0.00000E+00
    0.00000E+00         0.00000E+00        -0.58002E+08
 
   -0.57293E+08         0.64181E+05         0.00000E+00
    0.64181E+05        -0.49984E+08         0.00000E+00
    0.00000E+00         0.00000E+00        -0.57996E+08
 
   -0.57273E+08         0.82455E+05         0.00000E+00
    0.82455E+05        -0.49976E+08         0.00000E+00
    0.00000E+00         0.00000E+00        -0.57991E+08
 
   -0.57257E+08         0.10230E+06         0.00000E+00
    0.10230E+06        -0.49966E+08         0.00000E+00
    0.00000E+00         0.00000E+00        -0.57986E+08
 
   -0.57244E+08         0.12378E+06         0.00000E+00
    0.12378E+06        -0.49956E+08         0.00000E+00
    0.00000E+00         0.00000E+00        -0.57981E+08
 
   -0.57234E+08         0.14697E+06         0.00000E+00
    0.14697E+06        -0.49944E+08         0.00000E+00
    0.00000E+00         0.00000E+00        -0.57977E+08
 
   -0.57227E+08         0.17191E+06         0.00000E+00
    0.17191E+06        -0.49931E+08         0.00000E+00
    0.00000E+00         0.00000E+00        -0.57973E+08
 
   -0.57222E+08         0.19866E+06         0.00000E+00
    0.19866E+06        -0.49917E+08         0.00000E+00
    0.00000E+00         0.00000E+00        -0.57969E+08
 
   -0.57221E+08         0.22725E+06         0.00000E+00
    0.22725E+06        -0.49902E+08         0.00000E+00
    0.00000E+00         0.00000E+00        -0.57966E+08
 
   -0.57222E+08         0.25773E+06         0.00000E+00
    0.25773E+06        -0.49886E+08         0.00000E+00
    0.00000E+00         0.00000E+00        -0.57963E+08
 
   -0.57225E+08         0.29012E+06         0.00000E+00
    0.29012E+06        -0.49870E+08         0.00000E+00
    0.00000E+00         0.00000E+00        -0.57960E+08
 
   -0.57230E+08         0.32445E+06         0.00000E+00
    0.32445E+06        -0.49852E+08         0.00000E+00
    0.00000E+00         0.00000E+00        -0.57958E+08
 
   -0.57238E+08         0.36073E+06         0.00000E+00
    0.36073E+06        -0.49835E+08         0.00000E+00
    0.00000E+00         0.00000E+00        -0.57956E+08
 
   -0.57247E+08         0.39900E+06         0.00000E+00
    0.39900E+06        -0.49816E+08         0.00000E+00
    0.00000E+00         0.00000E+00        -0.57954E+08
 
   -0.57258E+08         0.43924E+06         0.00000E+00
    0.43924E+06        -0.49797E+08         0.00000E+00
    0.00000E+00         0.00000E+00        -0.57952E+08
 
   -0.57271E+08         0.48148E+06         0.00000E+00
    0.48148E+06        -0.49778E+08         0.00000E+00
    0.00000E+00         0.00000E+00        -0.57951E+08
 
   -0.57286E+08         0.52572E+06         0.00000E+00
    0.52572E+06        -0.49758E+08         0.00000E+00
    0.00000E+00         0.00000E+00        -0.57950E+08
 
   -0.57302E+08         0.57195E+06         0.00000E+00
    0.57195E+06        -0.49738E+08         0.00000E+00
    0.00000E+00         0.00000E+00        -0.57949E+08
 
   -0.57319E+08         0.62017E+06         0.00000E+00
    0.62017E+06        -0.49718E+08         0.00000E+00
    0.00000E+00         0.00000E+00        -0.57948E+08
 
   -0.57337E+08         0.67037E+06         0.00000E+00
    0.67037E+06        -0.49697E+08         0.00000E+00
    0.00000E+00         0.00000E+00        -0.57948E+08
 
   -0.57356E+08         0.72254E+06         0.00000E+00
    0.72254E+06        -0.49677E+08         0.00000E+00
    0.00000E+00         0.00000E+00        -0.57948E+08
 
   -0.57376E+08         0.77667E+06         0.00000E+00
    0.77667E+06        -0.49656E+08         0.00000E+00
    0.00000E+00         0.00000E+00        -0.57948E+08
 
   -0.57397E+08         0.83273E+06         0.00000E+00
    0.83273E+06        -0.49635E+08         0.00000E+00
    0.00000E+00         0.00000E+00        -0.57948E+08
 
   -0.57419E+08         0.89071E+06         0.00000E+00
    0.89071E+06        -0.49615E+08         0.00000E+00
    0.00000E+00         0.00000E+00        -0.57948E+08
 
   -0.57442E+08         0.95059E+06         0.00000E+00
    0.95059E+06        -0.49594E+08         0.00000E+00
    0.00000E+00         0.00000E+00        -0.57948E+08
 
   -0.57465E+08         0.10123E+07         0.00000E+00
    0.10123E+07        -0.49574E+08         0.00000E+00
    0.00000E+00         0.00000E+00        -0.57949E+08
 
   -0.57488E+08         0.10759E+07         0.00000E+00
    0.10759E+07        -0.49554E+08         0.00000E+00
    0.00000E+00         0.00000E+00        -0.57949E+08
 
   -0.57512E+08         0.11413E+07         0.00000E+00
    0.11413E+07        -0.49534E+08         0.00000E+00
    0.00000E+00         0.00000E+00        -0.57950E+08
 
   -0.57536E+08         0.12085E+07         0.00000E+00
    0.12085E+07        -0.49514E+08         0.00000E+00
    0.00000E+00         0.00000E+00        -0.57951E+08
 
   -0.57560E+08         0.12774E+07         0.00000E+00
    0.12774E+07        -0.49495E+08         0.00000E+00
    0.00000E+00         0.00000E+00        -0.57952E+08
 
   -0.57585E+08         0.13480E+07         0.00000E+00
    0.13480E+07        -0.49476E+08         0.00000E+00
    0.00000E+00         0.00000E+00        -0.57953E+08
 
   -0.57610E+08         0.14203E+07         0.00000E+00
    0.14203E+07        -0.49457E+08         0.00000E+00
    0.00000E+00         0.00000E+00        -0.57954E+08
 
   -0.57634E+08         0.14943E+07         0.00000E+00
    0.14943E+07        -0.49439E+08         0.00000E+00
    0.00000E+00         0.00000E+00        -0.57956E+08
 
   -0.57659E+08         0.15699E+07         0.00000E+00
    0.15699E+07        -0.49421E+08         0.00000E+00
    0.00000E+00         0.00000E+00        -0.57957E+08
 
   -0.57684E+08         0.16471E+07         0.00000E+00
    0.16471E+07        -0.49404E+08         0.00000E+00
    0.00000E+00         0.00000E+00        -0.57959E+08
 
   -0.57709E+08         0.17259E+07         0.00000E+00
    0.17259E+07        -0.49387E+08         0.00000E+00
    0.00000E+00         0.00000E+00        -0.57960E+08
 
   -0.57734E+08         0.18062E+07         0.00000E+00
    0.18062E+07        -0.49371E+08         0.00000E+00
    0.00000E+00         0.00000E+00        -0.57962E+08
 
   -0.57759E+08         0.18881E+07         0.00000E+00
    0.18881E+07        -0.49355E+08         0.00000E+00
    0.00000E+00         0.00000E+00        -0.57964E+08
 
   -0.57783E+08         0.19714E+07         0.00000E+00
    0.19714E+07        -0.49340E+08         0.00000E+00
    0.00000E+00         0.00000E+00        -0.57966E+08
 
   -0.57808E+08         0.20563E+07         0.00000E+00
    0.20563E+07        -0.49325E+08         0.00000E+00
    0.00000E+00         0.00000E+00        -0.57968E+08
 
   -0.57832E+08         0.21426E+07         0.00000E+00
    0.21426E+07        -0.49311E+08         0.00000E+00
    0.00000E+00         0.00000E+00        -0.57970E+08
 
   -0.57856E+08         0.22304E+07         0.00000E+00
    0.22304E+07        -0.49297E+08         0.00000E+00
    0.00000E+00         0.00000E+00        -0.57972E+08
 
   -0.57880E+08         0.23197E+07         0.00000E+00
    0.23197E+07        -0.49284E+08         0.00000E+00
    0.00000E+00         0.00000E+00        -0.57974E+08
 
   -0.57904E+08         0.24104E+07         0.00000E+00
    0.24104E+07        -0.49271E+08         0.00000E+00
    0.00000E+00         0.00000E+00        -0.57976E+08
 
   -0.57927E+08         0.25026E+07         0.00000E+00
    0.25026E+07        -0.49259E+08         0.00000E+00
    0.00000E+00         0.00000E+00        -0.57978E+08
 
   -0.57950E+08         0.25963E+07         0.00000E+00
    0.25963E+07        -0.49248E+08         0.00000E+00
    0.00000E+00         0.00000E+00        -0.57981E+08
 
   -0.57973E+08         0.26913E+07         0.00000E+00
    0.26913E+07        -0.49237E+08         0.00000E+00
    0.00000E+00         0.00000E+00        -0.57983E+08
 
   -0.57328E+08         0.94853E+04         0.00000E+00
    0.94853E+04        -0.50001E+08         0.00000E+00
    0.00000E+00         0.00000E+00        -0.57602E+08
 
   -0.57288E+08         0.30171E+05         0.00000E+00
    0.30171E+05        -0.49999E+08         0.00000E+00
    0.00000E+00         0.00000E+00        -0.57594E+08
 
   -0.57251E+08         0.51722E+05         0.00000E+00
    0.51722E+05        -0.49996E+08         0.00000E+00
    0.00000E+00         0.00000E+00        -0.57586E+08
 
   -0.57218E+08         0.74233E+05         0.00000E+00
    0.74233E+05        -0.49992E+08         0.00000E+00
    0.00000E+00         0.00000E+00        -0.57579E+08
 
   -0.57188E+08         0.97790E+05         0.00000E+00
    0.97790E+05        -0.49987E+08         0.00000E+00
    0.00000E+00         0.00000E+00        -0.57572E+08
 
   -0.57162E+08         0.12248E+06         0.00000E+00
    0.12248E+06        -0.49980E+08         0.00000E+00
    0.00000E+00         0.00000E+00        -0.57565E+08
 
   -0.57138E+08         0.14836E+06         0.00000E+00
    0.14836E+06        -0.49972E+08         0.00000E+00
    0.00000E+00         0.00000E+00        -0.57559E+08
 
   -0.57118E+08         0.17552E+06         0.00000E+00
    0.17552E+06        -0.49963E+08         0.00000E+00
    0.00000E+00         0.00000E+00        -0.57553E+08
 
   -0.57100E+08         0.20401E+06         0.00000E+00
    0.20401E+06        -0.49953E+08         0.00000E+00
    0.00000E+00         0.00000E+00        -0.57547E+08
 
   -0.57085E+08         0.23389E+06         0.00000E+00
    0.23389E+06        -0.49942E+08         0.00000E+00
    0.00000E+00         0.00000E+00        -0.57542E+08
 
   -0.57073E+08         0.26522E+06         0.00000E+00
    0.26522E+06        -0.49930E+08         0.00000E+00
    0.00000E+00         0.00000E+00        -0.57537E+08
 
   -0.57063E+08         0.29802E+06         0.00000E+00
    0.29802E+06        -0.49917E+08         0.00000E+00
    0.00000E+00         0.00000E+00        -0.57533E+08
 
   -0.57055E+08         0.33236E+06         0.00000E+00
    0.33236E+06        -0.49904E+08         0.00000E+00
    0.00000E+00         0.00000E+00        -0.57528E+08
 
   -0.57050E+08         0.36826E+06         0.00000E+00
    0.36826E+06        -0.49890E+08         0.00000E+00
    0.00000E+00         0.00000E+00        -0.57524E+08
 
   -0.57046E+08         0.40575E+06         0.00000E+00
    0.40575E+06        -0.49875E+08         0.00000E+00
    0.00000E+00         0.00000E+00        -0.57521E+08
 
   -0.57045E+08         0.44486E+06         0.00000E+00
    0.44486E+06        -0.49860E+08         0.00000E+00
    0.00000E+00         0.00000E+00        -0.57517E+08
 
   -0.57045E+08         0.48561E+06         0.00000E+00
    0.48561E+06        -0.49844E+08         0.00000E+00
    0.00000E+00         0.00000E+00        -0.57514E+08
 
   -0.57047E+08         0.52803E+06         0.00000E+00
    0.52803E+06        -0.49828E+08         0.00000E+00
    0.00000E+00         0.00000E+00        -0.57512E+08
 
   -0.57051E+08         0.57211E+06         0.00000E+00
    0.57211E+06        -0.49811E+08         0.00000E+00
    0.00000E+00         0.00000E+00        -0.57509E+08
 
   -0.57056E+08         0.61789E+06         0.00000E+00
    0.61789E+06        -0.49794E+08         0.00000E+00
    0.00000E+00         0.00000E+00        -0.57507E+08
 
   -0.57063E+08         0.66536E+06         0.00000E+00
    0.66536E+06        -0.49777E+08         0.00000E+00
    0.00000E+00         0.00000E+00        -0.57505E+08
 
   -0.57071E+08         0.71452E+06         0.00000E+00
    0.71452E+06        -0.49760E+08         0.00000E+00
    0.00000E+00         0.00000E+00        -0.57503E+08
 
   -0.57080E+08         0.76538E+06         0.00000E+00
    0.76538E+06        -0.49742E+08         0.00000E+00
    0.00000E+00         0.00000E+00        -0.57501E+08
 
   -0.57090E+08         0.81793E+06         0.00000E+00
    0.81793E+06        -0.49725E+08         0.00000E+00
    0.00000E+00         0.00000E+00        -0.57499E+08
 
   -0.57101E+08         0.87217E+06         0.00000E+00
    0.87217E+06        -0.49707E+08         0.00000E+00
    0.00000E+00         0.00000E+00        -0.57498E+08
 
   -0.57113E+08         0.92809E+06         0.00000E+00
    0.92809E+06        -0.49690E+08         0.00000E+00
    0.00000E+00         0.00000E+00        -0.57497E+08
 
   -0.57126E+08         0.98568E+06         0.00000E+00
    0.98568E+06        -0.49672E+08         0.00000E+00
    0.00000E+00         0.00000E+00        -0.57496E+08
 
   -0.57139E+08         0.10449E+07         0.00000E+00
    0.10449E+07        -0.49655E+08         0.00000E+00
    0.00000E+00         0.00000E+00        -0.57495E+08
 
   -0.57154E+08         0.11058E+07         0.00000E+00
    0.11058E+07        -0.49637E+08         0.00000E+00
    0.00000E+00         0.00000E+00        -0.57495E+08
 
   -0.57168E+08         0.11684E+07         0.00000E+00
    0.11684E+07        -0.49620E+08         0.00000E+00
    0.00000E+00         0.00000E+00        -0.57494E+08
 
   -0.57184E+08         0.12325E+07         0.00000E+00
    0.12325E+07        -0.49603E+08         0.00000E+00
    0.00000E+00         0.00000E+00        -0.57494E+08
 
   -0.57200E+08         0.12982E+07         0.00000E+00
    0.12982E+07        -0.49587E+08         0.00000E+00
    0.00000E+00         0.00000E+00        -0.57494E+08
 
   -0.57216E+08         0.13656E+07         0.00000E+00
    0.13656E+07        -0.49570E+08         0.00000E+00
    0.00000E+00         0.00000E+00        -0.57494E+08
 
   -0.57232E+08         0.14344E+07         0.00000E+00
    0.14344E+07        -0.49554E+08         0.00000E+00
    0.00000E+00         0.00000E+00        -0.57494E+08
 
   -0.57249E+08         0.15048E+07         0.00000E+00
    0.15048E+07        -0.49539E+08         0.00000E+00
    0.00000E+00         0.00000E+00        -0.57494E+08
 
   -0.57266E+08         0.15768E+07         0.00000E+00
    0.15768E+07        -0.49523E+08         0.00000E+00
    0.00000E+00         0.00000E+00        -0.57494E+08
 
   -0.57283E+08         0.16502E+07         0.00000E+00
    0.16502E+07        -0.49509E+08         0.00000E+00
    0.00000E+00         0.00000E+00        -0.57495E+08
 
   -0.57300E+08         0.17252E+07         0.00000E+00
    0.17252E+07        -0.49494E+08         0.00000E+00
    0.00000E+00         0.00000E+00        -0.57495E+08
 
   -0.57318E+08         0.18016E+07         0.00000E+00
    0.18016E+07        -0.49480E+08         0.00000E+00
    0.00000E+00         0.00000E+00        -0.57496E+08
 
   -0.57335E+08         0.18794E+07         0.00000E+00
    0.18794E+07        -0.49467E+08         0.00000E+00
    0.00000E+00         0.00000E+00        -0.57497E+08
 
   -0.57352E+08         0.19587E+07         0.00000E+00
    0.19587E+07        -0.49454E+08         0.00000E+00
    0.00000E+00         0.00000E+00        -0.57498E+08
 
   -0.57369E+08         0.20394E+07         0.00000E+00
    0.20394E+07        -0.49441E+08         0.00000E+00
    0.00000E+00         0.00000E+00        -0.57499E+08
 
   -0.57387E+08         0.21216E+07         0.00000E+00
    0.21216E+07        -0.49429E+08         0.00000E+00
    0.00000E+00         0.00000E+00        -0.57500E+08
 
   -0.57404E+08         0.22051E+07         0.00000E+00
    0.22051E+07        -0.49418E+08         0.00000E+00
    0.00000E+00         0.00000E+00        -0.57501E+08
 
   -0.57421E+08         0.22900E+07         0.00000E+00
    0.22900E+07        -0.49407E+08         0.00000E+00
    0.00000E+00         0.00000E+00        -0.57502E+08
 
   -0.57438E+08         0.23764E+07         0.00000E+00
    0.23764E+07        -0.49397E+08         0.00000E+00
    0.00000E+00         0.00000E+00        -0.57504E+08
 
   -0.57454E+08         0.24641E+07         0.00000E+00
    0.24641E+07        -0.49388E+08         0.00000E+00
    0.00000E+00         0.00000E+00        -0.57505E+08
 
   -0.57471E+08         0.25531E+07         0.00000E+00
    0.25531E+07        -0.49379E+08         0.00000E+00
    0.00000E+00         0.00000E+00        -0.57506E+08
 
   -0.57487E+08         0.26435E+07         0.00000E+00
    0.26435E+07        -0.49370E+08         0.00000E+00
    0.00000E+00         0.00000E+00        -0.57508E+08
 
   -0.57503E+08         0.27353E+07         0.00000E+00
    0.27353E+07        -0.49363E+08         0.00000E+00
    0.00000E+00         0.00000E+00        -0.57510E+08
 
   -0.57209E+08         0.13049E+05         0.00000E+00
    0.13049E+05        -0.50001E+08         0.00000E+00
    0.00000E+00         0.00000E+00        -0.57189E+08
 
   -0.57166E+08         0.40274E+05         0.00000E+00
    0.40274E+05        -0.50000E+08         0.00000E+00
    0.00000E+00         0.00000E+00        -0.57180E+08
 
   -0.57125E+08         0.68099E+05         0.00000E+00
    0.68099E+05        -0.49997E+08         0.00000E+00
    0.00000E+00         0.00000E+00        -0.57172E+08
 
   -0.57088E+08         0.96606E+05         0.00000E+00
    0.96606E+05        -0.49994E+08         0.00000E+00
    0.00000E+00         0.00000E+00        -0.57164E+08
 
   -0.57054E+08         0.12588E+06         0.00000E+00
    0.12588E+06        -0.49989E+08         0.00000E+00
    0.00000E+00         0.00000E+00        -0.57156E+08
 
   -0.57022E+08         0.15598E+06         0.00000E+00
    0.15598E+06        -0.49983E+08         0.00000E+00
    0.00000E+00         0.00000E+00        -0.57148E+08
 
   -0.56993E+08         0.18700E+06         0.00000E+00
    0.18700E+06        -0.49977E+08         0.00000E+00
    0.00000E+00         0.00000E+00        -0.57141E+08
 
   -0.56967E+08         0.21898E+06         0.00000E+00
    0.21898E+06        -0.49969E+08         0.00000E+00
    0.00000E+00         0.00000E+00        -0.57134E+08
 
   -0.56943E+08         0.25200E+06         0.00000E+00
    0.25200E+06        -0.49961E+08         0.00000E+00
    0.00000E+00         0.00000E+00        -0.57128E+08
 
   -0.56922E+08         0.28610E+06         0.00000E+00
    0.28610E+06        -0.49952E+08         0.00000E+00
    0.00000E+00         0.00000E+00        -0.57122E+08
 
   -0.56903E+08         0.32134E+06         0.00000E+00
    0.32134E+06        -0.49942E+08         0.00000E+00
    0.00000E+00         0.00000E+00        -0.57116E+08
 
   -0.56886E+08         0.35776E+06         0.00000E+00
    0.35776E+06        -0.49931E+08         0.00000E+00
    0.00000E+00         0.00000E+00        -0.57111E+08
 
   -0.56871E+08         0.39541E+06         0.00000E+00
    0.39541E+06        -0.49920E+08         0.00000E+00
    0.00000E+00         0.00000E+00        -0.57106E+08
 
   -0.56859E+08         0.43433E+06         0.00000E+00
    0.43433E+06        -0.49908E+08         0.00000E+00
    0.00000E+00         0.00000E+00        -0.57101E+08
 
   -0.56848E+08         0.47454E+06         0.00000E+00
    0.47454E+06        -0.49896E+08         0.00000E+00
    0.00000E+00         0.00000E+00        -0.57096E+08
 
   -0.56839E+08         0.51607E+06         0.00000E+00
    0.51607E+06        -0.49883E+08         0.00000E+00
    0.00000E+00         0.00000E+00        -0.57092E+08
 
   -0.56832E+08         0.55897E+06         0.00000E+00
    0.55897E+06        -0.49870E+08         0.00000E+00
    0.00000E+00         0.00000E+00        -0.57088E+08
 
   -0.56827E+08         0.60323E+06         0.00000E+00
    0.60323E+06        -0.49856E+08         0.00000E+00
    0.00000E+00         0.00000E+00        -0.57084E+08
 
   -0.56823E+08         0.64890E+06         0.00000E+00
    0.64890E+06        -0.49842E+08         0.00000E+00
    0.00000E+00         0.00000E+00        -0.57080E+08
 
   -0.56820E+08         0.69598E+06         0.00000E+00
    0.69598E+06        -0.49828E+08         0.00000E+00
    0.00000E+00         0.00000E+00        -0.57077E+08
 
   -0.56819E+08         0.74448E+06         0.00000E+00
    0.74448E+06        -0.49814E+08         0.00000E+00
    0.00000E+00         0.00000E+00        -0.57074E+08
 
   -0.56819E+08         0.79442E+06         0.00000E+00
    0.79442E+06        -0.49799E+08         0.00000E+00
    0.00000E+00         0.00000E+00        -0.57071E+08
 
   -0.56820E+08         0.84580E+06         0.00000E+00
    0.84580E+06        -0.49784E+08         0.00000E+00
    0.00000E+00         0.00000E+00        -0.57068E+08
 
   -0.56822E+08         0.89864E+06         0.00000E+00
    0.89864E+06        -0.49770E+08         0.00000E+00
    0.00000E+00         0.00000E+00        -0.57066E+08
 
   -0.56826E+08         0.95292E+06         0.00000E+00
    0.95292E+06        -0.49755E+08         0.00000E+00
    0.00000E+00         0.00000E+00        -0.57063E+08
 
   -0.56830E+08         0.10087E+07         0.00000E+00
    0.10087E+07        -0.49740E+08         0.00000E+00
    0.00000E+00         0.00000E+00        -0.57061E+08
 
   -0.56835E+08         0.10658E+07         0.00000E+00
    0.10658E+07        -0.49725E+08         0.00000E+00
    0.00000E+00         0.00000E+00        -0.57059E+08
 
   -0.56841E+08         0.11245E+07         0.00000E+00
    0.11245E+07        -0.49711E+08         0.00000E+00
    0.00000E+00         0.00000E+00        -0.57058E+08
 
   -0.56847E+08         0.11846E+07         0.00000E+00
    0.11846E+07        -0.49696E+08         0.00000E+00
    0.00000E+00         0.00000E+00        -0.57056E+08
 
   -0.56855E+08         0.12461E+07         0.00000E+00
    0.12461E+07        -0.49682E+08         0.00000E+00
    0.00000E+00         0.00000E+00        -0.57055E+08
 
   -0.56862E+08         0.13090E+07         0.00000E+00
    0.13090E+07        -0.49668E+08         0.00000E+00
    0.00000E+00         0.00000E+00        -0.57053E+08
 
   -0.56871E+08         0.13734E+07         0.00000E+00
    0.13734E+07        -0.49654E+08         0.00000E+00
    0.00000E+00         0.00000E+00        -0.57052E+08
 
   -0.56879E+08         0.14392E+07         0.00000E+00
    0.14392E+07        -0.49641E+08         0.00000E+00
    0.00000E+00         0.00000E+00        -0.57051E+08
 
   -0.56888E+08         0.15064E+07         0.00000E+00
    0.15064E+07        -0.49628E+08         0.00000E+00
    0.00000E+00         0.00000E+00        -0.57050E+08
 
   -0.56898E+08         0.15750E+07         0.00000E+00
    0.15750E+07        -0.49615E+08         0.00000E+00
    0.00000E+00         0.00000E+00        -0.57050E+08
 
   -0.56908E+08         0.16449E+07         0.00000E+00
    0.16449E+07        -0.49602E+08         0.00000E+00
    0.00000E+00         0.00000E+00        -0.57049E+08
 
   -0.56917E+08         0.17163E+07         0.00000E+00
    0.17163E+07        -0.49590E+08         0.00000E+00
    0.00000E+00         0.00000E+00        -0.57049E+08
 
   -0.56928E+08         0.17890E+07         0.00000E+00
    0.17890E+07        -0.49579E+08         0.00000E+00
    0.00000E+00         0.00000E+00        -0.57049E+08
 
   -0.56938E+08         0.18631E+07         0.00000E+00
    0.18631E+07        -0.49568E+08         0.00000E+00
    0.00000E+00         0.00000E+00        -0.57048E+08
 
   -0.56948E+08         0.19385E+07         0.00000E+00
    0.19385E+07        -0.49557E+08         0.00000E+00
    0.00000E+00         0.00000E+00        -0.57048E+08
 
   -0.56959E+08         0.20152E+07         0.00000E+00
    0.20152E+07        -0.49547E+08         0.00000E+00
    0.00000E+00         0.00000E+00        -0.57048E+08
 
   -0.56969E+08         0.20933E+07         0.00000E+00
    0.20933E+07        -0.49537E+08         0.00000E+00
    0.00000E+00         0.00000E+00        -0.57049E+08
 
   -0.56980E+08         0.21726E+07         0.00000E+00
    0.21726E+07        -0.49528E+08         0.00000E+00
    0.00000E+00         0.00000E+00        -0.57049E+08
 
   -0.56990E+08         0.22533E+07         0.00000E+00
    0.22533E+07        -0.49519E+08         0.00000E+00
    0.00000E+00         0.00000E+00        -0.57049E+08
 
   -0.57000E+08         0.23353E+07         0.00000E+00
    0.23353E+07        -0.49511E+08         0.00000E+00
    0.00000E+00         0.00000E+00        -0.57050E+08
 
   -0.57010E+08         0.24186E+07         0.00000E+00
    0.24186E+07        -0.49504E+08         0.00000E+00
    0.00000E+00         0.00000E+00        -0.57050E+08
 
   -0.57020E+08         0.25031E+07         0.00000E+00
    0.25031E+07        -0.49497E+08         0.00000E+00
    0.00000E+00         0.00000E+00        -0.57051E+08
 
   -0.57030E+08         0.25889E+07         0.00000E+00
    0.25889E+07        -0.49491E+08         0.00000E+00
    0.00000E+00         0.00000E+00        -0.57052E+08
 
   -0.57040E+08         0.26760E+07         0.00000E+00
    0.26760E+07        -0.49486E+08         0.00000E+00
    0.00000E+00         0.00000E+00        -0.57052E+08
 
   -0.57049E+08         0.27644E+07         0.00000E+00
    0.27644E+07        -0.49481E+08         0.00000E+00
    0.00000E+00         0.00000E+00        -0.57053E+08
 
   -0.57060E+08         0.15957E+05         0.00000E+00
    0.15957E+05        -0.50001E+08         0.00000E+00
    0.00000E+00         0.00000E+00        -0.56786E+08
 
   -0.57015E+08         0.48560E+05         0.00000E+00
    0.48560E+05        -0.50000E+08         0.00000E+00
    0.00000E+00         0.00000E+00        -0.56777E+08
 
   -0.56972E+08         0.81559E+05         0.00000E+00
    0.81559E+05        -0.49998E+08         0.00000E+00
    0.00000E+00         0.00000E+00        -0.56768E+08
 
   -0.56931E+08         0.11503E+06         0.00000E+00
    0.11503E+06        -0.49995E+08         0.00000E+00
    0.00000E+00         0.00000E+00        -0.56759E+08
 
   -0.56893E+08         0.14904E+06         0.00000E+00
    0.14904E+06        -0.49991E+08         0.00000E+00
    0.00000E+00         0.00000E+00        -0.56751E+08
 
   -0.56858E+08         0.18366E+06         0.00000E+00
    0.18366E+06        -0.49986E+08         0.00000E+00
    0.00000E+00         0.00000E+00        -0.56743E+08
 
   -0.56825E+08         0.21895E+06         0.00000E+00
    0.21895E+06        -0.49981E+08         0.00000E+00
    0.00000E+00         0.00000E+00        -0.56735E+08
 
   -0.56794E+08         0.25497E+06         0.00000E+00
    0.25497E+06        -0.49975E+08         0.00000E+00
    0.00000E+00         0.00000E+00        -0.56727E+08
 
   -0.56766E+08         0.29178E+06         0.00000E+00
    0.29178E+06        -0.49968E+08         0.00000E+00
    0.00000E+00         0.00000E+00        -0.56720E+08
 
   -0.56740E+08         0.32942E+06         0.00000E+00
    0.32942E+06        -0.49960E+08         0.00000E+00
    0.00000E+00         0.00000E+00        -0.56714E+08
 
   -0.56716E+08         0.36796E+06         0.00000E+00
    0.36796E+06        -0.49952E+08         0.00000E+00
    0.00000E+00         0.00000E+00        -0.56707E+08
 
   -0.56693E+08         0.40742E+06         0.00000E+00
    0.40742E+06        -0.49943E+08         0.00000E+00
    0.00000E+00         0.00000E+00        -0.56701E+08
 
   -0.56673E+08         0.44786E+06         0.00000E+00
    0.44786E+06        -0.49934E+08         0.00000E+00
    0.00000E+00         0.00000E+00        -0.56695E+08
 
   -0.56655E+08         0.48931E+06         0.00000E+00
    0.48931E+06        -0.49924E+08         0.00000E+00
    0.00000E+00         0.00000E+00        -0.56690E+08
 
   -0.56638E+08         0.53181E+06         0.00000E+00
    0.53181E+06        -0.49914E+08         0.00000E+00
    0.00000E+00         0.00000E+00        -0.56684E+08
 
   -0.56623E+08         0.57538E+06         0.00000E+00
    0.57538E+06        -0.49904E+08         0.00000E+00
    0.00000E+00         0.00000E+00        -0.56679E+08
 
   -0.56610E+08         0.62007E+06         0.00000E+00
    0.62007E+06        -0.49893E+08         0.00000E+00
    0.00000E+00         0.00000E+00        -0.56674E+08
 
   -0.56598E+08         0.66588E+06         0.00000E+00
    0.66588E+06        -0.49882E+08         0.00000E+00
    0.00000E+00         0.00000E+00        -0.56670E+08
 
   -0.56588E+08         0.71286E+06         0.00000E+00
    0.71286E+06        -0.49870E+08         0.00000E+00
    0.00000E+00         0.00000E+00        -0.56665E+08
 
   -0.56579E+08         0.76100E+06         0.00000E+00
    0.76100E+06        -0.49858E+08         0.00000E+00
    0.00000E+00         0.00000E+00        -0.56661E+08
 
   -0.56571E+08         0.81035E+06         0.00000E+00
    0.81035E+06        -0.49846E+08         0.00000E+00
    0.00000E+00         0.00000E+00        -0.56657E+08
 
   -0.56564E+08         0.86090E+06         0.00000E+00
    0.86090E+06        -0.49834E+08         0.00000E+00
    0.00000E+00         0.00000E+00        -0.56653E+08
 
   -0.56559E+08         0.91267E+06         0.00000E+00
    0.91267E+06        -0.49822E+08         0.00000E+00
    0.00000E+00         0.00000E+00        -0.56650E+08
 
   -0.56554E+08         0.96568E+06         0.00000E+00
    0.96568E+06        -0.49810E+08         0.00000E+00
    0.00000E+00         0.00000E+00        -0.56647E+08
 
   -0.56551E+08         0.10199E+07         0.00000E+00
    0.10199E+07        -0.49798E+08         0.00000E+00
    0.00000E+00         0.00000E+00        -0.56643E+08
 
   -0.56548E+08         0.10754E+07         0.00000E+00
    0.10754E+07        -0.49786E+08         0.00000E+00
    0.00000E+00         0.00000E+00        -0.56641E+08
 
   -0.56547E+08         0.11322E+07         0.00000E+00
    0.11322E+07        -0.49774E+08         0.00000E+00
    0.00000E+00         0.00000E+00        -0.56638E+08
 
   -0.56546E+08         0.11902E+07         0.00000E+00
    0.11902E+07        -0.49762E+08         0.00000E+00
    0.00000E+00         0.00000E+00        -0.56635E+08
 
   -0.56546E+08         0.12494E+07         0.00000E+00
    0.12494E+07        -0.49750E+08         0.00000E+00
    0.00000E+00         0.00000E+00        -0.56633E+08
 
   -0.56546E+08         0.13099E+07         0.00000E+00
    0.13099E+07        -0.49739E+08         0.00000E+00
    0.00000E+00         0.00000E+00        -0.56631E+08
 
   -0.56547E+08         0.13717E+07         0.00000E+00
    0.13717E+07        -0.49727E+08         0.00000E+00
    0.00000E+00         0.00000E+00        -0.56629E+08
 
   -0.56549E+08         0.14348E+07         0.00000E+00
    0.14348E+07        -0.49716E+08         0.00000E+00
    0.00000E+00         0.00000E+00        -0.56627E+08
 
   -0.56551E+08         0.14991E+07         0.00000E+00
    0.14991E+07        -0.49706E+08         0.00000E+00
    0.00000E+00         0.00000E+00        -0.56625E+08
 
   -0.56553E+08         0.15646E+07         0.00000E+00
    0.15646E+07        -0.49695E+08         0.00000E+00
    0.00000E+00         0.00000E+00        -0.56623E+08
 
   -0.56556E+08         0.16314E+07         0.00000E+00
    0.16314E+07        -0.49685E+08         0.00000E+00
    0.00000E+00         0.00000E+00        -0.56622E+08
 
   -0.56559E+08         0.16994E+07         0.00000E+00
    0.16994E+07        -0.49675E+08         0.00000E+00
    0.00000E+00         0.00000E+00        -0.56621E+08
 
   -0.56563E+08         0.17687E+07         0.00000E+00
    0.17687E+07        -0.49666E+08         0.00000E+00
    0.00000E+00         0.00000E+00        -0.56619E+08
 
   -0.56566E+08         0.18392E+07         0.00000E+00
    0.18392E+07        -0.49657E+08         0.00000E+00
    0.00000E+00         0.00000E+00        -0.56618E+08
 
   -0.56570E+08         0.19109E+07         0.00000E+00
    0.19109E+07        -0.49648E+08         0.00000E+00
    0.00000E+00         0.00000E+00        -0.56617E+08
 
   -0.56574E+08         0.19839E+07         0.00000E+00
    0.19839E+07        -0.49640E+08         0.00000E+00
    0.00000E+00         0.00000E+00        -0.56617E+08
 
   -0.56578E+08         0.20581E+07         0.00000E+00
    0.20581E+07        -0.49633E+08         0.00000E+00
    0.00000E+00         0.00000E+00        -0.56616E+08
 
   -0.56582E+08         0.21335E+07         0.00000E+00
    0.21335E+07        -0.49626E+08         0.00000E+00
    0.00000E+00         0.00000E+00        -0.56615E+08
 
   -0.56587E+08         0.22101E+07         0.00000E+00
    0.22101E+07        -0.49619E+08         0.00000E+00
    0.00000E+00         0.00000E+00        -0.56615E+08
 
   -0.56591E+08         0.22879E+07         0.00000E+00
    0.22879E+07        -0.49613E+08         0.00000E+00
    0.00000E+00         0.00000E+00        -0.56614E+08
 
   -0.56595E+08         0.23669E+07         0.00000E+00
    0.23669E+07        -0.49608E+08         0.00000E+00
    0.00000E+00         0.00000E+00        -0.56614E+08
 
   -0.56599E+08         0.24471E+07         0.00000E+00
    0.24471E+07        -0.49603E+08         0.00000E+00
    0.00000E+00         0.00000E+00        -0.56614E+08
 
   -0.56602E+08         0.25285E+07         0.00000E+00
    0.25285E+07        -0.49599E+08         0.00000E+00
    0.00000E+00         0.00000E+00        -0.56614E+08
 
   -0.56606E+08         0.26110E+07         0.00000E+00
    0.26110E+07        -0.49596E+08         0.00000E+00
    0.00000E+00         0.00000E+00        -0.56614E+08
 
   -0.56610E+08         0.26948E+07         0.00000E+00
    0.26948E+07        -0.49593E+08         0.00000E+00
    0.00000E+00         0.00000E+00        -0.56614E+08
 
   -0.56613E+08         0.27797E+07         0.00000E+00
    0.27797E+07        -0.49591E+08         0.00000E+00
    0.00000E+00         0.00000E+00        -0.56614E+08
 
   -0.56887E+08         0.18309E+05         0.00000E+00
    0.18309E+05        -0.50001E+08         0.00000E+00
    0.00000E+00         0.00000E+00        -0.56393E+08
 
   -0.56840E+08         0.55283E+05         0.00000E+00
    0.55283E+05        -0.50000E+08         0.00000E+00
    0.00000E+00         0.00000E+00        -0.56384E+08
 
   -0.56795E+08         0.92498E+05         0.00000E+00
    0.92498E+05        -0.49998E+08         0.00000E+00
    0.00000E+00         0.00000E+00        -0.56375E+08
 
   -0.56752E+08         0.13002E+06         0.00000E+00
    0.13002E+06        -0.49996E+08         0.00000E+00
    0.00000E+00         0.00000E+00        -0.56366E+08
 
   -0.56712E+08         0.16791E+06         0.00000E+00
    0.16791E+06        -0.49993E+08         0.00000E+00
    0.00000E+00         0.00000E+00        -0.56357E+08
 
   -0.56674E+08         0.20622E+06         0.00000E+00
    0.20622E+06        -0.49989E+08         0.00000E+00
    0.00000E+00         0.00000E+00        -0.56349E+08
 
   -0.56638E+08         0.24502E+06         0.00000E+00
    0.24502E+06        -0.49985E+08         0.00000E+00
    0.00000E+00         0.00000E+00        -0.56341E+08
 
   -0.56604E+08         0.28436E+06         0.00000E+00
    0.28436E+06        -0.49980E+08         0.00000E+00
    0.00000E+00         0.00000E+00        -0.56333E+08
 
   -0.56572E+08         0.32428E+06         0.00000E+00
    0.32428E+06        -0.49974E+08         0.00000E+00
    0.00000E+00         0.00000E+00        -0.56325E+08
 
   -0.56542E+08         0.36484E+06         0.00000E+00
    0.36484E+06        -0.49968E+08         0.00000E+00
    0.00000E+00         0.00000E+00        -0.56318E+08
 
   -0.56514E+08         0.40609E+06         0.00000E+00
    0.40609E+06        -0.49961E+08         0.00000E+00
    0.00000E+00         0.00000E+00        -0.56311E+08
 
   -0.56488E+08         0.44806E+06         0.00000E+00
    0.44806E+06        -0.49954E+08         0.00000E+00
    0.00000E+00         0.00000E+00        -0.56304E+08
 
   -0.56463E+08         0.49079E+06         0.00000E+00
    0.49079E+06        -0.49947E+08         0.00000E+00
    0.00000E+00         0.00000E+00        -0.56298E+08
 
   -0.56440E+08         0.53432E+06         0.00000E+00
    0.53432E+06        -0.49939E+08         0.00000E+00
    0.00000E+00         0.00000E+00        -0.56292E+08
 
   -0.56419E+08         0.57869E+06         0.00000E+00
    0.57869E+06        -0.49931E+08         0.00000E+00
    0.00000E+00         0.00000E+00        -0.56286E+08
 
   -0.56399E+08         0.62393E+06         0.00000E+00
    0.62393E+06        -0.49922E+08         0.00000E+00
    0.00000E+00         0.00000E+00        -0.56280E+08
 
   -0.56380E+08         0.67007E+06         0.00000E+00
    0.67007E+06        -0.49913E+08         0.00000E+00
    0.00000E+00         0.00000E+00        -0.56275E+08
 
   -0.56363E+08         0.71713E+06         0.00000E+00
    0.71713E+06        -0.49904E+08         0.00000E+00
    0.00000E+00         0.00000E+00        -0.56269E+08
 
   -0.56347E+08         0.76513E+06         0.00000E+00
    0.76513E+06        -0.49895E+08         0.00000E+00
    0.00000E+00         0.00000E+00        -0.56264E+08
 
   -0.56333E+08         0.81411E+06         0.00000E+00
    0.81411E+06        -0.49885E+08         0.00000E+00
    0.00000E+00         0.00000E+00        -0.56260E+08
 
   -0.56320E+08         0.86409E+06         0.00000E+00
    0.86409E+06        -0.49876E+08         0.00000E+00
    0.00000E+00         0.00000E+00        -0.56255E+08
 
   -0.56308E+08         0.91507E+06         0.00000E+00
    0.91507E+06        -0.49866E+08         0.00000E+00
    0.00000E+00         0.00000E+00        -0.56251E+08
 
   -0.56296E+08         0.96707E+06         0.00000E+00
    0.96707E+06        -0.49856E+08         0.00000E+00
    0.00000E+00         0.00000E+00        -0.56247E+08
 
   -0.56286E+08         0.10201E+07         0.00000E+00
    0.10201E+07        -0.49847E+08         0.00000E+00
    0.00000E+00         0.00000E+00        -0.56243E+08
 
   -0.56277E+08         0.10742E+07         0.00000E+00
    0.10742E+07        -0.49837E+08         0.00000E+00
    0.00000E+00         0.00000E+00        -0.56239E+08
 
   -0.56269E+08         0.11294E+07         0.00000E+00
    0.11294E+07        -0.49827E+08         0.00000E+00
    0.00000E+00         0.00000E+00        -0.56235E+08
 
   -0.56261E+08         0.11856E+07         0.00000E+00
    0.11856E+07        -0.49818E+08         0.00000E+00
    0.00000E+00         0.00000E+00        -0.56232E+08
 
   -0.56255E+08         0.12429E+07         0.00000E+00
    0.12429E+07        -0.49808E+08         0.00000E+00
    0.00000E+00         0.00000E+00        -0.56229E+08
 
   -0.56249E+08         0.13013E+07         0.00000E+00
    0.13013E+07        -0.49799E+08         0.00000E+00
    0.00000E+00         0.00000E+00        -0.56225E+08
 
   -0.56243E+08         0.13608E+07         0.00000E+00
    0.13608E+07        -0.49790E+08         0.00000E+00
    0.00000E+00         0.00000E+00        -0.56223E+08
 
   -0.56238E+08         0.14214E+07         0.00000E+00
    0.14214E+07        -0.49781E+08         0.00000E+00
    0.00000E+00         0.00000E+00        -0.56220E+08
 
   -0.56234E+08         0.14831E+07         0.00000E+00
    0.14831E+07        -0.49772E+08         0.00000E+00
    0.00000E+00         0.00000E+00        -0.56217E+08
 
   -0.56230E+08         0.15459E+07         0.00000E+00
    0.15459E+07        -0.49764E+08         0.00000E+00
    0.00000E+00         0.00000E+00        -0.56215E+08
 
   -0.56227E+08         0.16099E+07         0.00000E+00
    0.16099E+07        -0.49756E+08         0.00000E+00
    0.00000E+00         0.00000E+00        -0.56213E+08
 
   -0.56224E+08         0.16749E+07         0.00000E+00
    0.16749E+07        -0.49749E+08         0.00000E+00
    0.00000E+00         0.00000E+00        -0.56210E+08
 
   -0.56221E+08         0.17410E+07         0.00000E+00
    0.17410E+07        -0.49741E+08         0.00000E+00
    0.00000E+00         0.00000E+00        -0.56208E+08
 
   -0.56219E+08         0.18082E+07         0.00000E+00
    0.18082E+07        -0.49734E+08         0.00000E+00
    0.00000E+00         0.00000E+00        -0.56207E+08
 
   -0.56216E+08         0.18765E+07         0.00000E+00
    0.18765E+07        -0.49728E+08         0.00000E+00
    0.00000E+00         0.00000E+00        -0.56205E+08
 
   -0.56214E+08         0.19460E+07         0.00000E+00
    0.19460E+07        -0.49722E+08         0.00000E+00
    0.00000E+00         0.00000E+00        -0.56203E+08
 
   -0.56213E+08         0.20165E+07         0.00000E+00
    0.20165E+07        -0.49716E+08         0.00000E+00
    0.00000E+00         0.00000E+00        -0.56202E+08
 
   -0.56211E+08         0.20881E+07         0.00000E+00
    0.20881E+07        -0.49711E+08         0.00000E+00
    0.00000E+00         0.00000E+00        -0.56200E+08
 
   -0.56209E+08         0.21609E+07         0.00000E+00
    0.21609E+07        -0.49707E+08         0.00000E+00
    0.00000E+00         0.00000E+00        -0.56199E+08
 
   -0.56208E+08         0.22347E+07         0.00000E+00
    0.22347E+07        -0.49703E+08         0.00000E+00
    0.00000E+00         0.00000E+00        -0.56198E+08
 
   -0.56206E+08         0.23096E+07         0.00000E+00
    0.23096E+07        -0.49699E+08         0.00000E+00
    0.00000E+00         0.00000E+00        -0.56197E+08
 
   -0.56204E+08         0.23856E+07         0.00000E+00
    0.23856E+07        -0.49697E+08         0.00000E+00
    0.00000E+00         0.00000E+00        -0.56196E+08
 
   -0.56203E+08         0.24627E+07         0.00000E+00
    0.24627E+07        -0.49694E+08         0.00000E+00
    0.00000E+00         0.00000E+00        -0.56195E+08
 
   -0.56201E+08         0.25409E+07         0.00000E+00
    0.25409E+07        -0.49693E+08         0.00000E+00
    0.00000E+00         0.00000E+00        -0.56195E+08
 
   -0.56199E+08         0.26202E+07         0.00000E+00
    0.26202E+07        -0.49692E+08         0.00000E+00
    0.00000E+00         0.00000E+00        -0.56194E+08
 
   -0.56197E+08         0.27005E+07         0.00000E+00
    0.27005E+07        -0.49692E+08         0.00000E+00
    0.00000E+00         0.00000E+00        -0.56194E+08
 
   -0.56194E+08         0.27820E+07         0.00000E+00
    0.27820E+07        -0.49692E+08         0.00000E+00
    0.00000E+00         0.00000E+00        -0.56193E+08
 
   -0.56693E+08         0.20191E+05         0.00000E+00
    0.20191E+05        -0.50001E+08         0.00000E+00
    0.00000E+00         0.00000E+00        -0.56013E+08
 
   -0.56645E+08         0.60675E+05         0.00000E+00
    0.60675E+05        -0.50000E+08         0.00000E+00
    0.00000E+00         0.00000E+00        -0.56003E+08
 
   -0.56599E+08         0.10128E+06         0.00000E+00
    0.10128E+06        -0.49999E+08         0.00000E+00
    0.00000E+00         0.00000E+00        -0.55994E+08
 
   -0.56556E+08         0.14206E+06         0.00000E+00
    0.14206E+06        -0.49997E+08         0.00000E+00
    0.00000E+00         0.00000E+00        -0.55985E+08
 
   -0.56514E+08         0.18307E+06         0.00000E+00
    0.18307E+06        -0.49994E+08         0.00000E+00
    0.00000E+00         0.00000E+00        -0.55976E+08
 
   -0.56474E+08         0.22436E+06         0.00000E+00
    0.22436E+06        -0.49991E+08         0.00000E+00
    0.00000E+00         0.00000E+00        -0.55967E+08
 
   -0.56436E+08         0.26598E+06         0.00000E+00
    0.26598E+06        -0.49988E+08         0.00000E+00
    0.00000E+00         0.00000E+00        -0.55959E+08
 
   -0.56399E+08         0.30799E+06         0.00000E+00
    0.30799E+06        -0.49984E+08         0.00000E+00
    0.00000E+00         0.00000E+00        -0.55951E+08
 
   -0.56365E+08         0.35043E+06         0.00000E+00
    0.35043E+06        -0.49979E+08         0.00000E+00
    0.00000E+00         0.00000E+00        -0.55943E+08
 
   -0.56332E+08         0.39334E+06         0.00000E+00
    0.39334E+06        -0.49975E+08         0.00000E+00
    0.00000E+00         0.00000E+00        -0.55936E+08
 
   -0.56301E+08         0.43676E+06         0.00000E+00
    0.43676E+06        -0.49969E+08         0.00000E+00
    0.00000E+00         0.00000E+00        -0.55928E+08
 
   -0.56271E+08         0.48073E+06         0.00000E+00
    0.48073E+06        -0.49964E+08         0.00000E+00
    0.00000E+00         0.00000E+00        -0.55921E+08
 
   -0.56243E+08         0.52529E+06         0.00000E+00
    0.52529E+06        -0.49958E+08         0.00000E+00
    0.00000E+00         0.00000E+00        -0.55915E+08
 
   -0.56216E+08         0.57048E+06         0.00000E+00
    0.57048E+06        -0.49951E+08         0.00000E+00
    0.00000E+00         0.00000E+00        -0.55908E+08
 
   -0.56191E+08         0.61633E+06         0.00000E+00
    0.61633E+06        -0.49945E+08         0.00000E+00
    0.00000E+00         0.00000E+00        -0.55902E+08
 
   -0.56167E+08         0.66287E+06         0.00000E+00
    0.66287E+06        -0.49938E+08         0.00000E+00
    0.00000E+00         0.00000E+00        -0.55895E+08
 
   -0.56145E+08         0.71013E+06         0.00000E+00
    0.71013E+06        -0.49931E+08         0.00000E+00
    0.00000E+00         0.00000E+00        -0.55890E+08
 
   -0.56123E+08         0.75813E+06         0.00000E+00
    0.75813E+06        -0.49924E+08         0.00000E+00
    0.00000E+00         0.00000E+00        -0.55884E+08
 
   -0.56103E+08         0.80691E+06         0.00000E+00
    0.80691E+06        -0.49916E+08         0.00000E+00
    0.00000E+00         0.00000E+00        -0.55878E+08
 
   -0.56084E+08         0.85647E+06         0.00000E+00
    0.85647E+06        -0.49909E+08         0.00000E+00
    0.00000E+00         0.00000E+00        -0.55873E+08
 
   -0.56066E+08         0.90686E+06         0.00000E+00
    0.90686E+06        -0.49901E+08         0.00000E+00
    0.00000E+00         0.00000E+00        -0.55868E+08
 
   -0.56050E+08         0.95808E+06         0.00000E+00
    0.95808E+06        -0.49894E+08         0.00000E+00
    0.00000E+00         0.00000E+00        -0.55863E+08
 
   -0.56034E+08         0.10102E+07         0.00000E+00
    0.10102E+07        -0.49886E+08         0.00000E+00
    0.00000E+00         0.00000E+00        -0.55858E+08
 
   -0.56019E+08         0.10631E+07         0.00000E+00
    0.10631E+07        -0.49879E+08         0.00000E+00
    0.00000E+00         0.00000E+00        -0.55854E+08
 
   -0.56005E+08         0.11169E+07         0.00000E+00
    0.11169E+07        -0.49871E+08         0.00000E+00
    0.00000E+00         0.00000E+00        -0.55850E+08
 
   -0.55992E+08         0.11717E+07         0.00000E+00
    0.11717E+07        -0.49864E+08         0.00000E+00
    0.00000E+00         0.00000E+00        -0.55846E+08
 
   -0.55979E+08         0.12273E+07         0.00000E+00
    0.12273E+07        -0.49857E+08         0.00000E+00
    0.00000E+00         0.00000E+00        -0.55842E+08
 
   -0.55967E+08         0.12839E+07         0.00000E+00
    0.12839E+07        -0.49849E+08         0.00000E+00
    0.00000E+00         0.00000E+00        -0.55838E+08
 
   -0.55956E+08         0.13414E+07         0.00000E+00
    0.13414E+07        -0.49842E+08         0.00000E+00
    0.00000E+00         0.00000E+00        -0.55834E+08
 
   -0.55946E+08         0.13998E+07         0.00000E+00
    0.13998E+07        -0.49836E+08         0.00000E+00
    0.00000E+00         0.00000E+00        -0.55831E+08
 
   -0.55936E+08         0.14592E+07         0.00000E+00
    0.14592E+07        -0.49829E+08         0.00000E+00
    0.00000E+00         0.00000E+00        -0.55827E+08
 
   -0.55926E+08         0.15195E+07         0.00000E+00
    0.15195E+07        -0.49823E+08         0.00000E+00
    0.00000E+00         0.00000E+00        -0.55824E+08
 
   -0.55917E+08         0.15808E+07         0.00000E+00
    0.15808E+07        -0.49817E+08         0.00000E+00
    0.00000E+00         0.00000E+00        -0.55821E+08
 
   -0.55909E+08         0.16431E+07         0.00000E+00
    0.16431E+07        -0.49811E+08         0.00000E+00
    0.00000E+00         0.00000E+00        -0.55818E+08
 
   -0.55901E+08         0.17063E+07         0.00000E+00
    0.17063E+07        -0.49806E+08         0.00000E+00
    0.00000E+00         0.00000E+00        -0.55816E+08
 
   -0.55893E+08         0.17705E+07         0.00000E+00
    0.17705E+07        -0.49801E+08         0.00000E+00
    0.00000E+00         0.00000E+00        -0.55813E+08
 
   -0.55885E+08         0.18357E+07         0.00000E+00
    0.18357E+07        -0.49796E+08         0.00000E+00
    0.00000E+00         0.00000E+00        -0.55811E+08
 
   -0.55878E+08         0.19018E+07         0.00000E+00
    0.19018E+07        -0.49792E+08         0.00000E+00
    0.00000E+00         0.00000E+00        -0.55808E+08
 
   -0.55870E+08         0.19689E+07         0.00000E+00
    0.19689E+07        -0.49788E+08         0.00000E+00
    0.00000E+00         0.00000E+00        -0.55806E+08
 
   -0.55863E+08         0.20371E+07         0.00000E+00
    0.20371E+07        -0.49785E+08         0.00000E+00
    0.00000E+00         0.00000E+00        -0.55804E+08
 
   -0.55856E+08         0.21061E+07         0.00000E+00
    0.21061E+07        -0.49782E+08         0.00000E+00
    0.00000E+00         0.00000E+00        -0.55802E+08
 
   -0.55850E+08         0.21762E+07         0.00000E+00
    0.21762E+07        -0.49780E+08         0.00000E+00
    0.00000E+00         0.00000E+00        -0.55800E+08
 
   -0.55843E+08         0.22473E+07         0.00000E+00
    0.22473E+07        -0.49778E+08         0.00000E+00
    0.00000E+00         0.00000E+00        -0.55799E+08
 
   -0.55836E+08         0.23193E+07         0.00000E+00
    0.23193E+07        -0.49777E+08         0.00000E+00
    0.00000E+00         0.00000E+00        -0.55797E+08
 
   -0.55829E+08         0.23924E+07         0.00000E+00
    0.23924E+07        -0.49777E+08         0.00000E+00
    0.00000E+00         0.00000E+00        -0.55796E+08
 
   -0.55822E+08         0.24664E+07         0.00000E+00
    0.24664E+07        -0.49777E+08         0.00000E+00
    0.00000E+00         0.00000E+00        -0.55794E+08
 
   -0.55815E+08         0.25414E+07         0.00000E+00
    0.25414E+07        -0.49778E+08         0.00000E+00
    0.00000E+00         0.00000E+00        -0.55793E+08
 
   -0.55808E+08         0.26174E+07         0.00000E+00
    0.26174E+07        -0.49779E+08         0.00000E+00
    0.00000E+00         0.00000E+00        -0.55792E+08
 
   -0.55801E+08         0.26943E+07         0.00000E+00
    0.26943E+07        -0.49781E+08         0.00000E+00
    0.00000E+00         0.00000E+00        -0.55791E+08
 
   -0.55793E+08         0.27723E+07         0.00000E+00
    0.27723E+07        -0.49784E+08         0.00000E+00
    0.00000E+00         0.00000E+00        -0.55790E+08
 
   -0.56484E+08         0.21679E+05         0.00000E+00
    0.21679E+05        -0.50001E+08         0.00000E+00
    0.00000E+00         0.00000E+00        -0.55646E+08
 
   -0.56436E+08         0.64936E+05         0.00000E+00
    0.64936E+05        -0.50000E+08         0.00000E+00
    0.00000E+00         0.00000E+00        -0.55636E+08
 
   -0.56389E+08         0.10822E+06         0.00000E+00
    0.10822E+06        -0.49999E+08         0.00000E+00
    0.00000E+00         0.00000E+00        -0.55627E+08
 
   -0.56345E+08         0.15157E+06         0.00000E+00
    0.15157E+06        -0.49998E+08         0.00000E+00
    0.00000E+00         0.00000E+00        -0.55618E+08
 
   -0.56302E+08         0.19504E+06         0.00000E+00
    0.19504E+06        -0.49996E+08         0.00000E+00
    0.00000E+00         0.00000E+00        -0.55609E+08
 
   -0.56261E+08         0.23869E+06         0.00000E+00
    0.23869E+06        -0.49993E+08         0.00000E+00
    0.00000E+00         0.00000E+00        -0.55600E+08
 
   -0.56221E+08         0.28254E+06         0.00000E+00
    0.28254E+06        -0.49991E+08         0.00000E+00
    0.00000E+00         0.00000E+00        -0.55591E+08
 
   -0.56183E+08         0.32665E+06         0.00000E+00
    0.32665E+06        -0.49988E+08         0.00000E+00
    0.00000E+00         0.00000E+00        -0.55583E+08
 
   -0.56146E+08         0.37105E+06         0.00000E+00
    0.37105E+06        -0.49984E+08         0.00000E+00
    0.00000E+00         0.00000E+00        -0.55575E+08
 
   -0.56111E+08         0.41580E+06         0.00000E+00
    0.41580E+06        -0.49980E+08         0.00000E+00
    0.00000E+00         0.00000E+00        -0.55567E+08
 
   -0.56078E+08         0.46091E+06         0.00000E+00
    0.46091E+06        -0.49976E+08         0.00000E+00
    0.00000E+00         0.00000E+00        -0.55560E+08
 
   -0.56046E+08         0.50644E+06         0.00000E+00
    0.50644E+06        -0.49972E+08         0.00000E+00
    0.00000E+00         0.00000E+00        -0.55553E+08
 
   -0.56015E+08         0.55241E+06         0.00000E+00
    0.55241E+06        -0.49967E+08         0.00000E+00
    0.00000E+00         0.00000E+00        -0.55545E+08
 
   -0.55985E+08         0.59886E+06         0.00000E+00
    0.59886E+06        -0.49962E+08         0.00000E+00
    0.00000E+00         0.00000E+00        -0.55539E+08
 
   -0.55957E+08         0.64582E+06         0.00000E+00
    0.64582E+06        -0.49957E+08         0.00000E+00
    0.00000E+00         0.00000E+00        -0.55532E+08
 
   -0.55930E+08         0.69332E+06         0.00000E+00
    0.69332E+06        -0.49952E+08         0.00000E+00
    0.00000E+00         0.00000E+00        -0.55526E+08
 
   -0.55904E+08         0.74138E+06         0.00000E+00
    0.74138E+06        -0.49947E+08         0.00000E+00
    0.00000E+00         0.00000E+00        -0.55519E+08
 
   -0.55880E+08         0.79004E+06         0.00000E+00
    0.79004E+06        -0.49941E+08         0.00000E+00
    0.00000E+00         0.00000E+00        -0.55513E+08
 
   -0.55856E+08         0.83932E+06         0.00000E+00
    0.83932E+06        -0.49935E+08         0.00000E+00
    0.00000E+00         0.00000E+00        -0.55507E+08
 
   -0.55834E+08         0.88924E+06         0.00000E+00
    0.88924E+06        -0.49930E+08         0.00000E+00
    0.00000E+00         0.00000E+00        -0.55502E+08
 
   -0.55812E+08         0.93982E+06         0.00000E+00
    0.93982E+06        -0.49924E+08         0.00000E+00
    0.00000E+00         0.00000E+00        -0.55496E+08
 
   -0.55791E+08         0.99108E+06         0.00000E+00
    0.99108E+06        -0.49918E+08         0.00000E+00
    0.00000E+00         0.00000E+00        -0.55491E+08
 
   -0.55772E+08         0.10430E+07         0.00000E+00
    0.10430E+07        -0.49913E+08         0.00000E+00
    0.00000E+00         0.00000E+00        -0.55486E+08
 
   -0.55753E+08         0.10957E+07         0.00000E+00
    0.10957E+07        -0.49907E+08         0.00000E+00
    0.00000E+00         0.00000E+00        -0.55481E+08
 
   -0.55735E+08         0.11492E+07         0.00000E+00
    0.11492E+07        -0.49902E+08         0.00000E+00
    0.00000E+00         0.00000E+00        -0.55476E+08
 
   -0.55717E+08         0.12033E+07         0.00000E+00
    0.12033E+07        -0.49896E+08         0.00000E+00
    0.00000E+00         0.00000E+00        -0.55472E+08
 
   -0.55701E+08         0.12583E+07         0.00000E+00
    0.12583E+07        -0.49891E+08         0.00000E+00
    0.00000E+00         0.00000E+00        -0.55467E+08
 
   -0.55684E+08         0.13140E+07         0.00000E+00
    0.13140E+07        -0.49886E+08         0.00000E+00
    0.00000E+00         0.00000E+00        -0.55463E+08
 
   -0.55669E+08         0.13705E+07         0.00000E+00
    0.13705E+07        -0.49881E+08         0.00000E+00
    0.00000E+00         0.00000E+00        -0.55459E+08
 
   -0.55654E+08         0.14278E+07         0.00000E+00
    0.14278E+07        -0.49876E+08         0.00000E+00
    0.00000E+00         0.00000E+00        -0.55455E+08
 
   -0.55640E+08         0.14859E+07         0.00000E+00
    0.14859E+07        -0.49872E+08         0.00000E+00
    0.00000E+00         0.00000E+00        -0.55451E+08
 
   -0.55626E+08         0.15449E+07         0.00000E+00
    0.15449E+07        -0.49867E+08         0.00000E+00
    0.00000E+00         0.00000E+00        -0.55448E+08
 
   -0.55612E+08         0.16046E+07         0.00000E+00
    0.16046E+07        -0.49863E+08         0.00000E+00
    0.00000E+00         0.00000E+00        -0.55444E+08
 
   -0.55599E+08         0.16652E+07         0.00000E+00
    0.16652E+07        -0.49860E+08         0.00000E+00
    0.00000E+00         0.00000E+00        -0.55441E+08
 
   -0.55587E+08         0.17266E+07         0.00000E+00
    0.17266E+07        -0.49857E+08         0.00000E+00
    0.00000E+00         0.00000E+00        -0.55438E+08
 
   -0.55574E+08         0.17889E+07         0.00000E+00
    0.17889E+07        -0.49854E+08         0.00000E+00
    0.00000E+00         0.00000E+00        -0.55435E+08
 
   -0.55562E+08         0.18520E+07         0.00000E+00
    0.18520E+07        -0.49851E+08         0.00000E+00
    0.00000E+00         0.00000E+00        -0.55432E+08
 
   -0.55550E+08         0.19160E+07         0.00000E+00
    0.19160E+07        -0.49849E+08         0.00000E+00
    0.00000E+00         0.00000E+00        -0.55429E+08
 
   -0.55538E+08         0.19809E+07         0.00000E+00
    0.19809E+07        -0.49848E+08         0.00000E+00
    0.00000E+00         0.00000E+00        -0.55426E+08
 
   -0.55527E+08         0.20466E+07         0.00000E+00
    0.20466E+07        -0.49847E+08         0.00000E+00
    0.00000E+00         0.00000E+00        -0.55424E+08
 
   -0.55515E+08         0.21131E+07         0.00000E+00
    0.21131E+07        -0.49846E+08         0.00000E+00
    0.00000E+00         0.00000E+00        -0.55421E+08
 
   -0.55503E+08         0.21806E+07         0.00000E+00
    0.21806E+07        -0.49846E+08         0.00000E+00
    0.00000E+00         0.00000E+00        -0.55419E+08
 
   -0.55492E+08         0.22489E+07         0.00000E+00
    0.22489E+07        -0.49846E+08         0.00000E+00
    0.00000E+00         0.00000E+00        -0.55417E+08
 
   -0.55481E+08         0.23181E+07         0.00000E+00
    0.23181E+07        -0.49847E+08         0.00000E+00
    0.00000E+00         0.00000E+00        -0.55415E+08
 
   -0.55469E+08         0.23881E+07         0.00000E+00
    0.23881E+07        -0.49849E+08         0.00000E+00
    0.00000E+00         0.00000E+00        -0.55413E+08
 
   -0.55457E+08         0.24591E+07         0.00000E+00
    0.24591E+07        -0.49851E+08         0.00000E+00
    0.00000E+00         0.00000E+00        -0.55411E+08
 
   -0.55446E+08         0.25309E+07         0.00000E+00
    0.25309E+07        -0.49854E+08         0.00000E+00
    0.00000E+00         0.00000E+00        -0.55409E+08
 
   -0.55434E+08         0.26036E+07         0.00000E+00
    0.26036E+07        -0.49857E+08         0.00000E+00
    0.00000E+00         0.00000E+00        -0.55407E+08
 
   -0.55422E+08         0.26772E+07         0.00000E+00
    0.26772E+07        -0.49861E+08         0.00000E+00
    0.00000E+00         0.00000E+00        -0.55406E+08
 
   -0.55410E+08         0.27516E+07         0.00000E+00
    0.27516E+07        -0.49866E+08         0.00000E+00
    0.00000E+00         0.00000E+00        -0.55404E+08
 
   -0.56262E+08         0.22832E+05         0.00000E+00
    0.22832E+05        -0.50001E+08         0.00000E+00
    0.00000E+00         0.00000E+00        -0.55292E+08
 
   -0.56214E+08         0.68237E+05         0.00000E+00
    0.68237E+05        -0.50000E+08         0.00000E+00
    0.00000E+00         0.00000E+00        -0.55283E+08
 
   -0.56167E+08         0.11359E+06         0.00000E+00
    0.11359E+06        -0.49999E+08         0.00000E+00
    0.00000E+00         0.00000E+00        -0.55273E+08
 
   -0.56123E+08         0.15893E+06         0.00000E+00
    0.15893E+06        -0.49998E+08         0.00000E+00
    0.00000E+00         0.00000E+00        -0.55264E+08
 
   -0.56079E+08         0.20430E+06         0.00000E+00
    0.20430E+06        -0.49997E+08         0.00000E+00
    0.00000E+00         0.00000E+00        -0.55255E+08
 
   -0.56037E+08         0.24975E+06         0.00000E+00
    0.24975E+06        -0.49995E+08         0.00000E+00
    0.00000E+00         0.00000E+00        -0.55246E+08
 
   -0.55997E+08         0.29530E+06         0.00000E+00
    0.29530E+06        -0.49993E+08         0.00000E+00
    0.00000E+00         0.00000E+00        -0.55238E+08
 
   -0.55958E+08         0.34101E+06         0.00000E+00
    0.34101E+06        -0.49991E+08         0.00000E+00
    0.00000E+00         0.00000E+00        -0.55230E+08
 
   -0.55920E+08         0.38691E+06         0.00000E+00
    0.38691E+06        -0.49988E+08         0.00000E+00
    0.00000E+00         0.00000E+00        -0.55221E+08
 
   -0.55883E+08         0.43303E+06         0.00000E+00
    0.43303E+06        -0.49985E+08         0.00000E+00
    0.00000E+00         0.00000E+00        -0.55214E+08
 
   -0.55848E+08         0.47941E+06         0.00000E+00
    0.47941E+06        -0.49982E+08         0.00000E+00
    0.00000E+00         0.00000E+00        -0.55206E+08
 
   -0.55814E+08         0.52608E+06         0.00000E+00
    0.52608E+06        -0.49979E+08         0.00000E+00
    0.00000E+00         0.00000E+00        -0.55198E+08
 
   -0.55781E+08         0.57308E+06         0.00000E+00
    0.57308E+06        -0.49975E+08         0.00000E+00
    0.00000E+00         0.00000E+00        -0.55191E+08
 
   -0.55750E+08         0.62043E+06         0.00000E+00
    0.62043E+06        -0.49972E+08         0.00000E+00
    0.00000E+00         0.00000E+00        -0.55184E+08
 
   -0.55719E+08         0.66816E+06         0.00000E+00
    0.66816E+06        -0.49968E+08         0.00000E+00
    0.00000E+00         0.00000E+00        -0.55177E+08
 
   -0.55690E+08         0.71630E+06         0.00000E+00
    0.71630E+06        -0.49964E+08         0.00000E+00
    0.00000E+00         0.00000E+00        -0.55171E+08
 
   -0.55661E+08         0.76489E+06         0.00000E+00
    0.76489E+06        -0.49960E+08         0.00000E+00
    0.00000E+00         0.00000E+00        -0.55164E+08
 
   -0.55634E+08         0.81393E+06         0.00000E+00
    0.81393E+06        -0.49956E+08         0.00000E+00
    0.00000E+00         0.00000E+00        -0.55158E+08
 
   -0.55608E+08         0.86346E+06         0.00000E+00
    0.86346E+06        -0.49952E+08         0.00000E+00
    0.00000E+00         0.00000E+00        -0.55152E+08
 
   -0.55582E+08         0.91350E+06         0.00000E+00
    0.91350E+06        -0.49948E+08         0.00000E+00
    0.00000E+00         0.00000E+00        -0.55146E+08
 
   -0.55558E+08         0.96406E+06         0.00000E+00
    0.96406E+06        -0.49944E+08         0.00000E+00
    0.00000E+00         0.00000E+00        -0.55140E+08
 
   -0.55534E+08         0.10152E+07         0.00000E+00
    0.10152E+07        -0.49940E+08         0.00000E+00
    0.00000E+00         0.00000E+00        -0.55135E+08
 
   -0.55511E+08         0.10669E+07         0.00000E+00
    0.10669E+07        -0.49936E+08         0.00000E+00
    0.00000E+00         0.00000E+00        -0.55129E+08
 
   -0.55489E+08         0.11191E+07         0.00000E+00
    0.11191E+07        -0.49932E+08         0.00000E+00
    0.00000E+00         0.00000E+00        -0.55124E+08
 
   -0.55467E+08         0.11720E+07         0.00000E+00
    0.11720E+07        -0.49928E+08         0.00000E+00
    0.00000E+00         0.00000E+00        -0.55119E+08
 
   -0.55446E+08         0.12255E+07         0.00000E+00
    0.12255E+07        -0.49924E+08         0.00000E+00
    0.00000E+00         0.00000E+00        -0.55114E+08
 
   -0.55426E+08         0.12797E+07         0.00000E+00
    0.12797E+07        -0.49921E+08         0.00000E+00
    0.00000E+00         0.00000E+00        -0.55109E+08
 
   -0.55406E+08         0.13344E+07         0.00000E+00
    0.13344E+07        -0.49918E+08         0.00000E+00
    0.00000E+00         0.00000E+00        -0.55105E+08
 
   -0.55387E+08         0.13899E+07         0.00000E+00
    0.13899E+07        -0.49914E+08         0.00000E+00
    0.00000E+00         0.00000E+00        -0.55100E+08
 
   -0.55369E+08         0.14460E+07         0.00000E+00
    0.14460E+07        -0.49912E+08         0.00000E+00
    0.00000E+00         0.00000E+00        -0.55096E+08
 
   -0.55351E+08         0.15028E+07         0.00000E+00
    0.15028E+07        -0.49909E+08         0.00000E+00
    0.00000E+00         0.00000E+00        -0.55092E+08
 
   -0.55333E+08         0.15602E+07         0.00000E+00
    0.15602E+07        -0.49907E+08         0.00000E+00
    0.00000E+00         0.00000E+00        -0.55088E+08
 
   -0.55316E+08         0.16184E+07         0.00000E+00
    0.16184E+07        -0.49905E+08         0.00000E+00
    0.00000E+00         0.00000E+00        -0.55084E+08
 
   -0.55299E+08         0.16773E+07         0.00000E+00
    0.16773E+07        -0.49903E+08         0.00000E+00
    0.00000E+00         0.00000E+00        -0.55080E+08
 
   -0.55282E+08         0.17369E+07         0.00000E+00
    0.17369E+07        -0.49902E+08         0.00000E+00
    0.00000E+00         0.00000E+00        -0.55077E+08
 
   -0.55266E+08         0.17973E+07         0.00000E+00
    0.17973E+07        -0.49901E+08         0.00000E+00
    0.00000E+00         0.00000E+00        -0.55073E+08
 
   -0.55249E+08         0.18584E+07         0.00000E+00
    0.18584E+07        -0.49900E+08         0.00000E+00
    0.00000E+00         0.00000E+00        -0.55070E+08
 
   -0.55233E+08         0.19202E+07         0.00000E+00
    0.19202E+07        -0.49900E+08         0.00000E+00
    0.00000E+00         0.00000E+00        -0.55067E+08
 
   -0.55218E+08         0.19827E+07         0.00000E+00
    0.19827E+07        -0.49900E+08         0.00000E+00
    0.00000E+00         0.00000E+00        -0.55063E+08
 
   -0.55202E+08         0.20460E+07         0.00000E+00
    0.20460E+07        -0.49901E+08         0.00000E+00
    0.00000E+00         0.00000E+00        -0.55061E+08
 
   -0.55186E+08         0.21101E+07         0.00000E+00
    0.21101E+07        -0.49902E+08         0.00000E+00
    0.00000E+00         0.00000E+00        -0.55058E+08
 
   -0.55171E+08         0.21749E+07         0.00000E+00
    0.21749E+07        -0.49904E+08         0.00000E+00
    0.00000E+00         0.00000E+00        -0.55055E+08
 
   -0.55155E+08         0.22404E+07         0.00000E+00
    0.22404E+07        -0.49907E+08         0.00000E+00
    0.00000E+00         0.00000E+00        -0.55052E+08
 
   -0.55140E+08         0.23068E+07         0.00000E+00
    0.23068E+07        -0.49909E+08         0.00000E+00
    0.00000E+00         0.00000E+00        -0.55050E+08
 
   -0.55124E+08         0.23739E+07         0.00000E+00
    0.23739E+07        -0.49913E+08         0.00000E+00
    0.00000E+00         0.00000E+00        -0.55047E+08
 
   -0.55108E+08         0.24418E+07         0.00000E+00
    0.24418E+07        -0.49917E+08         0.00000E+00
    0.00000E+00         0.00000E+00        -0.55045E+08
 
   -0.55092E+08         0.25104E+07         0.00000E+00
    0.25104E+07        -0.49922E+08         0.00000E+00
    0.00000E+00         0.00000E+00        -0.55043E+08
 
   -0.55077E+08         0.25799E+07         0.00000E+00
    0.25799E+07        -0.49927E+08         0.00000E+00
    0.00000E+00         0.00000E+00        -0.55041E+08
 
   -0.55060E+08         0.26501E+07         0.00000E+00
    0.26501E+07        -0.49933E+08         0.00000E+00
    0.00000E+00         0.00000E+00        -0.55039E+08
 
   -0.55044E+08         0.27211E+07         0.00000E+00
    0.27211E+07        -0.49940E+08         0.00000E+00
    0.00000E+00         0.00000E+00        -0.55037E+08
 
   -0.56030E+08         0.23704E+05         0.00000E+00
    0.23704E+05        -0.50000E+08         0.00000E+00
    0.00000E+00         0.00000E+00        -0.54953E+08
 
   -0.55983E+08         0.70722E+05         0.00000E+00
    0.70722E+05        -0.50000E+08         0.00000E+00
    0.00000E+00         0.00000E+00        -0.54943E+08
 
   -0.55937E+08         0.11762E+06         0.00000E+00
    0.11762E+06        -0.50000E+08         0.00000E+00
    0.00000E+00         0.00000E+00        -0.54934E+08
 
   -0.55892E+08         0.16445E+06         0.00000E+00
    0.16445E+06        -0.49999E+08         0.00000E+00
    0.00000E+00         0.00000E+00        -0.54925E+08
 
   -0.55849E+08         0.21123E+06         0.00000E+00
    0.21123E+06        -0.49998E+08         0.00000E+00
    0.00000E+00         0.00000E+00        -0.54916E+08
 
   -0.55806E+08         0.25801E+06         0.00000E+00
    0.25801E+06        -0.49996E+08         0.00000E+00
    0.00000E+00         0.00000E+00        -0.54907E+08
 
   -0.55765E+08         0.30482E+06         0.00000E+00
    0.30482E+06        -0.49995E+08         0.00000E+00
    0.00000E+00         0.00000E+00        -0.54899E+08
 
   -0.55726E+08         0.35169E+06         0.00000E+00
    0.35169E+06        -0.49993E+08         0.00000E+00
    0.00000E+00         0.00000E+00        -0.54890E+08
 
   -0.55687E+08         0.39866E+06         0.00000E+00
    0.39866E+06        -0.49991E+08         0.00000E+00
    0.00000E+00         0.00000E+00        -0.54882E+08
 
   -0.55650E+08         0.44576E+06         0.00000E+00
    0.44576E+06        -0.49989E+08         0.00000E+00
    0.00000E+00         0.00000E+00        -0.54874E+08
 
   -0.55613E+08         0.49303E+06         0.00000E+00
    0.49303E+06        -0.49987E+08         0.00000E+00
    0.00000E+00         0.00000E+00        -0.54867E+08
 
   -0.55578E+08         0.54048E+06         0.00000E+00
    0.54048E+06        -0.49985E+08         0.00000E+00
    0.00000E+00         0.00000E+00        -0.54859E+08
 
   -0.55544E+08         0.58816E+06         0.00000E+00
    0.58816E+06        -0.49982E+08         0.00000E+00
    0.00000E+00         0.00000E+00        -0.54852E+08
 
   -0.55511E+08         0.63608E+06         0.00000E+00
    0.63608E+06        -0.49980E+08         0.00000E+00
    0.00000E+00         0.00000E+00        -0.54845E+08
 
   -0.55478E+08         0.68428E+06         0.00000E+00
    0.68428E+06        -0.49977E+08         0.00000E+00
    0.00000E+00         0.00000E+00        -0.54838E+08
 
   -0.55447E+08         0.73278E+06         0.00000E+00
    0.73278E+06        -0.49974E+08         0.00000E+00
    0.00000E+00         0.00000E+00        -0.54831E+08
 
   -0.55417E+08         0.78161E+06         0.00000E+00
    0.78161E+06        -0.49972E+08         0.00000E+00
    0.00000E+00         0.00000E+00        -0.54824E+08
 
   -0.55387E+08         0.83079E+06         0.00000E+00
    0.83079E+06        -0.49969E+08         0.00000E+00
    0.00000E+00         0.00000E+00        -0.54818E+08
 
   -0.55359E+08         0.88034E+06         0.00000E+00
    0.88034E+06        -0.49966E+08         0.00000E+00
    0.00000E+00         0.00000E+00        -0.54812E+08
 
   -0.55331E+08         0.93028E+06         0.00000E+00
    0.93028E+06        -0.49963E+08         0.00000E+00
    0.00000E+00         0.00000E+00        -0.54806E+08
 
   -0.55304E+08         0.98064E+06         0.00000E+00
    0.98064E+06        -0.49961E+08         0.00000E+00
    0.00000E+00         0.00000E+00        -0.54800E+08
 
   -0.55278E+08         0.10314E+07         0.00000E+00
    0.10314E+07        -0.49958E+08         0.00000E+00
    0.00000E+00         0.00000E+00        -0.54794E+08
 
   -0.55252E+08         0.10827E+07         0.00000E+00
    0.10827E+07        -0.49956E+08         0.00000E+00
    0.00000E+00         0.00000E+00        -0.54788E+08
 
   -0.55227E+08         0.11344E+07         0.00000E+00
    0.11344E+07        -0.49953E+08         0.00000E+00
    0.00000E+00         0.00000E+00        -0.54783E+08
 
   -0.55203E+08         0.11866E+07         0.00000E+00
    0.11866E+07        -0.49951E+08         0.00000E+00
    0.00000E+00         0.00000E+00        -0.54778E+08
 
   -0.55179E+08         0.12393E+07         0.00000E+00
    0.12393E+07        -0.49949E+08         0.00000E+00
    0.00000E+00         0.00000E+00        -0.54772E+08
 
   -0.55156E+08         0.12925E+07         0.00000E+00
    0.12925E+07        -0.49947E+08         0.00000E+00
    0.00000E+00         0.00000E+00        -0.54767E+08
 
   -0.55134E+08         0.13462E+07         0.00000E+00
    0.13462E+07        -0.49945E+08         0.00000E+00
    0.00000E+00         0.00000E+00        -0.54763E+08
 
   -0.55111E+08         0.14005E+07         0.00000E+00
    0.14005E+07        -0.49944E+08         0.00000E+00
    0.00000E+00         0.00000E+00        -0.54758E+08
 
   -0.55090E+08         0.14554E+07         0.00000E+00
    0.14554E+07        -0.49943E+08         0.00000E+00
    0.00000E+00         0.00000E+00        -0.54753E+08
 
   -0.55068E+08         0.15108E+07         0.00000E+00
    0.15108E+07        -0.49942E+08         0.00000E+00
    0.00000E+00         0.00000E+00        -0.54749E+08
 
   -0.55048E+08         0.15668E+07         0.00000E+00
    0.15668E+07        -0.49941E+08         0.00000E+00
    0.00000E+00         0.00000E+00        -0.54744E+08
 
   -0.55027E+08         0.16233E+07         0.00000E+00
    0.16233E+07        -0.49941E+08         0.00000E+00
    0.00000E+00         0.00000E+00        -0.54740E+08
 
   -0.55007E+08         0.16805E+07         0.00000E+00
    0.16805E+07        -0.49941E+08         0.00000E+00
    0.00000E+00         0.00000E+00        -0.54736E+08
 
   -0.54987E+08         0.17383E+07         0.00000E+00
    0.17383E+07        -0.49941E+08         0.00000E+00
    0.00000E+00         0.00000E+00        -0.54732E+08
 
   -0.54967E+08         0.17967E+07         0.00000E+00
    0.17967E+07        -0.49942E+08         0.00000E+00
    0.00000E+00         0.00000E+00        -0.54729E+08
 
   -0.54948E+08         0.18557E+07         0.00000E+00
    0.18557E+07        -0.49943E+08         0.00000E+00
    0.00000E+00         0.00000E+00        -0.54725E+08
 
   -0.54928E+08         0.19153E+07         0.00000E+00
    0.19153E+07        -0.49945E+08         0.00000E+00
    0.00000E+00         0.00000E+00        -0.54721E+08
 
   -0.54909E+08         0.19756E+07         0.00000E+00
    0.19756E+07        -0.49947E+08         0.00000E+00
    0.00000E+00         0.00000E+00        -0.54718E+08
 
   -0.54890E+08         0.20365E+07         0.00000E+00
    0.20365E+07        -0.49949E+08         0.00000E+00
    0.00000E+00         0.00000E+00        -0.54714E+08
 
   -0.54871E+08         0.20980E+07         0.00000E+00
    0.20980E+07        -0.49952E+08         0.00000E+00
    0.00000E+00         0.00000E+00        -0.54711E+08
 
   -0.54851E+08         0.21602E+07         0.00000E+00
    0.21602E+07        -0.49956E+08         0.00000E+00
    0.00000E+00         0.00000E+00        -0.54708E+08
 
   -0.54832E+08         0.22231E+07         0.00000E+00
    0.22231E+07        -0.49960E+08         0.00000E+00
    0.00000E+00         0.00000E+00        -0.54705E+08
 
   -0.54813E+08         0.22866E+07         0.00000E+00
    0.22866E+07        -0.49964E+08         0.00000E+00
    0.00000E+00         0.00000E+00        -0.54702E+08
 
   -0.54794E+08         0.23508E+07         0.00000E+00
    0.23508E+07        -0.49969E+08         0.00000E+00
    0.00000E+00         0.00000E+00        -0.54699E+08
 
   -0.54775E+08         0.24156E+07         0.00000E+00
    0.24156E+07        -0.49975E+08         0.00000E+00
    0.00000E+00         0.00000E+00        -0.54697E+08
 
   -0.54755E+08         0.24811E+07         0.00000E+00
    0.24811E+07        -0.49981E+08         0.00000E+00
    0.00000E+00         0.00000E+00        -0.54694E+08
 
   -0.54736E+08         0.25473E+07         0.00000E+00
    0.25473E+07        -0.49988E+08         0.00000E+00
    0.00000E+00         0.00000E+00        -0.54692E+08
 
   -0.54716E+08         0.26142E+07         0.00000E+00
    0.26142E+07        -0.49996E+08         0.00000E+00
    0.00000E+00         0.00000E+00        -0.54689E+08
 
   -0.54696E+08         0.26817E+07         0.00000E+00
    0.26817E+07        -0.50004E+08         0.00000E+00
    0.00000E+00         0.00000E+00        -0.54687E+08
 
   -0.55792E+08         0.24337E+05         0.00000E+00
    0.24337E+05        -0.50000E+08         0.00000E+00
    0.00000E+00         0.00000E+00        -0.54628E+08
 
   -0.55745E+08         0.72513E+05         0.00000E+00
    0.72513E+05        -0.50000E+08         0.00000E+00
    0.00000E+00         0.00000E+00        -0.54618E+08
 
   -0.55700E+08         0.12052E+06         0.00000E+00
    0.12052E+06        -0.50000E+08         0.00000E+00
    0.00000E+00         0.00000E+00        -0.54609E+08
 
   -0.55655E+08         0.16840E+06         0.00000E+00
    0.16840E+06        -0.49999E+08         0.00000E+00
    0.00000E+00         0.00000E+00        -0.54600E+08
 
   -0.55612E+08         0.21617E+06         0.00000E+00
    0.21617E+06        -0.49999E+08         0.00000E+00
    0.00000E+00         0.00000E+00        -0.54591E+08
 
   -0.55570E+08         0.26387E+06         0.00000E+00
    0.26387E+06        -0.49998E+08         0.00000E+00
    0.00000E+00         0.00000E+00        -0.54583E+08
 
   -0.55529E+08         0.31154E+06         0.00000E+00
    0.31154E+06        -0.49997E+08         0.00000E+00
    0.00000E+00         0.00000E+00        -0.54574E+08
 
   -0.55489E+08         0.35920E+06         0.00000E+00
    0.35920E+06        -0.49995E+08         0.00000E+00
    0.00000E+00         0.00000E+00        -0.54566E+08
 
   -0.55450E+08         0.40688E+06         0.00000E+00
    0.40688E+06        -0.49994E+08         0.00000E+00
    0.00000E+00         0.00000E+00        -0.54558E+08
 
   -0.55412E+08         0.45461E+06         0.00000E+00
    0.45461E+06        -0.49993E+08         0.00000E+00
    0.00000E+00         0.00000E+00        -0.54550E+08
 
   -0.55375E+08         0.50243E+06         0.00000E+00
    0.50243E+06        -0.49991E+08         0.00000E+00
    0.00000E+00         0.00000E+00        -0.54543E+08
 
   -0.55339E+08         0.55035E+06         0.00000E+00
    0.55035E+06        -0.49990E+08         0.00000E+00
    0.00000E+00         0.00000E+00        -0.54535E+08
 
   -0.55304E+08         0.59840E+06         0.00000E+00
    0.59840E+06        -0.49988E+08         0.00000E+00
    0.00000E+00         0.00000E+00        -0.54528E+08
 
   -0.55270E+08         0.64661E+06         0.00000E+00
    0.64661E+06        -0.49987E+08         0.00000E+00
    0.00000E+00         0.00000E+00        -0.54521E+08
 
   -0.55236E+08         0.69501E+06         0.00000E+00
    0.69501E+06        -0.49985E+08         0.00000E+00
    0.00000E+00         0.00000E+00        -0.54514E+08
 
   -0.55204E+08         0.74361E+06         0.00000E+00
    0.74361E+06        -0.49983E+08         0.00000E+00
    0.00000E+00         0.00000E+00        -0.54507E+08
 
   -0.55172E+08         0.79245E+06         0.00000E+00
    0.79245E+06        -0.49982E+08         0.00000E+00
    0.00000E+00         0.00000E+00        -0.54500E+08
 
   -0.55141E+08         0.84153E+06         0.00000E+00
    0.84153E+06        -0.49980E+08         0.00000E+00
    0.00000E+00         0.00000E+00        -0.54493E+08
 
   -0.55111E+08         0.89089E+06         0.00000E+00
    0.89089E+06        -0.49978E+08         0.00000E+00
    0.00000E+00         0.00000E+00        -0.54487E+08
 
   -0.55081E+08         0.94054E+06         0.00000E+00
    0.94054E+06        -0.49977E+08         0.00000E+00
    0.00000E+00         0.00000E+00        -0.54481E+08
 
   -0.55052E+08         0.99051E+06         0.00000E+00
    0.99051E+06        -0.49975E+08         0.00000E+00
    0.00000E+00         0.00000E+00        -0.54475E+08
 
   -0.55024E+08         0.10408E+07         0.00000E+00
    0.10408E+07        -0.49974E+08         0.00000E+00
    0.00000E+00         0.00000E+00        -0.54469E+08
 
   -0.54996E+08         0.10914E+07         0.00000E+00
    0.10914E+07        -0.49973E+08         0.00000E+00
    0.00000E+00         0.00000E+00        -0.54463E+08
 
   -0.54969E+08         0.11425E+07         0.00000E+00
    0.11425E+07        -0.49972E+08         0.00000E+00
    0.00000E+00         0.00000E+00        -0.54458E+08
 
   -0.54943E+08         0.11938E+07         0.00000E+00
    0.11938E+07        -0.49971E+08         0.00000E+00
    0.00000E+00         0.00000E+00        -0.54452E+08
 
   -0.54917E+08         0.12456E+07         0.00000E+00
    0.12456E+07        -0.49970E+08         0.00000E+00
    0.00000E+00         0.00000E+00        -0.54447E+08
 
   -0.54891E+08         0.12978E+07         0.00000E+00
    0.12978E+07        -0.49970E+08         0.00000E+00
    0.00000E+00         0.00000E+00        -0.54442E+08
 
   -0.54866E+08         0.13504E+07         0.00000E+00
    0.13504E+07        -0.49970E+08         0.00000E+00
    0.00000E+00         0.00000E+00        -0.54437E+08
 
   -0.54842E+08         0.14035E+07         0.00000E+00
    0.14035E+07        -0.49969E+08         0.00000E+00
    0.00000E+00         0.00000E+00        -0.54432E+08
 
   -0.54818E+08         0.14570E+07         0.00000E+00
    0.14570E+07        -0.49970E+08         0.00000E+00
    0.00000E+00         0.00000E+00        -0.54427E+08
 
   -0.54794E+08         0.15110E+07         0.00000E+00
    0.15110E+07        -0.49970E+08         0.00000E+00
    0.00000E+00         0.00000E+00        -0.54422E+08
 
   -0.54770E+08         0.15654E+07         0.00000E+00
    0.15654E+07        -0.49971E+08         0.00000E+00
    0.00000E+00         0.00000E+00        -0.54418E+08
 
   -0.54747E+08         0.16203E+07         0.00000E+00
    0.16203E+07        -0.49972E+08         0.00000E+00
    0.00000E+00         0.00000E+00        -0.54413E+08
 
   -0.54724E+08         0.16757E+07         0.00000E+00
    0.16757E+07        -0.49974E+08         0.00000E+00
    0.00000E+00         0.00000E+00        -0.54409E+08
 
   -0.54701E+08         0.17316E+07         0.00000E+00
    0.17316E+07        -0.49976E+08         0.00000E+00
    0.00000E+00         0.00000E+00        -0.54405E+08
 
   -0.54679E+08         0.17880E+07         0.00000E+00
    0.17880E+07        -0.49978E+08         0.00000E+00
    0.00000E+00         0.00000E+00        -0.54401E+08
 
   -0.54656E+08         0.18450E+07         0.00000E+00
    0.18450E+07        -0.49980E+08         0.00000E+00
    0.00000E+00         0.00000E+00        -0.54397E+08
 
   -0.54634E+08         0.19024E+07         0.00000E+00
    0.19024E+07        -0.49984E+08         0.00000E+00
    0.00000E+00         0.00000E+00        -0.54393E+08
 
   -0.54612E+08         0.19604E+07         0.00000E+00
    0.19604E+07        -0.49987E+08         0.00000E+00
    0.00000E+00         0.00000E+00        -0.54389E+08
 
   -0.54590E+08         0.20189E+07         0.00000E+00
    0.20189E+07        -0.49991E+08         0.00000E+00
    0.00000E+00         0.00000E+00        -0.54385E+08
 
   -0.54568E+08         0.20780E+07         0.00000E+00
    0.20780E+07        -0.49995E+08         0.00000E+00
    0.00000E+00         0.00000E+00        -0.54382E+08
 
   -0.54545E+08         0.21376E+07         0.00000E+00
    0.21376E+07        -0.50000E+08         0.00000E+00
    0.00000E+00         0.00000E+00        -0.54379E+08
 
   -0.54523E+08         0.21978E+07         0.00000E+00
    0.21978E+07        -0.50006E+08         0.00000E+00
    0.00000E+00         0.00000E+00        -0.54375E+08
 
   -0.54501E+08         0.22585E+07         0.00000E+00
    0.22585E+07        -0.50012E+08         0.00000E+00
    0.00000E+00         0.00000E+00        -0.54372E+08
 
   -0.54479E+08         0.23198E+07         0.00000E+00
    0.23198E+07        -0.50019E+08         0.00000E+00
    0.00000E+00         0.00000E+00        -0.54369E+08
 
   -0.54456E+08         0.23816E+07         0.00000E+00
    0.23816E+07        -0.50026E+08         0.00000E+00
    0.00000E+00         0.00000E+00        -0.54366E+08
 
   -0.54434E+08         0.24440E+07         0.00000E+00
    0.24440E+07        -0.50034E+08         0.00000E+00
    0.00000E+00         0.00000E+00        -0.54363E+08
 
   -0.54411E+08         0.25070E+07         0.00000E+00
    0.25070E+07        -0.50042E+08         0.00000E+00
    0.00000E+00         0.00000E+00        -0.54360E+08
 
   -0.54388E+08         0.25706E+07         0.00000E+00
    0.25706E+07        -0.50051E+08         0.00000E+00
    0.00000E+00         0.00000E+00        -0.54357E+08
 
   -0.54365E+08         0.26348E+07         0.00000E+00
    0.26348E+07        -0.50061E+08         0.00000E+00
    0.00000E+00         0.00000E+00        -0.54354E+08
 
   -0.55548E+08         0.24766E+05         0.00000E+00
    0.24766E+05        -0.50000E+08         0.00000E+00
    0.00000E+00         0.00000E+00        -0.54317E+08
 
   -0.55503E+08         0.73713E+05         0.00000E+00
    0.73713E+05        -0.50000E+08         0.00000E+00
    0.00000E+00         0.00000E+00        -0.54308E+08
 
   -0.55458E+08         0.12245E+06         0.00000E+00
    0.12245E+06        -0.50000E+08         0.00000E+00
    0.00000E+00         0.00000E+00        -0.54299E+08
 
   -0.55414E+08         0.17101E+06         0.00000E+00
    0.17101E+06        -0.50000E+08         0.00000E+00
    0.00000E+00         0.00000E+00        -0.54290E+08
 
   -0.55372E+08         0.21941E+06         0.00000E+00
    0.21941E+06        -0.49999E+08         0.00000E+00
    0.00000E+00         0.00000E+00        -0.54282E+08
 
   -0.55330E+08         0.26769E+06         0.00000E+00
    0.26769E+06        -0.49999E+08         0.00000E+00
    0.00000E+00         0.00000E+00        -0.54273E+08
 
   -0.55289E+08         0.31588E+06         0.00000E+00
    0.31588E+06        -0.49998E+08         0.00000E+00
    0.00000E+00         0.00000E+00        -0.54265E+08
 
   -0.55249E+08         0.36400E+06         0.00000E+00
    0.36400E+06        -0.49997E+08         0.00000E+00
    0.00000E+00         0.00000E+00        -0.54257E+08
 
   -0.55210E+08         0.41207E+06         0.00000E+00
    0.41207E+06        -0.49997E+08         0.00000E+00
    0.00000E+00         0.00000E+00        -0.54249E+08
 
   -0.55172E+08         0.46014E+06         0.00000E+00
    0.46014E+06        -0.49996E+08         0.00000E+00
    0.00000E+00         0.00000E+00        -0.54241E+08
 
   -0.55135E+08         0.50821E+06         0.00000E+00
    0.50821E+06        -0.49995E+08         0.00000E+00
    0.00000E+00         0.00000E+00        -0.54233E+08
 
   -0.55099E+08         0.55632E+06         0.00000E+00
    0.55632E+06        -0.49994E+08         0.00000E+00
    0.00000E+00         0.00000E+00        -0.54226E+08
 
   -0.55063E+08         0.60448E+06         0.00000E+00
    0.60448E+06        -0.49993E+08         0.00000E+00
    0.00000E+00         0.00000E+00        -0.54219E+08
 
   -0.55028E+08         0.65273E+06         0.00000E+00
    0.65273E+06        -0.49992E+08         0.00000E+00
    0.00000E+00         0.00000E+00        -0.54212E+08
 
   -0.54994E+08         0.70109E+06         0.00000E+00
    0.70109E+06        -0.49992E+08         0.00000E+00
    0.00000E+00         0.00000E+00        -0.54205E+08
 
   -0.54960E+08         0.74956E+06         0.00000E+00
    0.74956E+06        -0.49991E+08         0.00000E+00
    0.00000E+00         0.00000E+00        -0.54198E+08
 
   -0.54928E+08         0.79819E+06         0.00000E+00
    0.79819E+06        -0.49990E+08         0.00000E+00
    0.00000E+00         0.00000E+00        -0.54191E+08
 
   -0.54895E+08         0.84698E+06         0.00000E+00
    0.84698E+06        -0.49989E+08         0.00000E+00
    0.00000E+00         0.00000E+00        -0.54184E+08
 
   -0.54864E+08         0.89596E+06         0.00000E+00
    0.89596E+06        -0.49989E+08         0.00000E+00
    0.00000E+00         0.00000E+00        -0.54178E+08
 
   -0.54833E+08         0.94515E+06         0.00000E+00
    0.94515E+06        -0.49988E+08         0.00000E+00
    0.00000E+00         0.00000E+00        -0.54172E+08
 
   -0.54803E+08         0.99456E+06         0.00000E+00
    0.99456E+06        -0.49988E+08         0.00000E+00
    0.00000E+00         0.00000E+00        -0.54166E+08
 
   -0.54773E+08         0.10442E+07         0.00000E+00
    0.10442E+07        -0.49988E+08         0.00000E+00
    0.00000E+00         0.00000E+00        -0.54160E+08
 
   -0.54744E+08         0.10941E+07         0.00000E+00
    0.10941E+07        -0.49988E+08         0.00000E+00
    0.00000E+00         0.00000E+00        -0.54154E+08
 
   -0.54715E+08         0.11443E+07         0.00000E+00
    0.11443E+07        -0.49988E+08         0.00000E+00
    0.00000E+00         0.00000E+00        -0.54148E+08
 
   -0.54687E+08         0.11948E+07         0.00000E+00
    0.11948E+07        -0.49988E+08         0.00000E+00
    0.00000E+00         0.00000E+00        -0.54143E+08
 
   -0.54660E+08         0.12455E+07         0.00000E+00
    0.12455E+07        -0.49989E+08         0.00000E+00
    0.00000E+00         0.00000E+00        -0.54137E+08
 
   -0.54632E+08         0.12966E+07         0.00000E+00
    0.12966E+07        -0.49989E+08         0.00000E+00
    0.00000E+00         0.00000E+00        -0.54132E+08
 
   -0.54605E+08         0.13480E+07         0.00000E+00
    0.13480E+07        -0.49990E+08         0.00000E+00
    0.00000E+00         0.00000E+00        -0.54127E+08
 
   -0.54579E+08         0.13998E+07         0.00000E+00
    0.13998E+07        -0.49992E+08         0.00000E+00
    0.00000E+00         0.00000E+00        -0.54121E+08
 
   -0.54552E+08         0.14519E+07         0.00000E+00
    0.14519E+07        -0.49993E+08         0.00000E+00
    0.00000E+00         0.00000E+00        -0.54117E+08
 
   -0.54527E+08         0.15043E+07         0.00000E+00
    0.15043E+07        -0.49995E+08         0.00000E+00
    0.00000E+00         0.00000E+00        -0.54112E+08
 
   -0.54501E+08         0.15572E+07         0.00000E+00
    0.15572E+07        -0.49997E+08         0.00000E+00
    0.00000E+00         0.00000E+00        -0.54107E+08
 
   -0.54475E+08         0.16104E+07         0.00000E+00
    0.16104E+07        -0.49999E+08         0.00000E+00
    0.00000E+00         0.00000E+00        -0.54102E+08
 
   -0.54450E+08         0.16640E+07         0.00000E+00
    0.16640E+07        -0.50002E+08         0.00000E+00
    0.00000E+00         0.00000E+00        -0.54098E+08
 
   -0.54425E+08         0.17181E+07         0.00000E+00
    0.17181E+07        -0.50005E+08         0.00000E+00
    0.00000E+00         0.00000E+00        -0.54094E+08
 
   -0.54400E+08         0.17725E+07         0.00000E+00
    0.17725E+07        -0.50009E+08         0.00000E+00
    0.00000E+00         0.00000E+00        -0.54089E+08
 
   -0.54376E+08         0.18273E+07         0.00000E+00
    0.18273E+07        -0.50013E+08         0.00000E+00
    0.00000E+00         0.00000E+00        -0.54085E+08
 
   -0.54351E+08         0.18826E+07         0.00000E+00
    0.18826E+07        -0.50017E+08         0.00000E+00
    0.00000E+00         0.00000E+00        -0.54081E+08
 
   -0.54326E+08         0.19383E+07         0.00000E+00
    0.19383E+07        -0.50022E+08         0.00000E+00
    0.00000E+00         0.00000E+00        -0.54077E+08
 
   -0.54302E+08         0.19945E+07         0.00000E+00
    0.19945E+07        -0.50027E+08         0.00000E+00
    0.00000E+00         0.00000E+00        -0.54073E+08
 
   -0.54277E+08         0.20511E+07         0.00000E+00
    0.20511E+07        -0.50033E+08         0.00000E+00
    0.00000E+00         0.00000E+00        -0.54069E+08
 
   -0.54253E+08         0.21081E+07         0.00000E+00
    0.21081E+07        -0.50039E+08         0.00000E+00
    0.00000E+00         0.00000E+00        -0.54066E+08
 
   -0.54228E+08         0.21656E+07         0.00000E+00
    0.21656E+07        -0.50046E+08         0.00000E+00
    0.00000E+00         0.00000E+00        -0.54062E+08
 
   -0.54203E+08         0.22236E+07         0.00000E+00
    0.22236E+07        -0.50053E+08         0.00000E+00
    0.00000E+00         0.00000E+00        -0.54059E+08
 
   -0.54178E+08         0.22820E+07         0.00000E+00
    0.22820E+07        -0.50061E+08         0.00000E+00
    0.00000E+00         0.00000E+00        -0.54055E+08
 
   -0.54153E+08         0.23409E+07         0.00000E+00
    0.23409E+07        -0.50070E+08         0.00000E+00
    0.00000E+00         0.00000E+00        -0.54052E+08
 
   -0.54128E+08         0.24003E+07         0.00000E+00
    0.24003E+07        -0.50079E+08         0.00000E+00
    0.00000E+00         0.00000E+00        -0.54049E+08
 
   -0.54103E+08         0.24601E+07         0.00000E+00
    0.24601E+07        -0.50088E+08         0.00000E+00
    0.00000E+00         0.00000E+00        -0.54046E+08
 
   -0.54077E+08         0.25204E+07         0.00000E+00
    0.25204E+07        -0.50099E+08         0.00000E+00
    0.00000E+00         0.00000E+00        -0.54043E+08
 
   -0.54051E+08         0.25812E+07         0.00000E+00
    0.25812E+07        -0.50109E+08         0.00000E+00
    0.00000E+00         0.00000E+00        -0.54040E+08
 
   -0.55301E+08         0.25024E+05         0.00000E+00
    0.25024E+05        -0.50000E+08         0.00000E+00
    0.00000E+00         0.00000E+00        -0.54021E+08
 
   -0.55257E+08         0.74412E+05         0.00000E+00
    0.74412E+05        -0.50000E+08         0.00000E+00
    0.00000E+00         0.00000E+00        -0.54012E+08
 
   -0.55214E+08         0.12355E+06         0.00000E+00
    0.12355E+06        -0.50000E+08         0.00000E+00
    0.00000E+00         0.00000E+00        -0.54003E+08
 
   -0.55171E+08         0.17248E+06         0.00000E+00
    0.17248E+06        -0.50000E+08         0.00000E+00
    0.00000E+00         0.00000E+00        -0.53995E+08
 
   -0.55129E+08         0.22120E+06         0.00000E+00
    0.22120E+06        -0.50000E+08         0.00000E+00
    0.00000E+00         0.00000E+00        -0.53986E+08
 
   -0.55088E+08         0.26976E+06         0.00000E+00
    0.26976E+06        -0.50000E+08         0.00000E+00
    0.00000E+00         0.00000E+00        -0.53978E+08
 
   -0.55048E+08         0.31818E+06         0.00000E+00
    0.31818E+06        -0.49999E+08         0.00000E+00
    0.00000E+00         0.00000E+00        -0.53970E+08
 
   -0.55009E+08         0.36648E+06         0.00000E+00
    0.36648E+06        -0.49999E+08         0.00000E+00
    0.00000E+00         0.00000E+00        -0.53962E+08
 
   -0.54970E+08         0.41468E+06         0.00000E+00
    0.41468E+06        -0.49999E+08         0.00000E+00
    0.00000E+00         0.00000E+00        -0.53954E+08
 
   -0.54932E+08         0.46281E+06         0.00000E+00
    0.46281E+06        -0.49998E+08         0.00000E+00
    0.00000E+00         0.00000E+00        -0.53947E+08
 
   -0.54895E+08         0.51090E+06         0.00000E+00
    0.51090E+06        -0.49998E+08         0.00000E+00
    0.00000E+00         0.00000E+00        -0.53939E+08
 
   -0.54858E+08         0.55895E+06         0.00000E+00
    0.55895E+06        -0.49998E+08         0.00000E+00
    0.00000E+00         0.00000E+00        -0.53932E+08
 
   -0.54822E+08         0.60700E+06         0.00000E+00
    0.60700E+06        -0.49998E+08         0.00000E+00
    0.00000E+00         0.00000E+00        -0.53925E+08
 
   -0.54787E+08         0.65507E+06         0.00000E+00
    0.65507E+06        -0.49998E+08         0.00000E+00
    0.00000E+00         0.00000E+00        -0.53918E+08
 
   -0.54752E+08         0.70317E+06         0.00000E+00
    0.70317E+06        -0.49997E+08         0.00000E+00
    0.00000E+00         0.00000E+00        -0.53911E+08
 
   -0.54718E+08         0.75133E+06         0.00000E+00
    0.75133E+06        -0.49997E+08         0.00000E+00
    0.00000E+00         0.00000E+00        -0.53904E+08
 
   -0.54685E+08         0.79956E+06         0.00000E+00
    0.79956E+06        -0.49997E+08         0.00000E+00
    0.00000E+00         0.00000E+00        -0.53897E+08
 
   -0.54652E+08         0.84788E+06         0.00000E+00
    0.84788E+06        -0.49998E+08         0.00000E+00
    0.00000E+00         0.00000E+00        -0.53891E+08
 
   -0.54620E+08         0.89632E+06         0.00000E+00
    0.89632E+06        -0.49998E+08         0.00000E+00
    0.00000E+00         0.00000E+00        -0.53884E+08
 
   -0.54588E+08         0.94488E+06         0.00000E+00
    0.94488E+06        -0.49998E+08         0.00000E+00
    0.00000E+00         0.00000E+00        -0.53878E+08
 
   -0.54557E+08         0.99359E+06         0.00000E+00
    0.99359E+06        -0.49999E+08         0.00000E+00
    0.00000E+00         0.00000E+00        -0.53872E+08
 
   -0.54526E+08         0.10425E+07         0.00000E+00
    0.10425E+07        -0.50000E+08         0.00000E+00
    0.00000E+00         0.00000E+00        -0.53866E+08
 
   -0.54496E+08         0.10915E+07         0.00000E+00
    0.10915E+07        -0.50000E+08         0.00000E+00
    0.00000E+00         0.00000E+00        -0.53860E+08
 
   -0.54466E+08         0.11407E+07         0.00000E+00
    0.11407E+07        -0.50002E+08         0.00000E+00
    0.00000E+00         0.00000E+00        -0.53854E+08
 
   -0.54437E+08         0.11902E+07         0.00000E+00
    0.11902E+07        -0.50003E+08         0.00000E+00
    0.00000E+00         0.00000E+00        -0.53849E+08
 
   -0.54408E+08         0.12398E+07         0.00000E+00
    0.12398E+07        -0.50004E+08         0.00000E+00
    0.00000E+00         0.00000E+00        -0.53843E+08
 
   -0.54379E+08         0.12897E+07         0.00000E+00
    0.12897E+07        -0.50006E+08         0.00000E+00
    0.00000E+00         0.00000E+00        -0.53838E+08
 
   -0.54351E+08         0.13399E+07         0.00000E+00
    0.13399E+07        -0.50008E+08         0.00000E+00
    0.00000E+00         0.00000E+00        -0.53832E+08
 
   -0.54323E+08         0.13902E+07         0.00000E+00
    0.13902E+07        -0.50010E+08         0.00000E+00
    0.00000E+00         0.00000E+00        -0.53827E+08
 
   -0.54295E+08         0.14409E+07         0.00000E+00
    0.14409E+07        -0.50013E+08         0.00000E+00
    0.00000E+00         0.00000E+00        -0.53822E+08
 
   -0.54267E+08         0.14918E+07         0.00000E+00
    0.14918E+07        -0.50016E+08         0.00000E+00
    0.00000E+00         0.00000E+00        -0.53817E+08
 
   -0.54240E+08         0.15430E+07         0.00000E+00
    0.15430E+07        -0.50019E+08         0.00000E+00
    0.00000E+00         0.00000E+00        -0.53812E+08
 
   -0.54213E+08         0.15945E+07         0.00000E+00
    0.15945E+07        -0.50023E+08         0.00000E+00
    0.00000E+00         0.00000E+00        -0.53808E+08
 
   -0.54186E+08         0.16464E+07         0.00000E+00
    0.16464E+07        -0.50026E+08         0.00000E+00
    0.00000E+00         0.00000E+00        -0.53803E+08
 
   -0.54159E+08         0.16985E+07         0.00000E+00
    0.16985E+07        -0.50031E+08         0.00000E+00
    0.00000E+00         0.00000E+00        -0.53799E+08
 
   -0.54132E+08         0.17509E+07         0.00000E+00
    0.17509E+07        -0.50035E+08         0.00000E+00
    0.00000E+00         0.00000E+00        -0.53794E+08
 
   -0.54105E+08         0.18037E+07         0.00000E+00
    0.18037E+07        -0.50040E+08         0.00000E+00
    0.00000E+00         0.00000E+00        -0.53790E+08
 
   -0.54079E+08         0.18568E+07         0.00000E+00
    0.18568E+07        -0.50046E+08         0.00000E+00
    0.00000E+00         0.00000E+00        -0.53786E+08
 
   -0.54052E+08         0.19103E+07         0.00000E+00
    0.19103E+07        -0.50052E+08         0.00000E+00
    0.00000E+00         0.00000E+00        -0.53781E+08
 
   -0.54026E+08         0.19641E+07         0.00000E+00
    0.19641E+07        -0.50058E+08         0.00000E+00
    0.00000E+00         0.00000E+00        -0.53777E+08
 
   -0.53999E+08         0.20182E+07         0.00000E+00
    0.20182E+07        -0.50065E+08         0.00000E+00
    0.00000E+00         0.00000E+00        -0.53773E+08
 
   -0.53973E+08         0.20727E+07         0.00000E+00
    0.20727E+07        -0.50072E+08         0.00000E+00
    0.00000E+00         0.00000E+00        -0.53770E+08
 
   -0.53946E+08         0.21276E+07         0.00000E+00
    0.21276E+07        -0.50080E+08         0.00000E+00
    0.00000E+00         0.00000E+00        -0.53766E+08
 
   -0.53919E+08         0.21829E+07         0.00000E+00
    0.21829E+07        -0.50088E+08         0.00000E+00
    0.00000E+00         0.00000E+00        -0.53762E+08
 
   -0.53892E+08         0.22385E+07         0.00000E+00
    0.22385E+07        -0.50097E+08         0.00000E+00
    0.00000E+00         0.00000E+00        -0.53759E+08
 
   -0.53865E+08         0.22945E+07         0.00000E+00
    0.22945E+07        -0.50107E+08         0.00000E+00
    0.00000E+00         0.00000E+00        -0.53755E+08
 
   -0.53838E+08         0.23508E+07         0.00000E+00
    0.23508E+07        -0.50117E+08         0.00000E+00
    0.00000E+00         0.00000E+00        -0.53752E+08
 
   -0.53810E+08         0.24076E+07         0.00000E+00
    0.24076E+07        -0.50128E+08         0.00000E+00
    0.00000E+00         0.00000E+00        -0.53748E+08
 
   -0.53782E+08         0.24647E+07         0.00000E+00
    0.24647E+07        -0.50139E+08         0.00000E+00
    0.00000E+00         0.00000E+00        -0.53745E+08
 
   -0.53754E+08         0.25223E+07         0.00000E+00
    0.25223E+07        -0.50151E+08         0.00000E+00
    0.00000E+00         0.00000E+00        -0.53742E+08
 
   -0.55053E+08         0.25135E+05         0.00000E+00
    0.25135E+05        -0.50000E+08         0.00000E+00
    0.00000E+00         0.00000E+00        -0.53739E+08
 
   -0.55010E+08         0.74684E+05         0.00000E+00
    0.74684E+05        -0.50000E+08         0.00000E+00
    0.00000E+00         0.00000E+00        -0.53731E+08
 
   -0.54968E+08         0.12396E+06         0.00000E+00
    0.12396E+06        -0.50000E+08         0.00000E+00
    0.00000E+00         0.00000E+00        -0.53722E+08
 
   -0.54927E+08         0.17298E+06         0.00000E+00
    0.17298E+06        -0.50000E+08         0.00000E+00
    0.00000E+00         0.00000E+00        -0.53714E+08
 
   -0.54886E+08         0.22177E+06         0.00000E+00
    0.22177E+06        -0.50000E+08         0.00000E+00
    0.00000E+00         0.00000E+00        -0.53706E+08
 
   -0.54846E+08         0.27036E+06         0.00000E+00
    0.27036E+06        -0.50000E+08         0.00000E+00
    0.00000E+00         0.00000E+00        -0.53698E+08
 
   -0.54806E+08         0.31876E+06         0.00000E+00
    0.31876E+06        -0.50000E+08         0.00000E+00
    0.00000E+00         0.00000E+00        -0.53690E+08
 
   -0.54767E+08         0.36700E+06         0.00000E+00
    0.36700E+06        -0.50000E+08         0.00000E+00
    0.00000E+00         0.00000E+00        -0.53682E+08
 
   -0.54729E+08         0.41509E+06         0.00000E+00
    0.41509E+06        -0.50000E+08         0.00000E+00
    0.00000E+00         0.00000E+00        -0.53674E+08
 
   -0.54692E+08         0.46307E+06         0.00000E+00
    0.46307E+06        -0.50001E+08         0.00000E+00
    0.00000E+00         0.00000E+00        -0.53667E+08
 
   -0.54655E+08         0.51095E+06         0.00000E+00
    0.51095E+06        -0.50001E+08         0.00000E+00
    0.00000E+00         0.00000E+00        -0.53660E+08
 
   -0.54618E+08         0.55875E+06         0.00000E+00
    0.55875E+06        -0.50001E+08         0.00000E+00
    0.00000E+00         0.00000E+00        -0.53652E+08
 
   -0.54583E+08         0.60648E+06         0.00000E+00
    0.60648E+06        -0.50001E+08         0.00000E+00
    0.00000E+00         0.00000E+00        -0.53645E+08
 
   -0.54547E+08         0.65418E+06         0.00000E+00
    0.65418E+06        -0.50002E+08         0.00000E+00
    0.00000E+00         0.00000E+00        -0.53638E+08
 
   -0.54513E+08         0.70185E+06         0.00000E+00
    0.70185E+06        -0.50002E+08         0.00000E+00
    0.00000E+00         0.00000E+00        -0.53632E+08
 
   -0.54479E+08         0.74952E+06         0.00000E+00
    0.74952E+06        -0.50003E+08         0.00000E+00
    0.00000E+00         0.00000E+00        -0.53625E+08
 
   -0.54445E+08         0.79720E+06         0.00000E+00
    0.79720E+06        -0.50004E+08         0.00000E+00
    0.00000E+00         0.00000E+00        -0.53618E+08
 
   -0.54412E+08         0.84490E+06         0.00000E+00
    0.84490E+06        -0.50005E+08         0.00000E+00
    0.00000E+00         0.00000E+00        -0.53612E+08
 
   -0.54379E+08         0.89266E+06         0.00000E+00
    0.89266E+06        -0.50006E+08         0.00000E+00
    0.00000E+00         0.00000E+00        -0.53606E+08
 
   -0.54347E+08         0.94047E+06         0.00000E+00
    0.94047E+06        -0.50007E+08         0.00000E+00
    0.00000E+00         0.00000E+00        -0.53599E+08
 
   -0.54315E+08         0.98835E+06         0.00000E+00
    0.98835E+06        -0.50008E+08         0.00000E+00
    0.00000E+00         0.00000E+00        -0.53593E+08
 
   -0.54284E+08         0.10363E+07         0.00000E+00
    0.10363E+07        -0.50010E+08         0.00000E+00
    0.00000E+00         0.00000E+00        -0.53587E+08
 
   -0.54253E+08         0.10844E+07         0.00000E+00
    0.10844E+07        -0.50011E+08         0.00000E+00
    0.00000E+00         0.00000E+00        -0.53581E+08
 
   -0.54222E+08         0.11326E+07         0.00000E+00
    0.11326E+07        -0.50013E+08         0.00000E+00
    0.00000E+00         0.00000E+00        -0.53576E+08
 
   -0.54192E+08         0.11809E+07         0.00000E+00
    0.11809E+07        -0.50015E+08         0.00000E+00
    0.00000E+00         0.00000E+00        -0.53570E+08
 
   -0.54162E+08         0.12294E+07         0.00000E+00
    0.12294E+07        -0.50018E+08         0.00000E+00
    0.00000E+00         0.00000E+00        -0.53564E+08
 
   -0.54132E+08         0.12780E+07         0.00000E+00
    0.12780E+07        -0.50020E+08         0.00000E+00
    0.00000E+00         0.00000E+00        -0.53559E+08
 
   -0.54103E+08         0.13268E+07         0.00000E+00
    0.13268E+07        -0.50023E+08         0.00000E+00
    0.00000E+00         0.00000E+00        -0.53554E+08
 
   -0.54074E+08         0.13758E+07         0.00000E+00
    0.13758E+07        -0.50026E+08         0.00000E+00
    0.00000E+00         0.00000E+00        -0.53549E+08
 
   -0.54045E+08         0.14249E+07         0.00000E+00
    0.14249E+07        -0.50030E+08         0.00000E+00
    0.00000E+00         0.00000E+00        -0.53543E+08
 
   -0.54016E+08         0.14743E+07         0.00000E+00
    0.14743E+07        -0.50034E+08         0.00000E+00
    0.00000E+00         0.00000E+00        -0.53538E+08
 
   -0.53987E+08         0.15239E+07         0.00000E+00
    0.15239E+07        -0.50038E+08         0.00000E+00
    0.00000E+00         0.00000E+00        -0.53534E+08
 
   -0.53959E+08         0.15736E+07         0.00000E+00
    0.15736E+07        -0.50042E+08         0.00000E+00
    0.00000E+00         0.00000E+00        -0.53529E+08
 
   -0.53930E+08         0.16236E+07         0.00000E+00
    0.16236E+07        -0.50047E+08         0.00000E+00
    0.00000E+00         0.00000E+00        -0.53524E+08
 
   -0.53902E+08         0.16738E+07         0.00000E+00
    0.16738E+07        -0.50052E+08         0.00000E+00
    0.00000E+00         0.00000E+00        -0.53519E+08
 
   -0.53874E+08         0.17243E+07         0.00000E+00
    0.17243E+07        -0.50058E+08         0.00000E+00
    0.00000E+00         0.00000E+00        -0.53515E+08
 
   -0.53846E+08         0.17750E+07         0.00000E+00
    0.17750E+07        -0.50064E+08         0.00000E+00
    0.00000E+00         0.00000E+00        -0.53511E+08
 
   -0.53818E+08         0.18260E+07         0.00000E+00
    0.18260E+07        -0.50070E+08         0.00000E+00
    0.00000E+00         0.00000E+00        -0.53506E+08
 
   -0.53790E+08         0.18772E+07         0.00000E+00
    0.18772E+07        -0.50077E+08         0.00000E+00
    0.00000E+00         0.00000E+00        -0.53502E+08
 
   -0.53762E+08         0.19287E+07         0.00000E+00
    0.19287E+07        -0.50084E+08         0.00000E+00
    0.00000E+00         0.00000E+00        -0.53498E+08
 
   -0.53734E+08         0.19804E+07         0.00000E+00
    0.19804E+07        -0.50092E+08         0.00000E+00
    0.00000E+00         0.00000E+00        -0.53494E+08
 
   -0.53705E+08         0.20324E+07         0.00000E+00
    0.20324E+07        -0.50100E+08         0.00000E+00
    0.00000E+00         0.00000E+00        -0.53490E+08
 
   -0.53677E+08         0.20847E+07         0.00000E+00
    0.20847E+07        -0.50109E+08         0.00000E+00
    0.00000E+00         0.00000E+00        -0.53486E+08
 
   -0.53649E+08         0.21373E+07         0.00000E+00
    0.21373E+07        -0.50118E+08         0.00000E+00
    0.00000E+00         0.00000E+00        -0.53482E+08
 
   -0.53620E+08         0.21902E+07         0.00000E+00
    0.21902E+07        -0.50128E+08         0.00000E+00
    0.00000E+00         0.00000E+00        -0.53478E+08
 
   -0.53591E+08         0.22434E+07         0.00000E+00
    0.22434E+07        -0.50138E+08         0.00000E+00
    0.00000E+00         0.00000E+00        -0.53474E+08
 
   -0.53562E+08         0.22968E+07         0.00000E+00
    0.22968E+07        -0.50149E+08         0.00000E+00
    0.00000E+00         0.00000E+00        -0.53471E+08
 
   -0.53533E+08         0.23505E+07         0.00000E+00
    0.23505E+07        -0.50161E+08         0.00000E+00
    0.00000E+00         0.00000E+00        -0.53467E+08
 
   -0.53503E+08         0.24046E+07         0.00000E+00
    0.24046E+07        -0.50173E+08         0.00000E+00
    0.00000E+00         0.00000E+00        -0.53464E+08
 
   -0.53474E+08         0.24589E+07         0.00000E+00
    0.24589E+07        -0.50186E+08         0.00000E+00
    0.00000E+00         0.00000E+00        -0.53460E+08
 
   -0.54805E+08         0.25122E+05         0.00000E+00
    0.25122E+05        -0.50000E+08         0.00000E+00
    0.00000E+00         0.00000E+00        -0.53472E+08
 
   -0.54763E+08         0.74596E+05         0.00000E+00
    0.74596E+05        -0.50000E+08         0.00000E+00
    0.00000E+00         0.00000E+00        -0.53463E+08
 
   -0.54723E+08         0.12377E+06         0.00000E+00
    0.12377E+06        -0.50000E+08         0.00000E+00
    0.00000E+00         0.00000E+00        -0.53455E+08
 
   -0.54682E+08         0.17266E+06         0.00000E+00
    0.17266E+06        -0.50001E+08         0.00000E+00
    0.00000E+00         0.00000E+00        -0.53447E+08
 
   -0.54643E+08         0.22130E+06         0.00000E+00
    0.22130E+06        -0.50001E+08         0.00000E+00
    0.00000E+00         0.00000E+00        -0.53439E+08
 
   -0.54604E+08         0.26970E+06         0.00000E+00
    0.26970E+06        -0.50001E+08         0.00000E+00
    0.00000E+00         0.00000E+00        -0.53432E+08
 
   -0.54565E+08         0.31787E+06         0.00000E+00
    0.31787E+06        -0.50001E+08         0.00000E+00
    0.00000E+00         0.00000E+00        -0.53424E+08
 
   -0.54527E+08         0.36585E+06         0.00000E+00
    0.36585E+06        -0.50002E+08         0.00000E+00
    0.00000E+00         0.00000E+00        -0.53416E+08
 
   -0.54490E+08         0.41365E+06         0.00000E+00
    0.41365E+06        -0.50002E+08         0.00000E+00
    0.00000E+00         0.00000E+00        -0.53409E+08
 
   -0.54453E+08         0.46128E+06         0.00000E+00
    0.46128E+06        -0.50002E+08         0.00000E+00
    0.00000E+00         0.00000E+00        -0.53402E+08
 
   -0.54416E+08         0.50878E+06         0.00000E+00
    0.50878E+06        -0.50003E+08         0.00000E+00
    0.00000E+00         0.00000E+00        -0.53395E+08
 
   -0.54381E+08         0.55614E+06         0.00000E+00
    0.55614E+06        -0.50004E+08         0.00000E+00
    0.00000E+00         0.00000E+00        -0.53388E+08
 
   -0.54345E+08         0.60340E+06         0.00000E+00
    0.60340E+06        -0.50004E+08         0.00000E+00
    0.00000E+00         0.00000E+00        -0.53381E+08
 
   -0.54310E+08         0.65057E+06         0.00000E+00
    0.65057E+06        -0.50005E+08         0.00000E+00
    0.00000E+00         0.00000E+00        -0.53374E+08
 
   -0.54276E+08         0.69766E+06         0.00000E+00
    0.69766E+06        -0.50006E+08         0.00000E+00
    0.00000E+00         0.00000E+00        -0.53367E+08
 
   -0.54242E+08         0.74470E+06         0.00000E+00
    0.74470E+06        -0.50008E+08         0.00000E+00
    0.00000E+00         0.00000E+00        -0.53361E+08
 
   -0.54208E+08         0.79169E+06         0.00000E+00
    0.79169E+06        -0.50009E+08         0.00000E+00
    0.00000E+00         0.00000E+00        -0.53354E+08
 
   -0.54175E+08         0.83865E+06         0.00000E+00
    0.83865E+06        -0.50010E+08         0.00000E+00
    0.00000E+00         0.00000E+00        -0.53348E+08
 
   -0.54142E+08         0.88560E+06         0.00000E+00
    0.88560E+06        -0.50012E+08         0.00000E+00
    0.00000E+00         0.00000E+00        -0.53342E+08
 
   -0.54110E+08         0.93254E+06         0.00000E+00
    0.93254E+06        -0.50014E+08         0.00000E+00
    0.00000E+00         0.00000E+00        -0.53335E+08
 
   -0.54078E+08         0.97951E+06         0.00000E+00
    0.97951E+06        -0.50016E+08         0.00000E+00
    0.00000E+00         0.00000E+00        -0.53329E+08
 
   -0.54046E+08         0.10265E+07         0.00000E+00
    0.10265E+07        -0.50018E+08         0.00000E+00
    0.00000E+00         0.00000E+00        -0.53323E+08
 
   -0.54015E+08         0.10735E+07         0.00000E+00
    0.10735E+07        -0.50020E+08         0.00000E+00
    0.00000E+00         0.00000E+00        -0.53318E+08
 
   -0.53984E+08         0.11206E+07         0.00000E+00
    0.11206E+07        -0.50023E+08         0.00000E+00
    0.00000E+00         0.00000E+00        -0.53312E+08
 
   -0.53953E+08         0.11678E+07         0.00000E+00
    0.11678E+07        -0.50026E+08         0.00000E+00
    0.00000E+00         0.00000E+00        -0.53306E+08
 
   -0.53922E+08         0.12150E+07         0.00000E+00
    0.12150E+07        -0.50029E+08         0.00000E+00
    0.00000E+00         0.00000E+00        -0.53301E+08
 
   -0.53892E+08         0.12623E+07         0.00000E+00
    0.12623E+07        -0.50032E+08         0.00000E+00
    0.00000E+00         0.00000E+00        -0.53295E+08
 
   -0.53862E+08         0.13097E+07         0.00000E+00
    0.13097E+07        -0.50036E+08         0.00000E+00
    0.00000E+00         0.00000E+00        -0.53290E+08
 
   -0.53832E+08         0.13572E+07         0.00000E+00
    0.13572E+07        -0.50040E+08         0.00000E+00
    0.00000E+00         0.00000E+00        -0.53285E+08
 
   -0.53802E+08         0.14048E+07         0.00000E+00
    0.14048E+07        -0.50044E+08         0.00000E+00
    0.00000E+00         0.00000E+00        -0.53280E+08
 
   -0.53773E+08         0.14526E+07         0.00000E+00
    0.14526E+07        -0.50049E+08         0.00000E+00
    0.00000E+00         0.00000E+00        -0.53275E+08
 
   -0.53743E+08         0.15005E+07         0.00000E+00
    0.15005E+07        -0.50053E+08         0.00000E+00
    0.00000E+00         0.00000E+00        -0.53270E+08
 
   -0.53714E+08         0.15485E+07         0.00000E+00
    0.15485E+07        -0.50059E+08         0.00000E+00
    0.00000E+00         0.00000E+00        -0.53265E+08
 
   -0.53685E+08         0.15967E+07         0.00000E+00
    0.15967E+07        -0.50064E+08         0.00000E+00
    0.00000E+00         0.00000E+00        -0.53260E+08
 
   -0.53655E+08         0.16450E+07         0.00000E+00
    0.16450E+07        -0.50070E+08         0.00000E+00
    0.00000E+00         0.00000E+00        -0.53256E+08
 
   -0.53626E+08         0.16935E+07         0.00000E+00
    0.16935E+07        -0.50076E+08         0.00000E+00
    0.00000E+00         0.00000E+00        -0.53251E+08
 
   -0.53597E+08         0.17421E+07         0.00000E+00
    0.17421E+07        -0.50083E+08         0.00000E+00
    0.00000E+00         0.00000E+00        -0.53247E+08
 
   -0.53568E+08         0.17910E+07         0.00000E+00
    0.17910E+07        -0.50090E+08         0.00000E+00
    0.00000E+00         0.00000E+00        -0.53242E+08
 
   -0.53539E+08         0.18400E+07         0.00000E+00
    0.18400E+07        -0.50098E+08         0.00000E+00
    0.00000E+00         0.00000E+00        -0.53238E+08
 
   -0.53510E+08         0.18892E+07         0.00000E+00
    0.18892E+07        -0.50106E+08         0.00000E+00
    0.00000E+00         0.00000E+00        -0.53234E+08
 
   -0.53480E+08         0.19386E+07         0.00000E+00
    0.19386E+07        -0.50114E+08         0.00000E+00
    0.00000E+00         0.00000E+00        -0.53230E+08
 
   -0.53451E+08         0.19882E+07         0.00000E+00
    0.19882E+07        -0.50123E+08         0.00000E+00
    0.00000E+00         0.00000E+00        -0.53225E+08
 
   -0.53421E+08         0.20379E+07         0.00000E+00
    0.20379E+07        -0.50133E+08         0.00000E+00
    0.00000E+00         0.00000E+00        -0.53221E+08
 
   -0.53392E+08         0.20879E+07         0.00000E+00
    0.20879E+07        -0.50143E+08         0.00000E+00
    0.00000E+00         0.00000E+00        -0.53218E+08
 
   -0.53362E+08         0.21381E+07         0.00000E+00
    0.21381E+07        -0.50153E+08         0.00000E+00
    0.00000E+00         0.00000E+00        -0.53214E+08
 
   -0.53332E+08         0.21885E+07         0.00000E+00
    0.21885E+07        -0.50164E+08         0.00000E+00
    0.00000E+00         0.00000E+00        -0.53210E+08
 
   -0.53301E+08         0.22391E+07         0.00000E+00
    0.22391E+07        -0.50176E+08         0.00000E+00
    0.00000E+00         0.00000E+00        -0.53206E+08
 
   -0.53271E+08         0.22899E+07         0.00000E+00
    0.22899E+07        -0.50188E+08         0.00000E+00
    0.00000E+00         0.00000E+00        -0.53202E+08
 
   -0.53240E+08         0.23409E+07         0.00000E+00
    0.23409E+07        -0.50201E+08         0.00000E+00
    0.00000E+00         0.00000E+00        -0.53199E+08
 
   -0.53209E+08         0.23922E+07         0.00000E+00
    0.23922E+07        -0.50214E+08         0.00000E+00
    0.00000E+00         0.00000E+00        -0.53195E+08
 
   -0.54557E+08         0.25005E+05         0.00000E+00
    0.25005E+05        -0.50000E+08         0.00000E+00
    0.00000E+00         0.00000E+00        -0.53218E+08
 
   -0.54517E+08         0.74205E+05         0.00000E+00
    0.74205E+05        -0.50000E+08         0.00000E+00
    0.00000E+00         0.00000E+00        -0.53210E+08
 
   -0.54478E+08         0.12309E+06         0.00000E+00
    0.12309E+06        -0.50001E+08         0.00000E+00
    0.00000E+00         0.00000E+00        -0.53202E+08
 
   -0.54439E+08         0.17166E+06         0.00000E+00
    0.17166E+06        -0.50001E+08         0.00000E+00
    0.00000E+00         0.00000E+00        -0.53194E+08
 
   -0.54401E+08         0.21996E+06         0.00000E+00
    0.21996E+06        -0.50001E+08         0.00000E+00
    0.00000E+00         0.00000E+00        -0.53187E+08
 
   -0.54363E+08         0.26798E+06         0.00000E+00
    0.26798E+06        -0.50001E+08         0.00000E+00
    0.00000E+00         0.00000E+00        -0.53179E+08
 
   -0.54326E+08         0.31576E+06         0.00000E+00
    0.31576E+06        -0.50002E+08         0.00000E+00
    0.00000E+00         0.00000E+00        -0.53172E+08
 
   -0.54289E+08         0.36331E+06         0.00000E+00
    0.36331E+06        -0.50002E+08         0.00000E+00
    0.00000E+00         0.00000E+00        -0.53165E+08
 
   -0.54252E+08         0.41065E+06         0.00000E+00
    0.41065E+06        -0.50003E+08         0.00000E+00
    0.00000E+00         0.00000E+00        -0.53158E+08
 
   -0.54216E+08         0.45778E+06         0.00000E+00
    0.45778E+06        -0.50004E+08         0.00000E+00
    0.00000E+00         0.00000E+00        -0.53150E+08
 
   -0.54181E+08         0.50474E+06         0.00000E+00
    0.50474E+06        -0.50005E+08         0.00000E+00
    0.00000E+00         0.00000E+00        -0.53144E+08
 
   -0.54145E+08         0.55153E+06         0.00000E+00
    0.55153E+06        -0.50006E+08         0.00000E+00
    0.00000E+00         0.00000E+00        -0.53137E+08
 
   -0.54111E+08         0.59818E+06         0.00000E+00
    0.59818E+06        -0.50007E+08         0.00000E+00
    0.00000E+00         0.00000E+00        -0.53130E+08
 
   -0.54076E+08         0.64468E+06         0.00000E+00
    0.64468E+06        -0.50008E+08         0.00000E+00
    0.00000E+00         0.00000E+00        -0.53123E+08
 
   -0.54042E+08         0.69107E+06         0.00000E+00
    0.69107E+06        -0.50010E+08         0.00000E+00
    0.00000E+00         0.00000E+00        -0.53117E+08
 
   -0.54009E+08         0.73735E+06         0.00000E+00
    0.73735E+06        -0.50011E+08         0.00000E+00
    0.00000E+00         0.00000E+00        -0.53110E+08
 
   -0.53975E+08         0.78355E+06         0.00000E+00
    0.78355E+06        -0.50013E+08         0.00000E+00
    0.00000E+00         0.00000E+00        -0.53104E+08
 
   -0.53943E+08         0.82966E+06         0.00000E+00
    0.82966E+06        -0.50015E+08         0.00000E+00
    0.00000E+00         0.00000E+00        -0.53098E+08
 
   -0.53910E+08         0.87571E+06         0.00000E+00
    0.87571E+06        -0.50017E+08         0.00000E+00
    0.00000E+00         0.00000E+00        -0.53092E+08
 
   -0.53878E+08         0.92170E+06         0.00000E+00
    0.92170E+06        -0.50020E+08         0.00000E+00
    0.00000E+00         0.00000E+00        -0.53086E+08
 
   -0.53846E+08         0.96766E+06         0.00000E+00
    0.96766E+06        -0.50022E+08         0.00000E+00
    0.00000E+00         0.00000E+00        -0.53080E+08
 
   -0.53814E+08         0.10136E+07         0.00000E+00
    0.10136E+07        -0.50025E+08         0.00000E+00
    0.00000E+00         0.00000E+00        -0.53074E+08
 
   -0.53782E+08         0.10595E+07         0.00000E+00
    0.10595E+07        -0.50028E+08         0.00000E+00
    0.00000E+00         0.00000E+00        -0.53068E+08
 
   -0.53751E+08         0.11054E+07         0.00000E+00
    0.11054E+07        -0.50031E+08         0.00000E+00
    0.00000E+00         0.00000E+00        -0.53063E+08
 
   -0.53720E+08         0.11513E+07         0.00000E+00
    0.11513E+07        -0.50034E+08         0.00000E+00
    0.00000E+00         0.00000E+00        -0.53057E+08
 
   -0.53689E+08         0.11972E+07         0.00000E+00
    0.11972E+07        -0.50038E+08         0.00000E+00
    0.00000E+00         0.00000E+00        -0.53052E+08
 
   -0.53659E+08         0.12432E+07         0.00000E+00
    0.12432E+07        -0.50042E+08         0.00000E+00
    0.00000E+00         0.00000E+00        -0.53047E+08
 
   -0.53628E+08         0.12892E+07         0.00000E+00
    0.12892E+07        -0.50046E+08         0.00000E+00
    0.00000E+00         0.00000E+00        -0.53041E+08
 
   -0.53598E+08         0.13352E+07         0.00000E+00
    0.13352E+07        -0.50051E+08         0.00000E+00
    0.00000E+00         0.00000E+00        -0.53036E+08
 
   -0.53568E+08         0.13813E+07         0.00000E+00
    0.13813E+07        -0.50056E+08         0.00000E+00
    0.00000E+00         0.00000E+00        -0.53031E+08
 
   -0.53538E+08         0.14274E+07         0.00000E+00
    0.14274E+07        -0.50061E+08         0.00000E+00
    0.00000E+00         0.00000E+00        -0.53026E+08
 
   -0.53508E+08         0.14736E+07         0.00000E+00
    0.14736E+07        -0.50066E+08         0.00000E+00
    0.00000E+00         0.00000E+00        -0.53021E+08
 
   -0.53478E+08         0.15199E+07         0.00000E+00
    0.15199E+07        -0.50072E+08         0.00000E+00
    0.00000E+00         0.00000E+00        -0.53016E+08
 
   -0.53448E+08         0.15663E+07         0.00000E+00
    0.15663E+07        -0.50078E+08         0.00000E+00
    0.00000E+00         0.00000E+00        -0.53012E+08
 
   -0.53418E+08         0.16127E+07         0.00000E+00
    0.16127E+07        -0.50085E+08         0.00000E+00
    0.00000E+00         0.00000E+00        -0.53007E+08
 
   -0.53388E+08         0.16592E+07         0.00000E+00
    0.16592E+07        -0.50092E+08         0.00000E+00
    0.00000E+00         0.00000E+00        -0.53002E+08
 
   -0.53358E+08         0.17059E+07         0.00000E+00
    0.17059E+07        -0.50099E+08         0.00000E+00
    0.00000E+00         0.00000E+00        -0.52998E+08
 
   -0.53329E+08         0.17526E+07         0.00000E+00
    0.17526E+07        -0.50107E+08         0.00000E+00
    0.00000E+00         0.00000E+00        -0.52994E+08
 
   -0.53299E+08         0.17995E+07         0.00000E+00
    0.17995E+07        -0.50115E+08         0.00000E+00
    0.00000E+00         0.00000E+00        -0.52989E+08
 
   -0.53269E+08         0.18464E+07         0.00000E+00
    0.18464E+07        -0.50124E+08         0.00000E+00
    0.00000E+00         0.00000E+00        -0.52985E+08
 
   -0.53239E+08         0.18935E+07         0.00000E+00
    0.18935E+07        -0.50133E+08         0.00000E+00
    0.00000E+00         0.00000E+00        -0.52981E+08
 
   -0.53208E+08         0.19407E+07         0.00000E+00
    0.19407E+07        -0.50142E+08         0.00000E+00
    0.00000E+00         0.00000E+00        -0.52977E+08
 
   -0.53178E+08         0.19880E+07         0.00000E+00
    0.19880E+07        -0.50152E+08         0.00000E+00
    0.00000E+00         0.00000E+00        -0.52972E+08
 
   -0.53148E+08         0.20355E+07         0.00000E+00
    0.20355E+07        -0.50163E+08         0.00000E+00
    0.00000E+00         0.00000E+00        -0.52968E+08
 
   -0.53117E+08         0.20831E+07         0.00000E+00
    0.20831E+07        -0.50174E+08         0.00000E+00
    0.00000E+00         0.00000E+00        -0.52965E+08
 
   -0.53086E+08         0.21308E+07         0.00000E+00
    0.21308E+07        -0.50185E+08         0.00000E+00
    0.00000E+00         0.00000E+00        -0.52961E+08
 
   -0.53055E+08         0.21786E+07         0.00000E+00
    0.21786E+07        -0.50197E+08         0.00000E+00
    0.00000E+00         0.00000E+00        -0.52957E+08
 
   -0.53024E+08         0.22266E+07         0.00000E+00
    0.22266E+07        -0.50210E+08         0.00000E+00
    0.00000E+00         0.00000E+00        -0.52953E+08
 
   -0.52992E+08         0.22747E+07         0.00000E+00
    0.22747E+07        -0.50223E+08         0.00000E+00
    0.00000E+00         0.00000E+00        -0.52949E+08
 
   -0.52960E+08         0.23230E+07         0.00000E+00
    0.23230E+07        -0.50237E+08         0.00000E+00
    0.00000E+00         0.00000E+00        -0.52946E+08
 
   -0.54311E+08         0.24802E+05         0.00000E+00
    0.24802E+05        -0.50000E+08         0.00000E+00
    0.00000E+00         0.00000E+00        -0.52978E+08
 
   -0.54273E+08         0.73563E+05         0.00000E+00
    0.73563E+05        -0.50000E+08         0.00000E+00
    0.00000E+00         0.00000E+00        -0.52970E+08
 
   -0.54236E+08         0.12199E+06         0.00000E+00
    0.12199E+06        -0.50001E+08         0.00000E+00
    0.00000E+00         0.00000E+00        -0.52963E+08
 
   -0.54198E+08         0.17009E+06         0.00000E+00
    0.17009E+06        -0.50001E+08         0.00000E+00
    0.00000E+00         0.00000E+00        -0.52955E+08
 
   -0.54161E+08         0.21789E+06         0.00000E+00
    0.21789E+06        -0.50001E+08         0.00000E+00
    0.00000E+00         0.00000E+00        -0.52948E+08
 
   -0.54125E+08         0.26540E+06         0.00000E+00
    0.26540E+06        -0.50002E+08         0.00000E+00
    0.00000E+00         0.00000E+00        -0.52941E+08
 
   -0.54089E+08         0.31264E+06         0.00000E+00
    0.31264E+06        -0.50003E+08         0.00000E+00
    0.00000E+00         0.00000E+00        -0.52934E+08
 
   -0.54053E+08         0.35962E+06         0.00000E+00
    0.35962E+06        -0.50003E+08         0.00000E+00
    0.00000E+00         0.00000E+00        -0.52927E+08
 
   -0.54018E+08         0.40636E+06         0.00000E+00
    0.40636E+06        -0.50004E+08         0.00000E+00
    0.00000E+00         0.00000E+00        -0.52920E+08
 
   -0.53983E+08         0.45287E+06         0.00000E+00
    0.45287E+06        -0.50005E+08         0.00000E+00
    0.00000E+00         0.00000E+00        -0.52913E+08
 
   -0.53948E+08         0.49917E+06         0.00000E+00
    0.49917E+06        -0.50006E+08         0.00000E+00
    0.00000E+00         0.00000E+00        -0.52906E+08
 
   -0.53914E+08         0.54527E+06         0.00000E+00
    0.54527E+06        -0.50008E+08         0.00000E+00
    0.00000E+00         0.00000E+00        -0.52900E+08
 
   -0.53880E+08         0.59118E+06         0.00000E+00
    0.59118E+06        -0.50009E+08         0.00000E+00
    0.00000E+00         0.00000E+00        -0.52893E+08
 
   -0.53846E+08         0.63692E+06         0.00000E+00
    0.63692E+06        -0.50011E+08         0.00000E+00
    0.00000E+00         0.00000E+00        -0.52887E+08
 
   -0.53813E+08         0.68251E+06         0.00000E+00
    0.68251E+06        -0.50013E+08         0.00000E+00
    0.00000E+00         0.00000E+00        -0.52880E+08
 
   -0.53780E+08         0.72794E+06         0.00000E+00
    0.72794E+06        -0.50015E+08         0.00000E+00
    0.00000E+00         0.00000E+00        -0.52874E+08
 
   -0.53747E+08         0.77325E+06         0.00000E+00
    0.77325E+06        -0.50017E+08         0.00000E+00
    0.00000E+00         0.00000E+00        -0.52868E+08
 
   -0.53714E+08         0.81843E+06         0.00000E+00
    0.81843E+06        -0.50019E+08         0.00000E+00
    0.00000E+00         0.00000E+00        -0.52862E+08
 
   -0.53682E+08         0.86350E+06         0.00000E+00
    0.86350E+06        -0.50022E+08         0.00000E+00
    0.00000E+00         0.00000E+00        -0.52856E+08
 
   -0.53650E+08         0.90847E+06         0.00000E+00
    0.90847E+06        -0.50024E+08         0.00000E+00
    0.00000E+00         0.00000E+00        -0.52850E+08
 
   -0.53619E+08         0.95336E+06         0.00000E+00
    0.95336E+06        -0.50027E+08         0.00000E+00
    0.00000E+00         0.00000E+00        -0.52844E+08
 
   -0.53587E+08         0.99817E+06         0.00000E+00
    0.99817E+06        -0.50030E+08         0.00000E+00
    0.00000E+00         0.00000E+00        -0.52839E+08
 
   -0.53556E+08         0.10429E+07         0.00000E+00
    0.10429E+07        -0.50034E+08         0.00000E+00
    0.00000E+00         0.00000E+00        -0.52833E+08
 
   -0.53525E+08         0.10876E+07         0.00000E+00
    0.10876E+07        -0.50038E+08         0.00000E+00
    0.00000E+00         0.00000E+00        -0.52828E+08
 
   -0.53494E+08         0.11322E+07         0.00000E+00
    0.11322E+07        -0.50041E+08         0.00000E+00
    0.00000E+00         0.00000E+00        -0.52822E+08
 
   -0.53463E+08         0.11768E+07         0.00000E+00
    0.11768E+07        -0.50046E+08         0.00000E+00
    0.00000E+00         0.00000E+00        -0.52817E+08
 
   -0.53432E+08         0.12214E+07         0.00000E+00
    0.12214E+07        -0.50050E+08         0.00000E+00
    0.00000E+00         0.00000E+00        -0.52812E+08
 
   -0.53402E+08         0.12659E+07         0.00000E+00
    0.12659E+07        -0.50055E+08         0.00000E+00
    0.00000E+00         0.00000E+00        -0.52807E+08
 
   -0.53371E+08         0.13105E+07         0.00000E+00
    0.13105E+07        -0.50060E+08         0.00000E+00
    0.00000E+00         0.00000E+00        -0.52802E+08
 
   -0.53341E+08         0.13550E+07         0.00000E+00
    0.13550E+07        -0.50065E+08         0.00000E+00
    0.00000E+00         0.00000E+00        -0.52797E+08
 
   -0.53311E+08         0.13995E+07         0.00000E+00
    0.13995E+07        -0.50071E+08         0.00000E+00
    0.00000E+00         0.00000E+00        -0.52792E+08
 
   -0.53281E+08         0.14440E+07         0.00000E+00
    0.14440E+07        -0.50077E+08         0.00000E+00
    0.00000E+00         0.00000E+00        -0.52787E+08
 
   -0.53251E+08         0.14886E+07         0.00000E+00
    0.14886E+07        -0.50083E+08         0.00000E+00
    0.00000E+00         0.00000E+00        -0.52782E+08
 
   -0.53220E+08         0.15332E+07         0.00000E+00
    0.15332E+07        -0.50090E+08         0.00000E+00
    0.00000E+00         0.00000E+00        -0.52777E+08
 
   -0.53190E+08         0.15777E+07         0.00000E+00
    0.15777E+07        -0.50097E+08         0.00000E+00
    0.00000E+00         0.00000E+00        -0.52773E+08
 
   -0.53160E+08         0.16224E+07         0.00000E+00
    0.16224E+07        -0.50104E+08         0.00000E+00
    0.00000E+00         0.00000E+00        -0.52768E+08
 
   -0.53130E+08         0.16670E+07         0.00000E+00
    0.16670E+07        -0.50112E+08         0.00000E+00
    0.00000E+00         0.00000E+00        -0.52764E+08
 
   -0.53100E+08         0.17117E+07         0.00000E+00
    0.17117E+07        -0.50120E+08         0.00000E+00
    0.00000E+00         0.00000E+00        -0.52759E+08
 
   -0.53070E+08         0.17564E+07         0.00000E+00
    0.17564E+07        -0.50129E+08         0.00000E+00
    0.00000E+00         0.00000E+00        -0.52755E+08
 
   -0.53039E+08         0.18012E+07         0.00000E+00
    0.18012E+07        -0.50138E+08         0.00000E+00
    0.00000E+00         0.00000E+00        -0.52751E+08
 
   -0.53009E+08         0.18461E+07         0.00000E+00
    0.18461E+07        -0.50147E+08         0.00000E+00
    0.00000E+00         0.00000E+00        -0.52746E+08
 
   -0.52978E+08         0.18910E+07         0.00000E+00
    0.18910E+07        -0.50157E+08         0.00000E+00
    0.00000E+00         0.00000E+00        -0.52742E+08
 
   -0.52947E+08         0.19359E+07         0.00000E+00
    0.19359E+07        -0.50167E+08         0.00000E+00
    0.00000E+00         0.00000E+00        -0.52738E+08
 
   -0.52916E+08         0.19809E+07         0.00000E+00
    0.19809E+07        -0.50178E+08         0.00000E+00
    0.00000E+00         0.00000E+00        -0.52734E+08
 
   -0.52885E+08         0.20260E+07         0.00000E+00
    0.20260E+07        -0.50190E+08         0.00000E+00
    0.00000E+00         0.00000E+00        -0.52730E+08
 
   -0.52854E+08         0.20711E+07         0.00000E+00
    0.20711E+07        -0.50201E+08         0.00000E+00
    0.00000E+00         0.00000E+00        -0.52726E+08
 
   -0.52822E+08         0.21163E+07         0.00000E+00
    0.21163E+07        -0.50214E+08         0.00000E+00
    0.00000E+00         0.00000E+00        -0.52722E+08
 
   -0.52790E+08         0.21615E+07         0.00000E+00
    0.21615E+07        -0.50227E+08         0.00000E+00
    0.00000E+00         0.00000E+00        -0.52719E+08
 
   -0.52758E+08         0.22068E+07         0.00000E+00
    0.22068E+07        -0.50240E+08         0.00000E+00
    0.00000E+00         0.00000E+00        -0.52715E+08
 
   -0.52726E+08         0.22522E+07         0.00000E+00
    0.22522E+07        -0.50254E+08         0.00000E+00
    0.00000E+00         0.00000E+00        -0.52711E+08
 
   -0.54068E+08         0.24527E+05         0.00000E+00
    0.24527E+05        -0.50000E+08         0.00000E+00
    0.00000E+00         0.00000E+00        -0.52750E+08
 
   -0.54032E+08         0.72715E+05         0.00000E+00
    0.72715E+05        -0.50000E+08         0.00000E+00
    0.00000E+00         0.00000E+00        -0.52743E+08
 
   -0.53996E+08         0.12055E+06         0.00000E+00
    0.12055E+06        -0.50001E+08         0.00000E+00
    0.00000E+00         0.00000E+00        -0.52736E+08
 
   -0.53960E+08         0.16805E+06         0.00000E+00
    0.16805E+06        -0.50001E+08         0.00000E+00
    0.00000E+00         0.00000E+00        -0.52729E+08
 
   -0.53925E+08         0.21524E+06         0.00000E+00
    0.21524E+06        -0.50002E+08         0.00000E+00
    0.00000E+00         0.00000E+00        -0.52722E+08
 
   -0.53890E+08         0.26211E+06         0.00000E+00
    0.26211E+06        -0.50002E+08         0.00000E+00
    0.00000E+00         0.00000E+00        -0.52715E+08
 
   -0.53855E+08         0.30869E+06         0.00000E+00
    0.30869E+06        -0.50003E+08         0.00000E+00
    0.00000E+00         0.00000E+00        -0.52708E+08
 
   -0.53820E+08         0.35499E+06         0.00000E+00
    0.35499E+06        -0.50004E+08         0.00000E+00
    0.00000E+00         0.00000E+00        -0.52701E+08
 
   -0.53786E+08         0.40102E+06         0.00000E+00
    0.40102E+06        -0.50005E+08         0.00000E+00
    0.00000E+00         0.00000E+00        -0.52695E+08
 
   -0.53752E+08         0.44681E+06         0.00000E+00
    0.44681E+06        -0.50006E+08         0.00000E+00
    0.00000E+00         0.00000E+00        -0.52688E+08
 
   -0.53719E+08         0.49235E+06         0.00000E+00
    0.49235E+06        -0.50008E+08         0.00000E+00
    0.00000E+00         0.00000E+00        -0.52682E+08
 
   -0.53686E+08         0.53766E+06         0.00000E+00
    0.53766E+06        -0.50009E+08         0.00000E+00
    0.00000E+00         0.00000E+00        -0.52676E+08
 
   -0.53653E+08         0.58275E+06         0.00000E+00
    0.58275E+06        -0.50011E+08         0.00000E+00
    0.00000E+00         0.00000E+00        -0.52669E+08
 
   -0.53620E+08         0.62765E+06         0.00000E+00
    0.62765E+06        -0.50013E+08         0.00000E+00
    0.00000E+00         0.00000E+00        -0.52663E+08
 
   -0.53587E+08         0.67235E+06         0.00000E+00
    0.67235E+06        -0.50015E+08         0.00000E+00
    0.00000E+00         0.00000E+00        -0.52657E+08
 
   -0.53555E+08         0.71686E+06         0.00000E+00
    0.71686E+06        -0.50017E+08         0.00000E+00
    0.00000E+00         0.00000E+00        -0.52651E+08
 
   -0.53523E+08         0.76121E+06         0.00000E+00
    0.76121E+06        -0.50020E+08         0.00000E+00
    0.00000E+00         0.00000E+00        -0.52645E+08
 
   -0.53491E+08         0.80540E+06         0.00000E+00
    0.80540E+06        -0.50022E+08         0.00000E+00
    0.00000E+00         0.00000E+00        -0.52639E+08
 
   -0.53460E+08         0.84944E+06         0.00000E+00
    0.84944E+06        -0.50025E+08         0.00000E+00
    0.00000E+00         0.00000E+00        -0.52634E+08
 
   -0.53428E+08         0.89334E+06         0.00000E+00
    0.89334E+06        -0.50028E+08         0.00000E+00
    0.00000E+00         0.00000E+00        -0.52628E+08
 
   -0.53397E+08         0.93711E+06         0.00000E+00
    0.93711E+06        -0.50031E+08         0.00000E+00
    0.00000E+00         0.00000E+00        -0.52622E+08
 
   -0.53366E+08         0.98075E+06         0.00000E+00
    0.98075E+06        -0.50035E+08         0.00000E+00
    0.00000E+00         0.00000E+00        -0.52617E+08
 
   -0.53335E+08         0.10243E+07         0.00000E+00
    0.10243E+07        -0.50039E+08         0.00000E+00
    0.00000E+00         0.00000E+00        -0.52611E+08
 
   -0.53305E+08         0.10677E+07         0.00000E+00
    0.10677E+07        -0.50043E+08         0.00000E+00
    0.00000E+00         0.00000E+00        -0.52606E+08
 
   -0.53274E+08         0.11111E+07         0.00000E+00
    0.11111E+07        -0.50047E+08         0.00000E+00
    0.00000E+00         0.00000E+00        -0.52601E+08
 
   -0.53243E+08         0.11543E+07         0.00000E+00
    0.11543E+07        -0.50052E+08         0.00000E+00
    0.00000E+00         0.00000E+00        -0.52596E+08
 
   -0.53213E+08         0.11975E+07         0.00000E+00
    0.11975E+07        -0.50056E+08         0.00000E+00
    0.00000E+00         0.00000E+00        -0.52591E+08
 
   -0.53183E+08         0.12406E+07         0.00000E+00
    0.12406E+07        -0.50061E+08         0.00000E+00
    0.00000E+00         0.00000E+00        -0.52585E+08
 
   -0.53153E+08         0.12836E+07         0.00000E+00
    0.12836E+07        -0.50067E+08         0.00000E+00
    0.00000E+00         0.00000E+00        -0.52581E+08
 
   -0.53122E+08         0.13266E+07         0.00000E+00
    0.13266E+07        -0.50073E+08         0.00000E+00
    0.00000E+00         0.00000E+00        -0.52576E+08
 
   -0.53092E+08         0.13695E+07         0.00000E+00
    0.13695E+07        -0.50079E+08         0.00000E+00
    0.00000E+00         0.00000E+00        -0.52571E+08
 
   -0.53062E+08         0.14124E+07         0.00000E+00
    0.14124E+07        -0.50085E+08         0.00000E+00
    0.00000E+00         0.00000E+00        -0.52566E+08
 
   -0.53032E+08         0.14552E+07         0.00000E+00
    0.14552E+07        -0.50092E+08         0.00000E+00
    0.00000E+00         0.00000E+00        -0.52561E+08
 
   -0.53002E+08         0.14980E+07         0.00000E+00
    0.14980E+07        -0.50099E+08         0.00000E+00
    0.00000E+00         0.00000E+00        -0.52557E+08
 
   -0.52972E+08         0.15408E+07         0.00000E+00
    0.15408E+07        -0.50106E+08         0.00000E+00
    0.00000E+00         0.00000E+00        -0.52552E+08
 
   -0.52942E+08         0.15835E+07         0.00000E+00
    0.15835E+07        -0.50114E+08         0.00000E+00
    0.00000E+00         0.00000E+00        -0.52548E+08
 
   -0.52912E+08         0.16262E+07         0.00000E+00
    0.16262E+07        -0.50122E+08         0.00000E+00
    0.00000E+00         0.00000E+00        -0.52543E+08
 
   -0.52881E+08         0.16689E+07         0.00000E+00
    0.16689E+07        -0.50130E+08         0.00000E+00
    0.00000E+00         0.00000E+00        -0.52539E+08
 
   -0.52851E+08         0.17116E+07         0.00000E+00
    0.17116E+07        -0.50139E+08         0.00000E+00
    0.00000E+00         0.00000E+00        -0.52535E+08
 
   -0.52820E+08         0.17543E+07         0.00000E+00
    0.17543E+07        -0.50148E+08         0.00000E+00
    0.00000E+00         0.00000E+00        -0.52530E+08
 
   -0.52790E+08         0.17969E+07         0.00000E+00
    0.17969E+07        -0.50158E+08         0.00000E+00
    0.00000E+00         0.00000E+00        -0.52526E+08
 
   -0.52759E+08         0.18396E+07         0.00000E+00
    0.18396E+07        -0.50168E+08         0.00000E+00
    0.00000E+00         0.00000E+00        -0.52522E+08
 
   -0.52728E+08         0.18822E+07         0.00000E+00
    0.18822E+07        -0.50179E+08         0.00000E+00
    0.00000E+00         0.00000E+00        -0.52518E+08
 
   -0.52697E+08         0.19249E+07         0.00000E+00
    0.19249E+07        -0.50190E+08         0.00000E+00
    0.00000E+00         0.00000E+00        -0.52514E+08
 
   -0.52666E+08         0.19675E+07         0.00000E+00
    0.19675E+07        -0.50201E+08         0.00000E+00
    0.00000E+00         0.00000E+00        -0.52510E+08
 
   -0.52634E+08         0.20101E+07         0.00000E+00
    0.20101E+07        -0.50213E+08         0.00000E+00
    0.00000E+00         0.00000E+00        -0.52506E+08
 
   -0.52602E+08         0.20528E+07         0.00000E+00
    0.20528E+07        -0.50226E+08         0.00000E+00
    0.00000E+00         0.00000E+00        -0.52502E+08
 
   -0.52570E+08         0.20954E+07         0.00000E+00
    0.20954E+07        -0.50239E+08         0.00000E+00
    0.00000E+00         0.00000E+00        -0.52499E+08
 
   -0.52538E+08         0.21380E+07         0.00000E+00
    0.21380E+07        -0.50252E+08         0.00000E+00
    0.00000E+00         0.00000E+00        -0.52495E+08
 
   -0.52506E+08         0.21807E+07         0.00000E+00
    0.21807E+07        -0.50267E+08         0.00000E+00
    0.00000E+00         0.00000E+00        -0.52491E+08
 
   -0.53828E+08         0.24195E+05         0.00000E+00
    0.24195E+05        -0.50000E+08         0.00000E+00
    0.00000E+00         0.00000E+00        -0.52536E+08
 
   -0.53793E+08         0.71700E+05         0.00000E+00
    0.71700E+05        -0.50000E+08         0.00000E+00
    0.00000E+00         0.00000E+00        -0.52529E+08
 
   -0.53759E+08         0.11885E+06         0.00000E+00
    0.11885E+06        -0.50001E+08         0.00000E+00
    0.00000E+00         0.00000E+00        -0.52522E+08
 
   -0.53725E+08         0.16564E+06         0.00000E+00
    0.16564E+06        -0.50001E+08         0.00000E+00
    0.00000E+00         0.00000E+00        -0.52515E+08
 
   -0.53691E+08         0.21211E+06         0.00000E+00
    0.21211E+06        -0.50002E+08         0.00000E+00
    0.00000E+00         0.00000E+00        -0.52508E+08
 
   -0.53658E+08         0.25825E+06         0.00000E+00
    0.25825E+06        -0.50002E+08         0.00000E+00
    0.00000E+00         0.00000E+00        -0.52502E+08
 
   -0.53624E+08         0.30408E+06         0.00000E+00
    0.30408E+06        -0.50003E+08         0.00000E+00
    0.00000E+00         0.00000E+00        -0.52495E+08
 
   -0.53591E+08         0.34961E+06         0.00000E+00
    0.34961E+06        -0.50004E+08         0.00000E+00
    0.00000E+00         0.00000E+00        -0.52489E+08
 
   -0.53559E+08         0.39486E+06         0.00000E+00
    0.39486E+06        -0.50006E+08         0.00000E+00
    0.00000E+00         0.00000E+00        -0.52483E+08
 
   -0.53526E+08         0.43983E+06         0.00000E+00
    0.43983E+06        -0.50007E+08         0.00000E+00
    0.00000E+00         0.00000E+00        -0.52477E+08
 
   -0.53494E+08         0.48454E+06         0.00000E+00
    0.48454E+06        -0.50009E+08         0.00000E+00
    0.00000E+00         0.00000E+00        -0.52470E+08
 
   -0.53462E+08         0.52899E+06         0.00000E+00
    0.52899E+06        -0.50010E+08         0.00000E+00
    0.00000E+00         0.00000E+00        -0.52464E+08
 
   -0.53430E+08         0.57320E+06         0.00000E+00
    0.57320E+06        -0.50012E+08         0.00000E+00
    0.00000E+00         0.00000E+00        -0.52458E+08
 
   -0.53398E+08         0.61718E+06         0.00000E+00
    0.61718E+06        -0.50014E+08         0.00000E+00
    0.00000E+00         0.00000E+00        -0.52452E+08
 
   -0.53367E+08         0.66094E+06         0.00000E+00
    0.66094E+06        -0.50017E+08         0.00000E+00
    0.00000E+00         0.00000E+00        -0.52447E+08
 
   -0.53335E+08         0.70449E+06         0.00000E+00
    0.70449E+06        -0.50019E+08         0.00000E+00
    0.00000E+00         0.00000E+00        -0.52441E+08
 
   -0.53304E+08         0.74783E+06         0.00000E+00
    0.74783E+06        -0.50022E+08         0.00000E+00
    0.00000E+00         0.00000E+00        -0.52435E+08
 
   -0.53273E+08         0.79098E+06         0.00000E+00
    0.79098E+06        -0.50025E+08         0.00000E+00
    0.00000E+00         0.00000E+00        -0.52430E+08
 
   -0.53243E+08         0.83394E+06         0.00000E+00
    0.83394E+06        -0.50028E+08         0.00000E+00
    0.00000E+00         0.00000E+00        -0.52424E+08
 
   -0.53212E+08         0.87673E+06         0.00000E+00
    0.87673E+06        -0.50031E+08         0.00000E+00
    0.00000E+00         0.00000E+00        -0.52419E+08
 
   -0.53181E+08         0.91936E+06         0.00000E+00
    0.91936E+06        -0.50035E+08         0.00000E+00
    0.00000E+00         0.00000E+00        -0.52413E+08
 
   -0.53151E+08         0.96182E+06         0.00000E+00
    0.96182E+06        -0.50038E+08         0.00000E+00
    0.00000E+00         0.00000E+00        -0.52408E+08
 
   -0.53121E+08         0.10041E+07         0.00000E+00
    0.10041E+07        -0.50042E+08         0.00000E+00
    0.00000E+00         0.00000E+00        -0.52403E+08
 
   -0.53091E+08         0.10463E+07         0.00000E+00
    0.10463E+07        -0.50047E+08         0.00000E+00
    0.00000E+00         0.00000E+00        -0.52397E+08
 
   -0.53061E+08         0.10883E+07         0.00000E+00
    0.10883E+07        -0.50051E+08         0.00000E+00
    0.00000E+00         0.00000E+00        -0.52392E+08
 
   -0.53031E+08         0.11302E+07         0.00000E+00
    0.11302E+07        -0.50056E+08         0.00000E+00
    0.00000E+00         0.00000E+00        -0.52387E+08
 
   -0.53001E+08         0.11720E+07         0.00000E+00
    0.11720E+07        -0.50061E+08         0.00000E+00
    0.00000E+00         0.00000E+00        -0.52382E+08
 
   -0.52971E+08         0.12137E+07         0.00000E+00
    0.12137E+07        -0.50066E+08         0.00000E+00
    0.00000E+00         0.00000E+00        -0.52377E+08
 
   -0.52941E+08         0.12552E+07         0.00000E+00
    0.12552E+07        -0.50072E+08         0.00000E+00
    0.00000E+00         0.00000E+00        -0.52373E+08
 
   -0.52912E+08         0.12967E+07         0.00000E+00
    0.12967E+07        -0.50078E+08         0.00000E+00
    0.00000E+00         0.00000E+00        -0.52368E+08
 
   -0.52882E+08         0.13380E+07         0.00000E+00
    0.13380E+07        -0.50084E+08         0.00000E+00
    0.00000E+00         0.00000E+00        -0.52363E+08
 
   -0.52852E+08         0.13793E+07         0.00000E+00
    0.13793E+07        -0.50091E+08         0.00000E+00
    0.00000E+00         0.00000E+00        -0.52358E+08
 
   -0.52822E+08         0.14204E+07         0.00000E+00
    0.14204E+07        -0.50098E+08         0.00000E+00
    0.00000E+00         0.00000E+00        -0.52354E+08
 
   -0.52792E+08         0.14615E+07         0.00000E+00
    0.14615E+07        -0.50105E+08         0.00000E+00
    0.00000E+00         0.00000E+00        -0.52349E+08
 
   -0.52763E+08         0.15025E+07         0.00000E+00
    0.15025E+07        -0.50113E+08         0.00000E+00
    0.00000E+00         0.00000E+00        -0.52345E+08
 
   -0.52733E+08         0.15434E+07         0.00000E+00
    0.15434E+07        -0.50121E+08         0.00000E+00
    0.00000E+00         0.00000E+00        -0.52341E+08
 
   -0.52703E+08         0.15842E+07         0.00000E+00
    0.15842E+07        -0.50129E+08         0.00000E+00
    0.00000E+00         0.00000E+00        -0.52336E+08
 
   -0.52673E+08         0.16250E+07         0.00000E+00
    0.16250E+07        -0.50137E+08         0.00000E+00
    0.00000E+00         0.00000E+00        -0.52332E+08
 
   -0.52643E+08         0.16657E+07         0.00000E+00
    0.16657E+07        -0.50147E+08         0.00000E+00
    0.00000E+00         0.00000E+00        -0.52328E+08
 
   -0.52612E+08         0.17063E+07         0.00000E+00
    0.17063E+07        -0.50156E+08         0.00000E+00
    0.00000E+00         0.00000E+00        -0.52324E+08
 
   -0.52582E+08         0.17468E+07         0.00000E+00
    0.17468E+07        -0.50166E+08         0.00000E+00
    0.00000E+00         0.00000E+00        -0.52319E+08
 
   -0.52551E+08         0.17873E+07         0.00000E+00
    0.17873E+07        -0.50176E+08         0.00000E+00
    0.00000E+00         0.00000E+00        -0.52315E+08
 
   -0.52521E+08         0.18278E+07         0.00000E+00
    0.18278E+07        -0.50187E+08         0.00000E+00
    0.00000E+00         0.00000E+00        -0.52311E+08
 
   -0.52490E+08         0.18681E+07         0.00000E+00
    0.18681E+07        -0.50198E+08         0.00000E+00
    0.00000E+00         0.00000E+00        -0.52307E+08
 
   -0.52458E+08         0.19085E+07         0.00000E+00
    0.19085E+07        -0.50210E+08         0.00000E+00
    0.00000E+00         0.00000E+00        -0.52304E+08
 
   -0.52427E+08         0.19487E+07         0.00000E+00
    0.19487E+07        -0.50222E+08         0.00000E+00
    0.00000E+00         0.00000E+00        -0.52300E+08
 
   -0.52396E+08         0.19889E+07         0.00000E+00
    0.19889E+07        -0.50234E+08         0.00000E+00
    0.00000E+00         0.00000E+00        -0.52296E+08
 
   -0.52364E+08         0.20290E+07         0.00000E+00
    0.20290E+07        -0.50247E+08         0.00000E+00
    0.00000E+00         0.00000E+00        -0.52292E+08
 
   -0.52332E+08         0.20691E+07         0.00000E+00
    0.20691E+07        -0.50261E+08         0.00000E+00
    0.00000E+00         0.00000E+00        -0.52288E+08
 
   -0.52299E+08         0.21091E+07         0.00000E+00
    0.21091E+07        -0.50275E+08         0.00000E+00
    0.00000E+00         0.00000E+00        -0.52285E+08
 
   -0.53591E+08         0.23818E+05         0.00000E+00
    0.23818E+05        -0.50000E+08         0.00000E+00
    0.00000E+00         0.00000E+00        -0.52333E+08
 
   -0.53559E+08         0.70557E+05         0.00000E+00
    0.70557E+05        -0.50000E+08         0.00000E+00
    0.00000E+00         0.00000E+00        -0.52326E+08
 
   -0.53526E+08         0.11693E+06         0.00000E+00
    0.11693E+06        -0.50001E+08         0.00000E+00
    0.00000E+00         0.00000E+00        -0.52320E+08
 
   -0.53494E+08         0.16295E+06         0.00000E+00
    0.16295E+06        -0.50001E+08         0.00000E+00
    0.00000E+00         0.00000E+00        -0.52313E+08
 
   -0.53462E+08         0.20862E+06         0.00000E+00
    0.20862E+06        -0.50002E+08         0.00000E+00
    0.00000E+00         0.00000E+00        -0.52307E+08
 
   -0.53430E+08         0.25395E+06         0.00000E+00
    0.25395E+06        -0.50003E+08         0.00000E+00
    0.00000E+00         0.00000E+00        -0.52301E+08
 
   -0.53398E+08         0.29897E+06         0.00000E+00
    0.29897E+06        -0.50004E+08         0.00000E+00
    0.00000E+00         0.00000E+00        -0.52295E+08
 
   -0.53367E+08         0.34366E+06         0.00000E+00
    0.34366E+06        -0.50005E+08         0.00000E+00
    0.00000E+00         0.00000E+00        -0.52289E+08
 
   -0.53335E+08         0.38806E+06         0.00000E+00
    0.38806E+06        -0.50006E+08         0.00000E+00
    0.00000E+00         0.00000E+00        -0.52283E+08
 
   -0.53304E+08         0.43216E+06         0.00000E+00
    0.43216E+06        -0.50008E+08         0.00000E+00
    0.00000E+00         0.00000E+00        -0.52277E+08
 
   -0.53273E+08         0.47598E+06         0.00000E+00
    0.47598E+06        -0.50009E+08         0.00000E+00
    0.00000E+00         0.00000E+00        -0.52271E+08
 
   -0.53242E+08         0.51952E+06         0.00000E+00
    0.51952E+06        -0.50011E+08         0.00000E+00
    0.00000E+00         0.00000E+00        -0.52265E+08
 
   -0.53212E+08         0.56280E+06         0.00000E+00
    0.56280E+06        -0.50013E+08         0.00000E+00
    0.00000E+00         0.00000E+00        -0.52259E+08
 
   -0.53181E+08         0.60583E+06         0.00000E+00
    0.60583E+06        -0.50015E+08         0.00000E+00
    0.00000E+00         0.00000E+00        -0.52254E+08
 
   -0.53151E+08         0.64860E+06         0.00000E+00
    0.64860E+06        -0.50018E+08         0.00000E+00
    0.00000E+00         0.00000E+00        -0.52248E+08
 
   -0.53121E+08         0.69114E+06         0.00000E+00
    0.69114E+06        -0.50020E+08         0.00000E+00
    0.00000E+00         0.00000E+00        -0.52243E+08
 
   -0.53091E+08         0.73345E+06         0.00000E+00
    0.73345E+06        -0.50023E+08         0.00000E+00
    0.00000E+00         0.00000E+00        -0.52237E+08
 
   -0.53061E+08         0.77553E+06         0.00000E+00
    0.77553E+06        -0.50026E+08         0.00000E+00
    0.00000E+00         0.00000E+00        -0.52232E+08
 
   -0.53031E+08         0.81740E+06         0.00000E+00
    0.81740E+06        -0.50030E+08         0.00000E+00
    0.00000E+00         0.00000E+00        -0.52227E+08
 
   -0.53001E+08         0.85906E+06         0.00000E+00
    0.85906E+06        -0.50033E+08         0.00000E+00
    0.00000E+00         0.00000E+00        -0.52221E+08
 
   -0.52972E+08         0.90052E+06         0.00000E+00
    0.90052E+06        -0.50037E+08         0.00000E+00
    0.00000E+00         0.00000E+00        -0.52216E+08
 
   -0.52942E+08         0.94179E+06         0.00000E+00
    0.94179E+06        -0.50041E+08         0.00000E+00
    0.00000E+00         0.00000E+00        -0.52211E+08
 
   -0.52913E+08         0.98287E+06         0.00000E+00
    0.98287E+06        -0.50045E+08         0.00000E+00
    0.00000E+00         0.00000E+00        -0.52206E+08
 
   -0.52883E+08         0.10238E+07         0.00000E+00
    0.10238E+07        -0.50050E+08         0.00000E+00
    0.00000E+00         0.00000E+00        -0.52201E+08
 
   -0.52854E+08         0.10645E+07         0.00000E+00
    0.10645E+07        -0.50054E+08         0.00000E+00
    0.00000E+00         0.00000E+00        -0.52196E+08
 
   -0.52825E+08         0.11051E+07         0.00000E+00
    0.11051E+07        -0.50059E+08         0.00000E+00
    0.00000E+00         0.00000E+00        -0.52191E+08
 
   -0.52796E+08         0.11455E+07         0.00000E+00
    0.11455E+07        -0.50064E+08         0.00000E+00
    0.00000E+00         0.00000E+00        -0.52187E+08
 
   -0.52767E+08         0.11857E+07         0.00000E+00
    0.11857E+07        -0.50070E+08         0.00000E+00
    0.00000E+00         0.00000E+00        -0.52182E+08
 
   -0.52737E+08         0.12258E+07         0.00000E+00
    0.12258E+07        -0.50076E+08         0.00000E+00
    0.00000E+00         0.00000E+00        -0.52177E+08
 
   -0.52708E+08         0.12657E+07         0.00000E+00
    0.12657E+07        -0.50082E+08         0.00000E+00
    0.00000E+00         0.00000E+00        -0.52173E+08
 
   -0.52679E+08         0.13055E+07         0.00000E+00
    0.13055E+07        -0.50088E+08         0.00000E+00
    0.00000E+00         0.00000E+00        -0.52168E+08
 
   -0.52650E+08         0.13452E+07         0.00000E+00
    0.13452E+07        -0.50095E+08         0.00000E+00
    0.00000E+00         0.00000E+00        -0.52163E+08
 
   -0.52621E+08         0.13847E+07         0.00000E+00
    0.13847E+07        -0.50102E+08         0.00000E+00
    0.00000E+00         0.00000E+00        -0.52159E+08
 
   -0.52592E+08         0.14241E+07         0.00000E+00
    0.14241E+07        -0.50109E+08         0.00000E+00
    0.00000E+00         0.00000E+00        -0.52155E+08
 
   -0.52562E+08         0.14634E+07         0.00000E+00
    0.14634E+07        -0.50117E+08         0.00000E+00
    0.00000E+00         0.00000E+00        -0.52150E+08
 
   -0.52533E+08         0.15025E+07         0.00000E+00
    0.15025E+07        -0.50125E+08         0.00000E+00
    0.00000E+00         0.00000E+00        -0.52146E+08
 
   -0.52503E+08         0.15415E+07         0.00000E+00
    0.15415E+07        -0.50133E+08         0.00000E+00
    0.00000E+00         0.00000E+00        -0.52142E+08
 
   -0.52474E+08         0.15804E+07         0.00000E+00
    0.15804E+07        -0.50142E+08         0.00000E+00
    0.00000E+00         0.00000E+00        -0.52138E+08
 
   -0.52444E+08         0.16192E+07         0.00000E+00
    0.16192E+07        -0.50151E+08         0.00000E+00
    0.00000E+00         0.00000E+00        -0.52134E+08
 
   -0.52414E+08         0.16578E+07         0.00000E+00
    0.16578E+07        -0.50161E+08         0.00000E+00
    0.00000E+00         0.00000E+00        -0.52129E+08
 
   -0.52384E+08         0.16964E+07         0.00000E+00
    0.16964E+07        -0.50171E+08         0.00000E+00
    0.00000E+00         0.00000E+00        -0.52125E+08
 
   -0.52354E+08         0.17348E+07         0.00000E+00
    0.17348E+07        -0.50181E+08         0.00000E+00
    0.00000E+00         0.00000E+00        -0.52122E+08
 
   -0.52324E+08         0.17731E+07         0.00000E+00
    0.17731E+07        -0.50192E+08         0.00000E+00
    0.00000E+00         0.00000E+00        -0.52118E+08
 
   -0.52293E+08         0.18113E+07         0.00000E+00
    0.18113E+07        -0.50203E+08         0.00000E+00
    0.00000E+00         0.00000E+00        -0.52114E+08
 
   -0.52263E+08         0.18494E+07         0.00000E+00
    0.18494E+07        -0.50214E+08         0.00000E+00
    0.00000E+00         0.00000E+00        -0.52110E+08
 
   -0.52232E+08         0.18874E+07         0.00000E+00
    0.18874E+07        -0.50226E+08         0.00000E+00
    0.00000E+00         0.00000E+00        -0.52106E+08
 
   -0.52201E+08         0.19253E+07         0.00000E+00
    0.19253E+07        -0.50239E+08         0.00000E+00
    0.00000E+00         0.00000E+00        -0.52102E+08
 
   -0.52169E+08         0.19630E+07         0.00000E+00
    0.19630E+07        -0.50252E+08         0.00000E+00
    0.00000E+00         0.00000E+00        -0.52099E+08
 
   -0.52138E+08         0.20006E+07         0.00000E+00
    0.20006E+07        -0.50265E+08         0.00000E+00
    0.00000E+00         0.00000E+00        -0.52095E+08
 
   -0.52106E+08         0.20381E+07         0.00000E+00
    0.20381E+07        -0.50279E+08         0.00000E+00
    0.00000E+00         0.00000E+00        -0.52091E+08
 
   -0.53359E+08         0.23407E+05         0.00000E+00
    0.23407E+05        -0.50000E+08         0.00000E+00
    0.00000E+00         0.00000E+00        -0.52141E+08
 
   -0.53328E+08         0.69318E+05         0.00000E+00
    0.69318E+05        -0.50000E+08         0.00000E+00
    0.00000E+00         0.00000E+00        -0.52135E+08
 
   -0.53297E+08         0.11486E+06         0.00000E+00
    0.11486E+06        -0.50001E+08         0.00000E+00
    0.00000E+00         0.00000E+00        -0.52129E+08
 
   -0.53267E+08         0.16003E+06         0.00000E+00
    0.16003E+06        -0.50001E+08         0.00000E+00
    0.00000E+00         0.00000E+00        -0.52123E+08
 
   -0.53236E+08         0.20486E+06         0.00000E+00
    0.20486E+06        -0.50002E+08         0.00000E+00
    0.00000E+00         0.00000E+00        -0.52117E+08
 
   -0.53206E+08         0.24934E+06         0.00000E+00
    0.24934E+06        -0.50003E+08         0.00000E+00
    0.00000E+00         0.00000E+00        -0.52111E+08
 
   -0.53176E+08         0.29348E+06         0.00000E+00
    0.29348E+06        -0.50004E+08         0.00000E+00
    0.00000E+00         0.00000E+00        -0.52106E+08
 
   -0.53146E+08         0.33730E+06         0.00000E+00
    0.33730E+06        -0.50005E+08         0.00000E+00
    0.00000E+00         0.00000E+00        -0.52100E+08
 
   -0.53116E+08         0.38080E+06         0.00000E+00
    0.38080E+06        -0.50006E+08         0.00000E+00
    0.00000E+00         0.00000E+00        -0.52094E+08
 
   -0.53087E+08         0.42400E+06         0.00000E+00
    0.42400E+06        -0.50008E+08         0.00000E+00
    0.00000E+00         0.00000E+00        -0.52089E+08
 
   -0.53057E+08         0.46689E+06         0.00000E+00
    0.46689E+06        -0.50010E+08         0.00000E+00
    0.00000E+00         0.00000E+00        -0.52083E+08
 
   -0.53028E+08         0.50949E+06         0.00000E+00
    0.50949E+06        -0.50012E+08         0.00000E+00
    0.00000E+00         0.00000E+00        -0.52077E+08
 
   -0.52998E+08         0.55181E+06         0.00000E+00
    0.55181E+06        -0.50014E+08         0.00000E+00
    0.00000E+00         0.00000E+00        -0.52072E+08
 
   -0.52969E+08         0.59385E+06         0.00000E+00
    0.59385E+06        -0.50016E+08         0.00000E+00
    0.00000E+00         0.00000E+00        -0.52067E+08
 
   -0.52940E+08         0.63562E+06         0.00000E+00
    0.63562E+06        -0.50019E+08         0.00000E+00
    0.00000E+00         0.00000E+00        -0.52061E+08
 
   -0.52911E+08         0.67713E+06         0.00000E+00
    0.67713E+06        -0.50021E+08         0.00000E+00
    0.00000E+00         0.00000E+00        -0.52056E+08
 
   -0.52882E+08         0.71838E+06         0.00000E+00
    0.71838E+06        -0.50024E+08         0.00000E+00
    0.00000E+00         0.00000E+00        -0.52051E+08
 
   -0.52854E+08         0.75939E+06         0.00000E+00
    0.75939E+06        -0.50028E+08         0.00000E+00
    0.00000E+00         0.00000E+00        -0.52046E+08
 
   -0.52825E+08         0.80015E+06         0.00000E+00
    0.80015E+06        -0.50031E+08         0.00000E+00
    0.00000E+00         0.00000E+00        -0.52041E+08
 
   -0.52796E+08         0.84068E+06         0.00000E+00
    0.84068E+06        -0.50035E+08         0.00000E+00
    0.00000E+00         0.00000E+00        -0.52036E+08
 
   -0.52768E+08         0.88098E+06         0.00000E+00
    0.88098E+06        -0.50038E+08         0.00000E+00
    0.00000E+00         0.00000E+00        -0.52031E+08
 
   -0.52739E+08         0.92106E+06         0.00000E+00
    0.92106E+06        -0.50042E+08         0.00000E+00
    0.00000E+00         0.00000E+00        -0.52026E+08
 
   -0.52711E+08         0.96092E+06         0.00000E+00
    0.96092E+06        -0.50047E+08         0.00000E+00
    0.00000E+00         0.00000E+00        -0.52021E+08
 
   -0.52683E+08         0.10006E+07         0.00000E+00
    0.10006E+07        -0.50051E+08         0.00000E+00
    0.00000E+00         0.00000E+00        -0.52016E+08
 
   -0.52654E+08         0.10400E+07         0.00000E+00
    0.10400E+07        -0.50056E+08         0.00000E+00
    0.00000E+00         0.00000E+00        -0.52012E+08
 
   -0.52626E+08         0.10792E+07         0.00000E+00
    0.10792E+07        -0.50061E+08         0.00000E+00
    0.00000E+00         0.00000E+00        -0.52007E+08
 
   -0.52598E+08         0.11183E+07         0.00000E+00
    0.11183E+07        -0.50067E+08         0.00000E+00
    0.00000E+00         0.00000E+00        -0.52002E+08
 
   -0.52569E+08         0.11571E+07         0.00000E+00
    0.11571E+07        -0.50072E+08         0.00000E+00
    0.00000E+00         0.00000E+00        -0.51998E+08
 
   -0.52541E+08         0.11958E+07         0.00000E+00
    0.11958E+07        -0.50078E+08         0.00000E+00
    0.00000E+00         0.00000E+00        -0.51993E+08
 
   -0.52513E+08         0.12343E+07         0.00000E+00
    0.12343E+07        -0.50084E+08         0.00000E+00
    0.00000E+00         0.00000E+00        -0.51989E+08
 
   -0.52484E+08         0.12726E+07         0.00000E+00
    0.12726E+07        -0.50091E+08         0.00000E+00
    0.00000E+00         0.00000E+00        -0.51985E+08
 
   -0.52456E+08         0.13107E+07         0.00000E+00
    0.13107E+07        -0.50097E+08         0.00000E+00
    0.00000E+00         0.00000E+00        -0.51980E+08
 
   -0.52428E+08         0.13486E+07         0.00000E+00
    0.13486E+07        -0.50104E+08         0.00000E+00
    0.00000E+00         0.00000E+00        -0.51976E+08
 
   -0.52399E+08         0.13864E+07         0.00000E+00
    0.13864E+07        -0.50112E+08         0.00000E+00
    0.00000E+00         0.00000E+00        -0.51972E+08
 
   -0.52370E+08         0.14240E+07         0.00000E+00
    0.14240E+07        -0.50120E+08         0.00000E+00
    0.00000E+00         0.00000E+00        -0.51968E+08
 
   -0.52342E+08         0.14614E+07         0.00000E+00
    0.14614E+07        -0.50128E+08         0.00000E+00
    0.00000E+00         0.00000E+00        -0.51964E+08
 
   -0.52313E+08         0.14987E+07         0.00000E+00
    0.14987E+07        -0.50136E+08         0.00000E+00
    0.00000E+00         0.00000E+00        -0.51959E+08
 
   -0.52284E+08         0.15358E+07         0.00000E+00
    0.15358E+07        -0.50145E+08         0.00000E+00
    0.00000E+00         0.00000E+00        -0.51955E+08
 
   -0.52255E+08         0.15727E+07         0.00000E+00
    0.15727E+07        -0.50154E+08         0.00000E+00
    0.00000E+00         0.00000E+00        -0.51951E+08
 
   -0.52226E+08         0.16095E+07         0.00000E+00
    0.16095E+07        -0.50163E+08         0.00000E+00
    0.00000E+00         0.00000E+00        -0.51947E+08
 
   -0.52197E+08         0.16461E+07         0.00000E+00
    0.16461E+07        -0.50173E+08         0.00000E+00
    0.00000E+00         0.00000E+00        -0.51944E+08
 
   -0.52167E+08         0.16826E+07         0.00000E+00
    0.16826E+07        -0.50183E+08         0.00000E+00
    0.00000E+00         0.00000E+00        -0.51940E+08
 
   -0.52138E+08         0.17189E+07         0.00000E+00
    0.17189E+07        -0.50194E+08         0.00000E+00
    0.00000E+00         0.00000E+00        -0.51936E+08
 
   -0.52108E+08         0.17550E+07         0.00000E+00
    0.17550E+07        -0.50205E+08         0.00000E+00
    0.00000E+00         0.00000E+00        -0.51932E+08
 
   -0.52078E+08         0.17910E+07         0.00000E+00
    0.17910E+07        -0.50216E+08         0.00000E+00
    0.00000E+00         0.00000E+00        -0.51928E+08
 
   -0.52048E+08         0.18268E+07         0.00000E+00
    0.18268E+07        -0.50228E+08         0.00000E+00
    0.00000E+00         0.00000E+00        -0.51925E+08
 
   -0.52017E+08         0.18625E+07         0.00000E+00
    0.18625E+07        -0.50240E+08         0.00000E+00
    0.00000E+00         0.00000E+00        -0.51921E+08
 
   -0.51986E+08         0.18980E+07         0.00000E+00
    0.18980E+07        -0.50253E+08         0.00000E+00
    0.00000E+00         0.00000E+00        -0.51917E+08
 
   -0.51956E+08         0.19333E+07         0.00000E+00
    0.19333E+07        -0.50266E+08         0.00000E+00
    0.00000E+00         0.00000E+00        -0.51914E+08
 
   -0.51924E+08         0.19685E+07         0.00000E+00
    0.19685E+07        -0.50279E+08         0.00000E+00
    0.00000E+00         0.00000E+00        -0.51910E+08
 
   -0.53130E+08         0.22973E+05         0.00000E+00
    0.22973E+05        -0.50000E+08         0.00000E+00
    0.00000E+00         0.00000E+00        -0.51961E+08
 
   -0.53101E+08         0.68014E+05         0.00000E+00
    0.68014E+05        -0.50000E+08         0.00000E+00
    0.00000E+00         0.00000E+00        -0.51955E+08
 
   -0.53073E+08         0.11268E+06         0.00000E+00
    0.11268E+06        -0.50001E+08         0.00000E+00
    0.00000E+00         0.00000E+00        -0.51949E+08
 
   -0.53044E+08         0.15698E+06         0.00000E+00
    0.15698E+06        -0.50001E+08         0.00000E+00
    0.00000E+00         0.00000E+00        -0.51944E+08
 
   -0.53015E+08         0.20092E+06         0.00000E+00
    0.20092E+06        -0.50002E+08         0.00000E+00
    0.00000E+00         0.00000E+00        -0.51938E+08
 
   -0.52987E+08         0.24451E+06         0.00000E+00
    0.24451E+06        -0.50003E+08         0.00000E+00
    0.00000E+00         0.00000E+00        -0.51933E+08
 
   -0.52958E+08         0.28776E+06         0.00000E+00
    0.28776E+06        -0.50004E+08         0.00000E+00
    0.00000E+00         0.00000E+00        -0.51927E+08
 
   -0.52930E+08         0.33067E+06         0.00000E+00
    0.33067E+06        -0.50005E+08         0.00000E+00
    0.00000E+00         0.00000E+00        -0.51922E+08
 
   -0.52902E+08         0.37325E+06         0.00000E+00
    0.37325E+06        -0.50007E+08         0.00000E+00
    0.00000E+00         0.00000E+00        -0.51916E+08
 
   -0.52874E+08         0.41551E+06         0.00000E+00
    0.41551E+06        -0.50008E+08         0.00000E+00
    0.00000E+00         0.00000E+00        -0.51911E+08
 
   -0.52846E+08         0.45746E+06         0.00000E+00
    0.45746E+06        -0.50010E+08         0.00000E+00
    0.00000E+00         0.00000E+00        -0.51906E+08
 
   -0.52818E+08         0.49910E+06         0.00000E+00
    0.49910E+06        -0.50012E+08         0.00000E+00
    0.00000E+00         0.00000E+00        -0.51901E+08
 
   -0.52790E+08         0.54044E+06         0.00000E+00
    0.54044E+06        -0.50014E+08         0.00000E+00
    0.00000E+00         0.00000E+00        -0.51896E+08
 
   -0.52762E+08         0.58149E+06         0.00000E+00
    0.58149E+06        -0.50017E+08         0.00000E+00
    0.00000E+00         0.00000E+00        -0.51891E+08
 
   -0.52734E+08         0.62224E+06         0.00000E+00
    0.62224E+06        -0.50019E+08         0.00000E+00
    0.00000E+00         0.00000E+00        -0.51886E+08
 
   -0.52707E+08         0.66272E+06         0.00000E+00
    0.66272E+06        -0.50022E+08         0.00000E+00
    0.00000E+00         0.00000E+00        -0.51881E+08
 
   -0.52679E+08         0.70292E+06         0.00000E+00
    0.70292E+06        -0.50025E+08         0.00000E+00
    0.00000E+00         0.00000E+00        -0.51876E+08
 
   -0.52652E+08         0.74285E+06         0.00000E+00
    0.74285E+06        -0.50028E+08         0.00000E+00
    0.00000E+00         0.00000E+00        -0.51871E+08
 
   -0.52624E+08         0.78252E+06         0.00000E+00
    0.78252E+06        -0.50032E+08         0.00000E+00
    0.00000E+00         0.00000E+00        -0.51866E+08
 
   -0.52597E+08         0.82192E+06         0.00000E+00
    0.82192E+06        -0.50035E+08         0.00000E+00
    0.00000E+00         0.00000E+00        -0.51861E+08
 
   -0.52570E+08         0.86108E+06         0.00000E+00
    0.86108E+06        -0.50039E+08         0.00000E+00
    0.00000E+00         0.00000E+00        -0.51857E+08
 
   -0.52542E+08         0.89998E+06         0.00000E+00
    0.89998E+06        -0.50043E+08         0.00000E+00
    0.00000E+00         0.00000E+00        -0.51852E+08
 
   -0.52515E+08         0.93864E+06         0.00000E+00
    0.93864E+06        -0.50048E+08         0.00000E+00
    0.00000E+00         0.00000E+00        -0.51847E+08
 
   -0.52488E+08         0.97706E+06         0.00000E+00
    0.97706E+06        -0.50052E+08         0.00000E+00
    0.00000E+00         0.00000E+00        -0.51843E+08
 
   -0.52461E+08         0.10152E+07         0.00000E+00
    0.10152E+07        -0.50057E+08         0.00000E+00
    0.00000E+00         0.00000E+00        -0.51838E+08
 
   -0.52433E+08         0.10532E+07         0.00000E+00
    0.10532E+07        -0.50062E+08         0.00000E+00
    0.00000E+00         0.00000E+00        -0.51834E+08
 
   -0.52406E+08         0.10909E+07         0.00000E+00
    0.10909E+07        -0.50067E+08         0.00000E+00
    0.00000E+00         0.00000E+00        -0.51830E+08
 
   -0.52379E+08         0.11284E+07         0.00000E+00
    0.11284E+07        -0.50073E+08         0.00000E+00
    0.00000E+00         0.00000E+00        -0.51825E+08
 
   -0.52352E+08         0.11657E+07         0.00000E+00
    0.11657E+07        -0.50079E+08         0.00000E+00
    0.00000E+00         0.00000E+00        -0.51821E+08
 
   -0.52324E+08         0.12027E+07         0.00000E+00
    0.12027E+07        -0.50085E+08         0.00000E+00
    0.00000E+00         0.00000E+00        -0.51817E+08
 
   -0.52297E+08         0.12396E+07         0.00000E+00
    0.12396E+07        -0.50092E+08         0.00000E+00
    0.00000E+00         0.00000E+00        -0.51813E+08
 
   -0.52270E+08         0.12762E+07         0.00000E+00
    0.12762E+07        -0.50098E+08         0.00000E+00
    0.00000E+00         0.00000E+00        -0.51808E+08
 
   -0.52242E+08         0.13126E+07         0.00000E+00
    0.13126E+07        -0.50105E+08         0.00000E+00
    0.00000E+00         0.00000E+00        -0.51804E+08
 
   -0.52215E+08         0.13489E+07         0.00000E+00
    0.13489E+07        -0.50113E+08         0.00000E+00
    0.00000E+00         0.00000E+00        -0.51800E+08
 
   -0.52187E+08         0.13849E+07         0.00000E+00
    0.13849E+07        -0.50120E+08         0.00000E+00
    0.00000E+00         0.00000E+00        -0.51796E+08
 
   -0.52159E+08         0.14207E+07         0.00000E+00
    0.14207E+07        -0.50128E+08         0.00000E+00
    0.00000E+00         0.00000E+00        -0.51792E+08
 
   -0.52131E+08         0.14563E+07         0.00000E+00
    0.14563E+07        -0.50136E+08         0.00000E+00
    0.00000E+00         0.00000E+00        -0.51788E+08
 
   -0.52103E+08         0.14917E+07         0.00000E+00
    0.14917E+07        -0.50145E+08         0.00000E+00
    0.00000E+00         0.00000E+00        -0.51784E+08
 
   -0.52075E+08         0.15268E+07         0.00000E+00
    0.15268E+07        -0.50154E+08         0.00000E+00
    0.00000E+00         0.00000E+00        -0.51781E+08
 
   -0.52047E+08         0.15618E+07         0.00000E+00
    0.15618E+07        -0.50163E+08         0.00000E+00
    0.00000E+00         0.00000E+00        -0.51777E+08
 
   -0.52019E+08         0.15966E+07         0.00000E+00
    0.15966E+07        -0.50173E+08         0.00000E+00
    0.00000E+00         0.00000E+00        -0.51773E+08
 
   -0.51990E+08         0.16312E+07         0.00000E+00
    0.16312E+07        -0.50183E+08         0.00000E+00
    0.00000E+00         0.00000E+00        -0.51769E+08
 
   -0.51961E+08         0.16656E+07         0.00000E+00
    0.16656E+07        -0.50193E+08         0.00000E+00
    0.00000E+00         0.00000E+00        -0.51766E+08
 
   -0.51933E+08         0.16998E+07         0.00000E+00
    0.16998E+07        -0.50204E+08         0.00000E+00
    0.00000E+00         0.00000E+00        -0.51762E+08
 
   -0.51903E+08         0.17338E+07         0.00000E+00
    0.17338E+07        -0.50215E+08         0.00000E+00
    0.00000E+00         0.00000E+00        -0.51758E+08
 
   -0.51874E+08         0.17676E+07         0.00000E+00
    0.17676E+07        -0.50226E+08         0.00000E+00
    0.00000E+00         0.00000E+00        -0.51755E+08
 
   -0.51845E+08         0.18011E+07         0.00000E+00
    0.18011E+07        -0.50238E+08         0.00000E+00
    0.00000E+00         0.00000E+00        -0.51751E+08
 
   -0.51815E+08         0.18345E+07         0.00000E+00
    0.18345E+07        -0.50251E+08         0.00000E+00
    0.00000E+00         0.00000E+00        -0.51748E+08
 
   -0.51785E+08         0.18677E+07         0.00000E+00
    0.18677E+07        -0.50263E+08         0.00000E+00
    0.00000E+00         0.00000E+00        -0.51744E+08
 
   -0.51755E+08         0.19006E+07         0.00000E+00
    0.19006E+07        -0.50276E+08         0.00000E+00
    0.00000E+00         0.00000E+00        -0.51741E+08
 
   -0.52906E+08         0.22525E+05         0.00000E+00
    0.22525E+05        -0.50000E+08         0.00000E+00
    0.00000E+00         0.00000E+00        -0.51791E+08
 
   -0.52879E+08         0.66673E+05         0.00000E+00
    0.66673E+05        -0.50000E+08         0.00000E+00
    0.00000E+00         0.00000E+00        -0.51785E+08
 
   -0.52852E+08         0.11045E+06         0.00000E+00
    0.11045E+06        -0.50001E+08         0.00000E+00
    0.00000E+00         0.00000E+00        -0.51780E+08
 
   -0.52825E+08         0.15385E+06         0.00000E+00
    0.15385E+06        -0.50001E+08         0.00000E+00
    0.00000E+00         0.00000E+00        -0.51775E+08
 
   -0.52799E+08         0.19689E+06         0.00000E+00
    0.19689E+06        -0.50002E+08         0.00000E+00
    0.00000E+00         0.00000E+00        -0.51769E+08
 
   -0.52772E+08         0.23957E+06         0.00000E+00
    0.23957E+06        -0.50003E+08         0.00000E+00
    0.00000E+00         0.00000E+00        -0.51764E+08
 
   -0.52745E+08         0.28191E+06         0.00000E+00
    0.28191E+06        -0.50004E+08         0.00000E+00
    0.00000E+00         0.00000E+00        -0.51759E+08
 
   -0.52718E+08         0.32390E+06         0.00000E+00
    0.32390E+06        -0.50005E+08         0.00000E+00
    0.00000E+00         0.00000E+00        -0.51754E+08
 
   -0.52692E+08         0.36555E+06         0.00000E+00
    0.36555E+06        -0.50007E+08         0.00000E+00
    0.00000E+00         0.00000E+00        -0.51749E+08
 
   -0.52665E+08         0.40688E+06         0.00000E+00
    0.40688E+06        -0.50008E+08         0.00000E+00
    0.00000E+00         0.00000E+00        -0.51744E+08
 
   -0.52639E+08         0.44787E+06         0.00000E+00
    0.44787E+06        -0.50010E+08         0.00000E+00
    0.00000E+00         0.00000E+00        -0.51739E+08
 
   -0.52613E+08         0.48855E+06         0.00000E+00
    0.48855E+06        -0.50012E+08         0.00000E+00
    0.00000E+00         0.00000E+00        -0.51734E+08
 
   -0.52586E+08         0.52892E+06         0.00000E+00
    0.52892E+06        -0.50014E+08         0.00000E+00
    0.00000E+00         0.00000E+00        -0.51730E+08
 
   -0.52560E+08         0.56897E+06         0.00000E+00
    0.56897E+06        -0.50017E+08         0.00000E+00
    0.00000E+00         0.00000E+00        -0.51725E+08
 
   -0.52534E+08         0.60872E+06         0.00000E+00
    0.60872E+06        -0.50019E+08         0.00000E+00
    0.00000E+00         0.00000E+00        -0.51720E+08
 
   -0.52508E+08         0.64817E+06         0.00000E+00
    0.64817E+06        -0.50022E+08         0.00000E+00
    0.00000E+00         0.00000E+00        -0.51715E+08
 
   -0.52482E+08         0.68733E+06         0.00000E+00
    0.68733E+06        -0.50025E+08         0.00000E+00
    0.00000E+00         0.00000E+00        -0.51711E+08
 
   -0.52456E+08         0.72620E+06         0.00000E+00
    0.72620E+06        -0.50028E+08         0.00000E+00
    0.00000E+00         0.00000E+00        -0.51706E+08
 
   -0.52429E+08         0.76479E+06         0.00000E+00
    0.76479E+06        -0.50032E+08         0.00000E+00
    0.00000E+00         0.00000E+00        -0.51702E+08
 
   -0.52403E+08         0.80309E+06         0.00000E+00
    0.80309E+06        -0.50035E+08         0.00000E+00
    0.00000E+00         0.00000E+00        -0.51697E+08
 
   -0.52377E+08         0.84112E+06         0.00000E+00
    0.84112E+06        -0.50039E+08         0.00000E+00
    0.00000E+00         0.00000E+00        -0.51693E+08
 
   -0.52351E+08         0.87888E+06         0.00000E+00
    0.87888E+06        -0.50043E+08         0.00000E+00
    0.00000E+00         0.00000E+00        -0.51688E+08
 
   -0.52325E+08         0.91637E+06         0.00000E+00
    0.91637E+06        -0.50048E+08         0.00000E+00
    0.00000E+00         0.00000E+00        -0.51684E+08
 
   -0.52299E+08         0.95359E+06         0.00000E+00
    0.95359E+06        -0.50052E+08         0.00000E+00
    0.00000E+00         0.00000E+00        -0.51680E+08
 
   -0.52273E+08         0.99055E+06         0.00000E+00
    0.99055E+06        -0.50057E+08         0.00000E+00
    0.00000E+00         0.00000E+00        -0.51675E+08
 
   -0.52247E+08         0.10273E+07         0.00000E+00
    0.10273E+07        -0.50062E+08         0.00000E+00
    0.00000E+00         0.00000E+00        -0.51671E+08
 
   -0.52221E+08         0.10637E+07         0.00000E+00
    0.10637E+07        -0.50067E+08         0.00000E+00
    0.00000E+00         0.00000E+00        -0.51667E+08
 
   -0.52195E+08         0.10999E+07         0.00000E+00
    0.10999E+07        -0.50073E+08         0.00000E+00
    0.00000E+00         0.00000E+00        -0.51663E+08
 
   -0.52169E+08         0.11358E+07         0.00000E+00
    0.11358E+07        -0.50079E+08         0.00000E+00
    0.00000E+00         0.00000E+00        -0.51659E+08
 
   -0.52143E+08         0.11715E+07         0.00000E+00
    0.11715E+07        -0.50085E+08         0.00000E+00
    0.00000E+00         0.00000E+00        -0.51655E+08
 
   -0.52117E+08         0.12070E+07         0.00000E+00
    0.12070E+07        -0.50091E+08         0.00000E+00
    0.00000E+00         0.00000E+00        -0.51651E+08
 
   -0.52091E+08         0.12422E+07         0.00000E+00
    0.12422E+07        -0.50098E+08         0.00000E+00
    0.00000E+00         0.00000E+00        -0.51647E+08
 
   -0.52064E+08         0.12772E+07         0.00000E+00
    0.12772E+07        -0.50104E+08         0.00000E+00
    0.00000E+00         0.00000E+00        -0.51643E+08
 
   -0.52038E+08         0.13119E+07         0.00000E+00
    0.13119E+07        -0.50112E+08         0.00000E+00
    0.00000E+00         0.00000E+00        -0.51639E+08
 
   -0.52011E+08         0.13464E+07         0.00000E+00
    0.13464E+07        -0.50119E+08         0.00000E+00
    0.00000E+00         0.00000E+00        -0.51635E+08
 
   -0.51985E+08         0.13806E+07         0.00000E+00
    0.13806E+07        -0.50127E+08         0.00000E+00
    0.00000E+00         0.00000E+00        -0.51632E+08
 
   -0.51958E+08         0.14146E+07         0.00000E+00
    0.14146E+07        -0.50135E+08         0.00000E+00
    0.00000E+00         0.00000E+00        -0.51628E+08
 
   -0.51931E+08         0.14484E+07         0.00000E+00
    0.14484E+07        -0.50143E+08         0.00000E+00
    0.00000E+00         0.00000E+00        -0.51624E+08
 
   -0.51904E+08         0.14820E+07         0.00000E+00
    0.14820E+07        -0.50152E+08         0.00000E+00
    0.00000E+00         0.00000E+00        -0.51621E+08
 
   -0.51877E+08         0.15153E+07         0.00000E+00
    0.15153E+07        -0.50161E+08         0.00000E+00
    0.00000E+00         0.00000E+00        -0.51617E+08
 
   -0.51850E+08         0.15483E+07         0.00000E+00
    0.15483E+07        -0.50170E+08         0.00000E+00
    0.00000E+00         0.00000E+00        -0.51613E+08
 
   -0.51822E+08         0.15811E+07         0.00000E+00
    0.15811E+07        -0.50180E+08         0.00000E+00
    0.00000E+00         0.00000E+00        -0.51610E+08
 
   -0.51795E+08         0.16137E+07         0.00000E+00
    0.16137E+07        -0.50190E+08         0.00000E+00
    0.00000E+00         0.00000E+00        -0.51606E+08
 
   -0.51767E+08         0.16461E+07         0.00000E+00
    0.16461E+07        -0.50200E+08         0.00000E+00
    0.00000E+00         0.00000E+00        -0.51603E+08
 
   -0.51739E+08         0.16782E+07         0.00000E+00
    0.16782E+07        -0.50211E+08         0.00000E+00
    0.00000E+00         0.00000E+00        -0.51599E+08
 
   -0.51711E+08         0.17100E+07         0.00000E+00
    0.17100E+07        -0.50222E+08         0.00000E+00
    0.00000E+00         0.00000E+00        -0.51596E+08
 
   -0.51682E+08         0.17417E+07         0.00000E+00
    0.17417E+07        -0.50234E+08         0.00000E+00
    0.00000E+00         0.00000E+00        -0.51593E+08
 
   -0.51654E+08         0.17730E+07         0.00000E+00
    0.17730E+07        -0.50246E+08         0.00000E+00
    0.00000E+00         0.00000E+00        -0.51589E+08
 
   -0.51625E+08         0.18042E+07         0.00000E+00
    0.18042E+07        -0.50258E+08         0.00000E+00
    0.00000E+00         0.00000E+00        -0.51586E+08
 
   -0.51596E+08         0.18350E+07         0.00000E+00
    0.18350E+07        -0.50270E+08         0.00000E+00
    0.00000E+00         0.00000E+00        -0.51583E+08
 
   -0.52687E+08         0.22073E+05         0.00000E+00
    0.22073E+05        -0.50000E+08         0.00000E+00
    0.00000E+00         0.00000E+00        -0.51630E+08
 
   -0.52662E+08         0.65320E+05         0.00000E+00
    0.65320E+05        -0.50000E+08         0.00000E+00
    0.00000E+00         0.00000E+00        -0.51625E+08
 
   -0.52637E+08         0.10819E+06         0.00000E+00
    0.10819E+06        -0.50001E+08         0.00000E+00
    0.00000E+00         0.00000E+00        -0.51620E+08
 
   -0.52612E+08         0.15070E+06         0.00000E+00
    0.15070E+06        -0.50001E+08         0.00000E+00
    0.00000E+00         0.00000E+00        -0.51615E+08
 
   -0.52587E+08         0.19283E+06         0.00000E+00
    0.19283E+06        -0.50002E+08         0.00000E+00
    0.00000E+00         0.00000E+00        -0.51610E+08
 
   -0.52562E+08         0.23461E+06         0.00000E+00
    0.23461E+06        -0.50003E+08         0.00000E+00
    0.00000E+00         0.00000E+00        -0.51605E+08
 
   -0.52537E+08         0.27604E+06         0.00000E+00
    0.27604E+06        -0.50004E+08         0.00000E+00
    0.00000E+00         0.00000E+00        -0.51601E+08
 
   -0.52512E+08         0.31711E+06         0.00000E+00
    0.31711E+06        -0.50005E+08         0.00000E+00
    0.00000E+00         0.00000E+00        -0.51596E+08
 
   -0.52487E+08         0.35784E+06         0.00000E+00
    0.35784E+06        -0.50007E+08         0.00000E+00
    0.00000E+00         0.00000E+00        -0.51591E+08
 
   -0.52462E+08         0.39824E+06         0.00000E+00
    0.39824E+06        -0.50008E+08         0.00000E+00
    0.00000E+00         0.00000E+00        -0.51587E+08
 
   -0.52437E+08         0.43829E+06         0.00000E+00
    0.43829E+06        -0.50010E+08         0.00000E+00
    0.00000E+00         0.00000E+00        -0.51582E+08
 
   -0.52412E+08         0.47802E+06         0.00000E+00
    0.47802E+06        -0.50012E+08         0.00000E+00
    0.00000E+00         0.00000E+00        -0.51578E+08
 
   -0.52388E+08         0.51742E+06         0.00000E+00
    0.51742E+06        -0.50014E+08         0.00000E+00
    0.00000E+00         0.00000E+00        -0.51573E+08
 
   -0.52363E+08         0.55650E+06         0.00000E+00
    0.55650E+06        -0.50017E+08         0.00000E+00
    0.00000E+00         0.00000E+00        -0.51569E+08
 
   -0.52338E+08         0.59527E+06         0.00000E+00
    0.59527E+06        -0.50019E+08         0.00000E+00
    0.00000E+00         0.00000E+00        -0.51564E+08
 
   -0.52314E+08         0.63372E+06         0.00000E+00
    0.63372E+06        -0.50022E+08         0.00000E+00
    0.00000E+00         0.00000E+00        -0.51560E+08
 
   -0.52289E+08         0.67186E+06         0.00000E+00
    0.67186E+06        -0.50025E+08         0.00000E+00
    0.00000E+00         0.00000E+00        -0.51555E+08
 
   -0.52264E+08         0.70970E+06         0.00000E+00
    0.70970E+06        -0.50028E+08         0.00000E+00
    0.00000E+00         0.00000E+00        -0.51551E+08
 
   -0.52240E+08         0.74723E+06         0.00000E+00
    0.74723E+06        -0.50031E+08         0.00000E+00
    0.00000E+00         0.00000E+00        -0.51547E+08
 
   -0.52215E+08         0.78447E+06         0.00000E+00
    0.78447E+06        -0.50035E+08         0.00000E+00
    0.00000E+00         0.00000E+00        -0.51543E+08
 
   -0.52191E+08         0.82141E+06         0.00000E+00
    0.82141E+06        -0.50039E+08         0.00000E+00
    0.00000E+00         0.00000E+00        -0.51539E+08
 
   -0.52166E+08         0.85806E+06         0.00000E+00
    0.85806E+06        -0.50043E+08         0.00000E+00
    0.00000E+00         0.00000E+00        -0.51534E+08
 
   -0.52141E+08         0.89442E+06         0.00000E+00
    0.89442E+06        -0.50047E+08         0.00000E+00
    0.00000E+00         0.00000E+00        -0.51530E+08
 
   -0.52117E+08         0.93049E+06         0.00000E+00
    0.93049E+06        -0.50052E+08         0.00000E+00
    0.00000E+00         0.00000E+00        -0.51526E+08
 
   -0.52092E+08         0.96628E+06         0.00000E+00
    0.96628E+06        -0.50056E+08         0.00000E+00
    0.00000E+00         0.00000E+00        -0.51522E+08
 
   -0.52068E+08         0.10018E+07         0.00000E+00
    0.10018E+07        -0.50061E+08         0.00000E+00
    0.00000E+00         0.00000E+00        -0.51518E+08
 
   -0.52043E+08         0.10370E+07         0.00000E+00
    0.10370E+07        -0.50066E+08         0.00000E+00
    0.00000E+00         0.00000E+00        -0.51514E+08
 
   -0.52018E+08         0.10720E+07         0.00000E+00
    0.10720E+07        -0.50072E+08         0.00000E+00
    0.00000E+00         0.00000E+00        -0.51511E+08
 
   -0.51993E+08         0.11066E+07         0.00000E+00
    0.11066E+07        -0.50077E+08         0.00000E+00
    0.00000E+00         0.00000E+00        -0.51507E+08
 
   -0.51968E+08         0.11410E+07         0.00000E+00
    0.11410E+07        -0.50083E+08         0.00000E+00
    0.00000E+00         0.00000E+00        -0.51503E+08
 
   -0.51944E+08         0.11752E+07         0.00000E+00
    0.11752E+07        -0.50089E+08         0.00000E+00
    0.00000E+00         0.00000E+00        -0.51499E+08
 
   -0.51919E+08         0.12090E+07         0.00000E+00
    0.12090E+07        -0.50096E+08         0.00000E+00
    0.00000E+00         0.00000E+00        -0.51495E+08
 
   -0.51893E+08         0.12426E+07         0.00000E+00
    0.12426E+07        -0.50102E+08         0.00000E+00
    0.00000E+00         0.00000E+00        -0.51492E+08
 
   -0.51868E+08         0.12759E+07         0.00000E+00
    0.12759E+07        -0.50109E+08         0.00000E+00
    0.00000E+00         0.00000E+00        -0.51488E+08
 
   -0.51843E+08         0.13090E+07         0.00000E+00
    0.13090E+07        -0.50116E+08         0.00000E+00
    0.00000E+00         0.00000E+00        -0.51485E+08
 
   -0.51818E+08         0.13418E+07         0.00000E+00
    0.13418E+07        -0.50124E+08         0.00000E+00
    0.00000E+00         0.00000E+00        -0.51481E+08
 
   -0.51792E+08         0.13743E+07         0.00000E+00
    0.13743E+07        -0.50132E+08         0.00000E+00
    0.00000E+00         0.00000E+00        -0.51477E+08
 
   -0.51767E+08         0.14065E+07         0.00000E+00
    0.14065E+07        -0.50140E+08         0.00000E+00
    0.00000E+00         0.00000E+00        -0.51474E+08
 
   -0.51741E+08         0.14385E+07         0.00000E+00
    0.14385E+07        -0.50148E+08         0.00000E+00
    0.00000E+00         0.00000E+00        -0.51470E+08
 
   -0.51715E+08         0.14702E+07         0.00000E+00
    0.14702E+07        -0.50157E+08         0.00000E+00
    0.00000E+00         0.00000E+00        -0.51467E+08
 
   -0.51689E+08         0.15016E+07         0.00000E+00
    0.15016E+07        -0.50166E+08         0.00000E+00
    0.00000E+00         0.00000E+00        -0.51464E+08
 
   -0.51663E+08         0.15328E+07         0.00000E+00
    0.15328E+07        -0.50175E+08         0.00000E+00
    0.00000E+00         0.00000E+00        -0.51460E+08
 
   -0.51637E+08         0.15637E+07         0.00000E+00
    0.15637E+07        -0.50185E+08         0.00000E+00
    0.00000E+00         0.00000E+00        -0.51457E+08
 
   -0.51610E+08         0.15943E+07         0.00000E+00
    0.15943E+07        -0.50195E+08         0.00000E+00
    0.00000E+00         0.00000E+00        -0.51454E+08
 
   -0.51583E+08         0.16247E+07         0.00000E+00
    0.16247E+07        -0.50205E+08         0.00000E+00
    0.00000E+00         0.00000E+00        -0.51450E+08
 
   -0.51556E+08         0.16548E+07         0.00000E+00
    0.16548E+07        -0.50216E+08         0.00000E+00
    0.00000E+00         0.00000E+00        -0.51447E+08
 
   -0.51529E+08         0.16845E+07         0.00000E+00
    0.16845E+07        -0.50227E+08         0.00000E+00
    0.00000E+00         0.00000E+00        -0.51444E+08
 
   -0.51502E+08         0.17141E+07         0.00000E+00
    0.17141E+07        -0.50238E+08         0.00000E+00
    0.00000E+00         0.00000E+00        -0.51441E+08
 
   -0.51474E+08         0.17433E+07         0.00000E+00
    0.17433E+07        -0.50250E+08         0.00000E+00
    0.00000E+00         0.00000E+00        -0.51437E+08
 
   -0.51447E+08         0.17722E+07         0.00000E+00
    0.17722E+07        -0.50262E+08         0.00000E+00
    0.00000E+00         0.00000E+00        -0.51434E+08
 
   -0.52472E+08         0.21623E+05         0.00000E+00
    0.21623E+05        -0.50000E+08         0.00000E+00
    0.00000E+00         0.00000E+00        -0.51478E+08
 
   -0.52449E+08         0.63980E+05         0.00000E+00
    0.63980E+05        -0.50000E+08         0.00000E+00
    0.00000E+00         0.00000E+00        -0.51474E+08
 
   -0.52425E+08         0.10596E+06         0.00000E+00
    0.10596E+06        -0.50001E+08         0.00000E+00
    0.00000E+00         0.00000E+00        -0.51469E+08
 
   -0.52402E+08         0.14758E+06         0.00000E+00
    0.14758E+06        -0.50001E+08         0.00000E+00
    0.00000E+00         0.00000E+00        -0.51465E+08
 
   -0.52379E+08         0.18882E+06         0.00000E+00
    0.18882E+06        -0.50002E+08         0.00000E+00
    0.00000E+00         0.00000E+00        -0.51460E+08
 
   -0.52356E+08         0.22971E+06         0.00000E+00
    0.22971E+06        -0.50003E+08         0.00000E+00
    0.00000E+00         0.00000E+00        -0.51456E+08
 
   -0.52333E+08         0.27024E+06         0.00000E+00
    0.27024E+06        -0.50004E+08         0.00000E+00
    0.00000E+00         0.00000E+00        -0.51451E+08
 
   -0.52309E+08         0.31042E+06         0.00000E+00
    0.31042E+06        -0.50005E+08         0.00000E+00
    0.00000E+00         0.00000E+00        -0.51447E+08
 
   -0.52286E+08         0.35025E+06         0.00000E+00
    0.35025E+06        -0.50006E+08         0.00000E+00
    0.00000E+00         0.00000E+00        -0.51442E+08
 
   -0.52263E+08         0.38973E+06         0.00000E+00
    0.38973E+06        -0.50008E+08         0.00000E+00
    0.00000E+00         0.00000E+00        -0.51438E+08
 
   -0.52240E+08         0.42887E+06         0.00000E+00
    0.42887E+06        -0.50010E+08         0.00000E+00
    0.00000E+00         0.00000E+00        -0.51434E+08
 
   -0.52217E+08         0.46767E+06         0.00000E+00
    0.46767E+06        -0.50012E+08         0.00000E+00
    0.00000E+00         0.00000E+00        -0.51430E+08
 
   -0.52194E+08         0.50614E+06         0.00000E+00
    0.50614E+06        -0.50014E+08         0.00000E+00
    0.00000E+00         0.00000E+00        -0.51426E+08
 
   -0.52171E+08         0.54427E+06         0.00000E+00
    0.54427E+06        -0.50016E+08         0.00000E+00
    0.00000E+00         0.00000E+00        -0.51421E+08
 
   -0.52148E+08         0.58208E+06         0.00000E+00
    0.58208E+06        -0.50019E+08         0.00000E+00
    0.00000E+00         0.00000E+00        -0.51417E+08
 
   -0.52125E+08         0.61956E+06         0.00000E+00
    0.61956E+06        -0.50021E+08         0.00000E+00
    0.00000E+00         0.00000E+00        -0.51413E+08
 
   -0.52102E+08         0.65672E+06         0.00000E+00
    0.65672E+06        -0.50024E+08         0.00000E+00
    0.00000E+00         0.00000E+00        -0.51409E+08
 
   -0.52079E+08         0.69356E+06         0.00000E+00
    0.69356E+06        -0.50027E+08         0.00000E+00
    0.00000E+00         0.00000E+00        -0.51405E+08
 
   -0.52055E+08         0.73008E+06         0.00000E+00
    0.73008E+06        -0.50031E+08         0.00000E+00
    0.00000E+00         0.00000E+00        -0.51401E+08
 
   -0.52032E+08         0.76629E+06         0.00000E+00
    0.76629E+06        -0.50034E+08         0.00000E+00
    0.00000E+00         0.00000E+00        -0.51397E+08
 
   -0.52009E+08         0.80219E+06         0.00000E+00
    0.80219E+06        -0.50038E+08         0.00000E+00
    0.00000E+00         0.00000E+00        -0.51393E+08
 
   -0.51986E+08         0.83778E+06         0.00000E+00
    0.83778E+06        -0.50042E+08         0.00000E+00
    0.00000E+00         0.00000E+00        -0.51390E+08
 
   -0.51963E+08         0.87306E+06         0.00000E+00
    0.87306E+06        -0.50046E+08         0.00000E+00
    0.00000E+00         0.00000E+00        -0.51386E+08
 
   -0.51940E+08         0.90803E+06         0.00000E+00
    0.90803E+06        -0.50050E+08         0.00000E+00
    0.00000E+00         0.00000E+00        -0.51382E+08
 
   -0.51917E+08         0.94270E+06         0.00000E+00
    0.94270E+06        -0.50055E+08         0.00000E+00
    0.00000E+00         0.00000E+00        -0.51378E+08
 
   -0.51894E+08         0.97707E+06         0.00000E+00
    0.97707E+06        -0.50059E+08         0.00000E+00
    0.00000E+00         0.00000E+00        -0.51375E+08
 
   -0.51870E+08         0.10111E+07         0.00000E+00
    0.10111E+07        -0.50064E+08         0.00000E+00
    0.00000E+00         0.00000E+00        -0.51371E+08
 
   -0.51847E+08         0.10449E+07         0.00000E+00
    0.10449E+07        -0.50069E+08         0.00000E+00
    0.00000E+00         0.00000E+00        -0.51367E+08
 
   -0.51824E+08         0.10784E+07         0.00000E+00
    0.10784E+07        -0.50075E+08         0.00000E+00
    0.00000E+00         0.00000E+00        -0.51364E+08
 
   -0.51800E+08         0.11116E+07         0.00000E+00
    0.11116E+07        -0.50081E+08         0.00000E+00
    0.00000E+00         0.00000E+00        -0.51360E+08
 
   -0.51777E+08         0.11444E+07         0.00000E+00
    0.11444E+07        -0.50086E+08         0.00000E+00
    0.00000E+00         0.00000E+00        -0.51357E+08
 
   -0.51753E+08         0.11770E+07         0.00000E+00
    0.11770E+07        -0.50093E+08         0.00000E+00
    0.00000E+00         0.00000E+00        -0.51353E+08
 
   -0.51729E+08         0.12093E+07         0.00000E+00
    0.12093E+07        -0.50099E+08         0.00000E+00
    0.00000E+00         0.00000E+00        -0.51350E+08
 
   -0.51706E+08         0.12413E+07         0.00000E+00
    0.12413E+07        -0.50106E+08         0.00000E+00
    0.00000E+00         0.00000E+00        -0.51346E+08
 
   -0.51682E+08         0.12730E+07         0.00000E+00
    0.12730E+07        -0.50112E+08         0.00000E+00
    0.00000E+00         0.00000E+00        -0.51343E+08
 
   -0.51658E+08         0.13044E+07         0.00000E+00
    0.13044E+07        -0.50120E+08         0.00000E+00
    0.00000E+00         0.00000E+00        -0.51339E+08
 
   -0.51634E+08         0.13355E+07         0.00000E+00
    0.13355E+07        -0.50127E+08         0.00000E+00
    0.00000E+00         0.00000E+00        -0.51336E+08
 
   -0.51610E+08         0.13663E+07         0.00000E+00
    0.13663E+07        -0.50135E+08         0.00000E+00
    0.00000E+00         0.00000E+00        -0.51333E+08
 
   -0.51585E+08         0.13968E+07         0.00000E+00
    0.13968E+07        -0.50143E+08         0.00000E+00
    0.00000E+00         0.00000E+00        -0.51330E+08
 
   -0.51561E+08         0.14271E+07         0.00000E+00
    0.14271E+07        -0.50151E+08         0.00000E+00
    0.00000E+00         0.00000E+00        -0.51326E+08
 
   -0.51536E+08         0.14570E+07         0.00000E+00
    0.14570E+07        -0.50160E+08         0.00000E+00
    0.00000E+00         0.00000E+00        -0.51323E+08
 
   -0.51512E+08         0.14866E+07         0.00000E+00
    0.14866E+07        -0.50168E+08         0.00000E+00
    0.00000E+00         0.00000E+00        -0.51320E+08
 
   -0.51487E+08         0.15159E+07         0.00000E+00
    0.15159E+07        -0.50178E+08         0.00000E+00
    0.00000E+00         0.00000E+00        -0.51317E+08
 
   -0.51462E+08         0.15449E+07         0.00000E+00
    0.15449E+07        -0.50187E+08         0.00000E+00
    0.00000E+00         0.00000E+00        -0.51314E+08
 
   -0.51436E+08         0.15737E+07         0.00000E+00
    0.15737E+07        -0.50197E+08         0.00000E+00
    0.00000E+00         0.00000E+00        -0.51311E+08
 
   -0.51411E+08         0.16021E+07         0.00000E+00
    0.16021E+07        -0.50207E+08         0.00000E+00
    0.00000E+00         0.00000E+00        -0.51308E+08
 
   -0.51385E+08         0.16302E+07         0.00000E+00
    0.16302E+07        -0.50217E+08         0.00000E+00
    0.00000E+00         0.00000E+00        -0.51304E+08
 
   -0.51360E+08         0.16579E+07         0.00000E+00
    0.16579E+07        -0.50228E+08         0.00000E+00
    0.00000E+00         0.00000E+00        -0.51301E+08
 
   -0.51333E+08         0.16854E+07         0.00000E+00
    0.16854E+07        -0.50239E+08         0.00000E+00
    0.00000E+00         0.00000E+00        -0.51298E+08
 
   -0.51307E+08         0.17126E+07         0.00000E+00
    0.17126E+07        -0.50251E+08         0.00000E+00
    0.00000E+00         0.00000E+00        -0.51296E+08
 
   -0.52261E+08         0.21184E+05         0.00000E+00
    0.21184E+05        -0.50000E+08         0.00000E+00
    0.00000E+00         0.00000E+00        -0.51335E+08
 
   -0.52240E+08         0.62672E+05         0.00000E+00
    0.62672E+05        -0.50000E+08         0.00000E+00
    0.00000E+00         0.00000E+00        -0.51331E+08
 
   -0.52219E+08         0.10379E+06         0.00000E+00
    0.10379E+06        -0.50001E+08         0.00000E+00
    0.00000E+00         0.00000E+00        -0.51327E+08
 
   -0.52197E+08         0.14454E+06         0.00000E+00
    0.14454E+06        -0.50001E+08         0.00000E+00
    0.00000E+00         0.00000E+00        -0.51322E+08
 
   -0.52176E+08         0.18492E+06         0.00000E+00
    0.18492E+06        -0.50002E+08         0.00000E+00
    0.00000E+00         0.00000E+00        -0.51318E+08
 
   -0.52154E+08         0.22495E+06         0.00000E+00
    0.22495E+06        -0.50003E+08         0.00000E+00
    0.00000E+00         0.00000E+00        -0.51314E+08
 
   -0.52133E+08         0.26461E+06         0.00000E+00
    0.26461E+06        -0.50004E+08         0.00000E+00
    0.00000E+00         0.00000E+00        -0.51310E+08
 
   -0.52112E+08         0.30392E+06         0.00000E+00
    0.30392E+06        -0.50005E+08         0.00000E+00
    0.00000E+00         0.00000E+00        -0.51306E+08
 
   -0.52090E+08         0.34287E+06         0.00000E+00
    0.34287E+06        -0.50006E+08         0.00000E+00
    0.00000E+00         0.00000E+00        -0.51302E+08
 
   -0.52069E+08         0.38148E+06         0.00000E+00
    0.38148E+06        -0.50008E+08         0.00000E+00
    0.00000E+00         0.00000E+00        -0.51298E+08
 
   -0.52047E+08         0.41973E+06         0.00000E+00
    0.41973E+06        -0.50009E+08         0.00000E+00
    0.00000E+00         0.00000E+00        -0.51294E+08
 
   -0.52026E+08         0.45765E+06         0.00000E+00
    0.45765E+06        -0.50011E+08         0.00000E+00
    0.00000E+00         0.00000E+00        -0.51290E+08
 
   -0.52005E+08         0.49521E+06         0.00000E+00
    0.49521E+06        -0.50013E+08         0.00000E+00
    0.00000E+00         0.00000E+00        -0.51286E+08
 
   -0.51983E+08         0.53244E+06         0.00000E+00
    0.53244E+06        -0.50016E+08         0.00000E+00
    0.00000E+00         0.00000E+00        -0.51283E+08
 
   -0.51962E+08         0.56934E+06         0.00000E+00
    0.56934E+06        -0.50018E+08         0.00000E+00
    0.00000E+00         0.00000E+00        -0.51279E+08
 
   -0.51940E+08         0.60589E+06         0.00000E+00
    0.60589E+06        -0.50021E+08         0.00000E+00
    0.00000E+00         0.00000E+00        -0.51275E+08
 
   -0.51919E+08         0.64211E+06         0.00000E+00
    0.64211E+06        -0.50023E+08         0.00000E+00
    0.00000E+00         0.00000E+00        -0.51271E+08
 
   -0.51898E+08         0.67801E+06         0.00000E+00
    0.67801E+06        -0.50026E+08         0.00000E+00
    0.00000E+00         0.00000E+00        -0.51268E+08
 
   -0.51876E+08         0.71357E+06         0.00000E+00
    0.71357E+06        -0.50029E+08         0.00000E+00
    0.00000E+00         0.00000E+00        -0.51264E+08
 
   -0.51855E+08         0.74880E+06         0.00000E+00
    0.74880E+06        -0.50033E+08         0.00000E+00
    0.00000E+00         0.00000E+00        -0.51260E+08
 
   -0.51833E+08         0.78371E+06         0.00000E+00
    0.78371E+06        -0.50036E+08         0.00000E+00
    0.00000E+00         0.00000E+00        -0.51257E+08
 
   -0.51812E+08         0.81829E+06         0.00000E+00
    0.81829E+06        -0.50040E+08         0.00000E+00
    0.00000E+00         0.00000E+00        -0.51253E+08
 
   -0.51790E+08         0.85255E+06         0.00000E+00
    0.85255E+06        -0.50044E+08         0.00000E+00
    0.00000E+00         0.00000E+00        -0.51250E+08
 
   -0.51768E+08         0.88649E+06         0.00000E+00
    0.88649E+06        -0.50048E+08         0.00000E+00
    0.00000E+00         0.00000E+00        -0.51246E+08
 
   -0.51747E+08         0.92011E+06         0.00000E+00
    0.92011E+06        -0.50052E+08         0.00000E+00
    0.00000E+00         0.00000E+00        -0.51243E+08
 
   -0.51725E+08         0.95340E+06         0.00000E+00
    0.95340E+06        -0.50057E+08         0.00000E+00
    0.00000E+00         0.00000E+00        -0.51239E+08
 
   -0.51703E+08         0.98638E+06         0.00000E+00
    0.98638E+06        -0.50062E+08         0.00000E+00
    0.00000E+00         0.00000E+00        -0.51236E+08
 
   -0.51682E+08         0.10190E+07         0.00000E+00
    0.10190E+07        -0.50066E+08         0.00000E+00
    0.00000E+00         0.00000E+00        -0.51232E+08
 
   -0.51660E+08         0.10514E+07         0.00000E+00
    0.10514E+07        -0.50072E+08         0.00000E+00
    0.00000E+00         0.00000E+00        -0.51229E+08
 
   -0.51638E+08         0.10834E+07         0.00000E+00
    0.10834E+07        -0.50077E+08         0.00000E+00
    0.00000E+00         0.00000E+00        -0.51226E+08
 
   -0.51616E+08         0.11151E+07         0.00000E+00
    0.11151E+07        -0.50083E+08         0.00000E+00
    0.00000E+00         0.00000E+00        -0.51222E+08
 
   -0.51594E+08         0.11465E+07         0.00000E+00
    0.11465E+07        -0.50088E+08         0.00000E+00
    0.00000E+00         0.00000E+00        -0.51219E+08
 
   -0.51572E+08         0.11776E+07         0.00000E+00
    0.11776E+07        -0.50094E+08         0.00000E+00
    0.00000E+00         0.00000E+00        -0.51216E+08
 
   -0.51550E+08         0.12083E+07         0.00000E+00
    0.12083E+07        -0.50101E+08         0.00000E+00
    0.00000E+00         0.00000E+00        -0.51213E+08
 
   -0.51527E+08         0.12388E+07         0.00000E+00
    0.12388E+07        -0.50107E+08         0.00000E+00
    0.00000E+00         0.00000E+00        -0.51210E+08
 
   -0.51505E+08         0.12689E+07         0.00000E+00
    0.12689E+07        -0.50114E+08         0.00000E+00
    0.00000E+00         0.00000E+00        -0.51207E+08
 
   -0.51482E+08         0.12987E+07         0.00000E+00
    0.12987E+07        -0.50121E+08         0.00000E+00
    0.00000E+00         0.00000E+00        -0.51203E+08
 
   -0.51460E+08         0.13282E+07         0.00000E+00
    0.13282E+07        -0.50128E+08         0.00000E+00
    0.00000E+00         0.00000E+00        -0.51200E+08
 
   -0.51437E+08         0.13573E+07         0.00000E+00
    0.13573E+07        -0.50136E+08         0.00000E+00
    0.00000E+00         0.00000E+00        -0.51197E+08
 
   -0.51414E+08         0.13862E+07         0.00000E+00
    0.13862E+07        -0.50144E+08         0.00000E+00
    0.00000E+00         0.00000E+00        -0.51194E+08
 
   -0.51391E+08         0.14147E+07         0.00000E+00
    0.14147E+07        -0.50152E+08         0.00000E+00
    0.00000E+00         0.00000E+00        -0.51191E+08
 
   -0.51368E+08         0.14429E+07         0.00000E+00
    0.14429E+07        -0.50160E+08         0.00000E+00
    0.00000E+00         0.00000E+00        -0.51188E+08
 
   -0.51345E+08         0.14707E+07         0.00000E+00
    0.14707E+07        -0.50169E+08         0.00000E+00
    0.00000E+00         0.00000E+00        -0.51185E+08
 
   -0.51321E+08         0.14983E+07         0.00000E+00
    0.14983E+07        -0.50178E+08         0.00000E+00
    0.00000E+00         0.00000E+00        -0.51182E+08
 
   -0.51297E+08         0.15255E+07         0.00000E+00
    0.15255E+07        -0.50187E+08         0.00000E+00
    0.00000E+00         0.00000E+00        -0.51180E+08
 
   -0.51274E+08         0.15523E+07         0.00000E+00
    0.15523E+07        -0.50196E+08         0.00000E+00
    0.00000E+00         0.00000E+00        -0.51177E+08
 
   -0.51250E+08         0.15789E+07         0.00000E+00
    0.15789E+07        -0.50206E+08         0.00000E+00
    0.00000E+00         0.00000E+00        -0.51174E+08
 
   -0.51225E+08         0.16050E+07         0.00000E+00
    0.16050E+07        -0.50216E+08         0.00000E+00
    0.00000E+00         0.00000E+00        -0.51171E+08
 
   -0.51201E+08         0.16309E+07         0.00000E+00
    0.16309E+07        -0.50226E+08         0.00000E+00
    0.00000E+00         0.00000E+00        -0.51168E+08
 
   -0.51176E+08         0.16564E+07         0.00000E+00
    0.16564E+07        -0.50237E+08         0.00000E+00
    0.00000E+00         0.00000E+00        -0.51165E+08
 
   -0.52055E+08         0.20762E+05         0.00000E+00
    0.20762E+05        -0.50000E+08         0.00000E+00
    0.00000E+00         0.00000E+00        -0.51199E+08
 
   -0.52036E+08         0.61418E+05         0.00000E+00
    0.61418E+05        -0.50000E+08         0.00000E+00
    0.00000E+00         0.00000E+00        -0.51196E+08
 
   -0.52016E+08         0.10171E+06         0.00000E+00
    0.10171E+06        -0.50001E+08         0.00000E+00
    0.00000E+00         0.00000E+00        -0.51192E+08
 
   -0.51996E+08         0.14163E+06         0.00000E+00
    0.14163E+06        -0.50001E+08         0.00000E+00
    0.00000E+00         0.00000E+00        -0.51188E+08
 
   -0.51977E+08         0.18119E+06         0.00000E+00
    0.18119E+06        -0.50002E+08         0.00000E+00
    0.00000E+00         0.00000E+00        -0.51184E+08
 
   -0.51957E+08         0.22039E+06         0.00000E+00
    0.22039E+06        -0.50003E+08         0.00000E+00
    0.00000E+00         0.00000E+00        -0.51180E+08
 
   -0.51938E+08         0.25922E+06         0.00000E+00
    0.25922E+06        -0.50004E+08         0.00000E+00
    0.00000E+00         0.00000E+00        -0.51177E+08
 
   -0.51918E+08         0.29770E+06         0.00000E+00
    0.29770E+06        -0.50005E+08         0.00000E+00
    0.00000E+00         0.00000E+00        -0.51173E+08
 
   -0.51898E+08         0.33583E+06         0.00000E+00
    0.33583E+06        -0.50006E+08         0.00000E+00
    0.00000E+00         0.00000E+00        -0.51169E+08
 
   -0.51879E+08         0.37360E+06         0.00000E+00
    0.37360E+06        -0.50007E+08         0.00000E+00
    0.00000E+00         0.00000E+00        -0.51166E+08
 
   -0.51859E+08         0.41102E+06         0.00000E+00
    0.41102E+06        -0.50009E+08         0.00000E+00
    0.00000E+00         0.00000E+00        -0.51162E+08
 
   -0.51839E+08         0.44808E+06         0.00000E+00
    0.44808E+06        -0.50011E+08         0.00000E+00
    0.00000E+00         0.00000E+00        -0.51158E+08
 
   -0.51820E+08         0.48480E+06         0.00000E+00
    0.48480E+06        -0.50013E+08         0.00000E+00
    0.00000E+00         0.00000E+00        -0.51155E+08
 
   -0.51800E+08         0.52118E+06         0.00000E+00
    0.52118E+06        -0.50015E+08         0.00000E+00
    0.00000E+00         0.00000E+00        -0.51151E+08
 
   -0.51780E+08         0.55720E+06         0.00000E+00
    0.55720E+06        -0.50017E+08         0.00000E+00
    0.00000E+00         0.00000E+00        -0.51148E+08
 
   -0.51761E+08         0.59289E+06         0.00000E+00
    0.59289E+06        -0.50020E+08         0.00000E+00
    0.00000E+00         0.00000E+00        -0.51144E+08
 
   -0.51741E+08         0.62823E+06         0.00000E+00
    0.62823E+06        -0.50022E+08         0.00000E+00
    0.00000E+00         0.00000E+00        -0.51141E+08
 
   -0.51721E+08         0.66322E+06         0.00000E+00
    0.66322E+06        -0.50025E+08         0.00000E+00
    0.00000E+00         0.00000E+00        -0.51138E+08
 
   -0.51701E+08         0.69788E+06         0.00000E+00
    0.69788E+06        -0.50028E+08         0.00000E+00
    0.00000E+00         0.00000E+00        -0.51134E+08
 
   -0.51682E+08         0.73220E+06         0.00000E+00
    0.73220E+06        -0.50031E+08         0.00000E+00
    0.00000E+00         0.00000E+00        -0.51131E+08
 
   -0.51662E+08         0.76618E+06         0.00000E+00
    0.76618E+06        -0.50034E+08         0.00000E+00
    0.00000E+00         0.00000E+00        -0.51128E+08
 
   -0.51642E+08         0.79982E+06         0.00000E+00
    0.79982E+06        -0.50038E+08         0.00000E+00
    0.00000E+00         0.00000E+00        -0.51124E+08
 
   -0.51622E+08         0.83313E+06         0.00000E+00
    0.83313E+06        -0.50041E+08         0.00000E+00
    0.00000E+00         0.00000E+00        -0.51121E+08
 
   -0.51602E+08         0.86609E+06         0.00000E+00
    0.86609E+06        -0.50045E+08         0.00000E+00
    0.00000E+00         0.00000E+00        -0.51118E+08
 
   -0.51582E+08         0.89873E+06         0.00000E+00
    0.89873E+06        -0.50049E+08         0.00000E+00
    0.00000E+00         0.00000E+00        -0.51115E+08
 
   -0.51562E+08         0.93102E+06         0.00000E+00
    0.93102E+06        -0.50054E+08         0.00000E+00
    0.00000E+00         0.00000E+00        -0.51112E+08
 
   -0.51542E+08         0.96298E+06         0.00000E+00
    0.96298E+06        -0.50058E+08         0.00000E+00
    0.00000E+00         0.00000E+00        -0.51108E+08
 
   -0.51522E+08         0.99461E+06         0.00000E+00
    0.99461E+06        -0.50063E+08         0.00000E+00
    0.00000E+00         0.00000E+00        -0.51105E+08
 
   -0.51502E+08         0.10259E+07         0.00000E+00
    0.10259E+07        -0.50067E+08         0.00000E+00
    0.00000E+00         0.00000E+00        -0.51102E+08
 
   -0.51481E+08         0.10569E+07         0.00000E+00
    0.10569E+07        -0.50072E+08         0.00000E+00
    0.00000E+00         0.00000E+00        -0.51099E+08
 
   -0.51461E+08         0.10875E+07         0.00000E+00
    0.10875E+07        -0.50078E+08         0.00000E+00
    0.00000E+00         0.00000E+00        -0.51096E+08
 
   -0.51441E+08         0.11178E+07         0.00000E+00
    0.11178E+07        -0.50083E+08         0.00000E+00
    0.00000E+00         0.00000E+00        -0.51093E+08
 
   -0.51420E+08         0.11477E+07         0.00000E+00
    0.11477E+07        -0.50089E+08         0.00000E+00
    0.00000E+00         0.00000E+00        -0.51090E+08
 
   -0.51400E+08         0.11773E+07         0.00000E+00
    0.11773E+07        -0.50095E+08         0.00000E+00
    0.00000E+00         0.00000E+00        -0.51087E+08
 
   -0.51379E+08         0.12066E+07         0.00000E+00
    0.12066E+07        -0.50101E+08         0.00000E+00
    0.00000E+00         0.00000E+00        -0.51084E+08
 
   -0.51358E+08         0.12355E+07         0.00000E+00
    0.12355E+07        -0.50107E+08         0.00000E+00
    0.00000E+00         0.00000E+00        -0.51081E+08
 
   -0.51337E+08         0.12641E+07         0.00000E+00
    0.12641E+07        -0.50114E+08         0.00000E+00
    0.00000E+00         0.00000E+00        -0.51079E+08
 
   -0.51316E+08         0.12924E+07         0.00000E+00
    0.12924E+07        -0.50120E+08         0.00000E+00
    0.00000E+00         0.00000E+00        -0.51076E+08
 
   -0.51295E+08         0.13203E+07         0.00000E+00
    0.13203E+07        -0.50127E+08         0.00000E+00
    0.00000E+00         0.00000E+00        -0.51073E+08
 
   -0.51274E+08         0.13478E+07         0.00000E+00
    0.13478E+07        -0.50135E+08         0.00000E+00
    0.00000E+00         0.00000E+00        -0.51070E+08
 
   -0.51253E+08         0.13751E+07         0.00000E+00
    0.13751E+07        -0.50142E+08         0.00000E+00
    0.00000E+00         0.00000E+00        -0.51067E+08
 
   -0.51231E+08         0.14019E+07         0.00000E+00
    0.14019E+07        -0.50150E+08         0.00000E+00
    0.00000E+00         0.00000E+00        -0.51065E+08
 
   -0.51209E+08         0.14284E+07         0.00000E+00
    0.14284E+07        -0.50158E+08         0.00000E+00
    0.00000E+00         0.00000E+00        -0.51062E+08
 
   -0.51188E+08         0.14546E+07         0.00000E+00
    0.14546E+07        -0.50166E+08         0.00000E+00
    0.00000E+00         0.00000E+00        -0.51059E+08
 
   -0.51166E+08         0.14804E+07         0.00000E+00
    0.14804E+07        -0.50175E+08         0.00000E+00
    0.00000E+00         0.00000E+00        -0.51057E+08
 
   -0.51144E+08         0.15059E+07         0.00000E+00
    0.15059E+07        -0.50184E+08         0.00000E+00
    0.00000E+00         0.00000E+00        -0.51054E+08
 
   -0.51121E+08         0.15310E+07         0.00000E+00
    0.15310E+07        -0.50193E+08         0.00000E+00
    0.00000E+00         0.00000E+00        -0.51051E+08
 
   -0.51099E+08         0.15557E+07         0.00000E+00
    0.15557E+07        -0.50202E+08         0.00000E+00
    0.00000E+00         0.00000E+00        -0.51049E+08
 
   -0.51076E+08         0.15801E+07         0.00000E+00
    0.15801E+07        -0.50212E+08         0.00000E+00
    0.00000E+00         0.00000E+00        -0.51046E+08
 
   -0.51054E+08         0.16040E+07         0.00000E+00
    0.16040E+07        -0.50222E+08         0.00000E+00
    0.00000E+00         0.00000E+00        -0.51043E+08
 
   -0.51853E+08         0.20364E+05         0.00000E+00
    0.20364E+05        -0.50000E+08         0.00000E+00
    0.00000E+00         0.00000E+00        -0.51071E+08
 
   -0.51835E+08         0.60236E+05         0.00000E+00
    0.60236E+05        -0.50000E+08         0.00000E+00
    0.00000E+00         0.00000E+00        -0.51067E+08
 
   -0.51817E+08         0.99743E+05         0.00000E+00
    0.99743E+05        -0.50001E+08         0.00000E+00
    0.00000E+00         0.00000E+00        -0.51064E+08
 
   -0.51800E+08         0.13889E+06         0.00000E+00
    0.13889E+06        -0.50001E+08         0.00000E+00
    0.00000E+00         0.00000E+00        -0.51060E+08
 
   -0.51782E+08         0.17767E+06         0.00000E+00
    0.17767E+06        -0.50002E+08         0.00000E+00
    0.00000E+00         0.00000E+00        -0.51057E+08
 
   -0.51764E+08         0.21609E+06         0.00000E+00
    0.21609E+06        -0.50002E+08         0.00000E+00
    0.00000E+00         0.00000E+00        -0.51054E+08
 
   -0.51746E+08         0.25415E+06         0.00000E+00
    0.25415E+06        -0.50003E+08         0.00000E+00
    0.00000E+00         0.00000E+00        -0.51050E+08
 
   -0.51728E+08         0.29186E+06         0.00000E+00
    0.29186E+06        -0.50004E+08         0.00000E+00
    0.00000E+00         0.00000E+00        -0.51047E+08
 
   -0.51711E+08         0.32921E+06         0.00000E+00
    0.32921E+06        -0.50006E+08         0.00000E+00
    0.00000E+00         0.00000E+00        -0.51043E+08
 
   -0.51693E+08         0.36620E+06         0.00000E+00
    0.36620E+06        -0.50007E+08         0.00000E+00
    0.00000E+00         0.00000E+00        -0.51040E+08
 
   -0.51675E+08         0.40283E+06         0.00000E+00
    0.40283E+06        -0.50008E+08         0.00000E+00
    0.00000E+00         0.00000E+00        -0.51037E+08
 
   -0.51657E+08         0.43911E+06         0.00000E+00
    0.43911E+06        -0.50010E+08         0.00000E+00
    0.00000E+00         0.00000E+00        -0.51034E+08
 
   -0.51639E+08         0.47504E+06         0.00000E+00
    0.47504E+06        -0.50012E+08         0.00000E+00
    0.00000E+00         0.00000E+00        -0.51030E+08
 
   -0.51621E+08         0.51061E+06         0.00000E+00
    0.51061E+06        -0.50014E+08         0.00000E+00
    0.00000E+00         0.00000E+00        -0.51027E+08
 
   -0.51603E+08         0.54583E+06         0.00000E+00
    0.54583E+06        -0.50016E+08         0.00000E+00
    0.00000E+00         0.00000E+00        -0.51024E+08
 
   -0.51585E+08         0.58070E+06         0.00000E+00
    0.58070E+06        -0.50018E+08         0.00000E+00
    0.00000E+00         0.00000E+00        -0.51021E+08
 
   -0.51567E+08         0.61522E+06         0.00000E+00
    0.61522E+06        -0.50021E+08         0.00000E+00
    0.00000E+00         0.00000E+00        -0.51018E+08
 
   -0.51549E+08         0.64939E+06         0.00000E+00
    0.64939E+06        -0.50023E+08         0.00000E+00
    0.00000E+00         0.00000E+00        -0.51015E+08
 
   -0.51531E+08         0.68321E+06         0.00000E+00
    0.68321E+06        -0.50026E+08         0.00000E+00
    0.00000E+00         0.00000E+00        -0.51012E+08
 
   -0.51513E+08         0.71668E+06         0.00000E+00
    0.71668E+06        -0.50029E+08         0.00000E+00
    0.00000E+00         0.00000E+00        -0.51009E+08
 
   -0.51495E+08         0.74980E+06         0.00000E+00
    0.74980E+06        -0.50032E+08         0.00000E+00
    0.00000E+00         0.00000E+00        -0.51006E+08
 
   -0.51477E+08         0.78257E+06         0.00000E+00
    0.78257E+06        -0.50035E+08         0.00000E+00
    0.00000E+00         0.00000E+00        -0.51003E+08
 
   -0.51459E+08         0.81499E+06         0.00000E+00
    0.81499E+06        -0.50039E+08         0.00000E+00
    0.00000E+00         0.00000E+00        -0.51000E+08
 
   -0.51440E+08         0.84706E+06         0.00000E+00
    0.84706E+06        -0.50042E+08         0.00000E+00
    0.00000E+00         0.00000E+00        -0.50997E+08
 
   -0.51422E+08         0.87879E+06         0.00000E+00
    0.87879E+06        -0.50046E+08         0.00000E+00
    0.00000E+00         0.00000E+00        -0.50994E+08
 
   -0.51404E+08         0.91016E+06         0.00000E+00
    0.91016E+06        -0.50050E+08         0.00000E+00
    0.00000E+00         0.00000E+00        -0.50991E+08
 
   -0.51385E+08         0.94119E+06         0.00000E+00
    0.94119E+06        -0.50054E+08         0.00000E+00
    0.00000E+00         0.00000E+00        -0.50988E+08
 
   -0.51367E+08         0.97186E+06         0.00000E+00
    0.97186E+06        -0.50058E+08         0.00000E+00
    0.00000E+00         0.00000E+00        -0.50985E+08
 
   -0.51348E+08         0.10022E+07         0.00000E+00
    0.10022E+07        -0.50063E+08         0.00000E+00
    0.00000E+00         0.00000E+00        -0.50982E+08
 
   -0.51330E+08         0.10322E+07         0.00000E+00
    0.10322E+07        -0.50067E+08         0.00000E+00
    0.00000E+00         0.00000E+00        -0.50980E+08
 
   -0.51311E+08         0.10618E+07         0.00000E+00
    0.10618E+07        -0.50072E+08         0.00000E+00
    0.00000E+00         0.00000E+00        -0.50977E+08
 
   -0.51293E+08         0.10910E+07         0.00000E+00
    0.10910E+07        -0.50077E+08         0.00000E+00
    0.00000E+00         0.00000E+00        -0.50974E+08
 
   -0.51274E+08         0.11200E+07         0.00000E+00
    0.11200E+07        -0.50082E+08         0.00000E+00
    0.00000E+00         0.00000E+00        -0.50971E+08
 
   -0.51255E+08         0.11485E+07         0.00000E+00
    0.11485E+07        -0.50088E+08         0.00000E+00
    0.00000E+00         0.00000E+00        -0.50969E+08
 
   -0.51236E+08         0.11767E+07         0.00000E+00
    0.11767E+07        -0.50093E+08         0.00000E+00
    0.00000E+00         0.00000E+00        -0.50966E+08
 
   -0.51217E+08         0.12046E+07         0.00000E+00
    0.12046E+07        -0.50099E+08         0.00000E+00
    0.00000E+00         0.00000E+00        -0.50963E+08
 
   -0.51198E+08         0.12321E+07         0.00000E+00
    0.12321E+07        -0.50105E+08         0.00000E+00
    0.00000E+00         0.00000E+00        -0.50961E+08
 
   -0.51179E+08         0.12592E+07         0.00000E+00
    0.12592E+07        -0.50111E+08         0.00000E+00
    0.00000E+00         0.00000E+00        -0.50958E+08
 
   -0.51159E+08         0.12859E+07         0.00000E+00
    0.12859E+07        -0.50118E+08         0.00000E+00
    0.00000E+00         0.00000E+00        -0.50956E+08
 
   -0.51140E+08         0.13123E+07         0.00000E+00
    0.13123E+07        -0.50125E+08         0.00000E+00
    0.00000E+00         0.00000E+00        -0.50953E+08
 
   -0.51120E+08         0.13384E+07         0.00000E+00
    0.13384E+07        -0.50131E+08         0.00000E+00
    0.00000E+00         0.00000E+00        -0.50951E+08
 
   -0.51101E+08         0.13640E+07         0.00000E+00
    0.13640E+07        -0.50139E+08         0.00000E+00
    0.00000E+00         0.00000E+00        -0.50948E+08
 
   -0.51081E+08         0.13893E+07         0.00000E+00
    0.13893E+07        -0.50146E+08         0.00000E+00
    0.00000E+00         0.00000E+00        -0.50946E+08
 
   -0.51061E+08         0.14143E+07         0.00000E+00
    0.14143E+07        -0.50154E+08         0.00000E+00
    0.00000E+00         0.00000E+00        -0.50943E+08
 
   -0.51041E+08         0.14388E+07         0.00000E+00
    0.14388E+07        -0.50161E+08         0.00000E+00
    0.00000E+00         0.00000E+00        -0.50941E+08
 
   -0.51021E+08         0.14630E+07         0.00000E+00
    0.14630E+07        -0.50170E+08         0.00000E+00
    0.00000E+00         0.00000E+00        -0.50938E+08
 
   -0.51000E+08         0.14868E+07         0.00000E+00
    0.14868E+07        -0.50178E+08         0.00000E+00
    0.00000E+00         0.00000E+00        -0.50936E+08
 
   -0.50980E+08         0.15102E+07         0.00000E+00
    0.15102E+07        -0.50186E+08         0.00000E+00
    0.00000E+00         0.00000E+00        -0.50933E+08
 
   -0.50959E+08         0.15332E+07         0.00000E+00
    0.15332E+07        -0.50195E+08         0.00000E+00
    0.00000E+00         0.00000E+00        -0.50931E+08
 
   -0.50938E+08         0.15558E+07         0.00000E+00
    0.15558E+07        -0.50204E+08         0.00000E+00
    0.00000E+00         0.00000E+00        -0.50929E+08
 
   -0.51654E+08         0.19995E+05         0.00000E+00
    0.19995E+05        -0.50000E+08         0.00000E+00
    0.00000E+00         0.00000E+00        -0.50949E+08
 
   -0.51638E+08         0.59141E+05         0.00000E+00
    0.59141E+05        -0.50000E+08         0.00000E+00
    0.00000E+00         0.00000E+00        -0.50946E+08
 
   -0.51623E+08         0.97926E+05         0.00000E+00
    0.97926E+05        -0.50001E+08         0.00000E+00
    0.00000E+00         0.00000E+00        -0.50942E+08
 
   -0.51607E+08         0.13635E+06         0.00000E+00
    0.13635E+06        -0.50001E+08         0.00000E+00
    0.00000E+00         0.00000E+00        -0.50939E+08
 
   -0.51591E+08         0.17442E+06         0.00000E+00
    0.17442E+06        -0.50001E+08         0.00000E+00
    0.00000E+00         0.00000E+00        -0.50936E+08
 
   -0.51575E+08         0.21212E+06         0.00000E+00
    0.21212E+06        -0.50002E+08         0.00000E+00
    0.00000E+00         0.00000E+00        -0.50933E+08
 
   -0.51559E+08         0.24947E+06         0.00000E+00
    0.24947E+06        -0.50003E+08         0.00000E+00
    0.00000E+00         0.00000E+00        -0.50930E+08
 
   -0.51543E+08         0.28646E+06         0.00000E+00
    0.28646E+06        -0.50004E+08         0.00000E+00
    0.00000E+00         0.00000E+00        -0.50927E+08
 
   -0.51526E+08         0.32309E+06         0.00000E+00
    0.32309E+06        -0.50005E+08         0.00000E+00
    0.00000E+00         0.00000E+00        -0.50924E+08
 
   -0.51510E+08         0.35936E+06         0.00000E+00
    0.35936E+06        -0.50006E+08         0.00000E+00
    0.00000E+00         0.00000E+00        -0.50921E+08
 
   -0.51494E+08         0.39528E+06         0.00000E+00
    0.39528E+06        -0.50008E+08         0.00000E+00
    0.00000E+00         0.00000E+00        -0.50918E+08
 
   -0.51478E+08         0.43083E+06         0.00000E+00
    0.43083E+06        -0.50009E+08         0.00000E+00
    0.00000E+00         0.00000E+00        -0.50915E+08
 
   -0.51462E+08         0.46603E+06         0.00000E+00
    0.46603E+06        -0.50011E+08         0.00000E+00
    0.00000E+00         0.00000E+00        -0.50912E+08
 
   -0.51446E+08         0.50087E+06         0.00000E+00
    0.50087E+06        -0.50013E+08         0.00000E+00
    0.00000E+00         0.00000E+00        -0.50909E+08
 
   -0.51430E+08         0.53536E+06         0.00000E+00
    0.53536E+06        -0.50015E+08         0.00000E+00
    0.00000E+00         0.00000E+00        -0.50907E+08
 
   -0.51413E+08         0.56948E+06         0.00000E+00
    0.56948E+06        -0.50017E+08         0.00000E+00
    0.00000E+00         0.00000E+00        -0.50904E+08
 
   -0.51397E+08         0.60325E+06         0.00000E+00
    0.60325E+06        -0.50019E+08         0.00000E+00
    0.00000E+00         0.00000E+00        -0.50901E+08
 
   -0.51381E+08         0.63666E+06         0.00000E+00
    0.63666E+06        -0.50021E+08         0.00000E+00
    0.00000E+00         0.00000E+00        -0.50898E+08
 
   -0.51365E+08         0.66971E+06         0.00000E+00
    0.66971E+06        -0.50024E+08         0.00000E+00
    0.00000E+00         0.00000E+00        -0.50895E+08
 
   -0.51348E+08         0.70241E+06         0.00000E+00
    0.70241E+06        -0.50026E+08         0.00000E+00
    0.00000E+00         0.00000E+00        -0.50893E+08
 
   -0.51332E+08         0.73474E+06         0.00000E+00
    0.73474E+06        -0.50029E+08         0.00000E+00
    0.00000E+00         0.00000E+00        -0.50890E+08
 
   -0.51316E+08         0.76672E+06         0.00000E+00
    0.76672E+06        -0.50032E+08         0.00000E+00
    0.00000E+00         0.00000E+00        -0.50887E+08
 
   -0.51299E+08         0.79833E+06         0.00000E+00
    0.79833E+06        -0.50035E+08         0.00000E+00
    0.00000E+00         0.00000E+00        -0.50885E+08
 
   -0.51283E+08         0.82959E+06         0.00000E+00
    0.82959E+06        -0.50038E+08         0.00000E+00
    0.00000E+00         0.00000E+00        -0.50882E+08
 
   -0.51266E+08         0.86049E+06         0.00000E+00
    0.86049E+06        -0.50042E+08         0.00000E+00
    0.00000E+00         0.00000E+00        -0.50879E+08
 
   -0.51250E+08         0.89102E+06         0.00000E+00
    0.89102E+06        -0.50045E+08         0.00000E+00
    0.00000E+00         0.00000E+00        -0.50877E+08
 
   -0.51233E+08         0.92119E+06         0.00000E+00
    0.92119E+06        -0.50049E+08         0.00000E+00
    0.00000E+00         0.00000E+00        -0.50874E+08
 
   -0.51217E+08         0.95100E+06         0.00000E+00
    0.95100E+06        -0.50053E+08         0.00000E+00
    0.00000E+00         0.00000E+00        -0.50872E+08
 
   -0.51200E+08         0.98045E+06         0.00000E+00
    0.98045E+06        -0.50057E+08         0.00000E+00
    0.00000E+00         0.00000E+00        -0.50869E+08
 
   -0.51183E+08         0.10095E+07         0.00000E+00
    0.10095E+07        -0.50061E+08         0.00000E+00
    0.00000E+00         0.00000E+00        -0.50867E+08
 
   -0.51166E+08         0.10382E+07         0.00000E+00
    0.10382E+07        -0.50066E+08         0.00000E+00
    0.00000E+00         0.00000E+00        -0.50864E+08
 
   -0.51149E+08         0.10666E+07         0.00000E+00
    0.10666E+07        -0.50070E+08         0.00000E+00
    0.00000E+00         0.00000E+00        -0.50862E+08
 
   -0.51133E+08         0.10946E+07         0.00000E+00
    0.10946E+07        -0.50075E+08         0.00000E+00
    0.00000E+00         0.00000E+00        -0.50859E+08
 
   -0.51115E+08         0.11222E+07         0.00000E+00
    0.11222E+07        -0.50080E+08         0.00000E+00
    0.00000E+00         0.00000E+00        -0.50857E+08
 
   -0.51098E+08         0.11494E+07         0.00000E+00
    0.11494E+07        -0.50085E+08         0.00000E+00
    0.00000E+00         0.00000E+00        -0.50854E+08
 
   -0.51081E+08         0.11763E+07         0.00000E+00
    0.11763E+07        -0.50090E+08         0.00000E+00
    0.00000E+00         0.00000E+00        -0.50852E+08
 
   -0.51064E+08         0.12028E+07         0.00000E+00
    0.12028E+07        -0.50096E+08         0.00000E+00
    0.00000E+00         0.00000E+00        -0.50850E+08
 
   -0.51047E+08         0.12289E+07         0.00000E+00
    0.12289E+07        -0.50101E+08         0.00000E+00
    0.00000E+00         0.00000E+00        -0.50847E+08
 
   -0.51029E+08         0.12546E+07         0.00000E+00
    0.12546E+07        -0.50107E+08         0.00000E+00
    0.00000E+00         0.00000E+00        -0.50845E+08
 
   -0.51012E+08         0.12799E+07         0.00000E+00
    0.12799E+07        -0.50113E+08         0.00000E+00
    0.00000E+00         0.00000E+00        -0.50843E+08
 
   -0.50994E+08         0.13049E+07         0.00000E+00
    0.13049E+07        -0.50120E+08         0.00000E+00
    0.00000E+00         0.00000E+00        -0.50840E+08
 
   -0.50976E+08         0.13295E+07         0.00000E+00
    0.13295E+07        -0.50126E+08         0.00000E+00
    0.00000E+00         0.00000E+00        -0.50838E+08
 
   -0.50958E+08         0.13537E+07         0.00000E+00
    0.13537E+07        -0.50133E+08         0.00000E+00
    0.00000E+00         0.00000E+00        -0.50836E+08
 
   -0.50940E+08         0.13775E+07         0.00000E+00
    0.13775E+07        -0.50140E+08         0.00000E+00
    0.00000E+00         0.00000E+00        -0.50834E+08
 
   -0.50922E+08         0.14009E+07         0.00000E+00
    0.14009E+07        -0.50147E+08         0.00000E+00
    0.00000E+00         0.00000E+00        -0.50831E+08
 
   -0.50904E+08         0.14239E+07         0.00000E+00
    0.14239E+07        -0.50154E+08         0.00000E+00
    0.00000E+00         0.00000E+00        -0.50829E+08
 
   -0.50885E+08         0.14465E+07         0.00000E+00
    0.14465E+07        -0.50161E+08         0.00000E+00
    0.00000E+00         0.00000E+00        -0.50827E+08
 
   -0.50867E+08         0.14687E+07         0.00000E+00
    0.14687E+07        -0.50169E+08         0.00000E+00
    0.00000E+00         0.00000E+00        -0.50825E+08
 
   -0.50848E+08         0.14905E+07         0.00000E+00
    0.14905E+07        -0.50177E+08         0.00000E+00
    0.00000E+00         0.00000E+00        -0.50823E+08
 
   -0.50829E+08         0.15119E+07         0.00000E+00
    0.15119E+07        -0.50185E+08         0.00000E+00
    0.00000E+00         0.00000E+00        -0.50821E+08
 
   -0.51459E+08         0.19661E+05         0.00000E+00
    0.19661E+05        -0.50000E+08         0.00000E+00
    0.00000E+00         0.00000E+00        -0.50832E+08
 
   -0.51445E+08         0.58149E+05         0.00000E+00
    0.58149E+05        -0.50000E+08         0.00000E+00
    0.00000E+00         0.00000E+00        -0.50829E+08
 
   -0.51431E+08         0.96281E+05         0.00000E+00
    0.96281E+05        -0.50000E+08         0.00000E+00
    0.00000E+00         0.00000E+00        -0.50827E+08
 
   -0.51417E+08         0.13406E+06         0.00000E+00
    0.13406E+06        -0.50001E+08         0.00000E+00
    0.00000E+00         0.00000E+00        -0.50824E+08
 
   -0.51403E+08         0.17147E+06         0.00000E+00
    0.17147E+06        -0.50001E+08         0.00000E+00
    0.00000E+00         0.00000E+00        -0.50821E+08
 
   -0.51389E+08         0.20853E+06         0.00000E+00
    0.20853E+06        -0.50002E+08         0.00000E+00
    0.00000E+00         0.00000E+00        -0.50818E+08
 
   -0.51374E+08         0.24524E+06         0.00000E+00
    0.24524E+06        -0.50003E+08         0.00000E+00
    0.00000E+00         0.00000E+00        -0.50816E+08
 
   -0.51360E+08         0.28158E+06         0.00000E+00
    0.28158E+06        -0.50004E+08         0.00000E+00
    0.00000E+00         0.00000E+00        -0.50813E+08
 
   -0.51346E+08         0.31756E+06         0.00000E+00
    0.31756E+06        -0.50005E+08         0.00000E+00
    0.00000E+00         0.00000E+00        -0.50810E+08
 
   -0.51332E+08         0.35319E+06         0.00000E+00
    0.35319E+06        -0.50006E+08         0.00000E+00
    0.00000E+00         0.00000E+00        -0.50808E+08
 
   -0.51317E+08         0.38845E+06         0.00000E+00
    0.38845E+06        -0.50007E+08         0.00000E+00
    0.00000E+00         0.00000E+00        -0.50805E+08
 
   -0.51303E+08         0.42336E+06         0.00000E+00
    0.42336E+06        -0.50008E+08         0.00000E+00
    0.00000E+00         0.00000E+00        -0.50803E+08
 
   -0.51289E+08         0.45790E+06         0.00000E+00
    0.45790E+06        -0.50010E+08         0.00000E+00
    0.00000E+00         0.00000E+00        -0.50800E+08
 
   -0.51274E+08         0.49208E+06         0.00000E+00
    0.49208E+06        -0.50011E+08         0.00000E+00
    0.00000E+00         0.00000E+00        -0.50797E+08
 
   -0.51260E+08         0.52590E+06         0.00000E+00
    0.52590E+06        -0.50013E+08         0.00000E+00
    0.00000E+00         0.00000E+00        -0.50795E+08
 
   -0.51245E+08         0.55936E+06         0.00000E+00
    0.55936E+06        -0.50015E+08         0.00000E+00
    0.00000E+00         0.00000E+00        -0.50792E+08
 
   -0.51231E+08         0.59245E+06         0.00000E+00
    0.59245E+06        -0.50017E+08         0.00000E+00
    0.00000E+00         0.00000E+00        -0.50790E+08
 
   -0.51217E+08         0.62518E+06         0.00000E+00
    0.62518E+06        -0.50019E+08         0.00000E+00
    0.00000E+00         0.00000E+00        -0.50787E+08
 
   -0.51202E+08         0.65754E+06         0.00000E+00
    0.65754E+06        -0.50021E+08         0.00000E+00
    0.00000E+00         0.00000E+00        -0.50785E+08
 
   -0.51188E+08         0.68954E+06         0.00000E+00
    0.68954E+06        -0.50023E+08         0.00000E+00
    0.00000E+00         0.00000E+00        -0.50783E+08
 
   -0.51173E+08         0.72117E+06         0.00000E+00
    0.72117E+06        -0.50026E+08         0.00000E+00
    0.00000E+00         0.00000E+00        -0.50780E+08
 
   -0.51159E+08         0.75243E+06         0.00000E+00
    0.75243E+06        -0.50029E+08         0.00000E+00
    0.00000E+00         0.00000E+00        -0.50778E+08
 
   -0.51144E+08         0.78333E+06         0.00000E+00
    0.78333E+06        -0.50031E+08         0.00000E+00
    0.00000E+00         0.00000E+00        -0.50775E+08
 
   -0.51129E+08         0.81385E+06         0.00000E+00
    0.81385E+06        -0.50034E+08         0.00000E+00
    0.00000E+00         0.00000E+00        -0.50773E+08
 
   -0.51115E+08         0.84401E+06         0.00000E+00
    0.84401E+06        -0.50037E+08         0.00000E+00
    0.00000E+00         0.00000E+00        -0.50771E+08
 
   -0.51100E+08         0.87379E+06         0.00000E+00
    0.87379E+06        -0.50040E+08         0.00000E+00
    0.00000E+00         0.00000E+00        -0.50768E+08
 
   -0.51085E+08         0.90320E+06         0.00000E+00
    0.90320E+06        -0.50044E+08         0.00000E+00
    0.00000E+00         0.00000E+00        -0.50766E+08
 
   -0.51070E+08         0.93223E+06         0.00000E+00
    0.93223E+06        -0.50047E+08         0.00000E+00
    0.00000E+00         0.00000E+00        -0.50764E+08
 
   -0.51056E+08         0.96089E+06         0.00000E+00
    0.96089E+06        -0.50051E+08         0.00000E+00
    0.00000E+00         0.00000E+00        -0.50762E+08
 
   -0.51041E+08         0.98918E+06         0.00000E+00
    0.98918E+06        -0.50055E+08         0.00000E+00
    0.00000E+00         0.00000E+00        -0.50759E+08
 
   -0.51026E+08         0.10171E+07         0.00000E+00
    0.10171E+07        -0.50058E+08         0.00000E+00
    0.00000E+00         0.00000E+00        -0.50757E+08
 
   -0.51011E+08         0.10446E+07         0.00000E+00
    0.10446E+07        -0.50063E+08         0.00000E+00
    0.00000E+00         0.00000E+00        -0.50755E+08
 
   -0.50996E+08         0.10717E+07         0.00000E+00
    0.10717E+07        -0.50067E+08         0.00000E+00
    0.00000E+00         0.00000E+00        -0.50753E+08
 
   -0.50981E+08         0.10985E+07         0.00000E+00
    0.10985E+07        -0.50071E+08         0.00000E+00
    0.00000E+00         0.00000E+00        -0.50751E+08
 
   -0.50965E+08         0.11249E+07         0.00000E+00
    0.11249E+07        -0.50076E+08         0.00000E+00
    0.00000E+00         0.00000E+00        -0.50749E+08
 
   -0.50950E+08         0.11508E+07         0.00000E+00
    0.11508E+07        -0.50080E+08         0.00000E+00
    0.00000E+00         0.00000E+00        -0.50746E+08
 
   -0.50935E+08         0.11764E+07         0.00000E+00
    0.11764E+07        -0.50085E+08         0.00000E+00
    0.00000E+00         0.00000E+00        -0.50744E+08
 
   -0.50919E+08         0.12016E+07         0.00000E+00
    0.12016E+07        -0.50090E+08         0.00000E+00
    0.00000E+00         0.00000E+00        -0.50742E+08
 
   -0.50904E+08         0.12264E+07         0.00000E+00
    0.12264E+07        -0.50095E+08         0.00000E+00
    0.00000E+00         0.00000E+00        -0.50740E+08
 
   -0.50888E+08         0.12509E+07         0.00000E+00
    0.12509E+07        -0.50101E+08         0.00000E+00
    0.00000E+00         0.00000E+00        -0.50738E+08
 
   -0.50872E+08         0.12749E+07         0.00000E+00
    0.12749E+07        -0.50106E+08         0.00000E+00
    0.00000E+00         0.00000E+00        -0.50736E+08
 
   -0.50857E+08         0.12985E+07         0.00000E+00
    0.12985E+07        -0.50112E+08         0.00000E+00
    0.00000E+00         0.00000E+00        -0.50734E+08
 
   -0.50841E+08         0.13217E+07         0.00000E+00
    0.13217E+07        -0.50118E+08         0.00000E+00
    0.00000E+00         0.00000E+00        -0.50732E+08
 
   -0.50825E+08         0.13445E+07         0.00000E+00
    0.13445E+07        -0.50124E+08         0.00000E+00
    0.00000E+00         0.00000E+00        -0.50730E+08
 
   -0.50809E+08         0.13668E+07         0.00000E+00
    0.13668E+07        -0.50131E+08         0.00000E+00
    0.00000E+00         0.00000E+00        -0.50728E+08
 
   -0.50792E+08         0.13888E+07         0.00000E+00
    0.13888E+07        -0.50137E+08         0.00000E+00
    0.00000E+00         0.00000E+00        -0.50726E+08
 
   -0.50776E+08         0.14104E+07         0.00000E+00
    0.14104E+07        -0.50144E+08         0.00000E+00
    0.00000E+00         0.00000E+00        -0.50724E+08
 
   -0.50759E+08         0.14315E+07         0.00000E+00
    0.14315E+07        -0.50151E+08         0.00000E+00
    0.00000E+00         0.00000E+00        -0.50722E+08
 
   -0.50743E+08         0.14522E+07         0.00000E+00
    0.14522E+07        -0.50158E+08         0.00000E+00
    0.00000E+00         0.00000E+00        -0.50720E+08
 
   -0.50726E+08         0.14725E+07         0.00000E+00
    0.14725E+07        -0.50165E+08         0.00000E+00
    0.00000E+00         0.00000E+00        -0.50719E+08
 
   -0.51268E+08         0.19365E+05         0.00000E+00
    0.19365E+05        -0.50000E+08         0.00000E+00
    0.00000E+00         0.00000E+00        -0.50721E+08
 
   -0.51255E+08         0.57273E+05         0.00000E+00
    0.57273E+05        -0.50000E+08         0.00000E+00
    0.00000E+00         0.00000E+00        -0.50718E+08
 
   -0.51243E+08         0.94828E+05         0.00000E+00
    0.94828E+05        -0.50000E+08         0.00000E+00
    0.00000E+00         0.00000E+00        -0.50716E+08
 
   -0.51230E+08         0.13203E+06         0.00000E+00
    0.13203E+06        -0.50001E+08         0.00000E+00
    0.00000E+00         0.00000E+00        -0.50714E+08
 
   -0.51218E+08         0.16888E+06         0.00000E+00
    0.16888E+06        -0.50001E+08         0.00000E+00
    0.00000E+00         0.00000E+00        -0.50711E+08
 
   -0.51206E+08         0.20537E+06         0.00000E+00
    0.20537E+06        -0.50002E+08         0.00000E+00
    0.00000E+00         0.00000E+00        -0.50709E+08
 
   -0.51193E+08         0.24150E+06         0.00000E+00
    0.24150E+06        -0.50002E+08         0.00000E+00
    0.00000E+00         0.00000E+00        -0.50706E+08
 
   -0.51181E+08         0.27728E+06         0.00000E+00
    0.27728E+06        -0.50003E+08         0.00000E+00
    0.00000E+00         0.00000E+00        -0.50704E+08
 
   -0.51168E+08         0.31269E+06         0.00000E+00
    0.31269E+06        -0.50004E+08         0.00000E+00
    0.00000E+00         0.00000E+00        -0.50702E+08
 
   -0.51156E+08         0.34775E+06         0.00000E+00
    0.34775E+06        -0.50005E+08         0.00000E+00
    0.00000E+00         0.00000E+00        -0.50700E+08
 
   -0.51143E+08         0.38244E+06         0.00000E+00
    0.38244E+06        -0.50006E+08         0.00000E+00
    0.00000E+00         0.00000E+00        -0.50697E+08
 
   -0.51131E+08         0.41677E+06         0.00000E+00
    0.41677E+06        -0.50007E+08         0.00000E+00
    0.00000E+00         0.00000E+00        -0.50695E+08
 
   -0.51118E+08         0.45074E+06         0.00000E+00
    0.45074E+06        -0.50008E+08         0.00000E+00
    0.00000E+00         0.00000E+00        -0.50693E+08
 
   -0.51106E+08         0.48434E+06         0.00000E+00
    0.48434E+06        -0.50010E+08         0.00000E+00
    0.00000E+00         0.00000E+00        -0.50690E+08
 
   -0.51093E+08         0.51757E+06         0.00000E+00
    0.51757E+06        -0.50011E+08         0.00000E+00
    0.00000E+00         0.00000E+00        -0.50688E+08
 
   -0.51081E+08         0.55044E+06         0.00000E+00
    0.55044E+06        -0.50013E+08         0.00000E+00
    0.00000E+00         0.00000E+00        -0.50686E+08
 
   -0.51068E+08         0.58294E+06         0.00000E+00
    0.58294E+06        -0.50015E+08         0.00000E+00
    0.00000E+00         0.00000E+00        -0.50684E+08
 
   -0.51055E+08         0.61507E+06         0.00000E+00
    0.61507E+06        -0.50016E+08         0.00000E+00
    0.00000E+00         0.00000E+00        -0.50682E+08
 
   -0.51043E+08         0.64683E+06         0.00000E+00
    0.64683E+06        -0.50018E+08         0.00000E+00
    0.00000E+00         0.00000E+00        -0.50680E+08
 
   -0.51030E+08         0.67821E+06         0.00000E+00
    0.67821E+06        -0.50020E+08         0.00000E+00
    0.00000E+00         0.00000E+00        -0.50677E+08
 
   -0.51017E+08         0.70923E+06         0.00000E+00
    0.70923E+06        -0.50023E+08         0.00000E+00
    0.00000E+00         0.00000E+00        -0.50675E+08
 
   -0.51005E+08         0.73986E+06         0.00000E+00
    0.73986E+06        -0.50025E+08         0.00000E+00
    0.00000E+00         0.00000E+00        -0.50673E+08
 
   -0.50992E+08         0.77012E+06         0.00000E+00
    0.77012E+06        -0.50027E+08         0.00000E+00
    0.00000E+00         0.00000E+00        -0.50671E+08
 
   -0.50979E+08         0.80001E+06         0.00000E+00
    0.80001E+06        -0.50030E+08         0.00000E+00
    0.00000E+00         0.00000E+00        -0.50669E+08
 
   -0.50966E+08         0.82951E+06         0.00000E+00
    0.82951E+06        -0.50032E+08         0.00000E+00
    0.00000E+00         0.00000E+00        -0.50667E+08
 
   -0.50954E+08         0.85863E+06         0.00000E+00
    0.85863E+06        -0.50035E+08         0.00000E+00
    0.00000E+00         0.00000E+00        -0.50665E+08
 
   -0.50941E+08         0.88737E+06         0.00000E+00
    0.88737E+06        -0.50038E+08         0.00000E+00
    0.00000E+00         0.00000E+00        -0.50663E+08
 
   -0.50928E+08         0.91572E+06         0.00000E+00
    0.91572E+06        -0.50041E+08         0.00000E+00
    0.00000E+00         0.00000E+00        -0.50661E+08
 
   -0.50915E+08         0.94369E+06         0.00000E+00
    0.94369E+06        -0.50044E+08         0.00000E+00
    0.00000E+00         0.00000E+00        -0.50659E+08
 
   -0.50902E+08         0.97127E+06         0.00000E+00
    0.97127E+06        -0.50047E+08         0.00000E+00
    0.00000E+00         0.00000E+00        -0.50657E+08
 
   -0.50889E+08         0.99846E+06         0.00000E+00
    0.99846E+06        -0.50051E+08         0.00000E+00
    0.00000E+00         0.00000E+00        -0.50655E+08
 
   -0.50876E+08         0.10253E+07         0.00000E+00
    0.10253E+07        -0.50054E+08         0.00000E+00
    0.00000E+00         0.00000E+00        -0.50653E+08
 
   -0.50863E+08         0.10517E+07         0.00000E+00
    0.10517E+07        -0.50058E+08         0.00000E+00
    0.00000E+00         0.00000E+00        -0.50652E+08
 
   -0.50850E+08         0.10777E+07         0.00000E+00
    0.10777E+07        -0.50062E+08         0.00000E+00
    0.00000E+00         0.00000E+00        -0.50650E+08
 
   -0.50836E+08         0.11033E+07         0.00000E+00
    0.11033E+07        -0.50066E+08         0.00000E+00
    0.00000E+00         0.00000E+00        -0.50648E+08
 
   -0.50823E+08         0.11285E+07         0.00000E+00
    0.11285E+07        -0.50070E+08         0.00000E+00
    0.00000E+00         0.00000E+00        -0.50646E+08
 
   -0.50810E+08         0.11533E+07         0.00000E+00
    0.11533E+07        -0.50074E+08         0.00000E+00
    0.00000E+00         0.00000E+00        -0.50644E+08
 
   -0.50796E+08         0.11777E+07         0.00000E+00
    0.11777E+07        -0.50078E+08         0.00000E+00
    0.00000E+00         0.00000E+00        -0.50642E+08
 
   -0.50783E+08         0.12017E+07         0.00000E+00
    0.12017E+07        -0.50083E+08         0.00000E+00
    0.00000E+00         0.00000E+00        -0.50641E+08
 
   -0.50769E+08         0.12253E+07         0.00000E+00
    0.12253E+07        -0.50088E+08         0.00000E+00
    0.00000E+00         0.00000E+00        -0.50639E+08
 
   -0.50756E+08         0.12484E+07         0.00000E+00
    0.12484E+07        -0.50092E+08         0.00000E+00
    0.00000E+00         0.00000E+00        -0.50637E+08
 
   -0.50742E+08         0.12712E+07         0.00000E+00
    0.12712E+07        -0.50097E+08         0.00000E+00
    0.00000E+00         0.00000E+00        -0.50635E+08
 
   -0.50728E+08         0.12935E+07         0.00000E+00
    0.12935E+07        -0.50102E+08         0.00000E+00
    0.00000E+00         0.00000E+00        -0.50633E+08
 
   -0.50714E+08         0.13154E+07         0.00000E+00
    0.13154E+07        -0.50108E+08         0.00000E+00
    0.00000E+00         0.00000E+00        -0.50632E+08
 
   -0.50700E+08         0.13369E+07         0.00000E+00
    0.13369E+07        -0.50113E+08         0.00000E+00
    0.00000E+00         0.00000E+00        -0.50630E+08
 
   -0.50686E+08         0.13580E+07         0.00000E+00
    0.13580E+07        -0.50119E+08         0.00000E+00
    0.00000E+00         0.00000E+00        -0.50628E+08
 
   -0.50672E+08         0.13786E+07         0.00000E+00
    0.13786E+07        -0.50125E+08         0.00000E+00
    0.00000E+00         0.00000E+00        -0.50627E+08
 
   -0.50657E+08         0.13988E+07         0.00000E+00
    0.13988E+07        -0.50131E+08         0.00000E+00
    0.00000E+00         0.00000E+00        -0.50625E+08
 
   -0.50643E+08         0.14185E+07         0.00000E+00
    0.14185E+07        -0.50137E+08         0.00000E+00
    0.00000E+00         0.00000E+00        -0.50623E+08
 
   -0.50628E+08         0.14378E+07         0.00000E+00
    0.14378E+07        -0.50143E+08         0.00000E+00
    0.00000E+00         0.00000E+00        -0.50622E+08
 
   -0.51078E+08         0.19113E+05         0.00000E+00
    0.19113E+05        -0.50000E+08         0.00000E+00
    0.00000E+00         0.00000E+00        -0.50614E+08
 
   -0.51068E+08         0.56525E+05         0.00000E+00
    0.56525E+05        -0.50000E+08         0.00000E+00
    0.00000E+00         0.00000E+00        -0.50612E+08
 
   -0.51057E+08         0.93589E+05         0.00000E+00
    0.93589E+05        -0.50000E+08         0.00000E+00
    0.00000E+00         0.00000E+00        -0.50610E+08
 
   -0.51047E+08         0.13030E+06         0.00000E+00
    0.13030E+06        -0.50001E+08         0.00000E+00
    0.00000E+00         0.00000E+00        -0.50608E+08
 
   -0.51036E+08         0.16666E+06         0.00000E+00
    0.16666E+06        -0.50001E+08         0.00000E+00
    0.00000E+00         0.00000E+00        -0.50606E+08
 
   -0.51025E+08         0.20267E+06         0.00000E+00
    0.20267E+06        -0.50001E+08         0.00000E+00
    0.00000E+00         0.00000E+00        -0.50604E+08
 
   -0.51015E+08         0.23832E+06         0.00000E+00
    0.23832E+06        -0.50002E+08         0.00000E+00
    0.00000E+00         0.00000E+00        -0.50602E+08
 
   -0.51004E+08         0.27361E+06         0.00000E+00
    0.27361E+06        -0.50003E+08         0.00000E+00
    0.00000E+00         0.00000E+00        -0.50600E+08
 
   -0.50993E+08         0.30854E+06         0.00000E+00
    0.30854E+06        -0.50003E+08         0.00000E+00
    0.00000E+00         0.00000E+00        -0.50598E+08
 
   -0.50983E+08         0.34311E+06         0.00000E+00
    0.34311E+06        -0.50004E+08         0.00000E+00
    0.00000E+00         0.00000E+00        -0.50596E+08
 
   -0.50972E+08         0.37731E+06         0.00000E+00
    0.37731E+06        -0.50005E+08         0.00000E+00
    0.00000E+00         0.00000E+00        -0.50594E+08
 
   -0.50961E+08         0.41115E+06         0.00000E+00
    0.41115E+06        -0.50006E+08         0.00000E+00
    0.00000E+00         0.00000E+00        -0.50592E+08
 
   -0.50951E+08         0.44463E+06         0.00000E+00
    0.44463E+06        -0.50007E+08         0.00000E+00
    0.00000E+00         0.00000E+00        -0.50590E+08
 
   -0.50940E+08         0.47774E+06         0.00000E+00
    0.47774E+06        -0.50008E+08         0.00000E+00
    0.00000E+00         0.00000E+00        -0.50588E+08
 
   -0.50929E+08         0.51047E+06         0.00000E+00
    0.51047E+06        -0.50009E+08         0.00000E+00
    0.00000E+00         0.00000E+00        -0.50586E+08
 
   -0.50918E+08         0.54284E+06         0.00000E+00
    0.54284E+06        -0.50011E+08         0.00000E+00
    0.00000E+00         0.00000E+00        -0.50584E+08
 
   -0.50908E+08         0.57483E+06         0.00000E+00
    0.57483E+06        -0.50012E+08         0.00000E+00
    0.00000E+00         0.00000E+00        -0.50582E+08
 
   -0.50897E+08         0.60645E+06         0.00000E+00
    0.60645E+06        -0.50014E+08         0.00000E+00
    0.00000E+00         0.00000E+00        -0.50580E+08
 
   -0.50886E+08         0.63769E+06         0.00000E+00
    0.63769E+06        -0.50015E+08         0.00000E+00
    0.00000E+00         0.00000E+00        -0.50579E+08
 
   -0.50875E+08         0.66856E+06         0.00000E+00
    0.66856E+06        -0.50017E+08         0.00000E+00
    0.00000E+00         0.00000E+00        -0.50577E+08
 
   -0.50865E+08         0.69904E+06         0.00000E+00
    0.69904E+06        -0.50019E+08         0.00000E+00
    0.00000E+00         0.00000E+00        -0.50575E+08
 
   -0.50854E+08         0.72914E+06         0.00000E+00
    0.72914E+06        -0.50021E+08         0.00000E+00
    0.00000E+00         0.00000E+00        -0.50573E+08
 
   -0.50843E+08         0.75886E+06         0.00000E+00
    0.75886E+06        -0.50023E+08         0.00000E+00
    0.00000E+00         0.00000E+00        -0.50571E+08
 
   -0.50832E+08         0.78819E+06         0.00000E+00
    0.78819E+06        -0.50025E+08         0.00000E+00
    0.00000E+00         0.00000E+00        -0.50570E+08
 
   -0.50821E+08         0.81714E+06         0.00000E+00
    0.81714E+06        -0.50027E+08         0.00000E+00
    0.00000E+00         0.00000E+00        -0.50568E+08
 
   -0.50810E+08         0.84569E+06         0.00000E+00
    0.84569E+06        -0.50029E+08         0.00000E+00
    0.00000E+00         0.00000E+00        -0.50566E+08
 
   -0.50800E+08         0.87386E+06         0.00000E+00
    0.87386E+06        -0.50032E+08         0.00000E+00
    0.00000E+00         0.00000E+00        -0.50565E+08
 
   -0.50789E+08         0.90163E+06         0.00000E+00
    0.90163E+06        -0.50034E+08         0.00000E+00
    0.00000E+00         0.00000E+00        -0.50563E+08
 
   -0.50778E+08         0.92900E+06         0.00000E+00
    0.92900E+06        -0.50037E+08         0.00000E+00
    0.00000E+00         0.00000E+00        -0.50561E+08
 
   -0.50767E+08         0.95598E+06         0.00000E+00
    0.95598E+06        -0.50040E+08         0.00000E+00
    0.00000E+00         0.00000E+00        -0.50560E+08
 
   -0.50756E+08         0.98256E+06         0.00000E+00
    0.98256E+06        -0.50042E+08         0.00000E+00
    0.00000E+00         0.00000E+00        -0.50558E+08
 
   -0.50744E+08         0.10087E+07         0.00000E+00
    0.10087E+07        -0.50045E+08         0.00000E+00
    0.00000E+00         0.00000E+00        -0.50556E+08
 
   -0.50733E+08         0.10345E+07         0.00000E+00
    0.10345E+07        -0.50048E+08         0.00000E+00
    0.00000E+00         0.00000E+00        -0.50555E+08
 
   -0.50722E+08         0.10599E+07         0.00000E+00
    0.10599E+07        -0.50052E+08         0.00000E+00
    0.00000E+00         0.00000E+00        -0.50553E+08
 
   -0.50711E+08         0.10848E+07         0.00000E+00
    0.10848E+07        -0.50055E+08         0.00000E+00
    0.00000E+00         0.00000E+00        -0.50552E+08
 
   -0.50700E+08         0.11094E+07         0.00000E+00
    0.11094E+07        -0.50058E+08         0.00000E+00
    0.00000E+00         0.00000E+00        -0.50550E+08
 
   -0.50688E+08         0.11335E+07         0.00000E+00
    0.11335E+07        -0.50062E+08         0.00000E+00
    0.00000E+00         0.00000E+00        -0.50548E+08
 
   -0.50677E+08         0.11572E+07         0.00000E+00
    0.11572E+07        -0.50066E+08         0.00000E+00
    0.00000E+00         0.00000E+00        -0.50547E+08
 
   -0.50666E+08         0.11805E+07         0.00000E+00
    0.11805E+07        -0.50069E+08         0.00000E+00
    0.00000E+00         0.00000E+00        -0.50545E+08
 
   -0.50654E+08         0.12034E+07         0.00000E+00
    0.12034E+07        -0.50073E+08         0.00000E+00
    0.00000E+00         0.00000E+00        -0.50544E+08
 
   -0.50643E+08         0.12258E+07         0.00000E+00
    0.12258E+07        -0.50077E+08         0.00000E+00
    0.00000E+00         0.00000E+00        -0.50542E+08
 
   -0.50631E+08         0.12478E+07         0.00000E+00
    0.12478E+07        -0.50082E+08         0.00000E+00
    0.00000E+00         0.00000E+00        -0.50541E+08
 
   -0.50619E+08         0.12694E+07         0.00000E+00
    0.12694E+07        -0.50086E+08         0.00000E+00
    0.00000E+00         0.00000E+00        -0.50539E+08
 
   -0.50607E+08         0.12906E+07         0.00000E+00
    0.12906E+07        -0.50090E+08         0.00000E+00
    0.00000E+00         0.00000E+00        -0.50538E+08
 
   -0.50596E+08         0.13113E+07         0.00000E+00
    0.13113E+07        -0.50095E+08         0.00000E+00
    0.00000E+00         0.00000E+00        -0.50536E+08
 
   -0.50584E+08         0.13315E+07         0.00000E+00
    0.13315E+07        -0.50100E+08         0.00000E+00
    0.00000E+00         0.00000E+00        -0.50535E+08
 
   -0.50572E+08         0.13514E+07         0.00000E+00
    0.13514E+07        -0.50105E+08         0.00000E+00
    0.00000E+00         0.00000E+00        -0.50534E+08
 
   -0.50559E+08         0.13707E+07         0.00000E+00
    0.13707E+07        -0.50110E+08         0.00000E+00
    0.00000E+00         0.00000E+00        -0.50532E+08
 
   -0.50547E+08         0.13896E+07         0.00000E+00
    0.13896E+07        -0.50115E+08         0.00000E+00
    0.00000E+00         0.00000E+00        -0.50531E+08
 
   -0.50535E+08         0.14081E+07         0.00000E+00
    0.14081E+07        -0.50120E+08         0.00000E+00
    0.00000E+00         0.00000E+00        -0.50529E+08
 
   -0.50891E+08         0.18907E+05         0.00000E+00
    0.18907E+05        -0.50000E+08         0.00000E+00
    0.00000E+00         0.00000E+00        -0.50511E+08
 
   -0.50883E+08         0.55917E+05         0.00000E+00
    0.55917E+05        -0.50000E+08         0.00000E+00
    0.00000E+00         0.00000E+00        -0.50509E+08
 
   -0.50874E+08         0.92580E+05         0.00000E+00
    0.92580E+05        -0.50000E+08         0.00000E+00
    0.00000E+00         0.00000E+00        -0.50507E+08
 
   -0.50865E+08         0.12890E+06         0.00000E+00
    0.12890E+06        -0.50000E+08         0.00000E+00
    0.00000E+00         0.00000E+00        -0.50506E+08
 
   -0.50856E+08         0.16486E+06         0.00000E+00
    0.16486E+06        -0.50001E+08         0.00000E+00
    0.00000E+00         0.00000E+00        -0.50504E+08
 
   -0.50847E+08         0.20047E+06         0.00000E+00
    0.20047E+06        -0.50001E+08         0.00000E+00
    0.00000E+00         0.00000E+00        -0.50502E+08
 
   -0.50838E+08         0.23572E+06         0.00000E+00
    0.23572E+06        -0.50002E+08         0.00000E+00
    0.00000E+00         0.00000E+00        -0.50501E+08
 
   -0.50829E+08         0.27062E+06         0.00000E+00
    0.27062E+06        -0.50002E+08         0.00000E+00
    0.00000E+00         0.00000E+00        -0.50499E+08
 
   -0.50821E+08         0.30516E+06         0.00000E+00
    0.30516E+06        -0.50003E+08         0.00000E+00
    0.00000E+00         0.00000E+00        -0.50497E+08
 
   -0.50812E+08         0.33933E+06         0.00000E+00
    0.33933E+06        -0.50003E+08         0.00000E+00
    0.00000E+00         0.00000E+00        -0.50496E+08
 
   -0.50803E+08         0.37314E+06         0.00000E+00
    0.37314E+06        -0.50004E+08         0.00000E+00
    0.00000E+00         0.00000E+00        -0.50494E+08
 
   -0.50794E+08         0.40658E+06         0.00000E+00
    0.40658E+06        -0.50005E+08         0.00000E+00
    0.00000E+00         0.00000E+00        -0.50492E+08
 
   -0.50785E+08         0.43966E+06         0.00000E+00
    0.43966E+06        -0.50006E+08         0.00000E+00
    0.00000E+00         0.00000E+00        -0.50491E+08
 
   -0.50776E+08         0.47236E+06         0.00000E+00
    0.47236E+06        -0.50006E+08         0.00000E+00
    0.00000E+00         0.00000E+00        -0.50489E+08
 
   -0.50767E+08         0.50469E+06         0.00000E+00
    0.50469E+06        -0.50007E+08         0.00000E+00
    0.00000E+00         0.00000E+00        -0.50488E+08
 
   -0.50759E+08         0.53665E+06         0.00000E+00
    0.53665E+06        -0.50008E+08         0.00000E+00
    0.00000E+00         0.00000E+00        -0.50486E+08
 
   -0.50750E+08         0.56822E+06         0.00000E+00
    0.56822E+06        -0.50010E+08         0.00000E+00
    0.00000E+00         0.00000E+00        -0.50485E+08
 
   -0.50741E+08         0.59942E+06         0.00000E+00
    0.59942E+06        -0.50011E+08         0.00000E+00
    0.00000E+00         0.00000E+00        -0.50483E+08
 
   -0.50732E+08         0.63024E+06         0.00000E+00
    0.63024E+06        -0.50012E+08         0.00000E+00
    0.00000E+00         0.00000E+00        -0.50481E+08
 
   -0.50723E+08         0.66068E+06         0.00000E+00
    0.66068E+06        -0.50013E+08         0.00000E+00
    0.00000E+00         0.00000E+00        -0.50480E+08
 
   -0.50714E+08         0.69072E+06         0.00000E+00
    0.69072E+06        -0.50015E+08         0.00000E+00
    0.00000E+00         0.00000E+00        -0.50479E+08
 
   -0.50705E+08         0.72038E+06         0.00000E+00
    0.72038E+06        -0.50016E+08         0.00000E+00
    0.00000E+00         0.00000E+00        -0.50477E+08
 
   -0.50697E+08         0.74966E+06         0.00000E+00
    0.74966E+06        -0.50018E+08         0.00000E+00
    0.00000E+00         0.00000E+00        -0.50476E+08
 
   -0.50688E+08         0.77853E+06         0.00000E+00
    0.77853E+06        -0.50020E+08         0.00000E+00
    0.00000E+00         0.00000E+00        -0.50474E+08
 
   -0.50679E+08         0.80702E+06         0.00000E+00
    0.80702E+06        -0.50021E+08         0.00000E+00
    0.00000E+00         0.00000E+00        -0.50473E+08
 
   -0.50670E+08         0.83511E+06         0.00000E+00
    0.83511E+06        -0.50023E+08         0.00000E+00
    0.00000E+00         0.00000E+00        -0.50471E+08
 
   -0.50661E+08         0.86279E+06         0.00000E+00
    0.86279E+06        -0.50025E+08         0.00000E+00
    0.00000E+00         0.00000E+00        -0.50470E+08
 
   -0.50652E+08         0.89008E+06         0.00000E+00
    0.89008E+06        -0.50027E+08         0.00000E+00
    0.00000E+00         0.00000E+00        -0.50468E+08
 
   -0.50643E+08         0.91696E+06         0.00000E+00
    0.91696E+06        -0.50029E+08         0.00000E+00
    0.00000E+00         0.00000E+00        -0.50467E+08
 
   -0.50634E+08         0.94344E+06         0.00000E+00
    0.94344E+06        -0.50031E+08         0.00000E+00
    0.00000E+00         0.00000E+00        -0.50466E+08
 
   -0.50625E+08         0.96951E+06         0.00000E+00
    0.96951E+06        -0.50034E+08         0.00000E+00
    0.00000E+00         0.00000E+00        -0.50464E+08
 
   -0.50616E+08         0.99517E+06         0.00000E+00
    0.99517E+06        -0.50036E+08         0.00000E+00
    0.00000E+00         0.00000E+00        -0.50463E+08
 
   -0.50607E+08         0.10204E+07         0.00000E+00
    0.10204E+07        -0.50038E+08         0.00000E+00
    0.00000E+00         0.00000E+00        -0.50462E+08
 
   -0.50598E+08         0.10452E+07         0.00000E+00
    0.10452E+07        -0.50041E+08         0.00000E+00
    0.00000E+00         0.00000E+00        -0.50460E+08
 
   -0.50589E+08         0.10696E+07         0.00000E+00
    0.10696E+07        -0.50044E+08         0.00000E+00
    0.00000E+00         0.00000E+00        -0.50459E+08
 
   -0.50579E+08         0.10936E+07         0.00000E+00
    0.10936E+07        -0.50046E+08         0.00000E+00
    0.00000E+00         0.00000E+00        -0.50458E+08
 
   -0.50570E+08         0.11172E+07         0.00000E+00
    0.11172E+07        -0.50049E+08         0.00000E+00
    0.00000E+00         0.00000E+00        -0.50457E+08
 
   -0.50561E+08         0.11403E+07         0.00000E+00
    0.11403E+07        -0.50052E+08         0.00000E+00
    0.00000E+00         0.00000E+00        -0.50455E+08
 
   -0.50552E+08         0.11630E+07         0.00000E+00
    0.11630E+07        -0.50055E+08         0.00000E+00
    0.00000E+00         0.00000E+00        -0.50454E+08
 
   -0.50542E+08         0.11853E+07         0.00000E+00
    0.11853E+07        -0.50058E+08         0.00000E+00
    0.00000E+00         0.00000E+00        -0.50453E+08
 
   -0.50533E+08         0.12071E+07         0.00000E+00
    0.12071E+07        -0.50062E+08         0.00000E+00
    0.00000E+00         0.00000E+00        -0.50452E+08
 
   -0.50524E+08         0.12285E+07         0.00000E+00
    0.12285E+07        -0.50065E+08         0.00000E+00
    0.00000E+00         0.00000E+00        -0.50450E+08
 
   -0.50514E+08         0.12495E+07         0.00000E+00
    0.12495E+07        -0.50069E+08         0.00000E+00
    0.00000E+00         0.00000E+00        -0.50449E+08
 
   -0.50504E+08         0.12700E+07         0.00000E+00
    0.12700E+07        -0.50072E+08         0.00000E+00
    0.00000E+00         0.00000E+00        -0.50448E+08
 
   -0.50495E+08         0.12900E+07         0.00000E+00
    0.12900E+07        -0.50076E+08         0.00000E+00
    0.00000E+00         0.00000E+00        -0.50447E+08
 
   -0.50485E+08         0.13096E+07         0.00000E+00
    0.13096E+07        -0.50080E+08         0.00000E+00
    0.00000E+00         0.00000E+00        -0.50446E+08
 
   -0.50475E+08         0.13288E+07         0.00000E+00
    0.13288E+07        -0.50084E+08         0.00000E+00
    0.00000E+00         0.00000E+00        -0.50444E+08
 
   -0.50465E+08         0.13475E+07         0.00000E+00
    0.13475E+07        -0.50088E+08         0.00000E+00
    0.00000E+00         0.00000E+00        -0.50443E+08
 
   -0.50456E+08         0.13657E+07         0.00000E+00
    0.13657E+07        -0.50092E+08         0.00000E+00
    0.00000E+00         0.00000E+00        -0.50442E+08
 
   -0.50446E+08         0.13835E+07         0.00000E+00
    0.13835E+07        -0.50096E+08         0.00000E+00
    0.00000E+00         0.00000E+00        -0.50441E+08
 
   -0.50706E+08         0.18752E+05         0.00000E+00
    0.18752E+05        -0.50000E+08         0.00000E+00
    0.00000E+00         0.00000E+00        -0.50411E+08
 
   -0.50699E+08         0.55457E+05         0.00000E+00
    0.55457E+05        -0.50000E+08         0.00000E+00
    0.00000E+00         0.00000E+00        -0.50410E+08
 
   -0.50692E+08         0.91818E+05         0.00000E+00
    0.91818E+05        -0.50000E+08         0.00000E+00
    0.00000E+00         0.00000E+00        -0.50408E+08
 
   -0.50685E+08         0.12783E+06         0.00000E+00
    0.12783E+06        -0.50000E+08         0.00000E+00
    0.00000E+00         0.00000E+00        -0.50407E+08
 
   -0.50678E+08         0.16350E+06         0.00000E+00
    0.16350E+06        -0.50001E+08         0.00000E+00
    0.00000E+00         0.00000E+00        -0.50405E+08
 
   -0.50671E+08         0.19881E+06         0.00000E+00
    0.19881E+06        -0.50001E+08         0.00000E+00
    0.00000E+00         0.00000E+00        -0.50404E+08
 
   -0.50664E+08         0.23376E+06         0.00000E+00
    0.23376E+06        -0.50001E+08         0.00000E+00
    0.00000E+00         0.00000E+00        -0.50403E+08
 
   -0.50657E+08         0.26836E+06         0.00000E+00
    0.26836E+06        -0.50001E+08         0.00000E+00
    0.00000E+00         0.00000E+00        -0.50401E+08
 
   -0.50650E+08         0.30260E+06         0.00000E+00
    0.30260E+06        -0.50002E+08         0.00000E+00
    0.00000E+00         0.00000E+00        -0.50400E+08
 
   -0.50642E+08         0.33647E+06         0.00000E+00
    0.33647E+06        -0.50002E+08         0.00000E+00
    0.00000E+00         0.00000E+00        -0.50399E+08
 
   -0.50635E+08         0.36998E+06         0.00000E+00
    0.36998E+06        -0.50003E+08         0.00000E+00
    0.00000E+00         0.00000E+00        -0.50397E+08
 
   -0.50628E+08         0.40312E+06         0.00000E+00
    0.40312E+06        -0.50003E+08         0.00000E+00
    0.00000E+00         0.00000E+00        -0.50396E+08
 
   -0.50621E+08         0.43589E+06         0.00000E+00
    0.43589E+06        -0.50004E+08         0.00000E+00
    0.00000E+00         0.00000E+00        -0.50395E+08
 
   -0.50614E+08         0.46828E+06         0.00000E+00
    0.46828E+06        -0.50005E+08         0.00000E+00
    0.00000E+00         0.00000E+00        -0.50394E+08
 
   -0.50607E+08         0.50030E+06         0.00000E+00
    0.50030E+06        -0.50005E+08         0.00000E+00
    0.00000E+00         0.00000E+00        -0.50392E+08
 
   -0.50601E+08         0.53194E+06         0.00000E+00
    0.53194E+06        -0.50006E+08         0.00000E+00
    0.00000E+00         0.00000E+00        -0.50391E+08
 
   -0.50594E+08         0.56320E+06         0.00000E+00
    0.56320E+06        -0.50007E+08         0.00000E+00
    0.00000E+00         0.00000E+00        -0.50390E+08
 
   -0.50587E+08         0.59408E+06         0.00000E+00
    0.59408E+06        -0.50008E+08         0.00000E+00
    0.00000E+00         0.00000E+00        -0.50389E+08
 
   -0.50580E+08         0.62457E+06         0.00000E+00
    0.62457E+06        -0.50009E+08         0.00000E+00
    0.00000E+00         0.00000E+00        -0.50388E+08
 
   -0.50573E+08         0.65467E+06         0.00000E+00
    0.65467E+06        -0.50010E+08         0.00000E+00
    0.00000E+00         0.00000E+00        -0.50386E+08
 
   -0.50566E+08         0.68438E+06         0.00000E+00
    0.68438E+06        -0.50011E+08         0.00000E+00
    0.00000E+00         0.00000E+00        -0.50385E+08
 
   -0.50559E+08         0.71370E+06         0.00000E+00
    0.71370E+06        -0.50012E+08         0.00000E+00
    0.00000E+00         0.00000E+00        -0.50384E+08
 
   -0.50552E+08         0.74262E+06         0.00000E+00
    0.74262E+06        -0.50013E+08         0.00000E+00
    0.00000E+00         0.00000E+00        -0.50383E+08
 
   -0.50545E+08         0.77114E+06         0.00000E+00
    0.77114E+06        -0.50014E+08         0.00000E+00
    0.00000E+00         0.00000E+00        -0.50382E+08
 
   -0.50538E+08         0.79927E+06         0.00000E+00
    0.79927E+06        -0.50015E+08         0.00000E+00
    0.00000E+00         0.00000E+00        -0.50381E+08
 
   -0.50531E+08         0.82698E+06         0.00000E+00
    0.82698E+06        -0.50017E+08         0.00000E+00
    0.00000E+00         0.00000E+00        -0.50379E+08
 
   -0.50524E+08         0.85430E+06         0.00000E+00
    0.85430E+06        -0.50018E+08         0.00000E+00
    0.00000E+00         0.00000E+00        -0.50378E+08
 
   -0.50518E+08         0.88120E+06         0.00000E+00
    0.88120E+06        -0.50020E+08         0.00000E+00
    0.00000E+00         0.00000E+00        -0.50377E+08
 
   -0.50511E+08         0.90770E+06         0.00000E+00
    0.90770E+06        -0.50021E+08         0.00000E+00
    0.00000E+00         0.00000E+00        -0.50376E+08
 
   -0.50504E+08         0.93378E+06         0.00000E+00
    0.93378E+06        -0.50023E+08         0.00000E+00
    0.00000E+00         0.00000E+00        -0.50375E+08
 
   -0.50497E+08         0.95944E+06         0.00000E+00
    0.95944E+06        -0.50024E+08         0.00000E+00
    0.00000E+00         0.00000E+00        -0.50374E+08
 
   -0.50490E+08         0.98469E+06         0.00000E+00
    0.98469E+06        -0.50026E+08         0.00000E+00
    0.00000E+00         0.00000E+00        -0.50373E+08
 
   -0.50483E+08         0.10095E+07         0.00000E+00
    0.10095E+07        -0.50028E+08         0.00000E+00
    0.00000E+00         0.00000E+00        -0.50372E+08
 
   -0.50476E+08         0.10339E+07         0.00000E+00
    0.10339E+07        -0.50030E+08         0.00000E+00
    0.00000E+00         0.00000E+00        -0.50371E+08
 
   -0.50469E+08         0.10579E+07         0.00000E+00
    0.10579E+07        -0.50032E+08         0.00000E+00
    0.00000E+00         0.00000E+00        -0.50370E+08
 
   -0.50462E+08         0.10814E+07         0.00000E+00
    0.10814E+07        -0.50034E+08         0.00000E+00
    0.00000E+00         0.00000E+00        -0.50369E+08
 
   -0.50455E+08         0.11045E+07         0.00000E+00
    0.11045E+07        -0.50036E+08         0.00000E+00
    0.00000E+00         0.00000E+00        -0.50368E+08
 
   -0.50448E+08         0.11272E+07         0.00000E+00
    0.11272E+07        -0.50038E+08         0.00000E+00
    0.00000E+00         0.00000E+00        -0.50367E+08
 
   -0.50440E+08         0.11494E+07         0.00000E+00
    0.11494E+07        -0.50041E+08         0.00000E+00
    0.00000E+00         0.00000E+00        -0.50366E+08
 
   -0.50433E+08         0.11712E+07         0.00000E+00
    0.11712E+07        -0.50043E+08         0.00000E+00
    0.00000E+00         0.00000E+00        -0.50365E+08
 
   -0.50426E+08         0.11926E+07         0.00000E+00
    0.11926E+07        -0.50045E+08         0.00000E+00
    0.00000E+00         0.00000E+00        -0.50364E+08
 
   -0.50419E+08         0.12134E+07         0.00000E+00
    0.12134E+07        -0.50048E+08         0.00000E+00
    0.00000E+00         0.00000E+00        -0.50363E+08
 
   -0.50412E+08         0.12339E+07         0.00000E+00
    0.12339E+07        -0.50051E+08         0.00000E+00
    0.00000E+00         0.00000E+00        -0.50362E+08
 
   -0.50404E+08         0.12539E+07         0.00000E+00
    0.12539E+07        -0.50053E+08         0.00000E+00
    0.00000E+00         0.00000E+00        -0.50361E+08
 
   -0.50397E+08         0.12734E+07         0.00000E+00
    0.12734E+07        -0.50056E+08         0.00000E+00
    0.00000E+00         0.00000E+00        -0.50360E+08
 
   -0.50390E+08         0.12924E+07         0.00000E+00
    0.12924E+07        -0.50059E+08         0.00000E+00
    0.00000E+00         0.00000E+00        -0.50360E+08
 
   -0.50382E+08         0.13110E+07         0.00000E+00
    0.13110E+07        -0.50062E+08         0.00000E+00
    0.00000E+00         0.00000E+00        -0.50359E+08
 
   -0.50375E+08         0.13292E+07         0.00000E+00
    0.13292E+07        -0.50065E+08         0.00000E+00
    0.00000E+00         0.00000E+00        -0.50358E+08
 
   -0.50367E+08         0.13468E+07         0.00000E+00
    0.13468E+07        -0.50068E+08         0.00000E+00
    0.00000E+00         0.00000E+00        -0.50357E+08
 
   -0.50359E+08         0.13640E+07         0.00000E+00
    0.13640E+07        -0.50072E+08         0.00000E+00
    0.00000E+00         0.00000E+00        -0.50356E+08
 
   -0.50523E+08         0.18649E+05         0.00000E+00
    0.18649E+05        -0.50000E+08         0.00000E+00
    0.00000E+00         0.00000E+00        -0.50314E+08
 
   -0.50517E+08         0.55154E+05         0.00000E+00
    0.55154E+05        -0.50000E+08         0.00000E+00
    0.00000E+00         0.00000E+00        -0.50313E+08
 
   -0.50512E+08         0.91316E+05         0.00000E+00
    0.91316E+05        -0.50000E+08         0.00000E+00
    0.00000E+00         0.00000E+00        -0.50312E+08
 
   -0.50506E+08         0.12713E+06         0.00000E+00
    0.12713E+06        -0.50000E+08         0.00000E+00
    0.00000E+00         0.00000E+00        -0.50311E+08
 
   -0.50501E+08         0.16260E+06         0.00000E+00
    0.16260E+06        -0.50000E+08         0.00000E+00
    0.00000E+00         0.00000E+00        -0.50309E+08
 
   -0.50496E+08         0.19771E+06         0.00000E+00
    0.19771E+06        -0.50000E+08         0.00000E+00
    0.00000E+00         0.00000E+00        -0.50308E+08
 
   -0.50490E+08         0.23247E+06         0.00000E+00
    0.23247E+06        -0.50001E+08         0.00000E+00
    0.00000E+00         0.00000E+00        -0.50307E+08
 
   -0.50485E+08         0.26687E+06         0.00000E+00
    0.26687E+06        -0.50001E+08         0.00000E+00
    0.00000E+00         0.00000E+00        -0.50306E+08
 
   -0.50480E+08         0.30091E+06         0.00000E+00
    0.30091E+06        -0.50001E+08         0.00000E+00
    0.00000E+00         0.00000E+00        -0.50305E+08
 
   -0.50475E+08         0.33458E+06         0.00000E+00
    0.33458E+06        -0.50001E+08         0.00000E+00
    0.00000E+00         0.00000E+00        -0.50304E+08
 
   -0.50469E+08         0.36788E+06         0.00000E+00
    0.36788E+06        -0.50002E+08         0.00000E+00
    0.00000E+00         0.00000E+00        -0.50303E+08
 
   -0.50464E+08         0.40082E+06         0.00000E+00
    0.40082E+06        -0.50002E+08         0.00000E+00
    0.00000E+00         0.00000E+00        -0.50302E+08
 
   -0.50459E+08         0.43338E+06         0.00000E+00
    0.43338E+06        -0.50002E+08         0.00000E+00
    0.00000E+00         0.00000E+00        -0.50302E+08
 
   -0.50454E+08         0.46556E+06         0.00000E+00
    0.46556E+06        -0.50003E+08         0.00000E+00
    0.00000E+00         0.00000E+00        -0.50301E+08
 
   -0.50449E+08         0.49737E+06         0.00000E+00
    0.49737E+06        -0.50003E+08         0.00000E+00
    0.00000E+00         0.00000E+00        -0.50300E+08
 
   -0.50444E+08         0.52879E+06         0.00000E+00
    0.52879E+06        -0.50004E+08         0.00000E+00
    0.00000E+00         0.00000E+00        -0.50299E+08
 
   -0.50439E+08         0.55983E+06         0.00000E+00
    0.55983E+06        -0.50004E+08         0.00000E+00
    0.00000E+00         0.00000E+00        -0.50298E+08
 
   -0.50434E+08         0.59049E+06         0.00000E+00
    0.59049E+06        -0.50005E+08         0.00000E+00
    0.00000E+00         0.00000E+00        -0.50297E+08
 
   -0.50429E+08         0.62075E+06         0.00000E+00
    0.62075E+06        -0.50005E+08         0.00000E+00
    0.00000E+00         0.00000E+00        -0.50296E+08
 
   -0.50424E+08         0.65062E+06         0.00000E+00
    0.65062E+06        -0.50006E+08         0.00000E+00
    0.00000E+00         0.00000E+00        -0.50295E+08
 
   -0.50419E+08         0.68009E+06         0.00000E+00
    0.68009E+06        -0.50006E+08         0.00000E+00
    0.00000E+00         0.00000E+00        -0.50294E+08
 
   -0.50414E+08         0.70917E+06         0.00000E+00
    0.70917E+06        -0.50007E+08         0.00000E+00
    0.00000E+00         0.00000E+00        -0.50293E+08
 
   -0.50409E+08         0.73784E+06         0.00000E+00
    0.73784E+06        -0.50008E+08         0.00000E+00
    0.00000E+00         0.00000E+00        -0.50293E+08
 
   -0.50404E+08         0.76611E+06         0.00000E+00
    0.76611E+06        -0.50008E+08         0.00000E+00
    0.00000E+00         0.00000E+00        -0.50292E+08
 
   -0.50399E+08         0.79398E+06         0.00000E+00
    0.79398E+06        -0.50009E+08         0.00000E+00
    0.00000E+00         0.00000E+00        -0.50291E+08
 
   -0.50394E+08         0.82143E+06         0.00000E+00
    0.82143E+06        -0.50010E+08         0.00000E+00
    0.00000E+00         0.00000E+00        -0.50290E+08
 
   -0.50390E+08         0.84848E+06         0.00000E+00
    0.84848E+06        -0.50011E+08         0.00000E+00
    0.00000E+00         0.00000E+00        -0.50289E+08
 
   -0.50385E+08         0.87510E+06         0.00000E+00
    0.87510E+06        -0.50012E+08         0.00000E+00
    0.00000E+00         0.00000E+00        -0.50289E+08
 
   -0.50380E+08         0.90131E+06         0.00000E+00
    0.90131E+06        -0.50013E+08         0.00000E+00
    0.00000E+00         0.00000E+00        -0.50288E+08
 
   -0.50375E+08         0.92710E+06         0.00000E+00
    0.92710E+06        -0.50014E+08         0.00000E+00
    0.00000E+00         0.00000E+00        -0.50287E+08
 
   -0.50370E+08         0.95247E+06         0.00000E+00
    0.95247E+06        -0.50015E+08         0.00000E+00
    0.00000E+00         0.00000E+00        -0.50286E+08
 
   -0.50365E+08         0.97741E+06         0.00000E+00
    0.97741E+06        -0.50016E+08         0.00000E+00
    0.00000E+00         0.00000E+00        -0.50286E+08
 
   -0.50361E+08         0.10019E+07         0.00000E+00
    0.10019E+07        -0.50017E+08         0.00000E+00
    0.00000E+00         0.00000E+00        -0.50285E+08
 
   -0.50356E+08         0.10260E+07         0.00000E+00
    0.10260E+07        -0.50018E+08         0.00000E+00
    0.00000E+00         0.00000E+00        -0.50284E+08
 
   -0.50351E+08         0.10496E+07         0.00000E+00
    0.10496E+07        -0.50020E+08         0.00000E+00
    0.00000E+00         0.00000E+00        -0.50283E+08
 
   -0.50346E+08         0.10728E+07         0.00000E+00
    0.10728E+07        -0.50021E+08         0.00000E+00
    0.00000E+00         0.00000E+00        -0.50283E+08
 
   -0.50341E+08         0.10956E+07         0.00000E+00
    0.10956E+07        -0.50022E+08         0.00000E+00
    0.00000E+00         0.00000E+00        -0.50282E+08
 
   -0.50336E+08         0.11179E+07         0.00000E+00
    0.11179E+07        -0.50024E+08         0.00000E+00
    0.00000E+00         0.00000E+00        -0.50281E+08
 
   -0.50331E+08         0.11398E+07         0.00000E+00
    0.11398E+07        -0.50025E+08         0.00000E+00
    0.00000E+00         0.00000E+00        -0.50281E+08
 
   -0.50326E+08         0.11612E+07         0.00000E+00
    0.11612E+07        -0.50027E+08         0.00000E+00
    0.00000E+00         0.00000E+00        -0.50280E+08
 
   -0.50322E+08         0.11822E+07         0.00000E+00
    0.11822E+07        -0.50028E+08         0.00000E+00
    0.00000E+00         0.00000E+00        -0.50279E+08
 
   -0.50317E+08         0.12027E+07         0.00000E+00
    0.12027E+07        -0.50030E+08         0.00000E+00
    0.00000E+00         0.00000E+00        -0.50279E+08
 
   -0.50312E+08         0.12227E+07         0.00000E+00
    0.12227E+07        -0.50032E+08         0.00000E+00
    0.00000E+00         0.00000E+00        -0.50278E+08
 
   -0.50307E+08         0.12423E+07         0.00000E+00
    0.12423E+07        -0.50034E+08         0.00000E+00
    0.00000E+00         0.00000E+00        -0.50277E+08
 
   -0.50302E+08         0.12614E+07         0.00000E+00
    0.12614E+07        -0.50035E+08         0.00000E+00
    0.00000E+00         0.00000E+00        -0.50277E+08
 
   -0.50297E+08         0.12801E+07         0.00000E+00
    0.12801E+07        -0.50037E+08         0.00000E+00
    0.00000E+00         0.00000E+00        -0.50276E+08
 
   -0.50291E+08         0.12982E+07         0.00000E+00
    0.12982E+07        -0.50039E+08         0.00000E+00
    0.00000E+00         0.00000E+00        -0.50275E+08
 
   -0.50286E+08         0.13159E+07         0.00000E+00
    0.13159E+07        -0.50042E+08         0.00000E+00
    0.00000E+00         0.00000E+00        -0.50275E+08
 
   -0.50281E+08         0.13331E+07         0.00000E+00
    0.13331E+07        -0.50044E+08         0.00000E+00
    0.00000E+00         0.00000E+00        -0.50274E+08
 
   -0.50276E+08         0.13498E+07         0.00000E+00
    0.13498E+07        -0.50046E+08         0.00000E+00
    0.00000E+00         0.00000E+00        -0.50274E+08
 
   -0.50339E+08         0.18602E+05         0.00000E+00
    0.18602E+05        -0.50000E+08         0.00000E+00
    0.00000E+00         0.00000E+00        -0.50218E+08
 
   -0.50336E+08         0.55015E+05         0.00000E+00
    0.55015E+05        -0.50000E+08         0.00000E+00
    0.00000E+00         0.00000E+00        -0.50218E+08
 
   -0.50332E+08         0.91085E+05         0.00000E+00
    0.91085E+05        -0.50000E+08         0.00000E+00
    0.00000E+00         0.00000E+00        -0.50217E+08
 
   -0.50328E+08         0.12681E+06         0.00000E+00
    0.12681E+06        -0.50000E+08         0.00000E+00
    0.00000E+00         0.00000E+00        -0.50216E+08
 
   -0.50325E+08         0.16218E+06         0.00000E+00
    0.16218E+06        -0.50000E+08         0.00000E+00
    0.00000E+00         0.00000E+00        -0.50215E+08
 
   -0.50321E+08         0.19721E+06         0.00000E+00
    0.19721E+06        -0.50000E+08         0.00000E+00
    0.00000E+00         0.00000E+00        -0.50215E+08
 
   -0.50318E+08         0.23187E+06         0.00000E+00
    0.23187E+06        -0.50000E+08         0.00000E+00
    0.00000E+00         0.00000E+00        -0.50214E+08
 
   -0.50314E+08         0.26617E+06         0.00000E+00
    0.26617E+06        -0.50000E+08         0.00000E+00
    0.00000E+00         0.00000E+00        -0.50213E+08
 
   -0.50311E+08         0.30012E+06         0.00000E+00
    0.30012E+06        -0.50000E+08         0.00000E+00
    0.00000E+00         0.00000E+00        -0.50213E+08
 
   -0.50307E+08         0.33369E+06         0.00000E+00
    0.33369E+06        -0.50000E+08         0.00000E+00
    0.00000E+00         0.00000E+00        -0.50212E+08
 
   -0.50304E+08         0.36690E+06         0.00000E+00
    0.36690E+06        -0.50000E+08         0.00000E+00
    0.00000E+00         0.00000E+00        -0.50211E+08
 
   -0.50301E+08         0.39973E+06         0.00000E+00
    0.39973E+06        -0.50001E+08         0.00000E+00
    0.00000E+00         0.00000E+00        -0.50211E+08
 
   -0.50297E+08         0.43218E+06         0.00000E+00
    0.43218E+06        -0.50001E+08         0.00000E+00
    0.00000E+00         0.00000E+00        -0.50210E+08
 
   -0.50294E+08         0.46426E+06         0.00000E+00
    0.46426E+06        -0.50001E+08         0.00000E+00
    0.00000E+00         0.00000E+00        -0.50209E+08
 
   -0.50291E+08         0.49596E+06         0.00000E+00
    0.49596E+06        -0.50001E+08         0.00000E+00
    0.00000E+00         0.00000E+00        -0.50209E+08
 
   -0.50288E+08         0.52727E+06         0.00000E+00
    0.52727E+06        -0.50001E+08         0.00000E+00
    0.00000E+00         0.00000E+00        -0.50208E+08
 
   -0.50285E+08         0.55819E+06         0.00000E+00
    0.55819E+06        -0.50001E+08         0.00000E+00
    0.00000E+00         0.00000E+00        -0.50208E+08
 
   -0.50282E+08         0.58872E+06         0.00000E+00
    0.58872E+06        -0.50001E+08         0.00000E+00
    0.00000E+00         0.00000E+00        -0.50207E+08
 
   -0.50279E+08         0.61886E+06         0.00000E+00
    0.61886E+06        -0.50001E+08         0.00000E+00
    0.00000E+00         0.00000E+00        -0.50206E+08
 
   -0.50276E+08         0.64860E+06         0.00000E+00
    0.64860E+06        -0.50002E+08         0.00000E+00
    0.00000E+00         0.00000E+00        -0.50206E+08
 
   -0.50273E+08         0.67794E+06         0.00000E+00
    0.67794E+06        -0.50002E+08         0.00000E+00
    0.00000E+00         0.00000E+00        -0.50205E+08
 
   -0.50270E+08         0.70687E+06         0.00000E+00
    0.70687E+06        -0.50002E+08         0.00000E+00
    0.00000E+00         0.00000E+00        -0.50205E+08
 
   -0.50267E+08         0.73540E+06         0.00000E+00
    0.73540E+06        -0.50002E+08         0.00000E+00
    0.00000E+00         0.00000E+00        -0.50204E+08
 
   -0.50264E+08         0.76353E+06         0.00000E+00
    0.76353E+06        -0.50003E+08         0.00000E+00
    0.00000E+00         0.00000E+00        -0.50204E+08
 
   -0.50261E+08         0.79124E+06         0.00000E+00
    0.79124E+06        -0.50003E+08         0.00000E+00
    0.00000E+00         0.00000E+00        -0.50203E+08
 
   -0.50259E+08         0.81853E+06         0.00000E+00
    0.81853E+06        -0.50003E+08         0.00000E+00
    0.00000E+00         0.00000E+00        -0.50203E+08
 
   -0.50256E+08         0.84541E+06         0.00000E+00
    0.84541E+06        -0.50003E+08         0.00000E+00
    0.00000E+00         0.00000E+00        -0.50202E+08
 
   -0.50253E+08         0.87187E+06         0.00000E+00
    0.87187E+06        -0.50004E+08         0.00000E+00
    0.00000E+00         0.00000E+00        -0.50202E+08
 
   -0.50250E+08         0.89790E+06         0.00000E+00
    0.89790E+06        -0.50004E+08         0.00000E+00
    0.00000E+00         0.00000E+00        -0.50201E+08
 
   -0.50248E+08         0.92351E+06         0.00000E+00
    0.92351E+06        -0.50005E+08         0.00000E+00
    0.00000E+00         0.00000E+00        -0.50201E+08
 
   -0.50245E+08         0.94869E+06         0.00000E+00
    0.94869E+06        -0.50005E+08         0.00000E+00
    0.00000E+00         0.00000E+00        -0.50200E+08
 
   -0.50242E+08         0.97343E+06         0.00000E+00
    0.97343E+06        -0.50005E+08         0.00000E+00
    0.00000E+00         0.00000E+00        -0.50200E+08
 
   -0.50240E+08         0.99774E+06         0.00000E+00
    0.99774E+06        -0.50006E+08         0.00000E+00
    0.00000E+00         0.00000E+00        -0.50200E+08
 
   -0.50237E+08         0.10216E+07         0.00000E+00
    0.10216E+07        -0.50006E+08         0.00000E+00
    0.00000E+00         0.00000E+00        -0.50199E+08
 
   -0.50234E+08         0.10450E+07         0.00000E+00
    0.10450E+07        -0.50007E+08         0.00000E+00
    0.00000E+00         0.00000E+00        -0.50199E+08
 
   -0.50232E+08         0.10680E+07         0.00000E+00
    0.10680E+07        -0.50008E+08         0.00000E+00
    0.00000E+00         0.00000E+00        -0.50198E+08
 
   -0.50229E+08         0.10906E+07         0.00000E+00
    0.10906E+07        -0.50008E+08         0.00000E+00
    0.00000E+00         0.00000E+00        -0.50198E+08
 
   -0.50226E+08         0.11126E+07         0.00000E+00
    0.11126E+07        -0.50009E+08         0.00000E+00
    0.00000E+00         0.00000E+00        -0.50197E+08
 
   -0.50224E+08         0.11343E+07         0.00000E+00
    0.11343E+07        -0.50009E+08         0.00000E+00
    0.00000E+00         0.00000E+00        -0.50197E+08
 
   -0.50221E+08         0.11554E+07         0.00000E+00
    0.11554E+07        -0.50010E+08         0.00000E+00
    0.00000E+00         0.00000E+00        -0.50197E+08
 
   -0.50219E+08         0.11761E+07         0.00000E+00
    0.11761E+07        -0.50011E+08         0.00000E+00
    0.00000E+00         0.00000E+00        -0.50196E+08
 
   -0.50216E+08         0.11964E+07         0.00000E+00
    0.11964E+07        -0.50012E+08         0.00000E+00
    0.00000E+00         0.00000E+00        -0.50196E+08
 
   -0.50213E+08         0.12161E+07         0.00000E+00
    0.12161E+07        -0.50013E+08         0.00000E+00
    0.00000E+00         0.00000E+00        -0.50196E+08
 
   -0.50211E+08         0.12354E+07         0.00000E+00
    0.12354E+07        -0.50013E+08         0.00000E+00
    0.00000E+00         0.00000E+00        -0.50195E+08
 
   -0.50208E+08         0.12543E+07         0.00000E+00
    0.12543E+07        -0.50014E+08         0.00000E+00
    0.00000E+00         0.00000E+00        -0.50195E+08
 
   -0.50205E+08         0.12726E+07         0.00000E+00
    0.12726E+07        -0.50015E+08         0.00000E+00
    0.00000E+00         0.00000E+00        -0.50195E+08
 
   -0.50203E+08         0.12905E+07         0.00000E+00
    0.12905E+07        -0.50016E+08         0.00000E+00
    0.00000E+00         0.00000E+00        -0.50194E+08
 
   -0.50200E+08         0.13078E+07         0.00000E+00
    0.13078E+07        -0.50017E+08         0.00000E+00
    0.00000E+00         0.00000E+00        -0.50194E+08
 
   -0.50197E+08         0.13247E+07         0.00000E+00
    0.13247E+07        -0.50019E+08         0.00000E+00
    0.00000E+00         0.00000E+00        -0.50194E+08
 
   -0.50194E+08         0.13411E+07         0.00000E+00
    0.13411E+07        -0.50020E+08         0.00000E+00
    0.00000E+00         0.00000E+00        -0.50193E+08
 
   -0.50156E+08         0.18613E+05         0.00000E+00
    0.18613E+05        -0.50000E+08         0.00000E+00
    0.00000E+00         0.00000E+00        -0.50124E+08
 
   -0.50154E+08         0.55046E+05         0.00000E+00
    0.55046E+05        -0.50000E+08         0.00000E+00
    0.00000E+00         0.00000E+00        -0.50124E+08
 
   -0.50152E+08         0.91136E+05         0.00000E+00
    0.91136E+05        -0.50000E+08         0.00000E+00
    0.00000E+00         0.00000E+00        -0.50123E+08
 
   -0.50151E+08         0.12688E+06         0.00000E+00
    0.12688E+06        -0.50000E+08         0.00000E+00
    0.00000E+00         0.00000E+00        -0.50123E+08
 
   -0.50149E+08         0.16227E+06         0.00000E+00
    0.16227E+06        -0.50000E+08         0.00000E+00
    0.00000E+00         0.00000E+00        -0.50123E+08
 
   -0.50147E+08         0.19731E+06         0.00000E+00
    0.19731E+06        -0.50000E+08         0.00000E+00
    0.00000E+00         0.00000E+00        -0.50122E+08
 
   -0.50145E+08         0.23199E+06         0.00000E+00
    0.23199E+06        -0.50000E+08         0.00000E+00
    0.00000E+00         0.00000E+00        -0.50122E+08
 
   -0.50144E+08         0.26631E+06         0.00000E+00
    0.26631E+06        -0.50000E+08         0.00000E+00
    0.00000E+00         0.00000E+00        -0.50121E+08
 
   -0.50142E+08         0.30026E+06         0.00000E+00
    0.30026E+06        -0.49999E+08         0.00000E+00
    0.00000E+00         0.00000E+00        -0.50121E+08
 
   -0.50140E+08         0.33384E+06         0.00000E+00
    0.33384E+06        -0.49999E+08         0.00000E+00
    0.00000E+00         0.00000E+00        -0.50121E+08
 
   -0.50139E+08         0.36705E+06         0.00000E+00
    0.36705E+06        -0.49999E+08         0.00000E+00
    0.00000E+00         0.00000E+00        -0.50120E+08
 
   -0.50138E+08         0.39989E+06         0.00000E+00
    0.39989E+06        -0.49999E+08         0.00000E+00
    0.00000E+00         0.00000E+00        -0.50120E+08
 
   -0.50136E+08         0.43235E+06         0.00000E+00
    0.43235E+06        -0.49999E+08         0.00000E+00
    0.00000E+00         0.00000E+00        -0.50120E+08
 
   -0.50135E+08         0.46442E+06         0.00000E+00
    0.46442E+06        -0.49999E+08         0.00000E+00
    0.00000E+00         0.00000E+00        -0.50120E+08
 
   -0.50134E+08         0.49611E+06         0.00000E+00
    0.49611E+06        -0.49999E+08         0.00000E+00
    0.00000E+00         0.00000E+00        -0.50119E+08
 
   -0.50132E+08         0.52741E+06         0.00000E+00
    0.52741E+06        -0.49998E+08         0.00000E+00
    0.00000E+00         0.00000E+00        -0.50119E+08
 
   -0.50131E+08         0.55832E+06         0.00000E+00
    0.55832E+06        -0.49998E+08         0.00000E+00
    0.00000E+00         0.00000E+00        -0.50119E+08
 
   -0.50130E+08         0.58883E+06         0.00000E+00
    0.58883E+06        -0.49998E+08         0.00000E+00
    0.00000E+00         0.00000E+00        -0.50118E+08
 
   -0.50129E+08         0.61895E+06         0.00000E+00
    0.61895E+06        -0.49998E+08         0.00000E+00
    0.00000E+00         0.00000E+00        -0.50118E+08
 
   -0.50128E+08         0.64867E+06         0.00000E+00
    0.64867E+06        -0.49997E+08         0.00000E+00
    0.00000E+00         0.00000E+00        -0.50118E+08
 
   -0.50127E+08         0.67798E+06         0.00000E+00
    0.67798E+06        -0.49997E+08         0.00000E+00
    0.00000E+00         0.00000E+00        -0.50118E+08
 
   -0.50126E+08         0.70688E+06         0.00000E+00
    0.70688E+06        -0.49997E+08         0.00000E+00
    0.00000E+00         0.00000E+00        -0.50117E+08
 
   -0.50126E+08         0.73537E+06         0.00000E+00
    0.73537E+06        -0.49997E+08         0.00000E+00
    0.00000E+00         0.00000E+00        -0.50117E+08
 
   -0.50125E+08         0.76345E+06         0.00000E+00
    0.76345E+06        -0.49997E+08         0.00000E+00
    0.00000E+00         0.00000E+00        -0.50117E+08
 
   -0.50124E+08         0.79112E+06         0.00000E+00
    0.79112E+06        -0.49996E+08         0.00000E+00
    0.00000E+00         0.00000E+00        -0.50117E+08
 
   -0.50123E+08         0.81836E+06         0.00000E+00
    0.81836E+06        -0.49996E+08         0.00000E+00
    0.00000E+00         0.00000E+00        -0.50117E+08
 
   -0.50123E+08         0.84518E+06         0.00000E+00
    0.84518E+06        -0.49996E+08         0.00000E+00
    0.00000E+00         0.00000E+00        -0.50117E+08
 
   -0.50122E+08         0.87157E+06         0.00000E+00
    0.87157E+06        -0.49996E+08         0.00000E+00
    0.00000E+00         0.00000E+00        -0.50116E+08
 
   -0.50121E+08         0.89754E+06         0.00000E+00
    0.89754E+06        -0.49995E+08         0.00000E+00
    0.00000E+00         0.00000E+00        -0.50116E+08
 
   -0.50121E+08         0.92307E+06         0.00000E+00
    0.92307E+06        -0.49995E+08         0.00000E+00
    0.00000E+00         0.00000E+00        -0.50116E+08
 
   -0.50120E+08         0.94817E+06         0.00000E+00
    0.94817E+06        -0.49995E+08         0.00000E+00
    0.00000E+00         0.00000E+00        -0.50116E+08
 
   -0.50120E+08         0.97283E+06         0.00000E+00
    0.97283E+06        -0.49995E+08         0.00000E+00
    0.00000E+00         0.00000E+00        -0.50116E+08
 
   -0.50119E+08         0.99705E+06         0.00000E+00
    0.99705E+06        -0.49994E+08         0.00000E+00
    0.00000E+00         0.00000E+00        -0.50116E+08
 
   -0.50119E+08         0.10208E+07         0.00000E+00
    0.10208E+07        -0.49994E+08         0.00000E+00
    0.00000E+00         0.00000E+00        -0.50115E+08
 
   -0.50119E+08         0.10441E+07         0.00000E+00
    0.10441E+07        -0.49994E+08         0.00000E+00
    0.00000E+00         0.00000E+00        -0.50115E+08
 
   -0.50118E+08         0.10670E+07         0.00000E+00
    0.10670E+07        -0.49994E+08         0.00000E+00
    0.00000E+00         0.00000E+00        -0.50115E+08
 
   -0.50118E+08         0.10894E+07         0.00000E+00
    0.10894E+07        -0.49994E+08         0.00000E+00
    0.00000E+00         0.00000E+00        -0.50115E+08
 
   -0.50117E+08         0.11114E+07         0.00000E+00
    0.11114E+07        -0.49993E+08         0.00000E+00
    0.00000E+00         0.00000E+00        -0.50115E+08
 
   -0.50117E+08         0.11329E+07         0.00000E+00
    0.11329E+07        -0.49993E+08         0.00000E+00
    0.00000E+00         0.00000E+00        -0.50115E+08
 
   -0.50117E+08         0.11539E+07         0.00000E+00
    0.11539E+07        -0.49993E+08         0.00000E+00
    0.00000E+00         0.00000E+00        -0.50115E+08
 
   -0.50117E+08         0.11745E+07         0.00000E+00
    0.11745E+07        -0.49993E+08         0.00000E+00
    0.00000E+00         0.00000E+00        -0.50115E+08
 
   -0.50116E+08         0.11946E+07         0.00000E+00
    0.11946E+07        -0.49993E+08         0.00000E+00
    0.00000E+00         0.00000E+00        -0.50115E+08
 
   -0.50116E+08         0.12142E+07         0.00000E+00
    0.12142E+07        -0.49993E+08         0.00000E+00
    0.00000E+00         0.00000E+00        -0.50115E+08
 
   -0.50116E+08         0.12333E+07         0.00000E+00
    0.12333E+07        -0.49993E+08         0.00000E+00
    0.00000E+00         0.00000E+00        -0.50115E+08
 
   -0.50116E+08         0.12520E+07         0.00000E+00
    0.12520E+07        -0.49993E+08         0.00000E+00
    0.00000E+00         0.00000E+00        -0.50114E+08
 
   -0.50115E+08         0.12701E+07         0.00000E+00
    0.12701E+07        -0.49993E+08         0.00000E+00
    0.00000E+00         0.00000E+00        -0.50114E+08
 
   -0.50115E+08         0.12878E+07         0.00000E+00
    0.12878E+07        -0.49993E+08         0.00000E+00
    0.00000E+00         0.00000E+00        -0.50114E+08
 
   -0.50115E+08         0.13050E+07         0.00000E+00
    0.13050E+07        -0.49993E+08         0.00000E+00
    0.00000E+00         0.00000E+00        -0.50114E+08
 
   -0.50115E+08         0.13217E+07         0.00000E+00
    0.13217E+07        -0.49993E+08         0.00000E+00
    0.00000E+00         0.00000E+00        -0.50114E+08
 
   -0.50114E+08         0.13378E+07         0.00000E+00
    0.13378E+07        -0.49993E+08         0.00000E+00
    0.00000E+00         0.00000E+00        -0.50114E+08
 
   -0.49973E+08         0.18682E+05         0.00000E+00
    0.18682E+05        -0.50000E+08         0.00000E+00
    0.00000E+00         0.00000E+00        -0.50031E+08
 
   -0.49973E+08         0.55251E+05         0.00000E+00
    0.55251E+05        -0.50000E+08         0.00000E+00
    0.00000E+00         0.00000E+00        -0.50030E+08
 
   -0.49973E+08         0.91475E+05         0.00000E+00
    0.91475E+05        -0.50000E+08         0.00000E+00
    0.00000E+00         0.00000E+00        -0.50030E+08
 
   -0.49972E+08         0.12735E+06         0.00000E+00
    0.12735E+06        -0.50000E+08         0.00000E+00
    0.00000E+00         0.00000E+00        -0.50030E+08
 
   -0.49972E+08         0.16287E+06         0.00000E+00
    0.16287E+06        -0.50000E+08         0.00000E+00
    0.00000E+00         0.00000E+00        -0.50030E+08
 
   -0.49972E+08         0.19804E+06         0.00000E+00
    0.19804E+06        -0.49999E+08         0.00000E+00
    0.00000E+00         0.00000E+00        -0.50030E+08
 
   -0.49972E+08         0.23284E+06         0.00000E+00
    0.23284E+06        -0.49999E+08         0.00000E+00
    0.00000E+00         0.00000E+00        -0.50030E+08
 
   -0.49973E+08         0.26728E+06         0.00000E+00
    0.26728E+06        -0.49999E+08         0.00000E+00
    0.00000E+00         0.00000E+00        -0.50030E+08
 
   -0.49973E+08         0.30136E+06         0.00000E+00
    0.30136E+06        -0.49999E+08         0.00000E+00
    0.00000E+00         0.00000E+00        -0.50030E+08
 
   -0.49973E+08         0.33506E+06         0.00000E+00
    0.33506E+06        -0.49998E+08         0.00000E+00
    0.00000E+00         0.00000E+00        -0.50030E+08
 
   -0.49974E+08         0.36838E+06         0.00000E+00
    0.36838E+06        -0.49998E+08         0.00000E+00
    0.00000E+00         0.00000E+00        -0.50030E+08
 
   -0.49974E+08         0.40133E+06         0.00000E+00
    0.40133E+06        -0.49998E+08         0.00000E+00
    0.00000E+00         0.00000E+00        -0.50030E+08
 
   -0.49975E+08         0.43390E+06         0.00000E+00
    0.43390E+06        -0.49997E+08         0.00000E+00
    0.00000E+00         0.00000E+00        -0.50030E+08
 
   -0.49975E+08         0.46608E+06         0.00000E+00
    0.46608E+06        -0.49997E+08         0.00000E+00
    0.00000E+00         0.00000E+00        -0.50030E+08
 
   -0.49976E+08         0.49787E+06         0.00000E+00
    0.49787E+06        -0.49996E+08         0.00000E+00
    0.00000E+00         0.00000E+00        -0.50030E+08
 
   -0.49977E+08         0.52927E+06         0.00000E+00
    0.52927E+06        -0.49996E+08         0.00000E+00
    0.00000E+00         0.00000E+00        -0.50030E+08
 
   -0.49978E+08         0.56027E+06         0.00000E+00
    0.56027E+06        -0.49995E+08         0.00000E+00
    0.00000E+00         0.00000E+00        -0.50030E+08
 
   -0.49978E+08         0.59088E+06         0.00000E+00
    0.59088E+06        -0.49994E+08         0.00000E+00
    0.00000E+00         0.00000E+00        -0.50030E+08
 
   -0.49979E+08         0.62108E+06         0.00000E+00
    0.62108E+06        -0.49994E+08         0.00000E+00
    0.00000E+00         0.00000E+00        -0.50031E+08
 
   -0.49980E+08         0.65088E+06         0.00000E+00
    0.65088E+06        -0.49993E+08         0.00000E+00
    0.00000E+00         0.00000E+00        -0.50031E+08
 
   -0.49982E+08         0.68027E+06         0.00000E+00
    0.68027E+06        -0.49993E+08         0.00000E+00
    0.00000E+00         0.00000E+00        -0.50031E+08
 
   -0.49983E+08         0.70924E+06         0.00000E+00
    0.70924E+06        -0.49992E+08         0.00000E+00
    0.00000E+00         0.00000E+00        -0.50031E+08
 
   -0.49984E+08         0.73781E+06         0.00000E+00
    0.73781E+06        -0.49991E+08         0.00000E+00
    0.00000E+00         0.00000E+00        -0.50031E+08
 
   -0.49985E+08         0.76595E+06         0.00000E+00
    0.76595E+06        -0.49990E+08         0.00000E+00
    0.00000E+00         0.00000E+00        -0.50031E+08
 
   -0.49987E+08         0.79368E+06         0.00000E+00
    0.79368E+06        -0.49990E+08         0.00000E+00
    0.00000E+00         0.00000E+00        -0.50031E+08
 
   -0.49988E+08         0.82097E+06         0.00000E+00
    0.82097E+06        -0.49989E+08         0.00000E+00
    0.00000E+00         0.00000E+00        -0.50031E+08
 
   -0.49990E+08         0.84785E+06         0.00000E+00
    0.84785E+06        -0.49988E+08         0.00000E+00
    0.00000E+00         0.00000E+00        -0.50031E+08
 
   -0.49991E+08         0.87429E+06         0.00000E+00
    0.87429E+06        -0.49987E+08         0.00000E+00
    0.00000E+00         0.00000E+00        -0.50032E+08
 
   -0.49993E+08         0.90029E+06         0.00000E+00
    0.90029E+06        -0.49986E+08         0.00000E+00
    0.00000E+00         0.00000E+00        -0.50032E+08
 
   -0.49994E+08         0.92586E+06         0.00000E+00
    0.92586E+06        -0.49985E+08         0.00000E+00
    0.00000E+00         0.00000E+00        -0.50032E+08
 
   -0.49996E+08         0.95099E+06         0.00000E+00
    0.95099E+06        -0.49985E+08         0.00000E+00
    0.00000E+00         0.00000E+00        -0.50032E+08
 
   -0.49998E+08         0.97568E+06         0.00000E+00
    0.97568E+06        -0.49984E+08         0.00000E+00
    0.00000E+00         0.00000E+00        -0.50032E+08
 
   -0.49999E+08         0.99991E+06         0.00000E+00
    0.99991E+06        -0.49983E+08         0.00000E+00
    0.00000E+00         0.00000E+00        -0.50032E+08
 
   -0.50001E+08         0.10237E+07         0.00000E+00
    0.10237E+07        -0.49982E+08         0.00000E+00
    0.00000E+00         0.00000E+00        -0.50032E+08
 
   -0.50003E+08         0.10470E+07         0.00000E+00
    0.10470E+07        -0.49981E+08         0.00000E+00
    0.00000E+00         0.00000E+00        -0.50033E+08
 
   -0.50005E+08         0.10699E+07         0.00000E+00
    0.10699E+07        -0.49980E+08         0.00000E+00
    0.00000E+00         0.00000E+00        -0.50033E+08
 
   -0.50007E+08         0.10923E+07         0.00000E+00
    0.10923E+07        -0.49979E+08         0.00000E+00
    0.00000E+00         0.00000E+00        -0.50033E+08
 
   -0.50009E+08         0.11143E+07         0.00000E+00
    0.11143E+07        -0.49978E+08         0.00000E+00
    0.00000E+00         0.00000E+00        -0.50033E+08
 
   -0.50011E+08         0.11358E+07         0.00000E+00
    0.11358E+07        -0.49977E+08         0.00000E+00
    0.00000E+00         0.00000E+00        -0.50033E+08
 
   -0.50013E+08         0.11568E+07         0.00000E+00
    0.11568E+07        -0.49976E+08         0.00000E+00
    0.00000E+00         0.00000E+00        -0.50034E+08
 
   -0.50015E+08         0.11773E+07         0.00000E+00
    0.11773E+07        -0.49975E+08         0.00000E+00
    0.00000E+00         0.00000E+00        -0.50034E+08
 
   -0.50017E+08         0.11974E+07         0.00000E+00
    0.11974E+07        -0.49974E+08         0.00000E+00
    0.00000E+00         0.00000E+00        -0.50034E+08
 
   -0.50019E+08         0.12170E+07         0.00000E+00
    0.12170E+07        -0.49973E+08         0.00000E+00
    0.00000E+00         0.00000E+00        -0.50034E+08
 
   -0.50021E+08         0.12360E+07         0.00000E+00
    0.12360E+07        -0.49972E+08         0.00000E+00
    0.00000E+00         0.00000E+00        -0.50035E+08
 
   -0.50024E+08         0.12546E+07         0.00000E+00
    0.12546E+07        -0.49971E+08         0.00000E+00
    0.00000E+00         0.00000E+00        -0.50035E+08
 
   -0.50026E+08         0.12728E+07         0.00000E+00
    0.12728E+07        -0.49970E+08         0.00000E+00
    0.00000E+00         0.00000E+00        -0.50035E+08
 
   -0.50028E+08         0.12904E+07         0.00000E+00
    0.12904E+07        -0.49969E+08         0.00000E+00
    0.00000E+00         0.00000E+00        -0.50035E+08
 
   -0.50030E+08         0.13075E+07         0.00000E+00
    0.13075E+07        -0.49968E+08         0.00000E+00
    0.00000E+00         0.00000E+00        -0.50035E+08
 
   -0.50033E+08         0.13241E+07         0.00000E+00
    0.13241E+07        -0.49967E+08         0.00000E+00
    0.00000E+00         0.00000E+00        -0.50036E+08
 
   -0.50035E+08         0.13402E+07         0.00000E+00
    0.13402E+07        -0.49965E+08         0.00000E+00
    0.00000E+00         0.00000E+00        -0.50036E+08
 
   -0.49789E+08         0.18812E+05         0.00000E+00
    0.18812E+05        -0.50000E+08         0.00000E+00
    0.00000E+00         0.00000E+00        -0.49937E+08
 
   -0.49790E+08         0.55635E+05         0.00000E+00
    0.55635E+05        -0.50000E+08         0.00000E+00
    0.00000E+00         0.00000E+00        -0.49937E+08
 
   -0.49792E+08         0.92109E+05         0.00000E+00
    0.92109E+05        -0.50000E+08         0.00000E+00
    0.00000E+00         0.00000E+00        -0.49937E+08
 
   -0.49793E+08         0.12823E+06         0.00000E+00
    0.12823E+06        -0.50000E+08         0.00000E+00
    0.00000E+00         0.00000E+00        -0.49938E+08
 
   -0.49795E+08         0.16400E+06         0.00000E+00
    0.16400E+06        -0.49999E+08         0.00000E+00
    0.00000E+00         0.00000E+00        -0.49938E+08
 
   -0.49797E+08         0.19941E+06         0.00000E+00
    0.19941E+06        -0.49999E+08         0.00000E+00
    0.00000E+00         0.00000E+00        -0.49938E+08
 
   -0.49799E+08         0.23445E+06         0.00000E+00
    0.23445E+06        -0.49999E+08         0.00000E+00
    0.00000E+00         0.00000E+00        -0.49939E+08
 
   -0.49801E+08         0.26913E+06         0.00000E+00
    0.26913E+06        -0.49998E+08         0.00000E+00
    0.00000E+00         0.00000E+00        -0.49939E+08
 
   -0.49803E+08         0.30343E+06         0.00000E+00
    0.30343E+06        -0.49998E+08         0.00000E+00
    0.00000E+00         0.00000E+00        -0.49939E+08
 
   -0.49805E+08         0.33736E+06         0.00000E+00
    0.33736E+06        -0.49997E+08         0.00000E+00
    0.00000E+00         0.00000E+00        -0.49940E+08
 
   -0.49807E+08         0.37091E+06         0.00000E+00
    0.37091E+06        -0.49997E+08         0.00000E+00
    0.00000E+00         0.00000E+00        -0.49940E+08
 
   -0.49810E+08         0.40408E+06         0.00000E+00
    0.40408E+06        -0.49996E+08         0.00000E+00
    0.00000E+00         0.00000E+00        -0.49940E+08
 
   -0.49812E+08         0.43687E+06         0.00000E+00
    0.43687E+06        -0.49995E+08         0.00000E+00
    0.00000E+00         0.00000E+00        -0.49941E+08
 
   -0.49815E+08         0.46926E+06         0.00000E+00
    0.46926E+06        -0.49995E+08         0.00000E+00
    0.00000E+00         0.00000E+00        -0.49941E+08
 
   -0.49817E+08         0.50126E+06         0.00000E+00
    0.50126E+06        -0.49994E+08         0.00000E+00
    0.00000E+00         0.00000E+00        -0.49941E+08
 
   -0.49820E+08         0.53287E+06         0.00000E+00
    0.53287E+06        -0.49993E+08         0.00000E+00
    0.00000E+00         0.00000E+00        -0.49942E+08
 
   -0.49823E+08         0.56407E+06         0.00000E+00
    0.56407E+06        -0.49992E+08         0.00000E+00
    0.00000E+00         0.00000E+00        -0.49942E+08
 
   -0.49826E+08         0.59488E+06         0.00000E+00
    0.59488E+06        -0.49991E+08         0.00000E+00
    0.00000E+00         0.00000E+00        -0.49943E+08
 
   -0.49829E+08         0.62528E+06         0.00000E+00
    0.62528E+06        -0.49990E+08         0.00000E+00
    0.00000E+00         0.00000E+00        -0.49943E+08
 
   -0.49832E+08         0.65527E+06         0.00000E+00
    0.65527E+06        -0.49989E+08         0.00000E+00
    0.00000E+00         0.00000E+00        -0.49943E+08
 
   -0.49835E+08         0.68484E+06         0.00000E+00
    0.68484E+06        -0.49988E+08         0.00000E+00
    0.00000E+00         0.00000E+00        -0.49944E+08
 
   -0.49838E+08         0.71400E+06         0.00000E+00
    0.71400E+06        -0.49987E+08         0.00000E+00
    0.00000E+00         0.00000E+00        -0.49944E+08
 
   -0.49842E+08         0.74274E+06         0.00000E+00
    0.74274E+06        -0.49985E+08         0.00000E+00
    0.00000E+00         0.00000E+00        -0.49945E+08
 
   -0.49845E+08         0.77106E+06         0.00000E+00
    0.77106E+06        -0.49984E+08         0.00000E+00
    0.00000E+00         0.00000E+00        -0.49945E+08
 
   -0.49849E+08         0.79896E+06         0.00000E+00
    0.79896E+06        -0.49983E+08         0.00000E+00
    0.00000E+00         0.00000E+00        -0.49945E+08
 
   -0.49852E+08         0.82642E+06         0.00000E+00
    0.82642E+06        -0.49981E+08         0.00000E+00
    0.00000E+00         0.00000E+00        -0.49946E+08
 
   -0.49856E+08         0.85346E+06         0.00000E+00
    0.85346E+06        -0.49980E+08         0.00000E+00
    0.00000E+00         0.00000E+00        -0.49946E+08
 
   -0.49860E+08         0.88005E+06         0.00000E+00
    0.88005E+06        -0.49979E+08         0.00000E+00
    0.00000E+00         0.00000E+00        -0.49947E+08
 
   -0.49863E+08         0.90621E+06         0.00000E+00
    0.90621E+06        -0.49977E+08         0.00000E+00
    0.00000E+00         0.00000E+00        -0.49947E+08
 
   -0.49867E+08         0.93193E+06         0.00000E+00
    0.93193E+06        -0.49976E+08         0.00000E+00
    0.00000E+00         0.00000E+00        -0.49948E+08
 
   -0.49871E+08         0.95720E+06         0.00000E+00
    0.95720E+06        -0.49974E+08         0.00000E+00
    0.00000E+00         0.00000E+00        -0.49948E+08
 
   -0.49875E+08         0.98202E+06         0.00000E+00
    0.98202E+06        -0.49972E+08         0.00000E+00
    0.00000E+00         0.00000E+00        -0.49949E+08
 
   -0.49879E+08         0.10064E+07         0.00000E+00
    0.10064E+07        -0.49971E+08         0.00000E+00
    0.00000E+00         0.00000E+00        -0.49949E+08
 
   -0.49883E+08         0.10303E+07         0.00000E+00
    0.10303E+07        -0.49969E+08         0.00000E+00
    0.00000E+00         0.00000E+00        -0.49950E+08
 
   -0.49887E+08         0.10538E+07         0.00000E+00
    0.10538E+07        -0.49967E+08         0.00000E+00
    0.00000E+00         0.00000E+00        -0.49950E+08
 
   -0.49891E+08         0.10768E+07         0.00000E+00
    0.10768E+07        -0.49966E+08         0.00000E+00
    0.00000E+00         0.00000E+00        -0.49951E+08
 
   -0.49896E+08         0.10993E+07         0.00000E+00
    0.10993E+07        -0.49964E+08         0.00000E+00
    0.00000E+00         0.00000E+00        -0.49951E+08
 
   -0.49900E+08         0.11214E+07         0.00000E+00
    0.11214E+07        -0.49962E+08         0.00000E+00
    0.00000E+00         0.00000E+00        -0.49952E+08
 
   -0.49904E+08         0.11429E+07         0.00000E+00
    0.11429E+07        -0.49960E+08         0.00000E+00
    0.00000E+00         0.00000E+00        -0.49952E+08
 
   -0.49909E+08         0.11641E+07         0.00000E+00
    0.11641E+07        -0.49958E+08         0.00000E+00
    0.00000E+00         0.00000E+00        -0.49953E+08
 
   -0.49913E+08         0.11847E+07         0.00000E+00
    0.11847E+07        -0.49956E+08         0.00000E+00
    0.00000E+00         0.00000E+00        -0.49953E+08
 
   -0.49918E+08         0.12048E+07         0.00000E+00
    0.12048E+07        -0.49954E+08         0.00000E+00
    0.00000E+00         0.00000E+00        -0.49954E+08
 
   -0.49922E+08         0.12245E+07         0.00000E+00
    0.12245E+07        -0.49952E+08         0.00000E+00
    0.00000E+00         0.00000E+00        -0.49954E+08
 
   -0.49927E+08         0.12437E+07         0.00000E+00
    0.12437E+07        -0.49950E+08         0.00000E+00
    0.00000E+00         0.00000E+00        -0.49955E+08
 
   -0.49932E+08         0.12624E+07         0.00000E+00
    0.12624E+07        -0.49948E+08         0.00000E+00
    0.00000E+00         0.00000E+00        -0.49955E+08
 
   -0.49936E+08         0.12805E+07         0.00000E+00
    0.12805E+07        -0.49946E+08         0.00000E+00
    0.00000E+00         0.00000E+00        -0.49956E+08
 
   -0.49941E+08         0.12982E+07         0.00000E+00
    0.12982E+07        -0.49944E+08         0.00000E+00
    0.00000E+00         0.00000E+00        -0.49956E+08
 
   -0.49946E+08         0.13154E+07         0.00000E+00
    0.13154E+07        -0.49942E+08         0.00000E+00
    0.00000E+00         0.00000E+00        -0.49957E+08
 
   -0.49951E+08         0.13320E+07         0.00000E+00
    0.13320E+07        -0.49940E+08         0.00000E+00
    0.00000E+00         0.00000E+00        -0.49957E+08
 
   -0.49956E+08         0.13482E+07         0.00000E+00
    0.13482E+07        -0.49938E+08         0.00000E+00
    0.00000E+00         0.00000E+00        -0.49958E+08
 
   -0.49603E+08         0.19003E+05         0.00000E+00
    0.19003E+05        -0.50000E+08         0.00000E+00
    0.00000E+00         0.00000E+00        -0.49843E+08
 
   -0.49606E+08         0.56199E+05         0.00000E+00
    0.56199E+05        -0.50000E+08         0.00000E+00
    0.00000E+00         0.00000E+00        -0.49843E+08
 
   -0.49609E+08         0.93042E+05         0.00000E+00
    0.93042E+05        -0.50000E+08         0.00000E+00
    0.00000E+00         0.00000E+00        -0.49844E+08
 
   -0.49613E+08         0.12953E+06         0.00000E+00
    0.12953E+06        -0.49999E+08         0.00000E+00
    0.00000E+00         0.00000E+00        -0.49844E+08
 
   -0.49616E+08         0.16566E+06         0.00000E+00
    0.16566E+06        -0.49999E+08         0.00000E+00
    0.00000E+00         0.00000E+00        -0.49845E+08
 
   -0.49620E+08         0.20142E+06         0.00000E+00
    0.20142E+06        -0.49999E+08         0.00000E+00
    0.00000E+00         0.00000E+00        -0.49846E+08
 
   -0.49624E+08         0.23682E+06         0.00000E+00
    0.23682E+06        -0.49998E+08         0.00000E+00
    0.00000E+00         0.00000E+00        -0.49846E+08
 
   -0.49627E+08         0.27184E+06         0.00000E+00
    0.27184E+06        -0.49998E+08         0.00000E+00
    0.00000E+00         0.00000E+00        -0.49847E+08
 
   -0.49631E+08         0.30649E+06         0.00000E+00
    0.30649E+06        -0.49997E+08         0.00000E+00
    0.00000E+00         0.00000E+00        -0.49848E+08
 
   -0.49635E+08         0.34077E+06         0.00000E+00
    0.34077E+06        -0.49996E+08         0.00000E+00
    0.00000E+00         0.00000E+00        -0.49848E+08
 
   -0.49640E+08         0.37465E+06         0.00000E+00
    0.37465E+06        -0.49995E+08         0.00000E+00
    0.00000E+00         0.00000E+00        -0.49849E+08
 
   -0.49644E+08         0.40816E+06         0.00000E+00
    0.40816E+06        -0.49994E+08         0.00000E+00
    0.00000E+00         0.00000E+00        -0.49850E+08
 
   -0.49648E+08         0.44127E+06         0.00000E+00
    0.44127E+06        -0.49993E+08         0.00000E+00
    0.00000E+00         0.00000E+00        -0.49850E+08
 
   -0.49653E+08         0.47399E+06         0.00000E+00
    0.47399E+06        -0.49992E+08         0.00000E+00
    0.00000E+00         0.00000E+00        -0.49851E+08
 
   -0.49658E+08         0.50631E+06         0.00000E+00
    0.50631E+06        -0.49991E+08         0.00000E+00
    0.00000E+00         0.00000E+00        -0.49852E+08
 
   -0.49662E+08         0.53823E+06         0.00000E+00
    0.53823E+06        -0.49990E+08         0.00000E+00
    0.00000E+00         0.00000E+00        -0.49852E+08
 
   -0.49667E+08         0.56975E+06         0.00000E+00
    0.56975E+06        -0.49989E+08         0.00000E+00
    0.00000E+00         0.00000E+00        -0.49853E+08
 
   -0.49672E+08         0.60087E+06         0.00000E+00
    0.60087E+06        -0.49987E+08         0.00000E+00
    0.00000E+00         0.00000E+00        -0.49854E+08
 
   -0.49677E+08         0.63157E+06         0.00000E+00
    0.63157E+06        -0.49986E+08         0.00000E+00
    0.00000E+00         0.00000E+00        -0.49855E+08
 
   -0.49682E+08         0.66186E+06         0.00000E+00
    0.66186E+06        -0.49984E+08         0.00000E+00
    0.00000E+00         0.00000E+00        -0.49855E+08
 
   -0.49688E+08         0.69173E+06         0.00000E+00
    0.69173E+06        -0.49983E+08         0.00000E+00
    0.00000E+00         0.00000E+00        -0.49856E+08
 
   -0.49693E+08         0.72119E+06         0.00000E+00
    0.72119E+06        -0.49981E+08         0.00000E+00
    0.00000E+00         0.00000E+00        -0.49857E+08
 
   -0.49698E+08         0.75022E+06         0.00000E+00
    0.75022E+06        -0.49980E+08         0.00000E+00
    0.00000E+00         0.00000E+00        -0.49858E+08
 
   -0.49704E+08         0.77882E+06         0.00000E+00
    0.77882E+06        -0.49978E+08         0.00000E+00
    0.00000E+00         0.00000E+00        -0.49858E+08
 
   -0.49710E+08         0.80700E+06         0.00000E+00
    0.80700E+06        -0.49976E+08         0.00000E+00
    0.00000E+00         0.00000E+00        -0.49859E+08
 
   -0.49715E+08         0.83474E+06         0.00000E+00
    0.83474E+06        -0.49974E+08         0.00000E+00
    0.00000E+00         0.00000E+00        -0.49860E+08
 
   -0.49721E+08         0.86204E+06         0.00000E+00
    0.86204E+06        -0.49972E+08         0.00000E+00
    0.00000E+00         0.00000E+00        -0.49861E+08
 
   -0.49727E+08         0.88891E+06         0.00000E+00
    0.88891E+06        -0.49970E+08         0.00000E+00
    0.00000E+00         0.00000E+00        -0.49861E+08
 
   -0.49733E+08         0.91533E+06         0.00000E+00
    0.91533E+06        -0.49968E+08         0.00000E+00
    0.00000E+00         0.00000E+00        -0.49862E+08
 
   -0.49739E+08         0.94131E+06         0.00000E+00
    0.94131E+06        -0.49966E+08         0.00000E+00
    0.00000E+00         0.00000E+00        -0.49863E+08
 
   -0.49745E+08         0.96684E+06         0.00000E+00
    0.96684E+06        -0.49963E+08         0.00000E+00
    0.00000E+00         0.00000E+00        -0.49864E+08
 
   -0.49751E+08         0.99192E+06         0.00000E+00
    0.99192E+06        -0.49961E+08         0.00000E+00
    0.00000E+00         0.00000E+00        -0.49864E+08
 
   -0.49758E+08         0.10165E+07         0.00000E+00
    0.10165E+07        -0.49959E+08         0.00000E+00
    0.00000E+00         0.00000E+00        -0.49865E+08
 
   -0.49764E+08         0.10407E+07         0.00000E+00
    0.10407E+07        -0.49956E+08         0.00000E+00
    0.00000E+00         0.00000E+00        -0.49866E+08
 
   -0.49771E+08         0.10644E+07         0.00000E+00
    0.10644E+07        -0.49954E+08         0.00000E+00
    0.00000E+00         0.00000E+00        -0.49867E+08
 
   -0.49777E+08         0.10876E+07         0.00000E+00
    0.10876E+07        -0.49951E+08         0.00000E+00
    0.00000E+00         0.00000E+00        -0.49868E+08
 
   -0.49784E+08         0.11104E+07         0.00000E+00
    0.11104E+07        -0.49949E+08         0.00000E+00
    0.00000E+00         0.00000E+00        -0.49868E+08
 
   -0.49790E+08         0.11327E+07         0.00000E+00
    0.11327E+07        -0.49946E+08         0.00000E+00
    0.00000E+00         0.00000E+00        -0.49869E+08
 
   -0.49797E+08         0.11545E+07         0.00000E+00
    0.11545E+07        -0.49943E+08         0.00000E+00
    0.00000E+00         0.00000E+00        -0.49870E+08
 
   -0.49804E+08         0.11758E+07         0.00000E+00
    0.11758E+07        -0.49940E+08         0.00000E+00
    0.00000E+00         0.00000E+00        -0.49871E+08
 
   -0.49811E+08         0.11967E+07         0.00000E+00
    0.11967E+07        -0.49938E+08         0.00000E+00
    0.00000E+00         0.00000E+00        -0.49872E+08
 
   -0.49818E+08         0.12170E+07         0.00000E+00
    0.12170E+07        -0.49935E+08         0.00000E+00
    0.00000E+00         0.00000E+00        -0.49873E+08
 
   -0.49825E+08         0.12369E+07         0.00000E+00
    0.12369E+07        -0.49932E+08         0.00000E+00
    0.00000E+00         0.00000E+00        -0.49873E+08
 
   -0.49832E+08         0.12563E+07         0.00000E+00
    0.12563E+07        -0.49929E+08         0.00000E+00
    0.00000E+00         0.00000E+00        -0.49874E+08
 
   -0.49839E+08         0.12752E+07         0.00000E+00
    0.12752E+07        -0.49926E+08         0.00000E+00
    0.00000E+00         0.00000E+00        -0.49875E+08
 
   -0.49846E+08         0.12935E+07         0.00000E+00
    0.12935E+07        -0.49923E+08         0.00000E+00
    0.00000E+00         0.00000E+00        -0.49876E+08
 
   -0.49854E+08         0.13114E+07         0.00000E+00
    0.13114E+07        -0.49920E+08         0.00000E+00
    0.00000E+00         0.00000E+00        -0.49877E+08
 
   -0.49861E+08         0.13287E+07         0.00000E+00
    0.13287E+07        -0.49916E+08         0.00000E+00
    0.00000E+00         0.00000E+00        -0.49877E+08
 
   -0.49868E+08         0.13456E+07         0.00000E+00
    0.13456E+07        -0.49913E+08         0.00000E+00
    0.00000E+00         0.00000E+00        -0.49878E+08
 
   -0.49876E+08         0.13619E+07         0.00000E+00
    0.13619E+07        -0.49910E+08         0.00000E+00
    0.00000E+00         0.00000E+00        -0.49879E+08
 
   -0.49415E+08         0.19256E+05         0.00000E+00
    0.19256E+05        -0.50000E+08         0.00000E+00
    0.00000E+00         0.00000E+00        -0.49747E+08
 
   -0.49420E+08         0.56945E+05         0.00000E+00
    0.56945E+05        -0.50000E+08         0.00000E+00
    0.00000E+00         0.00000E+00        -0.49748E+08
 
   -0.49425E+08         0.94277E+05         0.00000E+00
    0.94277E+05        -0.50000E+08         0.00000E+00
    0.00000E+00         0.00000E+00        -0.49749E+08
 
   -0.49430E+08         0.13125E+06         0.00000E+00
    0.13125E+06        -0.49999E+08         0.00000E+00
    0.00000E+00         0.00000E+00        -0.49750E+08
 
   -0.49435E+08         0.16785E+06         0.00000E+00
    0.16785E+06        -0.49999E+08         0.00000E+00
    0.00000E+00         0.00000E+00        -0.49751E+08
 
   -0.49441E+08         0.20409E+06         0.00000E+00
    0.20409E+06        -0.49998E+08         0.00000E+00
    0.00000E+00         0.00000E+00        -0.49752E+08
 
   -0.49446E+08         0.23996E+06         0.00000E+00
    0.23996E+06        -0.49998E+08         0.00000E+00
    0.00000E+00         0.00000E+00        -0.49753E+08
 
   -0.49452E+08         0.27545E+06         0.00000E+00
    0.27545E+06        -0.49997E+08         0.00000E+00
    0.00000E+00         0.00000E+00        -0.49754E+08
 
   -0.49458E+08         0.31055E+06         0.00000E+00
    0.31055E+06        -0.49996E+08         0.00000E+00
    0.00000E+00         0.00000E+00        -0.49755E+08
 
   -0.49464E+08         0.34528E+06         0.00000E+00
    0.34528E+06        -0.49995E+08         0.00000E+00
    0.00000E+00         0.00000E+00        -0.49756E+08
 
   -0.49470E+08         0.37962E+06         0.00000E+00
    0.37962E+06        -0.49994E+08         0.00000E+00
    0.00000E+00         0.00000E+00        -0.49757E+08
 
   -0.49476E+08         0.41356E+06         0.00000E+00
    0.41356E+06        -0.49993E+08         0.00000E+00
    0.00000E+00         0.00000E+00        -0.49758E+08
 
   -0.49483E+08         0.44712E+06         0.00000E+00
    0.44712E+06        -0.49992E+08         0.00000E+00
    0.00000E+00         0.00000E+00        -0.49759E+08
 
   -0.49489E+08         0.48027E+06         0.00000E+00
    0.48027E+06        -0.49990E+08         0.00000E+00
    0.00000E+00         0.00000E+00        -0.49760E+08
 
   -0.49496E+08         0.51303E+06         0.00000E+00
    0.51303E+06        -0.49989E+08         0.00000E+00
    0.00000E+00         0.00000E+00        -0.49761E+08
 
   -0.49503E+08         0.54538E+06         0.00000E+00
    0.54538E+06        -0.49987E+08         0.00000E+00
    0.00000E+00         0.00000E+00        -0.49762E+08
 
   -0.49510E+08         0.57732E+06         0.00000E+00
    0.57732E+06        -0.49986E+08         0.00000E+00
    0.00000E+00         0.00000E+00        -0.49763E+08
 
   -0.49517E+08         0.60886E+06         0.00000E+00
    0.60886E+06        -0.49984E+08         0.00000E+00
    0.00000E+00         0.00000E+00        -0.49764E+08
 
   -0.49524E+08         0.63998E+06         0.00000E+00
    0.63998E+06        -0.49982E+08         0.00000E+00
    0.00000E+00         0.00000E+00        -0.49765E+08
 
   -0.49531E+08         0.67068E+06         0.00000E+00
    0.67068E+06        -0.49980E+08         0.00000E+00
    0.00000E+00         0.00000E+00        -0.49766E+08
 
   -0.49538E+08         0.70096E+06         0.00000E+00
    0.70096E+06        -0.49978E+08         0.00000E+00
    0.00000E+00         0.00000E+00        -0.49767E+08
 
   -0.49546E+08         0.73082E+06         0.00000E+00
    0.73082E+06        -0.49976E+08         0.00000E+00
    0.00000E+00         0.00000E+00        -0.49768E+08
 
   -0.49553E+08         0.76025E+06         0.00000E+00
    0.76025E+06        -0.49974E+08         0.00000E+00
    0.00000E+00         0.00000E+00        -0.49769E+08
 
   -0.49561E+08         0.78925E+06         0.00000E+00
    0.78925E+06        -0.49971E+08         0.00000E+00
    0.00000E+00         0.00000E+00        -0.49770E+08
 
   -0.49569E+08         0.81781E+06         0.00000E+00
    0.81781E+06        -0.49969E+08         0.00000E+00
    0.00000E+00         0.00000E+00        -0.49772E+08
 
   -0.49577E+08         0.84595E+06         0.00000E+00
    0.84595E+06        -0.49966E+08         0.00000E+00
    0.00000E+00         0.00000E+00        -0.49773E+08
 
   -0.49585E+08         0.87364E+06         0.00000E+00
    0.87364E+06        -0.49964E+08         0.00000E+00
    0.00000E+00         0.00000E+00        -0.49774E+08
 
   -0.49593E+08         0.90088E+06         0.00000E+00
    0.90088E+06        -0.49961E+08         0.00000E+00
    0.00000E+00         0.00000E+00        -0.49775E+08
 
   -0.49601E+08         0.92769E+06         0.00000E+00
    0.92769E+06        -0.49958E+08         0.00000E+00
    0.00000E+00         0.00000E+00        -0.49776E+08
 
   -0.49609E+08         0.95404E+06         0.00000E+00
    0.95404E+06        -0.49956E+08         0.00000E+00
    0.00000E+00         0.00000E+00        -0.49777E+08
 
   -0.49618E+08         0.97994E+06         0.00000E+00
    0.97994E+06        -0.49953E+08         0.00000E+00
    0.00000E+00         0.00000E+00        -0.49778E+08
 
   -0.49626E+08         0.10054E+07         0.00000E+00
    0.10054E+07        -0.49950E+08         0.00000E+00
    0.00000E+00         0.00000E+00        -0.49779E+08
 
   -0.49635E+08         0.10304E+07         0.00000E+00
    0.10304E+07        -0.49947E+08         0.00000E+00
    0.00000E+00         0.00000E+00        -0.49780E+08
 
   -0.49644E+08         0.10549E+07         0.00000E+00
    0.10549E+07        -0.49943E+08         0.00000E+00
    0.00000E+00         0.00000E+00        -0.49781E+08
 
   -0.49652E+08         0.10789E+07         0.00000E+00
    0.10789E+07        -0.49940E+08         0.00000E+00
    0.00000E+00         0.00000E+00        -0.49782E+08
 
   -0.49661E+08         0.11025E+07         0.00000E+00
    0.11025E+07        -0.49937E+08         0.00000E+00
    0.00000E+00         0.00000E+00        -0.49784E+08
 
   -0.49670E+08         0.11256E+07         0.00000E+00
    0.11256E+07        -0.49933E+08         0.00000E+00
    0.00000E+00         0.00000E+00        -0.49785E+08
 
   -0.49679E+08         0.11483E+07         0.00000E+00
    0.11483E+07        -0.49930E+08         0.00000E+00
    0.00000E+00         0.00000E+00        -0.49786E+08
 
   -0.49688E+08         0.11704E+07         0.00000E+00
    0.11704E+07        -0.49926E+08         0.00000E+00
    0.00000E+00         0.00000E+00        -0.49787E+08
 
   -0.49698E+08         0.11921E+07         0.00000E+00
    0.11921E+07        -0.49923E+08         0.00000E+00
    0.00000E+00         0.00000E+00        -0.49788E+08
 
   -0.49707E+08         0.12133E+07         0.00000E+00
    0.12133E+07        -0.49919E+08         0.00000E+00
    0.00000E+00         0.00000E+00        -0.49789E+08
 
   -0.49716E+08         0.12340E+07         0.00000E+00
    0.12340E+07        -0.49915E+08         0.00000E+00
    0.00000E+00         0.00000E+00        -0.49790E+08
 
   -0.49726E+08         0.12542E+07         0.00000E+00
    0.12542E+07        -0.49911E+08         0.00000E+00
    0.00000E+00         0.00000E+00        -0.49791E+08
 
   -0.49736E+08         0.12739E+07         0.00000E+00
    0.12739E+07        -0.49907E+08         0.00000E+00
    0.00000E+00         0.00000E+00        -0.49792E+08
 
   -0.49745E+08         0.12931E+07         0.00000E+00
    0.12931E+07        -0.49903E+08         0.00000E+00
    0.00000E+00         0.00000E+00        -0.49794E+08
 
   -0.49755E+08         0.13118E+07         0.00000E+00
    0.13118E+07        -0.49899E+08         0.00000E+00
    0.00000E+00         0.00000E+00        -0.49795E+08
 
   -0.49765E+08         0.13299E+07         0.00000E+00
    0.13299E+07        -0.49895E+08         0.00000E+00
    0.00000E+00         0.00000E+00        -0.49796E+08
 
   -0.49775E+08         0.13476E+07         0.00000E+00
    0.13476E+07        -0.49890E+08         0.00000E+00
    0.00000E+00         0.00000E+00        -0.49797E+08
 
   -0.49785E+08         0.13648E+07         0.00000E+00
    0.13648E+07        -0.49886E+08         0.00000E+00
    0.00000E+00         0.00000E+00        -0.49798E+08
 
   -0.49795E+08         0.13814E+07         0.00000E+00
    0.13814E+07        -0.49882E+08         0.00000E+00
    0.00000E+00         0.00000E+00        -0.49799E+08
 
   -0.49224E+08         0.19571E+05         0.00000E+00
    0.19571E+05        -0.50000E+08         0.00000E+00
    0.00000E+00         0.00000E+00        -0.49649E+08
 
   -0.49231E+08         0.57873E+05         0.00000E+00
    0.57873E+05        -0.50000E+08         0.00000E+00
    0.00000E+00         0.00000E+00        -0.49651E+08
 
   -0.49238E+08         0.95812E+05         0.00000E+00
    0.95812E+05        -0.50000E+08         0.00000E+00
    0.00000E+00         0.00000E+00        -0.49652E+08
 
   -0.49245E+08         0.13338E+06         0.00000E+00
    0.13338E+06        -0.49999E+08         0.00000E+00
    0.00000E+00         0.00000E+00        -0.49653E+08
 
   -0.49252E+08         0.17059E+06         0.00000E+00
    0.17059E+06        -0.49999E+08         0.00000E+00
    0.00000E+00         0.00000E+00        -0.49655E+08
 
   -0.49259E+08         0.20741E+06         0.00000E+00
    0.20741E+06        -0.49998E+08         0.00000E+00
    0.00000E+00         0.00000E+00        -0.49656E+08
 
   -0.49267E+08         0.24386E+06         0.00000E+00
    0.24386E+06        -0.49997E+08         0.00000E+00
    0.00000E+00         0.00000E+00        -0.49657E+08
 
   -0.49274E+08         0.27993E+06         0.00000E+00
    0.27993E+06        -0.49996E+08         0.00000E+00
    0.00000E+00         0.00000E+00        -0.49659E+08
 
   -0.49282E+08         0.31561E+06         0.00000E+00
    0.31561E+06        -0.49995E+08         0.00000E+00
    0.00000E+00         0.00000E+00        -0.49660E+08
 
   -0.49290E+08         0.35090E+06         0.00000E+00
    0.35090E+06        -0.49994E+08         0.00000E+00
    0.00000E+00         0.00000E+00        -0.49661E+08
 
   -0.49298E+08         0.38580E+06         0.00000E+00
    0.38580E+06        -0.49993E+08         0.00000E+00
    0.00000E+00         0.00000E+00        -0.49663E+08
 
   -0.49306E+08         0.42031E+06         0.00000E+00
    0.42031E+06        -0.49991E+08         0.00000E+00
    0.00000E+00         0.00000E+00        -0.49664E+08
 
   -0.49315E+08         0.45442E+06         0.00000E+00
    0.45442E+06        -0.49990E+08         0.00000E+00
    0.00000E+00         0.00000E+00        -0.49665E+08
 
   -0.49323E+08         0.48812E+06         0.00000E+00
    0.48812E+06        -0.49988E+08         0.00000E+00
    0.00000E+00         0.00000E+00        -0.49667E+08
 
   -0.49332E+08         0.52142E+06         0.00000E+00
    0.52142E+06        -0.49986E+08         0.00000E+00
    0.00000E+00         0.00000E+00        -0.49668E+08
 
   -0.49341E+08         0.55431E+06         0.00000E+00
    0.55431E+06        -0.49984E+08         0.00000E+00
    0.00000E+00         0.00000E+00        -0.49669E+08
 
   -0.49350E+08         0.58679E+06         0.00000E+00
    0.58679E+06        -0.49982E+08         0.00000E+00
    0.00000E+00         0.00000E+00        -0.49671E+08
 
   -0.49359E+08         0.61885E+06         0.00000E+00
    0.61885E+06        -0.49980E+08         0.00000E+00
    0.00000E+00         0.00000E+00        -0.49672E+08
 
   -0.49368E+08         0.65050E+06         0.00000E+00
    0.65050E+06        -0.49978E+08         0.00000E+00
    0.00000E+00         0.00000E+00        -0.49674E+08
 
   -0.49377E+08         0.68172E+06         0.00000E+00
    0.68172E+06        -0.49976E+08         0.00000E+00
    0.00000E+00         0.00000E+00        -0.49675E+08
 
   -0.49387E+08         0.71252E+06         0.00000E+00
    0.71252E+06        -0.49973E+08         0.00000E+00
    0.00000E+00         0.00000E+00        -0.49676E+08
 
   -0.49396E+08         0.74290E+06         0.00000E+00
    0.74290E+06        -0.49971E+08         0.00000E+00
    0.00000E+00         0.00000E+00        -0.49678E+08
 
   -0.49406E+08         0.77284E+06         0.00000E+00
    0.77284E+06        -0.49968E+08         0.00000E+00
    0.00000E+00         0.00000E+00        -0.49679E+08
 
   -0.49416E+08         0.80235E+06         0.00000E+00
    0.80235E+06        -0.49965E+08         0.00000E+00
    0.00000E+00         0.00000E+00        -0.49681E+08
 
   -0.49426E+08         0.83142E+06         0.00000E+00
    0.83142E+06        -0.49962E+08         0.00000E+00
    0.00000E+00         0.00000E+00        -0.49682E+08
 
   -0.49436E+08         0.86005E+06         0.00000E+00
    0.86005E+06        -0.49959E+08         0.00000E+00
    0.00000E+00         0.00000E+00        -0.49683E+08
 
   -0.49446E+08         0.88824E+06         0.00000E+00
    0.88824E+06        -0.49956E+08         0.00000E+00
    0.00000E+00         0.00000E+00        -0.49685E+08
 
   -0.49457E+08         0.91598E+06         0.00000E+00
    0.91598E+06        -0.49953E+08         0.00000E+00
    0.00000E+00         0.00000E+00        -0.49686E+08
 
   -0.49467E+08         0.94328E+06         0.00000E+00
    0.94328E+06        -0.49949E+08         0.00000E+00
    0.00000E+00         0.00000E+00        -0.49688E+08
 
   -0.49478E+08         0.97012E+06         0.00000E+00
    0.97012E+06        -0.49946E+08         0.00000E+00
    0.00000E+00         0.00000E+00        -0.49689E+08
 
   -0.49488E+08         0.99650E+06         0.00000E+00
    0.99650E+06        -0.49942E+08         0.00000E+00
    0.00000E+00         0.00000E+00        -0.49691E+08
 
   -0.49499E+08         0.10224E+07         0.00000E+00
    0.10224E+07        -0.49938E+08         0.00000E+00
    0.00000E+00         0.00000E+00        -0.49692E+08
 
   -0.49510E+08         0.10479E+07         0.00000E+00
    0.10479E+07        -0.49935E+08         0.00000E+00
    0.00000E+00         0.00000E+00        -0.49693E+08
 
   -0.49521E+08         0.10729E+07         0.00000E+00
    0.10729E+07        -0.49931E+08         0.00000E+00
    0.00000E+00         0.00000E+00        -0.49695E+08
 
   -0.49532E+08         0.10974E+07         0.00000E+00
    0.10974E+07        -0.49927E+08         0.00000E+00
    0.00000E+00         0.00000E+00        -0.49696E+08
 
   -0.49543E+08         0.11215E+07         0.00000E+00
    0.11215E+07        -0.49922E+08         0.00000E+00
    0.00000E+00         0.00000E+00        -0.49698E+08
 
   -0.49555E+08         0.11451E+07         0.00000E+00
    0.11451E+07        -0.49918E+08         0.00000E+00
    0.00000E+00         0.00000E+00        -0.49699E+08
 
   -0.49566E+08         0.11682E+07         0.00000E+00
    0.11682E+07        -0.49914E+08         0.00000E+00
    0.00000E+00         0.00000E+00        -0.49700E+08
 
   -0.49578E+08         0.11908E+07         0.00000E+00
    0.11908E+07        -0.49909E+08         0.00000E+00
    0.00000E+00         0.00000E+00        -0.49702E+08
 
   -0.49589E+08         0.12129E+07         0.00000E+00
    0.12129E+07        -0.49905E+08         0.00000E+00
    0.00000E+00         0.00000E+00        -0.49703E+08
 
   -0.49601E+08         0.12346E+07         0.00000E+00
    0.12346E+07        -0.49900E+08         0.00000E+00
    0.00000E+00         0.00000E+00        -0.49705E+08
 
   -0.49613E+08         0.12557E+07         0.00000E+00
    0.12557E+07        -0.49895E+08         0.00000E+00
    0.00000E+00         0.00000E+00        -0.49706E+08
 
   -0.49625E+08         0.12764E+07         0.00000E+00
    0.12764E+07        -0.49890E+08         0.00000E+00
    0.00000E+00         0.00000E+00        -0.49708E+08
 
   -0.49637E+08         0.12965E+07         0.00000E+00
    0.12965E+07        -0.49885E+08         0.00000E+00
    0.00000E+00         0.00000E+00        -0.49709E+08
 
   -0.49649E+08         0.13162E+07         0.00000E+00
    0.13162E+07        -0.49880E+08         0.00000E+00
    0.00000E+00         0.00000E+00        -0.49710E+08
 
   -0.49662E+08         0.13353E+07         0.00000E+00
    0.13353E+07        -0.49875E+08         0.00000E+00
    0.00000E+00         0.00000E+00        -0.49712E+08
 
   -0.49674E+08         0.13539E+07         0.00000E+00
    0.13539E+07        -0.49870E+08         0.00000E+00
    0.00000E+00         0.00000E+00        -0.49713E+08
 
   -0.49687E+08         0.13720E+07         0.00000E+00
    0.13720E+07        -0.49865E+08         0.00000E+00
    0.00000E+00         0.00000E+00        -0.49715E+08
 
   -0.49699E+08         0.13896E+07         0.00000E+00
    0.13896E+07        -0.49859E+08         0.00000E+00
    0.00000E+00         0.00000E+00        -0.49716E+08
 
   -0.49712E+08         0.14067E+07         0.00000E+00
    0.14067E+07        -0.49853E+08         0.00000E+00
    0.00000E+00         0.00000E+00        -0.49718E+08
 
   -0.49030E+08         0.19946E+05         0.00000E+00
    0.19946E+05        -0.50000E+08         0.00000E+00
    0.00000E+00         0.00000E+00        -0.49549E+08
 
   -0.49038E+08         0.58982E+05         0.00000E+00
    0.58982E+05        -0.50000E+08         0.00000E+00
    0.00000E+00         0.00000E+00        -0.49551E+08
 
   -0.49047E+08         0.97647E+05         0.00000E+00
    0.97647E+05        -0.50000E+08         0.00000E+00
    0.00000E+00         0.00000E+00        -0.49552E+08
 
   -0.49056E+08         0.13594E+06         0.00000E+00
    0.13594E+06        -0.49999E+08         0.00000E+00
    0.00000E+00         0.00000E+00        -0.49554E+08
 
   -0.49065E+08         0.17385E+06         0.00000E+00
    0.17385E+06        -0.49998E+08         0.00000E+00
    0.00000E+00         0.00000E+00        -0.49556E+08
 
   -0.49074E+08         0.21138E+06         0.00000E+00
    0.21138E+06        -0.49998E+08         0.00000E+00
    0.00000E+00         0.00000E+00        -0.49557E+08
 
   -0.49084E+08         0.24853E+06         0.00000E+00
    0.24853E+06        -0.49997E+08         0.00000E+00
    0.00000E+00         0.00000E+00        -0.49559E+08
 
   -0.49093E+08         0.28529E+06         0.00000E+00
    0.28529E+06        -0.49996E+08         0.00000E+00
    0.00000E+00         0.00000E+00        -0.49561E+08
 
   -0.49103E+08         0.32166E+06         0.00000E+00
    0.32166E+06        -0.49994E+08         0.00000E+00
    0.00000E+00         0.00000E+00        -0.49562E+08
 
   -0.49113E+08         0.35763E+06         0.00000E+00
    0.35763E+06        -0.49993E+08         0.00000E+00
    0.00000E+00         0.00000E+00        -0.49564E+08
 
   -0.49123E+08         0.39321E+06         0.00000E+00
    0.39321E+06        -0.49991E+08         0.00000E+00
    0.00000E+00         0.00000E+00        -0.49566E+08
 
   -0.49133E+08         0.42838E+06         0.00000E+00
    0.42838E+06        -0.49990E+08         0.00000E+00
    0.00000E+00         0.00000E+00        -0.49568E+08
 
   -0.49143E+08         0.46315E+06         0.00000E+00
    0.46315E+06        -0.49988E+08         0.00000E+00
    0.00000E+00         0.00000E+00        -0.49569E+08
 
   -0.49154E+08         0.49752E+06         0.00000E+00
    0.49752E+06        -0.49986E+08         0.00000E+00
    0.00000E+00         0.00000E+00        -0.49571E+08
 
   -0.49165E+08         0.53147E+06         0.00000E+00
    0.53147E+06        -0.49984E+08         0.00000E+00
    0.00000E+00         0.00000E+00        -0.49573E+08
 
   -0.49176E+08         0.56501E+06         0.00000E+00
    0.56501E+06        -0.49982E+08         0.00000E+00
    0.00000E+00         0.00000E+00        -0.49574E+08
 
   -0.49187E+08         0.59814E+06         0.00000E+00
    0.59814E+06        -0.49979E+08         0.00000E+00
    0.00000E+00         0.00000E+00        -0.49576E+08
 
   -0.49198E+08         0.63084E+06         0.00000E+00
    0.63084E+06        -0.49977E+08         0.00000E+00
    0.00000E+00         0.00000E+00        -0.49578E+08
 
   -0.49209E+08         0.66313E+06         0.00000E+00
    0.66313E+06        -0.49974E+08         0.00000E+00
    0.00000E+00         0.00000E+00        -0.49580E+08
 
   -0.49221E+08         0.69499E+06         0.00000E+00
    0.69499E+06        -0.49971E+08         0.00000E+00
    0.00000E+00         0.00000E+00        -0.49581E+08
 
   -0.49232E+08         0.72642E+06         0.00000E+00
    0.72642E+06        -0.49968E+08         0.00000E+00
    0.00000E+00         0.00000E+00        -0.49583E+08
 
   -0.49244E+08         0.75742E+06         0.00000E+00
    0.75742E+06        -0.49965E+08         0.00000E+00
    0.00000E+00         0.00000E+00        -0.49585E+08
 
   -0.49256E+08         0.78798E+06         0.00000E+00
    0.78798E+06        -0.49962E+08         0.00000E+00
    0.00000E+00         0.00000E+00        -0.49587E+08
 
   -0.49268E+08         0.81811E+06         0.00000E+00
    0.81811E+06        -0.49959E+08         0.00000E+00
    0.00000E+00         0.00000E+00        -0.49588E+08
 
   -0.49280E+08         0.84780E+06         0.00000E+00
    0.84780E+06        -0.49955E+08         0.00000E+00
    0.00000E+00         0.00000E+00        -0.49590E+08
 
   -0.49292E+08         0.87705E+06         0.00000E+00
    0.87705E+06        -0.49952E+08         0.00000E+00
    0.00000E+00         0.00000E+00        -0.49592E+08
 
   -0.49305E+08         0.90585E+06         0.00000E+00
    0.90585E+06        -0.49948E+08         0.00000E+00
    0.00000E+00         0.00000E+00        -0.49593E+08
 
   -0.49317E+08         0.93420E+06         0.00000E+00
    0.93420E+06        -0.49944E+08         0.00000E+00
    0.00000E+00         0.00000E+00        -0.49595E+08
 
   -0.49330E+08         0.96210E+06         0.00000E+00
    0.96210E+06        -0.49940E+08         0.00000E+00
    0.00000E+00         0.00000E+00        -0.49597E+08
 
   -0.49343E+08         0.98955E+06         0.00000E+00
    0.98955E+06        -0.49936E+08         0.00000E+00
    0.00000E+00         0.00000E+00        -0.49599E+08
 
   -0.49356E+08         0.10165E+07         0.00000E+00
    0.10165E+07        -0.49931E+08         0.00000E+00
    0.00000E+00         0.00000E+00        -0.49600E+08
 
   -0.49369E+08         0.10431E+07         0.00000E+00
    0.10431E+07        -0.49927E+08         0.00000E+00
    0.00000E+00         0.00000E+00        -0.49602E+08
 
   -0.49382E+08         0.10691E+07         0.00000E+00
    0.10691E+07        -0.49922E+08         0.00000E+00
    0.00000E+00         0.00000E+00        -0.49604E+08
 
   -0.49396E+08         0.10947E+07         0.00000E+00
    0.10947E+07        -0.49918E+08         0.00000E+00
    0.00000E+00         0.00000E+00        -0.49606E+08
 
   -0.49409E+08         0.11198E+07         0.00000E+00
    0.11198E+07        -0.49913E+08         0.00000E+00
    0.00000E+00         0.00000E+00        -0.49607E+08
 
   -0.49423E+08         0.11445E+07         0.00000E+00
    0.11445E+07        -0.49908E+08         0.00000E+00
    0.00000E+00         0.00000E+00        -0.49609E+08
 
   -0.49437E+08         0.11687E+07         0.00000E+00
    0.11687E+07        -0.49903E+08         0.00000E+00
    0.00000E+00         0.00000E+00        -0.49611E+08
 
   -0.49450E+08         0.11923E+07         0.00000E+00
    0.11923E+07        -0.49898E+08         0.00000E+00
    0.00000E+00         0.00000E+00        -0.49613E+08
 
   -0.49464E+08         0.12156E+07         0.00000E+00
    0.12156E+07        -0.49892E+08         0.00000E+00
    0.00000E+00         0.00000E+00        -0.49614E+08
 
   -0.49479E+08         0.12383E+07         0.00000E+00
    0.12383E+07        -0.49887E+08         0.00000E+00
    0.00000E+00         0.00000E+00        -0.49616E+08
 
   -0.49493E+08         0.12605E+07         0.00000E+00
    0.12605E+07        -0.49881E+08         0.00000E+00
    0.00000E+00         0.00000E+00        -0.49618E+08
 
   -0.49507E+08         0.12822E+07         0.00000E+00
    0.12822E+07        -0.49876E+08         0.00000E+00
    0.00000E+00         0.00000E+00        -0.49620E+08
 
   -0.49522E+08         0.13035E+07         0.00000E+00
    0.13035E+07        -0.49870E+08         0.00000E+00
    0.00000E+00         0.00000E+00        -0.49621E+08
 
   -0.49536E+08         0.13242E+07         0.00000E+00
    0.13242E+07        -0.49864E+08         0.00000E+00
    0.00000E+00         0.00000E+00        -0.49623E+08
 
   -0.49551E+08         0.13444E+07         0.00000E+00
    0.13444E+07        -0.49858E+08         0.00000E+00
    0.00000E+00         0.00000E+00        -0.49625E+08
 
   -0.49566E+08         0.13641E+07         0.00000E+00
    0.13641E+07        -0.49851E+08         0.00000E+00
    0.00000E+00         0.00000E+00        -0.49626E+08
 
   -0.49581E+08         0.13833E+07         0.00000E+00
    0.13833E+07        -0.49845E+08         0.00000E+00
    0.00000E+00         0.00000E+00        -0.49628E+08
 
   -0.49596E+08         0.14020E+07         0.00000E+00
    0.14020E+07        -0.49839E+08         0.00000E+00
    0.00000E+00         0.00000E+00        -0.49630E+08
 
   -0.49611E+08         0.14202E+07         0.00000E+00
    0.14202E+07        -0.49832E+08         0.00000E+00
    0.00000E+00         0.00000E+00        -0.49632E+08
 
   -0.49626E+08         0.14378E+07         0.00000E+00
    0.14378E+07        -0.49825E+08         0.00000E+00
    0.00000E+00         0.00000E+00        -0.49633E+08
 
   -0.48832E+08         0.20382E+05         0.00000E+00
    0.20382E+05        -0.50000E+08         0.00000E+00
    0.00000E+00         0.00000E+00        -0.49445E+08
 
   -0.48842E+08         0.60269E+05         0.00000E+00
    0.60269E+05        -0.50000E+08         0.00000E+00
    0.00000E+00         0.00000E+00        -0.49447E+08
 
   -0.48852E+08         0.99777E+05         0.00000E+00
    0.99777E+05        -0.49999E+08         0.00000E+00
    0.00000E+00         0.00000E+00        -0.49449E+08
 
   -0.48863E+08         0.13890E+06         0.00000E+00
    0.13890E+06        -0.49999E+08         0.00000E+00
    0.00000E+00         0.00000E+00        -0.49451E+08
 
   -0.48874E+08         0.17764E+06         0.00000E+00
    0.17764E+06        -0.49998E+08         0.00000E+00
    0.00000E+00         0.00000E+00        -0.49453E+08
 
   -0.48885E+08         0.21599E+06         0.00000E+00
    0.21599E+06        -0.49997E+08         0.00000E+00
    0.00000E+00         0.00000E+00        -0.49455E+08
 
   -0.48897E+08         0.25395E+06         0.00000E+00
    0.25395E+06        -0.49996E+08         0.00000E+00
    0.00000E+00         0.00000E+00        -0.49457E+08
 
   -0.48908E+08         0.29152E+06         0.00000E+00
    0.29152E+06        -0.49995E+08         0.00000E+00
    0.00000E+00         0.00000E+00        -0.49460E+08
 
   -0.48920E+08         0.32869E+06         0.00000E+00
    0.32869E+06        -0.49994E+08         0.00000E+00
    0.00000E+00         0.00000E+00        -0.49462E+08
 
   -0.48932E+08         0.36545E+06         0.00000E+00
    0.36545E+06        -0.49992E+08         0.00000E+00
    0.00000E+00         0.00000E+00        -0.49464E+08
 
   -0.48944E+08         0.40181E+06         0.00000E+00
    0.40181E+06        -0.49990E+08         0.00000E+00
    0.00000E+00         0.00000E+00        -0.49466E+08
 
   -0.48956E+08         0.43777E+06         0.00000E+00
    0.43777E+06        -0.49988E+08         0.00000E+00
    0.00000E+00         0.00000E+00        -0.49468E+08
 
   -0.48969E+08         0.47332E+06         0.00000E+00
    0.47332E+06        -0.49986E+08         0.00000E+00
    0.00000E+00         0.00000E+00        -0.49470E+08
 
   -0.48981E+08         0.50845E+06         0.00000E+00
    0.50845E+06        -0.49984E+08         0.00000E+00
    0.00000E+00         0.00000E+00        -0.49472E+08
 
   -0.48994E+08         0.54317E+06         0.00000E+00
    0.54317E+06        -0.49981E+08         0.00000E+00
    0.00000E+00         0.00000E+00        -0.49474E+08
 
   -0.49007E+08         0.57747E+06         0.00000E+00
    0.57747E+06        -0.49979E+08         0.00000E+00
    0.00000E+00         0.00000E+00        -0.49476E+08
 
   -0.49020E+08         0.61136E+06         0.00000E+00
    0.61136E+06        -0.49976E+08         0.00000E+00
    0.00000E+00         0.00000E+00        -0.49478E+08
 
   -0.49033E+08         0.64481E+06         0.00000E+00
    0.64481E+06        -0.49973E+08         0.00000E+00
    0.00000E+00         0.00000E+00        -0.49480E+08
 
   -0.49047E+08         0.67785E+06         0.00000E+00
    0.67785E+06        -0.49970E+08         0.00000E+00
    0.00000E+00         0.00000E+00        -0.49482E+08
 
   -0.49061E+08         0.71045E+06         0.00000E+00
    0.71045E+06        -0.49967E+08         0.00000E+00
    0.00000E+00         0.00000E+00        -0.49484E+08
 
   -0.49074E+08         0.74262E+06         0.00000E+00
    0.74262E+06        -0.49964E+08         0.00000E+00
    0.00000E+00         0.00000E+00        -0.49486E+08
 
   -0.49088E+08         0.77436E+06         0.00000E+00
    0.77436E+06        -0.49960E+08         0.00000E+00
    0.00000E+00         0.00000E+00        -0.49489E+08
 
   -0.49102E+08         0.80566E+06         0.00000E+00
    0.80566E+06        -0.49956E+08         0.00000E+00
    0.00000E+00         0.00000E+00        -0.49491E+08
 
   -0.49117E+08         0.83653E+06         0.00000E+00
    0.83653E+06        -0.49952E+08         0.00000E+00
    0.00000E+00         0.00000E+00        -0.49493E+08
 
   -0.49131E+08         0.86695E+06         0.00000E+00
    0.86695E+06        -0.49948E+08         0.00000E+00
    0.00000E+00         0.00000E+00        -0.49495E+08
 
   -0.49145E+08         0.89692E+06         0.00000E+00
    0.89692E+06        -0.49944E+08         0.00000E+00
    0.00000E+00         0.00000E+00        -0.49497E+08
 
   -0.49160E+08         0.92645E+06         0.00000E+00
    0.92645E+06        -0.49940E+08         0.00000E+00
    0.00000E+00         0.00000E+00        -0.49499E+08
 
   -0.49175E+08         0.95552E+06         0.00000E+00
    0.95552E+06        -0.49935E+08         0.00000E+00
    0.00000E+00         0.00000E+00        -0.49501E+08
 
   -0.49190E+08         0.98415E+06         0.00000E+00
    0.98415E+06        -0.49931E+08         0.00000E+00
    0.00000E+00         0.00000E+00        -0.49503E+08
 
   -0.49205E+08         0.10123E+07         0.00000E+00
    0.10123E+07        -0.49926E+08         0.00000E+00
    0.00000E+00         0.00000E+00        -0.49505E+08
 
   -0.49220E+08         0.10400E+07         0.00000E+00
    0.10400E+07        -0.49921E+08         0.00000E+00
    0.00000E+00         0.00000E+00        -0.49507E+08
 
   -0.49236E+08         0.10673E+07         0.00000E+00
    0.10673E+07        -0.49916E+08         0.00000E+00
    0.00000E+00         0.00000E+00        -0.49509E+08
 
   -0.49251E+08         0.10940E+07         0.00000E+00
    0.10940E+07        -0.49911E+08         0.00000E+00
    0.00000E+00         0.00000E+00        -0.49511E+08
 
   -0.49267E+08         0.11203E+07         0.00000E+00
    0.11203E+07        -0.49905E+08         0.00000E+00
    0.00000E+00         0.00000E+00        -0.49513E+08
 
   -0.49283E+08         0.11462E+07         0.00000E+00
    0.11462E+07        -0.49900E+08         0.00000E+00
    0.00000E+00         0.00000E+00        -0.49515E+08
 
   -0.49299E+08         0.11715E+07         0.00000E+00
    0.11715E+07        -0.49894E+08         0.00000E+00
    0.00000E+00         0.00000E+00        -0.49517E+08
 
   -0.49315E+08         0.11964E+07         0.00000E+00
    0.11964E+07        -0.49888E+08         0.00000E+00
    0.00000E+00         0.00000E+00        -0.49520E+08
 
   -0.49331E+08         0.12208E+07         0.00000E+00
    0.12208E+07        -0.49882E+08         0.00000E+00
    0.00000E+00         0.00000E+00        -0.49522E+08
 
   -0.49348E+08         0.12447E+07         0.00000E+00
    0.12447E+07        -0.49876E+08         0.00000E+00
    0.00000E+00         0.00000E+00        -0.49524E+08
 
   -0.49364E+08         0.12682E+07         0.00000E+00
    0.12682E+07        -0.49869E+08         0.00000E+00
    0.00000E+00         0.00000E+00        -0.49526E+08
 
   -0.49381E+08         0.12911E+07         0.00000E+00
    0.12911E+07        -0.49863E+08         0.00000E+00
    0.00000E+00         0.00000E+00        -0.49528E+08
 
   -0.49398E+08         0.13135E+07         0.00000E+00
    0.13135E+07        -0.49856E+08         0.00000E+00
    0.00000E+00         0.00000E+00        -0.49530E+08
 
   -0.49415E+08         0.13355E+07         0.00000E+00
    0.13355E+07        -0.49849E+08         0.00000E+00
    0.00000E+00         0.00000E+00        -0.49532E+08
 
   -0.49432E+08         0.13569E+07         0.00000E+00
    0.13569E+07        -0.49842E+08         0.00000E+00
    0.00000E+00         0.00000E+00        -0.49534E+08
 
   -0.49449E+08         0.13779E+07         0.00000E+00
    0.13779E+07        -0.49835E+08         0.00000E+00
    0.00000E+00         0.00000E+00        -0.49536E+08
 
   -0.49467E+08         0.13983E+07         0.00000E+00
    0.13983E+07        -0.49828E+08         0.00000E+00
    0.00000E+00         0.00000E+00        -0.49538E+08
 
   -0.49484E+08         0.14182E+07         0.00000E+00
    0.14182E+07        -0.49821E+08         0.00000E+00
    0.00000E+00         0.00000E+00        -0.49540E+08
 
   -0.49502E+08         0.14376E+07         0.00000E+00
    0.14376E+07        -0.49813E+08         0.00000E+00
    0.00000E+00         0.00000E+00        -0.49542E+08
 
   -0.49520E+08         0.14564E+07         0.00000E+00
    0.14564E+07        -0.49805E+08         0.00000E+00
    0.00000E+00         0.00000E+00        -0.49544E+08
 
   -0.49538E+08         0.14748E+07         0.00000E+00
    0.14748E+07        -0.49797E+08         0.00000E+00
    0.00000E+00         0.00000E+00        -0.49546E+08
 
   -0.48629E+08         0.20878E+05         0.00000E+00
    0.20878E+05        -0.50000E+08         0.00000E+00
    0.00000E+00         0.00000E+00        -0.49337E+08
 
   -0.48641E+08         0.61732E+05         0.00000E+00
    0.61732E+05        -0.50000E+08         0.00000E+00
    0.00000E+00         0.00000E+00        -0.49340E+08
 
   -0.48654E+08         0.10220E+06         0.00000E+00
    0.10220E+06        -0.49999E+08         0.00000E+00
    0.00000E+00         0.00000E+00        -0.49342E+08
 
   -0.48666E+08         0.14227E+06         0.00000E+00
    0.14227E+06        -0.49999E+08         0.00000E+00
    0.00000E+00         0.00000E+00        -0.49345E+08
 
   -0.48679E+08         0.18195E+06         0.00000E+00
    0.18195E+06        -0.49998E+08         0.00000E+00
    0.00000E+00         0.00000E+00        -0.49347E+08
 
   -0.48692E+08         0.22123E+06         0.00000E+00
    0.22123E+06        -0.49997E+08         0.00000E+00
    0.00000E+00         0.00000E+00        -0.49350E+08
 
   -0.48706E+08         0.26012E+06         0.00000E+00
    0.26012E+06        -0.49996E+08         0.00000E+00
    0.00000E+00         0.00000E+00        -0.49352E+08
 
   -0.48719E+08         0.29860E+06         0.00000E+00
    0.29860E+06        -0.49994E+08         0.00000E+00
    0.00000E+00         0.00000E+00        -0.49354E+08
 
   -0.48733E+08         0.33668E+06         0.00000E+00
    0.33668E+06        -0.49993E+08         0.00000E+00
    0.00000E+00         0.00000E+00        -0.49357E+08
 
   -0.48747E+08         0.37434E+06         0.00000E+00
    0.37434E+06        -0.49991E+08         0.00000E+00
    0.00000E+00         0.00000E+00        -0.49359E+08
 
   -0.48761E+08         0.41160E+06         0.00000E+00
    0.41160E+06        -0.49989E+08         0.00000E+00
    0.00000E+00         0.00000E+00        -0.49362E+08
 
   -0.48775E+08         0.44845E+06         0.00000E+00
    0.44845E+06        -0.49987E+08         0.00000E+00
    0.00000E+00         0.00000E+00        -0.49364E+08
 
   -0.48790E+08         0.48488E+06         0.00000E+00
    0.48488E+06        -0.49984E+08         0.00000E+00
    0.00000E+00         0.00000E+00        -0.49367E+08
 
   -0.48805E+08         0.52090E+06         0.00000E+00
    0.52090E+06        -0.49982E+08         0.00000E+00
    0.00000E+00         0.00000E+00        -0.49369E+08
 
   -0.48819E+08         0.55649E+06         0.00000E+00
    0.55649E+06        -0.49979E+08         0.00000E+00
    0.00000E+00         0.00000E+00        -0.49371E+08
 
   -0.48834E+08         0.59166E+06         0.00000E+00
    0.59166E+06        -0.49976E+08         0.00000E+00
    0.00000E+00         0.00000E+00        -0.49374E+08
 
   -0.48850E+08         0.62641E+06         0.00000E+00
    0.62641E+06        -0.49973E+08         0.00000E+00
    0.00000E+00         0.00000E+00        -0.49376E+08
 
   -0.48865E+08         0.66073E+06         0.00000E+00
    0.66073E+06        -0.49970E+08         0.00000E+00
    0.00000E+00         0.00000E+00        -0.49379E+08
 
   -0.48881E+08         0.69462E+06         0.00000E+00
    0.69462E+06        -0.49966E+08         0.00000E+00
    0.00000E+00         0.00000E+00        -0.49381E+08
 
   -0.48896E+08         0.72808E+06         0.00000E+00
    0.72808E+06        -0.49963E+08         0.00000E+00
    0.00000E+00         0.00000E+00        -0.49384E+08
 
   -0.48912E+08         0.76111E+06         0.00000E+00
    0.76111E+06        -0.49959E+08         0.00000E+00
    0.00000E+00         0.00000E+00        -0.49386E+08
 
   -0.48929E+08         0.79370E+06         0.00000E+00
    0.79370E+06        -0.49955E+08         0.00000E+00
    0.00000E+00         0.00000E+00        -0.49388E+08
 
   -0.48945E+08         0.82585E+06         0.00000E+00
    0.82585E+06        -0.49951E+08         0.00000E+00
    0.00000E+00         0.00000E+00        -0.49391E+08
 
   -0.48961E+08         0.85755E+06         0.00000E+00
    0.85755E+06        -0.49946E+08         0.00000E+00
    0.00000E+00         0.00000E+00        -0.49393E+08
 
   -0.48978E+08         0.88882E+06         0.00000E+00
    0.88882E+06        -0.49942E+08         0.00000E+00
    0.00000E+00         0.00000E+00        -0.49396E+08
 
   -0.48995E+08         0.91963E+06         0.00000E+00
    0.91963E+06        -0.49937E+08         0.00000E+00
    0.00000E+00         0.00000E+00        -0.49398E+08
 
   -0.49012E+08         0.95000E+06         0.00000E+00
    0.95000E+06        -0.49932E+08         0.00000E+00
    0.00000E+00         0.00000E+00        -0.49400E+08
 
   -0.49029E+08         0.97992E+06         0.00000E+00
    0.97992E+06        -0.49927E+08         0.00000E+00
    0.00000E+00         0.00000E+00        -0.49403E+08
 
   -0.49046E+08         0.10094E+07         0.00000E+00
    0.10094E+07        -0.49922E+08         0.00000E+00
    0.00000E+00         0.00000E+00        -0.49405E+08
 
   -0.49063E+08         0.10384E+07         0.00000E+00
    0.10384E+07        -0.49916E+08         0.00000E+00
    0.00000E+00         0.00000E+00        -0.49408E+08
 
   -0.49081E+08         0.10669E+07         0.00000E+00
    0.10669E+07        -0.49911E+08         0.00000E+00
    0.00000E+00         0.00000E+00        -0.49410E+08
 
   -0.49099E+08         0.10950E+07         0.00000E+00
    0.10950E+07        -0.49905E+08         0.00000E+00
    0.00000E+00         0.00000E+00        -0.49412E+08
 
   -0.49117E+08         0.11226E+07         0.00000E+00
    0.11226E+07        -0.49899E+08         0.00000E+00
    0.00000E+00         0.00000E+00        -0.49415E+08
 
   -0.49135E+08         0.11498E+07         0.00000E+00
    0.11498E+07        -0.49893E+08         0.00000E+00
    0.00000E+00         0.00000E+00        -0.49417E+08
 
   -0.49153E+08         0.11764E+07         0.00000E+00
    0.11764E+07        -0.49886E+08         0.00000E+00
    0.00000E+00         0.00000E+00        -0.49420E+08
 
   -0.49171E+08         0.12026E+07         0.00000E+00
    0.12026E+07        -0.49880E+08         0.00000E+00
    0.00000E+00         0.00000E+00        -0.49422E+08
 
   -0.49190E+08         0.12283E+07         0.00000E+00
    0.12283E+07        -0.49873E+08         0.00000E+00
    0.00000E+00         0.00000E+00        -0.49424E+08
 
   -0.49209E+08         0.12536E+07         0.00000E+00
    0.12536E+07        -0.49866E+08         0.00000E+00
    0.00000E+00         0.00000E+00        -0.49427E+08
 
   -0.49227E+08         0.12783E+07         0.00000E+00
    0.12783E+07        -0.49859E+08         0.00000E+00
    0.00000E+00         0.00000E+00        -0.49429E+08
 
   -0.49246E+08         0.13026E+07         0.00000E+00
    0.13026E+07        -0.49852E+08         0.00000E+00
    0.00000E+00         0.00000E+00        -0.49431E+08
 
   -0.49266E+08         0.13264E+07         0.00000E+00
    0.13264E+07        -0.49844E+08         0.00000E+00
    0.00000E+00         0.00000E+00        -0.49434E+08
 
   -0.49285E+08         0.13496E+07         0.00000E+00
    0.13496E+07        -0.49837E+08         0.00000E+00
    0.00000E+00         0.00000E+00        -0.49436E+08
 
   -0.49304E+08         0.13724E+07         0.00000E+00
    0.13724E+07        -0.49829E+08         0.00000E+00
    0.00000E+00         0.00000E+00        -0.49438E+08
 
   -0.49324E+08         0.13947E+07         0.00000E+00
    0.13947E+07        -0.49821E+08         0.00000E+00
    0.00000E+00         0.00000E+00        -0.49441E+08
 
   -0.49344E+08         0.14165E+07         0.00000E+00
    0.14165E+07        -0.49813E+08         0.00000E+00
    0.00000E+00         0.00000E+00        -0.49443E+08
 
   -0.49364E+08         0.14377E+07         0.00000E+00
    0.14377E+07        -0.49805E+08         0.00000E+00
    0.00000E+00         0.00000E+00        -0.49445E+08
 
   -0.49384E+08         0.14585E+07         0.00000E+00
    0.14585E+07        -0.49796E+08         0.00000E+00
    0.00000E+00         0.00000E+00        -0.49448E+08
 
   -0.49404E+08         0.14787E+07         0.00000E+00
    0.14787E+07        -0.49787E+08         0.00000E+00
    0.00000E+00         0.00000E+00        -0.49450E+08
 
   -0.49425E+08         0.14984E+07         0.00000E+00
    0.14984E+07        -0.49779E+08         0.00000E+00
    0.00000E+00         0.00000E+00        -0.49452E+08
 
   -0.49445E+08         0.15176E+07         0.00000E+00
    0.15176E+07        -0.49770E+08         0.00000E+00
    0.00000E+00         0.00000E+00        -0.49455E+08
 
   -0.48421E+08         0.21430E+05         0.00000E+00
    0.21430E+05        -0.50000E+08         0.00000E+00
    0.00000E+00         0.00000E+00        -0.49225E+08
 
   -0.48435E+08         0.63364E+05         0.00000E+00
    0.63364E+05        -0.50000E+08         0.00000E+00
    0.00000E+00         0.00000E+00        -0.49228E+08
 
   -0.48450E+08         0.10490E+06         0.00000E+00
    0.10490E+06        -0.49999E+08         0.00000E+00
    0.00000E+00         0.00000E+00        -0.49230E+08
 
   -0.48464E+08         0.14603E+06         0.00000E+00
    0.14603E+06        -0.49999E+08         0.00000E+00
    0.00000E+00         0.00000E+00        -0.49233E+08
 
   -0.48479E+08         0.18676E+06         0.00000E+00
    0.18676E+06        -0.49998E+08         0.00000E+00
    0.00000E+00         0.00000E+00        -0.49236E+08
 
   -0.48494E+08         0.22709E+06         0.00000E+00
    0.22709E+06        -0.49997E+08         0.00000E+00
    0.00000E+00         0.00000E+00        -0.49239E+08
 
   -0.48510E+08         0.26700E+06         0.00000E+00
    0.26700E+06        -0.49995E+08         0.00000E+00
    0.00000E+00         0.00000E+00        -0.49242E+08
 
   -0.48525E+08         0.30651E+06         0.00000E+00
    0.30651E+06        -0.49994E+08         0.00000E+00
    0.00000E+00         0.00000E+00        -0.49244E+08
 
   -0.48541E+08         0.34560E+06         0.00000E+00
    0.34560E+06        -0.49992E+08         0.00000E+00
    0.00000E+00         0.00000E+00        -0.49247E+08
 
   -0.48557E+08         0.38428E+06         0.00000E+00
    0.38428E+06        -0.49990E+08         0.00000E+00
    0.00000E+00         0.00000E+00        -0.49250E+08
 
   -0.48573E+08         0.42255E+06         0.00000E+00
    0.42255E+06        -0.49988E+08         0.00000E+00
    0.00000E+00         0.00000E+00        -0.49253E+08
 
   -0.48590E+08         0.46039E+06         0.00000E+00
    0.46039E+06        -0.49985E+08         0.00000E+00
    0.00000E+00         0.00000E+00        -0.49256E+08
 
   -0.48606E+08         0.49781E+06         0.00000E+00
    0.49781E+06        -0.49983E+08         0.00000E+00
    0.00000E+00         0.00000E+00        -0.49258E+08
 
   -0.48623E+08         0.53482E+06         0.00000E+00
    0.53482E+06        -0.49980E+08         0.00000E+00
    0.00000E+00         0.00000E+00        -0.49261E+08
 
   -0.48640E+08         0.57139E+06         0.00000E+00
    0.57139E+06        -0.49977E+08         0.00000E+00
    0.00000E+00         0.00000E+00        -0.49264E+08
 
   -0.48657E+08         0.60754E+06         0.00000E+00
    0.60754E+06        -0.49974E+08         0.00000E+00
    0.00000E+00         0.00000E+00        -0.49267E+08
 
   -0.48675E+08         0.64327E+06         0.00000E+00
    0.64327E+06        -0.49970E+08         0.00000E+00
    0.00000E+00         0.00000E+00        -0.49270E+08
 
   -0.48692E+08         0.67856E+06         0.00000E+00
    0.67856E+06        -0.49967E+08         0.00000E+00
    0.00000E+00         0.00000E+00        -0.49272E+08
 
   -0.48710E+08         0.71342E+06         0.00000E+00
    0.71342E+06        -0.49963E+08         0.00000E+00
    0.00000E+00         0.00000E+00        -0.49275E+08
 
   -0.48728E+08         0.74784E+06         0.00000E+00
    0.74784E+06        -0.49959E+08         0.00000E+00
    0.00000E+00         0.00000E+00        -0.49278E+08
 
   -0.48746E+08         0.78183E+06         0.00000E+00
    0.78183E+06        -0.49954E+08         0.00000E+00
    0.00000E+00         0.00000E+00        -0.49281E+08
 
   -0.48764E+08         0.81538E+06         0.00000E+00
    0.81538E+06        -0.49950E+08         0.00000E+00
    0.00000E+00         0.00000E+00        -0.49284E+08
 
   -0.48783E+08         0.84848E+06         0.00000E+00
    0.84848E+06        -0.49945E+08         0.00000E+00
    0.00000E+00         0.00000E+00        -0.49286E+08
 
   -0.48801E+08         0.88115E+06         0.00000E+00
    0.88115E+06        -0.49940E+08         0.00000E+00
    0.00000E+00         0.00000E+00        -0.49289E+08
 
   -0.48820E+08         0.91337E+06         0.00000E+00
    0.91337E+06        -0.49935E+08         0.00000E+00
    0.00000E+00         0.00000E+00        -0.49292E+08
 
   -0.48839E+08         0.94514E+06         0.00000E+00
    0.94514E+06        -0.49930E+08         0.00000E+00
    0.00000E+00         0.00000E+00        -0.49295E+08
 
   -0.48858E+08         0.97646E+06         0.00000E+00
    0.97646E+06        -0.49925E+08         0.00000E+00
    0.00000E+00         0.00000E+00        -0.49297E+08
 
   -0.48878E+08         0.10073E+07         0.00000E+00
    0.10073E+07        -0.49919E+08         0.00000E+00
    0.00000E+00         0.00000E+00        -0.49300E+08
 
   -0.48897E+08         0.10377E+07         0.00000E+00
    0.10377E+07        -0.49913E+08         0.00000E+00
    0.00000E+00         0.00000E+00        -0.49303E+08
 
   -0.48917E+08         0.10677E+07         0.00000E+00
    0.10677E+07        -0.49907E+08         0.00000E+00
    0.00000E+00         0.00000E+00        -0.49305E+08
 
   -0.48937E+08         0.10972E+07         0.00000E+00
    0.10972E+07        -0.49901E+08         0.00000E+00
    0.00000E+00         0.00000E+00        -0.49308E+08
 
   -0.48957E+08         0.11262E+07         0.00000E+00
    0.11262E+07        -0.49894E+08         0.00000E+00
    0.00000E+00         0.00000E+00        -0.49311E+08
 
   -0.48977E+08         0.11548E+07         0.00000E+00
    0.11548E+07        -0.49887E+08         0.00000E+00
    0.00000E+00         0.00000E+00        -0.49314E+08
 
   -0.48998E+08         0.11829E+07         0.00000E+00
    0.11829E+07        -0.49881E+08         0.00000E+00
    0.00000E+00         0.00000E+00        -0.49316E+08
 
   -0.49018E+08         0.12105E+07         0.00000E+00
    0.12105E+07        -0.49873E+08         0.00000E+00
    0.00000E+00         0.00000E+00        -0.49319E+08
 
   -0.49039E+08         0.12377E+07         0.00000E+00
    0.12377E+07        -0.49866E+08         0.00000E+00
    0.00000E+00         0.00000E+00        -0.49322E+08
 
   -0.49060E+08         0.12643E+07         0.00000E+00
    0.12643E+07        -0.49859E+08         0.00000E+00
    0.00000E+00         0.00000E+00        -0.49324E+08
 
   -0.49081E+08         0.12905E+07         0.00000E+00
    0.12905E+07        -0.49851E+08         0.00000E+00
    0.00000E+00         0.00000E+00        -0.49327E+08
 
   -0.49102E+08         0.13163E+07         0.00000E+00
    0.13163E+07        -0.49843E+08         0.00000E+00
    0.00000E+00         0.00000E+00        -0.49330E+08
 
   -0.49124E+08         0.13415E+07         0.00000E+00
    0.13415E+07        -0.49835E+08         0.00000E+00
    0.00000E+00         0.00000E+00        -0.49332E+08
 
   -0.49146E+08         0.13662E+07         0.00000E+00
    0.13662E+07        -0.49827E+08         0.00000E+00
    0.00000E+00         0.00000E+00        -0.49335E+08
 
   -0.49167E+08         0.13905E+07         0.00000E+00
    0.13905E+07        -0.49818E+08         0.00000E+00
    0.00000E+00         0.00000E+00        -0.49338E+08
 
   -0.49189E+08         0.14142E+07         0.00000E+00
    0.14142E+07        -0.49809E+08         0.00000E+00
    0.00000E+00         0.00000E+00        -0.49340E+08
 
   -0.49212E+08         0.14375E+07         0.00000E+00
    0.14375E+07        -0.49800E+08         0.00000E+00
    0.00000E+00         0.00000E+00        -0.49343E+08
 
   -0.49234E+08         0.14602E+07         0.00000E+00
    0.14602E+07        -0.49791E+08         0.00000E+00
    0.00000E+00         0.00000E+00        -0.49346E+08
 
   -0.49256E+08         0.14824E+07         0.00000E+00
    0.14824E+07        -0.49782E+08         0.00000E+00
    0.00000E+00         0.00000E+00        -0.49348E+08
 
   -0.49279E+08         0.15042E+07         0.00000E+00
    0.15042E+07        -0.49772E+08         0.00000E+00
    0.00000E+00         0.00000E+00        -0.49351E+08
 
   -0.49302E+08         0.15254E+07         0.00000E+00
    0.15254E+07        -0.49762E+08         0.00000E+00
    0.00000E+00         0.00000E+00        -0.49354E+08
 
   -0.49325E+08         0.15461E+07         0.00000E+00
    0.15461E+07        -0.49752E+08         0.00000E+00
    0.00000E+00         0.00000E+00        -0.49356E+08
 
   -0.49348E+08         0.15662E+07         0.00000E+00
    0.15662E+07        -0.49742E+08         0.00000E+00
    0.00000E+00         0.00000E+00        -0.49359E+08
 
   -0.48207E+08         0.22038E+05         0.00000E+00
    0.22038E+05        -0.50000E+08         0.00000E+00
    0.00000E+00         0.00000E+00        -0.49107E+08
 
   -0.48223E+08         0.65160E+05         0.00000E+00
    0.65160E+05        -0.50000E+08         0.00000E+00
    0.00000E+00         0.00000E+00        -0.49110E+08
 
   -0.48240E+08         0.10787E+06         0.00000E+00
    0.10787E+06        -0.49999E+08         0.00000E+00
    0.00000E+00         0.00000E+00        -0.49113E+08
 
   -0.48257E+08         0.15017E+06         0.00000E+00
    0.15017E+06        -0.49998E+08         0.00000E+00
    0.00000E+00         0.00000E+00        -0.49116E+08
 
   -0.48274E+08         0.19206E+06         0.00000E+00
    0.19206E+06        -0.49997E+08         0.00000E+00
    0.00000E+00         0.00000E+00        -0.49120E+08
 
   -0.48291E+08         0.23353E+06         0.00000E+00
    0.23353E+06        -0.49996E+08         0.00000E+00
    0.00000E+00         0.00000E+00        -0.49123E+08
 
   -0.48308E+08         0.27458E+06         0.00000E+00
    0.27458E+06        -0.49995E+08         0.00000E+00
    0.00000E+00         0.00000E+00        -0.49126E+08
 
   -0.48326E+08         0.31522E+06         0.00000E+00
    0.31522E+06        -0.49993E+08         0.00000E+00
    0.00000E+00         0.00000E+00        -0.49129E+08
 
   -0.48344E+08         0.35543E+06         0.00000E+00
    0.35543E+06        -0.49991E+08         0.00000E+00
    0.00000E+00         0.00000E+00        -0.49132E+08
 
   -0.48362E+08         0.39523E+06         0.00000E+00
    0.39523E+06        -0.49989E+08         0.00000E+00
    0.00000E+00         0.00000E+00        -0.49136E+08
 
   -0.48380E+08         0.43460E+06         0.00000E+00
    0.43460E+06        -0.49987E+08         0.00000E+00
    0.00000E+00         0.00000E+00        -0.49139E+08
 
   -0.48399E+08         0.47355E+06         0.00000E+00
    0.47355E+06        -0.49984E+08         0.00000E+00
    0.00000E+00         0.00000E+00        -0.49142E+08
 
   -0.48417E+08         0.51207E+06         0.00000E+00
    0.51207E+06        -0.49981E+08         0.00000E+00
    0.00000E+00         0.00000E+00        -0.49145E+08
 
   -0.48436E+08         0.55016E+06         0.00000E+00
    0.55016E+06        -0.49978E+08         0.00000E+00
    0.00000E+00         0.00000E+00        -0.49148E+08
 
   -0.48456E+08         0.58783E+06         0.00000E+00
    0.58783E+06        -0.49975E+08         0.00000E+00
    0.00000E+00         0.00000E+00        -0.49151E+08
 
   -0.48475E+08         0.62506E+06         0.00000E+00
    0.62506E+06        -0.49971E+08         0.00000E+00
    0.00000E+00         0.00000E+00        -0.49155E+08
 
   -0.48494E+08         0.66186E+06         0.00000E+00
    0.66186E+06        -0.49967E+08         0.00000E+00
    0.00000E+00         0.00000E+00        -0.49158E+08
 
   -0.48514E+08         0.69823E+06         0.00000E+00
    0.69823E+06        -0.49963E+08         0.00000E+00
    0.00000E+00         0.00000E+00        -0.49161E+08
 
   -0.48534E+08         0.73417E+06         0.00000E+00
    0.73417E+06        -0.49959E+08         0.00000E+00
    0.00000E+00         0.00000E+00        -0.49164E+08
 
   -0.48554E+08         0.76966E+06         0.00000E+00
    0.76966E+06        -0.49955E+08         0.00000E+00
    0.00000E+00         0.00000E+00        -0.49167E+08
 
   -0.48574E+08         0.80472E+06         0.00000E+00
    0.80472E+06        -0.49950E+08         0.00000E+00
    0.00000E+00         0.00000E+00        -0.49170E+08
 
   -0.48595E+08         0.83934E+06         0.00000E+00
    0.83934E+06        -0.49945E+08         0.00000E+00
    0.00000E+00         0.00000E+00        -0.49173E+08
 
   -0.48616E+08         0.87351E+06         0.00000E+00
    0.87351E+06        -0.49940E+08         0.00000E+00
    0.00000E+00         0.00000E+00        -0.49176E+08
 
   -0.48637E+08         0.90724E+06         0.00000E+00
    0.90724E+06        -0.49935E+08         0.00000E+00
    0.00000E+00         0.00000E+00        -0.49180E+08
 
   -0.48658E+08         0.94053E+06         0.00000E+00
    0.94053E+06        -0.49929E+08         0.00000E+00
    0.00000E+00         0.00000E+00        -0.49183E+08
 
   -0.48679E+08         0.97336E+06         0.00000E+00
    0.97336E+06        -0.49923E+08         0.00000E+00
    0.00000E+00         0.00000E+00        -0.49186E+08
 
   -0.48700E+08         0.10058E+07         0.00000E+00
    0.10058E+07        -0.49917E+08         0.00000E+00
    0.00000E+00         0.00000E+00        -0.49189E+08
 
   -0.48722E+08         0.10377E+07         0.00000E+00
    0.10377E+07        -0.49911E+08         0.00000E+00
    0.00000E+00         0.00000E+00        -0.49192E+08
 
   -0.48744E+08         0.10692E+07         0.00000E+00
    0.10692E+07        -0.49904E+08         0.00000E+00
    0.00000E+00         0.00000E+00        -0.49195E+08
 
   -0.48766E+08         0.11002E+07         0.00000E+00
    0.11002E+07        -0.49898E+08         0.00000E+00
    0.00000E+00         0.00000E+00        -0.49198E+08
 
   -0.48788E+08         0.11308E+07         0.00000E+00
    0.11308E+07        -0.49891E+08         0.00000E+00
    0.00000E+00         0.00000E+00        -0.49201E+08
 
   -0.48810E+08         0.11609E+07         0.00000E+00
    0.11609E+07        -0.49884E+08         0.00000E+00
    0.00000E+00         0.00000E+00        -0.49204E+08
 
   -0.48833E+08         0.11905E+07         0.00000E+00
    0.11905E+07        -0.49876E+08         0.00000E+00
    0.00000E+00         0.00000E+00        -0.49207E+08
 
   -0.48856E+08         0.12197E+07         0.00000E+00
    0.12197E+07        -0.49869E+08         0.00000E+00
    0.00000E+00         0.00000E+00        -0.49210E+08
 
   -0.48879E+08         0.12484E+07         0.00000E+00
    0.12484E+07        -0.49861E+08         0.00000E+00
    0.00000E+00         0.00000E+00        -0.49213E+08
 
   -0.48902E+08         0.12766E+07         0.00000E+00
    0.12766E+07        -0.49853E+08         0.00000E+00
    0.00000E+00         0.00000E+00        -0.49216E+08
 
   -0.48925E+08         0.13044E+07         0.00000E+00
    0.13044E+07        -0.49845E+08         0.00000E+00
    0.00000E+00         0.00000E+00        -0.49219E+08
 
   -0.48949E+08         0.13317E+07         0.00000E+00
    0.13317E+07        -0.49836E+08         0.00000E+00
    0.00000E+00         0.00000E+00        -0.49222E+08
 
   -0.48972E+08         0.13585E+07         0.00000E+00
    0.13585E+07        -0.49827E+08         0.00000E+00
    0.00000E+00         0.00000E+00        -0.49225E+08
 
   -0.48996E+08         0.13848E+07         0.00000E+00
    0.13848E+07        -0.49818E+08         0.00000E+00
    0.00000E+00         0.00000E+00        -0.49228E+08
 
   -0.49020E+08         0.14106E+07         0.00000E+00
    0.14106E+07        -0.49809E+08         0.00000E+00
    0.00000E+00         0.00000E+00        -0.49231E+08
 
   -0.49045E+08         0.14360E+07         0.00000E+00
    0.14360E+07        -0.49800E+08         0.00000E+00
    0.00000E+00         0.00000E+00        -0.49234E+08
 
   -0.49069E+08         0.14608E+07         0.00000E+00
    0.14608E+07        -0.49790E+08         0.00000E+00
    0.00000E+00         0.00000E+00        -0.49237E+08
 
   -0.49094E+08         0.14852E+07         0.00000E+00
    0.14852E+07        -0.49780E+08         0.00000E+00
    0.00000E+00         0.00000E+00        -0.49240E+08
 
   -0.49119E+08         0.15091E+07         0.00000E+00
    0.15091E+07        -0.49770E+08         0.00000E+00
    0.00000E+00         0.00000E+00        -0.49243E+08
 
   -0.49144E+08         0.15324E+07         0.00000E+00
    0.15324E+07        -0.49759E+08         0.00000E+00
    0.00000E+00         0.00000E+00        -0.49246E+08
 
   -0.49169E+08         0.15553E+07         0.00000E+00
    0.15553E+07        -0.49749E+08         0.00000E+00
    0.00000E+00         0.00000E+00        -0.49249E+08
 
   -0.49195E+08         0.15776E+07         0.00000E+00
    0.15776E+07        -0.49738E+08         0.00000E+00
    0.00000E+00         0.00000E+00        -0.49252E+08
 
   -0.49220E+08         0.15994E+07         0.00000E+00
    0.15994E+07        -0.49727E+08         0.00000E+00
    0.00000E+00         0.00000E+00        -0.49255E+08
 
   -0.49246E+08         0.16207E+07         0.00000E+00
    0.16207E+07        -0.49715E+08         0.00000E+00
    0.00000E+00         0.00000E+00        -0.49258E+08
 
   -0.47987E+08         0.22699E+05         0.00000E+00
    0.22699E+05        -0.50000E+08         0.00000E+00
    0.00000E+00         0.00000E+00        -0.48982E+08
 
   -0.48006E+08         0.67110E+05         0.00000E+00
    0.67110E+05        -0.50000E+08         0.00000E+00
    0.00000E+00         0.00000E+00        -0.48986E+08
 
   -0.48024E+08         0.11110E+06         0.00000E+00
    0.11110E+06        -0.49999E+08         0.00000E+00
    0.00000E+00         0.00000E+00        -0.48990E+08
 
   -0.48043E+08         0.15467E+06         0.00000E+00
    0.15467E+06        -0.49998E+08         0.00000E+00
    0.00000E+00         0.00000E+00        -0.48993E+08
 
   -0.48062E+08         0.19781E+06         0.00000E+00
    0.19781E+06        -0.49997E+08         0.00000E+00
    0.00000E+00         0.00000E+00        -0.48997E+08
 
   -0.48081E+08         0.24053E+06         0.00000E+00
    0.24053E+06        -0.49996E+08         0.00000E+00
    0.00000E+00         0.00000E+00        -0.49000E+08
 
   -0.48101E+08         0.28282E+06         0.00000E+00
    0.28282E+06        -0.49994E+08         0.00000E+00
    0.00000E+00         0.00000E+00        -0.49004E+08
 
   -0.48121E+08         0.32469E+06         0.00000E+00
    0.32469E+06        -0.49993E+08         0.00000E+00
    0.00000E+00         0.00000E+00        -0.49008E+08
 
   -0.48141E+08         0.36613E+06         0.00000E+00
    0.36613E+06        -0.49990E+08         0.00000E+00
    0.00000E+00         0.00000E+00        -0.49011E+08
 
   -0.48161E+08         0.40714E+06         0.00000E+00
    0.40714E+06        -0.49988E+08         0.00000E+00
    0.00000E+00         0.00000E+00        -0.49015E+08
 
   -0.48181E+08         0.44772E+06         0.00000E+00
    0.44772E+06        -0.49985E+08         0.00000E+00
    0.00000E+00         0.00000E+00        -0.49018E+08
 
   -0.48202E+08         0.48787E+06         0.00000E+00
    0.48787E+06        -0.49983E+08         0.00000E+00
    0.00000E+00         0.00000E+00        -0.49022E+08
 
   -0.48223E+08         0.52759E+06         0.00000E+00
    0.52759E+06        -0.49980E+08         0.00000E+00
    0.00000E+00         0.00000E+00        -0.49025E+08
 
   -0.48244E+08         0.56688E+06         0.00000E+00
    0.56688E+06        -0.49976E+08         0.00000E+00
    0.00000E+00         0.00000E+00        -0.49029E+08
 
   -0.48265E+08         0.60573E+06         0.00000E+00
    0.60573E+06        -0.49973E+08         0.00000E+00
    0.00000E+00         0.00000E+00        -0.49033E+08
 
   -0.48287E+08         0.64415E+06         0.00000E+00
    0.64415E+06        -0.49969E+08         0.00000E+00
    0.00000E+00         0.00000E+00        -0.49036E+08
 
   -0.48309E+08         0.68214E+06         0.00000E+00
    0.68214E+06        -0.49965E+08         0.00000E+00
    0.00000E+00         0.00000E+00        -0.49040E+08
 
   -0.48330E+08         0.71968E+06         0.00000E+00
    0.71968E+06        -0.49960E+08         0.00000E+00
    0.00000E+00         0.00000E+00        -0.49043E+08
 
   -0.48353E+08         0.75680E+06         0.00000E+00
    0.75680E+06        -0.49956E+08         0.00000E+00
    0.00000E+00         0.00000E+00        -0.49047E+08
 
   -0.48375E+08         0.79347E+06         0.00000E+00
    0.79347E+06        -0.49951E+08         0.00000E+00
    0.00000E+00         0.00000E+00        -0.49050E+08
 
   -0.48397E+08         0.82970E+06         0.00000E+00
    0.82970E+06        -0.49946E+08         0.00000E+00
    0.00000E+00         0.00000E+00        -0.49054E+08
 
   -0.48420E+08         0.86549E+06         0.00000E+00
    0.86549E+06        -0.49940E+08         0.00000E+00
    0.00000E+00         0.00000E+00        -0.49057E+08
 
   -0.48443E+08         0.90084E+06         0.00000E+00
    0.90084E+06        -0.49935E+08         0.00000E+00
    0.00000E+00         0.00000E+00        -0.49061E+08
 
   -0.48466E+08         0.93575E+06         0.00000E+00
    0.93575E+06        -0.49929E+08         0.00000E+00
    0.00000E+00         0.00000E+00        -0.49064E+08
 
   -0.48489E+08         0.97021E+06         0.00000E+00
    0.97021E+06        -0.49923E+08         0.00000E+00
    0.00000E+00         0.00000E+00        -0.49067E+08
 
   -0.48513E+08         0.10042E+07         0.00000E+00
    0.10042E+07        -0.49917E+08         0.00000E+00
    0.00000E+00         0.00000E+00        -0.49071E+08
 
   -0.48537E+08         0.10378E+07         0.00000E+00
    0.10378E+07        -0.49910E+08         0.00000E+00
    0.00000E+00         0.00000E+00        -0.49074E+08
 
   -0.48561E+08         0.10709E+07         0.00000E+00
    0.10709E+07        -0.49903E+08         0.00000E+00
    0.00000E+00         0.00000E+00        -0.49078E+08
 
   -0.48585E+08         0.11036E+07         0.00000E+00
    0.11036E+07        -0.49896E+08         0.00000E+00
    0.00000E+00         0.00000E+00        -0.49081E+08
 
   -0.48609E+08         0.11358E+07         0.00000E+00
    0.11358E+07        -0.49889E+08         0.00000E+00
    0.00000E+00         0.00000E+00        -0.49085E+08
 
   -0.48633E+08         0.11675E+07         0.00000E+00
    0.11675E+07        -0.49881E+08         0.00000E+00
    0.00000E+00         0.00000E+00        -0.49088E+08
 
   -0.48658E+08         0.11988E+07         0.00000E+00
    0.11988E+07        -0.49874E+08         0.00000E+00
    0.00000E+00         0.00000E+00        -0.49091E+08
 
   -0.48683E+08         0.12297E+07         0.00000E+00
    0.12297E+07        -0.49866E+08         0.00000E+00
    0.00000E+00         0.00000E+00        -0.49095E+08
 
   -0.48708E+08         0.12601E+07         0.00000E+00
    0.12601E+07        -0.49857E+08         0.00000E+00
    0.00000E+00         0.00000E+00        -0.49098E+08
 
   -0.48733E+08         0.12900E+07         0.00000E+00
    0.12900E+07        -0.49849E+08         0.00000E+00
    0.00000E+00         0.00000E+00        -0.49101E+08
 
   -0.48759E+08         0.13194E+07         0.00000E+00
    0.13194E+07        -0.49840E+08         0.00000E+00
    0.00000E+00         0.00000E+00        -0.49105E+08
 
   -0.48785E+08         0.13484E+07         0.00000E+00
    0.13484E+07        -0.49831E+08         0.00000E+00
    0.00000E+00         0.00000E+00        -0.49108E+08
 
   -0.48810E+08         0.13769E+07         0.00000E+00
    0.13769E+07        -0.49822E+08         0.00000E+00
    0.00000E+00         0.00000E+00        -0.49111E+08
 
   -0.48837E+08         0.14049E+07         0.00000E+00
    0.14049E+07        -0.49812E+08         0.00000E+00
    0.00000E+00         0.00000E+00        -0.49115E+08
 
   -0.48863E+08         0.14325E+07         0.00000E+00
    0.14325E+07        -0.49802E+08         0.00000E+00
    0.00000E+00         0.00000E+00        -0.49118E+08
 
   -0.48889E+08         0.14595E+07         0.00000E+00
    0.14595E+07        -0.49792E+08         0.00000E+00
    0.00000E+00         0.00000E+00        -0.49121E+08
 
   -0.48916E+08         0.14861E+07         0.00000E+00
    0.14861E+07        -0.49782E+08         0.00000E+00
    0.00000E+00         0.00000E+00        -0.49125E+08
 
   -0.48943E+08         0.15122E+07         0.00000E+00
    0.15122E+07        -0.49771E+08         0.00000E+00
    0.00000E+00         0.00000E+00        -0.49128E+08
 
   -0.48970E+08         0.15378E+07         0.00000E+00
    0.15378E+07        -0.49760E+08         0.00000E+00
    0.00000E+00         0.00000E+00        -0.49131E+08
 
   -0.48998E+08         0.15629E+07         0.00000E+00
    0.15629E+07        -0.49749E+08         0.00000E+00
    0.00000E+00         0.00000E+00        -0.49134E+08
 
   -0.49025E+08         0.15876E+07         0.00000E+00
    0.15876E+07        -0.49738E+08         0.00000E+00
    0.00000E+00         0.00000E+00        -0.49138E+08
 
   -0.49053E+08         0.16117E+07         0.00000E+00
    0.16117E+07        -0.49726E+08         0.00000E+00
    0.00000E+00         0.00000E+00        -0.49141E+08
 
   -0.49081E+08         0.16353E+07         0.00000E+00
    0.16353E+07        -0.49714E+08         0.00000E+00
    0.00000E+00         0.00000E+00        -0.49144E+08
 
   -0.49109E+08         0.16584E+07         0.00000E+00
    0.16584E+07        -0.49702E+08         0.00000E+00
    0.00000E+00         0.00000E+00        -0.49147E+08
 
   -0.49138E+08         0.16810E+07         0.00000E+00
    0.16810E+07        -0.49689E+08         0.00000E+00
    0.00000E+00         0.00000E+00        -0.49150E+08
 
   -0.47761E+08         0.23408E+05         0.00000E+00
    0.23408E+05        -0.50000E+08         0.00000E+00
    0.00000E+00         0.00000E+00        -0.48851E+08
 
   -0.47781E+08         0.69207E+05         0.00000E+00
    0.69207E+05        -0.50000E+08         0.00000E+00
    0.00000E+00         0.00000E+00        -0.48855E+08
 
   -0.47802E+08         0.11457E+06         0.00000E+00
    0.11457E+06        -0.49999E+08         0.00000E+00
    0.00000E+00         0.00000E+00        -0.48859E+08
 
   -0.47823E+08         0.15950E+06         0.00000E+00
    0.15950E+06        -0.49998E+08         0.00000E+00
    0.00000E+00         0.00000E+00        -0.48863E+08
 
   -0.47844E+08         0.20400E+06         0.00000E+00
    0.20400E+06        -0.49997E+08         0.00000E+00
    0.00000E+00         0.00000E+00        -0.48867E+08
 
   -0.47866E+08         0.24806E+06         0.00000E+00
    0.24806E+06        -0.49996E+08         0.00000E+00
    0.00000E+00         0.00000E+00        -0.48871E+08
 
   -0.47887E+08         0.29169E+06         0.00000E+00
    0.29169E+06        -0.49994E+08         0.00000E+00
    0.00000E+00         0.00000E+00        -0.48875E+08
 
   -0.47909E+08         0.33488E+06         0.00000E+00
    0.33488E+06        -0.49992E+08         0.00000E+00
    0.00000E+00         0.00000E+00        -0.48879E+08
 
   -0.47931E+08         0.37764E+06         0.00000E+00
    0.37764E+06        -0.49990E+08         0.00000E+00
    0.00000E+00         0.00000E+00        -0.48883E+08
 
   -0.47954E+08         0.41996E+06         0.00000E+00
    0.41996E+06        -0.49987E+08         0.00000E+00
    0.00000E+00         0.00000E+00        -0.48887E+08
 
   -0.47976E+08         0.46184E+06         0.00000E+00
    0.46184E+06        -0.49984E+08         0.00000E+00
    0.00000E+00         0.00000E+00        -0.48891E+08
 
   -0.47999E+08         0.50329E+06         0.00000E+00
    0.50329E+06        -0.49981E+08         0.00000E+00
    0.00000E+00         0.00000E+00        -0.48895E+08
 
   -0.48022E+08         0.54431E+06         0.00000E+00
    0.54431E+06        -0.49978E+08         0.00000E+00
    0.00000E+00         0.00000E+00        -0.48899E+08
 
   -0.48045E+08         0.58488E+06         0.00000E+00
    0.58488E+06        -0.49974E+08         0.00000E+00
    0.00000E+00         0.00000E+00        -0.48903E+08
 
   -0.48069E+08         0.62503E+06         0.00000E+00
    0.62503E+06        -0.49971E+08         0.00000E+00
    0.00000E+00         0.00000E+00        -0.48907E+08
 
   -0.48093E+08         0.66473E+06         0.00000E+00
    0.66473E+06        -0.49966E+08         0.00000E+00
    0.00000E+00         0.00000E+00        -0.48911E+08
 
   -0.48116E+08         0.70400E+06         0.00000E+00
    0.70400E+06        -0.49962E+08         0.00000E+00
    0.00000E+00         0.00000E+00        -0.48915E+08
 
   -0.48141E+08         0.74283E+06         0.00000E+00
    0.74283E+06        -0.49957E+08         0.00000E+00
    0.00000E+00         0.00000E+00        -0.48919E+08
 
   -0.48165E+08         0.78122E+06         0.00000E+00
    0.78122E+06        -0.49952E+08         0.00000E+00
    0.00000E+00         0.00000E+00        -0.48922E+08
 
   -0.48189E+08         0.81917E+06         0.00000E+00
    0.81917E+06        -0.49947E+08         0.00000E+00
    0.00000E+00         0.00000E+00        -0.48926E+08
 
   -0.48214E+08         0.85668E+06         0.00000E+00
    0.85668E+06        -0.49942E+08         0.00000E+00
    0.00000E+00         0.00000E+00        -0.48930E+08
 
   -0.48239E+08         0.89376E+06         0.00000E+00
    0.89376E+06        -0.49936E+08         0.00000E+00
    0.00000E+00         0.00000E+00        -0.48934E+08
 
   -0.48264E+08         0.93039E+06         0.00000E+00
    0.93039E+06        -0.49930E+08         0.00000E+00
    0.00000E+00         0.00000E+00        -0.48938E+08
 
   -0.48289E+08         0.96658E+06         0.00000E+00
    0.96658E+06        -0.49924E+08         0.00000E+00
    0.00000E+00         0.00000E+00        -0.48942E+08
 
   -0.48315E+08         0.10023E+07         0.00000E+00
    0.10023E+07        -0.49917E+08         0.00000E+00
    0.00000E+00         0.00000E+00        -0.48945E+08
 
   -0.48341E+08         0.10376E+07         0.00000E+00
    0.10376E+07        -0.49911E+08         0.00000E+00
    0.00000E+00         0.00000E+00        -0.48949E+08
 
   -0.48367E+08         0.10725E+07         0.00000E+00
    0.10725E+07        -0.49904E+08         0.00000E+00
    0.00000E+00         0.00000E+00        -0.48953E+08
 
   -0.48393E+08         0.11069E+07         0.00000E+00
    0.11069E+07        -0.49896E+08         0.00000E+00
    0.00000E+00         0.00000E+00        -0.48957E+08
 
   -0.48419E+08         0.11409E+07         0.00000E+00
    0.11409E+07        -0.49889E+08         0.00000E+00
    0.00000E+00         0.00000E+00        -0.48961E+08
 
   -0.48446E+08         0.11744E+07         0.00000E+00
    0.11744E+07        -0.49881E+08         0.00000E+00
    0.00000E+00         0.00000E+00        -0.48964E+08
 
   -0.48472E+08         0.12074E+07         0.00000E+00
    0.12074E+07        -0.49873E+08         0.00000E+00
    0.00000E+00         0.00000E+00        -0.48968E+08
 
   -0.48499E+08         0.12400E+07         0.00000E+00
    0.12400E+07        -0.49864E+08         0.00000E+00
    0.00000E+00         0.00000E+00        -0.48972E+08
 
   -0.48527E+08         0.12722E+07         0.00000E+00
    0.12722E+07        -0.49855E+08         0.00000E+00
    0.00000E+00         0.00000E+00        -0.48975E+08
 
   -0.48554E+08         0.13039E+07         0.00000E+00
    0.13039E+07        -0.49847E+08         0.00000E+00
    0.00000E+00         0.00000E+00        -0.48979E+08
 
   -0.48582E+08         0.13351E+07         0.00000E+00
    0.13351E+07        -0.49837E+08         0.00000E+00
    0.00000E+00         0.00000E+00        -0.48983E+08
 
   -0.48609E+08         0.13659E+07         0.00000E+00
    0.13659E+07        -0.49828E+08         0.00000E+00
    0.00000E+00         0.00000E+00        -0.48986E+08
 
   -0.48637E+08         0.13962E+07         0.00000E+00
    0.13962E+07        -0.49818E+08         0.00000E+00
    0.00000E+00         0.00000E+00        -0.48990E+08
 
   -0.48666E+08         0.14261E+07         0.00000E+00
    0.14261E+07        -0.49808E+08         0.00000E+00
    0.00000E+00         0.00000E+00        -0.48994E+08
 
   -0.48694E+08         0.14555E+07         0.00000E+00
    0.14555E+07        -0.49797E+08         0.00000E+00
    0.00000E+00         0.00000E+00        -0.48997E+08
 
   -0.48723E+08         0.14844E+07         0.00000E+00
    0.14844E+07        -0.49787E+08         0.00000E+00
    0.00000E+00         0.00000E+00        -0.49001E+08
 
   -0.48752E+08         0.15128E+07         0.00000E+00
    0.15128E+07        -0.49776E+08         0.00000E+00
    0.00000E+00         0.00000E+00        -0.49005E+08
 
   -0.48781E+08         0.15408E+07         0.00000E+00
    0.15408E+07        -0.49765E+08         0.00000E+00
    0.00000E+00         0.00000E+00        -0.49008E+08
 
   -0.48810E+08         0.15683E+07         0.00000E+00
    0.15683E+07        -0.49753E+08         0.00000E+00
    0.00000E+00         0.00000E+00        -0.49012E+08
 
   -0.48840E+08         0.15953E+07         0.00000E+00
    0.15953E+07        -0.49741E+08         0.00000E+00
    0.00000E+00         0.00000E+00        -0.49015E+08
 
   -0.48870E+08         0.16218E+07         0.00000E+00
    0.16218E+07        -0.49729E+08         0.00000E+00
    0.00000E+00         0.00000E+00        -0.49019E+08
 
   -0.48900E+08         0.16478E+07         0.00000E+00
    0.16478E+07        -0.49717E+08         0.00000E+00
    0.00000E+00         0.00000E+00        -0.49022E+08
 
   -0.48930E+08         0.16733E+07         0.00000E+00
    0.16733E+07        -0.49704E+08         0.00000E+00
    0.00000E+00         0.00000E+00        -0.49026E+08
 
   -0.48961E+08         0.16984E+07         0.00000E+00
    0.16984E+07        -0.49691E+08         0.00000E+00
    0.00000E+00         0.00000E+00        -0.49029E+08
 
   -0.48991E+08         0.17229E+07         0.00000E+00
    0.17229E+07        -0.49678E+08         0.00000E+00
    0.00000E+00         0.00000E+00        -0.49033E+08
 
   -0.49023E+08         0.17469E+07         0.00000E+00
    0.17469E+07        -0.49664E+08         0.00000E+00
    0.00000E+00         0.00000E+00        -0.49036E+08
 
   -0.47527E+08         0.24162E+05         0.00000E+00
    0.24162E+05        -0.50000E+08         0.00000E+00
    0.00000E+00         0.00000E+00        -0.48712E+08
 
   -0.47550E+08         0.71438E+05         0.00000E+00
    0.71438E+05        -0.50000E+08         0.00000E+00
    0.00000E+00         0.00000E+00        -0.48717E+08
 
   -0.47573E+08         0.11827E+06         0.00000E+00
    0.11827E+06        -0.49999E+08         0.00000E+00
    0.00000E+00         0.00000E+00        -0.48721E+08
 
   -0.47596E+08         0.16465E+06         0.00000E+00
    0.16465E+06        -0.49998E+08         0.00000E+00
    0.00000E+00         0.00000E+00        -0.48725E+08
 
   -0.47619E+08         0.21059E+06         0.00000E+00
    0.21059E+06        -0.49997E+08         0.00000E+00
    0.00000E+00         0.00000E+00        -0.48730E+08
 
   -0.47643E+08         0.25608E+06         0.00000E+00
    0.25608E+06        -0.49995E+08         0.00000E+00
    0.00000E+00         0.00000E+00        -0.48734E+08
 
   -0.47667E+08         0.30113E+06         0.00000E+00
    0.30113E+06        -0.49994E+08         0.00000E+00
    0.00000E+00         0.00000E+00        -0.48739E+08
 
   -0.47691E+08         0.34574E+06         0.00000E+00
    0.34574E+06        -0.49991E+08         0.00000E+00
    0.00000E+00         0.00000E+00        -0.48743E+08
 
   -0.47715E+08         0.38990E+06         0.00000E+00
    0.38990E+06        -0.49989E+08         0.00000E+00
    0.00000E+00         0.00000E+00        -0.48748E+08
 
   -0.47740E+08         0.43362E+06         0.00000E+00
    0.43362E+06        -0.49986E+08         0.00000E+00
    0.00000E+00         0.00000E+00        -0.48752E+08
 
   -0.47765E+08         0.47690E+06         0.00000E+00
    0.47690E+06        -0.49983E+08         0.00000E+00
    0.00000E+00         0.00000E+00        -0.48756E+08
 
   -0.47790E+08         0.51974E+06         0.00000E+00
    0.51974E+06        -0.49980E+08         0.00000E+00
    0.00000E+00         0.00000E+00        -0.48761E+08
 
   -0.47815E+08         0.56214E+06         0.00000E+00
    0.56214E+06        -0.49977E+08         0.00000E+00
    0.00000E+00         0.00000E+00        -0.48765E+08
 
   -0.47840E+08         0.60410E+06         0.00000E+00
    0.60410E+06        -0.49973E+08         0.00000E+00
    0.00000E+00         0.00000E+00        -0.48769E+08
 
   -0.47866E+08         0.64563E+06         0.00000E+00
    0.64563E+06        -0.49969E+08         0.00000E+00
    0.00000E+00         0.00000E+00        -0.48774E+08
 
   -0.47892E+08         0.68671E+06         0.00000E+00
    0.68671E+06        -0.49964E+08         0.00000E+00
    0.00000E+00         0.00000E+00        -0.48778E+08
 
   -0.47918E+08         0.72735E+06         0.00000E+00
    0.72735E+06        -0.49960E+08         0.00000E+00
    0.00000E+00         0.00000E+00        -0.48782E+08
 
   -0.47944E+08         0.76756E+06         0.00000E+00
    0.76756E+06        -0.49955E+08         0.00000E+00
    0.00000E+00         0.00000E+00        -0.48786E+08
 
   -0.47971E+08         0.80733E+06         0.00000E+00
    0.80733E+06        -0.49950E+08         0.00000E+00
    0.00000E+00         0.00000E+00        -0.48791E+08
 
   -0.47997E+08         0.84666E+06         0.00000E+00
    0.84666E+06        -0.49944E+08         0.00000E+00
    0.00000E+00         0.00000E+00        -0.48795E+08
 
   -0.48024E+08         0.88555E+06         0.00000E+00
    0.88555E+06        -0.49938E+08         0.00000E+00
    0.00000E+00         0.00000E+00        -0.48799E+08
 
   -0.48051E+08         0.92400E+06         0.00000E+00
    0.92400E+06        -0.49932E+08         0.00000E+00
    0.00000E+00         0.00000E+00        -0.48803E+08
 
   -0.48079E+08         0.96202E+06         0.00000E+00
    0.96202E+06        -0.49926E+08         0.00000E+00
    0.00000E+00         0.00000E+00        -0.48808E+08
 
   -0.48106E+08         0.99959E+06         0.00000E+00
    0.99959E+06        -0.49919E+08         0.00000E+00
    0.00000E+00         0.00000E+00        -0.48812E+08
 
   -0.48134E+08         0.10367E+07         0.00000E+00
    0.10367E+07        -0.49912E+08         0.00000E+00
    0.00000E+00         0.00000E+00        -0.48816E+08
 
   -0.48162E+08         0.10734E+07         0.00000E+00
    0.10734E+07        -0.49905E+08         0.00000E+00
    0.00000E+00         0.00000E+00        -0.48820E+08
 
   -0.48190E+08         0.11097E+07         0.00000E+00
    0.11097E+07        -0.49897E+08         0.00000E+00
    0.00000E+00         0.00000E+00        -0.48824E+08
 
   -0.48218E+08         0.11455E+07         0.00000E+00
    0.11455E+07        -0.49889E+08         0.00000E+00
    0.00000E+00         0.00000E+00        -0.48828E+08
 
   -0.48247E+08         0.11809E+07         0.00000E+00
    0.11809E+07        -0.49881E+08         0.00000E+00
    0.00000E+00         0.00000E+00        -0.48832E+08
 
   -0.48276E+08         0.12158E+07         0.00000E+00
    0.12158E+07        -0.49873E+08         0.00000E+00
    0.00000E+00         0.00000E+00        -0.48836E+08
 
   -0.48305E+08         0.12503E+07         0.00000E+00
    0.12503E+07        -0.49864E+08         0.00000E+00
    0.00000E+00         0.00000E+00        -0.48840E+08
 
   -0.48334E+08         0.12843E+07         0.00000E+00
    0.12843E+07        -0.49855E+08         0.00000E+00
    0.00000E+00         0.00000E+00        -0.48845E+08
 
   -0.48363E+08         0.13179E+07         0.00000E+00
    0.13179E+07        -0.49846E+08         0.00000E+00
    0.00000E+00         0.00000E+00        -0.48849E+08
 
   -0.48393E+08         0.13511E+07         0.00000E+00
    0.13511E+07        -0.49836E+08         0.00000E+00
    0.00000E+00         0.00000E+00        -0.48853E+08
 
   -0.48423E+08         0.13838E+07         0.00000E+00
    0.13838E+07        -0.49826E+08         0.00000E+00
    0.00000E+00         0.00000E+00        -0.48857E+08
 
   -0.48453E+08         0.14160E+07         0.00000E+00
    0.14160E+07        -0.49816E+08         0.00000E+00
    0.00000E+00         0.00000E+00        -0.48861E+08
 
   -0.48483E+08         0.14478E+07         0.00000E+00
    0.14478E+07        -0.49806E+08         0.00000E+00
    0.00000E+00         0.00000E+00        -0.48864E+08
 
   -0.48514E+08         0.14791E+07         0.00000E+00
    0.14791E+07        -0.49795E+08         0.00000E+00
    0.00000E+00         0.00000E+00        -0.48868E+08
 
   -0.48545E+08         0.15100E+07         0.00000E+00
    0.15100E+07        -0.49784E+08         0.00000E+00
    0.00000E+00         0.00000E+00        -0.48872E+08
 
   -0.48576E+08         0.15404E+07         0.00000E+00
    0.15404E+07        -0.49772E+08         0.00000E+00
    0.00000E+00         0.00000E+00        -0.48876E+08
 
   -0.48607E+08         0.15703E+07         0.00000E+00
    0.15703E+07        -0.49761E+08         0.00000E+00
    0.00000E+00         0.00000E+00        -0.48880E+08
 
   -0.48639E+08         0.15998E+07         0.00000E+00
    0.15998E+07        -0.49748E+08         0.00000E+00
    0.00000E+00         0.00000E+00        -0.48884E+08
 
   -0.48670E+08         0.16288E+07         0.00000E+00
    0.16288E+07        -0.49736E+08         0.00000E+00
    0.00000E+00         0.00000E+00        -0.48888E+08
 
   -0.48702E+08         0.16574E+07         0.00000E+00
    0.16574E+07        -0.49723E+08         0.00000E+00
    0.00000E+00         0.00000E+00        -0.48892E+08
 
   -0.48735E+08         0.16854E+07         0.00000E+00
    0.16854E+07        -0.49710E+08         0.00000E+00
    0.00000E+00         0.00000E+00        -0.48896E+08
 
   -0.48767E+08         0.17130E+07         0.00000E+00
    0.17130E+07        -0.49697E+08         0.00000E+00
    0.00000E+00         0.00000E+00        -0.48899E+08
 
   -0.48800E+08         0.17401E+07         0.00000E+00
    0.17401E+07        -0.49683E+08         0.00000E+00
    0.00000E+00         0.00000E+00        -0.48903E+08
 
   -0.48833E+08         0.17667E+07         0.00000E+00
    0.17667E+07        -0.49669E+08         0.00000E+00
    0.00000E+00         0.00000E+00        -0.48907E+08
 
   -0.48866E+08         0.17928E+07         0.00000E+00
    0.17928E+07        -0.49655E+08         0.00000E+00
    0.00000E+00         0.00000E+00        -0.48911E+08
 
   -0.48900E+08         0.18185E+07         0.00000E+00
    0.18185E+07        -0.49640E+08         0.00000E+00
    0.00000E+00         0.00000E+00        -0.48915E+08
 
   -0.47286E+08         0.24957E+05         0.00000E+00
    0.24957E+05        -0.50000E+08         0.00000E+00
    0.00000E+00         0.00000E+00        -0.48564E+08
 
   -0.47310E+08         0.73789E+05         0.00000E+00
    0.73789E+05        -0.50000E+08         0.00000E+00
    0.00000E+00         0.00000E+00        -0.48569E+08
 
   -0.47336E+08         0.12216E+06         0.00000E+00
    0.12216E+06        -0.49999E+08         0.00000E+00
    0.00000E+00         0.00000E+00        -0.48574E+08
 
   -0.47361E+08         0.17008E+06         0.00000E+00
    0.17008E+06        -0.49998E+08         0.00000E+00
    0.00000E+00         0.00000E+00        -0.48579E+08
 
   -0.47387E+08         0.21754E+06         0.00000E+00
    0.21754E+06        -0.49997E+08         0.00000E+00
    0.00000E+00         0.00000E+00        -0.48584E+08
 
   -0.47413E+08         0.26454E+06         0.00000E+00
    0.26454E+06        -0.49995E+08         0.00000E+00
    0.00000E+00         0.00000E+00        -0.48589E+08
 
   -0.47439E+08         0.31110E+06         0.00000E+00
    0.31110E+06        -0.49993E+08         0.00000E+00
    0.00000E+00         0.00000E+00        -0.48594E+08
 
   -0.47465E+08         0.35720E+06         0.00000E+00
    0.35720E+06        -0.49991E+08         0.00000E+00
    0.00000E+00         0.00000E+00        -0.48599E+08
 
   -0.47492E+08         0.40285E+06         0.00000E+00
    0.40285E+06        -0.49989E+08         0.00000E+00
    0.00000E+00         0.00000E+00        -0.48603E+08
 
   -0.47519E+08         0.44806E+06         0.00000E+00
    0.44806E+06        -0.49986E+08         0.00000E+00
    0.00000E+00         0.00000E+00        -0.48608E+08
 
   -0.47546E+08         0.49282E+06         0.00000E+00
    0.49282E+06        -0.49983E+08         0.00000E+00
    0.00000E+00         0.00000E+00        -0.48613E+08
 
   -0.47573E+08         0.53713E+06         0.00000E+00
    0.53713E+06        -0.49979E+08         0.00000E+00
    0.00000E+00         0.00000E+00        -0.48618E+08
 
   -0.47600E+08         0.58100E+06         0.00000E+00
    0.58100E+06        -0.49975E+08         0.00000E+00
    0.00000E+00         0.00000E+00        -0.48622E+08
 
   -0.47628E+08         0.62443E+06         0.00000E+00
    0.62443E+06        -0.49971E+08         0.00000E+00
    0.00000E+00         0.00000E+00        -0.48627E+08
 
   -0.47656E+08         0.66742E+06         0.00000E+00
    0.66742E+06        -0.49967E+08         0.00000E+00
    0.00000E+00         0.00000E+00        -0.48632E+08
 
   -0.47684E+08         0.70997E+06         0.00000E+00
    0.70997E+06        -0.49963E+08         0.00000E+00
    0.00000E+00         0.00000E+00        -0.48637E+08
 
   -0.47712E+08         0.75208E+06         0.00000E+00
    0.75208E+06        -0.49958E+08         0.00000E+00
    0.00000E+00         0.00000E+00        -0.48641E+08
 
   -0.47741E+08         0.79376E+06         0.00000E+00
    0.79376E+06        -0.49952E+08         0.00000E+00
    0.00000E+00         0.00000E+00        -0.48646E+08
 
   -0.47769E+08         0.83500E+06         0.00000E+00
    0.83500E+06        -0.49947E+08         0.00000E+00
    0.00000E+00         0.00000E+00        -0.48651E+08
 
   -0.47798E+08         0.87580E+06         0.00000E+00
    0.87580E+06        -0.49941E+08         0.00000E+00
    0.00000E+00         0.00000E+00        -0.48655E+08
 
   -0.47827E+08         0.91616E+06         0.00000E+00
    0.91616E+06        -0.49935E+08         0.00000E+00
    0.00000E+00         0.00000E+00        -0.48660E+08
 
   -0.47856E+08         0.95610E+06         0.00000E+00
    0.95610E+06        -0.49928E+08         0.00000E+00
    0.00000E+00         0.00000E+00        -0.48664E+08
 
   -0.47886E+08         0.99559E+06         0.00000E+00
    0.99559E+06        -0.49922E+08         0.00000E+00
    0.00000E+00         0.00000E+00        -0.48669E+08
 
   -0.47916E+08         0.10347E+07         0.00000E+00
    0.10347E+07        -0.49915E+08         0.00000E+00
    0.00000E+00         0.00000E+00        -0.48673E+08
 
   -0.47946E+08         0.10733E+07         0.00000E+00
    0.10733E+07        -0.49907E+08         0.00000E+00
    0.00000E+00         0.00000E+00        -0.48678E+08
 
   -0.47976E+08         0.11115E+07         0.00000E+00
    0.11115E+07        -0.49900E+08         0.00000E+00
    0.00000E+00         0.00000E+00        -0.48682E+08
 
   -0.48006E+08         0.11492E+07         0.00000E+00
    0.11492E+07        -0.49892E+08         0.00000E+00
    0.00000E+00         0.00000E+00        -0.48687E+08
 
   -0.48037E+08         0.11866E+07         0.00000E+00
    0.11866E+07        -0.49883E+08         0.00000E+00
    0.00000E+00         0.00000E+00        -0.48691E+08
 
   -0.48067E+08         0.12235E+07         0.00000E+00
    0.12235E+07        -0.49875E+08         0.00000E+00
    0.00000E+00         0.00000E+00        -0.48696E+08
 
   -0.48098E+08         0.12599E+07         0.00000E+00
    0.12599E+07        -0.49866E+08         0.00000E+00
    0.00000E+00         0.00000E+00        -0.48700E+08
 
   -0.48130E+08         0.12960E+07         0.00000E+00
    0.12960E+07        -0.49857E+08         0.00000E+00
    0.00000E+00         0.00000E+00        -0.48705E+08
 
   -0.48161E+08         0.13315E+07         0.00000E+00
    0.13315E+07        -0.49847E+08         0.00000E+00
    0.00000E+00         0.00000E+00        -0.48709E+08
 
   -0.48193E+08         0.13667E+07         0.00000E+00
    0.13667E+07        -0.49837E+08         0.00000E+00
    0.00000E+00         0.00000E+00        -0.48713E+08
 
   -0.48225E+08         0.14014E+07         0.00000E+00
    0.14014E+07        -0.49827E+08         0.00000E+00
    0.00000E+00         0.00000E+00        -0.48718E+08
 
   -0.48257E+08         0.14357E+07         0.00000E+00
    0.14357E+07        -0.49816E+08         0.00000E+00
    0.00000E+00         0.00000E+00        -0.48722E+08
 
   -0.48289E+08         0.14695E+07         0.00000E+00
    0.14695E+07        -0.49806E+08         0.00000E+00
    0.00000E+00         0.00000E+00        -0.48726E+08
 
   -0.48322E+08         0.15029E+07         0.00000E+00
    0.15029E+07        -0.49794E+08         0.00000E+00
    0.00000E+00         0.00000E+00        -0.48730E+08
 
   -0.48354E+08         0.15358E+07         0.00000E+00
    0.15358E+07        -0.49783E+08         0.00000E+00
    0.00000E+00         0.00000E+00        -0.48735E+08
 
   -0.48387E+08         0.15683E+07         0.00000E+00
    0.15683E+07        -0.49771E+08         0.00000E+00
    0.00000E+00         0.00000E+00        -0.48739E+08
 
   -0.48421E+08         0.16004E+07         0.00000E+00
    0.16004E+07        -0.49759E+08         0.00000E+00
    0.00000E+00         0.00000E+00        -0.48743E+08
 
   -0.48454E+08         0.16320E+07         0.00000E+00
    0.16320E+07        -0.49746E+08         0.00000E+00
    0.00000E+00         0.00000E+00        -0.48747E+08
 
   -0.48488E+08         0.16631E+07         0.00000E+00
    0.16631E+07        -0.49733E+08         0.00000E+00
    0.00000E+00         0.00000E+00        -0.48752E+08
 
   -0.48522E+08         0.16938E+07         0.00000E+00
    0.16938E+07        -0.49720E+08         0.00000E+00
    0.00000E+00         0.00000E+00        -0.48756E+08
 
   -0.48557E+08         0.17240E+07         0.00000E+00
    0.17240E+07        -0.49706E+08         0.00000E+00
    0.00000E+00         0.00000E+00        -0.48760E+08
 
   -0.48591E+08         0.17538E+07         0.00000E+00
    0.17538E+07        -0.49692E+08         0.00000E+00
    0.00000E+00         0.00000E+00        -0.48764E+08
 
   -0.48626E+08         0.17831E+07         0.00000E+00
    0.17831E+07        -0.49678E+08         0.00000E+00
    0.00000E+00         0.00000E+00        -0.48768E+08
 
   -0.48661E+08         0.18119E+07         0.00000E+00
    0.18119E+07        -0.49664E+08         0.00000E+00
    0.00000E+00         0.00000E+00        -0.48772E+08
 
   -0.48697E+08         0.18402E+07         0.00000E+00
    0.18402E+07        -0.49649E+08         0.00000E+00
    0.00000E+00         0.00000E+00        -0.48776E+08
 
   -0.48732E+08         0.18681E+07         0.00000E+00
    0.18681E+07        -0.49633E+08         0.00000E+00
    0.00000E+00         0.00000E+00        -0.48780E+08
 
   -0.48768E+08         0.18955E+07         0.00000E+00
    0.18955E+07        -0.49617E+08         0.00000E+00
    0.00000E+00         0.00000E+00        -0.48784E+08
 
   -0.47036E+08         0.25787E+05         0.00000E+00
    0.25787E+05        -0.50000E+08         0.00000E+00
    0.00000E+00         0.00000E+00        -0.48407E+08
 
   -0.47063E+08         0.76246E+05         0.00000E+00
    0.76246E+05        -0.50000E+08         0.00000E+00
    0.00000E+00         0.00000E+00        -0.48413E+08
 
   -0.47091E+08         0.12623E+06         0.00000E+00
    0.12623E+06        -0.49999E+08         0.00000E+00
    0.00000E+00         0.00000E+00        -0.48418E+08
 
   -0.47119E+08         0.17575E+06         0.00000E+00
    0.17575E+06        -0.49998E+08         0.00000E+00
    0.00000E+00         0.00000E+00        -0.48423E+08
 
   -0.47147E+08         0.22480E+06         0.00000E+00
    0.22480E+06        -0.49997E+08         0.00000E+00
    0.00000E+00         0.00000E+00        -0.48429E+08
 
   -0.47175E+08         0.27339E+06         0.00000E+00
    0.27339E+06        -0.49995E+08         0.00000E+00
    0.00000E+00         0.00000E+00        -0.48434E+08
 
   -0.47203E+08         0.32152E+06         0.00000E+00
    0.32152E+06        -0.49993E+08         0.00000E+00
    0.00000E+00         0.00000E+00        -0.48439E+08
 
   -0.47232E+08         0.36919E+06         0.00000E+00
    0.36919E+06        -0.49991E+08         0.00000E+00
    0.00000E+00         0.00000E+00        -0.48445E+08
 
   -0.47261E+08         0.41641E+06         0.00000E+00
    0.41641E+06        -0.49988E+08         0.00000E+00
    0.00000E+00         0.00000E+00        -0.48450E+08
 
   -0.47290E+08         0.46318E+06         0.00000E+00
    0.46318E+06        -0.49985E+08         0.00000E+00
    0.00000E+00         0.00000E+00        -0.48455E+08
 
   -0.47319E+08         0.50949E+06         0.00000E+00
    0.50949E+06        -0.49982E+08         0.00000E+00
    0.00000E+00         0.00000E+00        -0.48460E+08
 
   -0.47348E+08         0.55536E+06         0.00000E+00
    0.55536E+06        -0.49978E+08         0.00000E+00
    0.00000E+00         0.00000E+00        -0.48465E+08
 
   -0.47378E+08         0.60078E+06         0.00000E+00
    0.60078E+06        -0.49974E+08         0.00000E+00
    0.00000E+00         0.00000E+00        -0.48471E+08
 
   -0.47408E+08         0.64576E+06         0.00000E+00
    0.64576E+06        -0.49970E+08         0.00000E+00
    0.00000E+00         0.00000E+00        -0.48476E+08
 
   -0.47438E+08         0.69030E+06         0.00000E+00
    0.69030E+06        -0.49966E+08         0.00000E+00
    0.00000E+00         0.00000E+00        -0.48481E+08
 
   -0.47468E+08         0.73439E+06         0.00000E+00
    0.73439E+06        -0.49961E+08         0.00000E+00
    0.00000E+00         0.00000E+00        -0.48486E+08
 
   -0.47499E+08         0.77806E+06         0.00000E+00
    0.77806E+06        -0.49956E+08         0.00000E+00
    0.00000E+00         0.00000E+00        -0.48491E+08
 
   -0.47529E+08         0.82129E+06         0.00000E+00
    0.82129E+06        -0.49950E+08         0.00000E+00
    0.00000E+00         0.00000E+00        -0.48496E+08
 
   -0.47560E+08         0.86408E+06         0.00000E+00
    0.86408E+06        -0.49944E+08         0.00000E+00
    0.00000E+00         0.00000E+00        -0.48501E+08
 
   -0.47591E+08         0.90644E+06         0.00000E+00
    0.90644E+06        -0.49938E+08         0.00000E+00
    0.00000E+00         0.00000E+00        -0.48506E+08
 
   -0.47622E+08         0.94838E+06         0.00000E+00
    0.94838E+06        -0.49932E+08         0.00000E+00
    0.00000E+00         0.00000E+00        -0.48511E+08
 
   -0.47654E+08         0.98988E+06         0.00000E+00
    0.98988E+06        -0.49925E+08         0.00000E+00
    0.00000E+00         0.00000E+00        -0.48516E+08
 
   -0.47686E+08         0.10310E+07         0.00000E+00
    0.10310E+07        -0.49918E+08         0.00000E+00
    0.00000E+00         0.00000E+00        -0.48521E+08
 
   -0.47717E+08         0.10716E+07         0.00000E+00
    0.10716E+07        -0.49911E+08         0.00000E+00
    0.00000E+00         0.00000E+00        -0.48526E+08
 
   -0.47750E+08         0.11118E+07         0.00000E+00
    0.11118E+07        -0.49903E+08         0.00000E+00
    0.00000E+00         0.00000E+00        -0.48531E+08
 
   -0.47782E+08         0.11516E+07         0.00000E+00
    0.11516E+07        -0.49895E+08         0.00000E+00
    0.00000E+00         0.00000E+00        -0.48536E+08
 
   -0.47814E+08         0.11910E+07         0.00000E+00
    0.11910E+07        -0.49887E+08         0.00000E+00
    0.00000E+00         0.00000E+00        -0.48540E+08
 
   -0.47847E+08         0.12299E+07         0.00000E+00
    0.12299E+07        -0.49878E+08         0.00000E+00
    0.00000E+00         0.00000E+00        -0.48545E+08
 
   -0.47880E+08         0.12685E+07         0.00000E+00
    0.12685E+07        -0.49869E+08         0.00000E+00
    0.00000E+00         0.00000E+00        -0.48550E+08
 
   -0.47913E+08         0.13066E+07         0.00000E+00
    0.13066E+07        -0.49859E+08         0.00000E+00
    0.00000E+00         0.00000E+00        -0.48555E+08
 
   -0.47946E+08         0.13442E+07         0.00000E+00
    0.13442E+07        -0.49850E+08         0.00000E+00
    0.00000E+00         0.00000E+00        -0.48559E+08
 
   -0.47980E+08         0.13815E+07         0.00000E+00
    0.13815E+07        -0.49840E+08         0.00000E+00
    0.00000E+00         0.00000E+00        -0.48564E+08
 
   -0.48014E+08         0.14183E+07         0.00000E+00
    0.14183E+07        -0.49829E+08         0.00000E+00
    0.00000E+00         0.00000E+00        -0.48569E+08
 
   -0.48048E+08         0.14547E+07         0.00000E+00
    0.14547E+07        -0.49818E+08         0.00000E+00
    0.00000E+00         0.00000E+00        -0.48573E+08
 
   -0.48082E+08         0.14907E+07         0.00000E+00
    0.14907E+07        -0.49807E+08         0.00000E+00
    0.00000E+00         0.00000E+00        -0.48578E+08
 
   -0.48117E+08         0.15262E+07         0.00000E+00
    0.15262E+07        -0.49796E+08         0.00000E+00
    0.00000E+00         0.00000E+00        -0.48583E+08
 
   -0.48151E+08         0.15614E+07         0.00000E+00
    0.15614E+07        -0.49784E+08         0.00000E+00
    0.00000E+00         0.00000E+00        -0.48587E+08
 
   -0.48186E+08         0.15960E+07         0.00000E+00
    0.15960E+07        -0.49772E+08         0.00000E+00
    0.00000E+00         0.00000E+00        -0.48592E+08
 
   -0.48222E+08         0.16303E+07         0.00000E+00
    0.16303E+07        -0.49759E+08         0.00000E+00
    0.00000E+00         0.00000E+00        -0.48596E+08
 
   -0.48257E+08         0.16641E+07         0.00000E+00
    0.16641E+07        -0.49746E+08         0.00000E+00
    0.00000E+00         0.00000E+00        -0.48601E+08
 
   -0.48293E+08         0.16975E+07         0.00000E+00
    0.16975E+07        -0.49733E+08         0.00000E+00
    0.00000E+00         0.00000E+00        -0.48605E+08
 
   -0.48329E+08         0.17304E+07         0.00000E+00
    0.17304E+07        -0.49719E+08         0.00000E+00
    0.00000E+00         0.00000E+00        -0.48610E+08
 
   -0.48365E+08         0.17629E+07         0.00000E+00
    0.17629E+07        -0.49705E+08         0.00000E+00
    0.00000E+00         0.00000E+00        -0.48614E+08
 
   -0.48402E+08         0.17950E+07         0.00000E+00
    0.17950E+07        -0.49691E+08         0.00000E+00
    0.00000E+00         0.00000E+00        -0.48619E+08
 
   -0.48439E+08         0.18266E+07         0.00000E+00
    0.18266E+07        -0.49676E+08         0.00000E+00
    0.00000E+00         0.00000E+00        -0.48623E+08
 
   -0.48476E+08         0.18578E+07         0.00000E+00
    0.18578E+07        -0.49661E+08         0.00000E+00
    0.00000E+00         0.00000E+00        -0.48628E+08
 
   -0.48514E+08         0.18885E+07         0.00000E+00
    0.18885E+07        -0.49645E+08         0.00000E+00
    0.00000E+00         0.00000E+00        -0.48632E+08
 
   -0.48551E+08         0.19187E+07         0.00000E+00
    0.19187E+07        -0.49629E+08         0.00000E+00
    0.00000E+00         0.00000E+00        -0.48636E+08
 
   -0.48589E+08         0.19485E+07         0.00000E+00
    0.19485E+07        -0.49613E+08         0.00000E+00
    0.00000E+00         0.00000E+00        -0.48641E+08
 
   -0.48628E+08         0.19779E+07         0.00000E+00
    0.19779E+07        -0.49596E+08         0.00000E+00
    0.00000E+00         0.00000E+00        -0.48645E+08
 
   -0.46778E+08         0.26646E+05         0.00000E+00
    0.26646E+05        -0.50000E+08         0.00000E+00
    0.00000E+00         0.00000E+00        -0.48240E+08
 
   -0.46808E+08         0.78791E+05         0.00000E+00
    0.78791E+05        -0.50000E+08         0.00000E+00
    0.00000E+00         0.00000E+00        -0.48246E+08
 
   -0.46838E+08         0.13045E+06         0.00000E+00
    0.13045E+06        -0.49999E+08         0.00000E+00
    0.00000E+00         0.00000E+00        -0.48252E+08
 
   -0.46868E+08         0.18163E+06         0.00000E+00
    0.18163E+06        -0.49998E+08         0.00000E+00
    0.00000E+00         0.00000E+00        -0.48258E+08
 
   -0.46898E+08         0.23234E+06         0.00000E+00
    0.23234E+06        -0.49996E+08         0.00000E+00
    0.00000E+00         0.00000E+00        -0.48263E+08
 
   -0.46929E+08         0.28258E+06         0.00000E+00
    0.28258E+06        -0.49995E+08         0.00000E+00
    0.00000E+00         0.00000E+00        -0.48269E+08
 
   -0.46960E+08         0.33234E+06         0.00000E+00
    0.33234E+06        -0.49993E+08         0.00000E+00
    0.00000E+00         0.00000E+00        -0.48275E+08
 
   -0.46991E+08         0.38165E+06         0.00000E+00
    0.38165E+06        -0.49990E+08         0.00000E+00
    0.00000E+00         0.00000E+00        -0.48281E+08
 
   -0.47022E+08         0.43049E+06         0.00000E+00
    0.43049E+06        -0.49988E+08         0.00000E+00
    0.00000E+00         0.00000E+00        -0.48286E+08
 
   -0.47053E+08         0.47888E+06         0.00000E+00
    0.47888E+06        -0.49985E+08         0.00000E+00
    0.00000E+00         0.00000E+00        -0.48292E+08
 
   -0.47084E+08         0.52681E+06         0.00000E+00
    0.52681E+06        -0.49981E+08         0.00000E+00
    0.00000E+00         0.00000E+00        -0.48298E+08
 
   -0.47116E+08         0.57430E+06         0.00000E+00
    0.57430E+06        -0.49978E+08         0.00000E+00
    0.00000E+00         0.00000E+00        -0.48303E+08
 
   -0.47148E+08         0.62134E+06         0.00000E+00
    0.62134E+06        -0.49974E+08         0.00000E+00
    0.00000E+00         0.00000E+00        -0.48309E+08
 
   -0.47180E+08         0.66794E+06         0.00000E+00
    0.66794E+06        -0.49969E+08         0.00000E+00
    0.00000E+00         0.00000E+00        -0.48314E+08
 
   -0.47212E+08         0.71410E+06         0.00000E+00
    0.71410E+06        -0.49965E+08         0.00000E+00
    0.00000E+00         0.00000E+00        -0.48320E+08
 
   -0.47245E+08         0.75983E+06         0.00000E+00
    0.75983E+06        -0.49960E+08         0.00000E+00
    0.00000E+00         0.00000E+00        -0.48325E+08
 
   -0.47277E+08         0.80512E+06         0.00000E+00
    0.80512E+06        -0.49954E+08         0.00000E+00
    0.00000E+00         0.00000E+00        -0.48331E+08
 
   -0.47310E+08         0.84998E+06         0.00000E+00
    0.84998E+06        -0.49949E+08         0.00000E+00
    0.00000E+00         0.00000E+00        -0.48336E+08
 
   -0.47343E+08         0.89441E+06         0.00000E+00
    0.89441E+06        -0.49942E+08         0.00000E+00
    0.00000E+00         0.00000E+00        -0.48342E+08
 
   -0.47376E+08         0.93842E+06         0.00000E+00
    0.93842E+06        -0.49936E+08         0.00000E+00
    0.00000E+00         0.00000E+00        -0.48347E+08
 
   -0.47410E+08         0.98200E+06         0.00000E+00
    0.98200E+06        -0.49929E+08         0.00000E+00
    0.00000E+00         0.00000E+00        -0.48352E+08
 
   -0.47443E+08         0.10252E+07         0.00000E+00
    0.10252E+07        -0.49922E+08         0.00000E+00
    0.00000E+00         0.00000E+00        -0.48358E+08
 
   -0.47477E+08         0.10679E+07         0.00000E+00
    0.10679E+07        -0.49915E+08         0.00000E+00
    0.00000E+00         0.00000E+00        -0.48363E+08
 
   -0.47511E+08         0.11102E+07         0.00000E+00
    0.11102E+07        -0.49907E+08         0.00000E+00
    0.00000E+00         0.00000E+00        -0.48368E+08
 
   -0.47545E+08         0.11521E+07         0.00000E+00
    0.11521E+07        -0.49899E+08         0.00000E+00
    0.00000E+00         0.00000E+00        -0.48373E+08
 
   -0.47580E+08         0.11936E+07         0.00000E+00
    0.11936E+07        -0.49891E+08         0.00000E+00
    0.00000E+00         0.00000E+00        -0.48379E+08
 
   -0.47614E+08         0.12347E+07         0.00000E+00
    0.12347E+07        -0.49882E+08         0.00000E+00
    0.00000E+00         0.00000E+00        -0.48384E+08
 
   -0.47649E+08         0.12754E+07         0.00000E+00
    0.12754E+07        -0.49873E+08         0.00000E+00
    0.00000E+00         0.00000E+00        -0.48389E+08
 
   -0.47684E+08         0.13157E+07         0.00000E+00
    0.13157E+07        -0.49864E+08         0.00000E+00
    0.00000E+00         0.00000E+00        -0.48394E+08
 
   -0.47719E+08         0.13555E+07         0.00000E+00
    0.13555E+07        -0.49854E+08         0.00000E+00
    0.00000E+00         0.00000E+00        -0.48399E+08
 
   -0.47755E+08         0.13949E+07         0.00000E+00
    0.13949E+07        -0.49844E+08         0.00000E+00
    0.00000E+00         0.00000E+00        -0.48404E+08
 
   -0.47790E+08         0.14340E+07         0.00000E+00
    0.14340E+07        -0.49833E+08         0.00000E+00
    0.00000E+00         0.00000E+00        -0.48409E+08
 
   -0.47826E+08         0.14726E+07         0.00000E+00
    0.14726E+07        -0.49822E+08         0.00000E+00
    0.00000E+00         0.00000E+00        -0.48414E+08
 
   -0.47862E+08         0.15108E+07         0.00000E+00
    0.15108E+07        -0.49811E+08         0.00000E+00
    0.00000E+00         0.00000E+00        -0.48419E+08
 
   -0.47899E+08         0.15486E+07         0.00000E+00
    0.15486E+07        -0.49799E+08         0.00000E+00
    0.00000E+00         0.00000E+00        -0.48424E+08
 
   -0.47935E+08         0.15860E+07         0.00000E+00
    0.15860E+07        -0.49787E+08         0.00000E+00
    0.00000E+00         0.00000E+00        -0.48429E+08
 
   -0.47972E+08         0.16230E+07         0.00000E+00
    0.16230E+07        -0.49775E+08         0.00000E+00
    0.00000E+00         0.00000E+00        -0.48434E+08
 
   -0.48009E+08         0.16595E+07         0.00000E+00
    0.16595E+07        -0.49762E+08         0.00000E+00
    0.00000E+00         0.00000E+00        -0.48439E+08
 
   -0.48047E+08         0.16957E+07         0.00000E+00
    0.16957E+07        -0.49749E+08         0.00000E+00
    0.00000E+00         0.00000E+00        -0.48444E+08
 
   -0.48084E+08         0.17314E+07         0.00000E+00
    0.17314E+07        -0.49735E+08         0.00000E+00
    0.00000E+00         0.00000E+00        -0.48448E+08
 
   -0.48122E+08         0.17667E+07         0.00000E+00
    0.17667E+07        -0.49721E+08         0.00000E+00
    0.00000E+00         0.00000E+00        -0.48453E+08
 
   -0.48161E+08         0.18016E+07         0.00000E+00
    0.18016E+07        -0.49707E+08         0.00000E+00
    0.00000E+00         0.00000E+00        -0.48458E+08
 
   -0.48199E+08         0.18361E+07         0.00000E+00
    0.18361E+07        -0.49692E+08         0.00000E+00
    0.00000E+00         0.00000E+00        -0.48463E+08
 
   -0.48238E+08         0.18701E+07         0.00000E+00
    0.18701E+07        -0.49677E+08         0.00000E+00
    0.00000E+00         0.00000E+00        -0.48467E+08
 
   -0.48277E+08         0.19038E+07         0.00000E+00
    0.19038E+07        -0.49661E+08         0.00000E+00
    0.00000E+00         0.00000E+00        -0.48472E+08
 
   -0.48316E+08         0.19370E+07         0.00000E+00
    0.19370E+07        -0.49645E+08         0.00000E+00
    0.00000E+00         0.00000E+00        -0.48477E+08
 
   -0.48356E+08         0.19697E+07         0.00000E+00
    0.19697E+07        -0.49629E+08         0.00000E+00
    0.00000E+00         0.00000E+00        -0.48481E+08
 
   -0.48396E+08         0.20020E+07         0.00000E+00
    0.20020E+07        -0.49612E+08         0.00000E+00
    0.00000E+00         0.00000E+00        -0.48486E+08
 
   -0.48436E+08         0.20339E+07         0.00000E+00
    0.20339E+07        -0.49594E+08         0.00000E+00
    0.00000E+00         0.00000E+00        -0.48491E+08
 
   -0.48477E+08         0.20654E+07         0.00000E+00
    0.20654E+07        -0.49577E+08         0.00000E+00
    0.00000E+00         0.00000E+00        -0.48495E+08
 
   -0.46512E+08         0.27527E+05         0.00000E+00
    0.27527E+05        -0.50000E+08         0.00000E+00
    0.00000E+00         0.00000E+00        -0.48062E+08
 
   -0.46544E+08         0.81405E+05         0.00000E+00
    0.81405E+05        -0.49999E+08         0.00000E+00
    0.00000E+00         0.00000E+00        -0.48068E+08
 
   -0.46577E+08         0.13479E+06         0.00000E+00
    0.13479E+06        -0.49999E+08         0.00000E+00
    0.00000E+00         0.00000E+00        -0.48075E+08
 
   -0.46609E+08         0.18768E+06         0.00000E+00
    0.18768E+06        -0.49998E+08         0.00000E+00
    0.00000E+00         0.00000E+00        -0.48081E+08
 
   -0.46642E+08         0.24009E+06         0.00000E+00
    0.24009E+06        -0.49996E+08         0.00000E+00
    0.00000E+00         0.00000E+00        -0.48087E+08
 
   -0.46675E+08         0.29202E+06         0.00000E+00
    0.29202E+06        -0.49995E+08         0.00000E+00
    0.00000E+00         0.00000E+00        -0.48093E+08
 
   -0.46708E+08         0.34347E+06         0.00000E+00
    0.34347E+06        -0.49993E+08         0.00000E+00
    0.00000E+00         0.00000E+00        -0.48100E+08
 
   -0.46741E+08         0.39446E+06         0.00000E+00
    0.39446E+06        -0.49990E+08         0.00000E+00
    0.00000E+00         0.00000E+00        -0.48106E+08
 
   -0.46774E+08         0.44499E+06         0.00000E+00
    0.44499E+06        -0.49987E+08         0.00000E+00
    0.00000E+00         0.00000E+00        -0.48112E+08
 
   -0.46808E+08         0.49506E+06         0.00000E+00
    0.49506E+06        -0.49984E+08         0.00000E+00
    0.00000E+00         0.00000E+00        -0.48118E+08
 
   -0.46842E+08         0.54467E+06         0.00000E+00
    0.54467E+06        -0.49981E+08         0.00000E+00
    0.00000E+00         0.00000E+00        -0.48124E+08
 
   -0.46876E+08         0.59384E+06         0.00000E+00
    0.59384E+06        -0.49977E+08         0.00000E+00
    0.00000E+00         0.00000E+00        -0.48130E+08
 
   -0.46910E+08         0.64256E+06         0.00000E+00
    0.64256E+06        -0.49973E+08         0.00000E+00
    0.00000E+00         0.00000E+00        -0.48136E+08
 
   -0.46944E+08         0.69084E+06         0.00000E+00
    0.69084E+06        -0.49968E+08         0.00000E+00
    0.00000E+00         0.00000E+00        -0.48142E+08
 
   -0.46978E+08         0.73869E+06         0.00000E+00
    0.73869E+06        -0.49964E+08         0.00000E+00
    0.00000E+00         0.00000E+00        -0.48148E+08
 
   -0.47013E+08         0.78610E+06         0.00000E+00
    0.78610E+06        -0.49958E+08         0.00000E+00
    0.00000E+00         0.00000E+00        -0.48154E+08
 
   -0.47048E+08         0.83309E+06         0.00000E+00
    0.83309E+06        -0.49953E+08         0.00000E+00
    0.00000E+00         0.00000E+00        -0.48160E+08
 
   -0.47083E+08         0.87965E+06         0.00000E+00
    0.87965E+06        -0.49947E+08         0.00000E+00
    0.00000E+00         0.00000E+00        -0.48165E+08
 
   -0.47118E+08         0.92580E+06         0.00000E+00
    0.92580E+06        -0.49941E+08         0.00000E+00
    0.00000E+00         0.00000E+00        -0.48171E+08
 
   -0.47153E+08         0.97152E+06         0.00000E+00
    0.97152E+06        -0.49934E+08         0.00000E+00
    0.00000E+00         0.00000E+00        -0.48177E+08
 
   -0.47189E+08         0.10168E+07         0.00000E+00
    0.10168E+07        -0.49927E+08         0.00000E+00
    0.00000E+00         0.00000E+00        -0.48183E+08
 
   -0.47224E+08         0.10617E+07         0.00000E+00
    0.10617E+07        -0.49920E+08         0.00000E+00
    0.00000E+00         0.00000E+00        -0.48188E+08
 
   -0.47260E+08         0.11062E+07         0.00000E+00
    0.11062E+07        -0.49913E+08         0.00000E+00
    0.00000E+00         0.00000E+00        -0.48194E+08
 
   -0.47296E+08         0.11503E+07         0.00000E+00
    0.11503E+07        -0.49905E+08         0.00000E+00
    0.00000E+00         0.00000E+00        -0.48200E+08
 
   -0.47332E+08         0.11940E+07         0.00000E+00
    0.11940E+07        -0.49896E+08         0.00000E+00
    0.00000E+00         0.00000E+00        -0.48205E+08
 
   -0.47369E+08         0.12373E+07         0.00000E+00
    0.12373E+07        -0.49888E+08         0.00000E+00
    0.00000E+00         0.00000E+00        -0.48211E+08
 
   -0.47405E+08         0.12802E+07         0.00000E+00
    0.12802E+07        -0.49879E+08         0.00000E+00
    0.00000E+00         0.00000E+00        -0.48216E+08
 
   -0.47442E+08         0.13227E+07         0.00000E+00
    0.13227E+07        -0.49869E+08         0.00000E+00
    0.00000E+00         0.00000E+00        -0.48222E+08
 
   -0.47479E+08         0.13648E+07         0.00000E+00
    0.13648E+07        -0.49859E+08         0.00000E+00
    0.00000E+00         0.00000E+00        -0.48227E+08
 
   -0.47516E+08         0.14065E+07         0.00000E+00
    0.14065E+07        -0.49849E+08         0.00000E+00
    0.00000E+00         0.00000E+00        -0.48233E+08
 
   -0.47554E+08         0.14478E+07         0.00000E+00
    0.14478E+07        -0.49839E+08         0.00000E+00
    0.00000E+00         0.00000E+00        -0.48238E+08
 
   -0.47591E+08         0.14887E+07         0.00000E+00
    0.14887E+07        -0.49828E+08         0.00000E+00
    0.00000E+00         0.00000E+00        -0.48243E+08
 
   -0.47629E+08         0.15292E+07         0.00000E+00
    0.15292E+07        -0.49816E+08         0.00000E+00
    0.00000E+00         0.00000E+00        -0.48249E+08
 
   -0.47668E+08         0.15694E+07         0.00000E+00
    0.15694E+07        -0.49805E+08         0.00000E+00
    0.00000E+00         0.00000E+00        -0.48254E+08
 
   -0.47706E+08         0.16091E+07         0.00000E+00
    0.16091E+07        -0.49792E+08         0.00000E+00
    0.00000E+00         0.00000E+00        -0.48259E+08
 
   -0.47745E+08         0.16485E+07         0.00000E+00
    0.16485E+07        -0.49780E+08         0.00000E+00
    0.00000E+00         0.00000E+00        -0.48264E+08
 
   -0.47783E+08         0.16874E+07         0.00000E+00
    0.16874E+07        -0.49767E+08         0.00000E+00
    0.00000E+00         0.00000E+00        -0.48270E+08
 
   -0.47823E+08         0.17260E+07         0.00000E+00
    0.17260E+07        -0.49753E+08         0.00000E+00
    0.00000E+00         0.00000E+00        -0.48275E+08
 
   -0.47862E+08         0.17642E+07         0.00000E+00
    0.17642E+07        -0.49740E+08         0.00000E+00
    0.00000E+00         0.00000E+00        -0.48280E+08
 
   -0.47902E+08         0.18020E+07         0.00000E+00
    0.18020E+07        -0.49725E+08         0.00000E+00
    0.00000E+00         0.00000E+00        -0.48285E+08
 
   -0.47942E+08         0.18394E+07         0.00000E+00
    0.18394E+07        -0.49711E+08         0.00000E+00
    0.00000E+00         0.00000E+00        -0.48290E+08
 
   -0.47982E+08         0.18764E+07         0.00000E+00
    0.18764E+07        -0.49696E+08         0.00000E+00
    0.00000E+00         0.00000E+00        -0.48295E+08
 
   -0.48022E+08         0.19130E+07         0.00000E+00
    0.19130E+07        -0.49680E+08         0.00000E+00
    0.00000E+00         0.00000E+00        -0.48300E+08
 
   -0.48063E+08         0.19492E+07         0.00000E+00
    0.19492E+07        -0.49664E+08         0.00000E+00
    0.00000E+00         0.00000E+00        -0.48305E+08
 
   -0.48104E+08         0.19850E+07         0.00000E+00
    0.19850E+07        -0.49648E+08         0.00000E+00
    0.00000E+00         0.00000E+00        -0.48310E+08
 
   -0.48146E+08         0.20203E+07         0.00000E+00
    0.20203E+07        -0.49631E+08         0.00000E+00
    0.00000E+00         0.00000E+00        -0.48315E+08
 
   -0.48188E+08         0.20553E+07         0.00000E+00
    0.20553E+07        -0.49614E+08         0.00000E+00
    0.00000E+00         0.00000E+00        -0.48320E+08
 
   -0.48230E+08         0.20899E+07         0.00000E+00
    0.20899E+07        -0.49596E+08         0.00000E+00
    0.00000E+00         0.00000E+00        -0.48325E+08
 
   -0.48272E+08         0.21240E+07         0.00000E+00
    0.21240E+07        -0.49578E+08         0.00000E+00
    0.00000E+00         0.00000E+00        -0.48330E+08
 
   -0.48315E+08         0.21578E+07         0.00000E+00
    0.21578E+07        -0.49559E+08         0.00000E+00
    0.00000E+00         0.00000E+00        -0.48334E+08
 
   -0.46237E+08         0.28423E+05         0.00000E+00
    0.28423E+05        -0.50000E+08         0.00000E+00
    0.00000E+00         0.00000E+00        -0.47872E+08
 
   -0.46272E+08         0.84064E+05         0.00000E+00
    0.84064E+05        -0.49999E+08         0.00000E+00
    0.00000E+00         0.00000E+00        -0.47879E+08
 
   -0.46306E+08         0.13920E+06         0.00000E+00
    0.13920E+06        -0.49999E+08         0.00000E+00
    0.00000E+00         0.00000E+00        -0.47885E+08
 
   -0.46341E+08         0.19384E+06         0.00000E+00
    0.19384E+06        -0.49998E+08         0.00000E+00
    0.00000E+00         0.00000E+00        -0.47892E+08
 
   -0.46377E+08         0.24798E+06         0.00000E+00
    0.24798E+06        -0.49996E+08         0.00000E+00
    0.00000E+00         0.00000E+00        -0.47899E+08
 
   -0.46412E+08         0.30164E+06         0.00000E+00
    0.30164E+06        -0.49995E+08         0.00000E+00
    0.00000E+00         0.00000E+00        -0.47906E+08
 
   -0.46447E+08         0.35483E+06         0.00000E+00
    0.35483E+06        -0.49992E+08         0.00000E+00
    0.00000E+00         0.00000E+00        -0.47912E+08
 
   -0.46483E+08         0.40754E+06         0.00000E+00
    0.40754E+06        -0.49990E+08         0.00000E+00
    0.00000E+00         0.00000E+00        -0.47919E+08
 
   -0.46519E+08         0.45979E+06         0.00000E+00
    0.45979E+06        -0.49987E+08         0.00000E+00
    0.00000E+00         0.00000E+00        -0.47926E+08
 
   -0.46554E+08         0.51158E+06         0.00000E+00
    0.51158E+06        -0.49984E+08         0.00000E+00
    0.00000E+00         0.00000E+00        -0.47932E+08
 
   -0.46590E+08         0.56292E+06         0.00000E+00
    0.56292E+06        -0.49980E+08         0.00000E+00
    0.00000E+00         0.00000E+00        -0.47939E+08
 
   -0.46627E+08         0.61381E+06         0.00000E+00
    0.61381E+06        -0.49977E+08         0.00000E+00
    0.00000E+00         0.00000E+00        -0.47945E+08
 
   -0.46663E+08         0.66426E+06         0.00000E+00
    0.66426E+06        -0.49972E+08         0.00000E+00
    0.00000E+00         0.00000E+00        -0.47951E+08
 
   -0.46699E+08         0.71428E+06         0.00000E+00
    0.71428E+06        -0.49968E+08         0.00000E+00
    0.00000E+00         0.00000E+00        -0.47958E+08
 
   -0.46736E+08         0.76386E+06         0.00000E+00
    0.76386E+06        -0.49963E+08         0.00000E+00
    0.00000E+00         0.00000E+00        -0.47964E+08
 
   -0.46773E+08         0.81303E+06         0.00000E+00
    0.81303E+06        -0.49958E+08         0.00000E+00
    0.00000E+00         0.00000E+00        -0.47970E+08
 
   -0.46809E+08         0.86177E+06         0.00000E+00
    0.86177E+06        -0.49952E+08         0.00000E+00
    0.00000E+00         0.00000E+00        -0.47977E+08
 
   -0.46846E+08         0.91010E+06         0.00000E+00
    0.91010E+06        -0.49946E+08         0.00000E+00
    0.00000E+00         0.00000E+00        -0.47983E+08
 
   -0.46884E+08         0.95802E+06         0.00000E+00
    0.95802E+06        -0.49940E+08         0.00000E+00
    0.00000E+00         0.00000E+00        -0.47989E+08
 
   -0.46921E+08         0.10055E+07         0.00000E+00
    0.10055E+07        -0.49933E+08         0.00000E+00
    0.00000E+00         0.00000E+00        -0.47995E+08
 
   -0.46958E+08         0.10526E+07         0.00000E+00
    0.10526E+07        -0.49926E+08         0.00000E+00
    0.00000E+00         0.00000E+00        -0.48001E+08
 
   -0.46996E+08         0.10994E+07         0.00000E+00
    0.10994E+07        -0.49919E+08         0.00000E+00
    0.00000E+00         0.00000E+00        -0.48007E+08
 
   -0.47034E+08         0.11457E+07         0.00000E+00
    0.11457E+07        -0.49911E+08         0.00000E+00
    0.00000E+00         0.00000E+00        -0.48013E+08
 
   -0.47072E+08         0.11916E+07         0.00000E+00
    0.11916E+07        -0.49903E+08         0.00000E+00
    0.00000E+00         0.00000E+00        -0.48019E+08
 
   -0.47110E+08         0.12372E+07         0.00000E+00
    0.12372E+07        -0.49894E+08         0.00000E+00
    0.00000E+00         0.00000E+00        -0.48025E+08
 
   -0.47149E+08         0.12823E+07         0.00000E+00
    0.12823E+07        -0.49885E+08         0.00000E+00
    0.00000E+00         0.00000E+00        -0.48031E+08
 
   -0.47187E+08         0.13271E+07         0.00000E+00
    0.13271E+07        -0.49876E+08         0.00000E+00
    0.00000E+00         0.00000E+00        -0.48037E+08
 
   -0.47226E+08         0.13715E+07         0.00000E+00
    0.13715E+07        -0.49866E+08         0.00000E+00
    0.00000E+00         0.00000E+00        -0.48043E+08
 
   -0.47265E+08         0.14156E+07         0.00000E+00
    0.14156E+07        -0.49856E+08         0.00000E+00
    0.00000E+00         0.00000E+00        -0.48049E+08
 
   -0.47304E+08         0.14592E+07         0.00000E+00
    0.14592E+07        -0.49846E+08         0.00000E+00
    0.00000E+00         0.00000E+00        -0.48054E+08
 
   -0.47343E+08         0.15025E+07         0.00000E+00
    0.15025E+07        -0.49835E+08         0.00000E+00
    0.00000E+00         0.00000E+00        -0.48060E+08
 
   -0.47383E+08         0.15454E+07         0.00000E+00
    0.15454E+07        -0.49823E+08         0.00000E+00
    0.00000E+00         0.00000E+00        -0.48066E+08
 
   -0.47423E+08         0.15880E+07         0.00000E+00
    0.15880E+07        -0.49812E+08         0.00000E+00
    0.00000E+00         0.00000E+00        -0.48071E+08
 
   -0.47463E+08         0.16302E+07         0.00000E+00
    0.16302E+07        -0.49799E+08         0.00000E+00
    0.00000E+00         0.00000E+00        -0.48077E+08
 
   -0.47503E+08         0.16720E+07         0.00000E+00
    0.16720E+07        -0.49787E+08         0.00000E+00
    0.00000E+00         0.00000E+00        -0.48082E+08
 
   -0.47543E+08         0.17134E+07         0.00000E+00
    0.17134E+07        -0.49774E+08         0.00000E+00
    0.00000E+00         0.00000E+00        -0.48088E+08
 
   -0.47584E+08         0.17545E+07         0.00000E+00
    0.17545E+07        -0.49760E+08         0.00000E+00
    0.00000E+00         0.00000E+00        -0.48093E+08
 
   -0.47625E+08         0.17952E+07         0.00000E+00
    0.17952E+07        -0.49747E+08         0.00000E+00
    0.00000E+00         0.00000E+00        -0.48099E+08
 
   -0.47667E+08         0.18356E+07         0.00000E+00
    0.18356E+07        -0.49732E+08         0.00000E+00
    0.00000E+00         0.00000E+00        -0.48104E+08
 
   -0.47708E+08         0.18755E+07         0.00000E+00
    0.18755E+07        -0.49718E+08         0.00000E+00
    0.00000E+00         0.00000E+00        -0.48110E+08
 
   -0.47750E+08         0.19152E+07         0.00000E+00
    0.19152E+07        -0.49702E+08         0.00000E+00
    0.00000E+00         0.00000E+00        -0.48115E+08
 
   -0.47792E+08         0.19544E+07         0.00000E+00
    0.19544E+07        -0.49687E+08         0.00000E+00
    0.00000E+00         0.00000E+00        -0.48120E+08
 
   -0.47835E+08         0.19933E+07         0.00000E+00
    0.19933E+07        -0.49671E+08         0.00000E+00
    0.00000E+00         0.00000E+00        -0.48125E+08
 
   -0.47878E+08         0.20318E+07         0.00000E+00
    0.20318E+07        -0.49654E+08         0.00000E+00
    0.00000E+00         0.00000E+00        -0.48131E+08
 
   -0.47921E+08         0.20699E+07         0.00000E+00
    0.20699E+07        -0.49637E+08         0.00000E+00
    0.00000E+00         0.00000E+00        -0.48136E+08
 
   -0.47964E+08         0.21077E+07         0.00000E+00
    0.21077E+07        -0.49619E+08         0.00000E+00
    0.00000E+00         0.00000E+00        -0.48141E+08
 
   -0.48008E+08         0.21450E+07         0.00000E+00
    0.21450E+07        -0.49601E+08         0.00000E+00
    0.00000E+00         0.00000E+00        -0.48146E+08
 
   -0.48052E+08         0.21820E+07         0.00000E+00
    0.21820E+07        -0.49583E+08         0.00000E+00
    0.00000E+00         0.00000E+00        -0.48151E+08
 
   -0.48097E+08         0.22186E+07         0.00000E+00
    0.22186E+07        -0.49564E+08         0.00000E+00
    0.00000E+00         0.00000E+00        -0.48156E+08
 
   -0.48141E+08         0.22548E+07         0.00000E+00
    0.22548E+07        -0.49544E+08         0.00000E+00
    0.00000E+00         0.00000E+00        -0.48161E+08
 
   -0.45953E+08         0.29325E+05         0.00000E+00
    0.29325E+05        -0.50000E+08         0.00000E+00
    0.00000E+00         0.00000E+00        -0.47669E+08
 
   -0.45990E+08         0.86744E+05         0.00000E+00
    0.86744E+05        -0.49999E+08         0.00000E+00
    0.00000E+00         0.00000E+00        -0.47676E+08
 
   -0.46028E+08         0.14365E+06         0.00000E+00
    0.14365E+06        -0.49999E+08         0.00000E+00
    0.00000E+00         0.00000E+00        -0.47684E+08
 
   -0.46065E+08         0.20005E+06         0.00000E+00
    0.20005E+06        -0.49998E+08         0.00000E+00
    0.00000E+00         0.00000E+00        -0.47691E+08
 
   -0.46103E+08         0.25595E+06         0.00000E+00
    0.25595E+06        -0.49996E+08         0.00000E+00
    0.00000E+00         0.00000E+00        -0.47698E+08
 
   -0.46140E+08         0.31137E+06         0.00000E+00
    0.31137E+06        -0.49994E+08         0.00000E+00
    0.00000E+00         0.00000E+00        -0.47705E+08
 
   -0.46178E+08         0.36630E+06         0.00000E+00
    0.36630E+06        -0.49992E+08         0.00000E+00
    0.00000E+00         0.00000E+00        -0.47712E+08
 
   -0.46216E+08         0.42076E+06         0.00000E+00
    0.42076E+06        -0.49990E+08         0.00000E+00
    0.00000E+00         0.00000E+00        -0.47719E+08
 
   -0.46254E+08         0.47476E+06         0.00000E+00
    0.47476E+06        -0.49987E+08         0.00000E+00
    0.00000E+00         0.00000E+00        -0.47727E+08
 
   -0.46292E+08         0.52831E+06         0.00000E+00
    0.52831E+06        -0.49984E+08         0.00000E+00
    0.00000E+00         0.00000E+00        -0.47734E+08
 
   -0.46330E+08         0.58140E+06         0.00000E+00
    0.58140E+06        -0.49980E+08         0.00000E+00
    0.00000E+00         0.00000E+00        -0.47740E+08
 
   -0.46369E+08         0.63405E+06         0.00000E+00
    0.63405E+06        -0.49976E+08         0.00000E+00
    0.00000E+00         0.00000E+00        -0.47747E+08
 
   -0.46407E+08         0.68627E+06         0.00000E+00
    0.68627E+06        -0.49972E+08         0.00000E+00
    0.00000E+00         0.00000E+00        -0.47754E+08
 
   -0.46446E+08         0.73806E+06         0.00000E+00
    0.73806E+06        -0.49968E+08         0.00000E+00
    0.00000E+00         0.00000E+00        -0.47761E+08
 
   -0.46484E+08         0.78943E+06         0.00000E+00
    0.78943E+06        -0.49963E+08         0.00000E+00
    0.00000E+00         0.00000E+00        -0.47768E+08
 
   -0.46523E+08         0.84039E+06         0.00000E+00
    0.84039E+06        -0.49957E+08         0.00000E+00
    0.00000E+00         0.00000E+00        -0.47774E+08
 
   -0.46562E+08         0.89094E+06         0.00000E+00
    0.89094E+06        -0.49952E+08         0.00000E+00
    0.00000E+00         0.00000E+00        -0.47781E+08
 
   -0.46601E+08         0.94109E+06         0.00000E+00
    0.94109E+06        -0.49946E+08         0.00000E+00
    0.00000E+00         0.00000E+00        -0.47788E+08
 
   -0.46640E+08         0.99084E+06         0.00000E+00
    0.99084E+06        -0.49939E+08         0.00000E+00
    0.00000E+00         0.00000E+00        -0.47794E+08
 
   -0.46680E+08         0.10402E+07         0.00000E+00
    0.10402E+07        -0.49932E+08         0.00000E+00
    0.00000E+00         0.00000E+00        -0.47801E+08
 
   -0.46719E+08         0.10892E+07         0.00000E+00
    0.10892E+07        -0.49925E+08         0.00000E+00
    0.00000E+00         0.00000E+00        -0.47807E+08
 
   -0.46759E+08         0.11378E+07         0.00000E+00
    0.11378E+07        -0.49918E+08         0.00000E+00
    0.00000E+00         0.00000E+00        -0.47814E+08
 
   -0.46799E+08         0.11860E+07         0.00000E+00
    0.11860E+07        -0.49910E+08         0.00000E+00
    0.00000E+00         0.00000E+00        -0.47820E+08
 
   -0.46838E+08         0.12338E+07         0.00000E+00
    0.12338E+07        -0.49901E+08         0.00000E+00
    0.00000E+00         0.00000E+00        -0.47826E+08
 
   -0.46879E+08         0.12813E+07         0.00000E+00
    0.12813E+07        -0.49893E+08         0.00000E+00
    0.00000E+00         0.00000E+00        -0.47833E+08
 
   -0.46919E+08         0.13285E+07         0.00000E+00
    0.13285E+07        -0.49884E+08         0.00000E+00
    0.00000E+00         0.00000E+00        -0.47839E+08
 
   -0.46959E+08         0.13752E+07         0.00000E+00
    0.13752E+07        -0.49874E+08         0.00000E+00
    0.00000E+00         0.00000E+00        -0.47845E+08
 
   -0.47000E+08         0.14216E+07         0.00000E+00
    0.14216E+07        -0.49864E+08         0.00000E+00
    0.00000E+00         0.00000E+00        -0.47851E+08
 
   -0.47040E+08         0.14677E+07         0.00000E+00
    0.14677E+07        -0.49854E+08         0.00000E+00
    0.00000E+00         0.00000E+00        -0.47857E+08
 
   -0.47081E+08         0.15134E+07         0.00000E+00
    0.15134E+07        -0.49843E+08         0.00000E+00
    0.00000E+00         0.00000E+00        -0.47863E+08
 
   -0.47123E+08         0.15588E+07         0.00000E+00
    0.15588E+07        -0.49832E+08         0.00000E+00
    0.00000E+00         0.00000E+00        -0.47869E+08
 
   -0.47164E+08         0.16038E+07         0.00000E+00
    0.16038E+07        -0.49820E+08         0.00000E+00
    0.00000E+00         0.00000E+00        -0.47875E+08
 
   -0.47205E+08         0.16485E+07         0.00000E+00
    0.16485E+07        -0.49808E+08         0.00000E+00
    0.00000E+00         0.00000E+00        -0.47881E+08
 
   -0.47247E+08         0.16928E+07         0.00000E+00
    0.16928E+07        -0.49796E+08         0.00000E+00
    0.00000E+00         0.00000E+00        -0.47887E+08
 
   -0.47289E+08         0.17368E+07         0.00000E+00
    0.17368E+07        -0.49783E+08         0.00000E+00
    0.00000E+00         0.00000E+00        -0.47893E+08
 
   -0.47332E+08         0.17805E+07         0.00000E+00
    0.17805E+07        -0.49770E+08         0.00000E+00
    0.00000E+00         0.00000E+00        -0.47899E+08
 
   -0.47374E+08         0.18238E+07         0.00000E+00
    0.18238E+07        -0.49756E+08         0.00000E+00
    0.00000E+00         0.00000E+00        -0.47904E+08
 
   -0.47417E+08         0.18668E+07         0.00000E+00
    0.18668E+07        -0.49742E+08         0.00000E+00
    0.00000E+00         0.00000E+00        -0.47910E+08
 
   -0.47460E+08         0.19094E+07         0.00000E+00
    0.19094E+07        -0.49727E+08         0.00000E+00
    0.00000E+00         0.00000E+00        -0.47916E+08
 
   -0.47503E+08         0.19517E+07         0.00000E+00
    0.19517E+07        -0.49712E+08         0.00000E+00
    0.00000E+00         0.00000E+00        -0.47921E+08
 
   -0.47547E+08         0.19937E+07         0.00000E+00
    0.19937E+07        -0.49696E+08         0.00000E+00
    0.00000E+00         0.00000E+00        -0.47927E+08
 
   -0.47591E+08         0.20354E+07         0.00000E+00
    0.20354E+07        -0.49680E+08         0.00000E+00
    0.00000E+00         0.00000E+00        -0.47932E+08
 
   -0.47635E+08         0.20767E+07         0.00000E+00
    0.20767E+07        -0.49663E+08         0.00000E+00
    0.00000E+00         0.00000E+00        -0.47938E+08
 
   -0.47680E+08         0.21176E+07         0.00000E+00
    0.21176E+07        -0.49646E+08         0.00000E+00
    0.00000E+00         0.00000E+00        -0.47943E+08
 
   -0.47725E+08         0.21582E+07         0.00000E+00
    0.21582E+07        -0.49628E+08         0.00000E+00
    0.00000E+00         0.00000E+00        -0.47949E+08
 
   -0.47770E+08         0.21985E+07         0.00000E+00
    0.21985E+07        -0.49610E+08         0.00000E+00
    0.00000E+00         0.00000E+00        -0.47954E+08
 
   -0.47816E+08         0.22385E+07         0.00000E+00
    0.22385E+07        -0.49591E+08         0.00000E+00
    0.00000E+00         0.00000E+00        -0.47960E+08
 
   -0.47862E+08         0.22780E+07         0.00000E+00
    0.22780E+07        -0.49572E+08         0.00000E+00
    0.00000E+00         0.00000E+00        -0.47965E+08
 
   -0.47908E+08         0.23173E+07         0.00000E+00
    0.23173E+07        -0.49552E+08         0.00000E+00
    0.00000E+00         0.00000E+00        -0.47970E+08
 
   -0.47955E+08         0.23561E+07         0.00000E+00
    0.23561E+07        -0.49531E+08         0.00000E+00
    0.00000E+00         0.00000E+00        -0.47976E+08
 
   -0.45660E+08         0.30224E+05         0.00000E+00
    0.30224E+05        -0.50000E+08         0.00000E+00
    0.00000E+00         0.00000E+00        -0.47452E+08
 
   -0.45700E+08         0.89419E+05         0.00000E+00
    0.89419E+05        -0.49999E+08         0.00000E+00
    0.00000E+00         0.00000E+00        -0.47460E+08
 
   -0.45740E+08         0.14809E+06         0.00000E+00
    0.14809E+06        -0.49999E+08         0.00000E+00
    0.00000E+00         0.00000E+00        -0.47468E+08
 
   -0.45780E+08         0.20626E+06         0.00000E+00
    0.20626E+06        -0.49998E+08         0.00000E+00
    0.00000E+00         0.00000E+00        -0.47476E+08
 
   -0.45820E+08         0.26392E+06         0.00000E+00
    0.26392E+06        -0.49996E+08         0.00000E+00
    0.00000E+00         0.00000E+00        -0.47484E+08
 
   -0.45860E+08         0.32109E+06         0.00000E+00
    0.32109E+06        -0.49994E+08         0.00000E+00
    0.00000E+00         0.00000E+00        -0.47491E+08
 
   -0.45900E+08         0.37778E+06         0.00000E+00
    0.37778E+06        -0.49992E+08         0.00000E+00
    0.00000E+00         0.00000E+00        -0.47499E+08
 
   -0.45940E+08         0.43401E+06         0.00000E+00
    0.43401E+06        -0.49990E+08         0.00000E+00
    0.00000E+00         0.00000E+00        -0.47507E+08
 
   -0.45981E+08         0.48977E+06         0.00000E+00
    0.48977E+06        -0.49987E+08         0.00000E+00
    0.00000E+00         0.00000E+00        -0.47514E+08
 
   -0.46021E+08         0.54508E+06         0.00000E+00
    0.54508E+06        -0.49984E+08         0.00000E+00
    0.00000E+00         0.00000E+00        -0.47521E+08
 
   -0.46062E+08         0.59995E+06         0.00000E+00
    0.59995E+06        -0.49980E+08         0.00000E+00
    0.00000E+00         0.00000E+00        -0.47529E+08
 
   -0.46102E+08         0.65438E+06         0.00000E+00
    0.65438E+06        -0.49977E+08         0.00000E+00
    0.00000E+00         0.00000E+00        -0.47536E+08
 
   -0.46143E+08         0.70839E+06         0.00000E+00
    0.70839E+06        -0.49972E+08         0.00000E+00
    0.00000E+00         0.00000E+00        -0.47543E+08
 
   -0.46183E+08         0.76199E+06         0.00000E+00
    0.76199E+06        -0.49968E+08         0.00000E+00
    0.00000E+00         0.00000E+00        -0.47551E+08
 
   -0.46224E+08         0.81517E+06         0.00000E+00
    0.81517E+06        -0.49963E+08         0.00000E+00
    0.00000E+00         0.00000E+00        -0.47558E+08
 
   -0.46265E+08         0.86796E+06         0.00000E+00
    0.86796E+06        -0.49957E+08         0.00000E+00
    0.00000E+00         0.00000E+00        -0.47565E+08
 
   -0.46306E+08         0.92035E+06         0.00000E+00
    0.92035E+06        -0.49952E+08         0.00000E+00
    0.00000E+00         0.00000E+00        -0.47572E+08
 
   -0.46347E+08         0.97235E+06         0.00000E+00
    0.97235E+06        -0.49946E+08         0.00000E+00
    0.00000E+00         0.00000E+00        -0.47579E+08
 
   -0.46388E+08         0.10240E+07         0.00000E+00
    0.10240E+07        -0.49939E+08         0.00000E+00
    0.00000E+00         0.00000E+00        -0.47586E+08
 
   -0.46429E+08         0.10752E+07         0.00000E+00
    0.10752E+07        -0.49932E+08         0.00000E+00
    0.00000E+00         0.00000E+00        -0.47593E+08
 
   -0.46470E+08         0.11261E+07         0.00000E+00
    0.11261E+07        -0.49925E+08         0.00000E+00
    0.00000E+00         0.00000E+00        -0.47600E+08
 
   -0.46512E+08         0.11767E+07         0.00000E+00
    0.11767E+07        -0.49918E+08         0.00000E+00
    0.00000E+00         0.00000E+00        -0.47606E+08
 
   -0.46553E+08         0.12268E+07         0.00000E+00
    0.12268E+07        -0.49910E+08         0.00000E+00
    0.00000E+00         0.00000E+00        -0.47613E+08
 
   -0.46595E+08         0.12767E+07         0.00000E+00
    0.12767E+07        -0.49901E+08         0.00000E+00
    0.00000E+00         0.00000E+00        -0.47620E+08
 
   -0.46637E+08         0.13262E+07         0.00000E+00
    0.13262E+07        -0.49892E+08         0.00000E+00
    0.00000E+00         0.00000E+00        -0.47626E+08
 
   -0.46679E+08         0.13753E+07         0.00000E+00
    0.13753E+07        -0.49883E+08         0.00000E+00
    0.00000E+00         0.00000E+00        -0.47633E+08
 
   -0.46721E+08         0.14241E+07         0.00000E+00
    0.14241E+07        -0.49873E+08         0.00000E+00
    0.00000E+00         0.00000E+00        -0.47639E+08
 
   -0.46763E+08         0.14726E+07         0.00000E+00
    0.14726E+07        -0.49863E+08         0.00000E+00
    0.00000E+00         0.00000E+00        -0.47646E+08
 
   -0.46806E+08         0.15208E+07         0.00000E+00
    0.15208E+07        -0.49853E+08         0.00000E+00
    0.00000E+00         0.00000E+00        -0.47652E+08
 
   -0.46848E+08         0.15686E+07         0.00000E+00
    0.15686E+07        -0.49842E+08         0.00000E+00
    0.00000E+00         0.00000E+00        -0.47659E+08
 
   -0.46891E+08         0.16162E+07         0.00000E+00
    0.16162E+07        -0.49831E+08         0.00000E+00
    0.00000E+00         0.00000E+00        -0.47665E+08
 
   -0.46934E+08         0.16634E+07         0.00000E+00
    0.16634E+07        -0.49819E+08         0.00000E+00
    0.00000E+00         0.00000E+00        -0.47671E+08
 
   -0.46977E+08         0.17103E+07         0.00000E+00
    0.17103E+07        -0.49807E+08         0.00000E+00
    0.00000E+00         0.00000E+00        -0.47677E+08
 
   -0.47021E+08         0.17569E+07         0.00000E+00
    0.17569E+07        -0.49794E+08         0.00000E+00
    0.00000E+00         0.00000E+00        -0.47683E+08
 
   -0.47064E+08         0.18032E+07         0.00000E+00
    0.18032E+07        -0.49781E+08         0.00000E+00
    0.00000E+00         0.00000E+00        -0.47689E+08
 
   -0.47108E+08         0.18492E+07         0.00000E+00
    0.18492E+07        -0.49767E+08         0.00000E+00
    0.00000E+00         0.00000E+00        -0.47696E+08
 
   -0.47152E+08         0.18949E+07         0.00000E+00
    0.18949E+07        -0.49753E+08         0.00000E+00
    0.00000E+00         0.00000E+00        -0.47702E+08
 
   -0.47197E+08         0.19403E+07         0.00000E+00
    0.19403E+07        -0.49738E+08         0.00000E+00
    0.00000E+00         0.00000E+00        -0.47707E+08
 
   -0.47241E+08         0.19854E+07         0.00000E+00
    0.19854E+07        -0.49723E+08         0.00000E+00
    0.00000E+00         0.00000E+00        -0.47713E+08
 
   -0.47286E+08         0.20302E+07         0.00000E+00
    0.20302E+07        -0.49708E+08         0.00000E+00
    0.00000E+00         0.00000E+00        -0.47719E+08
 
   -0.47332E+08         0.20747E+07         0.00000E+00
    0.20747E+07        -0.49692E+08         0.00000E+00
    0.00000E+00         0.00000E+00        -0.47725E+08
 
   -0.47377E+08         0.21188E+07         0.00000E+00
    0.21188E+07        -0.49675E+08         0.00000E+00
    0.00000E+00         0.00000E+00        -0.47731E+08
 
   -0.47423E+08         0.21627E+07         0.00000E+00
    0.21627E+07        -0.49658E+08         0.00000E+00
    0.00000E+00         0.00000E+00        -0.47737E+08
 
   -0.47469E+08         0.22063E+07         0.00000E+00
    0.22063E+07        -0.49640E+08         0.00000E+00
    0.00000E+00         0.00000E+00        -0.47742E+08
 
   -0.47516E+08         0.22496E+07         0.00000E+00
    0.22496E+07        -0.49622E+08         0.00000E+00
    0.00000E+00         0.00000E+00        -0.47748E+08
 
   -0.47563E+08         0.22926E+07         0.00000E+00
    0.22926E+07        -0.49603E+08         0.00000E+00
    0.00000E+00         0.00000E+00        -0.47754E+08
 
   -0.47610E+08         0.23352E+07         0.00000E+00
    0.23352E+07        -0.49584E+08         0.00000E+00
    0.00000E+00         0.00000E+00        -0.47759E+08
 
   -0.47658E+08         0.23776E+07         0.00000E+00
    0.23776E+07        -0.49564E+08         0.00000E+00
    0.00000E+00         0.00000E+00        -0.47765E+08
 
   -0.47706E+08         0.24196E+07         0.00000E+00
    0.24196E+07        -0.49543E+08         0.00000E+00
    0.00000E+00         0.00000E+00        -0.47770E+08
 
   -0.47754E+08         0.24614E+07         0.00000E+00
    0.24614E+07        -0.49522E+08         0.00000E+00
    0.00000E+00         0.00000E+00        -0.47776E+08
 
   -0.45358E+08         0.31109E+05         0.00000E+00
    0.31109E+05        -0.50000E+08         0.00000E+00
    0.00000E+00         0.00000E+00        -0.47222E+08
 
   -0.45401E+08         0.92056E+05         0.00000E+00
    0.92056E+05        -0.49999E+08         0.00000E+00
    0.00000E+00         0.00000E+00        -0.47230E+08
 
   -0.45443E+08         0.15248E+06         0.00000E+00
    0.15248E+06        -0.49999E+08         0.00000E+00
    0.00000E+00         0.00000E+00        -0.47238E+08
 
   -0.45486E+08         0.21238E+06         0.00000E+00
    0.21238E+06        -0.49998E+08         0.00000E+00
    0.00000E+00         0.00000E+00        -0.47247E+08
 
   -0.45528E+08         0.27179E+06         0.00000E+00
    0.27179E+06        -0.49996E+08         0.00000E+00
    0.00000E+00         0.00000E+00        -0.47255E+08
 
   -0.45571E+08         0.33071E+06         0.00000E+00
    0.33071E+06        -0.49995E+08         0.00000E+00
    0.00000E+00         0.00000E+00        -0.47263E+08
 
   -0.45614E+08         0.38915E+06         0.00000E+00
    0.38915E+06        -0.49992E+08         0.00000E+00
    0.00000E+00         0.00000E+00        -0.47271E+08
 
   -0.45656E+08         0.44713E+06         0.00000E+00
    0.44713E+06        -0.49990E+08         0.00000E+00
    0.00000E+00         0.00000E+00        -0.47279E+08
 
   -0.45699E+08         0.50465E+06         0.00000E+00
    0.50465E+06        -0.49987E+08         0.00000E+00
    0.00000E+00         0.00000E+00        -0.47287E+08
 
   -0.45741E+08         0.56172E+06         0.00000E+00
    0.56172E+06        -0.49984E+08         0.00000E+00
    0.00000E+00         0.00000E+00        -0.47295E+08
 
   -0.45784E+08         0.61837E+06         0.00000E+00
    0.61837E+06        -0.49981E+08         0.00000E+00
    0.00000E+00         0.00000E+00        -0.47303E+08
 
   -0.45826E+08         0.67459E+06         0.00000E+00
    0.67459E+06        -0.49977E+08         0.00000E+00
    0.00000E+00         0.00000E+00        -0.47311E+08
 
   -0.45869E+08         0.73040E+06         0.00000E+00
    0.73040E+06        -0.49973E+08         0.00000E+00
    0.00000E+00         0.00000E+00        -0.47318E+08
 
   -0.45912E+08         0.78580E+06         0.00000E+00
    0.78580E+06        -0.49968E+08         0.00000E+00
    0.00000E+00         0.00000E+00        -0.47326E+08
 
   -0.45955E+08         0.84082E+06         0.00000E+00
    0.84082E+06        -0.49963E+08         0.00000E+00
    0.00000E+00         0.00000E+00        -0.47333E+08
 
   -0.45997E+08         0.89545E+06         0.00000E+00
    0.89545E+06        -0.49958E+08         0.00000E+00
    0.00000E+00         0.00000E+00        -0.47341E+08
 
   -0.46040E+08         0.94971E+06         0.00000E+00
    0.94971E+06        -0.49952E+08         0.00000E+00
    0.00000E+00         0.00000E+00        -0.47348E+08
 
   -0.46083E+08         0.10036E+07         0.00000E+00
    0.10036E+07        -0.49946E+08         0.00000E+00
    0.00000E+00         0.00000E+00        -0.47356E+08
 
   -0.46126E+08         0.10571E+07         0.00000E+00
    0.10571E+07        -0.49940E+08         0.00000E+00
    0.00000E+00         0.00000E+00        -0.47363E+08
 
   -0.46169E+08         0.11103E+07         0.00000E+00
    0.11103E+07        -0.49933E+08         0.00000E+00
    0.00000E+00         0.00000E+00        -0.47370E+08
 
   -0.46212E+08         0.11632E+07         0.00000E+00
    0.11632E+07        -0.49926E+08         0.00000E+00
    0.00000E+00         0.00000E+00        -0.47377E+08
 
   -0.46255E+08         0.12157E+07         0.00000E+00
    0.12157E+07        -0.49918E+08         0.00000E+00
    0.00000E+00         0.00000E+00        -0.47385E+08
 
   -0.46298E+08         0.12679E+07         0.00000E+00
    0.12679E+07        -0.49910E+08         0.00000E+00
    0.00000E+00         0.00000E+00        -0.47392E+08
 
   -0.46342E+08         0.13197E+07         0.00000E+00
    0.13197E+07        -0.49902E+08         0.00000E+00
    0.00000E+00         0.00000E+00        -0.47399E+08
 
   -0.46385E+08         0.13713E+07         0.00000E+00
    0.13713E+07        -0.49893E+08         0.00000E+00
    0.00000E+00         0.00000E+00        -0.47406E+08
 
   -0.46429E+08         0.14225E+07         0.00000E+00
    0.14225E+07        -0.49884E+08         0.00000E+00
    0.00000E+00         0.00000E+00        -0.47412E+08
 
   -0.46472E+08         0.14735E+07         0.00000E+00
    0.14735E+07        -0.49874E+08         0.00000E+00
    0.00000E+00         0.00000E+00        -0.47419E+08
 
   -0.46516E+08         0.15241E+07         0.00000E+00
    0.15241E+07        -0.49864E+08         0.00000E+00
    0.00000E+00         0.00000E+00        -0.47426E+08
 
   -0.46560E+08         0.15745E+07         0.00000E+00
    0.15745E+07        -0.49853E+08         0.00000E+00
    0.00000E+00         0.00000E+00        -0.47433E+08
 
   -0.46604E+08         0.16246E+07         0.00000E+00
    0.16246E+07        -0.49842E+08         0.00000E+00
    0.00000E+00         0.00000E+00        -0.47439E+08
 
   -0.46649E+08         0.16744E+07         0.00000E+00
    0.16744E+07        -0.49831E+08         0.00000E+00
    0.00000E+00         0.00000E+00        -0.47446E+08
 
   -0.46693E+08         0.17239E+07         0.00000E+00
    0.17239E+07        -0.49819E+08         0.00000E+00
    0.00000E+00         0.00000E+00        -0.47452E+08
 
   -0.46738E+08         0.17731E+07         0.00000E+00
    0.17731E+07        -0.49807E+08         0.00000E+00
    0.00000E+00         0.00000E+00        -0.47459E+08
 
   -0.46783E+08         0.18221E+07         0.00000E+00
    0.18221E+07        -0.49794E+08         0.00000E+00
    0.00000E+00         0.00000E+00        -0.47465E+08
 
   -0.46828E+08         0.18708E+07         0.00000E+00
    0.18708E+07        -0.49781E+08         0.00000E+00
    0.00000E+00         0.00000E+00        -0.47472E+08
 
   -0.46873E+08         0.19192E+07         0.00000E+00
    0.19192E+07        -0.49767E+08         0.00000E+00
    0.00000E+00         0.00000E+00        -0.47478E+08
 
   -0.46918E+08         0.19674E+07         0.00000E+00
    0.19674E+07        -0.49752E+08         0.00000E+00
    0.00000E+00         0.00000E+00        -0.47484E+08
 
   -0.46964E+08         0.20153E+07         0.00000E+00
    0.20153E+07        -0.49737E+08         0.00000E+00
    0.00000E+00         0.00000E+00        -0.47490E+08
 
   -0.47010E+08         0.20630E+07         0.00000E+00
    0.20630E+07        -0.49722E+08         0.00000E+00
    0.00000E+00         0.00000E+00        -0.47496E+08
 
   -0.47057E+08         0.21104E+07         0.00000E+00
    0.21104E+07        -0.49706E+08         0.00000E+00
    0.00000E+00         0.00000E+00        -0.47502E+08
 
   -0.47103E+08         0.21575E+07         0.00000E+00
    0.21575E+07        -0.49690E+08         0.00000E+00
    0.00000E+00         0.00000E+00        -0.47509E+08
 
   -0.47150E+08         0.22044E+07         0.00000E+00
    0.22044E+07        -0.49673E+08         0.00000E+00
    0.00000E+00         0.00000E+00        -0.47515E+08
 
   -0.47197E+08         0.22510E+07         0.00000E+00
    0.22510E+07        -0.49655E+08         0.00000E+00
    0.00000E+00         0.00000E+00        -0.47520E+08
 
   -0.47245E+08         0.22974E+07         0.00000E+00
    0.22974E+07        -0.49637E+08         0.00000E+00
    0.00000E+00         0.00000E+00        -0.47526E+08
 
   -0.47293E+08         0.23435E+07         0.00000E+00
    0.23435E+07        -0.49618E+08         0.00000E+00
    0.00000E+00         0.00000E+00        -0.47532E+08
 
   -0.47341E+08         0.23893E+07         0.00000E+00
    0.23893E+07        -0.49599E+08         0.00000E+00
    0.00000E+00         0.00000E+00        -0.47538E+08
 
   -0.47390E+08         0.24349E+07         0.00000E+00
    0.24349E+07        -0.49579E+08         0.00000E+00
    0.00000E+00         0.00000E+00        -0.47544E+08
 
   -0.47439E+08         0.24802E+07         0.00000E+00
    0.24802E+07        -0.49559E+08         0.00000E+00
    0.00000E+00         0.00000E+00        -0.47549E+08
 
   -0.47489E+08         0.25253E+07         0.00000E+00
    0.25253E+07        -0.49538E+08         0.00000E+00
    0.00000E+00         0.00000E+00        -0.47555E+08
 
   -0.47539E+08         0.25701E+07         0.00000E+00
    0.25701E+07        -0.49516E+08         0.00000E+00
    0.00000E+00         0.00000E+00        -0.47561E+08
 
   -0.45048E+08         0.31968E+05         0.00000E+00
    0.31968E+05        -0.50000E+08         0.00000E+00
    0.00000E+00         0.00000E+00        -0.46975E+08
 
   -0.45093E+08         0.94621E+05         0.00000E+00
    0.94621E+05        -0.49999E+08         0.00000E+00
    0.00000E+00         0.00000E+00        -0.46984E+08
 
   -0.45138E+08         0.15675E+06         0.00000E+00
    0.15675E+06        -0.49999E+08         0.00000E+00
    0.00000E+00         0.00000E+00        -0.46993E+08
 
   -0.45183E+08         0.21836E+06         0.00000E+00
    0.21836E+06        -0.49998E+08         0.00000E+00
    0.00000E+00         0.00000E+00        -0.47002E+08
 
   -0.45228E+08         0.27947E+06         0.00000E+00
    0.27947E+06        -0.49996E+08         0.00000E+00
    0.00000E+00         0.00000E+00        -0.47011E+08
 
   -0.45273E+08         0.34010E+06         0.00000E+00
    0.34010E+06        -0.49995E+08         0.00000E+00
    0.00000E+00         0.00000E+00        -0.47019E+08
 
   -0.45318E+08         0.40026E+06         0.00000E+00
    0.40026E+06        -0.49993E+08         0.00000E+00
    0.00000E+00         0.00000E+00        -0.47028E+08
 
   -0.45363E+08         0.45996E+06         0.00000E+00
    0.45996E+06        -0.49990E+08         0.00000E+00
    0.00000E+00         0.00000E+00        -0.47036E+08
 
   -0.45408E+08         0.51921E+06         0.00000E+00
    0.51921E+06        -0.49988E+08         0.00000E+00
    0.00000E+00         0.00000E+00        -0.47045E+08
 
   -0.45452E+08         0.57804E+06         0.00000E+00
    0.57804E+06        -0.49985E+08         0.00000E+00
    0.00000E+00         0.00000E+00        -0.47053E+08
 
   -0.45497E+08         0.63644E+06         0.00000E+00
    0.63644E+06        -0.49981E+08         0.00000E+00
    0.00000E+00         0.00000E+00        -0.47061E+08
 
   -0.45542E+08         0.69444E+06         0.00000E+00
    0.69444E+06        -0.49977E+08         0.00000E+00
    0.00000E+00         0.00000E+00        -0.47070E+08
 
   -0.45587E+08         0.75204E+06         0.00000E+00
    0.75204E+06        -0.49973E+08         0.00000E+00
    0.00000E+00         0.00000E+00        -0.47078E+08
 
   -0.45631E+08         0.80925E+06         0.00000E+00
    0.80925E+06        -0.49969E+08         0.00000E+00
    0.00000E+00         0.00000E+00        -0.47086E+08
 
   -0.45676E+08         0.86610E+06         0.00000E+00
    0.86610E+06        -0.49964E+08         0.00000E+00
    0.00000E+00         0.00000E+00        -0.47094E+08
 
   -0.45720E+08         0.92258E+06         0.00000E+00
    0.92258E+06        -0.49959E+08         0.00000E+00
    0.00000E+00         0.00000E+00        -0.47102E+08
 
   -0.45765E+08         0.97871E+06         0.00000E+00
    0.97871E+06        -0.49953E+08         0.00000E+00
    0.00000E+00         0.00000E+00        -0.47109E+08
 
   -0.45810E+08         0.10345E+07         0.00000E+00
    0.10345E+07        -0.49947E+08         0.00000E+00
    0.00000E+00         0.00000E+00        -0.47117E+08
 
   -0.45854E+08         0.10900E+07         0.00000E+00
    0.10900E+07        -0.49941E+08         0.00000E+00
    0.00000E+00         0.00000E+00        -0.47125E+08
 
   -0.45899E+08         0.11451E+07         0.00000E+00
    0.11451E+07        -0.49934E+08         0.00000E+00
    0.00000E+00         0.00000E+00        -0.47132E+08
 
   -0.45944E+08         0.11999E+07         0.00000E+00
    0.11999E+07        -0.49927E+08         0.00000E+00
    0.00000E+00         0.00000E+00        -0.47140E+08
 
   -0.45988E+08         0.12545E+07         0.00000E+00
    0.12545E+07        -0.49920E+08         0.00000E+00
    0.00000E+00         0.00000E+00        -0.47147E+08
 
   -0.46033E+08         0.13087E+07         0.00000E+00
    0.13087E+07        -0.49912E+08         0.00000E+00
    0.00000E+00         0.00000E+00        -0.47155E+08
 
   -0.46078E+08         0.13626E+07         0.00000E+00
    0.13626E+07        -0.49904E+08         0.00000E+00
    0.00000E+00         0.00000E+00        -0.47162E+08
 
   -0.46123E+08         0.14163E+07         0.00000E+00
    0.14163E+07        -0.49895E+08         0.00000E+00
    0.00000E+00         0.00000E+00        -0.47169E+08
 
   -0.46168E+08         0.14697E+07         0.00000E+00
    0.14697E+07        -0.49886E+08         0.00000E+00
    0.00000E+00         0.00000E+00        -0.47176E+08
 
   -0.46213E+08         0.15228E+07         0.00000E+00
    0.15228E+07        -0.49876E+08         0.00000E+00
    0.00000E+00         0.00000E+00        -0.47184E+08
 
   -0.46258E+08         0.15757E+07         0.00000E+00
    0.15757E+07        -0.49866E+08         0.00000E+00
    0.00000E+00         0.00000E+00        -0.47191E+08
 
   -0.46303E+08         0.16283E+07         0.00000E+00
    0.16283E+07        -0.49856E+08         0.00000E+00
    0.00000E+00         0.00000E+00        -0.47198E+08
 
   -0.46349E+08         0.16807E+07         0.00000E+00
    0.16807E+07        -0.49845E+08         0.00000E+00
    0.00000E+00         0.00000E+00        -0.47204E+08
 
   -0.46394E+08         0.17328E+07         0.00000E+00
    0.17328E+07        -0.49833E+08         0.00000E+00
    0.00000E+00         0.00000E+00        -0.47211E+08
 
   -0.46440E+08         0.17847E+07         0.00000E+00
    0.17847E+07        -0.49821E+08         0.00000E+00
    0.00000E+00         0.00000E+00        -0.47218E+08
 
   -0.46486E+08         0.18364E+07         0.00000E+00
    0.18364E+07        -0.49809E+08         0.00000E+00
    0.00000E+00         0.00000E+00        -0.47225E+08
 
   -0.46532E+08         0.18878E+07         0.00000E+00
    0.18878E+07        -0.49796E+08         0.00000E+00
    0.00000E+00         0.00000E+00        -0.47231E+08
 
   -0.46578E+08         0.19390E+07         0.00000E+00
    0.19390E+07        -0.49782E+08         0.00000E+00
    0.00000E+00         0.00000E+00        -0.47238E+08
 
   -0.46625E+08         0.19900E+07         0.00000E+00
    0.19900E+07        -0.49769E+08         0.00000E+00
    0.00000E+00         0.00000E+00        -0.47244E+08
 
   -0.46672E+08         0.20408E+07         0.00000E+00
    0.20408E+07        -0.49754E+08         0.00000E+00
    0.00000E+00         0.00000E+00        -0.47251E+08
 
   -0.46719E+08         0.20913E+07         0.00000E+00
    0.20913E+07        -0.49739E+08         0.00000E+00
    0.00000E+00         0.00000E+00        -0.47257E+08
 
   -0.46766E+08         0.21417E+07         0.00000E+00
    0.21417E+07        -0.49724E+08         0.00000E+00
    0.00000E+00         0.00000E+00        -0.47264E+08
 
   -0.46813E+08         0.21918E+07         0.00000E+00
    0.21918E+07        -0.49707E+08         0.00000E+00
    0.00000E+00         0.00000E+00        -0.47270E+08
 
   -0.46861E+08         0.22418E+07         0.00000E+00
    0.22418E+07        -0.49691E+08         0.00000E+00
    0.00000E+00         0.00000E+00        -0.47276E+08
 
   -0.46909E+08         0.22915E+07         0.00000E+00
    0.22915E+07        -0.49674E+08         0.00000E+00
    0.00000E+00         0.00000E+00        -0.47282E+08
 
   -0.46958E+08         0.23410E+07         0.00000E+00
    0.23410E+07        -0.49656E+08         0.00000E+00
    0.00000E+00         0.00000E+00        -0.47288E+08
 
   -0.47006E+08         0.23903E+07         0.00000E+00
    0.23903E+07        -0.49637E+08         0.00000E+00
    0.00000E+00         0.00000E+00        -0.47295E+08
 
   -0.47056E+08         0.24394E+07         0.00000E+00
    0.24394E+07        -0.49618E+08         0.00000E+00
    0.00000E+00         0.00000E+00        -0.47301E+08
 
   -0.47105E+08         0.24883E+07         0.00000E+00
    0.24883E+07        -0.49599E+08         0.00000E+00
    0.00000E+00         0.00000E+00        -0.47307E+08
 
   -0.47155E+08         0.25370E+07         0.00000E+00
    0.25370E+07        -0.49578E+08         0.00000E+00
    0.00000E+00         0.00000E+00        -0.47312E+08
 
   -0.47205E+08         0.25854E+07         0.00000E+00
    0.25854E+07        -0.49557E+08         0.00000E+00
    0.00000E+00         0.00000E+00        -0.47318E+08
 
   -0.47256E+08         0.26337E+07         0.00000E+00
    0.26337E+07        -0.49536E+08         0.00000E+00
    0.00000E+00         0.00000E+00        -0.47324E+08
 
   -0.47307E+08         0.26817E+07         0.00000E+00
    0.26817E+07        -0.49514E+08         0.00000E+00
    0.00000E+00         0.00000E+00        -0.47330E+08
 
   -0.44729E+08         0.32788E+05         0.00000E+00
    0.32788E+05        -0.50000E+08         0.00000E+00
    0.00000E+00         0.00000E+00        -0.46713E+08
 
   -0.44777E+08         0.97078E+05         0.00000E+00
    0.97078E+05        -0.49999E+08         0.00000E+00
    0.00000E+00         0.00000E+00        -0.46722E+08
 
   -0.44825E+08         0.16084E+06         0.00000E+00
    0.16084E+06        -0.49999E+08         0.00000E+00
    0.00000E+00         0.00000E+00        -0.46732E+08
 
   -0.44872E+08         0.22410E+06         0.00000E+00
    0.22410E+06        -0.49998E+08         0.00000E+00
    0.00000E+00         0.00000E+00        -0.46741E+08
 
   -0.44920E+08         0.28686E+06         0.00000E+00
    0.28686E+06        -0.49997E+08         0.00000E+00
    0.00000E+00         0.00000E+00        -0.46750E+08
 
   -0.44967E+08         0.34914E+06         0.00000E+00
    0.34914E+06        -0.49995E+08         0.00000E+00
    0.00000E+00         0.00000E+00        -0.46760E+08
 
   -0.45014E+08         0.41096E+06         0.00000E+00
    0.41096E+06        -0.49993E+08         0.00000E+00
    0.00000E+00         0.00000E+00        -0.46769E+08
 
   -0.45061E+08         0.47233E+06         0.00000E+00
    0.47233E+06        -0.49991E+08         0.00000E+00
    0.00000E+00         0.00000E+00        -0.46778E+08
 
   -0.45108E+08         0.53328E+06         0.00000E+00
    0.53328E+06        -0.49988E+08         0.00000E+00
    0.00000E+00         0.00000E+00        -0.46786E+08
 
   -0.45155E+08         0.59381E+06         0.00000E+00
    0.59381E+06        -0.49985E+08         0.00000E+00
    0.00000E+00         0.00000E+00        -0.46795E+08
 
   -0.45202E+08         0.65393E+06         0.00000E+00
    0.65393E+06        -0.49982E+08         0.00000E+00
    0.00000E+00         0.00000E+00        -0.46804E+08
 
   -0.45248E+08         0.71367E+06         0.00000E+00
    0.71367E+06        -0.49978E+08         0.00000E+00
    0.00000E+00         0.00000E+00        -0.46813E+08
 
   -0.45295E+08         0.77304E+06         0.00000E+00
    0.77304E+06        -0.49974E+08         0.00000E+00
    0.00000E+00         0.00000E+00        -0.46821E+08
 
   -0.45341E+08         0.83204E+06         0.00000E+00
    0.83204E+06        -0.49970E+08         0.00000E+00
    0.00000E+00         0.00000E+00        -0.46830E+08
 
   -0.45388E+08         0.89070E+06         0.00000E+00
    0.89070E+06        -0.49966E+08         0.00000E+00
    0.00000E+00         0.00000E+00        -0.46838E+08
 
   -0.45434E+08         0.94902E+06         0.00000E+00
    0.94902E+06        -0.49961E+08         0.00000E+00
    0.00000E+00         0.00000E+00        -0.46846E+08
 
   -0.45480E+08         0.10070E+07         0.00000E+00
    0.10070E+07        -0.49955E+08         0.00000E+00
    0.00000E+00         0.00000E+00        -0.46854E+08
 
   -0.45527E+08         0.10647E+07         0.00000E+00
    0.10647E+07        -0.49949E+08         0.00000E+00
    0.00000E+00         0.00000E+00        -0.46862E+08
 
   -0.45573E+08         0.11221E+07         0.00000E+00
    0.11221E+07        -0.49943E+08         0.00000E+00
    0.00000E+00         0.00000E+00        -0.46870E+08
 
   -0.45619E+08         0.11792E+07         0.00000E+00
    0.11792E+07        -0.49937E+08         0.00000E+00
    0.00000E+00         0.00000E+00        -0.46878E+08
 
   -0.45665E+08         0.12360E+07         0.00000E+00
    0.12360E+07        -0.49930E+08         0.00000E+00
    0.00000E+00         0.00000E+00        -0.46886E+08
 
   -0.45711E+08         0.12926E+07         0.00000E+00
    0.12926E+07        -0.49923E+08         0.00000E+00
    0.00000E+00         0.00000E+00        -0.46894E+08
 
   -0.45757E+08         0.13489E+07         0.00000E+00
    0.13489E+07        -0.49915E+08         0.00000E+00
    0.00000E+00         0.00000E+00        -0.46902E+08
 
   -0.45804E+08         0.14049E+07         0.00000E+00
    0.14049E+07        -0.49907E+08         0.00000E+00
    0.00000E+00         0.00000E+00        -0.46909E+08
 
   -0.45850E+08         0.14607E+07         0.00000E+00
    0.14607E+07        -0.49898E+08         0.00000E+00
    0.00000E+00         0.00000E+00        -0.46917E+08
 
   -0.45896E+08         0.15163E+07         0.00000E+00
    0.15163E+07        -0.49889E+08         0.00000E+00
    0.00000E+00         0.00000E+00        -0.46924E+08
 
   -0.45942E+08         0.15717E+07         0.00000E+00
    0.15717E+07        -0.49880E+08         0.00000E+00
    0.00000E+00         0.00000E+00        -0.46932E+08
 
   -0.45989E+08         0.16268E+07         0.00000E+00
    0.16268E+07        -0.49870E+08         0.00000E+00
    0.00000E+00         0.00000E+00        -0.46939E+08
 
   -0.46035E+08         0.16817E+07         0.00000E+00
    0.16817E+07        -0.49859E+08         0.00000E+00
    0.00000E+00         0.00000E+00        -0.46946E+08
 
   -0.46082E+08         0.17365E+07         0.00000E+00
    0.17365E+07        -0.49848E+08         0.00000E+00
    0.00000E+00         0.00000E+00        -0.46953E+08
 
   -0.46128E+08         0.17910E+07         0.00000E+00
    0.17910E+07        -0.49837E+08         0.00000E+00
    0.00000E+00         0.00000E+00        -0.46960E+08
 
   -0.46175E+08         0.18454E+07         0.00000E+00
    0.18454E+07        -0.49825E+08         0.00000E+00
    0.00000E+00         0.00000E+00        -0.46967E+08
 
   -0.46222E+08         0.18995E+07         0.00000E+00
    0.18995E+07        -0.49813E+08         0.00000E+00
    0.00000E+00         0.00000E+00        -0.46974E+08
 
   -0.46269E+08         0.19535E+07         0.00000E+00
    0.19535E+07        -0.49800E+08         0.00000E+00
    0.00000E+00         0.00000E+00        -0.46981E+08
 
   -0.46316E+08         0.20073E+07         0.00000E+00
    0.20073E+07        -0.49787E+08         0.00000E+00
    0.00000E+00         0.00000E+00        -0.46988E+08
 
   -0.46364E+08         0.20610E+07         0.00000E+00
    0.20610E+07        -0.49773E+08         0.00000E+00
    0.00000E+00         0.00000E+00        -0.46995E+08
 
   -0.46411E+08         0.21145E+07         0.00000E+00
    0.21145E+07        -0.49758E+08         0.00000E+00
    0.00000E+00         0.00000E+00        -0.47001E+08
 
   -0.46459E+08         0.21678E+07         0.00000E+00
    0.21678E+07        -0.49743E+08         0.00000E+00
    0.00000E+00         0.00000E+00        -0.47008E+08
 
   -0.46508E+08         0.22210E+07         0.00000E+00
    0.22210E+07        -0.49728E+08         0.00000E+00
    0.00000E+00         0.00000E+00        -0.47014E+08
 
   -0.46556E+08         0.22740E+07         0.00000E+00
    0.22740E+07        -0.49712E+08         0.00000E+00
    0.00000E+00         0.00000E+00        -0.47021E+08
 
   -0.46605E+08         0.23268E+07         0.00000E+00
    0.23268E+07        -0.49695E+08         0.00000E+00
    0.00000E+00         0.00000E+00        -0.47027E+08
 
   -0.46654E+08         0.23795E+07         0.00000E+00
    0.23795E+07        -0.49678E+08         0.00000E+00
    0.00000E+00         0.00000E+00        -0.47033E+08
 
   -0.46703E+08         0.24321E+07         0.00000E+00
    0.24321E+07        -0.49660E+08         0.00000E+00
    0.00000E+00         0.00000E+00        -0.47040E+08
 
   -0.46753E+08         0.24845E+07         0.00000E+00
    0.24845E+07        -0.49641E+08         0.00000E+00
    0.00000E+00         0.00000E+00        -0.47046E+08
 
   -0.46803E+08         0.25367E+07         0.00000E+00
    0.25367E+07        -0.49622E+08         0.00000E+00
    0.00000E+00         0.00000E+00        -0.47052E+08
 
   -0.46853E+08         0.25888E+07         0.00000E+00
    0.25888E+07        -0.49602E+08         0.00000E+00
    0.00000E+00         0.00000E+00        -0.47058E+08
 
   -0.46904E+08         0.26408E+07         0.00000E+00
    0.26408E+07        -0.49581E+08         0.00000E+00
    0.00000E+00         0.00000E+00        -0.47064E+08
 
   -0.46955E+08         0.26926E+07         0.00000E+00
    0.26926E+07        -0.49560E+08         0.00000E+00
    0.00000E+00         0.00000E+00        -0.47070E+08
 
   -0.47007E+08         0.27442E+07         0.00000E+00
    0.27442E+07        -0.49538E+08         0.00000E+00
    0.00000E+00         0.00000E+00        -0.47076E+08
 
   -0.47059E+08         0.27957E+07         0.00000E+00
    0.27957E+07        -0.49516E+08         0.00000E+00
    0.00000E+00         0.00000E+00        -0.47082E+08
 
   -0.44403E+08         0.33556E+05         0.00000E+00
    0.33556E+05        -0.50000E+08         0.00000E+00
    0.00000E+00         0.00000E+00        -0.46434E+08
 
   -0.44453E+08         0.99384E+05         0.00000E+00
    0.99384E+05        -0.49999E+08         0.00000E+00
    0.00000E+00         0.00000E+00        -0.46444E+08
 
   -0.44503E+08         0.16469E+06         0.00000E+00
    0.16469E+06        -0.49999E+08         0.00000E+00
    0.00000E+00         0.00000E+00        -0.46454E+08
 
   -0.44553E+08         0.22950E+06         0.00000E+00
    0.22950E+06        -0.49998E+08         0.00000E+00
    0.00000E+00         0.00000E+00        -0.46463E+08
 
   -0.44603E+08         0.29382E+06         0.00000E+00
    0.29382E+06        -0.49997E+08         0.00000E+00
    0.00000E+00         0.00000E+00        -0.46473E+08
 
   -0.44653E+08         0.35767E+06         0.00000E+00
    0.35767E+06        -0.49995E+08         0.00000E+00
    0.00000E+00         0.00000E+00        -0.46483E+08
 
   -0.44702E+08         0.42108E+06         0.00000E+00
    0.42108E+06        -0.49993E+08         0.00000E+00
    0.00000E+00         0.00000E+00        -0.46492E+08
 
   -0.44751E+08         0.48406E+06         0.00000E+00
    0.48406E+06        -0.49991E+08         0.00000E+00
    0.00000E+00         0.00000E+00        -0.46502E+08
 
   -0.44800E+08         0.54662E+06         0.00000E+00
    0.54662E+06        -0.49989E+08         0.00000E+00
    0.00000E+00         0.00000E+00        -0.46511E+08
 
   -0.44849E+08         0.60879E+06         0.00000E+00
    0.60879E+06        -0.49986E+08         0.00000E+00
    0.00000E+00         0.00000E+00        -0.46520E+08
 
   -0.44898E+08         0.67058E+06         0.00000E+00
    0.67058E+06        -0.49983E+08         0.00000E+00
    0.00000E+00         0.00000E+00        -0.46529E+08
 
   -0.44946E+08         0.73201E+06         0.00000E+00
    0.73201E+06        -0.49980E+08         0.00000E+00
    0.00000E+00         0.00000E+00        -0.46538E+08
 
   -0.44995E+08         0.79309E+06         0.00000E+00
    0.79309E+06        -0.49976E+08         0.00000E+00
    0.00000E+00         0.00000E+00        -0.46547E+08
 
   -0.45043E+08         0.85383E+06         0.00000E+00
    0.85383E+06        -0.49972E+08         0.00000E+00
    0.00000E+00         0.00000E+00        -0.46556E+08
 
   -0.45091E+08         0.91426E+06         0.00000E+00
    0.91426E+06        -0.49968E+08         0.00000E+00
    0.00000E+00         0.00000E+00        -0.46565E+08
 
   -0.45139E+08         0.97439E+06         0.00000E+00
    0.97439E+06        -0.49963E+08         0.00000E+00
    0.00000E+00         0.00000E+00        -0.46574E+08
 
   -0.45187E+08         0.10342E+07         0.00000E+00
    0.10342E+07        -0.49958E+08         0.00000E+00
    0.00000E+00         0.00000E+00        -0.46582E+08
 
   -0.45234E+08         0.10938E+07         0.00000E+00
    0.10938E+07        -0.49952E+08         0.00000E+00
    0.00000E+00         0.00000E+00        -0.46590E+08
 
   -0.45282E+08         0.11531E+07         0.00000E+00
    0.11531E+07        -0.49946E+08         0.00000E+00
    0.00000E+00         0.00000E+00        -0.46599E+08
 
   -0.45329E+08         0.12121E+07         0.00000E+00
    0.12121E+07        -0.49940E+08         0.00000E+00
    0.00000E+00         0.00000E+00        -0.46607E+08
 
   -0.45377E+08         0.12710E+07         0.00000E+00
    0.12710E+07        -0.49933E+08         0.00000E+00
    0.00000E+00         0.00000E+00        -0.46615E+08
 
   -0.45424E+08         0.13295E+07         0.00000E+00
    0.13295E+07        -0.49926E+08         0.00000E+00
    0.00000E+00         0.00000E+00        -0.46623E+08
 
   -0.45471E+08         0.13879E+07         0.00000E+00
    0.13879E+07        -0.49919E+08         0.00000E+00
    0.00000E+00         0.00000E+00        -0.46631E+08
 
   -0.45518E+08         0.14461E+07         0.00000E+00
    0.14461E+07        -0.49911E+08         0.00000E+00
    0.00000E+00         0.00000E+00        -0.46639E+08
 
   -0.45566E+08         0.15041E+07         0.00000E+00
    0.15041E+07        -0.49903E+08         0.00000E+00
    0.00000E+00         0.00000E+00        -0.46647E+08
 
   -0.45613E+08         0.15619E+07         0.00000E+00
    0.15619E+07        -0.49894E+08         0.00000E+00
    0.00000E+00         0.00000E+00        -0.46655E+08
 
   -0.45660E+08         0.16195E+07         0.00000E+00
    0.16195E+07        -0.49885E+08         0.00000E+00
    0.00000E+00         0.00000E+00        -0.46662E+08
 
   -0.45707E+08         0.16769E+07         0.00000E+00
    0.16769E+07        -0.49875E+08         0.00000E+00
    0.00000E+00         0.00000E+00        -0.46670E+08
 
   -0.45755E+08         0.17342E+07         0.00000E+00
    0.17342E+07        -0.49865E+08         0.00000E+00
    0.00000E+00         0.00000E+00        -0.46677E+08
 
   -0.45802E+08         0.17914E+07         0.00000E+00
    0.17914E+07        -0.49854E+08         0.00000E+00
    0.00000E+00         0.00000E+00        -0.46685E+08
 
   -0.45850E+08         0.18484E+07         0.00000E+00
    0.18484E+07        -0.49843E+08         0.00000E+00
    0.00000E+00         0.00000E+00        -0.46692E+08
 
   -0.45897E+08         0.19053E+07         0.00000E+00
    0.19053E+07        -0.49832E+08         0.00000E+00
    0.00000E+00         0.00000E+00        -0.46699E+08
 
   -0.45945E+08         0.19620E+07         0.00000E+00
    0.19620E+07        -0.49820E+08         0.00000E+00
    0.00000E+00         0.00000E+00        -0.46706E+08
 
   -0.45993E+08         0.20187E+07         0.00000E+00
    0.20187E+07        -0.49807E+08         0.00000E+00
    0.00000E+00         0.00000E+00        -0.46713E+08
 
   -0.46041E+08         0.20752E+07         0.00000E+00
    0.20752E+07        -0.49794E+08         0.00000E+00
    0.00000E+00         0.00000E+00        -0.46720E+08
 
   -0.46089E+08         0.21316E+07         0.00000E+00
    0.21316E+07        -0.49780E+08         0.00000E+00
    0.00000E+00         0.00000E+00        -0.46727E+08
 
   -0.46137E+08         0.21879E+07         0.00000E+00
    0.21879E+07        -0.49766E+08         0.00000E+00
    0.00000E+00         0.00000E+00        -0.46734E+08
 
   -0.46186E+08         0.22441E+07         0.00000E+00
    0.22441E+07        -0.49751E+08         0.00000E+00
    0.00000E+00         0.00000E+00        -0.46741E+08
 
   -0.46235E+08         0.23002E+07         0.00000E+00
    0.23002E+07        -0.49735E+08         0.00000E+00
    0.00000E+00         0.00000E+00        -0.46747E+08
 
   -0.46284E+08         0.23562E+07         0.00000E+00
    0.23562E+07        -0.49719E+08         0.00000E+00
    0.00000E+00         0.00000E+00        -0.46754E+08
 
   -0.46333E+08         0.24121E+07         0.00000E+00
    0.24121E+07        -0.49703E+08         0.00000E+00
    0.00000E+00         0.00000E+00        -0.46760E+08
 
   -0.46383E+08         0.24679E+07         0.00000E+00
    0.24679E+07        -0.49685E+08         0.00000E+00
    0.00000E+00         0.00000E+00        -0.46767E+08
 
   -0.46433E+08         0.25236E+07         0.00000E+00
    0.25236E+07        -0.49667E+08         0.00000E+00
    0.00000E+00         0.00000E+00        -0.46773E+08
 
   -0.46483E+08         0.25793E+07         0.00000E+00
    0.25793E+07        -0.49649E+08         0.00000E+00
    0.00000E+00         0.00000E+00        -0.46780E+08
 
   -0.46534E+08         0.26348E+07         0.00000E+00
    0.26348E+07        -0.49629E+08         0.00000E+00
    0.00000E+00         0.00000E+00        -0.46786E+08
 
   -0.46585E+08         0.26903E+07         0.00000E+00
    0.26903E+07        -0.49609E+08         0.00000E+00
    0.00000E+00         0.00000E+00        -0.46792E+08
 
   -0.46636E+08         0.27457E+07         0.00000E+00
    0.27457E+07        -0.49589E+08         0.00000E+00
    0.00000E+00         0.00000E+00        -0.46798E+08
 
   -0.46688E+08         0.28010E+07         0.00000E+00
    0.28010E+07        -0.49567E+08         0.00000E+00
    0.00000E+00         0.00000E+00        -0.46804E+08
 
   -0.46740E+08         0.28562E+07         0.00000E+00
    0.28562E+07        -0.49545E+08         0.00000E+00
    0.00000E+00         0.00000E+00        -0.46810E+08
 
   -0.46793E+08         0.29113E+07         0.00000E+00
    0.29113E+07        -0.49522E+08         0.00000E+00
    0.00000E+00         0.00000E+00        -0.46816E+08
 
   -0.44068E+08         0.34254E+05         0.00000E+00
    0.34254E+05        -0.50000E+08         0.00000E+00
    0.00000E+00         0.00000E+00        -0.46137E+08
 
   -0.44122E+08         0.10149E+06         0.00000E+00
    0.10149E+06        -0.49999E+08         0.00000E+00
    0.00000E+00         0.00000E+00        -0.46147E+08
 
   -0.44174E+08         0.16822E+06         0.00000E+00
    0.16822E+06        -0.49999E+08         0.00000E+00
    0.00000E+00         0.00000E+00        -0.46158E+08
 
   -0.44227E+08         0.23446E+06         0.00000E+00
    0.23446E+06        -0.49998E+08         0.00000E+00
    0.00000E+00         0.00000E+00        -0.46168E+08
 
   -0.44279E+08         0.30022E+06         0.00000E+00
    0.30022E+06        -0.49997E+08         0.00000E+00
    0.00000E+00         0.00000E+00        -0.46178E+08
 
   -0.44331E+08         0.36554E+06         0.00000E+00
    0.36554E+06        -0.49996E+08         0.00000E+00
    0.00000E+00         0.00000E+00        -0.46188E+08
 
   -0.44382E+08         0.43043E+06         0.00000E+00
    0.43043E+06        -0.49994E+08         0.00000E+00
    0.00000E+00         0.00000E+00        -0.46198E+08
 
   -0.44434E+08         0.49491E+06         0.00000E+00
    0.49491E+06        -0.49992E+08         0.00000E+00
    0.00000E+00         0.00000E+00        -0.46208E+08
 
   -0.44485E+08         0.55900E+06         0.00000E+00
    0.55900E+06        -0.49990E+08         0.00000E+00
    0.00000E+00         0.00000E+00        -0.46218E+08
 
   -0.44535E+08         0.62272E+06         0.00000E+00
    0.62272E+06        -0.49987E+08         0.00000E+00
    0.00000E+00         0.00000E+00        -0.46227E+08
 
   -0.44586E+08         0.68609E+06         0.00000E+00
    0.68609E+06        -0.49985E+08         0.00000E+00
    0.00000E+00         0.00000E+00        -0.46237E+08
 
   -0.44636E+08         0.74913E+06         0.00000E+00
    0.74913E+06        -0.49981E+08         0.00000E+00
    0.00000E+00         0.00000E+00        -0.46246E+08
 
   -0.44686E+08         0.81185E+06         0.00000E+00
    0.81185E+06        -0.49978E+08         0.00000E+00
    0.00000E+00         0.00000E+00        -0.46256E+08
 
   -0.44736E+08         0.87427E+06         0.00000E+00
    0.87427E+06        -0.49974E+08         0.00000E+00
    0.00000E+00         0.00000E+00        -0.46265E+08
 
   -0.44785E+08         0.93642E+06         0.00000E+00
    0.93642E+06        -0.49970E+08         0.00000E+00
    0.00000E+00         0.00000E+00        -0.46274E+08
 
   -0.44834E+08         0.99830E+06         0.00000E+00
    0.99830E+06        -0.49966E+08         0.00000E+00
    0.00000E+00         0.00000E+00        -0.46283E+08
 
   -0.44883E+08         0.10599E+07         0.00000E+00
    0.10599E+07        -0.49961E+08         0.00000E+00
    0.00000E+00         0.00000E+00        -0.46292E+08
 
   -0.44932E+08         0.11213E+07         0.00000E+00
    0.11213E+07        -0.49956E+08         0.00000E+00
    0.00000E+00         0.00000E+00        -0.46301E+08
 
   -0.44981E+08         0.11825E+07         0.00000E+00
    0.11825E+07        -0.49950E+08         0.00000E+00
    0.00000E+00         0.00000E+00        -0.46309E+08
 
   -0.45030E+08         0.12435E+07         0.00000E+00
    0.12435E+07        -0.49944E+08         0.00000E+00
    0.00000E+00         0.00000E+00        -0.46318E+08
 
   -0.45078E+08         0.13043E+07         0.00000E+00
    0.13043E+07        -0.49938E+08         0.00000E+00
    0.00000E+00         0.00000E+00        -0.46326E+08
 
   -0.45126E+08         0.13649E+07         0.00000E+00
    0.13649E+07        -0.49932E+08         0.00000E+00
    0.00000E+00         0.00000E+00        -0.46334E+08
 
   -0.45175E+08         0.14253E+07         0.00000E+00
    0.14253E+07        -0.49924E+08         0.00000E+00
    0.00000E+00         0.00000E+00        -0.46343E+08
 
   -0.45223E+08         0.14856E+07         0.00000E+00
    0.14856E+07        -0.49917E+08         0.00000E+00
    0.00000E+00         0.00000E+00        -0.46351E+08
 
   -0.45271E+08         0.15458E+07         0.00000E+00
    0.15458E+07        -0.49909E+08         0.00000E+00
    0.00000E+00         0.00000E+00        -0.46359E+08
 
   -0.45319E+08         0.16058E+07         0.00000E+00
    0.16058E+07        -0.49901E+08         0.00000E+00
    0.00000E+00         0.00000E+00        -0.46367E+08
 
   -0.45367E+08         0.16657E+07         0.00000E+00
    0.16657E+07        -0.49892E+08         0.00000E+00
    0.00000E+00         0.00000E+00        -0.46375E+08
 
   -0.45415E+08         0.17255E+07         0.00000E+00
    0.17255E+07        -0.49883E+08         0.00000E+00
    0.00000E+00         0.00000E+00        -0.46382E+08
 
   -0.45463E+08         0.17852E+07         0.00000E+00
    0.17852E+07        -0.49873E+08         0.00000E+00
    0.00000E+00         0.00000E+00        -0.46390E+08
 
   -0.45511E+08         0.18448E+07         0.00000E+00
    0.18448E+07        -0.49863E+08         0.00000E+00
    0.00000E+00         0.00000E+00        -0.46398E+08
 
   -0.45559E+08         0.19043E+07         0.00000E+00
    0.19043E+07        -0.49852E+08         0.00000E+00
    0.00000E+00         0.00000E+00        -0.46405E+08
 
   -0.45607E+08         0.19638E+07         0.00000E+00
    0.19638E+07        -0.49841E+08         0.00000E+00
    0.00000E+00         0.00000E+00        -0.46412E+08
 
   -0.45655E+08         0.20232E+07         0.00000E+00
    0.20232E+07        -0.49829E+08         0.00000E+00
    0.00000E+00         0.00000E+00        -0.46420E+08
 
   -0.45703E+08         0.20825E+07         0.00000E+00
    0.20825E+07        -0.49817E+08         0.00000E+00
    0.00000E+00         0.00000E+00        -0.46427E+08
 
   -0.45751E+08         0.21418E+07         0.00000E+00
    0.21418E+07        -0.49804E+08         0.00000E+00
    0.00000E+00         0.00000E+00        -0.46434E+08
 
   -0.45800E+08         0.22011E+07         0.00000E+00
    0.22011E+07        -0.49790E+08         0.00000E+00
    0.00000E+00         0.00000E+00        -0.46441E+08
 
   -0.45849E+08         0.22603E+07         0.00000E+00
    0.22603E+07        -0.49776E+08         0.00000E+00
    0.00000E+00         0.00000E+00        -0.46448E+08
 
   -0.45898E+08         0.23194E+07         0.00000E+00
    0.23194E+07        -0.49762E+08         0.00000E+00
    0.00000E+00         0.00000E+00        -0.46455E+08
 
   -0.45947E+08         0.23786E+07         0.00000E+00
    0.23786E+07        -0.49746E+08         0.00000E+00
    0.00000E+00         0.00000E+00        -0.46462E+08
 
   -0.45996E+08         0.24377E+07         0.00000E+00
    0.24377E+07        -0.49731E+08         0.00000E+00
    0.00000E+00         0.00000E+00        -0.46468E+08
 
   -0.46046E+08         0.24968E+07         0.00000E+00
    0.24968E+07        -0.49714E+08         0.00000E+00
    0.00000E+00         0.00000E+00        -0.46475E+08
 
   -0.46096E+08         0.25559E+07         0.00000E+00
    0.25559E+07        -0.49697E+08         0.00000E+00
    0.00000E+00         0.00000E+00        -0.46481E+08
 
   -0.46146E+08         0.26149E+07         0.00000E+00
    0.26149E+07        -0.49679E+08         0.00000E+00
    0.00000E+00         0.00000E+00        -0.46488E+08
 
   -0.46196E+08         0.26740E+07         0.00000E+00
    0.26740E+07        -0.49661E+08         0.00000E+00
    0.00000E+00         0.00000E+00        -0.46494E+08
 
   -0.46247E+08         0.27330E+07         0.00000E+00
    0.27330E+07        -0.49641E+08         0.00000E+00
    0.00000E+00         0.00000E+00        -0.46501E+08
 
   -0.46298E+08         0.27920E+07         0.00000E+00
    0.27920E+07        -0.49621E+08         0.00000E+00
    0.00000E+00         0.00000E+00        -0.46507E+08
 
   -0.46350E+08         0.28510E+07         0.00000E+00
    0.28510E+07        -0.49601E+08         0.00000E+00
    0.00000E+00         0.00000E+00        -0.46513E+08
 
   -0.46402E+08         0.29100E+07         0.00000E+00
    0.29100E+07        -0.49579E+08         0.00000E+00
    0.00000E+00         0.00000E+00        -0.46519E+08
 
   -0.46455E+08         0.29690E+07         0.00000E+00
    0.29690E+07        -0.49557E+08         0.00000E+00
    0.00000E+00         0.00000E+00        -0.46525E+08
 
   -0.46508E+08         0.30279E+07         0.00000E+00
    0.30279E+07        -0.49534E+08         0.00000E+00
    0.00000E+00         0.00000E+00        -0.46531E+08
 
   -0.43728E+08         0.34867E+05         0.00000E+00
    0.34867E+05        -0.50000E+08         0.00000E+00
    0.00000E+00         0.00000E+00        -0.45821E+08
 
   -0.43783E+08         0.10335E+06         0.00000E+00
    0.10335E+06        -0.49999E+08         0.00000E+00
    0.00000E+00         0.00000E+00        -0.45832E+08
 
   -0.43839E+08         0.17134E+06         0.00000E+00
    0.17134E+06        -0.49999E+08         0.00000E+00
    0.00000E+00         0.00000E+00        -0.45843E+08
 
   -0.43894E+08         0.23886E+06         0.00000E+00
    0.23886E+06        -0.49998E+08         0.00000E+00
    0.00000E+00         0.00000E+00        -0.45854E+08
 
   -0.43948E+08         0.30592E+06         0.00000E+00
    0.30592E+06        -0.49997E+08         0.00000E+00
    0.00000E+00         0.00000E+00        -0.45864E+08
 
   -0.44002E+08         0.37256E+06         0.00000E+00
    0.37256E+06        -0.49996E+08         0.00000E+00
    0.00000E+00         0.00000E+00        -0.45875E+08
 
   -0.44056E+08         0.43879E+06         0.00000E+00
    0.43879E+06        -0.49995E+08         0.00000E+00
    0.00000E+00         0.00000E+00        -0.45885E+08
 
   -0.44109E+08         0.50465E+06         0.00000E+00
    0.50465E+06        -0.49993E+08         0.00000E+00
    0.00000E+00         0.00000E+00        -0.45896E+08
 
   -0.44162E+08         0.57014E+06         0.00000E+00
    0.57014E+06        -0.49991E+08         0.00000E+00
    0.00000E+00         0.00000E+00        -0.45906E+08
 
   -0.44214E+08         0.63529E+06         0.00000E+00
    0.63529E+06        -0.49989E+08         0.00000E+00
    0.00000E+00         0.00000E+00        -0.45916E+08
 
   -0.44266E+08         0.70013E+06         0.00000E+00
    0.70013E+06        -0.49986E+08         0.00000E+00
    0.00000E+00         0.00000E+00        -0.45926E+08
 
   -0.44318E+08         0.76468E+06         0.00000E+00
    0.76468E+06        -0.49984E+08         0.00000E+00
    0.00000E+00         0.00000E+00        -0.45936E+08
 
   -0.44369E+08         0.82895E+06         0.00000E+00
    0.82895E+06        -0.49980E+08         0.00000E+00
    0.00000E+00         0.00000E+00        -0.45945E+08
 
   -0.44420E+08         0.89296E+06         0.00000E+00
    0.89296E+06        -0.49977E+08         0.00000E+00
    0.00000E+00         0.00000E+00        -0.45955E+08
 
   -0.44471E+08         0.95673E+06         0.00000E+00
    0.95673E+06        -0.49973E+08         0.00000E+00
    0.00000E+00         0.00000E+00        -0.45964E+08
 
   -0.44521E+08         0.10203E+07         0.00000E+00
    0.10203E+07        -0.49969E+08         0.00000E+00
    0.00000E+00         0.00000E+00        -0.45974E+08
 
   -0.44571E+08         0.10836E+07         0.00000E+00
    0.10836E+07        -0.49965E+08         0.00000E+00
    0.00000E+00         0.00000E+00        -0.45983E+08
 
   -0.44621E+08         0.11468E+07         0.00000E+00
    0.11468E+07        -0.49960E+08         0.00000E+00
    0.00000E+00         0.00000E+00        -0.45992E+08
 
   -0.44671E+08         0.12098E+07         0.00000E+00
    0.12098E+07        -0.49955E+08         0.00000E+00
    0.00000E+00         0.00000E+00        -0.46001E+08
 
   -0.44720E+08         0.12727E+07         0.00000E+00
    0.12727E+07        -0.49950E+08         0.00000E+00
    0.00000E+00         0.00000E+00        -0.46009E+08
 
   -0.44770E+08         0.13354E+07         0.00000E+00
    0.13354E+07        -0.49944E+08         0.00000E+00
    0.00000E+00         0.00000E+00        -0.46018E+08
 
   -0.44819E+08         0.13980E+07         0.00000E+00
    0.13980E+07        -0.49938E+08         0.00000E+00
    0.00000E+00         0.00000E+00        -0.46027E+08
 
   -0.44867E+08         0.14605E+07         0.00000E+00
    0.14605E+07        -0.49932E+08         0.00000E+00
    0.00000E+00         0.00000E+00        -0.46035E+08
 
   -0.44916E+08         0.15229E+07         0.00000E+00
    0.15229E+07        -0.49925E+08         0.00000E+00
    0.00000E+00         0.00000E+00        -0.46044E+08
 
   -0.44965E+08         0.15852E+07         0.00000E+00
    0.15852E+07        -0.49917E+08         0.00000E+00
    0.00000E+00         0.00000E+00        -0.46052E+08
 
   -0.45013E+08         0.16474E+07         0.00000E+00
    0.16474E+07        -0.49909E+08         0.00000E+00
    0.00000E+00         0.00000E+00        -0.46060E+08
 
   -0.45062E+08         0.17096E+07         0.00000E+00
    0.17096E+07        -0.49901E+08         0.00000E+00
    0.00000E+00         0.00000E+00        -0.46068E+08
 
   -0.45110E+08         0.17718E+07         0.00000E+00
    0.17718E+07        -0.49892E+08         0.00000E+00
    0.00000E+00         0.00000E+00        -0.46076E+08
 
   -0.45158E+08         0.18339E+07         0.00000E+00
    0.18339E+07        -0.49883E+08         0.00000E+00
    0.00000E+00         0.00000E+00        -0.46084E+08
 
   -0.45206E+08         0.18960E+07         0.00000E+00
    0.18960E+07        -0.49873E+08         0.00000E+00
    0.00000E+00         0.00000E+00        -0.46091E+08
 
   -0.45255E+08         0.19581E+07         0.00000E+00
    0.19581E+07        -0.49863E+08         0.00000E+00
    0.00000E+00         0.00000E+00        -0.46099E+08
 
   -0.45303E+08         0.20202E+07         0.00000E+00
    0.20202E+07        -0.49852E+08         0.00000E+00
    0.00000E+00         0.00000E+00        -0.46106E+08
 
   -0.45351E+08         0.20823E+07         0.00000E+00
    0.20823E+07        -0.49841E+08         0.00000E+00
    0.00000E+00         0.00000E+00        -0.46114E+08
 
   -0.45399E+08         0.21444E+07         0.00000E+00
    0.21444E+07        -0.49829E+08         0.00000E+00
    0.00000E+00         0.00000E+00        -0.46121E+08
 
   -0.45448E+08         0.22065E+07         0.00000E+00
    0.22065E+07        -0.49817E+08         0.00000E+00
    0.00000E+00         0.00000E+00        -0.46128E+08
 
   -0.45497E+08         0.22687E+07         0.00000E+00
    0.22687E+07        -0.49804E+08         0.00000E+00
    0.00000E+00         0.00000E+00        -0.46135E+08
 
   -0.45545E+08         0.23309E+07         0.00000E+00
    0.23309E+07        -0.49790E+08         0.00000E+00
    0.00000E+00         0.00000E+00        -0.46142E+08
 
   -0.45594E+08         0.23931E+07         0.00000E+00
    0.23931E+07        -0.49776E+08         0.00000E+00
    0.00000E+00         0.00000E+00        -0.46149E+08
 
   -0.45643E+08         0.24554E+07         0.00000E+00
    0.24554E+07        -0.49761E+08         0.00000E+00
    0.00000E+00         0.00000E+00        -0.46156E+08
 
   -0.45692E+08         0.25178E+07         0.00000E+00
    0.25178E+07        -0.49746E+08         0.00000E+00
    0.00000E+00         0.00000E+00        -0.46163E+08
 
   -0.45742E+08         0.25801E+07         0.00000E+00
    0.25801E+07        -0.49730E+08         0.00000E+00
    0.00000E+00         0.00000E+00        -0.46170E+08
 
   -0.45792E+08         0.26426E+07         0.00000E+00
    0.26426E+07        -0.49713E+08         0.00000E+00
    0.00000E+00         0.00000E+00        -0.46176E+08
 
   -0.45842E+08         0.27051E+07         0.00000E+00
    0.27051E+07        -0.49695E+08         0.00000E+00
    0.00000E+00         0.00000E+00        -0.46183E+08
 
   -0.45892E+08         0.27677E+07         0.00000E+00
    0.27677E+07        -0.49677E+08         0.00000E+00
    0.00000E+00         0.00000E+00        -0.46189E+08
 
   -0.45943E+08         0.28303E+07         0.00000E+00
    0.28303E+07        -0.49658E+08         0.00000E+00
    0.00000E+00         0.00000E+00        -0.46196E+08
 
   -0.45994E+08         0.28930E+07         0.00000E+00
    0.28930E+07        -0.49639E+08         0.00000E+00
    0.00000E+00         0.00000E+00        -0.46202E+08
 
   -0.46046E+08         0.29558E+07         0.00000E+00
    0.29558E+07        -0.49618E+08         0.00000E+00
    0.00000E+00         0.00000E+00        -0.46208E+08
 
   -0.46097E+08         0.30187E+07         0.00000E+00
    0.30187E+07        -0.49597E+08         0.00000E+00
    0.00000E+00         0.00000E+00        -0.46214E+08
 
   -0.46150E+08         0.30816E+07         0.00000E+00
    0.30816E+07        -0.49575E+08         0.00000E+00
    0.00000E+00         0.00000E+00        -0.46220E+08
 
   -0.46203E+08         0.31446E+07         0.00000E+00
    0.31446E+07        -0.49552E+08         0.00000E+00
    0.00000E+00         0.00000E+00        -0.46226E+08
 
   -0.43381E+08         0.35373E+05         0.00000E+00
    0.35373E+05        -0.50000E+08         0.00000E+00
    0.00000E+00         0.00000E+00        -0.45486E+08
 
   -0.43440E+08         0.10491E+06         0.00000E+00
    0.10491E+06        -0.49999E+08         0.00000E+00
    0.00000E+00         0.00000E+00        -0.45497E+08
 
   -0.43497E+08         0.17397E+06         0.00000E+00
    0.17397E+06        -0.49999E+08         0.00000E+00
    0.00000E+00         0.00000E+00        -0.45509E+08
 
   -0.43554E+08         0.24257E+06         0.00000E+00
    0.24257E+06        -0.49998E+08         0.00000E+00
    0.00000E+00         0.00000E+00        -0.45520E+08
 
   -0.43611E+08         0.31075E+06         0.00000E+00
    0.31075E+06        -0.49998E+08         0.00000E+00
    0.00000E+00         0.00000E+00        -0.45531E+08
 
   -0.43667E+08         0.37854E+06         0.00000E+00
    0.37854E+06        -0.49997E+08         0.00000E+00
    0.00000E+00         0.00000E+00        -0.45542E+08
 
   -0.43722E+08         0.44595E+06         0.00000E+00
    0.44595E+06        -0.49996E+08         0.00000E+00
    0.00000E+00         0.00000E+00        -0.45553E+08
 
   -0.43777E+08         0.51301E+06         0.00000E+00
    0.51301E+06        -0.49994E+08         0.00000E+00
    0.00000E+00         0.00000E+00        -0.45564E+08
 
   -0.43832E+08         0.57975E+06         0.00000E+00
    0.57975E+06        -0.49993E+08         0.00000E+00
    0.00000E+00         0.00000E+00        -0.45575E+08
 
   -0.43886E+08         0.64619E+06         0.00000E+00
    0.64619E+06        -0.49991E+08         0.00000E+00
    0.00000E+00         0.00000E+00        -0.45585E+08
 
   -0.43939E+08         0.71236E+06         0.00000E+00
    0.71236E+06        -0.49989E+08         0.00000E+00
    0.00000E+00         0.00000E+00        -0.45595E+08
 
   -0.43992E+08         0.77827E+06         0.00000E+00
    0.77827E+06        -0.49986E+08         0.00000E+00
    0.00000E+00         0.00000E+00        -0.45605E+08
 
   -0.44045E+08         0.84396E+06         0.00000E+00
    0.84396E+06        -0.49984E+08         0.00000E+00
    0.00000E+00         0.00000E+00        -0.45615E+08
 
   -0.44097E+08         0.90944E+06         0.00000E+00
    0.90944E+06        -0.49981E+08         0.00000E+00
    0.00000E+00         0.00000E+00        -0.45625E+08
 
   -0.44149E+08         0.97474E+06         0.00000E+00
    0.97474E+06        -0.49977E+08         0.00000E+00
    0.00000E+00         0.00000E+00        -0.45635E+08
 
   -0.44200E+08         0.10399E+07         0.00000E+00
    0.10399E+07        -0.49974E+08         0.00000E+00
    0.00000E+00         0.00000E+00        -0.45644E+08
 
   -0.44251E+08         0.11048E+07         0.00000E+00
    0.11048E+07        -0.49970E+08         0.00000E+00
    0.00000E+00         0.00000E+00        -0.45654E+08
 
   -0.44302E+08         0.11697E+07         0.00000E+00
    0.11697E+07        -0.49966E+08         0.00000E+00
    0.00000E+00         0.00000E+00        -0.45663E+08
 
   -0.44352E+08         0.12345E+07         0.00000E+00
    0.12345E+07        -0.49962E+08         0.00000E+00
    0.00000E+00         0.00000E+00        -0.45672E+08
 
   -0.44402E+08         0.12991E+07         0.00000E+00
    0.12991E+07        -0.49957E+08         0.00000E+00
    0.00000E+00         0.00000E+00        -0.45681E+08
 
   -0.44452E+08         0.13637E+07         0.00000E+00
    0.13637E+07        -0.49952E+08         0.00000E+00
    0.00000E+00         0.00000E+00        -0.45690E+08
 
   -0.44501E+08         0.14282E+07         0.00000E+00
    0.14282E+07        -0.49946E+08         0.00000E+00
    0.00000E+00         0.00000E+00        -0.45699E+08
 
   -0.44550E+08         0.14927E+07         0.00000E+00
    0.14927E+07        -0.49940E+08         0.00000E+00
    0.00000E+00         0.00000E+00        -0.45708E+08
 
   -0.44599E+08         0.15572E+07         0.00000E+00
    0.15572E+07        -0.49934E+08         0.00000E+00
    0.00000E+00         0.00000E+00        -0.45716E+08
 
   -0.44648E+08         0.16216E+07         0.00000E+00
    0.16216E+07        -0.49927E+08         0.00000E+00
    0.00000E+00         0.00000E+00        -0.45725E+08
 
   -0.44696E+08         0.16861E+07         0.00000E+00
    0.16861E+07        -0.49920E+08         0.00000E+00
    0.00000E+00         0.00000E+00        -0.45733E+08
 
   -0.44745E+08         0.17506E+07         0.00000E+00
    0.17506E+07        -0.49913E+08         0.00000E+00
    0.00000E+00         0.00000E+00        -0.45741E+08
 
   -0.44793E+08         0.18151E+07         0.00000E+00
    0.18151E+07        -0.49904E+08         0.00000E+00
    0.00000E+00         0.00000E+00        -0.45749E+08
 
   -0.44841E+08         0.18797E+07         0.00000E+00
    0.18797E+07        -0.49896E+08         0.00000E+00
    0.00000E+00         0.00000E+00        -0.45757E+08
 
   -0.44889E+08         0.19443E+07         0.00000E+00
    0.19443E+07        -0.49887E+08         0.00000E+00
    0.00000E+00         0.00000E+00        -0.45765E+08
 
   -0.44938E+08         0.20089E+07         0.00000E+00
    0.20089E+07        -0.49877E+08         0.00000E+00
    0.00000E+00         0.00000E+00        -0.45773E+08
 
   -0.44986E+08         0.20737E+07         0.00000E+00
    0.20737E+07        -0.49867E+08         0.00000E+00
    0.00000E+00         0.00000E+00        -0.45780E+08
 
   -0.45034E+08         0.21385E+07         0.00000E+00
    0.21385E+07        -0.49857E+08         0.00000E+00
    0.00000E+00         0.00000E+00        -0.45788E+08
 
   -0.45082E+08         0.22035E+07         0.00000E+00
    0.22035E+07        -0.49845E+08         0.00000E+00
    0.00000E+00         0.00000E+00        -0.45795E+08
 
   -0.45130E+08         0.22685E+07         0.00000E+00
    0.22685E+07        -0.49834E+08         0.00000E+00
    0.00000E+00         0.00000E+00        -0.45802E+08
 
   -0.45178E+08         0.23336E+07         0.00000E+00
    0.23336E+07        -0.49821E+08         0.00000E+00
    0.00000E+00         0.00000E+00        -0.45810E+08
 
   -0.45226E+08         0.23989E+07         0.00000E+00
    0.23989E+07        -0.49808E+08         0.00000E+00
    0.00000E+00         0.00000E+00        -0.45817E+08
 
   -0.45275E+08         0.24643E+07         0.00000E+00
    0.24643E+07        -0.49795E+08         0.00000E+00
    0.00000E+00         0.00000E+00        -0.45824E+08
 
   -0.45323E+08         0.25298E+07         0.00000E+00
    0.25298E+07        -0.49781E+08         0.00000E+00
    0.00000E+00         0.00000E+00        -0.45830E+08
 
   -0.45372E+08         0.25955E+07         0.00000E+00
    0.25955E+07        -0.49766E+08         0.00000E+00
    0.00000E+00         0.00000E+00        -0.45837E+08
 
   -0.45421E+08         0.26613E+07         0.00000E+00
    0.26613E+07        -0.49750E+08         0.00000E+00
    0.00000E+00         0.00000E+00        -0.45844E+08
 
   -0.45470E+08         0.27272E+07         0.00000E+00
    0.27272E+07        -0.49734E+08         0.00000E+00
    0.00000E+00         0.00000E+00        -0.45851E+08
 
   -0.45520E+08         0.27933E+07         0.00000E+00
    0.27933E+07        -0.49717E+08         0.00000E+00
    0.00000E+00         0.00000E+00        -0.45857E+08
 
   -0.45570E+08         0.28596E+07         0.00000E+00
    0.28596E+07        -0.49699E+08         0.00000E+00
    0.00000E+00         0.00000E+00        -0.45863E+08
 
   -0.45620E+08         0.29260E+07         0.00000E+00
    0.29260E+07        -0.49681E+08         0.00000E+00
    0.00000E+00         0.00000E+00        -0.45870E+08
 
   -0.45671E+08         0.29925E+07         0.00000E+00
    0.29925E+07        -0.49661E+08         0.00000E+00
    0.00000E+00         0.00000E+00        -0.45876E+08
 
   -0.45722E+08         0.30592E+07         0.00000E+00
    0.30592E+07        -0.49641E+08         0.00000E+00
    0.00000E+00         0.00000E+00        -0.45882E+08
 
   -0.45773E+08         0.31261E+07         0.00000E+00
    0.31261E+07        -0.49620E+08         0.00000E+00
    0.00000E+00         0.00000E+00        -0.45888E+08
 
   -0.45825E+08         0.31932E+07         0.00000E+00
    0.31932E+07        -0.49599E+08         0.00000E+00
    0.00000E+00         0.00000E+00        -0.45894E+08
 
   -0.45877E+08         0.32604E+07         0.00000E+00
    0.32604E+07        -0.49576E+08         0.00000E+00
    0.00000E+00         0.00000E+00        -0.45900E+08
 
   -0.43030E+08         0.35751E+05         0.00000E+00
    0.35751E+05        -0.50000E+08         0.00000E+00
    0.00000E+00         0.00000E+00        -0.45131E+08
 
   -0.43091E+08         0.10610E+06         0.00000E+00
    0.10610E+06        -0.49999E+08         0.00000E+00
    0.00000E+00         0.00000E+00        -0.45143E+08
 
   -0.43151E+08         0.17599E+06         0.00000E+00
    0.17599E+06        -0.49999E+08         0.00000E+00
    0.00000E+00         0.00000E+00        -0.45155E+08
 
   -0.43210E+08         0.24545E+06         0.00000E+00
    0.24545E+06        -0.49999E+08         0.00000E+00
    0.00000E+00         0.00000E+00        -0.45167E+08
 
   -0.43269E+08         0.31453E+06         0.00000E+00
    0.31453E+06        -0.49998E+08         0.00000E+00
    0.00000E+00         0.00000E+00        -0.45178E+08
 
   -0.43326E+08         0.38324E+06         0.00000E+00
    0.38324E+06        -0.49997E+08         0.00000E+00
    0.00000E+00         0.00000E+00        -0.45190E+08
 
   -0.43384E+08         0.45162E+06         0.00000E+00
    0.45162E+06        -0.49997E+08         0.00000E+00
    0.00000E+00         0.00000E+00        -0.45201E+08
 
   -0.43440E+08         0.51970E+06         0.00000E+00
    0.51970E+06        -0.49996E+08         0.00000E+00
    0.00000E+00         0.00000E+00        -0.45212E+08
 
   -0.43496E+08         0.58749E+06         0.00000E+00
    0.58749E+06        -0.49994E+08         0.00000E+00
    0.00000E+00         0.00000E+00        -0.45223E+08
 
   -0.43551E+08         0.65504E+06         0.00000E+00
    0.65504E+06        -0.49993E+08         0.00000E+00
    0.00000E+00         0.00000E+00        -0.45234E+08
 
   -0.43606E+08         0.72236E+06         0.00000E+00
    0.72236E+06        -0.49991E+08         0.00000E+00
    0.00000E+00         0.00000E+00        -0.45244E+08
 
   -0.43660E+08         0.78948E+06         0.00000E+00
    0.78948E+06        -0.49989E+08         0.00000E+00
    0.00000E+00         0.00000E+00        -0.45255E+08
 
   -0.43713E+08         0.85643E+06         0.00000E+00
    0.85643E+06        -0.49987E+08         0.00000E+00
    0.00000E+00         0.00000E+00        -0.45265E+08
 
   -0.43766E+08         0.92323E+06         0.00000E+00
    0.92323E+06        -0.49985E+08         0.00000E+00
    0.00000E+00         0.00000E+00        -0.45275E+08
 
   -0.43819E+08         0.98991E+06         0.00000E+00
    0.98991E+06        -0.49982E+08         0.00000E+00
    0.00000E+00         0.00000E+00        -0.45285E+08
 
   -0.43871E+08         0.10565E+07         0.00000E+00
    0.10565E+07        -0.49980E+08         0.00000E+00
    0.00000E+00         0.00000E+00        -0.45295E+08
 
   -0.43922E+08         0.11230E+07         0.00000E+00
    0.11230E+07        -0.49976E+08         0.00000E+00
    0.00000E+00         0.00000E+00        -0.45305E+08
 
   -0.43973E+08         0.11894E+07         0.00000E+00
    0.11894E+07        -0.49973E+08         0.00000E+00
    0.00000E+00         0.00000E+00        -0.45314E+08
 
   -0.44024E+08         0.12558E+07         0.00000E+00
    0.12558E+07        -0.49969E+08         0.00000E+00
    0.00000E+00         0.00000E+00        -0.45324E+08
 
   -0.44074E+08         0.13222E+07         0.00000E+00
    0.13222E+07        -0.49965E+08         0.00000E+00
    0.00000E+00         0.00000E+00        -0.45333E+08
 
   -0.44124E+08         0.13885E+07         0.00000E+00
    0.13885E+07        -0.49961E+08         0.00000E+00
    0.00000E+00         0.00000E+00        -0.45342E+08
 
   -0.44174E+08         0.14549E+07         0.00000E+00
    0.14549E+07        -0.49956E+08         0.00000E+00
    0.00000E+00         0.00000E+00        -0.45351E+08
 
   -0.44223E+08         0.15214E+07         0.00000E+00
    0.15214E+07        -0.49951E+08         0.00000E+00
    0.00000E+00         0.00000E+00        -0.45360E+08
 
   -0.44272E+08         0.15878E+07         0.00000E+00
    0.15878E+07        -0.49945E+08         0.00000E+00
    0.00000E+00         0.00000E+00        -0.45368E+08
 
   -0.44320E+08         0.16544E+07         0.00000E+00
    0.16544E+07        -0.49940E+08         0.00000E+00
    0.00000E+00         0.00000E+00        -0.45377E+08
 
   -0.44368E+08         0.17210E+07         0.00000E+00
    0.17210E+07        -0.49933E+08         0.00000E+00
    0.00000E+00         0.00000E+00        -0.45385E+08
 
   -0.44417E+08         0.17878E+07         0.00000E+00
    0.17878E+07        -0.49926E+08         0.00000E+00
    0.00000E+00         0.00000E+00        -0.45394E+08
 
   -0.44464E+08         0.18546E+07         0.00000E+00
    0.18546E+07        -0.49919E+08         0.00000E+00
    0.00000E+00         0.00000E+00        -0.45402E+08
 
   -0.44512E+08         0.19216E+07         0.00000E+00
    0.19216E+07        -0.49912E+08         0.00000E+00
    0.00000E+00         0.00000E+00        -0.45410E+08
 
   -0.44560E+08         0.19887E+07         0.00000E+00
    0.19887E+07        -0.49903E+08         0.00000E+00
    0.00000E+00         0.00000E+00        -0.45418E+08
 
   -0.44607E+08         0.20560E+07         0.00000E+00
    0.20560E+07        -0.49895E+08         0.00000E+00
    0.00000E+00         0.00000E+00        -0.45425E+08
 
   -0.44655E+08         0.21234E+07         0.00000E+00
    0.21234E+07        -0.49885E+08         0.00000E+00
    0.00000E+00         0.00000E+00        -0.45433E+08
 
   -0.44702E+08         0.21910E+07         0.00000E+00
    0.21910E+07        -0.49876E+08         0.00000E+00
    0.00000E+00         0.00000E+00        -0.45441E+08
 
   -0.44749E+08         0.22588E+07         0.00000E+00
    0.22588E+07        -0.49865E+08         0.00000E+00
    0.00000E+00         0.00000E+00        -0.45448E+08
 
   -0.44797E+08         0.23268E+07         0.00000E+00
    0.23268E+07        -0.49854E+08         0.00000E+00
    0.00000E+00         0.00000E+00        -0.45455E+08
 
   -0.44844E+08         0.23950E+07         0.00000E+00
    0.23950E+07        -0.49843E+08         0.00000E+00
    0.00000E+00         0.00000E+00        -0.45462E+08
 
   -0.44892E+08         0.24634E+07         0.00000E+00
    0.24634E+07        -0.49831E+08         0.00000E+00
    0.00000E+00         0.00000E+00        -0.45469E+08
 
   -0.44939E+08         0.25320E+07         0.00000E+00
    0.25320E+07        -0.49818E+08         0.00000E+00
    0.00000E+00         0.00000E+00        -0.45476E+08
 
   -0.44987E+08         0.26008E+07         0.00000E+00
    0.26008E+07        -0.49805E+08         0.00000E+00
    0.00000E+00         0.00000E+00        -0.45483E+08
 
   -0.45035E+08         0.26699E+07         0.00000E+00
    0.26699E+07        -0.49790E+08         0.00000E+00
    0.00000E+00         0.00000E+00        -0.45490E+08
 
   -0.45083E+08         0.27392E+07         0.00000E+00
    0.27392E+07        -0.49776E+08         0.00000E+00
    0.00000E+00         0.00000E+00        -0.45497E+08
 
   -0.45131E+08         0.28088E+07         0.00000E+00
    0.28088E+07        -0.49760E+08         0.00000E+00
    0.00000E+00         0.00000E+00        -0.45503E+08
 
   -0.45180E+08         0.28786E+07         0.00000E+00
    0.28786E+07        -0.49744E+08         0.00000E+00
    0.00000E+00         0.00000E+00        -0.45510E+08
 
   -0.45229E+08         0.29486E+07         0.00000E+00
    0.29486E+07        -0.49727E+08         0.00000E+00
    0.00000E+00         0.00000E+00        -0.45516E+08
 
   -0.45278E+08         0.30189E+07         0.00000E+00
    0.30189E+07        -0.49709E+08         0.00000E+00
    0.00000E+00         0.00000E+00        -0.45522E+08
 
   -0.45327E+08         0.30895E+07         0.00000E+00
    0.30895E+07        -0.49690E+08         0.00000E+00
    0.00000E+00         0.00000E+00        -0.45528E+08
 
   -0.45377E+08         0.31603E+07         0.00000E+00
    0.31603E+07        -0.49671E+08         0.00000E+00
    0.00000E+00         0.00000E+00        -0.45535E+08
 
   -0.45427E+08         0.32314E+07         0.00000E+00
    0.32314E+07        -0.49650E+08         0.00000E+00
    0.00000E+00         0.00000E+00        -0.45541E+08
 
   -0.45478E+08         0.33027E+07         0.00000E+00
    0.33027E+07        -0.49629E+08         0.00000E+00
    0.00000E+00         0.00000E+00        -0.45546E+08
 
   -0.45529E+08         0.33743E+07         0.00000E+00
    0.33743E+07        -0.49607E+08         0.00000E+00
    0.00000E+00         0.00000E+00        -0.45552E+08
 
   -0.42676E+08         0.35977E+05         0.00000E+00
    0.35977E+05        -0.49999E+08         0.00000E+00
    0.00000E+00         0.00000E+00        -0.44755E+08
 
   -0.42739E+08         0.10684E+06         0.00000E+00
    0.10684E+06        -0.49999E+08         0.00000E+00
    0.00000E+00         0.00000E+00        -0.44768E+08
 
   -0.42801E+08         0.17728E+06         0.00000E+00
    0.17728E+06        -0.49999E+08         0.00000E+00
    0.00000E+00         0.00000E+00        -0.44780E+08
 
   -0.42862E+08         0.24734E+06         0.00000E+00
    0.24734E+06        -0.49999E+08         0.00000E+00
    0.00000E+00         0.00000E+00        -0.44793E+08
 
   -0.42922E+08         0.31705E+06         0.00000E+00
    0.31705E+06        -0.49999E+08         0.00000E+00
    0.00000E+00         0.00000E+00        -0.44805E+08
 
   -0.42982E+08         0.38643E+06         0.00000E+00
    0.38643E+06        -0.49998E+08         0.00000E+00
    0.00000E+00         0.00000E+00        -0.44816E+08
 
   -0.43040E+08         0.45554E+06         0.00000E+00
    0.45554E+06        -0.49998E+08         0.00000E+00
    0.00000E+00         0.00000E+00        -0.44828E+08
 
   -0.43098E+08         0.52438E+06         0.00000E+00
    0.52438E+06        -0.49997E+08         0.00000E+00
    0.00000E+00         0.00000E+00        -0.44840E+08
 
   -0.43155E+08         0.59300E+06         0.00000E+00
    0.59300E+06        -0.49996E+08         0.00000E+00
    0.00000E+00         0.00000E+00        -0.44851E+08
 
   -0.43212E+08         0.66143E+06         0.00000E+00
    0.66143E+06        -0.49995E+08         0.00000E+00
    0.00000E+00         0.00000E+00        -0.44862E+08
 
   -0.43267E+08         0.72970E+06         0.00000E+00
    0.72970E+06        -0.49994E+08         0.00000E+00
    0.00000E+00         0.00000E+00        -0.44873E+08
 
   -0.43322E+08         0.79783E+06         0.00000E+00
    0.79783E+06        -0.49993E+08         0.00000E+00
    0.00000E+00         0.00000E+00        -0.44883E+08
 
   -0.43376E+08         0.86585E+06         0.00000E+00
    0.86585E+06        -0.49992E+08         0.00000E+00
    0.00000E+00         0.00000E+00        -0.44894E+08
 
   -0.43430E+08         0.93379E+06         0.00000E+00
    0.93379E+06        -0.49990E+08         0.00000E+00
    0.00000E+00         0.00000E+00        -0.44904E+08
 
   -0.43483E+08         0.10017E+07         0.00000E+00
    0.10017E+07        -0.49988E+08         0.00000E+00
    0.00000E+00         0.00000E+00        -0.44915E+08
 
   -0.43535E+08         0.10695E+07         0.00000E+00
    0.10695E+07        -0.49986E+08         0.00000E+00
    0.00000E+00         0.00000E+00        -0.44925E+08
 
   -0.43587E+08         0.11374E+07         0.00000E+00
    0.11374E+07        -0.49984E+08         0.00000E+00
    0.00000E+00         0.00000E+00        -0.44934E+08
 
   -0.43638E+08         0.12052E+07         0.00000E+00
    0.12052E+07        -0.49981E+08         0.00000E+00
    0.00000E+00         0.00000E+00        -0.44944E+08
 
   -0.43688E+08         0.12731E+07         0.00000E+00
    0.12731E+07        -0.49978E+08         0.00000E+00
    0.00000E+00         0.00000E+00        -0.44954E+08
 
   -0.43738E+08         0.13411E+07         0.00000E+00
    0.13411E+07        -0.49975E+08         0.00000E+00
    0.00000E+00         0.00000E+00        -0.44963E+08
 
   -0.43788E+08         0.14092E+07         0.00000E+00
    0.14092E+07        -0.49972E+08         0.00000E+00
    0.00000E+00         0.00000E+00        -0.44972E+08
 
   -0.43837E+08         0.14773E+07         0.00000E+00
    0.14773E+07        -0.49968E+08         0.00000E+00
    0.00000E+00         0.00000E+00        -0.44981E+08
 
   -0.43886E+08         0.15456E+07         0.00000E+00
    0.15456E+07        -0.49964E+08         0.00000E+00
    0.00000E+00         0.00000E+00        -0.44990E+08
 
   -0.43934E+08         0.16140E+07         0.00000E+00
    0.16140E+07        -0.49959E+08         0.00000E+00
    0.00000E+00         0.00000E+00        -0.44999E+08
 
   -0.43982E+08         0.16826E+07         0.00000E+00
    0.16826E+07        -0.49954E+08         0.00000E+00
    0.00000E+00         0.00000E+00        -0.45008E+08
 
   -0.44030E+08         0.17513E+07         0.00000E+00
    0.17513E+07        -0.49949E+08         0.00000E+00
    0.00000E+00         0.00000E+00        -0.45016E+08
 
   -0.44077E+08         0.18203E+07         0.00000E+00
    0.18203E+07        -0.49943E+08         0.00000E+00
    0.00000E+00         0.00000E+00        -0.45024E+08
 
   -0.44124E+08         0.18894E+07         0.00000E+00
    0.18894E+07        -0.49937E+08         0.00000E+00
    0.00000E+00         0.00000E+00        -0.45033E+08
 
   -0.44171E+08         0.19588E+07         0.00000E+00
    0.19588E+07        -0.49930E+08         0.00000E+00
    0.00000E+00         0.00000E+00        -0.45041E+08
 
   -0.44217E+08         0.20284E+07         0.00000E+00
    0.20284E+07        -0.49923E+08         0.00000E+00
    0.00000E+00         0.00000E+00        -0.45049E+08
 
   -0.44264E+08         0.20983E+07         0.00000E+00
    0.20983E+07        -0.49916E+08         0.00000E+00
    0.00000E+00         0.00000E+00        -0.45056E+08
 
   -0.44310E+08         0.21684E+07         0.00000E+00
    0.21684E+07        -0.49907E+08         0.00000E+00
    0.00000E+00         0.00000E+00        -0.45064E+08
 
   -0.44357E+08         0.22388E+07         0.00000E+00
    0.22388E+07        -0.49899E+08         0.00000E+00
    0.00000E+00         0.00000E+00        -0.45071E+08
 
   -0.44403E+08         0.23095E+07         0.00000E+00
    0.23095E+07        -0.49889E+08         0.00000E+00
    0.00000E+00         0.00000E+00        -0.45079E+08
 
   -0.44449E+08         0.23805E+07         0.00000E+00
    0.23805E+07        -0.49880E+08         0.00000E+00
    0.00000E+00         0.00000E+00        -0.45086E+08
 
   -0.44495E+08         0.24517E+07         0.00000E+00
    0.24517E+07        -0.49869E+08         0.00000E+00
    0.00000E+00         0.00000E+00        -0.45093E+08
 
   -0.44541E+08         0.25233E+07         0.00000E+00
    0.25233E+07        -0.49858E+08         0.00000E+00
    0.00000E+00         0.00000E+00        -0.45100E+08
 
   -0.44587E+08         0.25952E+07         0.00000E+00
    0.25952E+07        -0.49846E+08         0.00000E+00
    0.00000E+00         0.00000E+00        -0.45107E+08
 
   -0.44634E+08         0.26675E+07         0.00000E+00
    0.26675E+07        -0.49834E+08         0.00000E+00
    0.00000E+00         0.00000E+00        -0.45114E+08
 
   -0.44680E+08         0.27400E+07         0.00000E+00
    0.27400E+07        -0.49820E+08         0.00000E+00
    0.00000E+00         0.00000E+00        -0.45121E+08
 
   -0.44727E+08         0.28129E+07         0.00000E+00
    0.28129E+07        -0.49807E+08         0.00000E+00
    0.00000E+00         0.00000E+00        -0.45127E+08
 
   -0.44773E+08         0.28862E+07         0.00000E+00
    0.28862E+07        -0.49792E+08         0.00000E+00
    0.00000E+00         0.00000E+00        -0.45134E+08
 
   -0.44820E+08         0.29598E+07         0.00000E+00
    0.29598E+07        -0.49777E+08         0.00000E+00
    0.00000E+00         0.00000E+00        -0.45140E+08
 
   -0.44868E+08         0.30338E+07         0.00000E+00
    0.30338E+07        -0.49760E+08         0.00000E+00
    0.00000E+00         0.00000E+00        -0.45146E+08
 
   -0.44915E+08         0.31081E+07         0.00000E+00
    0.31081E+07        -0.49744E+08         0.00000E+00
    0.00000E+00         0.00000E+00        -0.45152E+08
 
   -0.44963E+08         0.31828E+07         0.00000E+00
    0.31828E+07        -0.49726E+08         0.00000E+00
    0.00000E+00         0.00000E+00        -0.45158E+08
 
   -0.45012E+08         0.32578E+07         0.00000E+00
    0.32578E+07        -0.49707E+08         0.00000E+00
    0.00000E+00         0.00000E+00        -0.45164E+08
 
   -0.45060E+08         0.33333E+07         0.00000E+00
    0.33333E+07        -0.49688E+08         0.00000E+00
    0.00000E+00         0.00000E+00        -0.45170E+08
 
   -0.45110E+08         0.34090E+07         0.00000E+00
    0.34090E+07        -0.49667E+08         0.00000E+00
    0.00000E+00         0.00000E+00        -0.45176E+08
 
   -0.45159E+08         0.34852E+07         0.00000E+00
    0.34852E+07        -0.49646E+08         0.00000E+00
    0.00000E+00         0.00000E+00        -0.45181E+08
 
   -0.42320E+08         0.36023E+05         0.00000E+00
    0.36023E+05        -0.49999E+08         0.00000E+00
    0.00000E+00         0.00000E+00        -0.44359E+08
 
   -0.42385E+08         0.10706E+06         0.00000E+00
    0.10706E+06        -0.49999E+08         0.00000E+00
    0.00000E+00         0.00000E+00        -0.44372E+08
 
   -0.42449E+08         0.17773E+06         0.00000E+00
    0.17773E+06        -0.49999E+08         0.00000E+00
    0.00000E+00         0.00000E+00        -0.44385E+08
 
   -0.42512E+08         0.24805E+06         0.00000E+00
    0.24805E+06        -0.49999E+08         0.00000E+00
    0.00000E+00         0.00000E+00        -0.44397E+08
 
   -0.42574E+08         0.31807E+06         0.00000E+00
    0.31807E+06        -0.49999E+08         0.00000E+00
    0.00000E+00         0.00000E+00        -0.44410E+08
 
   -0.42634E+08         0.38783E+06         0.00000E+00
    0.38783E+06        -0.49999E+08         0.00000E+00
    0.00000E+00         0.00000E+00        -0.44422E+08
 
   -0.42694E+08         0.45736E+06         0.00000E+00
    0.45736E+06        -0.49999E+08         0.00000E+00
    0.00000E+00         0.00000E+00        -0.44434E+08
 
   -0.42753E+08         0.52669E+06         0.00000E+00
    0.52669E+06        -0.49999E+08         0.00000E+00
    0.00000E+00         0.00000E+00        -0.44446E+08
 
   -0.42811E+08         0.59587E+06         0.00000E+00
    0.59587E+06        -0.49999E+08         0.00000E+00
    0.00000E+00         0.00000E+00        -0.44457E+08
 
   -0.42868E+08         0.66492E+06         0.00000E+00
    0.66492E+06        -0.49999E+08         0.00000E+00
    0.00000E+00         0.00000E+00        -0.44469E+08
 
   -0.42924E+08         0.73388E+06         0.00000E+00
    0.73388E+06        -0.49998E+08         0.00000E+00
    0.00000E+00         0.00000E+00        -0.44480E+08
 
   -0.42980E+08         0.80277E+06         0.00000E+00
    0.80277E+06        -0.49998E+08         0.00000E+00
    0.00000E+00         0.00000E+00        -0.44491E+08
 
   -0.43034E+08         0.87164E+06         0.00000E+00
    0.87164E+06        -0.49997E+08         0.00000E+00
    0.00000E+00         0.00000E+00        -0.44501E+08
 
   -0.43088E+08         0.94050E+06         0.00000E+00
    0.94050E+06        -0.49996E+08         0.00000E+00
    0.00000E+00         0.00000E+00        -0.44512E+08
 
   -0.43141E+08         0.10094E+07         0.00000E+00
    0.10094E+07        -0.49995E+08         0.00000E+00
    0.00000E+00         0.00000E+00        -0.44522E+08
 
   -0.43193E+08         0.10783E+07         0.00000E+00
    0.10783E+07        -0.49994E+08         0.00000E+00
    0.00000E+00         0.00000E+00        -0.44532E+08
 
   -0.43244E+08         0.11474E+07         0.00000E+00
    0.11474E+07        -0.49993E+08         0.00000E+00
    0.00000E+00         0.00000E+00        -0.44542E+08
 
   -0.43295E+08         0.12165E+07         0.00000E+00
    0.12165E+07        -0.49991E+08         0.00000E+00
    0.00000E+00         0.00000E+00        -0.44552E+08
 
   -0.43345E+08         0.12857E+07         0.00000E+00
    0.12857E+07        -0.49989E+08         0.00000E+00
    0.00000E+00         0.00000E+00        -0.44562E+08
 
   -0.43394E+08         0.13552E+07         0.00000E+00
    0.13552E+07        -0.49987E+08         0.00000E+00
    0.00000E+00         0.00000E+00        -0.44571E+08
 
   -0.43443E+08         0.14248E+07         0.00000E+00
    0.14248E+07        -0.49985E+08         0.00000E+00
    0.00000E+00         0.00000E+00        -0.44581E+08
 
   -0.43492E+08         0.14946E+07         0.00000E+00
    0.14946E+07        -0.49982E+08         0.00000E+00
    0.00000E+00         0.00000E+00        -0.44590E+08
 
   -0.43539E+08         0.15646E+07         0.00000E+00
    0.15646E+07        -0.49979E+08         0.00000E+00
    0.00000E+00         0.00000E+00        -0.44599E+08
 
   -0.43587E+08         0.16348E+07         0.00000E+00
    0.16348E+07        -0.49976E+08         0.00000E+00
    0.00000E+00         0.00000E+00        -0.44608E+08
 
   -0.43634E+08         0.17053E+07         0.00000E+00
    0.17053E+07        -0.49972E+08         0.00000E+00
    0.00000E+00         0.00000E+00        -0.44616E+08
 
   -0.43680E+08         0.17761E+07         0.00000E+00
    0.17761E+07        -0.49968E+08         0.00000E+00
    0.00000E+00         0.00000E+00        -0.44625E+08
 
   -0.43726E+08         0.18472E+07         0.00000E+00
    0.18472E+07        -0.49963E+08         0.00000E+00
    0.00000E+00         0.00000E+00        -0.44633E+08
 
   -0.43772E+08         0.19186E+07         0.00000E+00
    0.19186E+07        -0.49958E+08         0.00000E+00
    0.00000E+00         0.00000E+00        -0.44641E+08
 
   -0.43817E+08         0.19904E+07         0.00000E+00
    0.19904E+07        -0.49953E+08         0.00000E+00
    0.00000E+00         0.00000E+00        -0.44649E+08
 
   -0.43862E+08         0.20625E+07         0.00000E+00
    0.20625E+07        -0.49947E+08         0.00000E+00
    0.00000E+00         0.00000E+00        -0.44657E+08
 
   -0.43907E+08         0.21349E+07         0.00000E+00
    0.21349E+07        -0.49940E+08         0.00000E+00
    0.00000E+00         0.00000E+00        -0.44665E+08
 
   -0.43952E+08         0.22077E+07         0.00000E+00
    0.22077E+07        -0.49933E+08         0.00000E+00
    0.00000E+00         0.00000E+00        -0.44672E+08
 
   -0.43997E+08         0.22809E+07         0.00000E+00
    0.22809E+07        -0.49926E+08         0.00000E+00
    0.00000E+00         0.00000E+00        -0.44680E+08
 
   -0.44041E+08         0.23544E+07         0.00000E+00
    0.23544E+07        -0.49918E+08         0.00000E+00
    0.00000E+00         0.00000E+00        -0.44687E+08
 
   -0.44085E+08         0.24284E+07         0.00000E+00
    0.24284E+07        -0.49909E+08         0.00000E+00
    0.00000E+00         0.00000E+00        -0.44694E+08
 
   -0.44130E+08         0.25028E+07         0.00000E+00
    0.25028E+07        -0.49900E+08         0.00000E+00
    0.00000E+00         0.00000E+00        -0.44701E+08
 
   -0.44174E+08         0.25776E+07         0.00000E+00
    0.25776E+07        -0.49890E+08         0.00000E+00
    0.00000E+00         0.00000E+00        -0.44708E+08
 
   -0.44218E+08         0.26529E+07         0.00000E+00
    0.26529E+07        -0.49880E+08         0.00000E+00
    0.00000E+00         0.00000E+00        -0.44715E+08
 
   -0.44263E+08         0.27286E+07         0.00000E+00
    0.27286E+07        -0.49868E+08         0.00000E+00
    0.00000E+00         0.00000E+00        -0.44721E+08
 
   -0.44307E+08         0.28047E+07         0.00000E+00
    0.28047E+07        -0.49856E+08         0.00000E+00
    0.00000E+00         0.00000E+00        -0.44728E+08
 
   -0.44352E+08         0.28813E+07         0.00000E+00
    0.28813E+07        -0.49844E+08         0.00000E+00
    0.00000E+00         0.00000E+00        -0.44734E+08
 
   -0.44397E+08         0.29584E+07         0.00000E+00
    0.29584E+07        -0.49830E+08         0.00000E+00
    0.00000E+00         0.00000E+00        -0.44741E+08
 
   -0.44442E+08         0.30359E+07         0.00000E+00
    0.30359E+07        -0.49816E+08         0.00000E+00
    0.00000E+00         0.00000E+00        -0.44747E+08
 
   -0.44487E+08         0.31139E+07         0.00000E+00
    0.31139E+07        -0.49801E+08         0.00000E+00
    0.00000E+00         0.00000E+00        -0.44753E+08
 
   -0.44532E+08         0.31924E+07         0.00000E+00
    0.31924E+07        -0.49785E+08         0.00000E+00
    0.00000E+00         0.00000E+00        -0.44759E+08
 
   -0.44578E+08         0.32713E+07         0.00000E+00
    0.32713E+07        -0.49769E+08         0.00000E+00
    0.00000E+00         0.00000E+00        -0.44765E+08
 
   -0.44624E+08         0.33507E+07         0.00000E+00
    0.33507E+07        -0.49751E+08         0.00000E+00
    0.00000E+00         0.00000E+00        -0.44770E+08
 
   -0.44671E+08         0.34306E+07         0.00000E+00
    0.34306E+07        -0.49733E+08         0.00000E+00
    0.00000E+00         0.00000E+00        -0.44776E+08
 
   -0.44718E+08         0.35110E+07         0.00000E+00
    0.35110E+07        -0.49713E+08         0.00000E+00
    0.00000E+00         0.00000E+00        -0.44781E+08
 
   -0.44766E+08         0.35919E+07         0.00000E+00
    0.35919E+07        -0.49693E+08         0.00000E+00
    0.00000E+00         0.00000E+00        -0.44787E+08
 
   -0.41964E+08         0.35857E+05         0.00000E+00
    0.35857E+05        -0.49999E+08         0.00000E+00
    0.00000E+00         0.00000E+00        -0.43941E+08
 
   -0.42031E+08         0.10667E+06         0.00000E+00
    0.10667E+06        -0.50000E+08         0.00000E+00
    0.00000E+00         0.00000E+00        -0.43955E+08
 
   -0.42097E+08         0.17717E+06         0.00000E+00
    0.17717E+06        -0.50000E+08         0.00000E+00
    0.00000E+00         0.00000E+00        -0.43968E+08
 
   -0.42161E+08         0.24738E+06         0.00000E+00
    0.24738E+06        -0.50000E+08         0.00000E+00
    0.00000E+00         0.00000E+00        -0.43981E+08
 
   -0.42224E+08         0.31735E+06         0.00000E+00
    0.31735E+06        -0.50000E+08         0.00000E+00
    0.00000E+00         0.00000E+00        -0.43993E+08
 
   -0.42286E+08         0.38712E+06         0.00000E+00
    0.38712E+06        -0.50001E+08         0.00000E+00
    0.00000E+00         0.00000E+00        -0.44006E+08
 
   -0.42347E+08         0.45673E+06         0.00000E+00
    0.45673E+06        -0.50001E+08         0.00000E+00
    0.00000E+00         0.00000E+00        -0.44018E+08
 
   -0.42406E+08         0.52622E+06         0.00000E+00
    0.52622E+06        -0.50001E+08         0.00000E+00
    0.00000E+00         0.00000E+00        -0.44030E+08
 
   -0.42465E+08         0.59563E+06         0.00000E+00
    0.59563E+06        -0.50002E+08         0.00000E+00
    0.00000E+00         0.00000E+00        -0.44042E+08
 
   -0.42522E+08         0.66500E+06         0.00000E+00
    0.66500E+06        -0.50002E+08         0.00000E+00
    0.00000E+00         0.00000E+00        -0.44053E+08
 
   -0.42578E+08         0.73435E+06         0.00000E+00
    0.73435E+06        -0.50003E+08         0.00000E+00
    0.00000E+00         0.00000E+00        -0.44065E+08
 
   -0.42634E+08         0.80373E+06         0.00000E+00
    0.80373E+06        -0.50003E+08         0.00000E+00
    0.00000E+00         0.00000E+00        -0.44076E+08
 
   -0.42688E+08         0.87317E+06         0.00000E+00
    0.87317E+06        -0.50003E+08         0.00000E+00
    0.00000E+00         0.00000E+00        -0.44087E+08
 
   -0.42741E+08         0.94270E+06         0.00000E+00
    0.94270E+06        -0.50003E+08         0.00000E+00
    0.00000E+00         0.00000E+00        -0.44097E+08
 
   -0.42794E+08         0.10124E+07         0.00000E+00
    0.10124E+07        -0.50003E+08         0.00000E+00
    0.00000E+00         0.00000E+00        -0.44108E+08
 
   -0.42845E+08         0.10822E+07         0.00000E+00
    0.10822E+07        -0.50003E+08         0.00000E+00
    0.00000E+00         0.00000E+00        -0.44118E+08
 
   -0.42896E+08         0.11521E+07         0.00000E+00
    0.11521E+07        -0.50003E+08         0.00000E+00
    0.00000E+00         0.00000E+00        -0.44128E+08
 
   -0.42946E+08         0.12223E+07         0.00000E+00
    0.12223E+07        -0.50002E+08         0.00000E+00
    0.00000E+00         0.00000E+00        -0.44138E+08
 
   -0.42995E+08         0.12928E+07         0.00000E+00
    0.12928E+07        -0.50002E+08         0.00000E+00
    0.00000E+00         0.00000E+00        -0.44148E+08
 
   -0.43043E+08         0.13635E+07         0.00000E+00
    0.13635E+07        -0.50001E+08         0.00000E+00
    0.00000E+00         0.00000E+00        -0.44157E+08
 
   -0.43091E+08         0.14344E+07         0.00000E+00
    0.14344E+07        -0.50000E+08         0.00000E+00
    0.00000E+00         0.00000E+00        -0.44167E+08
 
   -0.43138E+08         0.15057E+07         0.00000E+00
    0.15057E+07        -0.49998E+08         0.00000E+00
    0.00000E+00         0.00000E+00        -0.44176E+08
 
   -0.43184E+08         0.15774E+07         0.00000E+00
    0.15774E+07        -0.49997E+08         0.00000E+00
    0.00000E+00         0.00000E+00        -0.44185E+08
 
   -0.43230E+08         0.16493E+07         0.00000E+00
    0.16493E+07        -0.49995E+08         0.00000E+00
    0.00000E+00         0.00000E+00        -0.44193E+08
 
   -0.43276E+08         0.17217E+07         0.00000E+00
    0.17217E+07        -0.49992E+08         0.00000E+00
    0.00000E+00         0.00000E+00        -0.44202E+08
 
   -0.43320E+08         0.17944E+07         0.00000E+00
    0.17944E+07        -0.49989E+08         0.00000E+00
    0.00000E+00         0.00000E+00        -0.44210E+08
 
   -0.43365E+08         0.18676E+07         0.00000E+00
    0.18676E+07        -0.49986E+08         0.00000E+00
    0.00000E+00         0.00000E+00        -0.44219E+08
 
   -0.43408E+08         0.19412E+07         0.00000E+00
    0.19412E+07        -0.49983E+08         0.00000E+00
    0.00000E+00         0.00000E+00        -0.44227E+08
 
   -0.43452E+08         0.20152E+07         0.00000E+00
    0.20152E+07        -0.49979E+08         0.00000E+00
    0.00000E+00         0.00000E+00        -0.44235E+08
 
   -0.43495E+08         0.20897E+07         0.00000E+00
    0.20897E+07        -0.49974E+08         0.00000E+00
    0.00000E+00         0.00000E+00        -0.44242E+08
 
   -0.43538E+08         0.21647E+07         0.00000E+00
    0.21647E+07        -0.49969E+08         0.00000E+00
    0.00000E+00         0.00000E+00        -0.44250E+08
 
   -0.43580E+08         0.22401E+07         0.00000E+00
    0.22401E+07        -0.49964E+08         0.00000E+00
    0.00000E+00         0.00000E+00        -0.44257E+08
 
   -0.43623E+08         0.23161E+07         0.00000E+00
    0.23161E+07        -0.49958E+08         0.00000E+00
    0.00000E+00         0.00000E+00        -0.44265E+08
 
   -0.43665E+08         0.23926E+07         0.00000E+00
    0.23926E+07        -0.49951E+08         0.00000E+00
    0.00000E+00         0.00000E+00        -0.44272E+08
 
   -0.43707E+08         0.24696E+07         0.00000E+00
    0.24696E+07        -0.49944E+08         0.00000E+00
    0.00000E+00         0.00000E+00        -0.44279E+08
 
   -0.43749E+08         0.25471E+07         0.00000E+00
    0.25471E+07        -0.49937E+08         0.00000E+00
    0.00000E+00         0.00000E+00        -0.44285E+08
 
   -0.43791E+08         0.26252E+07         0.00000E+00
    0.26252E+07        -0.49928E+08         0.00000E+00
    0.00000E+00         0.00000E+00        -0.44292E+08
 
   -0.43832E+08         0.27038E+07         0.00000E+00
    0.27038E+07        -0.49919E+08         0.00000E+00
    0.00000E+00         0.00000E+00        -0.44299E+08
 
   -0.43874E+08         0.27831E+07         0.00000E+00
    0.27831E+07        -0.49909E+08         0.00000E+00
    0.00000E+00         0.00000E+00        -0.44305E+08
 
   -0.43916E+08         0.28628E+07         0.00000E+00
    0.28628E+07        -0.49899E+08         0.00000E+00
    0.00000E+00         0.00000E+00        -0.44311E+08
 
   -0.43958E+08         0.29432E+07         0.00000E+00
    0.29432E+07        -0.49888E+08         0.00000E+00
    0.00000E+00         0.00000E+00        -0.44318E+08
 
   -0.44000E+08         0.30241E+07         0.00000E+00
    0.30241E+07        -0.49876E+08         0.00000E+00
    0.00000E+00         0.00000E+00        -0.44324E+08
 
   -0.44043E+08         0.31056E+07         0.00000E+00
    0.31056E+07        -0.49863E+08         0.00000E+00
    0.00000E+00         0.00000E+00        -0.44329E+08
 
   -0.44085E+08         0.31877E+07         0.00000E+00
    0.31877E+07        -0.49849E+08         0.00000E+00
    0.00000E+00         0.00000E+00        -0.44335E+08
 
   -0.44128E+08         0.32704E+07         0.00000E+00
    0.32704E+07        -0.49835E+08         0.00000E+00
    0.00000E+00         0.00000E+00        -0.44341E+08
 
   -0.44171E+08         0.33538E+07         0.00000E+00
    0.33538E+07        -0.49819E+08         0.00000E+00
    0.00000E+00         0.00000E+00        -0.44347E+08
 
   -0.44215E+08         0.34377E+07         0.00000E+00
    0.34377E+07        -0.49803E+08         0.00000E+00
    0.00000E+00         0.00000E+00        -0.44352E+08
 
   -0.44259E+08         0.35222E+07         0.00000E+00
    0.35222E+07        -0.49786E+08         0.00000E+00
    0.00000E+00         0.00000E+00        -0.44357E+08
 
   -0.44303E+08         0.36073E+07         0.00000E+00
    0.36073E+07        -0.49768E+08         0.00000E+00
    0.00000E+00         0.00000E+00        -0.44363E+08
 
   -0.44348E+08         0.36931E+07         0.00000E+00
    0.36931E+07        -0.49749E+08         0.00000E+00
    0.00000E+00         0.00000E+00        -0.44368E+08
 
   -0.41611E+08         0.35444E+05         0.00000E+00
    0.35444E+05        -0.49999E+08         0.00000E+00
    0.00000E+00         0.00000E+00        -0.43502E+08
 
   -0.41679E+08         0.10557E+06         0.00000E+00
    0.10557E+06        -0.50000E+08         0.00000E+00
    0.00000E+00         0.00000E+00        -0.43515E+08
 
   -0.41746E+08         0.17544E+06         0.00000E+00
    0.17544E+06        -0.50000E+08         0.00000E+00
    0.00000E+00         0.00000E+00        -0.43529E+08
 
   -0.41812E+08         0.24509E+06         0.00000E+00
    0.24509E+06        -0.50001E+08         0.00000E+00
    0.00000E+00         0.00000E+00        -0.43542E+08
 
   -0.41876E+08         0.31458E+06         0.00000E+00
    0.31458E+06        -0.50001E+08         0.00000E+00
    0.00000E+00         0.00000E+00        -0.43555E+08
 
   -0.41938E+08         0.38395E+06         0.00000E+00
    0.38395E+06        -0.50002E+08         0.00000E+00
    0.00000E+00         0.00000E+00        -0.43568E+08
 
   -0.41999E+08         0.45325E+06         0.00000E+00
    0.45325E+06        -0.50003E+08         0.00000E+00
    0.00000E+00         0.00000E+00        -0.43580E+08
 
   -0.42059E+08         0.52251E+06         0.00000E+00
    0.52251E+06        -0.50004E+08         0.00000E+00
    0.00000E+00         0.00000E+00        -0.43592E+08
 
   -0.42118E+08         0.59178E+06         0.00000E+00
    0.59178E+06        -0.50005E+08         0.00000E+00
    0.00000E+00         0.00000E+00        -0.43604E+08
 
   -0.42175E+08         0.66110E+06         0.00000E+00
    0.66110E+06        -0.50006E+08         0.00000E+00
    0.00000E+00         0.00000E+00        -0.43616E+08
 
   -0.42231E+08         0.73051E+06         0.00000E+00
    0.73051E+06        -0.50008E+08         0.00000E+00
    0.00000E+00         0.00000E+00        -0.43627E+08
 
   -0.42286E+08         0.80005E+06         0.00000E+00
    0.80005E+06        -0.50009E+08         0.00000E+00
    0.00000E+00         0.00000E+00        -0.43638E+08
 
   -0.42340E+08         0.86975E+06         0.00000E+00
    0.86975E+06        -0.50010E+08         0.00000E+00
    0.00000E+00         0.00000E+00        -0.43649E+08
 
   -0.42392E+08         0.93965E+06         0.00000E+00
    0.93965E+06        -0.50011E+08         0.00000E+00
    0.00000E+00         0.00000E+00        -0.43660E+08
 
   -0.42444E+08         0.10098E+07         0.00000E+00
    0.10098E+07        -0.50013E+08         0.00000E+00
    0.00000E+00         0.00000E+00        -0.43671E+08
 
   -0.42494E+08         0.10802E+07         0.00000E+00
    0.10802E+07        -0.50014E+08         0.00000E+00
    0.00000E+00         0.00000E+00        -0.43681E+08
 
   -0.42544E+08         0.11509E+07         0.00000E+00
    0.11509E+07        -0.50015E+08         0.00000E+00
    0.00000E+00         0.00000E+00        -0.43691E+08
 
   -0.42592E+08         0.12219E+07         0.00000E+00
    0.12219E+07        -0.50016E+08         0.00000E+00
    0.00000E+00         0.00000E+00        -0.43701E+08
 
   -0.42640E+08         0.12933E+07         0.00000E+00
    0.12933E+07        -0.50016E+08         0.00000E+00
    0.00000E+00         0.00000E+00        -0.43711E+08
 
   -0.42686E+08         0.13651E+07         0.00000E+00
    0.13651E+07        -0.50017E+08         0.00000E+00
    0.00000E+00         0.00000E+00        -0.43720E+08
 
   -0.42732E+08         0.14372E+07         0.00000E+00
    0.14372E+07        -0.50017E+08         0.00000E+00
    0.00000E+00         0.00000E+00        -0.43729E+08
 
   -0.42777E+08         0.15099E+07         0.00000E+00
    0.15099E+07        -0.50017E+08         0.00000E+00
    0.00000E+00         0.00000E+00        -0.43738E+08
 
   -0.42822E+08         0.15829E+07         0.00000E+00
    0.15829E+07        -0.50017E+08         0.00000E+00
    0.00000E+00         0.00000E+00        -0.43747E+08
 
   -0.42865E+08         0.16565E+07         0.00000E+00
    0.16565E+07        -0.50017E+08         0.00000E+00
    0.00000E+00         0.00000E+00        -0.43756E+08
 
   -0.42908E+08         0.17305E+07         0.00000E+00
    0.17305E+07        -0.50016E+08         0.00000E+00
    0.00000E+00         0.00000E+00        -0.43764E+08
 
   -0.42951E+08         0.18051E+07         0.00000E+00
    0.18051E+07        -0.50015E+08         0.00000E+00
    0.00000E+00         0.00000E+00        -0.43773E+08
 
   -0.42993E+08         0.18802E+07         0.00000E+00
    0.18802E+07        -0.50013E+08         0.00000E+00
    0.00000E+00         0.00000E+00        -0.43781E+08
 
   -0.43034E+08         0.19559E+07         0.00000E+00
    0.19559E+07        -0.50011E+08         0.00000E+00
    0.00000E+00         0.00000E+00        -0.43789E+08
 
   -0.43075E+08         0.20322E+07         0.00000E+00
    0.20322E+07        -0.50009E+08         0.00000E+00
    0.00000E+00         0.00000E+00        -0.43796E+08
 
   -0.43115E+08         0.21090E+07         0.00000E+00
    0.21090E+07        -0.50006E+08         0.00000E+00
    0.00000E+00         0.00000E+00        -0.43804E+08
 
   -0.43155E+08         0.21865E+07         0.00000E+00
    0.21865E+07        -0.50003E+08         0.00000E+00
    0.00000E+00         0.00000E+00        -0.43811E+08
 
   -0.43195E+08         0.22646E+07         0.00000E+00
    0.22646E+07        -0.49999E+08         0.00000E+00
    0.00000E+00         0.00000E+00        -0.43818E+08
 
   -0.43234E+08         0.23433E+07         0.00000E+00
    0.23433E+07        -0.49995E+08         0.00000E+00
    0.00000E+00         0.00000E+00        -0.43825E+08
 
   -0.43274E+08         0.24227E+07         0.00000E+00
    0.24227E+07        -0.49990E+08         0.00000E+00
    0.00000E+00         0.00000E+00        -0.43832E+08
 
   -0.43313E+08         0.25027E+07         0.00000E+00
    0.25027E+07        -0.49985E+08         0.00000E+00
    0.00000E+00         0.00000E+00        -0.43839E+08
 
   -0.43352E+08         0.25834E+07         0.00000E+00
    0.25834E+07        -0.49979E+08         0.00000E+00
    0.00000E+00         0.00000E+00        -0.43846E+08
 
   -0.43390E+08         0.26648E+07         0.00000E+00
    0.26648E+07        -0.49972E+08         0.00000E+00
    0.00000E+00         0.00000E+00        -0.43852E+08
 
   -0.43429E+08         0.27468E+07         0.00000E+00
    0.27468E+07        -0.49965E+08         0.00000E+00
    0.00000E+00         0.00000E+00        -0.43858E+08
 
   -0.43468E+08         0.28296E+07         0.00000E+00
    0.28296E+07        -0.49957E+08         0.00000E+00
    0.00000E+00         0.00000E+00        -0.43864E+08
 
   -0.43506E+08         0.29130E+07         0.00000E+00
    0.29130E+07        -0.49948E+08         0.00000E+00
    0.00000E+00         0.00000E+00        -0.43870E+08
 
   -0.43545E+08         0.29972E+07         0.00000E+00
    0.29972E+07        -0.49938E+08         0.00000E+00
    0.00000E+00         0.00000E+00        -0.43876E+08
 
   -0.43584E+08         0.30821E+07         0.00000E+00
    0.30821E+07        -0.49928E+08         0.00000E+00
    0.00000E+00         0.00000E+00        -0.43882E+08
 
   -0.43623E+08         0.31677E+07         0.00000E+00
    0.31677E+07        -0.49917E+08         0.00000E+00
    0.00000E+00         0.00000E+00        -0.43888E+08
 
   -0.43663E+08         0.32540E+07         0.00000E+00
    0.32540E+07        -0.49905E+08         0.00000E+00
    0.00000E+00         0.00000E+00        -0.43893E+08
 
   -0.43702E+08         0.33410E+07         0.00000E+00
    0.33410E+07        -0.49892E+08         0.00000E+00
    0.00000E+00         0.00000E+00        -0.43898E+08
 
   -0.43742E+08         0.34288E+07         0.00000E+00
    0.34288E+07        -0.49878E+08         0.00000E+00
    0.00000E+00         0.00000E+00        -0.43904E+08
 
   -0.43782E+08         0.35173E+07         0.00000E+00
    0.35173E+07        -0.49864E+08         0.00000E+00
    0.00000E+00         0.00000E+00        -0.43909E+08
 
   -0.43823E+08         0.36066E+07         0.00000E+00
    0.36066E+07        -0.49848E+08         0.00000E+00
    0.00000E+00         0.00000E+00        -0.43914E+08
 
   -0.43863E+08         0.36966E+07         0.00000E+00
    0.36966E+07        -0.49832E+08         0.00000E+00
    0.00000E+00         0.00000E+00        -0.43919E+08
 
   -0.43905E+08         0.37873E+07         0.00000E+00
    0.37873E+07        -0.49814E+08         0.00000E+00
    0.00000E+00         0.00000E+00        -0.43923E+08
 
   -0.41262E+08         0.34743E+05         0.00000E+00
    0.34743E+05        -0.49999E+08         0.00000E+00
    0.00000E+00         0.00000E+00        -0.43040E+08
 
   -0.41332E+08         0.10364E+06         0.00000E+00
    0.10364E+06        -0.50000E+08         0.00000E+00
    0.00000E+00         0.00000E+00        -0.43054E+08
 
   -0.41400E+08         0.17235E+06         0.00000E+00
    0.17235E+06        -0.50000E+08         0.00000E+00
    0.00000E+00         0.00000E+00        -0.43068E+08
 
   -0.41466E+08         0.24094E+06         0.00000E+00
    0.24094E+06        -0.50001E+08         0.00000E+00
    0.00000E+00         0.00000E+00        -0.43081E+08
 
   -0.41531E+08         0.30945E+06         0.00000E+00
    0.30945E+06        -0.50002E+08         0.00000E+00
    0.00000E+00         0.00000E+00        -0.43094E+08
 
   -0.41593E+08         0.37794E+06         0.00000E+00
    0.37794E+06        -0.50004E+08         0.00000E+00
    0.00000E+00         0.00000E+00        -0.43107E+08
 
   -0.41655E+08         0.44646E+06         0.00000E+00
    0.44646E+06        -0.50005E+08         0.00000E+00
    0.00000E+00         0.00000E+00        -0.43120E+08
 
   -0.41714E+08         0.51504E+06         0.00000E+00
    0.51504E+06        -0.50007E+08         0.00000E+00
    0.00000E+00         0.00000E+00        -0.43132E+08
 
   -0.41773E+08         0.58375E+06         0.00000E+00
    0.58375E+06        -0.50009E+08         0.00000E+00
    0.00000E+00         0.00000E+00        -0.43144E+08
 
   -0.41829E+08         0.65261E+06         0.00000E+00
    0.65261E+06        -0.50011E+08         0.00000E+00
    0.00000E+00         0.00000E+00        -0.43156E+08
 
   -0.41884E+08         0.72169E+06         0.00000E+00
    0.72169E+06        -0.50014E+08         0.00000E+00
    0.00000E+00         0.00000E+00        -0.43167E+08
 
   -0.41938E+08         0.79101E+06         0.00000E+00
    0.79101E+06        -0.50016E+08         0.00000E+00
    0.00000E+00         0.00000E+00        -0.43179E+08
 
   -0.41991E+08         0.86062E+06         0.00000E+00
    0.86062E+06        -0.50018E+08         0.00000E+00
    0.00000E+00         0.00000E+00        -0.43190E+08
 
   -0.42042E+08         0.93055E+06         0.00000E+00
    0.93055E+06        -0.50021E+08         0.00000E+00
    0.00000E+00         0.00000E+00        -0.43200E+08
 
   -0.42092E+08         0.10008E+07         0.00000E+00
    0.10008E+07        -0.50023E+08         0.00000E+00
    0.00000E+00         0.00000E+00        -0.43211E+08
 
   -0.42140E+08         0.10715E+07         0.00000E+00
    0.10715E+07        -0.50026E+08         0.00000E+00
    0.00000E+00         0.00000E+00        -0.43221E+08
 
   -0.42188E+08         0.11427E+07         0.00000E+00
    0.11427E+07        -0.50028E+08         0.00000E+00
    0.00000E+00         0.00000E+00        -0.43231E+08
 
   -0.42234E+08         0.12143E+07         0.00000E+00
    0.12143E+07        -0.50031E+08         0.00000E+00
    0.00000E+00         0.00000E+00        -0.43241E+08
 
   -0.42280E+08         0.12863E+07         0.00000E+00
    0.12863E+07        -0.50033E+08         0.00000E+00
    0.00000E+00         0.00000E+00        -0.43250E+08
 
   -0.42324E+08         0.13589E+07         0.00000E+00
    0.13589E+07        -0.50035E+08         0.00000E+00
    0.00000E+00         0.00000E+00        -0.43260E+08
 
   -0.42367E+08         0.14321E+07         0.00000E+00
    0.14321E+07        -0.50037E+08         0.00000E+00
    0.00000E+00         0.00000E+00        -0.43269E+08
 
   -0.42410E+08         0.15058E+07         0.00000E+00
    0.15058E+07        -0.50039E+08         0.00000E+00
    0.00000E+00         0.00000E+00        -0.43278E+08
 
   -0.42452E+08         0.15802E+07         0.00000E+00
    0.15802E+07        -0.50041E+08         0.00000E+00
    0.00000E+00         0.00000E+00        -0.43286E+08
 
   -0.42492E+08         0.16551E+07         0.00000E+00
    0.16551E+07        -0.50042E+08         0.00000E+00
    0.00000E+00         0.00000E+00        -0.43295E+08
 
   -0.42533E+08         0.17308E+07         0.00000E+00
    0.17308E+07        -0.50043E+08         0.00000E+00
    0.00000E+00         0.00000E+00        -0.43303E+08
 
   -0.42572E+08         0.18070E+07         0.00000E+00
    0.18070E+07        -0.50044E+08         0.00000E+00
    0.00000E+00         0.00000E+00        -0.43311E+08
 
   -0.42611E+08         0.18840E+07         0.00000E+00
    0.18840E+07        -0.50044E+08         0.00000E+00
    0.00000E+00         0.00000E+00        -0.43319E+08
 
   -0.42649E+08         0.19617E+07         0.00000E+00
    0.19617E+07        -0.50044E+08         0.00000E+00
    0.00000E+00         0.00000E+00        -0.43326E+08
 
   -0.42686E+08         0.20401E+07         0.00000E+00
    0.20401E+07        -0.50044E+08         0.00000E+00
    0.00000E+00         0.00000E+00        -0.43334E+08
 
   -0.42723E+08         0.21192E+07         0.00000E+00
    0.21192E+07        -0.50043E+08         0.00000E+00
    0.00000E+00         0.00000E+00        -0.43341E+08
 
   -0.42760E+08         0.21991E+07         0.00000E+00
    0.21991E+07        -0.50042E+08         0.00000E+00
    0.00000E+00         0.00000E+00        -0.43348E+08
 
   -0.42796E+08         0.22798E+07         0.00000E+00
    0.22798E+07        -0.50040E+08         0.00000E+00
    0.00000E+00         0.00000E+00        -0.43355E+08
 
   -0.42832E+08         0.23612E+07         0.00000E+00
    0.23612E+07        -0.50038E+08         0.00000E+00
    0.00000E+00         0.00000E+00        -0.43362E+08
 
   -0.42868E+08         0.24435E+07         0.00000E+00
    0.24435E+07        -0.50035E+08         0.00000E+00
    0.00000E+00         0.00000E+00        -0.43368E+08
 
   -0.42903E+08         0.25265E+07         0.00000E+00
    0.25265E+07        -0.50032E+08         0.00000E+00
    0.00000E+00         0.00000E+00        -0.43375E+08
 
   -0.42938E+08         0.26104E+07         0.00000E+00
    0.26104E+07        -0.50027E+08         0.00000E+00
    0.00000E+00         0.00000E+00        -0.43381E+08
 
   -0.42973E+08         0.26950E+07         0.00000E+00
    0.26950E+07        -0.50023E+08         0.00000E+00
    0.00000E+00         0.00000E+00        -0.43387E+08
 
   -0.43008E+08         0.27805E+07         0.00000E+00
    0.27805E+07        -0.50017E+08         0.00000E+00
    0.00000E+00         0.00000E+00        -0.43393E+08
 
   -0.43043E+08         0.28669E+07         0.00000E+00
    0.28669E+07        -0.50011E+08         0.00000E+00
    0.00000E+00         0.00000E+00        -0.43399E+08
 
   -0.43078E+08         0.29540E+07         0.00000E+00
    0.29540E+07        -0.50005E+08         0.00000E+00
    0.00000E+00         0.00000E+00        -0.43404E+08
 
   -0.43113E+08         0.30421E+07         0.00000E+00
    0.30421E+07        -0.49997E+08         0.00000E+00
    0.00000E+00         0.00000E+00        -0.43410E+08
 
   -0.43148E+08         0.31310E+07         0.00000E+00
    0.31310E+07        -0.49989E+08         0.00000E+00
    0.00000E+00         0.00000E+00        -0.43415E+08
 
   -0.43183E+08         0.32207E+07         0.00000E+00
    0.32207E+07        -0.49979E+08         0.00000E+00
    0.00000E+00         0.00000E+00        -0.43420E+08
 
   -0.43218E+08         0.33113E+07         0.00000E+00
    0.33113E+07        -0.49969E+08         0.00000E+00
    0.00000E+00         0.00000E+00        -0.43425E+08
 
   -0.43254E+08         0.34028E+07         0.00000E+00
    0.34028E+07        -0.49959E+08         0.00000E+00
    0.00000E+00         0.00000E+00        -0.43430E+08
 
   -0.43290E+08         0.34951E+07         0.00000E+00
    0.34951E+07        -0.49947E+08         0.00000E+00
    0.00000E+00         0.00000E+00        -0.43435E+08
 
   -0.43326E+08         0.35884E+07         0.00000E+00
    0.35884E+07        -0.49934E+08         0.00000E+00
    0.00000E+00         0.00000E+00        -0.43440E+08
 
   -0.43362E+08         0.36825E+07         0.00000E+00
    0.36825E+07        -0.49920E+08         0.00000E+00
    0.00000E+00         0.00000E+00        -0.43444E+08
 
   -0.43399E+08         0.37774E+07         0.00000E+00
    0.37774E+07        -0.49906E+08         0.00000E+00
    0.00000E+00         0.00000E+00        -0.43449E+08
 
   -0.43436E+08         0.38733E+07         0.00000E+00
    0.38733E+07        -0.49890E+08         0.00000E+00
    0.00000E+00         0.00000E+00        -0.43453E+08
 
   -0.40922E+08         0.33709E+05         0.00000E+00
    0.33709E+05        -0.49999E+08         0.00000E+00
    0.00000E+00         0.00000E+00        -0.42557E+08
 
   -0.40992E+08         0.10075E+06         0.00000E+00
    0.10075E+06        -0.50000E+08         0.00000E+00
    0.00000E+00         0.00000E+00        -0.42571E+08
 
   -0.41061E+08         0.16770E+06         0.00000E+00
    0.16770E+06        -0.50001E+08         0.00000E+00
    0.00000E+00         0.00000E+00        -0.42585E+08
 
   -0.41127E+08         0.23463E+06         0.00000E+00
    0.23463E+06        -0.50002E+08         0.00000E+00
    0.00000E+00         0.00000E+00        -0.42598E+08
 
   -0.41192E+08         0.30160E+06         0.00000E+00
    0.30160E+06        -0.50004E+08         0.00000E+00
    0.00000E+00         0.00000E+00        -0.42612E+08
 
   -0.41254E+08         0.36865E+06         0.00000E+00
    0.36865E+06        -0.50006E+08         0.00000E+00
    0.00000E+00         0.00000E+00        -0.42625E+08
 
   -0.41315E+08         0.43586E+06         0.00000E+00
    0.43586E+06        -0.50008E+08         0.00000E+00
    0.00000E+00         0.00000E+00        -0.42637E+08
 
   -0.41374E+08         0.50326E+06         0.00000E+00
    0.50326E+06        -0.50011E+08         0.00000E+00
    0.00000E+00         0.00000E+00        -0.42650E+08
 
   -0.41431E+08         0.57090E+06         0.00000E+00
    0.57090E+06        -0.50014E+08         0.00000E+00
    0.00000E+00         0.00000E+00        -0.42662E+08
 
   -0.41486E+08         0.63885E+06         0.00000E+00
    0.63885E+06        -0.50017E+08         0.00000E+00
    0.00000E+00         0.00000E+00        -0.42673E+08
 
   -0.41540E+08         0.70714E+06         0.00000E+00
    0.70714E+06        -0.50020E+08         0.00000E+00
    0.00000E+00         0.00000E+00        -0.42685E+08
 
   -0.41592E+08         0.77581E+06         0.00000E+00
    0.77581E+06        -0.50024E+08         0.00000E+00
    0.00000E+00         0.00000E+00        -0.42696E+08
 
   -0.41643E+08         0.84492E+06         0.00000E+00
    0.84492E+06        -0.50028E+08         0.00000E+00
    0.00000E+00         0.00000E+00        -0.42707E+08
 
   -0.41692E+08         0.91450E+06         0.00000E+00
    0.91450E+06        -0.50032E+08         0.00000E+00
    0.00000E+00         0.00000E+00        -0.42717E+08
 
   -0.41739E+08         0.98460E+06         0.00000E+00
    0.98460E+06        -0.50036E+08         0.00000E+00
    0.00000E+00         0.00000E+00        -0.42728E+08
 
   -0.41786E+08         0.10552E+07         0.00000E+00
    0.10552E+07        -0.50040E+08         0.00000E+00
    0.00000E+00         0.00000E+00        -0.42738E+08
 
   -0.41831E+08         0.11265E+07         0.00000E+00
    0.11265E+07        -0.50044E+08         0.00000E+00
    0.00000E+00         0.00000E+00        -0.42748E+08
 
   -0.41874E+08         0.11983E+07         0.00000E+00
    0.11983E+07        -0.50048E+08         0.00000E+00
    0.00000E+00         0.00000E+00        -0.42757E+08
 
   -0.41917E+08         0.12708E+07         0.00000E+00
    0.12708E+07        -0.50052E+08         0.00000E+00
    0.00000E+00         0.00000E+00        -0.42766E+08
 
   -0.41958E+08         0.13440E+07         0.00000E+00
    0.13440E+07        -0.50056E+08         0.00000E+00
    0.00000E+00         0.00000E+00        -0.42776E+08
 
   -0.41998E+08         0.14179E+07         0.00000E+00
    0.14179E+07        -0.50060E+08         0.00000E+00
    0.00000E+00         0.00000E+00        -0.42784E+08
 
   -0.42037E+08         0.14925E+07         0.00000E+00
    0.14925E+07        -0.50064E+08         0.00000E+00
    0.00000E+00         0.00000E+00        -0.42793E+08
 
   -0.42075E+08         0.15679E+07         0.00000E+00
    0.15679E+07        -0.50068E+08         0.00000E+00
    0.00000E+00         0.00000E+00        -0.42801E+08
 
   -0.42113E+08         0.16441E+07         0.00000E+00
    0.16441E+07        -0.50071E+08         0.00000E+00
    0.00000E+00         0.00000E+00        -0.42809E+08
 
   -0.42149E+08         0.17211E+07         0.00000E+00
    0.17211E+07        -0.50074E+08         0.00000E+00
    0.00000E+00         0.00000E+00        -0.42817E+08
 
   -0.42185E+08         0.17990E+07         0.00000E+00
    0.17990E+07        -0.50077E+08         0.00000E+00
    0.00000E+00         0.00000E+00        -0.42825E+08
 
   -0.42219E+08         0.18776E+07         0.00000E+00
    0.18776E+07        -0.50080E+08         0.00000E+00
    0.00000E+00         0.00000E+00        -0.42832E+08
 
   -0.42254E+08         0.19572E+07         0.00000E+00
    0.19572E+07        -0.50082E+08         0.00000E+00
    0.00000E+00         0.00000E+00        -0.42840E+08
 
   -0.42287E+08         0.20376E+07         0.00000E+00
    0.20376E+07        -0.50084E+08         0.00000E+00
    0.00000E+00         0.00000E+00        -0.42847E+08
 
   -0.42320E+08         0.21190E+07         0.00000E+00
    0.21190E+07        -0.50085E+08         0.00000E+00
    0.00000E+00         0.00000E+00        -0.42854E+08
 
   -0.42353E+08         0.22012E+07         0.00000E+00
    0.22012E+07        -0.50086E+08         0.00000E+00
    0.00000E+00         0.00000E+00        -0.42860E+08
 
   -0.42384E+08         0.22844E+07         0.00000E+00
    0.22844E+07        -0.50086E+08         0.00000E+00
    0.00000E+00         0.00000E+00        -0.42867E+08
 
   -0.42416E+08         0.23685E+07         0.00000E+00
    0.23685E+07        -0.50086E+08         0.00000E+00
    0.00000E+00         0.00000E+00        -0.42873E+08
 
   -0.42447E+08         0.24536E+07         0.00000E+00
    0.24536E+07        -0.50086E+08         0.00000E+00
    0.00000E+00         0.00000E+00        -0.42879E+08
 
   -0.42478E+08         0.25396E+07         0.00000E+00
    0.25396E+07        -0.50085E+08         0.00000E+00
    0.00000E+00         0.00000E+00        -0.42885E+08
 
   -0.42509E+08         0.26266E+07         0.00000E+00
    0.26266E+07        -0.50083E+08         0.00000E+00
    0.00000E+00         0.00000E+00        -0.42891E+08
 
   -0.42539E+08         0.27146E+07         0.00000E+00
    0.27146E+07        -0.50081E+08         0.00000E+00
    0.00000E+00         0.00000E+00        -0.42897E+08
 
   -0.42570E+08         0.28036E+07         0.00000E+00
    0.28036E+07        -0.50077E+08         0.00000E+00
    0.00000E+00         0.00000E+00        -0.42902E+08
 
   -0.42600E+08         0.28935E+07         0.00000E+00
    0.28935E+07        -0.50074E+08         0.00000E+00
    0.00000E+00         0.00000E+00        -0.42907E+08
 
   -0.42630E+08         0.29845E+07         0.00000E+00
    0.29845E+07        -0.50069E+08         0.00000E+00
    0.00000E+00         0.00000E+00        -0.42913E+08
 
   -0.42661E+08         0.30764E+07         0.00000E+00
    0.30764E+07        -0.50064E+08         0.00000E+00
    0.00000E+00         0.00000E+00        -0.42918E+08
 
   -0.42691E+08         0.31694E+07         0.00000E+00
    0.31694E+07        -0.50058E+08         0.00000E+00
    0.00000E+00         0.00000E+00        -0.42922E+08
 
   -0.42721E+08         0.32633E+07         0.00000E+00
    0.32633E+07        -0.50051E+08         0.00000E+00
    0.00000E+00         0.00000E+00        -0.42927E+08
 
   -0.42752E+08         0.33583E+07         0.00000E+00
    0.33583E+07        -0.50043E+08         0.00000E+00
    0.00000E+00         0.00000E+00        -0.42932E+08
 
   -0.42783E+08         0.34543E+07         0.00000E+00
    0.34543E+07        -0.50034E+08         0.00000E+00
    0.00000E+00         0.00000E+00        -0.42936E+08
 
   -0.42814E+08         0.35513E+07         0.00000E+00
    0.35513E+07        -0.50025E+08         0.00000E+00
    0.00000E+00         0.00000E+00        -0.42940E+08
 
   -0.42845E+08         0.36493E+07         0.00000E+00
    0.36493E+07        -0.50014E+08         0.00000E+00
    0.00000E+00         0.00000E+00        -0.42945E+08
 
   -0.42877E+08         0.37483E+07         0.00000E+00
    0.37483E+07        -0.50002E+08         0.00000E+00
    0.00000E+00         0.00000E+00        -0.42949E+08
 
   -0.42909E+08         0.38483E+07         0.00000E+00
    0.38483E+07        -0.49990E+08         0.00000E+00
    0.00000E+00         0.00000E+00        -0.42952E+08
 
   -0.42942E+08         0.39494E+07         0.00000E+00
    0.39494E+07        -0.49976E+08         0.00000E+00
    0.00000E+00         0.00000E+00        -0.42956E+08
 
   -0.40593E+08         0.32289E+05         0.00000E+00
    0.32289E+05        -0.49999E+08         0.00000E+00
    0.00000E+00         0.00000E+00        -0.42052E+08
 
   -0.40663E+08         0.96747E+05         0.00000E+00
    0.96747E+05        -0.50000E+08         0.00000E+00
    0.00000E+00         0.00000E+00        -0.42066E+08
 
   -0.40732E+08         0.16124E+06         0.00000E+00
    0.16124E+06        -0.50001E+08         0.00000E+00
    0.00000E+00         0.00000E+00        -0.42080E+08
 
   -0.40798E+08         0.22584E+06         0.00000E+00
    0.22584E+06        -0.50003E+08         0.00000E+00
    0.00000E+00         0.00000E+00        -0.42094E+08
 
   -0.40862E+08         0.29061E+06         0.00000E+00
    0.29061E+06        -0.50005E+08         0.00000E+00
    0.00000E+00         0.00000E+00        -0.42107E+08
 
   -0.40923E+08         0.35561E+06         0.00000E+00
    0.35561E+06        -0.50008E+08         0.00000E+00
    0.00000E+00         0.00000E+00        -0.42120E+08
 
   -0.40983E+08         0.42089E+06         0.00000E+00
    0.42089E+06        -0.50011E+08         0.00000E+00
    0.00000E+00         0.00000E+00        -0.42133E+08
 
   -0.41040E+08         0.48653E+06         0.00000E+00
    0.48653E+06        -0.50015E+08         0.00000E+00
    0.00000E+00         0.00000E+00        -0.42145E+08
 
   -0.41096E+08         0.55256E+06         0.00000E+00
    0.55256E+06        -0.50019E+08         0.00000E+00
    0.00000E+00         0.00000E+00        -0.42157E+08
 
   -0.41149E+08         0.61905E+06         0.00000E+00
    0.61905E+06        -0.50023E+08         0.00000E+00
    0.00000E+00         0.00000E+00        -0.42168E+08
 
   -0.41200E+08         0.68605E+06         0.00000E+00
    0.68605E+06        -0.50028E+08         0.00000E+00
    0.00000E+00         0.00000E+00        -0.42180E+08
 
   -0.41250E+08         0.75360E+06         0.00000E+00
    0.75360E+06        -0.50033E+08         0.00000E+00
    0.00000E+00         0.00000E+00        -0.42190E+08
 
   -0.41298E+08         0.82176E+06         0.00000E+00
    0.82176E+06        -0.50039E+08         0.00000E+00
    0.00000E+00         0.00000E+00        -0.42201E+08
 
   -0.41344E+08         0.89055E+06         0.00000E+00
    0.89055E+06        -0.50044E+08         0.00000E+00
    0.00000E+00         0.00000E+00        -0.42211E+08
 
   -0.41389E+08         0.96004E+06         0.00000E+00
    0.96004E+06        -0.50050E+08         0.00000E+00
    0.00000E+00         0.00000E+00        -0.42222E+08
 
   -0.41432E+08         0.10302E+07         0.00000E+00
    0.10302E+07        -0.50056E+08         0.00000E+00
    0.00000E+00         0.00000E+00        -0.42231E+08
 
   -0.41473E+08         0.11012E+07         0.00000E+00
    0.11012E+07        -0.50062E+08         0.00000E+00
    0.00000E+00         0.00000E+00        -0.42241E+08
 
   -0.41513E+08         0.11730E+07         0.00000E+00
    0.11730E+07        -0.50068E+08         0.00000E+00
    0.00000E+00         0.00000E+00        -0.42250E+08
 
   -0.41552E+08         0.12456E+07         0.00000E+00
    0.12456E+07        -0.50074E+08         0.00000E+00
    0.00000E+00         0.00000E+00        -0.42259E+08
 
   -0.41589E+08         0.13191E+07         0.00000E+00
    0.13191E+07        -0.50080E+08         0.00000E+00
    0.00000E+00         0.00000E+00        -0.42268E+08
 
   -0.41625E+08         0.13934E+07         0.00000E+00
    0.13934E+07        -0.50086E+08         0.00000E+00
    0.00000E+00         0.00000E+00        -0.42276E+08
 
   -0.41660E+08         0.14687E+07         0.00000E+00
    0.14687E+07        -0.50092E+08         0.00000E+00
    0.00000E+00         0.00000E+00        -0.42284E+08
 
   -0.41694E+08         0.15450E+07         0.00000E+00
    0.15450E+07        -0.50098E+08         0.00000E+00
    0.00000E+00         0.00000E+00        -0.42292E+08
 
   -0.41727E+08         0.16222E+07         0.00000E+00
    0.16222E+07        -0.50104E+08         0.00000E+00
    0.00000E+00         0.00000E+00        -0.42300E+08
 
   -0.41759E+08         0.17004E+07         0.00000E+00
    0.17004E+07        -0.50109E+08         0.00000E+00
    0.00000E+00         0.00000E+00        -0.42307E+08
 
   -0.41790E+08         0.17796E+07         0.00000E+00
    0.17796E+07        -0.50115E+08         0.00000E+00
    0.00000E+00         0.00000E+00        -0.42315E+08
 
   -0.41820E+08         0.18598E+07         0.00000E+00
    0.18598E+07        -0.50119E+08         0.00000E+00
    0.00000E+00         0.00000E+00        -0.42322E+08
 
   -0.41849E+08         0.19411E+07         0.00000E+00
    0.19411E+07        -0.50124E+08         0.00000E+00
    0.00000E+00         0.00000E+00        -0.42328E+08
 
   -0.41878E+08         0.20235E+07         0.00000E+00
    0.20235E+07        -0.50128E+08         0.00000E+00
    0.00000E+00         0.00000E+00        -0.42335E+08
 
   -0.41906E+08         0.21069E+07         0.00000E+00
    0.21069E+07        -0.50132E+08         0.00000E+00
    0.00000E+00         0.00000E+00        -0.42341E+08
 
   -0.41933E+08         0.21915E+07         0.00000E+00
    0.21915E+07        -0.50136E+08         0.00000E+00
    0.00000E+00         0.00000E+00        -0.42348E+08
 
   -0.41960E+08         0.22771E+07         0.00000E+00
    0.22771E+07        -0.50139E+08         0.00000E+00
    0.00000E+00         0.00000E+00        -0.42354E+08
 
   -0.41986E+08         0.23639E+07         0.00000E+00
    0.23639E+07        -0.50141E+08         0.00000E+00
    0.00000E+00         0.00000E+00        -0.42359E+08
 
   -0.42012E+08         0.24517E+07         0.00000E+00
    0.24517E+07        -0.50143E+08         0.00000E+00
    0.00000E+00         0.00000E+00        -0.42365E+08
 
   -0.42038E+08         0.25407E+07         0.00000E+00
    0.25407E+07        -0.50145E+08         0.00000E+00
    0.00000E+00         0.00000E+00        -0.42370E+08
 
   -0.42063E+08         0.26309E+07         0.00000E+00
    0.26309E+07        -0.50145E+08         0.00000E+00
    0.00000E+00         0.00000E+00        -0.42376E+08
 
   -0.42089E+08         0.27222E+07         0.00000E+00
    0.27222E+07        -0.50146E+08         0.00000E+00
    0.00000E+00         0.00000E+00        -0.42381E+08
 
   -0.42114E+08         0.28146E+07         0.00000E+00
    0.28146E+07        -0.50145E+08         0.00000E+00
    0.00000E+00         0.00000E+00        -0.42386E+08
 
   -0.42138E+08         0.29082E+07         0.00000E+00
    0.29082E+07        -0.50144E+08         0.00000E+00
    0.00000E+00         0.00000E+00        -0.42390E+08
 
   -0.42163E+08         0.30029E+07         0.00000E+00
    0.30029E+07        -0.50142E+08         0.00000E+00
    0.00000E+00         0.00000E+00        -0.42395E+08
 
   -0.42188E+08         0.30988E+07         0.00000E+00
    0.30988E+07        -0.50139E+08         0.00000E+00
    0.00000E+00         0.00000E+00        -0.42399E+08
 
   -0.42213E+08         0.31959E+07         0.00000E+00
    0.31959E+07        -0.50135E+08         0.00000E+00
    0.00000E+00         0.00000E+00        -0.42404E+08
 
   -0.42238E+08         0.32941E+07         0.00000E+00
    0.32941E+07        -0.50131E+08         0.00000E+00
    0.00000E+00         0.00000E+00        -0.42408E+08
 
   -0.42263E+08         0.33935E+07         0.00000E+00
    0.33935E+07        -0.50126E+08         0.00000E+00
    0.00000E+00         0.00000E+00        -0.42412E+08
 
   -0.42289E+08         0.34940E+07         0.00000E+00
    0.34940E+07        -0.50120E+08         0.00000E+00
    0.00000E+00         0.00000E+00        -0.42415E+08
 
   -0.42314E+08         0.35957E+07         0.00000E+00
    0.35957E+07        -0.50112E+08         0.00000E+00
    0.00000E+00         0.00000E+00        -0.42419E+08
 
   -0.42340E+08         0.36986E+07         0.00000E+00
    0.36986E+07        -0.50104E+08         0.00000E+00
    0.00000E+00         0.00000E+00        -0.42423E+08
 
   -0.42367E+08         0.38026E+07         0.00000E+00
    0.38026E+07        -0.50095E+08         0.00000E+00
    0.00000E+00         0.00000E+00        -0.42426E+08
 
   -0.42393E+08         0.39078E+07         0.00000E+00
    0.39078E+07        -0.50085E+08         0.00000E+00
    0.00000E+00         0.00000E+00        -0.42429E+08
 
   -0.42421E+08         0.40141E+07         0.00000E+00
    0.40141E+07        -0.50074E+08         0.00000E+00
    0.00000E+00         0.00000E+00        -0.42433E+08
 
   -0.40279E+08         0.30426E+05         0.00000E+00
    0.30426E+05        -0.49999E+08         0.00000E+00
    0.00000E+00         0.00000E+00        -0.41526E+08
 
   -0.40349E+08         0.91480E+05         0.00000E+00
    0.91480E+05        -0.50000E+08         0.00000E+00
    0.00000E+00         0.00000E+00        -0.41541E+08
 
   -0.40417E+08         0.15272E+06         0.00000E+00
    0.15272E+06        -0.50002E+08         0.00000E+00
    0.00000E+00         0.00000E+00        -0.41554E+08
 
   -0.40482E+08         0.21422E+06         0.00000E+00
    0.21422E+06        -0.50004E+08         0.00000E+00
    0.00000E+00         0.00000E+00        -0.41568E+08
 
   -0.40544E+08         0.27605E+06         0.00000E+00
    0.27605E+06        -0.50007E+08         0.00000E+00
    0.00000E+00         0.00000E+00        -0.41581E+08
 
   -0.40604E+08         0.33827E+06         0.00000E+00
    0.33827E+06        -0.50010E+08         0.00000E+00
    0.00000E+00         0.00000E+00        -0.41594E+08
 
   -0.40662E+08         0.40096E+06         0.00000E+00
    0.40096E+06        -0.50015E+08         0.00000E+00
    0.00000E+00         0.00000E+00        -0.41606E+08
 
   -0.40717E+08         0.46418E+06         0.00000E+00
    0.46418E+06        -0.50020E+08         0.00000E+00
    0.00000E+00         0.00000E+00        -0.41618E+08
 
   -0.40769E+08         0.52798E+06         0.00000E+00
    0.52798E+06        -0.50025E+08         0.00000E+00
    0.00000E+00         0.00000E+00        -0.41630E+08
 
   -0.40820E+08         0.59242E+06         0.00000E+00
    0.59242E+06        -0.50031E+08         0.00000E+00
    0.00000E+00         0.00000E+00        -0.41641E+08
 
   -0.40868E+08         0.65756E+06         0.00000E+00
    0.65756E+06        -0.50037E+08         0.00000E+00
    0.00000E+00         0.00000E+00        -0.41652E+08
 
   -0.40915E+08         0.72345E+06         0.00000E+00
    0.72345E+06        -0.50044E+08         0.00000E+00
    0.00000E+00         0.00000E+00        -0.41662E+08
 
   -0.40959E+08         0.79014E+06         0.00000E+00
    0.79014E+06        -0.50051E+08         0.00000E+00
    0.00000E+00         0.00000E+00        -0.41673E+08
 
   -0.41001E+08         0.85768E+06         0.00000E+00
    0.85768E+06        -0.50058E+08         0.00000E+00
    0.00000E+00         0.00000E+00        -0.41683E+08
 
   -0.41042E+08         0.92610E+06         0.00000E+00
    0.92610E+06        -0.50066E+08         0.00000E+00
    0.00000E+00         0.00000E+00        -0.41692E+08
 
   -0.41080E+08         0.99545E+06         0.00000E+00
    0.99545E+06        -0.50074E+08         0.00000E+00
    0.00000E+00         0.00000E+00        -0.41702E+08
 
   -0.41118E+08         0.10658E+07         0.00000E+00
    0.10658E+07        -0.50082E+08         0.00000E+00
    0.00000E+00         0.00000E+00        -0.41711E+08
 
   -0.41153E+08         0.11371E+07         0.00000E+00
    0.11371E+07        -0.50090E+08         0.00000E+00
    0.00000E+00         0.00000E+00        -0.41719E+08
 
   -0.41187E+08         0.12095E+07         0.00000E+00
    0.12095E+07        -0.50099E+08         0.00000E+00
    0.00000E+00         0.00000E+00        -0.41728E+08
 
   -0.41219E+08         0.12829E+07         0.00000E+00
    0.12829E+07        -0.50107E+08         0.00000E+00
    0.00000E+00         0.00000E+00        -0.41736E+08
 
   -0.41250E+08         0.13574E+07         0.00000E+00
    0.13574E+07        -0.50116E+08         0.00000E+00
    0.00000E+00         0.00000E+00        -0.41744E+08
 
   -0.41280E+08         0.14331E+07         0.00000E+00
    0.14331E+07        -0.50124E+08         0.00000E+00
    0.00000E+00         0.00000E+00        -0.41752E+08
 
   -0.41309E+08         0.15099E+07         0.00000E+00
    0.15099E+07        -0.50132E+08         0.00000E+00
    0.00000E+00         0.00000E+00        -0.41759E+08
 
   -0.41336E+08         0.15879E+07         0.00000E+00
    0.15879E+07        -0.50141E+08         0.00000E+00
    0.00000E+00         0.00000E+00        -0.41766E+08
 
   -0.41362E+08         0.16671E+07         0.00000E+00
    0.16671E+07        -0.50149E+08         0.00000E+00
    0.00000E+00         0.00000E+00        -0.41773E+08
 
   -0.41388E+08         0.17476E+07         0.00000E+00
    0.17476E+07        -0.50157E+08         0.00000E+00
    0.00000E+00         0.00000E+00        -0.41780E+08
 
   -0.41412E+08         0.18292E+07         0.00000E+00
    0.18292E+07        -0.50164E+08         0.00000E+00
    0.00000E+00         0.00000E+00        -0.41786E+08
 
   -0.41436E+08         0.19121E+07         0.00000E+00
    0.19121E+07        -0.50172E+08         0.00000E+00
    0.00000E+00         0.00000E+00        -0.41792E+08
 
   -0.41458E+08         0.19963E+07         0.00000E+00
    0.19963E+07        -0.50179E+08         0.00000E+00
    0.00000E+00         0.00000E+00        -0.41798E+08
 
   -0.41480E+08         0.20817E+07         0.00000E+00
    0.20817E+07        -0.50185E+08         0.00000E+00
    0.00000E+00         0.00000E+00        -0.41804E+08
 
   -0.41502E+08         0.21685E+07         0.00000E+00
    0.21685E+07        -0.50192E+08         0.00000E+00
    0.00000E+00         0.00000E+00        -0.41809E+08
 
   -0.41523E+08         0.22565E+07         0.00000E+00
    0.22565E+07        -0.50198E+08         0.00000E+00
    0.00000E+00         0.00000E+00        -0.41815E+08
 
   -0.41543E+08         0.23458E+07         0.00000E+00
    0.23458E+07        -0.50203E+08         0.00000E+00
    0.00000E+00         0.00000E+00        -0.41820E+08
 
   -0.41563E+08         0.24364E+07         0.00000E+00
    0.24364E+07        -0.50208E+08         0.00000E+00
    0.00000E+00         0.00000E+00        -0.41825E+08
 
   -0.41582E+08         0.25284E+07         0.00000E+00
    0.25284E+07        -0.50212E+08         0.00000E+00
    0.00000E+00         0.00000E+00        -0.41830E+08
 
   -0.41602E+08         0.26217E+07         0.00000E+00
    0.26217E+07        -0.50215E+08         0.00000E+00
    0.00000E+00         0.00000E+00        -0.41834E+08
 
   -0.41621E+08         0.27163E+07         0.00000E+00
    0.27163E+07        -0.50218E+08         0.00000E+00
    0.00000E+00         0.00000E+00        -0.41839E+08
 
   -0.41640E+08         0.28122E+07         0.00000E+00
    0.28122E+07        -0.50221E+08         0.00000E+00
    0.00000E+00         0.00000E+00        -0.41843E+08
 
   -0.41658E+08         0.29094E+07         0.00000E+00
    0.29094E+07        -0.50222E+08         0.00000E+00
    0.00000E+00         0.00000E+00        -0.41847E+08
 
   -0.41677E+08         0.30080E+07         0.00000E+00
    0.30080E+07        -0.50223E+08         0.00000E+00
    0.00000E+00         0.00000E+00        -0.41851E+08
 
   -0.41696E+08         0.31079E+07         0.00000E+00
    0.31079E+07        -0.50223E+08         0.00000E+00
    0.00000E+00         0.00000E+00        -0.41855E+08
 
   -0.41714E+08         0.32091E+07         0.00000E+00
    0.32091E+07        -0.50222E+08         0.00000E+00
    0.00000E+00         0.00000E+00        -0.41858E+08
 
   -0.41733E+08         0.33116E+07         0.00000E+00
    0.33116E+07        -0.50221E+08         0.00000E+00
    0.00000E+00         0.00000E+00        -0.41862E+08
 
   -0.41752E+08         0.34154E+07         0.00000E+00
    0.34154E+07        -0.50218E+08         0.00000E+00
    0.00000E+00         0.00000E+00        -0.41865E+08
 
   -0.41771E+08         0.35206E+07         0.00000E+00
    0.35206E+07        -0.50215E+08         0.00000E+00
    0.00000E+00         0.00000E+00        -0.41868E+08
 
   -0.41791E+08         0.36270E+07         0.00000E+00
    0.36270E+07        -0.50211E+08         0.00000E+00
    0.00000E+00         0.00000E+00        -0.41871E+08
 
   -0.41811E+08         0.37348E+07         0.00000E+00
    0.37348E+07        -0.50205E+08         0.00000E+00
    0.00000E+00         0.00000E+00        -0.41874E+08
 
   -0.41831E+08         0.38439E+07         0.00000E+00
    0.38439E+07        -0.50199E+08         0.00000E+00
    0.00000E+00         0.00000E+00        -0.41877E+08
 
   -0.41851E+08         0.39543E+07         0.00000E+00
    0.39543E+07        -0.50192E+08         0.00000E+00
    0.00000E+00         0.00000E+00        -0.41879E+08
 
   -0.41872E+08         0.40660E+07         0.00000E+00
    0.40660E+07        -0.50183E+08         0.00000E+00
    0.00000E+00         0.00000E+00        -0.41882E+08
 
   -0.39984E+08         0.28055E+05         0.00000E+00
    0.28055E+05        -0.49999E+08         0.00000E+00
    0.00000E+00         0.00000E+00        -0.40980E+08
 
   -0.40054E+08         0.84768E+05         0.00000E+00
    0.84768E+05        -0.50000E+08         0.00000E+00
    0.00000E+00         0.00000E+00        -0.40994E+08
 
   -0.40120E+08         0.14185E+06         0.00000E+00
    0.14185E+06        -0.50002E+08         0.00000E+00
    0.00000E+00         0.00000E+00        -0.41008E+08
 
   -0.40183E+08         0.19938E+06         0.00000E+00
    0.19938E+06        -0.50005E+08         0.00000E+00
    0.00000E+00         0.00000E+00        -0.41021E+08
 
   -0.40243E+08         0.25743E+06         0.00000E+00
    0.25743E+06        -0.50009E+08         0.00000E+00
    0.00000E+00         0.00000E+00        -0.41034E+08
 
   -0.40300E+08         0.31609E+06         0.00000E+00
    0.31609E+06        -0.50013E+08         0.00000E+00
    0.00000E+00         0.00000E+00        -0.41046E+08
 
   -0.40355E+08         0.37542E+06         0.00000E+00
    0.37542E+06        -0.50019E+08         0.00000E+00
    0.00000E+00         0.00000E+00        -0.41058E+08
 
   -0.40406E+08         0.43549E+06         0.00000E+00
    0.43549E+06        -0.50025E+08         0.00000E+00
    0.00000E+00         0.00000E+00        -0.41070E+08
 
   -0.40456E+08         0.49636E+06         0.00000E+00
    0.49636E+06        -0.50032E+08         0.00000E+00
    0.00000E+00         0.00000E+00        -0.41081E+08
 
   -0.40502E+08         0.55809E+06         0.00000E+00
    0.55809E+06        -0.50039E+08         0.00000E+00
    0.00000E+00         0.00000E+00        -0.41092E+08
 
   -0.40546E+08         0.62075E+06         0.00000E+00
    0.62075E+06        -0.50047E+08         0.00000E+00
    0.00000E+00         0.00000E+00        -0.41102E+08
 
   -0.40588E+08         0.68439E+06         0.00000E+00
    0.68439E+06        -0.50056E+08         0.00000E+00
    0.00000E+00         0.00000E+00        -0.41112E+08
 
   -0.40628E+08         0.74906E+06         0.00000E+00
    0.74906E+06        -0.50065E+08         0.00000E+00
    0.00000E+00         0.00000E+00        -0.41122E+08
 
   -0.40665E+08         0.81480E+06         0.00000E+00
    0.81480E+06        -0.50074E+08         0.00000E+00
    0.00000E+00         0.00000E+00        -0.41131E+08
 
   -0.40701E+08         0.88167E+06         0.00000E+00
    0.88167E+06        -0.50084E+08         0.00000E+00
    0.00000E+00         0.00000E+00        -0.41140E+08
 
   -0.40734E+08         0.94970E+06         0.00000E+00
    0.94970E+06        -0.50094E+08         0.00000E+00
    0.00000E+00         0.00000E+00        -0.41149E+08
 
   -0.40766E+08         0.10189E+07         0.00000E+00
    0.10189E+07        -0.50105E+08         0.00000E+00
    0.00000E+00         0.00000E+00        -0.41157E+08
 
   -0.40795E+08         0.10894E+07         0.00000E+00
    0.10894E+07        -0.50115E+08         0.00000E+00
    0.00000E+00         0.00000E+00        -0.41166E+08
 
   -0.40823E+08         0.11612E+07         0.00000E+00
    0.11612E+07        -0.50126E+08         0.00000E+00
    0.00000E+00         0.00000E+00        -0.41173E+08
 
   -0.40850E+08         0.12342E+07         0.00000E+00
    0.12342E+07        -0.50137E+08         0.00000E+00
    0.00000E+00         0.00000E+00        -0.41181E+08
 
   -0.40875E+08         0.13086E+07         0.00000E+00
    0.13086E+07        -0.50148E+08         0.00000E+00
    0.00000E+00         0.00000E+00        -0.41188E+08
 
   -0.40898E+08         0.13844E+07         0.00000E+00
    0.13844E+07        -0.50160E+08         0.00000E+00
    0.00000E+00         0.00000E+00        -0.41195E+08
 
   -0.40920E+08         0.14615E+07         0.00000E+00
    0.14615E+07        -0.50171E+08         0.00000E+00
    0.00000E+00         0.00000E+00        -0.41202E+08
 
   -0.40941E+08         0.15401E+07         0.00000E+00
    0.15401E+07        -0.50182E+08         0.00000E+00
    0.00000E+00         0.00000E+00        -0.41208E+08
 
   -0.40961E+08         0.16201E+07         0.00000E+00
    0.16201E+07        -0.50193E+08         0.00000E+00
    0.00000E+00         0.00000E+00        -0.41214E+08
 
   -0.40980E+08         0.17015E+07         0.00000E+00
    0.17015E+07        -0.50204E+08         0.00000E+00
    0.00000E+00         0.00000E+00        -0.41220E+08
 
   -0.40997E+08         0.17844E+07         0.00000E+00
    0.17844E+07        -0.50214E+08         0.00000E+00
    0.00000E+00         0.00000E+00        -0.41226E+08
 
   -0.41014E+08         0.18688E+07         0.00000E+00
    0.18688E+07        -0.50225E+08         0.00000E+00
    0.00000E+00         0.00000E+00        -0.41231E+08
 
   -0.41030E+08         0.19546E+07         0.00000E+00
    0.19546E+07        -0.50235E+08         0.00000E+00
    0.00000E+00         0.00000E+00        -0.41236E+08
 
   -0.41045E+08         0.20419E+07         0.00000E+00
    0.20419E+07        -0.50244E+08         0.00000E+00
    0.00000E+00         0.00000E+00        -0.41241E+08
 
   -0.41059E+08         0.21308E+07         0.00000E+00
    0.21308E+07        -0.50254E+08         0.00000E+00
    0.00000E+00         0.00000E+00        -0.41246E+08
 
   -0.41073E+08         0.22211E+07         0.00000E+00
    0.22211E+07        -0.50263E+08         0.00000E+00
    0.00000E+00         0.00000E+00        -0.41251E+08
 
   -0.41086E+08         0.23129E+07         0.00000E+00
    0.23129E+07        -0.50271E+08         0.00000E+00
    0.00000E+00         0.00000E+00        -0.41255E+08
 
   -0.41099E+08         0.24063E+07         0.00000E+00
    0.24063E+07        -0.50279E+08         0.00000E+00
    0.00000E+00         0.00000E+00        -0.41259E+08
 
   -0.41112E+08         0.25012E+07         0.00000E+00
    0.25012E+07        -0.50286E+08         0.00000E+00
    0.00000E+00         0.00000E+00        -0.41263E+08
 
   -0.41124E+08         0.25976E+07         0.00000E+00
    0.25976E+07        -0.50293E+08         0.00000E+00
    0.00000E+00         0.00000E+00        -0.41267E+08
 
   -0.41136E+08         0.26954E+07         0.00000E+00
    0.26954E+07        -0.50299E+08         0.00000E+00
    0.00000E+00         0.00000E+00        -0.41270E+08
 
   -0.41148E+08         0.27948E+07         0.00000E+00
    0.27948E+07        -0.50305E+08         0.00000E+00
    0.00000E+00         0.00000E+00        -0.41274E+08
 
   -0.41159E+08         0.28958E+07         0.00000E+00
    0.28958E+07        -0.50309E+08         0.00000E+00
    0.00000E+00         0.00000E+00        -0.41277E+08
 
   -0.41171E+08         0.29982E+07         0.00000E+00
    0.29982E+07        -0.50313E+08         0.00000E+00
    0.00000E+00         0.00000E+00        -0.41280E+08
 
   -0.41183E+08         0.31021E+07         0.00000E+00
    0.31021E+07        -0.50316E+08         0.00000E+00
    0.00000E+00         0.00000E+00        -0.41283E+08
 
   -0.41194E+08         0.32075E+07         0.00000E+00
    0.32075E+07        -0.50319E+08         0.00000E+00
    0.00000E+00         0.00000E+00        -0.41286E+08
 
   -0.41206E+08         0.33143E+07         0.00000E+00
    0.33143E+07        -0.50320E+08         0.00000E+00
    0.00000E+00         0.00000E+00        -0.41289E+08
 
   -0.41218E+08         0.34227E+07         0.00000E+00
    0.34227E+07        -0.50321E+08         0.00000E+00
    0.00000E+00         0.00000E+00        -0.41291E+08
 
   -0.41231E+08         0.35325E+07         0.00000E+00
    0.35325E+07        -0.50320E+08         0.00000E+00
    0.00000E+00         0.00000E+00        -0.41294E+08
 
   -0.41243E+08         0.36438E+07         0.00000E+00
    0.36438E+07        -0.50319E+08         0.00000E+00
    0.00000E+00         0.00000E+00        -0.41296E+08
 
   -0.41256E+08         0.37566E+07         0.00000E+00
    0.37566E+07        -0.50317E+08         0.00000E+00
    0.00000E+00         0.00000E+00        -0.41298E+08
 
   -0.41269E+08         0.38707E+07         0.00000E+00
    0.38707E+07        -0.50313E+08         0.00000E+00
    0.00000E+00         0.00000E+00        -0.41300E+08
 
   -0.41283E+08         0.39864E+07         0.00000E+00
    0.39864E+07        -0.50309E+08         0.00000E+00
    0.00000E+00         0.00000E+00        -0.41302E+08
 
   -0.41297E+08         0.41034E+07         0.00000E+00
    0.41034E+07        -0.50304E+08         0.00000E+00
    0.00000E+00         0.00000E+00        -0.41304E+08
 
   -0.39715E+08         0.25105E+05         0.00000E+00
    0.25105E+05        -0.49999E+08         0.00000E+00
    0.00000E+00         0.00000E+00        -0.40414E+08
 
   -0.39782E+08         0.76419E+05         0.00000E+00
    0.76419E+05        -0.50000E+08         0.00000E+00
    0.00000E+00         0.00000E+00        -0.40428E+08
 
   -0.39845E+08         0.12832E+06         0.00000E+00
    0.12832E+06        -0.50003E+08         0.00000E+00
    0.00000E+00         0.00000E+00        -0.40441E+08
 
   -0.39906E+08         0.18091E+06         0.00000E+00
    0.18091E+06        -0.50006E+08         0.00000E+00
    0.00000E+00         0.00000E+00        -0.40454E+08
 
   -0.39962E+08         0.23426E+06         0.00000E+00
    0.23426E+06        -0.50011E+08         0.00000E+00
    0.00000E+00         0.00000E+00        -0.40466E+08
 
   -0.40016E+08         0.28846E+06         0.00000E+00
    0.28846E+06        -0.50017E+08         0.00000E+00
    0.00000E+00         0.00000E+00        -0.40478E+08
 
   -0.40066E+08         0.34358E+06         0.00000E+00
    0.34358E+06        -0.50023E+08         0.00000E+00
    0.00000E+00         0.00000E+00        -0.40490E+08
 
   -0.40113E+08         0.39970E+06         0.00000E+00
    0.39970E+06        -0.50031E+08         0.00000E+00
    0.00000E+00         0.00000E+00        -0.40501E+08
 
   -0.40158E+08         0.45688E+06         0.00000E+00
    0.45688E+06        -0.50039E+08         0.00000E+00
    0.00000E+00         0.00000E+00        -0.40511E+08
 
   -0.40199E+08         0.51518E+06         0.00000E+00
    0.51518E+06        -0.50048E+08         0.00000E+00
    0.00000E+00         0.00000E+00        -0.40521E+08
 
   -0.40238E+08         0.57468E+06         0.00000E+00
    0.57468E+06        -0.50058E+08         0.00000E+00
    0.00000E+00         0.00000E+00        -0.40531E+08
 
   -0.40274E+08         0.63541E+06         0.00000E+00
    0.63541E+06        -0.50069E+08         0.00000E+00
    0.00000E+00         0.00000E+00        -0.40540E+08
 
   -0.40308E+08         0.69745E+06         0.00000E+00
    0.69745E+06        -0.50080E+08         0.00000E+00
    0.00000E+00         0.00000E+00        -0.40549E+08
 
   -0.40339E+08         0.76084E+06         0.00000E+00
    0.76084E+06        -0.50092E+08         0.00000E+00
    0.00000E+00         0.00000E+00        -0.40558E+08
 
   -0.40368E+08         0.82561E+06         0.00000E+00
    0.82561E+06        -0.50104E+08         0.00000E+00
    0.00000E+00         0.00000E+00        -0.40566E+08
 
   -0.40395E+08         0.89183E+06         0.00000E+00
    0.89183E+06        -0.50117E+08         0.00000E+00
    0.00000E+00         0.00000E+00        -0.40574E+08
 
   -0.40420E+08         0.95952E+06         0.00000E+00
    0.95952E+06        -0.50130E+08         0.00000E+00
    0.00000E+00         0.00000E+00        -0.40582E+08
 
   -0.40443E+08         0.10287E+07         0.00000E+00
    0.10287E+07        -0.50143E+08         0.00000E+00
    0.00000E+00         0.00000E+00        -0.40589E+08
 
   -0.40463E+08         0.10995E+07         0.00000E+00
    0.10995E+07        -0.50157E+08         0.00000E+00
    0.00000E+00         0.00000E+00        -0.40596E+08
 
   -0.40483E+08         0.11718E+07         0.00000E+00
    0.11718E+07        -0.50171E+08         0.00000E+00
    0.00000E+00         0.00000E+00        -0.40602E+08
 
   -0.40500E+08         0.12457E+07         0.00000E+00
    0.12457E+07        -0.50185E+08         0.00000E+00
    0.00000E+00         0.00000E+00        -0.40609E+08
 
   -0.40516E+08         0.13213E+07         0.00000E+00
    0.13213E+07        -0.50199E+08         0.00000E+00
    0.00000E+00         0.00000E+00        -0.40615E+08
 
   -0.40531E+08         0.13985E+07         0.00000E+00
    0.13985E+07        -0.50213E+08         0.00000E+00
    0.00000E+00         0.00000E+00        -0.40620E+08
 
   -0.40544E+08         0.14773E+07         0.00000E+00
    0.14773E+07        -0.50227E+08         0.00000E+00
    0.00000E+00         0.00000E+00        -0.40626E+08
 
   -0.40556E+08         0.15579E+07         0.00000E+00
    0.15579E+07        -0.50241E+08         0.00000E+00
    0.00000E+00         0.00000E+00        -0.40631E+08
 
   -0.40566E+08         0.16401E+07         0.00000E+00
    0.16401E+07        -0.50255E+08         0.00000E+00
    0.00000E+00         0.00000E+00        -0.40636E+08
 
   -0.40576E+08         0.17240E+07         0.00000E+00
    0.17240E+07        -0.50269E+08         0.00000E+00
    0.00000E+00         0.00000E+00        -0.40641E+08
 
   -0.40585E+08         0.18097E+07         0.00000E+00
    0.18097E+07        -0.50283E+08         0.00000E+00
    0.00000E+00         0.00000E+00        -0.40645E+08
 
   -0.40593E+08         0.18971E+07         0.00000E+00
    0.18971E+07        -0.50296E+08         0.00000E+00
    0.00000E+00         0.00000E+00        -0.40649E+08
 
   -0.40600E+08         0.19862E+07         0.00000E+00
    0.19862E+07        -0.50309E+08         0.00000E+00
    0.00000E+00         0.00000E+00        -0.40653E+08
 
   -0.40606E+08         0.20770E+07         0.00000E+00
    0.20770E+07        -0.50322E+08         0.00000E+00
    0.00000E+00         0.00000E+00        -0.40657E+08
 
   -0.40612E+08         0.21696E+07         0.00000E+00
    0.21696E+07        -0.50334E+08         0.00000E+00
    0.00000E+00         0.00000E+00        -0.40661E+08
 
   -0.40617E+08         0.22639E+07         0.00000E+00
    0.22639E+07        -0.50346E+08         0.00000E+00
    0.00000E+00         0.00000E+00        -0.40664E+08
 
   -0.40622E+08         0.23600E+07         0.00000E+00
    0.23600E+07        -0.50357E+08         0.00000E+00
    0.00000E+00         0.00000E+00        -0.40667E+08
 
   -0.40626E+08         0.24577E+07         0.00000E+00
    0.24577E+07        -0.50368E+08         0.00000E+00
    0.00000E+00         0.00000E+00        -0.40671E+08
 
   -0.40630E+08         0.25572E+07         0.00000E+00
    0.25572E+07        -0.50378E+08         0.00000E+00
    0.00000E+00         0.00000E+00        -0.40673E+08
 
   -0.40634E+08         0.26584E+07         0.00000E+00
    0.26584E+07        -0.50387E+08         0.00000E+00
    0.00000E+00         0.00000E+00        -0.40676E+08
 
   -0.40638E+08         0.27613E+07         0.00000E+00
    0.27613E+07        -0.50396E+08         0.00000E+00
    0.00000E+00         0.00000E+00        -0.40679E+08
 
   -0.40642E+08         0.28659E+07         0.00000E+00
    0.28659E+07        -0.50404E+08         0.00000E+00
    0.00000E+00         0.00000E+00        -0.40681E+08
 
   -0.40645E+08         0.29721E+07         0.00000E+00
    0.29721E+07        -0.50412E+08         0.00000E+00
    0.00000E+00         0.00000E+00        -0.40683E+08
 
   -0.40649E+08         0.30801E+07         0.00000E+00
    0.30801E+07        -0.50418E+08         0.00000E+00
    0.00000E+00         0.00000E+00        -0.40685E+08
 
   -0.40653E+08         0.31897E+07         0.00000E+00
    0.31897E+07        -0.50424E+08         0.00000E+00
    0.00000E+00         0.00000E+00        -0.40687E+08
 
   -0.40657E+08         0.33010E+07         0.00000E+00
    0.33010E+07        -0.50429E+08         0.00000E+00
    0.00000E+00         0.00000E+00        -0.40689E+08
 
   -0.40661E+08         0.34139E+07         0.00000E+00
    0.34139E+07        -0.50433E+08         0.00000E+00
    0.00000E+00         0.00000E+00        -0.40690E+08
 
   -0.40666E+08         0.35285E+07         0.00000E+00
    0.35285E+07        -0.50436E+08         0.00000E+00
    0.00000E+00         0.00000E+00        -0.40692E+08
 
   -0.40671E+08         0.36446E+07         0.00000E+00
    0.36446E+07        -0.50438E+08         0.00000E+00
    0.00000E+00         0.00000E+00        -0.40693E+08
 
   -0.40676E+08         0.37624E+07         0.00000E+00
    0.37624E+07        -0.50439E+08         0.00000E+00
    0.00000E+00         0.00000E+00        -0.40695E+08
 
   -0.40682E+08         0.38817E+07         0.00000E+00
    0.38817E+07        -0.50439E+08         0.00000E+00
    0.00000E+00         0.00000E+00        -0.40696E+08
 
   -0.40688E+08         0.40026E+07         0.00000E+00
    0.40026E+07        -0.50438E+08         0.00000E+00
    0.00000E+00         0.00000E+00        -0.40697E+08
 
   -0.40695E+08         0.41251E+07         0.00000E+00
    0.41251E+07        -0.50436E+08         0.00000E+00
    0.00000E+00         0.00000E+00        -0.40698E+08
 
   -0.39476E+08         0.21503E+05         0.00000E+00
    0.21503E+05        -0.49999E+08         0.00000E+00
    0.00000E+00         0.00000E+00        -0.39831E+08
 
   -0.39540E+08         0.66234E+05         0.00000E+00
    0.66234E+05        -0.50000E+08         0.00000E+00
    0.00000E+00         0.00000E+00        -0.39844E+08
 
   -0.39599E+08         0.11183E+06         0.00000E+00
    0.11183E+06        -0.50003E+08         0.00000E+00
    0.00000E+00         0.00000E+00        -0.39856E+08
 
   -0.39655E+08         0.15840E+06         0.00000E+00
    0.15840E+06        -0.50008E+08         0.00000E+00
    0.00000E+00         0.00000E+00        -0.39868E+08
 
   -0.39707E+08         0.20602E+06         0.00000E+00
    0.20602E+06        -0.50013E+08         0.00000E+00
    0.00000E+00         0.00000E+00        -0.39880E+08
 
   -0.39755E+08         0.25479E+06         0.00000E+00
    0.25479E+06        -0.50020E+08         0.00000E+00
    0.00000E+00         0.00000E+00        -0.39891E+08
 
   -0.39800E+08         0.30477E+06         0.00000E+00
    0.30477E+06        -0.50028E+08         0.00000E+00
    0.00000E+00         0.00000E+00        -0.39901E+08
 
   -0.39842E+08         0.35606E+06         0.00000E+00
    0.35606E+06        -0.50037E+08         0.00000E+00
    0.00000E+00         0.00000E+00        -0.39911E+08
 
   -0.39880E+08         0.40872E+06         0.00000E+00
    0.40872E+06        -0.50047E+08         0.00000E+00
    0.00000E+00         0.00000E+00        -0.39921E+08
 
   -0.39915E+08         0.46281E+06         0.00000E+00
    0.46281E+06        -0.50058E+08         0.00000E+00
    0.00000E+00         0.00000E+00        -0.39930E+08
 
   -0.39947E+08         0.51840E+06         0.00000E+00
    0.51840E+06        -0.50070E+08         0.00000E+00
    0.00000E+00         0.00000E+00        -0.39939E+08
 
   -0.39976E+08         0.57555E+06         0.00000E+00
    0.57555E+06        -0.50083E+08         0.00000E+00
    0.00000E+00         0.00000E+00        -0.39947E+08
 
   -0.40002E+08         0.63431E+06         0.00000E+00
    0.63431E+06        -0.50097E+08         0.00000E+00
    0.00000E+00         0.00000E+00        -0.39955E+08
 
   -0.40026E+08         0.69473E+06         0.00000E+00
    0.69473E+06        -0.50111E+08         0.00000E+00
    0.00000E+00         0.00000E+00        -0.39963E+08
 
   -0.40047E+08         0.75686E+06         0.00000E+00
    0.75686E+06        -0.50126E+08         0.00000E+00
    0.00000E+00         0.00000E+00        -0.39970E+08
 
   -0.40066E+08         0.82073E+06         0.00000E+00
    0.82073E+06        -0.50141E+08         0.00000E+00
    0.00000E+00         0.00000E+00        -0.39977E+08
 
   -0.40082E+08         0.88639E+06         0.00000E+00
    0.88639E+06        -0.50157E+08         0.00000E+00
    0.00000E+00         0.00000E+00        -0.39984E+08
 
   -0.40096E+08         0.95386E+06         0.00000E+00
    0.95386E+06        -0.50173E+08         0.00000E+00
    0.00000E+00         0.00000E+00        -0.39990E+08
 
   -0.40109E+08         0.10232E+07         0.00000E+00
    0.10232E+07        -0.50190E+08         0.00000E+00
    0.00000E+00         0.00000E+00        -0.39995E+08
 
   -0.40119E+08         0.10944E+07         0.00000E+00
    0.10944E+07        -0.50207E+08         0.00000E+00
    0.00000E+00         0.00000E+00        -0.40001E+08
 
   -0.40128E+08         0.11675E+07         0.00000E+00
    0.11675E+07        -0.50224E+08         0.00000E+00
    0.00000E+00         0.00000E+00        -0.40006E+08
 
   -0.40135E+08         0.12425E+07         0.00000E+00
    0.12425E+07        -0.50241E+08         0.00000E+00
    0.00000E+00         0.00000E+00        -0.40011E+08
 
   -0.40141E+08         0.13195E+07         0.00000E+00
    0.13195E+07        -0.50259E+08         0.00000E+00
    0.00000E+00         0.00000E+00        -0.40016E+08
 
   -0.40145E+08         0.13984E+07         0.00000E+00
    0.13984E+07        -0.50276E+08         0.00000E+00
    0.00000E+00         0.00000E+00        -0.40020E+08
 
   -0.40147E+08         0.14792E+07         0.00000E+00
    0.14792E+07        -0.50294E+08         0.00000E+00
    0.00000E+00         0.00000E+00        -0.40024E+08
 
   -0.40149E+08         0.15621E+07         0.00000E+00
    0.15621E+07        -0.50311E+08         0.00000E+00
    0.00000E+00         0.00000E+00        -0.40028E+08
 
   -0.40150E+08         0.16469E+07         0.00000E+00
    0.16469E+07        -0.50329E+08         0.00000E+00
    0.00000E+00         0.00000E+00        -0.40031E+08
 
   -0.40149E+08         0.17337E+07         0.00000E+00
    0.17337E+07        -0.50346E+08         0.00000E+00
    0.00000E+00         0.00000E+00        -0.40035E+08
 
   -0.40148E+08         0.18225E+07         0.00000E+00
    0.18225E+07        -0.50363E+08         0.00000E+00
    0.00000E+00         0.00000E+00        -0.40038E+08
 
   -0.40145E+08         0.19133E+07         0.00000E+00
    0.19133E+07        -0.50379E+08         0.00000E+00
    0.00000E+00         0.00000E+00        -0.40041E+08
 
   -0.40142E+08         0.20060E+07         0.00000E+00
    0.20060E+07        -0.50395E+08         0.00000E+00
    0.00000E+00         0.00000E+00        -0.40043E+08
 
   -0.40139E+08         0.21007E+07         0.00000E+00
    0.21007E+07        -0.50411E+08         0.00000E+00
    0.00000E+00         0.00000E+00        -0.40046E+08
 
   -0.40135E+08         0.21974E+07         0.00000E+00
    0.21974E+07        -0.50427E+08         0.00000E+00
    0.00000E+00         0.00000E+00        -0.40048E+08
 
   -0.40131E+08         0.22961E+07         0.00000E+00
    0.22961E+07        -0.50441E+08         0.00000E+00
    0.00000E+00         0.00000E+00        -0.40050E+08
 
   -0.40126E+08         0.23967E+07         0.00000E+00
    0.23967E+07        -0.50456E+08         0.00000E+00
    0.00000E+00         0.00000E+00        -0.40052E+08
 
   -0.40121E+08         0.24993E+07         0.00000E+00
    0.24993E+07        -0.50470E+08         0.00000E+00
    0.00000E+00         0.00000E+00        -0.40054E+08
 
   -0.40116E+08         0.26038E+07         0.00000E+00
    0.26038E+07        -0.50483E+08         0.00000E+00
    0.00000E+00         0.00000E+00        -0.40055E+08
 
   -0.40110E+08         0.27102E+07         0.00000E+00
    0.27102E+07        -0.50495E+08         0.00000E+00
    0.00000E+00         0.00000E+00        -0.40057E+08
 
   -0.40105E+08         0.28184E+07         0.00000E+00
    0.28184E+07        -0.50507E+08         0.00000E+00
    0.00000E+00         0.00000E+00        -0.40058E+08
 
   -0.40100E+08         0.29286E+07         0.00000E+00
    0.29286E+07        -0.50518E+08         0.00000E+00
    0.00000E+00         0.00000E+00        -0.40059E+08
 
   -0.40095E+08         0.30407E+07         0.00000E+00
    0.30407E+07        -0.50528E+08         0.00000E+00
    0.00000E+00         0.00000E+00        -0.40060E+08
 
   -0.40090E+08         0.31545E+07         0.00000E+00
    0.31545E+07        -0.50537E+08         0.00000E+00
    0.00000E+00         0.00000E+00        -0.40061E+08
 
   -0.40085E+08         0.32703E+07         0.00000E+00
    0.32703E+07        -0.50546E+08         0.00000E+00
    0.00000E+00         0.00000E+00        -0.40062E+08
 
   -0.40081E+08         0.33878E+07         0.00000E+00
    0.33878E+07        -0.50553E+08         0.00000E+00
    0.00000E+00         0.00000E+00        -0.40063E+08
 
   -0.40077E+08         0.35071E+07         0.00000E+00
    0.35071E+07        -0.50560E+08         0.00000E+00
    0.00000E+00         0.00000E+00        -0.40063E+08
 
   -0.40074E+08         0.36281E+07         0.00000E+00
    0.36281E+07        -0.50565E+08         0.00000E+00
    0.00000E+00         0.00000E+00        -0.40064E+08
 
   -0.40071E+08         0.37509E+07         0.00000E+00
    0.37509E+07        -0.50570E+08         0.00000E+00
    0.00000E+00         0.00000E+00        -0.40064E+08
 
   -0.40068E+08         0.38755E+07         0.00000E+00
    0.38755E+07        -0.50574E+08         0.00000E+00
    0.00000E+00         0.00000E+00        -0.40064E+08
 
   -0.40066E+08         0.40017E+07         0.00000E+00
    0.40017E+07        -0.50576E+08         0.00000E+00
    0.00000E+00         0.00000E+00        -0.40064E+08
 
   -0.40065E+08         0.41297E+07         0.00000E+00
    0.41297E+07        -0.50578E+08         0.00000E+00
    0.00000E+00         0.00000E+00        -0.40064E+08
 
   -0.39274E+08         0.17171E+05         0.00000E+00
    0.17171E+05        -0.49999E+08         0.00000E+00
    0.00000E+00         0.00000E+00        -0.39230E+08
 
   -0.39333E+08         0.54014E+05         0.00000E+00
    0.54014E+05        -0.50001E+08         0.00000E+00
    0.00000E+00         0.00000E+00        -0.39242E+08
 
   -0.39387E+08         0.92068E+05         0.00000E+00
    0.92068E+05        -0.50004E+08         0.00000E+00
    0.00000E+00         0.00000E+00        -0.39254E+08
 
   -0.39437E+08         0.13143E+06         0.00000E+00
    0.13143E+06        -0.50009E+08         0.00000E+00
    0.00000E+00         0.00000E+00        -0.39265E+08
 
   -0.39482E+08         0.17221E+06         0.00000E+00
    0.17221E+06        -0.50016E+08         0.00000E+00
    0.00000E+00         0.00000E+00        -0.39275E+08
 
   -0.39524E+08         0.21448E+06         0.00000E+00
    0.21448E+06        -0.50024E+08         0.00000E+00
    0.00000E+00         0.00000E+00        -0.39285E+08
 
   -0.39562E+08         0.25834E+06         0.00000E+00
    0.25834E+06        -0.50034E+08         0.00000E+00
    0.00000E+00         0.00000E+00        -0.39295E+08
 
   -0.39595E+08         0.30386E+06         0.00000E+00
    0.30386E+06        -0.50044E+08         0.00000E+00
    0.00000E+00         0.00000E+00        -0.39304E+08
 
   -0.39626E+08         0.35111E+06         0.00000E+00
    0.35111E+06        -0.50056E+08         0.00000E+00
    0.00000E+00         0.00000E+00        -0.39312E+08
 
   -0.39652E+08         0.40016E+06         0.00000E+00
    0.40016E+06        -0.50069E+08         0.00000E+00
    0.00000E+00         0.00000E+00        -0.39320E+08
 
   -0.39676E+08         0.45108E+06         0.00000E+00
    0.45108E+06        -0.50084E+08         0.00000E+00
    0.00000E+00         0.00000E+00        -0.39328E+08
 
   -0.39696E+08         0.50391E+06         0.00000E+00
    0.50391E+06        -0.50099E+08         0.00000E+00
    0.00000E+00         0.00000E+00        -0.39335E+08
 
   -0.39713E+08         0.55872E+06         0.00000E+00
    0.55872E+06        -0.50115E+08         0.00000E+00
    0.00000E+00         0.00000E+00        -0.39341E+08
 
   -0.39728E+08         0.61555E+06         0.00000E+00
    0.61555E+06        -0.50132E+08         0.00000E+00
    0.00000E+00         0.00000E+00        -0.39348E+08
 
   -0.39739E+08         0.67443E+06         0.00000E+00
    0.67443E+06        -0.50149E+08         0.00000E+00
    0.00000E+00         0.00000E+00        -0.39353E+08
 
   -0.39748E+08         0.73542E+06         0.00000E+00
    0.73542E+06        -0.50167E+08         0.00000E+00
    0.00000E+00         0.00000E+00        -0.39359E+08
 
   -0.39755E+08         0.79854E+06         0.00000E+00
    0.79854E+06        -0.50186E+08         0.00000E+00
    0.00000E+00         0.00000E+00        -0.39364E+08
 
   -0.39759E+08         0.86383E+06         0.00000E+00
    0.86383E+06        -0.50206E+08         0.00000E+00
    0.00000E+00         0.00000E+00        -0.39369E+08
 
   -0.39762E+08         0.93130E+06         0.00000E+00
    0.93130E+06        -0.50226E+08         0.00000E+00
    0.00000E+00         0.00000E+00        -0.39373E+08
 
   -0.39762E+08         0.10010E+07         0.00000E+00
    0.10010E+07        -0.50246E+08         0.00000E+00
    0.00000E+00         0.00000E+00        -0.39377E+08
 
   -0.39760E+08         0.10729E+07         0.00000E+00
    0.10729E+07        -0.50266E+08         0.00000E+00
    0.00000E+00         0.00000E+00        -0.39381E+08
 
   -0.39757E+08         0.11471E+07         0.00000E+00
    0.11471E+07        -0.50287E+08         0.00000E+00
    0.00000E+00         0.00000E+00        -0.39385E+08
 
   -0.39752E+08         0.12235E+07         0.00000E+00
    0.12235E+07        -0.50308E+08         0.00000E+00
    0.00000E+00         0.00000E+00        -0.39388E+08
 
   -0.39745E+08         0.13022E+07         0.00000E+00
    0.13022E+07        -0.50329E+08         0.00000E+00
    0.00000E+00         0.00000E+00        -0.39391E+08
 
   -0.39738E+08         0.13831E+07         0.00000E+00
    0.13831E+07        -0.50350E+08         0.00000E+00
    0.00000E+00         0.00000E+00        -0.39393E+08
 
   -0.39729E+08         0.14664E+07         0.00000E+00
    0.14664E+07        -0.50371E+08         0.00000E+00
    0.00000E+00         0.00000E+00        -0.39396E+08
 
   -0.39718E+08         0.15519E+07         0.00000E+00
    0.15519E+07        -0.50392E+08         0.00000E+00
    0.00000E+00         0.00000E+00        -0.39398E+08
 
   -0.39707E+08         0.16397E+07         0.00000E+00
    0.16397E+07        -0.50413E+08         0.00000E+00
    0.00000E+00         0.00000E+00        -0.39400E+08
 
   -0.39695E+08         0.17297E+07         0.00000E+00
    0.17297E+07        -0.50433E+08         0.00000E+00
    0.00000E+00         0.00000E+00        -0.39401E+08
 
   -0.39682E+08         0.18220E+07         0.00000E+00
    0.18220E+07        -0.50454E+08         0.00000E+00
    0.00000E+00         0.00000E+00        -0.39403E+08
 
   -0.39669E+08         0.19166E+07         0.00000E+00
    0.19166E+07        -0.50474E+08         0.00000E+00
    0.00000E+00         0.00000E+00        -0.39404E+08
 
   -0.39655E+08         0.20134E+07         0.00000E+00
    0.20134E+07        -0.50493E+08         0.00000E+00
    0.00000E+00         0.00000E+00        -0.39405E+08
 
   -0.39640E+08         0.21124E+07         0.00000E+00
    0.21124E+07        -0.50512E+08         0.00000E+00
    0.00000E+00         0.00000E+00        -0.39406E+08
 
   -0.39626E+08         0.22136E+07         0.00000E+00
    0.22136E+07        -0.50531E+08         0.00000E+00
    0.00000E+00         0.00000E+00        -0.39407E+08
 
   -0.39611E+08         0.23171E+07         0.00000E+00
    0.23171E+07        -0.50549E+08         0.00000E+00
    0.00000E+00         0.00000E+00        -0.39408E+08
 
   -0.39595E+08         0.24227E+07         0.00000E+00
    0.24227E+07        -0.50567E+08         0.00000E+00
    0.00000E+00         0.00000E+00        -0.39408E+08
 
   -0.39580E+08         0.25304E+07         0.00000E+00
    0.25304E+07        -0.50584E+08         0.00000E+00
    0.00000E+00         0.00000E+00        -0.39409E+08
 
   -0.39565E+08         0.26403E+07         0.00000E+00
    0.26403E+07        -0.50600E+08         0.00000E+00
    0.00000E+00         0.00000E+00        -0.39409E+08
 
   -0.39549E+08         0.27523E+07         0.00000E+00
    0.27523E+07        -0.50616E+08         0.00000E+00
    0.00000E+00         0.00000E+00        -0.39409E+08
 
   -0.39534E+08         0.28664E+07         0.00000E+00
    0.28664E+07        -0.50631E+08         0.00000E+00
    0.00000E+00         0.00000E+00        -0.39409E+08
 
   -0.39520E+08         0.29826E+07         0.00000E+00
    0.29826E+07        -0.50645E+08         0.00000E+00
    0.00000E+00         0.00000E+00        -0.39409E+08
 
   -0.39505E+08         0.31007E+07         0.00000E+00
    0.31007E+07        -0.50658E+08         0.00000E+00
    0.00000E+00         0.00000E+00        -0.39408E+08
 
   -0.39491E+08         0.32209E+07         0.00000E+00
    0.32209E+07        -0.50670E+08         0.00000E+00
    0.00000E+00         0.00000E+00        -0.39408E+08
 
   -0.39477E+08         0.33431E+07         0.00000E+00
    0.33431E+07        -0.50681E+08         0.00000E+00
    0.00000E+00         0.00000E+00        -0.39407E+08
 
   -0.39464E+08         0.34672E+07         0.00000E+00
    0.34672E+07        -0.50692E+08         0.00000E+00
    0.00000E+00         0.00000E+00        -0.39407E+08
 
   -0.39451E+08         0.35932E+07         0.00000E+00
    0.35932E+07        -0.50701E+08         0.00000E+00
    0.00000E+00         0.00000E+00        -0.39406E+08
 
   -0.39439E+08         0.37211E+07         0.00000E+00
    0.37211E+07        -0.50710E+08         0.00000E+00
    0.00000E+00         0.00000E+00        -0.39406E+08
 
   -0.39428E+08         0.38508E+07         0.00000E+00
    0.38508E+07        -0.50717E+08         0.00000E+00
    0.00000E+00         0.00000E+00        -0.39405E+08
 
   -0.39417E+08         0.39824E+07         0.00000E+00
    0.39824E+07        -0.50723E+08         0.00000E+00
    0.00000E+00         0.00000E+00        -0.39404E+08
 
   -0.39407E+08         0.41158E+07         0.00000E+00
    0.41158E+07        -0.50728E+08         0.00000E+00
    0.00000E+00         0.00000E+00        -0.39403E+08
 
   -0.39116E+08         0.12035E+05         0.00000E+00
    0.12035E+05        -0.49999E+08         0.00000E+00
    0.00000E+00         0.00000E+00        -0.38615E+08
 
   -0.39168E+08         0.39572E+05         0.00000E+00
    0.39572E+05        -0.50001E+08         0.00000E+00
    0.00000E+00         0.00000E+00        -0.38626E+08
 
   -0.39215E+08         0.68739E+05         0.00000E+00
    0.68739E+05        -0.50005E+08         0.00000E+00
    0.00000E+00         0.00000E+00        -0.38636E+08
 
   -0.39257E+08         0.99643E+05         0.00000E+00
    0.99643E+05        -0.50011E+08         0.00000E+00
    0.00000E+00         0.00000E+00        -0.38646E+08
 
   -0.39294E+08         0.13238E+06         0.00000E+00
    0.13238E+06        -0.50019E+08         0.00000E+00
    0.00000E+00         0.00000E+00        -0.38655E+08
 
   -0.39327E+08         0.16705E+06         0.00000E+00
    0.16705E+06        -0.50028E+08         0.00000E+00
    0.00000E+00         0.00000E+00        -0.38663E+08
 
   -0.39355E+08         0.20373E+06         0.00000E+00
    0.20373E+06        -0.50039E+08         0.00000E+00
    0.00000E+00         0.00000E+00        -0.38671E+08
 
   -0.39380E+08         0.24249E+06         0.00000E+00
    0.24249E+06        -0.50052E+08         0.00000E+00
    0.00000E+00         0.00000E+00        -0.38679E+08
 
   -0.39400E+08         0.28342E+06         0.00000E+00
    0.28342E+06        -0.50066E+08         0.00000E+00
    0.00000E+00         0.00000E+00        -0.38685E+08
 
   -0.39416E+08         0.32658E+06         0.00000E+00
    0.32658E+06        -0.50081E+08         0.00000E+00
    0.00000E+00         0.00000E+00        -0.38692E+08
 
   -0.39429E+08         0.37202E+06         0.00000E+00
    0.37202E+06        -0.50098E+08         0.00000E+00
    0.00000E+00         0.00000E+00        -0.38698E+08
 
   -0.39439E+08         0.41980E+06         0.00000E+00
    0.41980E+06        -0.50115E+08         0.00000E+00
    0.00000E+00         0.00000E+00        -0.38703E+08
 
   -0.39445E+08         0.46996E+06         0.00000E+00
    0.46996E+06        -0.50134E+08         0.00000E+00
    0.00000E+00         0.00000E+00        -0.38708E+08
 
   -0.39448E+08         0.52256E+06         0.00000E+00
    0.52256E+06        -0.50154E+08         0.00000E+00
    0.00000E+00         0.00000E+00        -0.38713E+08
 
   -0.39449E+08         0.57761E+06         0.00000E+00
    0.57761E+06        -0.50174E+08         0.00000E+00
    0.00000E+00         0.00000E+00        -0.38717E+08
 
   -0.39446E+08         0.63517E+06         0.00000E+00
    0.63517E+06        -0.50195E+08         0.00000E+00
    0.00000E+00         0.00000E+00        -0.38721E+08
 
   -0.39441E+08         0.69525E+06         0.00000E+00
    0.69525E+06        -0.50217E+08         0.00000E+00
    0.00000E+00         0.00000E+00        -0.38724E+08
 
   -0.39434E+08         0.75789E+06         0.00000E+00
    0.75789E+06        -0.50240E+08         0.00000E+00
    0.00000E+00         0.00000E+00        -0.38727E+08
 
   -0.39424E+08         0.82309E+06         0.00000E+00
    0.82309E+06        -0.50263E+08         0.00000E+00
    0.00000E+00         0.00000E+00        -0.38730E+08
 
   -0.39412E+08         0.89087E+06         0.00000E+00
    0.89087E+06        -0.50286E+08         0.00000E+00
    0.00000E+00         0.00000E+00        -0.38732E+08
 
   -0.39398E+08         0.96125E+06         0.00000E+00
    0.96125E+06        -0.50310E+08         0.00000E+00
    0.00000E+00         0.00000E+00        -0.38734E+08
 
   -0.39383E+08         0.10342E+07         0.00000E+00
    0.10342E+07        -0.50335E+08         0.00000E+00
    0.00000E+00         0.00000E+00        -0.38736E+08
 
   -0.39366E+08         0.11098E+07         0.00000E+00
    0.11098E+07        -0.50359E+08         0.00000E+00
    0.00000E+00         0.00000E+00        -0.38737E+08
 
   -0.39347E+08         0.11880E+07         0.00000E+00
    0.11880E+07        -0.50384E+08         0.00000E+00
    0.00000E+00         0.00000E+00        -0.38738E+08
 
   -0.39327E+08         0.12688E+07         0.00000E+00
    0.12688E+07        -0.50408E+08         0.00000E+00
    0.00000E+00         0.00000E+00        -0.38739E+08
 
   -0.39306E+08         0.13522E+07         0.00000E+00
    0.13522E+07        -0.50433E+08         0.00000E+00
    0.00000E+00         0.00000E+00        -0.38740E+08
 
   -0.39284E+08         0.14382E+07         0.00000E+00
    0.14382E+07        -0.50458E+08         0.00000E+00
    0.00000E+00         0.00000E+00        -0.38741E+08
 
   -0.39260E+08         0.15268E+07         0.00000E+00
    0.15268E+07        -0.50482E+08         0.00000E+00
    0.00000E+00         0.00000E+00        -0.38741E+08
 
   -0.39236E+08         0.16179E+07         0.00000E+00
    0.16179E+07        -0.50507E+08         0.00000E+00
    0.00000E+00         0.00000E+00        -0.38741E+08
 
   -0.39211E+08         0.17116E+07         0.00000E+00
    0.17116E+07        -0.50531E+08         0.00000E+00
    0.00000E+00         0.00000E+00        -0.38741E+08
 
   -0.39186E+08         0.18079E+07         0.00000E+00
    0.18079E+07        -0.50555E+08         0.00000E+00
    0.00000E+00         0.00000E+00        -0.38740E+08
 
   -0.39160E+08         0.19067E+07         0.00000E+00
    0.19067E+07        -0.50578E+08         0.00000E+00
    0.00000E+00         0.00000E+00        -0.38740E+08
 
   -0.39134E+08         0.20079E+07         0.00000E+00
    0.20079E+07        -0.50602E+08         0.00000E+00
    0.00000E+00         0.00000E+00        -0.38739E+08
 
   -0.39107E+08         0.21117E+07         0.00000E+00
    0.21117E+07        -0.50624E+08         0.00000E+00
    0.00000E+00         0.00000E+00        -0.38739E+08
 
   -0.39081E+08         0.22178E+07         0.00000E+00
    0.22178E+07        -0.50646E+08         0.00000E+00
    0.00000E+00         0.00000E+00        -0.38738E+08
 
   -0.39054E+08         0.23264E+07         0.00000E+00
    0.23264E+07        -0.50668E+08         0.00000E+00
    0.00000E+00         0.00000E+00        -0.38737E+08
 
   -0.39028E+08         0.24375E+07         0.00000E+00
    0.24375E+07        -0.50689E+08         0.00000E+00
    0.00000E+00         0.00000E+00        -0.38736E+08
 
   -0.39001E+08         0.25508E+07         0.00000E+00
    0.25508E+07        -0.50709E+08         0.00000E+00
    0.00000E+00         0.00000E+00        -0.38734E+08
 
   -0.38975E+08         0.26665E+07         0.00000E+00
    0.26665E+07        -0.50729E+08         0.00000E+00
    0.00000E+00         0.00000E+00        -0.38733E+08
 
   -0.38949E+08         0.27845E+07         0.00000E+00
    0.27845E+07        -0.50748E+08         0.00000E+00
    0.00000E+00         0.00000E+00        -0.38732E+08
 
   -0.38923E+08         0.29048E+07         0.00000E+00
    0.29048E+07        -0.50766E+08         0.00000E+00
    0.00000E+00         0.00000E+00        -0.38730E+08
 
   -0.38898E+08         0.30272E+07         0.00000E+00
    0.30272E+07        -0.50783E+08         0.00000E+00
    0.00000E+00         0.00000E+00        -0.38728E+08
 
   -0.38874E+08         0.31519E+07         0.00000E+00
    0.31519E+07        -0.50799E+08         0.00000E+00
    0.00000E+00         0.00000E+00        -0.38727E+08
 
   -0.38850E+08         0.32787E+07         0.00000E+00
    0.32787E+07        -0.50815E+08         0.00000E+00
    0.00000E+00         0.00000E+00        -0.38725E+08
 
   -0.38827E+08         0.34077E+07         0.00000E+00
    0.34077E+07        -0.50829E+08         0.00000E+00
    0.00000E+00         0.00000E+00        -0.38723E+08
 
   -0.38804E+08         0.35387E+07         0.00000E+00
    0.35387E+07        -0.50842E+08         0.00000E+00
    0.00000E+00         0.00000E+00        -0.38722E+08
 
   -0.38782E+08         0.36717E+07         0.00000E+00
    0.36717E+07        -0.50855E+08         0.00000E+00
    0.00000E+00         0.00000E+00        -0.38720E+08
 
   -0.38761E+08         0.38067E+07         0.00000E+00
    0.38067E+07        -0.50866E+08         0.00000E+00
    0.00000E+00         0.00000E+00        -0.38718E+08
 
   -0.38741E+08         0.39437E+07         0.00000E+00
    0.39437E+07        -0.50877E+08         0.00000E+00
    0.00000E+00         0.00000E+00        -0.38716E+08
 
   -0.38722E+08         0.40825E+07         0.00000E+00
    0.40825E+07        -0.50886E+08         0.00000E+00
    0.00000E+00         0.00000E+00        -0.38714E+08
 
   -0.39009E+08         0.60301E+04         0.00000E+00
    0.60301E+04        -0.49999E+08         0.00000E+00
    0.00000E+00         0.00000E+00        -0.37987E+08
 
   -0.39052E+08         0.22753E+05         0.00000E+00
    0.22753E+05        -0.50001E+08         0.00000E+00
    0.00000E+00         0.00000E+00        -0.37996E+08
 
   -0.39089E+08         0.41620E+05         0.00000E+00
    0.41620E+05        -0.50006E+08         0.00000E+00
    0.00000E+00         0.00000E+00        -0.38005E+08
 
   -0.39121E+08         0.62738E+05         0.00000E+00
    0.62738E+05        -0.50013E+08         0.00000E+00
    0.00000E+00         0.00000E+00        -0.38013E+08
 
   -0.39148E+08         0.86206E+05         0.00000E+00
    0.86206E+05        -0.50022E+08         0.00000E+00
    0.00000E+00         0.00000E+00        -0.38020E+08
 
   -0.39169E+08         0.11211E+06         0.00000E+00
    0.11211E+06        -0.50033E+08         0.00000E+00
    0.00000E+00         0.00000E+00        -0.38026E+08
 
   -0.39186E+08         0.14054E+06         0.00000E+00
    0.14054E+06        -0.50045E+08         0.00000E+00
    0.00000E+00         0.00000E+00        -0.38032E+08
 
   -0.39199E+08         0.17156E+06         0.00000E+00
    0.17156E+06        -0.50060E+08         0.00000E+00
    0.00000E+00         0.00000E+00        -0.38038E+08
 
   -0.39207E+08         0.20525E+06         0.00000E+00
    0.20525E+06        -0.50076E+08         0.00000E+00
    0.00000E+00         0.00000E+00        -0.38042E+08
 
   -0.39211E+08         0.24165E+06         0.00000E+00
    0.24165E+06        -0.50093E+08         0.00000E+00
    0.00000E+00         0.00000E+00        -0.38047E+08
 
   -0.39211E+08         0.28083E+06         0.00000E+00
    0.28083E+06        -0.50112E+08         0.00000E+00
    0.00000E+00         0.00000E+00        -0.38050E+08
 
   -0.39208E+08         0.32282E+06         0.00000E+00
    0.32282E+06        -0.50132E+08         0.00000E+00
    0.00000E+00         0.00000E+00        -0.38054E+08
 
   -0.39201E+08         0.36767E+06         0.00000E+00
    0.36767E+06        -0.50154E+08         0.00000E+00
    0.00000E+00         0.00000E+00        -0.38057E+08
 
   -0.39191E+08         0.41541E+06         0.00000E+00
    0.41541E+06        -0.50176E+08         0.00000E+00
    0.00000E+00         0.00000E+00        -0.38059E+08
 
   -0.39177E+08         0.46607E+06         0.00000E+00
    0.46607E+06        -0.50199E+08         0.00000E+00
    0.00000E+00         0.00000E+00        -0.38061E+08
 
   -0.39161E+08         0.51968E+06         0.00000E+00
    0.51968E+06        -0.50224E+08         0.00000E+00
    0.00000E+00         0.00000E+00        -0.38063E+08
 
   -0.39142E+08         0.57624E+06         0.00000E+00
    0.57624E+06        -0.50249E+08         0.00000E+00
    0.00000E+00         0.00000E+00        -0.38064E+08
 
   -0.39121E+08         0.63577E+06         0.00000E+00
    0.63577E+06        -0.50274E+08         0.00000E+00
    0.00000E+00         0.00000E+00        -0.38065E+08
 
   -0.39098E+08         0.69829E+06         0.00000E+00
    0.69829E+06        -0.50301E+08         0.00000E+00
    0.00000E+00         0.00000E+00        -0.38065E+08
 
   -0.39072E+08         0.76379E+06         0.00000E+00
    0.76379E+06        -0.50328E+08         0.00000E+00
    0.00000E+00         0.00000E+00        -0.38066E+08
 
   -0.39044E+08         0.83228E+06         0.00000E+00
    0.83228E+06        -0.50355E+08         0.00000E+00
    0.00000E+00         0.00000E+00        -0.38066E+08
 
   -0.39015E+08         0.90376E+06         0.00000E+00
    0.90376E+06        -0.50383E+08         0.00000E+00
    0.00000E+00         0.00000E+00        -0.38065E+08
 
   -0.38984E+08         0.97821E+06         0.00000E+00
    0.97821E+06        -0.50411E+08         0.00000E+00
    0.00000E+00         0.00000E+00        -0.38065E+08
 
   -0.38951E+08         0.10556E+07         0.00000E+00
    0.10556E+07        -0.50439E+08         0.00000E+00
    0.00000E+00         0.00000E+00        -0.38064E+08
 
   -0.38917E+08         0.11360E+07         0.00000E+00
    0.11360E+07        -0.50467E+08         0.00000E+00
    0.00000E+00         0.00000E+00        -0.38063E+08
 
   -0.38882E+08         0.12194E+07         0.00000E+00
    0.12194E+07        -0.50496E+08         0.00000E+00
    0.00000E+00         0.00000E+00        -0.38061E+08
 
   -0.38846E+08         0.13056E+07         0.00000E+00
    0.13056E+07        -0.50524E+08         0.00000E+00
    0.00000E+00         0.00000E+00        -0.38060E+08
 
   -0.38809E+08         0.13948E+07         0.00000E+00
    0.13948E+07        -0.50553E+08         0.00000E+00
    0.00000E+00         0.00000E+00        -0.38058E+08
 
   -0.38771E+08         0.14869E+07         0.00000E+00
    0.14869E+07        -0.50581E+08         0.00000E+00
    0.00000E+00         0.00000E+00        -0.38056E+08
 
   -0.38733E+08         0.15818E+07         0.00000E+00
    0.15818E+07        -0.50609E+08         0.00000E+00
    0.00000E+00         0.00000E+00        -0.38054E+08
 
   -0.38694E+08         0.16796E+07         0.00000E+00
    0.16796E+07        -0.50637E+08         0.00000E+00
    0.00000E+00         0.00000E+00        -0.38052E+08
 
   -0.38655E+08         0.17801E+07         0.00000E+00
    0.17801E+07        -0.50664E+08         0.00000E+00
    0.00000E+00         0.00000E+00        -0.38050E+08
 
   -0.38616E+08         0.18835E+07         0.00000E+00
    0.18835E+07        -0.50691E+08         0.00000E+00
    0.00000E+00         0.00000E+00        -0.38047E+08
 
   -0.38576E+08         0.19896E+07         0.00000E+00
    0.19896E+07        -0.50718E+08         0.00000E+00
    0.00000E+00         0.00000E+00        -0.38045E+08
 
   -0.38537E+08         0.20985E+07         0.00000E+00
    0.20985E+07        -0.50744E+08         0.00000E+00
    0.00000E+00         0.00000E+00        -0.38042E+08
 
   -0.38498E+08         0.22100E+07         0.00000E+00
    0.22100E+07        -0.50770E+08         0.00000E+00
    0.00000E+00         0.00000E+00        -0.38039E+08
 
   -0.38459E+08         0.23241E+07         0.00000E+00
    0.23241E+07        -0.50795E+08         0.00000E+00
    0.00000E+00         0.00000E+00        -0.38036E+08
 
   -0.38420E+08         0.24409E+07         0.00000E+00
    0.24409E+07        -0.50819E+08         0.00000E+00
    0.00000E+00         0.00000E+00        -0.38034E+08
 
   -0.38381E+08         0.25602E+07         0.00000E+00
    0.25602E+07        -0.50843E+08         0.00000E+00
    0.00000E+00         0.00000E+00        -0.38031E+08
 
   -0.38343E+08         0.26821E+07         0.00000E+00
    0.26821E+07        -0.50866E+08         0.00000E+00
    0.00000E+00         0.00000E+00        -0.38028E+08
 
   -0.38306E+08         0.28064E+07         0.00000E+00
    0.28064E+07        -0.50888E+08         0.00000E+00
    0.00000E+00         0.00000E+00        -0.38025E+08
 
   -0.38270E+08         0.29332E+07         0.00000E+00
    0.29332E+07        -0.50910E+08         0.00000E+00
    0.00000E+00         0.00000E+00        -0.38022E+08
 
   -0.38234E+08         0.30623E+07         0.00000E+00
    0.30623E+07        -0.50930E+08         0.00000E+00
    0.00000E+00         0.00000E+00        -0.38019E+08
 
   -0.38199E+08         0.31938E+07         0.00000E+00
    0.31938E+07        -0.50950E+08         0.00000E+00
    0.00000E+00         0.00000E+00        -0.38015E+08
 
   -0.38165E+08         0.33276E+07         0.00000E+00
    0.33276E+07        -0.50968E+08         0.00000E+00
    0.00000E+00         0.00000E+00        -0.38012E+08
 
   -0.38131E+08         0.34636E+07         0.00000E+00
    0.34636E+07        -0.50986E+08         0.00000E+00
    0.00000E+00         0.00000E+00        -0.38009E+08
 
   -0.38099E+08         0.36018E+07         0.00000E+00
    0.36018E+07        -0.51003E+08         0.00000E+00
    0.00000E+00         0.00000E+00        -0.38006E+08
 
   -0.38068E+08         0.37421E+07         0.00000E+00
    0.37421E+07        -0.51018E+08         0.00000E+00
    0.00000E+00         0.00000E+00        -0.38003E+08
 
   -0.38038E+08         0.38844E+07         0.00000E+00
    0.38844E+07        -0.51033E+08         0.00000E+00
    0.00000E+00         0.00000E+00        -0.38000E+08
 
   -0.38009E+08         0.40288E+07         0.00000E+00
    0.40288E+07        -0.51046E+08         0.00000E+00
    0.00000E+00         0.00000E+00        -0.37997E+08
 
   -0.38962E+08        -0.89251E+03         0.00000E+00
   -0.89251E+03        -0.49999E+08         0.00000E+00
    0.00000E+00         0.00000E+00        -0.37349E+08
 
   -0.38993E+08         0.34585E+04         0.00000E+00
    0.34585E+04        -0.50002E+08         0.00000E+00
    0.00000E+00         0.00000E+00        -0.37356E+08
 
   -0.39017E+08         0.10580E+05         0.00000E+00
    0.10580E+05        -0.50007E+08         0.00000E+00
    0.00000E+00         0.00000E+00        -0.37362E+08
 
   -0.39036E+08         0.20575E+05         0.00000E+00
    0.20575E+05        -0.50015E+08         0.00000E+00
    0.00000E+00         0.00000E+00        -0.37368E+08
 
   -0.39049E+08         0.33537E+05         0.00000E+00
    0.33537E+05        -0.50025E+08         0.00000E+00
    0.00000E+00         0.00000E+00        -0.37372E+08
 
   -0.39057E+08         0.49547E+05         0.00000E+00
    0.49547E+05        -0.50037E+08         0.00000E+00
    0.00000E+00         0.00000E+00        -0.37376E+08
 
   -0.39060E+08         0.68679E+05         0.00000E+00
    0.68679E+05        -0.50052E+08         0.00000E+00
    0.00000E+00         0.00000E+00        -0.37380E+08
 
   -0.39058E+08         0.90997E+05         0.00000E+00
    0.90997E+05        -0.50068E+08         0.00000E+00
    0.00000E+00         0.00000E+00        -0.37382E+08
 
   -0.39051E+08         0.11656E+06         0.00000E+00
    0.11656E+06        -0.50086E+08         0.00000E+00
    0.00000E+00         0.00000E+00        -0.37385E+08
 
   -0.39040E+08         0.14540E+06         0.00000E+00
    0.14540E+06        -0.50105E+08         0.00000E+00
    0.00000E+00         0.00000E+00        -0.37386E+08
 
   -0.39025E+08         0.17758E+06         0.00000E+00
    0.17758E+06        -0.50127E+08         0.00000E+00
    0.00000E+00         0.00000E+00        -0.37388E+08
 
   -0.39006E+08         0.21312E+06         0.00000E+00
    0.21312E+06        -0.50149E+08         0.00000E+00
    0.00000E+00         0.00000E+00        -0.37388E+08
 
   -0.38983E+08         0.25204E+06         0.00000E+00
    0.25204E+06        -0.50173E+08         0.00000E+00
    0.00000E+00         0.00000E+00        -0.37389E+08
 
   -0.38957E+08         0.29437E+06         0.00000E+00
    0.29437E+06        -0.50198E+08         0.00000E+00
    0.00000E+00         0.00000E+00        -0.37388E+08
 
   -0.38928E+08         0.34012E+06         0.00000E+00
    0.34012E+06        -0.50224E+08         0.00000E+00
    0.00000E+00         0.00000E+00        -0.37388E+08
 
   -0.38896E+08         0.38929E+06         0.00000E+00
    0.38929E+06        -0.50251E+08         0.00000E+00
    0.00000E+00         0.00000E+00        -0.37387E+08
 
   -0.38862E+08         0.44190E+06         0.00000E+00
    0.44190E+06        -0.50279E+08         0.00000E+00
    0.00000E+00         0.00000E+00        -0.37385E+08
 
   -0.38824E+08         0.49793E+06         0.00000E+00
    0.49793E+06        -0.50308E+08         0.00000E+00
    0.00000E+00         0.00000E+00        -0.37384E+08
 
   -0.38785E+08         0.55739E+06         0.00000E+00
    0.55739E+06        -0.50337E+08         0.00000E+00
    0.00000E+00         0.00000E+00        -0.37382E+08
 
   -0.38743E+08         0.62026E+06         0.00000E+00
    0.62026E+06        -0.50367E+08         0.00000E+00
    0.00000E+00         0.00000E+00        -0.37379E+08
 
   -0.38699E+08         0.68654E+06         0.00000E+00
    0.68654E+06        -0.50398E+08         0.00000E+00
    0.00000E+00         0.00000E+00        -0.37377E+08
 
   -0.38654E+08         0.75620E+06         0.00000E+00
    0.75620E+06        -0.50429E+08         0.00000E+00
    0.00000E+00         0.00000E+00        -0.37374E+08
 
   -0.38607E+08         0.82923E+06         0.00000E+00
    0.82923E+06        -0.50460E+08         0.00000E+00
    0.00000E+00         0.00000E+00        -0.37371E+08
 
   -0.38559E+08         0.90561E+06         0.00000E+00
    0.90561E+06        -0.50492E+08         0.00000E+00
    0.00000E+00         0.00000E+00        -0.37367E+08
 
   -0.38509E+08         0.98532E+06         0.00000E+00
    0.98532E+06        -0.50524E+08         0.00000E+00
    0.00000E+00         0.00000E+00        -0.37364E+08
 
   -0.38459E+08         0.10683E+07         0.00000E+00
    0.10683E+07        -0.50556E+08         0.00000E+00
    0.00000E+00         0.00000E+00        -0.37360E+08
 
   -0.38407E+08         0.11546E+07         0.00000E+00
    0.11546E+07        -0.50588E+08         0.00000E+00
    0.00000E+00         0.00000E+00        -0.37356E+08
 
   -0.38355E+08         0.12441E+07         0.00000E+00
    0.12441E+07        -0.50620E+08         0.00000E+00
    0.00000E+00         0.00000E+00        -0.37352E+08
 
   -0.38302E+08         0.13368E+07         0.00000E+00
    0.13368E+07        -0.50651E+08         0.00000E+00
    0.00000E+00         0.00000E+00        -0.37348E+08
 
   -0.38249E+08         0.14328E+07         0.00000E+00
    0.14328E+07        -0.50683E+08         0.00000E+00
    0.00000E+00         0.00000E+00        -0.37344E+08
 
   -0.38195E+08         0.15318E+07         0.00000E+00
    0.15318E+07        -0.50715E+08         0.00000E+00
    0.00000E+00         0.00000E+00        -0.37339E+08
 
   -0.38141E+08         0.16340E+07         0.00000E+00
    0.16340E+07        -0.50746E+08         0.00000E+00
    0.00000E+00         0.00000E+00        -0.37335E+08
 
   -0.38087E+08         0.17392E+07         0.00000E+00
    0.17392E+07        -0.50777E+08         0.00000E+00
    0.00000E+00         0.00000E+00        -0.37330E+08
 
   -0.38033E+08         0.18475E+07         0.00000E+00
    0.18475E+07        -0.50808E+08         0.00000E+00
    0.00000E+00         0.00000E+00        -0.37326E+08
 
   -0.37980E+08         0.19588E+07         0.00000E+00
    0.19588E+07        -0.50838E+08         0.00000E+00
    0.00000E+00         0.00000E+00        -0.37321E+08
 
   -0.37927E+08         0.20730E+07         0.00000E+00
    0.20730E+07        -0.50868E+08         0.00000E+00
    0.00000E+00         0.00000E+00        -0.37316E+08
 
   -0.37874E+08         0.21902E+07         0.00000E+00
    0.21902E+07        -0.50897E+08         0.00000E+00
    0.00000E+00         0.00000E+00        -0.37311E+08
 
   -0.37821E+08         0.23102E+07         0.00000E+00
    0.23102E+07        -0.50925E+08         0.00000E+00
    0.00000E+00         0.00000E+00        -0.37307E+08
 
   -0.37770E+08         0.24330E+07         0.00000E+00
    0.24330E+07        -0.50953E+08         0.00000E+00
    0.00000E+00         0.00000E+00        -0.37302E+08
 
   -0.37719E+08         0.25586E+07         0.00000E+00
    0.25586E+07        -0.50981E+08         0.00000E+00
    0.00000E+00         0.00000E+00        -0.37297E+08
 
   -0.37668E+08         0.26869E+07         0.00000E+00
    0.26869E+07        -0.51007E+08         0.00000E+00
    0.00000E+00         0.00000E+00        -0.37292E+08
 
   -0.37619E+08         0.28179E+07         0.00000E+00
    0.28179E+07        -0.51033E+08         0.00000E+00
    0.00000E+00         0.00000E+00        -0.37288E+08
 
   -0.37571E+08         0.29514E+07         0.00000E+00
    0.29514E+07        -0.51058E+08         0.00000E+00
    0.00000E+00         0.00000E+00        -0.37283E+08
 
   -0.37524E+08         0.30875E+07         0.00000E+00
    0.30875E+07        -0.51082E+08         0.00000E+00
    0.00000E+00         0.00000E+00        -0.37278E+08
 
   -0.37478E+08         0.32261E+07         0.00000E+00
    0.32261E+07        -0.51105E+08         0.00000E+00
    0.00000E+00         0.00000E+00        -0.37274E+08
 
   -0.37434E+08         0.33671E+07         0.00000E+00
    0.33671E+07        -0.51127E+08         0.00000E+00
    0.00000E+00         0.00000E+00        -0.37269E+08
 
   -0.37390E+08         0.35104E+07         0.00000E+00
    0.35104E+07        -0.51148E+08         0.00000E+00
    0.00000E+00         0.00000E+00        -0.37265E+08
 
   -0.37348E+08         0.36560E+07         0.00000E+00
    0.36560E+07        -0.51168E+08         0.00000E+00
    0.00000E+00         0.00000E+00        -0.37261E+08
 
   -0.37308E+08         0.38038E+07         0.00000E+00
    0.38038E+07        -0.51186E+08         0.00000E+00
    0.00000E+00         0.00000E+00        -0.37256E+08
 
   -0.37269E+08         0.39537E+07         0.00000E+00
    0.39537E+07        -0.51204E+08         0.00000E+00
    0.00000E+00         0.00000E+00        -0.37252E+08
 
   -0.38982E+08        -0.87550E+04         0.00000E+00
   -0.87550E+04        -0.49999E+08         0.00000E+00
    0.00000E+00         0.00000E+00        -0.36704E+08
 
   -0.38997E+08        -0.18323E+05         0.00000E+00
   -0.18323E+05        -0.50002E+08         0.00000E+00
    0.00000E+00         0.00000E+00        -0.36708E+08
 
   -0.39006E+08        -0.24361E+05         0.00000E+00
   -0.24361E+05        -0.50008E+08         0.00000E+00
    0.00000E+00         0.00000E+00        -0.36711E+08
 
   -0.39009E+08        -0.26777E+05         0.00000E+00
   -0.26777E+05        -0.50017E+08         0.00000E+00
    0.00000E+00         0.00000E+00        -0.36713E+08
 
   -0.39005E+08        -0.25491E+05         0.00000E+00
   -0.25491E+05        -0.50028E+08         0.00000E+00
    0.00000E+00         0.00000E+00        -0.36714E+08
 
   -0.38996E+08        -0.20434E+05         0.00000E+00
   -0.20434E+05        -0.50042E+08         0.00000E+00
    0.00000E+00         0.00000E+00        -0.36715E+08
 
   -0.38981E+08        -0.11551E+05         0.00000E+00
   -0.11551E+05        -0.50057E+08         0.00000E+00
    0.00000E+00         0.00000E+00        -0.36715E+08
 
   -0.38961E+08         0.12063E+04         0.00000E+00
    0.12063E+04        -0.50075E+08         0.00000E+00
    0.00000E+00         0.00000E+00        -0.36715E+08
 
   -0.38936E+08         0.17874E+05         0.00000E+00
    0.17874E+05        -0.50095E+08         0.00000E+00
    0.00000E+00         0.00000E+00        -0.36714E+08
 
   -0.38907E+08         0.38478E+05         0.00000E+00
    0.38478E+05        -0.50117E+08         0.00000E+00
    0.00000E+00         0.00000E+00        -0.36713E+08
 
   -0.38874E+08         0.63040E+05         0.00000E+00
    0.63040E+05        -0.50140E+08         0.00000E+00
    0.00000E+00         0.00000E+00        -0.36711E+08
 
   -0.38837E+08         0.91569E+05         0.00000E+00
    0.91569E+05        -0.50165E+08         0.00000E+00
    0.00000E+00         0.00000E+00        -0.36708E+08
 
   -0.38796E+08         0.12407E+06         0.00000E+00
    0.12407E+06        -0.50191E+08         0.00000E+00
    0.00000E+00         0.00000E+00        -0.36705E+08
 
   -0.38751E+08         0.16054E+06         0.00000E+00
    0.16054E+06        -0.50218E+08         0.00000E+00
    0.00000E+00         0.00000E+00        -0.36702E+08
 
   -0.38704E+08         0.20097E+06         0.00000E+00
    0.20097E+06        -0.50247E+08         0.00000E+00
    0.00000E+00         0.00000E+00        -0.36698E+08
 
   -0.38653E+08         0.24535E+06         0.00000E+00
    0.24535E+06        -0.50276E+08         0.00000E+00
    0.00000E+00         0.00000E+00        -0.36694E+08
 
   -0.38600E+08         0.29366E+06         0.00000E+00
    0.29366E+06        -0.50307E+08         0.00000E+00
    0.00000E+00         0.00000E+00        -0.36689E+08
 
   -0.38545E+08         0.34587E+06         0.00000E+00
    0.34587E+06        -0.50338E+08         0.00000E+00
    0.00000E+00         0.00000E+00        -0.36684E+08
 
   -0.38487E+08         0.40196E+06         0.00000E+00
    0.40196E+06        -0.50370E+08         0.00000E+00
    0.00000E+00         0.00000E+00        -0.36679E+08
 
   -0.38427E+08         0.46191E+06         0.00000E+00
    0.46191E+06        -0.50403E+08         0.00000E+00
    0.00000E+00         0.00000E+00        -0.36674E+08
 
   -0.38365E+08         0.52568E+06         0.00000E+00
    0.52568E+06        -0.50436E+08         0.00000E+00
    0.00000E+00         0.00000E+00        -0.36668E+08
 
   -0.38302E+08         0.59324E+06         0.00000E+00
    0.59324E+06        -0.50470E+08         0.00000E+00
    0.00000E+00         0.00000E+00        -0.36662E+08
 
   -0.38237E+08         0.66455E+06         0.00000E+00
    0.66455E+06        -0.50504E+08         0.00000E+00
    0.00000E+00         0.00000E+00        -0.36656E+08
 
   -0.38172E+08         0.73958E+06         0.00000E+00
    0.73958E+06        -0.50539E+08         0.00000E+00
    0.00000E+00         0.00000E+00        -0.36650E+08
 
   -0.38105E+08         0.81830E+06         0.00000E+00
    0.81830E+06        -0.50573E+08         0.00000E+00
    0.00000E+00         0.00000E+00        -0.36643E+08
 
   -0.38037E+08         0.90065E+06         0.00000E+00
    0.90065E+06        -0.50608E+08         0.00000E+00
    0.00000E+00         0.00000E+00        -0.36637E+08
 
   -0.37968E+08         0.98662E+06         0.00000E+00
    0.98662E+06        -0.50643E+08         0.00000E+00
    0.00000E+00         0.00000E+00        -0.36630E+08
 
   -0.37899E+08         0.10761E+07         0.00000E+00
    0.10761E+07        -0.50679E+08         0.00000E+00
    0.00000E+00         0.00000E+00        -0.36623E+08
 
   -0.37829E+08         0.11692E+07         0.00000E+00
    0.11692E+07        -0.50714E+08         0.00000E+00
    0.00000E+00         0.00000E+00        -0.36616E+08
 
   -0.37759E+08         0.12658E+07         0.00000E+00
    0.12658E+07        -0.50749E+08         0.00000E+00
    0.00000E+00         0.00000E+00        -0.36609E+08
 
   -0.37689E+08         0.13657E+07         0.00000E+00
    0.13657E+07        -0.50784E+08         0.00000E+00
    0.00000E+00         0.00000E+00        -0.36602E+08
 
   -0.37619E+08         0.14691E+07         0.00000E+00
    0.14691E+07        -0.50819E+08         0.00000E+00
    0.00000E+00         0.00000E+00        -0.36595E+08
 
   -0.37549E+08         0.15759E+07         0.00000E+00
    0.15759E+07        -0.50853E+08         0.00000E+00
    0.00000E+00         0.00000E+00        -0.36588E+08
 
   -0.37480E+08         0.16860E+07         0.00000E+00
    0.16860E+07        -0.50888E+08         0.00000E+00
    0.00000E+00         0.00000E+00        -0.36581E+08
 
   -0.37411E+08         0.17994E+07         0.00000E+00
    0.17994E+07        -0.50922E+08         0.00000E+00
    0.00000E+00         0.00000E+00        -0.36574E+08
 
   -0.37342E+08         0.19160E+07         0.00000E+00
    0.19160E+07        -0.50955E+08         0.00000E+00
    0.00000E+00         0.00000E+00        -0.36567E+08
 
   -0.37274E+08         0.20357E+07         0.00000E+00
    0.20357E+07        -0.50988E+08         0.00000E+00
    0.00000E+00         0.00000E+00        -0.36560E+08
 
   -0.37207E+08         0.21587E+07         0.00000E+00
    0.21587E+07        -0.51021E+08         0.00000E+00
    0.00000E+00         0.00000E+00        -0.36553E+08
 
   -0.37140E+08         0.22847E+07         0.00000E+00
    0.22847E+07        -0.51053E+08         0.00000E+00
    0.00000E+00         0.00000E+00        -0.36547E+08
 
   -0.37075E+08         0.24137E+07         0.00000E+00
    0.24137E+07        -0.51085E+08         0.00000E+00
    0.00000E+00         0.00000E+00        -0.36540E+08
 
   -0.37011E+08         0.25457E+07         0.00000E+00
    0.25457E+07        -0.51116E+08         0.00000E+00
    0.00000E+00         0.00000E+00        -0.36533E+08
 
   -0.36948E+08         0.26806E+07         0.00000E+00
    0.26806E+07        -0.51146E+08         0.00000E+00
    0.00000E+00         0.00000E+00        -0.36527E+08
 
   -0.36886E+08         0.28184E+07         0.00000E+00
    0.28184E+07        -0.51175E+08         0.00000E+00
    0.00000E+00         0.00000E+00        -0.36520E+08
 
   -0.36826E+08         0.29589E+07         0.00000E+00
    0.29589E+07        -0.51203E+08         0.00000E+00
    0.00000E+00         0.00000E+00        -0.36514E+08
 
   -0.36768E+08         0.31022E+07         0.00000E+00
    0.31022E+07        -0.51231E+08         0.00000E+00
    0.00000E+00         0.00000E+00        -0.36508E+08
 
   -0.36711E+08         0.32480E+07         0.00000E+00
    0.32480E+07        -0.51258E+08         0.00000E+00
    0.00000E+00         0.00000E+00        -0.36501E+08
 
   -0.36655E+08         0.33965E+07         0.00000E+00
    0.33965E+07        -0.51283E+08         0.00000E+00
    0.00000E+00         0.00000E+00        -0.36496E+08
 
   -0.36602E+08         0.35473E+07         0.00000E+00
    0.35473E+07        -0.51308E+08         0.00000E+00
    0.00000E+00         0.00000E+00        -0.36490E+08
 
   -0.36550E+08         0.37006E+07         0.00000E+00
    0.37006E+07        -0.51331E+08         0.00000E+00
    0.00000E+00         0.00000E+00        -0.36484E+08
 
   -0.36500E+08         0.38561E+07         0.00000E+00
    0.38561E+07        -0.51354E+08         0.00000E+00
    0.00000E+00         0.00000E+00        -0.36479E+08
 
   -0.39078E+08        -0.17543E+05         0.00000E+00
   -0.17543E+05        -0.49999E+08         0.00000E+00
    0.00000E+00         0.00000E+00        -0.36054E+08
 
   -0.39073E+08        -0.42485E+05         0.00000E+00
   -0.42485E+05        -0.50002E+08         0.00000E+00
    0.00000E+00         0.00000E+00        -0.36054E+08
 
   -0.39062E+08        -0.62979E+05         0.00000E+00
   -0.62979E+05        -0.50009E+08         0.00000E+00
    0.00000E+00         0.00000E+00        -0.36053E+08
 
   -0.39044E+08        -0.78953E+05         0.00000E+00
   -0.78953E+05        -0.50018E+08         0.00000E+00
    0.00000E+00         0.00000E+00        -0.36051E+08
 
   -0.39020E+08        -0.90350E+05         0.00000E+00
   -0.90350E+05        -0.50031E+08         0.00000E+00
    0.00000E+00         0.00000E+00        -0.36049E+08
 
   -0.38989E+08        -0.97125E+05         0.00000E+00
   -0.97125E+05        -0.50045E+08         0.00000E+00
    0.00000E+00         0.00000E+00        -0.36045E+08
 
   -0.38953E+08        -0.99250E+05         0.00000E+00
   -0.99250E+05        -0.50063E+08         0.00000E+00
    0.00000E+00         0.00000E+00        -0.36042E+08
 
   -0.38912E+08        -0.96705E+05         0.00000E+00
   -0.96705E+05        -0.50082E+08         0.00000E+00
    0.00000E+00         0.00000E+00        -0.36037E+08
 
   -0.38866E+08        -0.89485E+05         0.00000E+00
   -0.89485E+05        -0.50103E+08         0.00000E+00
    0.00000E+00         0.00000E+00        -0.36032E+08
 
   -0.38815E+08        -0.77593E+05         0.00000E+00
   -0.77593E+05        -0.50126E+08         0.00000E+00
    0.00000E+00         0.00000E+00        -0.36027E+08
 
   -0.38760E+08        -0.61042E+05         0.00000E+00
   -0.61042E+05        -0.50151E+08         0.00000E+00
    0.00000E+00         0.00000E+00        -0.36021E+08
 
   -0.38702E+08        -0.39854E+05         0.00000E+00
   -0.39854E+05        -0.50178E+08         0.00000E+00
    0.00000E+00         0.00000E+00        -0.36014E+08
 
   -0.38639E+08        -0.14058E+05         0.00000E+00
   -0.14058E+05        -0.50206E+08         0.00000E+00
    0.00000E+00         0.00000E+00        -0.36007E+08
 
   -0.38574E+08         0.16310E+05         0.00000E+00
    0.16310E+05        -0.50235E+08         0.00000E+00
    0.00000E+00         0.00000E+00        -0.36000E+08
 
   -0.38505E+08         0.51209E+05         0.00000E+00
    0.51209E+05        -0.50265E+08         0.00000E+00
    0.00000E+00         0.00000E+00        -0.35992E+08
 
   -0.38433E+08         0.90594E+05         0.00000E+00
    0.90594E+05        -0.50296E+08         0.00000E+00
    0.00000E+00         0.00000E+00        -0.35984E+08
 
   -0.38360E+08         0.13441E+06         0.00000E+00
    0.13441E+06        -0.50328E+08         0.00000E+00
    0.00000E+00         0.00000E+00        -0.35976E+08
 
   -0.38283E+08         0.18262E+06         0.00000E+00
    0.18262E+06        -0.50362E+08         0.00000E+00
    0.00000E+00         0.00000E+00        -0.35968E+08
 
   -0.38205E+08         0.23515E+06         0.00000E+00
    0.23515E+06        -0.50395E+08         0.00000E+00
    0.00000E+00         0.00000E+00        -0.35959E+08
 
   -0.38125E+08         0.29196E+06         0.00000E+00
    0.29196E+06        -0.50430E+08         0.00000E+00
    0.00000E+00         0.00000E+00        -0.35950E+08
 
   -0.38044E+08         0.35299E+06         0.00000E+00
    0.35299E+06        -0.50465E+08         0.00000E+00
    0.00000E+00         0.00000E+00        -0.35940E+08
 
   -0.37961E+08         0.41819E+06         0.00000E+00
    0.41819E+06        -0.50501E+08         0.00000E+00
    0.00000E+00         0.00000E+00        -0.35931E+08
 
   -0.37876E+08         0.48749E+06         0.00000E+00
    0.48749E+06        -0.50537E+08         0.00000E+00
    0.00000E+00         0.00000E+00        -0.35921E+08
 
   -0.37791E+08         0.56084E+06         0.00000E+00
    0.56084E+06        -0.50573E+08         0.00000E+00
    0.00000E+00         0.00000E+00        -0.35911E+08
 
   -0.37705E+08         0.63820E+06         0.00000E+00
    0.63820E+06        -0.50610E+08         0.00000E+00
    0.00000E+00         0.00000E+00        -0.35902E+08
 
   -0.37618E+08         0.71950E+06         0.00000E+00
    0.71950E+06        -0.50648E+08         0.00000E+00
    0.00000E+00         0.00000E+00        -0.35892E+08
 
   -0.37531E+08         0.80471E+06         0.00000E+00
    0.80471E+06        -0.50685E+08         0.00000E+00
    0.00000E+00         0.00000E+00        -0.35882E+08
 
   -0.37443E+08         0.89377E+06         0.00000E+00
    0.89377E+06        -0.50722E+08         0.00000E+00
    0.00000E+00         0.00000E+00        -0.35872E+08
 
   -0.37356E+08         0.98664E+06         0.00000E+00
    0.98664E+06        -0.50760E+08         0.00000E+00
    0.00000E+00         0.00000E+00        -0.35862E+08
 
   -0.37268E+08         0.10833E+07         0.00000E+00
    0.10833E+07        -0.50798E+08         0.00000E+00
    0.00000E+00         0.00000E+00        -0.35852E+08
 
   -0.37180E+08         0.11836E+07         0.00000E+00
    0.11836E+07        -0.50836E+08         0.00000E+00
    0.00000E+00         0.00000E+00        -0.35842E+08
 
   -0.37092E+08         0.12876E+07         0.00000E+00
    0.12876E+07        -0.50874E+08         0.00000E+00
    0.00000E+00         0.00000E+00        -0.35832E+08
 
   -0.37005E+08         0.13953E+07         0.00000E+00
    0.13953E+07        -0.50911E+08         0.00000E+00
    0.00000E+00         0.00000E+00        -0.35822E+08
 
   -0.36918E+08         0.15066E+07         0.00000E+00
    0.15066E+07        -0.50949E+08         0.00000E+00
    0.00000E+00         0.00000E+00        -0.35812E+08
 
   -0.36832E+08         0.16214E+07         0.00000E+00
    0.16214E+07        -0.50986E+08         0.00000E+00
    0.00000E+00         0.00000E+00        -0.35802E+08
 
   -0.36746E+08         0.17397E+07         0.00000E+00
    0.17397E+07        -0.51024E+08         0.00000E+00
    0.00000E+00         0.00000E+00        -0.35793E+08
 
   -0.36662E+08         0.18615E+07         0.00000E+00
    0.18615E+07        -0.51061E+08         0.00000E+00
    0.00000E+00         0.00000E+00        -0.35783E+08
 
   -0.36578E+08         0.19867E+07         0.00000E+00
    0.19867E+07        -0.51097E+08         0.00000E+00
    0.00000E+00         0.00000E+00        -0.35774E+08
 
   -0.36496E+08         0.21153E+07         0.00000E+00
    0.21153E+07        -0.51133E+08         0.00000E+00
    0.00000E+00         0.00000E+00        -0.35764E+08
 
   -0.36415E+08         0.22473E+07         0.00000E+00
    0.22473E+07        -0.51169E+08         0.00000E+00
    0.00000E+00         0.00000E+00        -0.35755E+08
 
   -0.36335E+08         0.23825E+07         0.00000E+00
    0.23825E+07        -0.51204E+08         0.00000E+00
    0.00000E+00         0.00000E+00        -0.35746E+08
 
   -0.36257E+08         0.25209E+07         0.00000E+00
    0.25209E+07        -0.51239E+08         0.00000E+00
    0.00000E+00         0.00000E+00        -0.35738E+08
 
   -0.36181E+08         0.26624E+07         0.00000E+00
    0.26624E+07        -0.51273E+08         0.00000E+00
    0.00000E+00         0.00000E+00        -0.35729E+08
 
   -0.36106E+08         0.28071E+07         0.00000E+00
    0.28071E+07        -0.51306E+08         0.00000E+00
    0.00000E+00         0.00000E+00        -0.35721E+08
 
   -0.36034E+08         0.29547E+07         0.00000E+00
    0.29547E+07        -0.51338E+08         0.00000E+00
    0.00000E+00         0.00000E+00        -0.35713E+08
 
   -0.35963E+08         0.31053E+07         0.00000E+00
    0.31053E+07        -0.51370E+08         0.00000E+00
    0.00000E+00         0.00000E+00        -0.35705E+08
 
   -0.35895E+08         0.32586E+07         0.00000E+00
    0.32586E+07        -0.51401E+08         0.00000E+00
    0.00000E+00         0.00000E+00        -0.35698E+08
 
   -0.35828E+08         0.34147E+07         0.00000E+00
    0.34147E+07        -0.51430E+08         0.00000E+00
    0.00000E+00         0.00000E+00        -0.35690E+08
 
   -0.35765E+08         0.35735E+07         0.00000E+00
    0.35735E+07        -0.51459E+08         0.00000E+00
    0.00000E+00         0.00000E+00        -0.35683E+08
 
   -0.35703E+08         0.37347E+07         0.00000E+00
    0.37347E+07        -0.51486E+08         0.00000E+00
    0.00000E+00         0.00000E+00        -0.35676E+08
 
   -0.39256E+08        -0.27196E+05         0.00000E+00
   -0.27196E+05        -0.49999E+08         0.00000E+00
    0.00000E+00         0.00000E+00        -0.35402E+08
 
   -0.39227E+08        -0.68768E+05         0.00000E+00
   -0.68768E+05        -0.50002E+08         0.00000E+00
    0.00000E+00         0.00000E+00        -0.35397E+08
 
   -0.39190E+08        -0.10478E+06         0.00000E+00
   -0.10478E+06        -0.50010E+08         0.00000E+00
    0.00000E+00         0.00000E+00        -0.35391E+08
 
   -0.39147E+08        -0.13520E+06         0.00000E+00
   -0.13520E+06        -0.50020E+08         0.00000E+00
    0.00000E+00         0.00000E+00        -0.35384E+08
 
   -0.39097E+08        -0.16000E+06         0.00000E+00
   -0.16000E+06        -0.50033E+08         0.00000E+00
    0.00000E+00         0.00000E+00        -0.35377E+08
 
   -0.39041E+08        -0.17917E+06         0.00000E+00
   -0.17917E+06        -0.50049E+08         0.00000E+00
    0.00000E+00         0.00000E+00        -0.35369E+08
 
   -0.38980E+08        -0.19273E+06         0.00000E+00
   -0.19273E+06        -0.50067E+08         0.00000E+00
    0.00000E+00         0.00000E+00        -0.35360E+08
 
   -0.38913E+08        -0.20070E+06         0.00000E+00
   -0.20070E+06        -0.50087E+08         0.00000E+00
    0.00000E+00         0.00000E+00        -0.35351E+08
 
   -0.38841E+08        -0.20312E+06         0.00000E+00
   -0.20312E+06        -0.50109E+08         0.00000E+00
    0.00000E+00         0.00000E+00        -0.35341E+08
 
   -0.38765E+08        -0.20005E+06         0.00000E+00
   -0.20005E+06        -0.50133E+08         0.00000E+00
    0.00000E+00         0.00000E+00        -0.35331E+08
 
   -0.38685E+08        -0.19154E+06         0.00000E+00
   -0.19154E+06        -0.50159E+08         0.00000E+00
    0.00000E+00         0.00000E+00        -0.35320E+08
 
   -0.38602E+08        -0.17767E+06         0.00000E+00
   -0.17767E+06        -0.50186E+08         0.00000E+00
    0.00000E+00         0.00000E+00        -0.35308E+08
 
   -0.38515E+08        -0.15852E+06         0.00000E+00
   -0.15852E+06        -0.50215E+08         0.00000E+00
    0.00000E+00         0.00000E+00        -0.35297E+08
 
   -0.38425E+08        -0.13417E+06         0.00000E+00
   -0.13417E+06        -0.50245E+08         0.00000E+00
    0.00000E+00         0.00000E+00        -0.35285E+08
 
   -0.38332E+08        -0.10472E+06         0.00000E+00
   -0.10472E+06        -0.50276E+08         0.00000E+00
    0.00000E+00         0.00000E+00        -0.35272E+08
 
   -0.38237E+08        -0.70245E+05         0.00000E+00
   -0.70245E+05        -0.50307E+08         0.00000E+00
    0.00000E+00         0.00000E+00        -0.35260E+08
 
   -0.38140E+08        -0.30854E+05         0.00000E+00
   -0.30854E+05        -0.50340E+08         0.00000E+00
    0.00000E+00         0.00000E+00        -0.35247E+08
 
   -0.38041E+08         0.13361E+05         0.00000E+00
    0.13361E+05        -0.50374E+08         0.00000E+00
    0.00000E+00         0.00000E+00        -0.35234E+08
 
   -0.37941E+08         0.62307E+05         0.00000E+00
    0.62307E+05        -0.50408E+08         0.00000E+00
    0.00000E+00         0.00000E+00        -0.35221E+08
 
   -0.37838E+08         0.11589E+06         0.00000E+00
    0.11589E+06        -0.50443E+08         0.00000E+00
    0.00000E+00         0.00000E+00        -0.35207E+08
 
   -0.37735E+08         0.17403E+06         0.00000E+00
    0.17403E+06        -0.50479E+08         0.00000E+00
    0.00000E+00         0.00000E+00        -0.35194E+08
 
   -0.37631E+08         0.23662E+06         0.00000E+00
    0.23662E+06        -0.50515E+08         0.00000E+00
    0.00000E+00         0.00000E+00        -0.35180E+08
 
   -0.37525E+08         0.30361E+06         0.00000E+00
    0.30361E+06        -0.50552E+08         0.00000E+00
    0.00000E+00         0.00000E+00        -0.35166E+08
 
   -0.37419E+08         0.37490E+06         0.00000E+00
    0.37490E+06        -0.50589E+08         0.00000E+00
    0.00000E+00         0.00000E+00        -0.35153E+08
 
   -0.37313E+08         0.45042E+06         0.00000E+00
    0.45042E+06        -0.50627E+08         0.00000E+00
    0.00000E+00         0.00000E+00        -0.35139E+08
 
   -0.37206E+08         0.53012E+06         0.00000E+00
    0.53012E+06        -0.50665E+08         0.00000E+00
    0.00000E+00         0.00000E+00        -0.35125E+08
 
   -0.37099E+08         0.61393E+06         0.00000E+00
    0.61393E+06        -0.50703E+08         0.00000E+00
    0.00000E+00         0.00000E+00        -0.35111E+08
 
   -0.36991E+08         0.70180E+06         0.00000E+00
    0.70180E+06        -0.50742E+08         0.00000E+00
    0.00000E+00         0.00000E+00        -0.35098E+08
 
   -0.36884E+08         0.79368E+06         0.00000E+00
    0.79368E+06        -0.50781E+08         0.00000E+00
    0.00000E+00         0.00000E+00        -0.35084E+08
 
   -0.36777E+08         0.88953E+06         0.00000E+00
    0.88953E+06        -0.50820E+08         0.00000E+00
    0.00000E+00         0.00000E+00        -0.35070E+08
 
   -0.36670E+08         0.98931E+06         0.00000E+00
    0.98931E+06        -0.50860E+08         0.00000E+00
    0.00000E+00         0.00000E+00        -0.35057E+08
 
   -0.36564E+08         0.10930E+07         0.00000E+00
    0.10930E+07        -0.50900E+08         0.00000E+00
    0.00000E+00         0.00000E+00        -0.35044E+08
 
   -0.36458E+08         0.12005E+07         0.00000E+00
    0.12005E+07        -0.50940E+08         0.00000E+00
    0.00000E+00         0.00000E+00        -0.35030E+08
 
   -0.36352E+08         0.13119E+07         0.00000E+00
    0.13119E+07        -0.50980E+08         0.00000E+00
    0.00000E+00         0.00000E+00        -0.35017E+08
 
   -0.36248E+08         0.14271E+07         0.00000E+00
    0.14271E+07        -0.51020E+08         0.00000E+00
    0.00000E+00         0.00000E+00        -0.35004E+08
 
   -0.36144E+08         0.15461E+07         0.00000E+00
    0.15461E+07        -0.51060E+08         0.00000E+00
    0.00000E+00         0.00000E+00        -0.34992E+08
 
   -0.36042E+08         0.16688E+07         0.00000E+00
    0.16688E+07        -0.51101E+08         0.00000E+00
    0.00000E+00         0.00000E+00        -0.34979E+08
 
   -0.35940E+08         0.17953E+07         0.00000E+00
    0.17953E+07        -0.51141E+08         0.00000E+00
    0.00000E+00         0.00000E+00        -0.34967E+08
 
   -0.35841E+08         0.19255E+07         0.00000E+00
    0.19255E+07        -0.51181E+08         0.00000E+00
    0.00000E+00         0.00000E+00        -0.34955E+08
 
   -0.35742E+08         0.20593E+07         0.00000E+00
    0.20593E+07        -0.51221E+08         0.00000E+00
    0.00000E+00         0.00000E+00        -0.34943E+08
 
   -0.35645E+08         0.21968E+07         0.00000E+00
    0.21968E+07        -0.51261E+08         0.00000E+00
    0.00000E+00         0.00000E+00        -0.34932E+08
 
   -0.35551E+08         0.23378E+07         0.00000E+00
    0.23378E+07        -0.51300E+08         0.00000E+00
    0.00000E+00         0.00000E+00        -0.34921E+08
 
   -0.35458E+08         0.24824E+07         0.00000E+00
    0.24824E+07        -0.51339E+08         0.00000E+00
    0.00000E+00         0.00000E+00        -0.34910E+08
 
   -0.35367E+08         0.26305E+07         0.00000E+00
    0.26305E+07        -0.51377E+08         0.00000E+00
    0.00000E+00         0.00000E+00        -0.34900E+08
 
   -0.35278E+08         0.27820E+07         0.00000E+00
    0.27820E+07        -0.51415E+08         0.00000E+00
    0.00000E+00         0.00000E+00        -0.34889E+08
 
   -0.35192E+08         0.29367E+07         0.00000E+00
    0.29367E+07        -0.51451E+08         0.00000E+00
    0.00000E+00         0.00000E+00        -0.34880E+08
 
   -0.35109E+08         0.30948E+07         0.00000E+00
    0.30948E+07        -0.51488E+08         0.00000E+00
    0.00000E+00         0.00000E+00        -0.34870E+08
 
   -0.35029E+08         0.32559E+07         0.00000E+00
    0.32559E+07        -0.51523E+08         0.00000E+00
    0.00000E+00         0.00000E+00        -0.34861E+08
 
   -0.34951E+08         0.34200E+07         0.00000E+00
    0.34200E+07        -0.51557E+08         0.00000E+00
    0.00000E+00         0.00000E+00        -0.34852E+08
 
   -0.34877E+08         0.35871E+07         0.00000E+00
    0.35871E+07        -0.51590E+08         0.00000E+00
    0.00000E+00         0.00000E+00        -0.34844E+08
 
   -0.39523E+08        -0.37612E+05         0.00000E+00
   -0.37612E+05        -0.49999E+08         0.00000E+00
    0.00000E+00         0.00000E+00        -0.34751E+08
 
   -0.39463E+08        -0.96739E+05         0.00000E+00
   -0.96739E+05        -0.50003E+08         0.00000E+00
    0.00000E+00         0.00000E+00        -0.34740E+08
 
   -0.39395E+08        -0.14896E+06         0.00000E+00
   -0.14896E+06        -0.50010E+08         0.00000E+00
    0.00000E+00         0.00000E+00        -0.34728E+08
 
   -0.39321E+08        -0.19428E+06         0.00000E+00
   -0.19428E+06        -0.50021E+08         0.00000E+00
    0.00000E+00         0.00000E+00        -0.34715E+08
 
   -0.39240E+08        -0.23272E+06         0.00000E+00
   -0.23272E+06        -0.50034E+08         0.00000E+00
    0.00000E+00         0.00000E+00        -0.34701E+08
 
   -0.39153E+08        -0.26435E+06         0.00000E+00
   -0.26435E+06        -0.50050E+08         0.00000E+00
    0.00000E+00         0.00000E+00        -0.34687E+08
 
   -0.39061E+08        -0.28923E+06         0.00000E+00
   -0.28923E+06        -0.50069E+08         0.00000E+00
    0.00000E+00         0.00000E+00        -0.34672E+08
 
   -0.38963E+08        -0.30746E+06         0.00000E+00
   -0.30746E+06        -0.50089E+08         0.00000E+00
    0.00000E+00         0.00000E+00        -0.34657E+08
 
   -0.38862E+08        -0.31915E+06         0.00000E+00
   -0.31915E+06        -0.50112E+08         0.00000E+00
    0.00000E+00         0.00000E+00        -0.34641E+08
 
   -0.38757E+08        -0.32442E+06         0.00000E+00
   -0.32442E+06        -0.50136E+08         0.00000E+00
    0.00000E+00         0.00000E+00        -0.34625E+08
 
   -0.38648E+08        -0.32342E+06         0.00000E+00
   -0.32342E+06        -0.50161E+08         0.00000E+00
    0.00000E+00         0.00000E+00        -0.34608E+08
 
   -0.38536E+08        -0.31629E+06         0.00000E+00
   -0.31629E+06        -0.50188E+08         0.00000E+00
    0.00000E+00         0.00000E+00        -0.34591E+08
 
   -0.38421E+08        -0.30318E+06         0.00000E+00
   -0.30318E+06        -0.50216E+08         0.00000E+00
    0.00000E+00         0.00000E+00        -0.34574E+08
 
   -0.38304E+08        -0.28427E+06         0.00000E+00
   -0.28427E+06        -0.50245E+08         0.00000E+00
    0.00000E+00         0.00000E+00        -0.34556E+08
 
   -0.38185E+08        -0.25971E+06         0.00000E+00
   -0.25971E+06        -0.50274E+08         0.00000E+00
    0.00000E+00         0.00000E+00        -0.34538E+08
 
   -0.38064E+08        -0.22966E+06         0.00000E+00
   -0.22966E+06        -0.50305E+08         0.00000E+00
    0.00000E+00         0.00000E+00        -0.34520E+08
 
   -0.37941E+08        -0.19429E+06         0.00000E+00
   -0.19429E+06        -0.50337E+08         0.00000E+00
    0.00000E+00         0.00000E+00        -0.34502E+08
 
   -0.37818E+08        -0.15374E+06         0.00000E+00
   -0.15374E+06        -0.50369E+08         0.00000E+00
    0.00000E+00         0.00000E+00        -0.34484E+08
 
   -0.37693E+08        -0.10818E+06         0.00000E+00
   -0.10818E+06        -0.50401E+08         0.00000E+00
    0.00000E+00         0.00000E+00        -0.34465E+08
 
   -0.37567E+08        -0.57742E+05         0.00000E+00
   -0.57742E+05        -0.50435E+08         0.00000E+00
    0.00000E+00         0.00000E+00        -0.34447E+08
 
   -0.37441E+08        -0.25582E+04         0.00000E+00
   -0.25582E+04        -0.50469E+08         0.00000E+00
    0.00000E+00         0.00000E+00        -0.34428E+08
 
   -0.37314E+08         0.57245E+05         0.00000E+00
    0.57245E+05        -0.50503E+08         0.00000E+00
    0.00000E+00         0.00000E+00        -0.34410E+08
 
   -0.37187E+08         0.12156E+06         0.00000E+00
    0.12156E+06        -0.50539E+08         0.00000E+00
    0.00000E+00         0.00000E+00        -0.34392E+08
 
   -0.37059E+08         0.19028E+06         0.00000E+00
    0.19028E+06        -0.50574E+08         0.00000E+00
    0.00000E+00         0.00000E+00        -0.34373E+08
 
   -0.36931E+08         0.26331E+06         0.00000E+00
    0.26331E+06        -0.50611E+08         0.00000E+00
    0.00000E+00         0.00000E+00        -0.34355E+08
 
   -0.36803E+08         0.34059E+06         0.00000E+00
    0.34059E+06        -0.50648E+08         0.00000E+00
    0.00000E+00         0.00000E+00        -0.34337E+08
 
   -0.36675E+08         0.42205E+06         0.00000E+00
    0.42205E+06        -0.50685E+08         0.00000E+00
    0.00000E+00         0.00000E+00        -0.34319E+08
 
   -0.36548E+08         0.50763E+06         0.00000E+00
    0.50763E+06        -0.50723E+08         0.00000E+00
    0.00000E+00         0.00000E+00        -0.34301E+08
 
   -0.36420E+08         0.59730E+06         0.00000E+00
    0.59730E+06        -0.50762E+08         0.00000E+00
    0.00000E+00         0.00000E+00        -0.34283E+08
 
   -0.36293E+08         0.69101E+06         0.00000E+00
    0.69101E+06        -0.50801E+08         0.00000E+00
    0.00000E+00         0.00000E+00        -0.34265E+08
 
   -0.36166E+08         0.78876E+06         0.00000E+00
    0.78876E+06        -0.50841E+08         0.00000E+00
    0.00000E+00         0.00000E+00        -0.34248E+08
 
   -0.36040E+08         0.89053E+06         0.00000E+00
    0.89053E+06        -0.50882E+08         0.00000E+00
    0.00000E+00         0.00000E+00        -0.34231E+08
 
   -0.35914E+08         0.99630E+06         0.00000E+00
    0.99630E+06        -0.50923E+08         0.00000E+00
    0.00000E+00         0.00000E+00        -0.34214E+08
 
   -0.35789E+08         0.11061E+07         0.00000E+00
    0.11061E+07        -0.50964E+08         0.00000E+00
    0.00000E+00         0.00000E+00        -0.34197E+08
 
   -0.35665E+08         0.12199E+07         0.00000E+00
    0.12199E+07        -0.51007E+08         0.00000E+00
    0.00000E+00         0.00000E+00        -0.34181E+08
 
   -0.35542E+08         0.13378E+07         0.00000E+00
    0.13378E+07        -0.51049E+08         0.00000E+00
    0.00000E+00         0.00000E+00        -0.34165E+08
 
   -0.35420E+08         0.14597E+07         0.00000E+00
    0.14597E+07        -0.51092E+08         0.00000E+00
    0.00000E+00         0.00000E+00        -0.34149E+08
 
   -0.35300E+08         0.15856E+07         0.00000E+00
    0.15856E+07        -0.51136E+08         0.00000E+00
    0.00000E+00         0.00000E+00        -0.34134E+08
 
   -0.35180E+08         0.17156E+07         0.00000E+00
    0.17156E+07        -0.51180E+08         0.00000E+00
    0.00000E+00         0.00000E+00        -0.34119E+08
 
   -0.35063E+08         0.18497E+07         0.00000E+00
    0.18497E+07        -0.51224E+08         0.00000E+00
    0.00000E+00         0.00000E+00        -0.34104E+08
 
   -0.34947E+08         0.19879E+07         0.00000E+00
    0.19879E+07        -0.51268E+08         0.00000E+00
    0.00000E+00         0.00000E+00        -0.34089E+08
 
   -0.34833E+08         0.21302E+07         0.00000E+00
    0.21302E+07        -0.51312E+08         0.00000E+00
    0.00000E+00         0.00000E+00        -0.34076E+08
 
   -0.34721E+08         0.22764E+07         0.00000E+00
    0.22764E+07        -0.51356E+08         0.00000E+00
    0.00000E+00         0.00000E+00        -0.34062E+08
 
   -0.34612E+08         0.24268E+07         0.00000E+00
    0.24268E+07        -0.51400E+08         0.00000E+00
    0.00000E+00         0.00000E+00        -0.34049E+08
 
   -0.34505E+08         0.25810E+07         0.00000E+00
    0.25810E+07        -0.51444E+08         0.00000E+00
    0.00000E+00         0.00000E+00        -0.34036E+08
 
   -0.34401E+08         0.27392E+07         0.00000E+00
    0.27392E+07        -0.51487E+08         0.00000E+00
    0.00000E+00         0.00000E+00        -0.34024E+08
 
   -0.34301E+08         0.29012E+07         0.00000E+00
    0.29012E+07        -0.51529E+08         0.00000E+00
    0.00000E+00         0.00000E+00        -0.34013E+08
 
   -0.34203E+08         0.30670E+07         0.00000E+00
    0.30670E+07        -0.51571E+08         0.00000E+00
    0.00000E+00         0.00000E+00        -0.34001E+08
 
   -0.34110E+08         0.32364E+07         0.00000E+00
    0.32364E+07        -0.51612E+08         0.00000E+00
    0.00000E+00         0.00000E+00        -0.33991E+08
 
   -0.34020E+08         0.34093E+07         0.00000E+00
    0.34093E+07        -0.51651E+08         0.00000E+00
    0.00000E+00         0.00000E+00        -0.33981E+08
 
   -0.39883E+08        -0.48663E+05         0.00000E+00
   -0.48663E+05        -0.49999E+08         0.00000E+00
    0.00000E+00         0.00000E+00        -0.34104E+08
 
   -0.39784E+08        -0.12581E+06         0.00000E+00
   -0.12581E+06        -0.50003E+08         0.00000E+00
    0.00000E+00         0.00000E+00        -0.34085E+08
 
   -0.39678E+08        -0.19434E+06         0.00000E+00
   -0.19434E+06        -0.50011E+08         0.00000E+00
    0.00000E+00         0.00000E+00        -0.34065E+08
 
   -0.39565E+08        -0.25437E+06         0.00000E+00
   -0.25437E+06        -0.50021E+08         0.00000E+00
    0.00000E+00         0.00000E+00        -0.34045E+08
 
   -0.39447E+08        -0.30599E+06         0.00000E+00
   -0.30599E+06        -0.50035E+08         0.00000E+00
    0.00000E+00         0.00000E+00        -0.34024E+08
 
   -0.39322E+08        -0.34933E+06         0.00000E+00
   -0.34933E+06        -0.50051E+08         0.00000E+00
    0.00000E+00         0.00000E+00        -0.34002E+08
 
   -0.39193E+08        -0.38457E+06         0.00000E+00
   -0.38457E+06        -0.50068E+08         0.00000E+00
    0.00000E+00         0.00000E+00        -0.33980E+08
 
   -0.39060E+08        -0.41191E+06         0.00000E+00
   -0.41191E+06        -0.50088E+08         0.00000E+00
    0.00000E+00         0.00000E+00        -0.33957E+08
 
   -0.38924E+08        -0.43158E+06         0.00000E+00
   -0.43158E+06        -0.50109E+08         0.00000E+00
    0.00000E+00         0.00000E+00        -0.33934E+08
 
   -0.38784E+08        -0.44382E+06         0.00000E+00
   -0.44382E+06        -0.50131E+08         0.00000E+00
    0.00000E+00         0.00000E+00        -0.33910E+08
 
   -0.38642E+08        -0.44890E+06         0.00000E+00
   -0.44890E+06        -0.50154E+08         0.00000E+00
    0.00000E+00         0.00000E+00        -0.33887E+08
 
   -0.38498E+08        -0.44708E+06         0.00000E+00
   -0.44708E+06        -0.50179E+08         0.00000E+00
    0.00000E+00         0.00000E+00        -0.33863E+08
 
   -0.38353E+08        -0.43863E+06         0.00000E+00
   -0.43863E+06        -0.50204E+08         0.00000E+00
    0.00000E+00         0.00000E+00        -0.33839E+08
 
   -0.38206E+08        -0.42383E+06         0.00000E+00
   -0.42383E+06        -0.50229E+08         0.00000E+00
    0.00000E+00         0.00000E+00        -0.33814E+08
 
   -0.38058E+08        -0.40295E+06         0.00000E+00
   -0.40295E+06        -0.50256E+08         0.00000E+00
    0.00000E+00         0.00000E+00        -0.33790E+08
 
   -0.37909E+08        -0.37626E+06         0.00000E+00
   -0.37626E+06        -0.50282E+08         0.00000E+00
    0.00000E+00         0.00000E+00        -0.33766E+08
 
   -0.37760E+08        -0.34402E+06         0.00000E+00
   -0.34402E+06        -0.50310E+08         0.00000E+00
    0.00000E+00         0.00000E+00        -0.33741E+08
 
   -0.37610E+08        -0.30646E+06         0.00000E+00
   -0.30646E+06        -0.50337E+08         0.00000E+00
    0.00000E+00         0.00000E+00        -0.33717E+08
 
   -0.37461E+08        -0.26380E+06         0.00000E+00
   -0.26380E+06        -0.50366E+08         0.00000E+00
    0.00000E+00         0.00000E+00        -0.33692E+08
 
   -0.37311E+08        -0.21626E+06         0.00000E+00
   -0.21626E+06        -0.50394E+08         0.00000E+00
    0.00000E+00         0.00000E+00        -0.33668E+08
 
   -0.37161E+08        -0.16403E+06         0.00000E+00
   -0.16403E+06        -0.50424E+08         0.00000E+00
    0.00000E+00         0.00000E+00        -0.33644E+08
 
   -0.37012E+08        -0.10726E+06         0.00000E+00
   -0.10726E+06        -0.50454E+08         0.00000E+00
    0.00000E+00         0.00000E+00        -0.33620E+08
 
   -0.36862E+08        -0.46112E+05         0.00000E+00
   -0.46112E+05        -0.50484E+08         0.00000E+00
    0.00000E+00         0.00000E+00        -0.33597E+08
 
   -0.36713E+08         0.19299E+05         0.00000E+00
    0.19299E+05        -0.50516E+08         0.00000E+00
    0.00000E+00         0.00000E+00        -0.33573E+08
 
   -0.36564E+08         0.88866E+05         0.00000E+00
    0.88866E+05        -0.50548E+08         0.00000E+00
    0.00000E+00         0.00000E+00        -0.33550E+08
 
   -0.36416E+08         0.16251E+06         0.00000E+00
    0.16251E+06        -0.50581E+08         0.00000E+00
    0.00000E+00         0.00000E+00        -0.33527E+08
 
   -0.36268E+08         0.24016E+06         0.00000E+00
    0.24016E+06        -0.50615E+08         0.00000E+00
    0.00000E+00         0.00000E+00        -0.33504E+08
 
   -0.36120E+08         0.32178E+06         0.00000E+00
    0.32178E+06        -0.50650E+08         0.00000E+00
    0.00000E+00         0.00000E+00        -0.33481E+08
 
   -0.35972E+08         0.40735E+06         0.00000E+00
    0.40735E+06        -0.50686E+08         0.00000E+00
    0.00000E+00         0.00000E+00        -0.33459E+08
 
   -0.35825E+08         0.49686E+06         0.00000E+00
    0.49686E+06        -0.50723E+08         0.00000E+00
    0.00000E+00         0.00000E+00        -0.33437E+08
 
   -0.35678E+08         0.59033E+06         0.00000E+00
    0.59033E+06        -0.50761E+08         0.00000E+00
    0.00000E+00         0.00000E+00        -0.33415E+08
 
   -0.35532E+08         0.68778E+06         0.00000E+00
    0.68778E+06        -0.50800E+08         0.00000E+00
    0.00000E+00         0.00000E+00        -0.33394E+08
 
   -0.35386E+08         0.78925E+06         0.00000E+00
    0.78925E+06        -0.50841E+08         0.00000E+00
    0.00000E+00         0.00000E+00        -0.33373E+08
 
   -0.35241E+08         0.89481E+06         0.00000E+00
    0.89481E+06        -0.50882E+08         0.00000E+00
    0.00000E+00         0.00000E+00        -0.33352E+08
 
   -0.35096E+08         0.10045E+07         0.00000E+00
    0.10045E+07        -0.50925E+08         0.00000E+00
    0.00000E+00         0.00000E+00        -0.33332E+08
 
   -0.34952E+08         0.11184E+07         0.00000E+00
    0.11184E+07        -0.50969E+08         0.00000E+00
    0.00000E+00         0.00000E+00        -0.33312E+08
 
   -0.34809E+08         0.12367E+07         0.00000E+00
    0.12367E+07        -0.51015E+08         0.00000E+00
    0.00000E+00         0.00000E+00        -0.33292E+08
 
   -0.34667E+08         0.13593E+07         0.00000E+00
    0.13593E+07        -0.51061E+08         0.00000E+00
    0.00000E+00         0.00000E+00        -0.33273E+08
 
   -0.34526E+08         0.14864E+07         0.00000E+00
    0.14864E+07        -0.51108E+08         0.00000E+00
    0.00000E+00         0.00000E+00        -0.33254E+08
 
   -0.34387E+08         0.16181E+07         0.00000E+00
    0.16181E+07        -0.51157E+08         0.00000E+00
    0.00000E+00         0.00000E+00        -0.33236E+08
 
   -0.34249E+08         0.17544E+07         0.00000E+00
    0.17544E+07        -0.51206E+08         0.00000E+00
    0.00000E+00         0.00000E+00        -0.33218E+08
 
   -0.34114E+08         0.18954E+07         0.00000E+00
    0.18954E+07        -0.51255E+08         0.00000E+00
    0.00000E+00         0.00000E+00        -0.33201E+08
 
   -0.33980E+08         0.20411E+07         0.00000E+00
    0.20411E+07        -0.51306E+08         0.00000E+00
    0.00000E+00         0.00000E+00        -0.33184E+08
 
   -0.33849E+08         0.21916E+07         0.00000E+00
    0.21916E+07        -0.51356E+08         0.00000E+00
    0.00000E+00         0.00000E+00        -0.33168E+08
 
   -0.33720E+08         0.23470E+07         0.00000E+00
    0.23470E+07        -0.51407E+08         0.00000E+00
    0.00000E+00         0.00000E+00        -0.33153E+08
 
   -0.33595E+08         0.25071E+07         0.00000E+00
    0.25071E+07        -0.51458E+08         0.00000E+00
    0.00000E+00         0.00000E+00        -0.33138E+08
 
   -0.33473E+08         0.26720E+07         0.00000E+00
    0.26720E+07        -0.51508E+08         0.00000E+00
    0.00000E+00         0.00000E+00        -0.33123E+08
 
   -0.33355E+08         0.28416E+07         0.00000E+00
    0.28416E+07        -0.51558E+08         0.00000E+00
    0.00000E+00         0.00000E+00        -0.33110E+08
 
   -0.33241E+08         0.30158E+07         0.00000E+00
    0.30158E+07        -0.51607E+08         0.00000E+00
    0.00000E+00         0.00000E+00        -0.33097E+08
 
   -0.33132E+08         0.31945E+07         0.00000E+00
    0.31945E+07        -0.51655E+08         0.00000E+00
    0.00000E+00         0.00000E+00        -0.33085E+08
 
   -0.40338E+08        -0.60240E+05         0.00000E+00
   -0.60240E+05        -0.49999E+08         0.00000E+00
    0.00000E+00         0.00000E+00        -0.33462E+08
 
   -0.40191E+08        -0.15517E+06         0.00000E+00
   -0.15517E+06        -0.50003E+08         0.00000E+00
    0.00000E+00         0.00000E+00        -0.33434E+08
 
   -0.40037E+08        -0.23941E+06         0.00000E+00
   -0.23941E+06        -0.50011E+08         0.00000E+00
    0.00000E+00         0.00000E+00        -0.33405E+08
 
   -0.39877E+08        -0.31294E+06         0.00000E+00
   -0.31294E+06        -0.50021E+08         0.00000E+00
    0.00000E+00         0.00000E+00        -0.33375E+08
 
   -0.39711E+08        -0.37603E+06         0.00000E+00
   -0.37603E+06        -0.50034E+08         0.00000E+00
    0.00000E+00         0.00000E+00        -0.33344E+08
 
   -0.39542E+08        -0.42903E+06         0.00000E+00
   -0.42903E+06        -0.50048E+08         0.00000E+00
    0.00000E+00         0.00000E+00        -0.33313E+08
 
   -0.39369E+08        -0.47230E+06         0.00000E+00
   -0.47230E+06        -0.50064E+08         0.00000E+00
    0.00000E+00         0.00000E+00        -0.33282E+08
 
   -0.39194E+08        -0.50620E+06         0.00000E+00
   -0.50620E+06        -0.50081E+08         0.00000E+00
    0.00000E+00         0.00000E+00        -0.33250E+08
 
   -0.39017E+08        -0.53115E+06         0.00000E+00
   -0.53115E+06        -0.50098E+08         0.00000E+00
    0.00000E+00         0.00000E+00        -0.33218E+08
 
   -0.38838E+08        -0.54758E+06         0.00000E+00
   -0.54758E+06        -0.50116E+08         0.00000E+00
    0.00000E+00         0.00000E+00        -0.33186E+08
 
   -0.38659E+08        -0.55596E+06         0.00000E+00
   -0.55596E+06        -0.50135E+08         0.00000E+00
    0.00000E+00         0.00000E+00        -0.33154E+08
 
   -0.38480E+08        -0.55675E+06         0.00000E+00
   -0.55675E+06        -0.50153E+08         0.00000E+00
    0.00000E+00         0.00000E+00        -0.33122E+08
 
   -0.38301E+08        -0.55043E+06         0.00000E+00
   -0.55043E+06        -0.50172E+08         0.00000E+00
    0.00000E+00         0.00000E+00        -0.33090E+08
 
   -0.38122E+08        -0.53744E+06         0.00000E+00
   -0.53744E+06        -0.50190E+08         0.00000E+00
    0.00000E+00         0.00000E+00        -0.33058E+08
 
   -0.37944E+08        -0.51823E+06         0.00000E+00
   -0.51823E+06        -0.50209E+08         0.00000E+00
    0.00000E+00         0.00000E+00        -0.33026E+08
 
   -0.37767E+08        -0.49320E+06         0.00000E+00
   -0.49320E+06        -0.50228E+08         0.00000E+00
    0.00000E+00         0.00000E+00        -0.32994E+08
 
   -0.37591E+08        -0.46274E+06         0.00000E+00
   -0.46274E+06        -0.50247E+08         0.00000E+00
    0.00000E+00         0.00000E+00        -0.32963E+08
 
   -0.37416E+08        -0.42717E+06         0.00000E+00
   -0.42717E+06        -0.50266E+08         0.00000E+00
    0.00000E+00         0.00000E+00        -0.32932E+08
 
   -0.37242E+08        -0.38682E+06         0.00000E+00
   -0.38682E+06        -0.50286E+08         0.00000E+00
    0.00000E+00         0.00000E+00        -0.32901E+08
 
   -0.37069E+08        -0.34195E+06         0.00000E+00
   -0.34195E+06        -0.50306E+08         0.00000E+00
    0.00000E+00         0.00000E+00        -0.32870E+08
 
   -0.36898E+08        -0.29281E+06         0.00000E+00
   -0.29281E+06        -0.50326E+08         0.00000E+00
    0.00000E+00         0.00000E+00        -0.32840E+08
 
   -0.36727E+08        -0.23959E+06         0.00000E+00
   -0.23959E+06        -0.50348E+08         0.00000E+00
    0.00000E+00         0.00000E+00        -0.32810E+08
 
   -0.36557E+08        -0.18246E+06         0.00000E+00
   -0.18246E+06        -0.50370E+08         0.00000E+00
    0.00000E+00         0.00000E+00        -0.32780E+08
 
   -0.36388E+08        -0.12157E+06         0.00000E+00
   -0.12157E+06        -0.50393E+08         0.00000E+00
    0.00000E+00         0.00000E+00        -0.32751E+08
 
   -0.36220E+08        -0.57014E+05         0.00000E+00
   -0.57014E+05        -0.50418E+08         0.00000E+00
    0.00000E+00         0.00000E+00        -0.32723E+08
 
   -0.36052E+08         0.11128E+05         0.00000E+00
    0.11128E+05        -0.50443E+08         0.00000E+00
    0.00000E+00         0.00000E+00        -0.32694E+08
 
   -0.35885E+08         0.82813E+05         0.00000E+00
    0.82813E+05        -0.50470E+08         0.00000E+00
    0.00000E+00         0.00000E+00        -0.32666E+08
 
   -0.35718E+08         0.15802E+06         0.00000E+00
    0.15802E+06        -0.50499E+08         0.00000E+00
    0.00000E+00         0.00000E+00        -0.32638E+08
 
   -0.35552E+08         0.23676E+06         0.00000E+00
    0.23676E+06        -0.50529E+08         0.00000E+00
    0.00000E+00         0.00000E+00        -0.32611E+08
 
   -0.35386E+08         0.31907E+06         0.00000E+00
    0.31907E+06        -0.50561E+08         0.00000E+00
    0.00000E+00         0.00000E+00        -0.32584E+08
 
   -0.35220E+08         0.40501E+06         0.00000E+00
    0.40501E+06        -0.50595E+08         0.00000E+00
    0.00000E+00         0.00000E+00        -0.32558E+08
 
   -0.35054E+08         0.49466E+06         0.00000E+00
    0.49466E+06        -0.50631E+08         0.00000E+00
    0.00000E+00         0.00000E+00        -0.32532E+08
 
   -0.34888E+08         0.58813E+06         0.00000E+00
    0.58813E+06        -0.50669E+08         0.00000E+00
    0.00000E+00         0.00000E+00        -0.32506E+08
 
   -0.34722E+08         0.68557E+06         0.00000E+00
    0.68557E+06        -0.50709E+08         0.00000E+00
    0.00000E+00         0.00000E+00        -0.32481E+08
 
   -0.34557E+08         0.78711E+06         0.00000E+00
    0.78711E+06        -0.50751E+08         0.00000E+00
    0.00000E+00         0.00000E+00        -0.32457E+08
 
   -0.34391E+08         0.89294E+06         0.00000E+00
    0.89294E+06        -0.50795E+08         0.00000E+00
    0.00000E+00         0.00000E+00        -0.32432E+08
 
   -0.34226E+08         0.10032E+07         0.00000E+00
    0.10032E+07        -0.50841E+08         0.00000E+00
    0.00000E+00         0.00000E+00        -0.32408E+08
 
   -0.34061E+08         0.11182E+07         0.00000E+00
    0.11182E+07        -0.50890E+08         0.00000E+00
    0.00000E+00         0.00000E+00        -0.32385E+08
 
   -0.33896E+08         0.12381E+07         0.00000E+00
    0.12381E+07        -0.50941E+08         0.00000E+00
    0.00000E+00         0.00000E+00        -0.32362E+08
 
   -0.33732E+08         0.13631E+07         0.00000E+00
    0.13631E+07        -0.50993E+08         0.00000E+00
    0.00000E+00         0.00000E+00        -0.32340E+08
 
   -0.33569E+08         0.14934E+07         0.00000E+00
    0.14934E+07        -0.51048E+08         0.00000E+00
    0.00000E+00         0.00000E+00        -0.32318E+08
 
   -0.33408E+08         0.16292E+07         0.00000E+00
    0.16292E+07        -0.51104E+08         0.00000E+00
    0.00000E+00         0.00000E+00        -0.32297E+08
 
   -0.33248E+08         0.17708E+07         0.00000E+00
    0.17708E+07        -0.51161E+08         0.00000E+00
    0.00000E+00         0.00000E+00        -0.32277E+08
 
   -0.33090E+08         0.19182E+07         0.00000E+00
    0.19182E+07        -0.51220E+08         0.00000E+00
    0.00000E+00         0.00000E+00        -0.32257E+08
 
   -0.32934E+08         0.20716E+07         0.00000E+00
    0.20716E+07        -0.51280E+08         0.00000E+00
    0.00000E+00         0.00000E+00        -0.32238E+08
 
   -0.32782E+08         0.22312E+07         0.00000E+00
    0.22312E+07        -0.51340E+08         0.00000E+00
    0.00000E+00         0.00000E+00        -0.32219E+08
 
   -0.32633E+08         0.23970E+07         0.00000E+00
    0.23970E+07        -0.51401E+08         0.00000E+00
    0.00000E+00         0.00000E+00        -0.32202E+08
 
   -0.32488E+08         0.25690E+07         0.00000E+00
    0.25690E+07        -0.51462E+08         0.00000E+00
    0.00000E+00         0.00000E+00        -0.32185E+08
 
   -0.32348E+08         0.27472E+07         0.00000E+00
    0.27472E+07        -0.51522E+08         0.00000E+00
    0.00000E+00         0.00000E+00        -0.32169E+08
 
   -0.32213E+08         0.29314E+07         0.00000E+00
    0.29314E+07        -0.51581E+08         0.00000E+00
    0.00000E+00         0.00000E+00        -0.32154E+08
 
   -0.40886E+08        -0.72444E+05         0.00000E+00
   -0.72444E+05        -0.49999E+08         0.00000E+00
    0.00000E+00         0.00000E+00        -0.32829E+08
 
   -0.40677E+08        -0.18432E+06         0.00000E+00
   -0.18432E+06        -0.50004E+08         0.00000E+00
    0.00000E+00         0.00000E+00        -0.32788E+08
 
   -0.40462E+08        -0.28169E+06         0.00000E+00
   -0.28169E+06        -0.50011E+08         0.00000E+00
    0.00000E+00         0.00000E+00        -0.32747E+08
 
   -0.40243E+08        -0.36570E+06         0.00000E+00
   -0.36570E+06        -0.50020E+08         0.00000E+00
    0.00000E+00         0.00000E+00        -0.32705E+08
 
   -0.40020E+08        -0.43677E+06         0.00000E+00
   -0.43677E+06        -0.50030E+08         0.00000E+00
    0.00000E+00         0.00000E+00        -0.32662E+08
 
   -0.39796E+08        -0.49534E+06         0.00000E+00
   -0.49534E+06        -0.50042E+08         0.00000E+00
    0.00000E+00         0.00000E+00        -0.32620E+08
 
   -0.39570E+08        -0.54197E+06         0.00000E+00
   -0.54197E+06        -0.50053E+08         0.00000E+00
    0.00000E+00         0.00000E+00        -0.32577E+08
 
   -0.39345E+08        -0.57739E+06         0.00000E+00
   -0.57739E+06        -0.50064E+08         0.00000E+00
    0.00000E+00         0.00000E+00        -0.32534E+08
 
   -0.39122E+08        -0.60244E+06         0.00000E+00
   -0.60244E+06        -0.50074E+08         0.00000E+00
    0.00000E+00         0.00000E+00        -0.32491E+08
 
   -0.38900E+08        -0.61799E+06         0.00000E+00
   -0.61799E+06        -0.50084E+08         0.00000E+00
    0.00000E+00         0.00000E+00        -0.32449E+08
 
   -0.38681E+08        -0.62489E+06         0.00000E+00
   -0.62489E+06        -0.50092E+08         0.00000E+00
    0.00000E+00         0.00000E+00        -0.32407E+08
 
   -0.38464E+08        -0.62397E+06         0.00000E+00
   -0.62397E+06        -0.50100E+08         0.00000E+00
    0.00000E+00         0.00000E+00        -0.32365E+08
 
   -0.38251E+08        -0.61599E+06         0.00000E+00
   -0.61599E+06        -0.50106E+08         0.00000E+00
    0.00000E+00         0.00000E+00        -0.32323E+08
 
   -0.38041E+08        -0.60165E+06         0.00000E+00
   -0.60165E+06        -0.50112E+08         0.00000E+00
    0.00000E+00         0.00000E+00        -0.32283E+08
 
   -0.37834E+08        -0.58157E+06         0.00000E+00
   -0.58157E+06        -0.50118E+08         0.00000E+00
    0.00000E+00         0.00000E+00        -0.32242E+08
 
   -0.37630E+08        -0.55631E+06         0.00000E+00
   -0.55631E+06        -0.50123E+08         0.00000E+00
    0.00000E+00         0.00000E+00        -0.32203E+08
 
   -0.37429E+08        -0.52635E+06         0.00000E+00
   -0.52635E+06        -0.50128E+08         0.00000E+00
    0.00000E+00         0.00000E+00        -0.32163E+08
 
   -0.37232E+08        -0.49210E+06         0.00000E+00
   -0.49210E+06        -0.50133E+08         0.00000E+00
    0.00000E+00         0.00000E+00        -0.32125E+08
 
   -0.37036E+08        -0.45391E+06         0.00000E+00
   -0.45391E+06        -0.50139E+08         0.00000E+00
    0.00000E+00         0.00000E+00        -0.32087E+08
 
   -0.36844E+08        -0.41210E+06         0.00000E+00
   -0.41210E+06        -0.50145E+08         0.00000E+00
    0.00000E+00         0.00000E+00        -0.32050E+08
 
   -0.36653E+08        -0.36690E+06         0.00000E+00
   -0.36690E+06        -0.50152E+08         0.00000E+00
    0.00000E+00         0.00000E+00        -0.32013E+08
 
   -0.36465E+08        -0.31853E+06         0.00000E+00
   -0.31853E+06        -0.50160E+08         0.00000E+00
    0.00000E+00         0.00000E+00        -0.31977E+08
 
   -0.36278E+08        -0.26713E+06         0.00000E+00
   -0.26713E+06        -0.50170E+08         0.00000E+00
    0.00000E+00         0.00000E+00        -0.31942E+08
 
   -0.36092E+08        -0.21284E+06         0.00000E+00
   -0.21284E+06        -0.50181E+08         0.00000E+00
    0.00000E+00         0.00000E+00        -0.31907E+08
 
   -0.35908E+08        -0.15572E+06         0.00000E+00
   -0.15572E+06        -0.50193E+08         0.00000E+00
    0.00000E+00         0.00000E+00        -0.31872E+08
 
   -0.35724E+08        -0.95836E+05         0.00000E+00
   -0.95836E+05        -0.50208E+08         0.00000E+00
    0.00000E+00         0.00000E+00        -0.31838E+08
 
   -0.35541E+08        -0.33196E+05         0.00000E+00
   -0.33196E+05        -0.50225E+08         0.00000E+00
    0.00000E+00         0.00000E+00        -0.31805E+08
 
   -0.35358E+08         0.32216E+05         0.00000E+00
    0.32216E+05        -0.50244E+08         0.00000E+00
    0.00000E+00         0.00000E+00        -0.31772E+08
 
   -0.35176E+08         0.10045E+06         0.00000E+00
    0.10045E+06        -0.50265E+08         0.00000E+00
    0.00000E+00         0.00000E+00        -0.31740E+08
 
   -0.34993E+08         0.17158E+06         0.00000E+00
    0.17158E+06        -0.50289E+08         0.00000E+00
    0.00000E+00         0.00000E+00        -0.31709E+08
 
   -0.34810E+08         0.24572E+06         0.00000E+00
    0.24572E+06        -0.50316E+08         0.00000E+00
    0.00000E+00         0.00000E+00        -0.31677E+08
 
   -0.34627E+08         0.32302E+06         0.00000E+00
    0.32302E+06        -0.50346E+08         0.00000E+00
    0.00000E+00         0.00000E+00        -0.31647E+08
 
   -0.34442E+08         0.40364E+06         0.00000E+00
    0.40364E+06        -0.50379E+08         0.00000E+00
    0.00000E+00         0.00000E+00        -0.31616E+08
 
   -0.34257E+08         0.48780E+06         0.00000E+00
    0.48780E+06        -0.50415E+08         0.00000E+00
    0.00000E+00         0.00000E+00        -0.31586E+08
 
   -0.34071E+08         0.57574E+06         0.00000E+00
    0.57574E+06        -0.50454E+08         0.00000E+00
    0.00000E+00         0.00000E+00        -0.31557E+08
 
   -0.33884E+08         0.66775E+06         0.00000E+00
    0.66775E+06        -0.50497E+08         0.00000E+00
    0.00000E+00         0.00000E+00        -0.31528E+08
 
   -0.33696E+08         0.76413E+06         0.00000E+00
    0.76413E+06        -0.50543E+08         0.00000E+00
    0.00000E+00         0.00000E+00        -0.31500E+08
 
   -0.33507E+08         0.86525E+06         0.00000E+00
    0.86525E+06        -0.50593E+08         0.00000E+00
    0.00000E+00         0.00000E+00        -0.31472E+08
 
   -0.33316E+08         0.97151E+06         0.00000E+00
    0.97151E+06        -0.50646E+08         0.00000E+00
    0.00000E+00         0.00000E+00        -0.31444E+08
 
   -0.33125E+08         0.10833E+07         0.00000E+00
    0.10833E+07        -0.50703E+08         0.00000E+00
    0.00000E+00         0.00000E+00        -0.31418E+08
 
   -0.32933E+08         0.12012E+07         0.00000E+00
    0.12012E+07        -0.50763E+08         0.00000E+00
    0.00000E+00         0.00000E+00        -0.31391E+08
 
   -0.32740E+08         0.13255E+07         0.00000E+00
    0.13255E+07        -0.50826E+08         0.00000E+00
    0.00000E+00         0.00000E+00        -0.31365E+08
 
   -0.32548E+08         0.14568E+07         0.00000E+00
    0.14568E+07        -0.50893E+08         0.00000E+00
    0.00000E+00         0.00000E+00        -0.31340E+08
 
   -0.32356E+08         0.15955E+07         0.00000E+00
    0.15955E+07        -0.50963E+08         0.00000E+00
    0.00000E+00         0.00000E+00        -0.31316E+08
 
   -0.32166E+08         0.17420E+07         0.00000E+00
    0.17420E+07        -0.51034E+08         0.00000E+00
    0.00000E+00         0.00000E+00        -0.31292E+08
 
   -0.31978E+08         0.18967E+07         0.00000E+00
    0.18967E+07        -0.51108E+08         0.00000E+00
    0.00000E+00         0.00000E+00        -0.31269E+08
 
   -0.31792E+08         0.20597E+07         0.00000E+00
    0.20597E+07        -0.51183E+08         0.00000E+00
    0.00000E+00         0.00000E+00        -0.31247E+08
 
   -0.31610E+08         0.22312E+07         0.00000E+00
    0.22312E+07        -0.51259E+08         0.00000E+00
    0.00000E+00         0.00000E+00        -0.31226E+08
 
   -0.31433E+08         0.24113E+07         0.00000E+00
    0.24113E+07        -0.51335E+08         0.00000E+00
    0.00000E+00         0.00000E+00        -0.31206E+08
 
   -0.31261E+08         0.26008E+07         0.00000E+00
    0.26008E+07        -0.51411E+08         0.00000E+00
    0.00000E+00         0.00000E+00        -0.31187E+08
 
   -0.41522E+08        -0.85696E+05         0.00000E+00
   -0.85696E+05        -0.50000E+08         0.00000E+00
    0.00000E+00         0.00000E+00        -0.32205E+08
 
   -0.41231E+08        -0.21018E+06         0.00000E+00
   -0.21018E+06        -0.50002E+08         0.00000E+00
    0.00000E+00         0.00000E+00        -0.32147E+08
 
   -0.40936E+08        -0.31801E+06         0.00000E+00
   -0.31801E+06        -0.50009E+08         0.00000E+00
    0.00000E+00         0.00000E+00        -0.32090E+08
 
   -0.40639E+08        -0.40710E+06         0.00000E+00
   -0.40710E+06        -0.50018E+08         0.00000E+00
    0.00000E+00         0.00000E+00        -0.32032E+08
 
   -0.40343E+08        -0.47794E+06         0.00000E+00
   -0.47794E+06        -0.50024E+08         0.00000E+00
    0.00000E+00         0.00000E+00        -0.31974E+08
 
   -0.40049E+08        -0.53216E+06         0.00000E+00
   -0.53216E+06        -0.50028E+08         0.00000E+00
    0.00000E+00         0.00000E+00        -0.31916E+08
 
   -0.39761E+08        -0.57173E+06         0.00000E+00
   -0.57173E+06        -0.50029E+08         0.00000E+00
    0.00000E+00         0.00000E+00        -0.31859E+08
 
   -0.39480E+08        -0.59867E+06         0.00000E+00
   -0.59867E+06        -0.50026E+08         0.00000E+00
    0.00000E+00         0.00000E+00        -0.31802E+08
 
   -0.39206E+08        -0.61480E+06         0.00000E+00
   -0.61480E+06        -0.50020E+08         0.00000E+00
    0.00000E+00         0.00000E+00        -0.31746E+08
 
   -0.38939E+08        -0.62174E+06         0.00000E+00
   -0.62174E+06        -0.50012E+08         0.00000E+00
    0.00000E+00         0.00000E+00        -0.31691E+08
 
   -0.38681E+08        -0.62088E+06         0.00000E+00
   -0.62088E+06        -0.50001E+08         0.00000E+00
    0.00000E+00         0.00000E+00        -0.31637E+08
 
   -0.38430E+08        -0.61338E+06         0.00000E+00
   -0.61338E+06        -0.49988E+08         0.00000E+00
    0.00000E+00         0.00000E+00        -0.31584E+08
 
   -0.38186E+08        -0.60023E+06         0.00000E+00
   -0.60023E+06        -0.49974E+08         0.00000E+00
    0.00000E+00         0.00000E+00        -0.31533E+08
 
   -0.37949E+08        -0.58223E+06         0.00000E+00
   -0.58223E+06        -0.49959E+08         0.00000E+00
    0.00000E+00         0.00000E+00        -0.31482E+08
 
   -0.37719E+08        -0.56005E+06         0.00000E+00
   -0.56005E+06        -0.49944E+08         0.00000E+00
    0.00000E+00         0.00000E+00        -0.31433E+08
 
   -0.37494E+08        -0.53425E+06         0.00000E+00
   -0.53425E+06        -0.49928E+08         0.00000E+00
    0.00000E+00         0.00000E+00        -0.31385E+08
 
   -0.37274E+08        -0.50526E+06         0.00000E+00
   -0.50526E+06        -0.49913E+08         0.00000E+00
    0.00000E+00         0.00000E+00        -0.31338E+08
 
   -0.37059E+08        -0.47347E+06         0.00000E+00
   -0.47347E+06        -0.49899E+08         0.00000E+00
    0.00000E+00         0.00000E+00        -0.31292E+08
 
   -0.36849E+08        -0.43916E+06         0.00000E+00
   -0.43916E+06        -0.49885E+08         0.00000E+00
    0.00000E+00         0.00000E+00        -0.31247E+08
 
   -0.36641E+08        -0.40256E+06         0.00000E+00
   -0.40256E+06        -0.49873E+08         0.00000E+00
    0.00000E+00         0.00000E+00        -0.31203E+08
 
   -0.36437E+08        -0.36386E+06         0.00000E+00
   -0.36386E+06        -0.49862E+08         0.00000E+00
    0.00000E+00         0.00000E+00        -0.31160E+08
 
   -0.36236E+08        -0.32320E+06         0.00000E+00
   -0.32320E+06        -0.49854E+08         0.00000E+00
    0.00000E+00         0.00000E+00        -0.31118E+08
 
   -0.36037E+08        -0.28068E+06         0.00000E+00
   -0.28068E+06        -0.49847E+08         0.00000E+00
    0.00000E+00         0.00000E+00        -0.31077E+08
 
   -0.35840E+08        -0.23636E+06         0.00000E+00
   -0.23636E+06        -0.49843E+08         0.00000E+00
    0.00000E+00         0.00000E+00        -0.31037E+08
 
   -0.35644E+08        -0.19027E+06         0.00000E+00
   -0.19027E+06        -0.49841E+08         0.00000E+00
    0.00000E+00         0.00000E+00        -0.30998E+08
 
   -0.35449E+08        -0.14243E+06         0.00000E+00
   -0.14243E+06        -0.49842E+08         0.00000E+00
    0.00000E+00         0.00000E+00        -0.30959E+08
 
   -0.35254E+08        -0.92811E+05         0.00000E+00
   -0.92811E+05        -0.49846E+08         0.00000E+00
    0.00000E+00         0.00000E+00        -0.30921E+08
 
   -0.35060E+08        -0.41358E+05         0.00000E+00
   -0.41358E+05        -0.49854E+08         0.00000E+00
    0.00000E+00         0.00000E+00        -0.30883E+08
 
   -0.34865E+08         0.12001E+05         0.00000E+00
    0.12001E+05        -0.49864E+08         0.00000E+00
    0.00000E+00         0.00000E+00        -0.30846E+08
 
   -0.34670E+08         0.67372E+05         0.00000E+00
    0.67372E+05        -0.49878E+08         0.00000E+00
    0.00000E+00         0.00000E+00        -0.30810E+08
 
   -0.34473E+08         0.12489E+06         0.00000E+00
    0.12489E+06        -0.49896E+08         0.00000E+00
    0.00000E+00         0.00000E+00        -0.30774E+08
 
   -0.34276E+08         0.18472E+06         0.00000E+00
    0.18472E+06        -0.49917E+08         0.00000E+00
    0.00000E+00         0.00000E+00        -0.30739E+08
 
   -0.34076E+08         0.24705E+06         0.00000E+00
    0.24705E+06        -0.49943E+08         0.00000E+00
    0.00000E+00         0.00000E+00        -0.30704E+08
 
   -0.33874E+08         0.31214E+06         0.00000E+00
    0.31214E+06        -0.49973E+08         0.00000E+00
    0.00000E+00         0.00000E+00        -0.30670E+08
 
   -0.33670E+08         0.38027E+06         0.00000E+00
    0.38027E+06        -0.50007E+08         0.00000E+00
    0.00000E+00         0.00000E+00        -0.30636E+08
 
   -0.33464E+08         0.45176E+06         0.00000E+00
    0.45176E+06        -0.50046E+08         0.00000E+00
    0.00000E+00         0.00000E+00        -0.30603E+08
 
   -0.33254E+08         0.52702E+06         0.00000E+00
    0.52702E+06        -0.50090E+08         0.00000E+00
    0.00000E+00         0.00000E+00        -0.30569E+08
 
   -0.33041E+08         0.60649E+06         0.00000E+00
    0.60649E+06        -0.50139E+08         0.00000E+00
    0.00000E+00         0.00000E+00        -0.30536E+08
 
   -0.32824E+08         0.69071E+06         0.00000E+00
    0.69071E+06        -0.50193E+08         0.00000E+00
    0.00000E+00         0.00000E+00        -0.30504E+08
 
   -0.32603E+08         0.78032E+06         0.00000E+00
    0.78032E+06        -0.50253E+08         0.00000E+00
    0.00000E+00         0.00000E+00        -0.30472E+08
 
   -0.32379E+08         0.87602E+06         0.00000E+00
    0.87602E+06        -0.50318E+08         0.00000E+00
    0.00000E+00         0.00000E+00        -0.30440E+08
 
   -0.32151E+08         0.97866E+06         0.00000E+00
    0.97866E+06        -0.50389E+08         0.00000E+00
    0.00000E+00         0.00000E+00        -0.30409E+08
 
   -0.31920E+08         0.10892E+07         0.00000E+00
    0.10892E+07        -0.50465E+08         0.00000E+00
    0.00000E+00         0.00000E+00        -0.30378E+08
 
   -0.31685E+08         0.12087E+07         0.00000E+00
    0.12087E+07        -0.50547E+08         0.00000E+00
    0.00000E+00         0.00000E+00        -0.30347E+08
 
   -0.31448E+08         0.13383E+07         0.00000E+00
    0.13383E+07        -0.50635E+08         0.00000E+00
    0.00000E+00         0.00000E+00        -0.30317E+08
 
   -0.31210E+08         0.14792E+07         0.00000E+00
    0.14792E+07        -0.50727E+08         0.00000E+00
    0.00000E+00         0.00000E+00        -0.30288E+08
 
   -0.30973E+08         0.16326E+07         0.00000E+00
    0.16326E+07        -0.50824E+08         0.00000E+00
    0.00000E+00         0.00000E+00        -0.30260E+08
 
   -0.30738E+08         0.17991E+07         0.00000E+00
    0.17991E+07        -0.50923E+08         0.00000E+00
    0.00000E+00         0.00000E+00        -0.30233E+08
 
   -0.30508E+08         0.19786E+07         0.00000E+00
    0.19786E+07        -0.51023E+08         0.00000E+00
    0.00000E+00         0.00000E+00        -0.30207E+08
 
   -0.30281E+08         0.21689E+07         0.00000E+00
    0.21689E+07        -0.51121E+08         0.00000E+00
    0.00000E+00         0.00000E+00        -0.30181E+08
 
   -0.42238E+08        -0.10267E+06         0.00000E+00
   -0.10267E+06        -0.49998E+08         0.00000E+00
    0.00000E+00         0.00000E+00        -0.31590E+08
 
   -0.41823E+08        -0.24320E+06         0.00000E+00
   -0.24320E+06        -0.50018E+08         0.00000E+00
    0.00000E+00         0.00000E+00        -0.31511E+08
 
   -0.41403E+08        -0.34201E+06         0.00000E+00
   -0.34201E+06        -0.50023E+08         0.00000E+00
    0.00000E+00         0.00000E+00        -0.31428E+08
 
   -0.40995E+08        -0.41002E+06         0.00000E+00
   -0.41002E+06        -0.50017E+08         0.00000E+00
    0.00000E+00         0.00000E+00        -0.31345E+08
 
   -0.40604E+08        -0.45535E+06         0.00000E+00
   -0.45535E+06        -0.50001E+08         0.00000E+00
    0.00000E+00         0.00000E+00        -0.31264E+08
 
   -0.40233E+08        -0.48390E+06         0.00000E+00
   -0.48390E+06        -0.49977E+08         0.00000E+00
    0.00000E+00         0.00000E+00        -0.31185E+08
 
   -0.39881E+08        -0.49995E+06         0.00000E+00
   -0.49995E+06        -0.49946E+08         0.00000E+00
    0.00000E+00         0.00000E+00        -0.31108E+08
 
   -0.39548E+08        -0.50659E+06         0.00000E+00
   -0.50659E+06        -0.49910E+08         0.00000E+00
    0.00000E+00         0.00000E+00        -0.31034E+08
 
   -0.39231E+08        -0.50606E+06         0.00000E+00
   -0.50606E+06        -0.49871E+08         0.00000E+00
    0.00000E+00         0.00000E+00        -0.30963E+08
 
   -0.38930E+08        -0.50002E+06         0.00000E+00
   -0.50002E+06        -0.49830E+08         0.00000E+00
    0.00000E+00         0.00000E+00        -0.30895E+08
 
   -0.38643E+08        -0.48966E+06         0.00000E+00
   -0.48966E+06        -0.49787E+08         0.00000E+00
    0.00000E+00         0.00000E+00        -0.30829E+08
 
   -0.38369E+08        -0.47590E+06         0.00000E+00
   -0.47590E+06        -0.49744E+08         0.00000E+00
    0.00000E+00         0.00000E+00        -0.30765E+08
 
   -0.38105E+08        -0.45941E+06         0.00000E+00
   -0.45941E+06        -0.49700E+08         0.00000E+00
    0.00000E+00         0.00000E+00        -0.30704E+08
 
   -0.37852E+08        -0.44072E+06         0.00000E+00
   -0.44072E+06        -0.49657E+08         0.00000E+00
    0.00000E+00         0.00000E+00        -0.30645E+08
 
   -0.37607E+08        -0.42019E+06         0.00000E+00
   -0.42019E+06        -0.49616E+08         0.00000E+00
    0.00000E+00         0.00000E+00        -0.30587E+08
 
   -0.37369E+08        -0.39813E+06         0.00000E+00
   -0.39813E+06        -0.49575E+08         0.00000E+00
    0.00000E+00         0.00000E+00        -0.30532E+08
 
   -0.37139E+08        -0.37476E+06         0.00000E+00
   -0.37476E+06        -0.49536E+08         0.00000E+00
    0.00000E+00         0.00000E+00        -0.30478E+08
 
   -0.36914E+08        -0.35026E+06         0.00000E+00
   -0.35026E+06        -0.49500E+08         0.00000E+00
    0.00000E+00         0.00000E+00        -0.30426E+08
 
   -0.36695E+08        -0.32474E+06         0.00000E+00
   -0.32474E+06        -0.49466E+08         0.00000E+00
    0.00000E+00         0.00000E+00        -0.30375E+08
 
   -0.36480E+08        -0.29829E+06         0.00000E+00
   -0.29829E+06        -0.49434E+08         0.00000E+00
    0.00000E+00         0.00000E+00        -0.30326E+08
 
   -0.36269E+08        -0.27099E+06         0.00000E+00
   -0.27099E+06        -0.49405E+08         0.00000E+00
    0.00000E+00         0.00000E+00        -0.30278E+08
 
   -0.36061E+08        -0.24287E+06         0.00000E+00
   -0.24287E+06        -0.49379E+08         0.00000E+00
    0.00000E+00         0.00000E+00        -0.30231E+08
 
   -0.35855E+08        -0.21395E+06         0.00000E+00
   -0.21395E+06        -0.49357E+08         0.00000E+00
    0.00000E+00         0.00000E+00        -0.30185E+08
 
   -0.35651E+08        -0.18423E+06         0.00000E+00
   -0.18423E+06        -0.49337E+08         0.00000E+00
    0.00000E+00         0.00000E+00        -0.30141E+08
 
   -0.35449E+08        -0.15371E+06         0.00000E+00
   -0.15371E+06        -0.49322E+08         0.00000E+00
    0.00000E+00         0.00000E+00        -0.30097E+08
 
   -0.35247E+08        -0.12236E+06         0.00000E+00
   -0.12236E+06        -0.49310E+08         0.00000E+00
    0.00000E+00         0.00000E+00        -0.30054E+08
 
   -0.35046E+08        -0.90123E+05         0.00000E+00
   -0.90123E+05        -0.49301E+08         0.00000E+00
    0.00000E+00         0.00000E+00        -0.30012E+08
 
   -0.34844E+08        -0.56956E+05         0.00000E+00
   -0.56956E+05        -0.49297E+08         0.00000E+00
    0.00000E+00         0.00000E+00        -0.29971E+08
 
   -0.34642E+08        -0.22781E+05         0.00000E+00
   -0.22781E+05        -0.49297E+08         0.00000E+00
    0.00000E+00         0.00000E+00        -0.29930E+08
 
   -0.34438E+08         0.12492E+05         0.00000E+00
    0.12492E+05        -0.49301E+08         0.00000E+00
    0.00000E+00         0.00000E+00        -0.29891E+08
 
   -0.34233E+08         0.48972E+05         0.00000E+00
    0.48972E+05        -0.49309E+08         0.00000E+00
    0.00000E+00         0.00000E+00        -0.29851E+08
 
   -0.34026E+08         0.86790E+05         0.00000E+00
    0.86790E+05        -0.49322E+08         0.00000E+00
    0.00000E+00         0.00000E+00        -0.29812E+08
 
   -0.33815E+08         0.12610E+06         0.00000E+00
    0.12610E+06        -0.49340E+08         0.00000E+00
    0.00000E+00         0.00000E+00        -0.29774E+08
 
   -0.33602E+08         0.16710E+06         0.00000E+00
    0.16710E+06        -0.49363E+08         0.00000E+00
    0.00000E+00         0.00000E+00        -0.29736E+08
 
   -0.33385E+08         0.21000E+06         0.00000E+00
    0.21000E+06        -0.49392E+08         0.00000E+00
    0.00000E+00         0.00000E+00        -0.29698E+08
 
   -0.33163E+08         0.25507E+06         0.00000E+00
    0.25507E+06        -0.49425E+08         0.00000E+00
    0.00000E+00         0.00000E+00        -0.29660E+08
 
   -0.32936E+08         0.30264E+06         0.00000E+00
    0.30264E+06        -0.49465E+08         0.00000E+00
    0.00000E+00         0.00000E+00        -0.29623E+08
 
   -0.32703E+08         0.35309E+06         0.00000E+00
    0.35309E+06        -0.49511E+08         0.00000E+00
    0.00000E+00         0.00000E+00        -0.29586E+08
 
   -0.32464E+08         0.40691E+06         0.00000E+00
    0.40691E+06        -0.49564E+08         0.00000E+00
    0.00000E+00         0.00000E+00        -0.29548E+08
 
   -0.32218E+08         0.46466E+06         0.00000E+00
    0.46466E+06        -0.49623E+08         0.00000E+00
    0.00000E+00         0.00000E+00        -0.29511E+08
 
   -0.31964E+08         0.52709E+06         0.00000E+00
    0.52709E+06        -0.49690E+08         0.00000E+00
    0.00000E+00         0.00000E+00        -0.29474E+08
 
   -0.31702E+08         0.59509E+06         0.00000E+00
    0.59509E+06        -0.49764E+08         0.00000E+00
    0.00000E+00         0.00000E+00        -0.29436E+08
 
   -0.31430E+08         0.66981E+06         0.00000E+00
    0.66981E+06        -0.49847E+08         0.00000E+00
    0.00000E+00         0.00000E+00        -0.29398E+08
 
   -0.31147E+08         0.75271E+06         0.00000E+00
    0.75271E+06        -0.49939E+08         0.00000E+00
    0.00000E+00         0.00000E+00        -0.29360E+08
 
   -0.30854E+08         0.84570E+06         0.00000E+00
    0.84570E+06        -0.50040E+08         0.00000E+00
    0.00000E+00         0.00000E+00        -0.29322E+08
 
   -0.30550E+08         0.95124E+06         0.00000E+00
    0.95124E+06        -0.50151E+08         0.00000E+00
    0.00000E+00         0.00000E+00        -0.29283E+08
 
   -0.30236E+08         0.10726E+07         0.00000E+00
    0.10726E+07        -0.50273E+08         0.00000E+00
    0.00000E+00         0.00000E+00        -0.29245E+08
 
   -0.29913E+08         0.12140E+07         0.00000E+00
    0.12140E+07        -0.50406E+08         0.00000E+00
    0.00000E+00         0.00000E+00        -0.29207E+08
 
   -0.29589E+08         0.13811E+07         0.00000E+00
    0.13811E+07        -0.50550E+08         0.00000E+00
    0.00000E+00         0.00000E+00        -0.29171E+08
 
   -0.29276E+08         0.15810E+07         0.00000E+00
    0.15810E+07        -0.50704E+08         0.00000E+00
    0.00000E+00         0.00000E+00        -0.29139E+08
 
   -0.42940E+08        -0.14855E+06         0.00000E+00
   -0.14855E+06        -0.50028E+08         0.00000E+00
    0.00000E+00         0.00000E+00        -0.30975E+08
 
   -0.42268E+08        -0.19256E+06         0.00000E+00
   -0.19256E+06        -0.49976E+08         0.00000E+00
    0.00000E+00         0.00000E+00        -0.30830E+08
 
   -0.41687E+08        -0.21407E+06         0.00000E+00
   -0.21407E+06        -0.49912E+08         0.00000E+00
    0.00000E+00         0.00000E+00        -0.30701E+08
 
   -0.41173E+08        -0.22345E+06         0.00000E+00
   -0.22345E+06        -0.49840E+08         0.00000E+00
    0.00000E+00         0.00000E+00        -0.30584E+08
 
   -0.40711E+08        -0.22601E+06         0.00000E+00
   -0.22601E+06        -0.49762E+08         0.00000E+00
    0.00000E+00         0.00000E+00        -0.30476E+08
 
   -0.40290E+08        -0.22456E+06         0.00000E+00
   -0.22456E+06        -0.49683E+08         0.00000E+00
    0.00000E+00         0.00000E+00        -0.30376E+08
 
   -0.39903E+08        -0.22064E+06         0.00000E+00
   -0.22064E+06        -0.49603E+08         0.00000E+00
    0.00000E+00         0.00000E+00        -0.30282E+08
 
   -0.39543E+08        -0.21514E+06         0.00000E+00
   -0.21514E+06        -0.49523E+08         0.00000E+00
    0.00000E+00         0.00000E+00        -0.30195E+08
 
   -0.39208E+08        -0.20858E+06         0.00000E+00
   -0.20858E+06        -0.49445E+08         0.00000E+00
    0.00000E+00         0.00000E+00        -0.30112E+08
 
   -0.38892E+08        -0.20127E+06         0.00000E+00
   -0.20127E+06        -0.49368E+08         0.00000E+00
    0.00000E+00         0.00000E+00        -0.30033E+08
 
   -0.38594E+08        -0.19343E+06         0.00000E+00
   -0.19343E+06        -0.49293E+08         0.00000E+00
    0.00000E+00         0.00000E+00        -0.29959E+08
 
   -0.38310E+08        -0.18517E+06         0.00000E+00
   -0.18517E+06        -0.49221E+08         0.00000E+00
    0.00000E+00         0.00000E+00        -0.29888E+08
 
   -0.38040E+08        -0.17660E+06         0.00000E+00
   -0.17660E+06        -0.49152E+08         0.00000E+00
    0.00000E+00         0.00000E+00        -0.29820E+08
 
   -0.37780E+08        -0.16777E+06         0.00000E+00
   -0.16777E+06        -0.49086E+08         0.00000E+00
    0.00000E+00         0.00000E+00        -0.29755E+08
 
   -0.37531E+08        -0.15872E+06         0.00000E+00
   -0.15872E+06        -0.49023E+08         0.00000E+00
    0.00000E+00         0.00000E+00        -0.29692E+08
 
   -0.37289E+08        -0.14947E+06         0.00000E+00
   -0.14947E+06        -0.48964E+08         0.00000E+00
    0.00000E+00         0.00000E+00        -0.29632E+08
 
   -0.37055E+08        -0.14005E+06         0.00000E+00
   -0.14005E+06        -0.48908E+08         0.00000E+00
    0.00000E+00         0.00000E+00        -0.29574E+08
 
   -0.36828E+08        -0.13047E+06         0.00000E+00
   -0.13047E+06        -0.48855E+08         0.00000E+00
    0.00000E+00         0.00000E+00        -0.29518E+08
 
   -0.36605E+08        -0.12074E+06         0.00000E+00
   -0.12074E+06        -0.48807E+08         0.00000E+00
    0.00000E+00         0.00000E+00        -0.29464E+08
 
   -0.36388E+08        -0.11085E+06         0.00000E+00
   -0.11085E+06        -0.48762E+08         0.00000E+00
    0.00000E+00         0.00000E+00        -0.29411E+08
 
   -0.36174E+08        -0.10080E+06         0.00000E+00
   -0.10080E+06        -0.48721E+08         0.00000E+00
    0.00000E+00         0.00000E+00        -0.29360E+08
 
   -0.35963E+08        -0.90588E+05         0.00000E+00
   -0.90588E+05        -0.48684E+08         0.00000E+00
    0.00000E+00         0.00000E+00        -0.29311E+08
 
   -0.35755E+08        -0.80205E+05         0.00000E+00
   -0.80205E+05        -0.48651E+08         0.00000E+00
    0.00000E+00         0.00000E+00        -0.29263E+08
 
   -0.35549E+08        -0.69638E+05         0.00000E+00
   -0.69638E+05        -0.48622E+08         0.00000E+00
    0.00000E+00         0.00000E+00        -0.29215E+08
 
   -0.35344E+08        -0.58871E+05         0.00000E+00
   -0.58871E+05        -0.48597E+08         0.00000E+00
    0.00000E+00         0.00000E+00        -0.29169E+08
 
   -0.35140E+08        -0.47887E+05         0.00000E+00
   -0.47887E+05        -0.48576E+08         0.00000E+00
    0.00000E+00         0.00000E+00        -0.29124E+08
 
   -0.34935E+08        -0.36662E+05         0.00000E+00
   -0.36662E+05        -0.48560E+08         0.00000E+00
    0.00000E+00         0.00000E+00        -0.29080E+08
 
   -0.34730E+08        -0.25172E+05         0.00000E+00
   -0.25172E+05        -0.48548E+08         0.00000E+00
    0.00000E+00         0.00000E+00        -0.29037E+08
 
   -0.34525E+08        -0.13385E+05         0.00000E+00
   -0.13385E+05        -0.48541E+08         0.00000E+00
    0.00000E+00         0.00000E+00        -0.28995E+08
 
   -0.34317E+08        -0.12654E+04         0.00000E+00
   -0.12654E+04        -0.48539E+08         0.00000E+00
    0.00000E+00         0.00000E+00        -0.28953E+08
 
   -0.34108E+08         0.11228E+05         0.00000E+00
    0.11228E+05        -0.48541E+08         0.00000E+00
    0.00000E+00         0.00000E+00        -0.28911E+08
 
   -0.33896E+08         0.24145E+05         0.00000E+00
    0.24145E+05        -0.48549E+08         0.00000E+00
    0.00000E+00         0.00000E+00        -0.28870E+08
 
   -0.33680E+08         0.37544E+05         0.00000E+00
    0.37544E+05        -0.48562E+08         0.00000E+00
    0.00000E+00         0.00000E+00        -0.28830E+08
 
   -0.33461E+08         0.51493E+05         0.00000E+00
    0.51493E+05        -0.48580E+08         0.00000E+00
    0.00000E+00         0.00000E+00        -0.28789E+08
 
   -0.33236E+08         0.66075E+05         0.00000E+00
    0.66075E+05        -0.48604E+08         0.00000E+00
    0.00000E+00         0.00000E+00        -0.28749E+08
 
   -0.33007E+08         0.81390E+05         0.00000E+00
    0.81390E+05        -0.48634E+08         0.00000E+00
    0.00000E+00         0.00000E+00        -0.28709E+08
 
   -0.32771E+08         0.97560E+05         0.00000E+00
    0.97560E+05        -0.48670E+08         0.00000E+00
    0.00000E+00         0.00000E+00        -0.28669E+08
 
   -0.32527E+08         0.11473E+06         0.00000E+00
    0.11473E+06        -0.48712E+08         0.00000E+00
    0.00000E+00         0.00000E+00        -0.28629E+08
 
   -0.32276E+08         0.13310E+06         0.00000E+00
    0.13310E+06        -0.48762E+08         0.00000E+00
    0.00000E+00         0.00000E+00        -0.28589E+08
 
   -0.32014E+08         0.15289E+06         0.00000E+00
    0.15289E+06        -0.48819E+08         0.00000E+00
    0.00000E+00         0.00000E+00        -0.28548E+08
 
   -0.31742E+08         0.17441E+06         0.00000E+00
    0.17441E+06        -0.48884E+08         0.00000E+00
    0.00000E+00         0.00000E+00        -0.28507E+08
 
   -0.31457E+08         0.19806E+06         0.00000E+00
    0.19806E+06        -0.48959E+08         0.00000E+00
    0.00000E+00         0.00000E+00        -0.28464E+08
 
   -0.31157E+08         0.22438E+06         0.00000E+00
    0.22438E+06        -0.49043E+08         0.00000E+00
    0.00000E+00         0.00000E+00        -0.28421E+08
 
   -0.30841E+08         0.25408E+06         0.00000E+00
    0.25408E+06        -0.49137E+08         0.00000E+00
    0.00000E+00         0.00000E+00        -0.28377E+08
 
   -0.30503E+08         0.28822E+06         0.00000E+00
    0.28822E+06        -0.49244E+08         0.00000E+00
    0.00000E+00         0.00000E+00        -0.28331E+08
 
   -0.30142E+08         0.32827E+06         0.00000E+00
    0.32827E+06        -0.49365E+08         0.00000E+00
    0.00000E+00         0.00000E+00        -0.28283E+08
 
   -0.29750E+08         0.37650E+06         0.00000E+00
    0.37650E+06        -0.49502E+08         0.00000E+00
    0.00000E+00         0.00000E+00        -0.28232E+08
 
   -0.29322E+08         0.43649E+06         0.00000E+00
    0.43649E+06        -0.49659E+08         0.00000E+00
    0.00000E+00         0.00000E+00        -0.28177E+08
 
   -0.28846E+08         0.51417E+06         0.00000E+00
    0.51417E+06        -0.49838E+08         0.00000E+00
    0.00000E+00         0.00000E+00        -0.28118E+08
 
   -0.28305E+08         0.61998E+06         0.00000E+00
    0.61998E+06        -0.50046E+08         0.00000E+00
    0.00000E+00         0.00000E+00        -0.28052E+08
 
SCALARS stresss double 
LOOKUP_TABLE default
  -55078891.8380616     
  -55316866.3605536     
  -55560357.4790890     
  -55798844.3427555     
  -56025599.7845211     
  -56228559.0190414     
  -56391452.1582794     
  -56542034.4588409     
  -56692025.5623562     
  -56834865.6702270     
  -56967728.1981702     
  -57091675.6796255     
  -57208240.2674918     
  -57318590.7638994     
  -57420887.8864571     
  -57513045.1688556     
  -57601918.0185388     
  -57685535.5502001     
  -57766227.3622950     
  -57844734.7598856     
  -57921229.2454244     
  -57995895.4981227     
  -58068921.2935117     
  -58140493.4691617     
  -58210796.7683143     
  -58280014.1351043     
  -58348327.8145794     
  -58415920.9856612     
  -58482979.8631448     
  -58549696.3599530     
  -58616271.5789338     
  -58682920.6930884     
  -58749880.3365688     
  -58817420.8250958     
  -58885868.2078942     
  -58950509.7524211     
  -59000738.9692270     
  -59016465.4870179     
  -59014301.8896811     
  -59005056.1565499     
  -58988751.4186651     
  -58964609.2924951     
  -58933871.5123487     
  -58896054.1797815     
  -58849561.8123294     
  -58793788.9455780     
  -58727691.2371813     
  -58648970.8794821     
  -58557212.7530208     
  -58452720.6093913     
  -55878427.0873293     
  -55906908.4990627     
  -55968720.7712784     
  -56051156.0653647     
  -56140090.0655716     
  -56227876.7334936     
  -56312564.5329819     
  -56406388.0917566     
  -56504329.7805585     
  -56604672.7244113     
  -56703211.4662103     
  -56801022.0641327     
  -56897310.3146534     
  -56991203.5490074     
  -57079587.6182739     
  -57163223.9394484     
  -57243838.8501291     
  -57322112.4545855     
  -57397942.5129961     
  -57471565.9537992     
  -57543262.6841937     
  -57613253.9492106     
  -57681728.5369153     
  -57748855.9194915     
  -57814793.3763323     
  -57879690.1809529     
  -57943690.2418024     
  -58006933.8193438     
  -58069558.5457060     
  -58131699.6966025     
  -58193489.3485259     
  -58255053.5096322     
  -58316505.1796150     
  -58377928.7374558     
  -58439345.0145034     
  -58500897.8357952     
  -58559735.7661440     
  -58602432.3711105     
  -58625325.8319733     
  -58619761.1310009     
  -58597565.9598954     
  -58568910.7136209     
  -58531516.6336536     
  -58485639.9037932     
  -58432354.2652283     
  -58370336.2892257     
  -58298240.0675938     
  -58215055.9317539     
  -58117735.5020899     
  -58000859.0109982     
  -55870012.5305543     
  -55934207.4404984     
  -55993423.3660996     
  -56052716.7771595     
  -56114764.5726235     
  -56180293.8823792     
  -56249302.7282146     
  -56318743.2429223     
  -56389255.4687986     
  -56460319.9945552     
  -56531980.4697553     
  -56603526.3811644     
  -56674615.3344503     
  -56744887.1548943     
  -56814689.7541313     
  -56883614.1832880     
  -56951222.5642680     
  -57017420.6071466     
  -57082312.8323869     
  -57145922.4303848     
  -57208284.5054666     
  -57269459.4620831     
  -57329516.9743411     
  -57388529.7704657     
  -57446571.1652401     
  -57503714.0258343     
  -57560030.2723571     
  -57615590.5571257     
  -57670463.9856934     
  -57724717.8599644     
  -57778417.5623794     
  -57831627.0083100     
  -57884410.8942536     
  -57936842.0948592     
  -57989023.2443002     
  -58041011.8849051     
  -58093349.1017847     
  -58146712.5636758     
  -58189772.0533603     
  -58211078.3308218     
  -58211807.7201145     
  -58176587.6619830     
  -58124536.8105923     
  -58065433.9993907     
  -57997043.7755074     
  -57921292.9510882     
  -57839597.2258702     
  -57753858.2889080     
  -57665453.0856363     
  -57578871.4962568     
  -55823207.2338619     
  -55879555.8038071     
  -55935399.0261683     
  -55990207.2757570     
  -56044268.3650331     
  -56098032.6286057     
  -56151667.2380804     
  -56205863.6742356     
  -56260319.9751631     
  -56315054.2040181     
  -56369895.4391755     
  -56424831.8168765     
  -56479751.1639754     
  -56534587.3563713     
  -56589109.2012837     
  -56643266.8781521     
  -56697013.7387086     
  -56750252.8759995     
  -56802883.6061353     
  -56854856.5998714     
  -56906136.8568270     
  -56956698.2744549     
  -57006524.9615008     
  -57055609.1907036     
  -57103948.9711927     
  -57151545.9780818     
  -57198403.9285725     
  -57244527.3498748     
  -57289920.6913669     
  -57334587.7811649     
  -57378531.6742800     
  -57421754.9320566     
  -57464260.1436681     
  -57506049.5132829     
  -57547118.9332846     
  -57587489.8627320     
  -57627063.1803610     
  -57665510.1139034     
  -57705109.4354639     
  -57743653.8942921     
  -57764316.5866871     
  -57757651.5316187     
  -57731996.4708807     
  -57671961.6019819     
  -57594329.9013110     
  -57507840.6638873     
  -57420356.3827589     
  -57330244.3533816     
  -57242841.9880442     
  -57156806.5015882     
  -55809241.9987673     
  -55846605.1631914     
  -55885158.0438884     
  -55924644.4438239     
  -55964735.4905269     
  -56005217.1901141     
  -56046055.6500218     
  -56087103.4154934     
  -56128430.3305948     
  -56169981.8448784     
  -56211740.2488159     
  -56253639.7009184     
  -56295632.3456553     
  -56337643.2464378     
  -56379634.9797878     
  -56421530.9079515     
  -56463261.7775282     
  -56504771.0501274     
  -56546004.2101280     
  -56586900.4928967     
  -56627404.4609778     
  -56667465.7291161     
  -56707037.3167895     
  -56746075.0305077     
  -56784536.7504514     
  -56822381.5095740     
  -56859568.4378337     
  -56896055.6312941     
  -56931798.9597486     
  -56966750.7775292     
  -57000858.4464028     
  -57034062.5156321     
  -57066294.3807311     
  -57097473.5067246     
  -57127505.8041455     
  -57156266.7672172     
  -57183634.2385489     
  -57209575.5771894     
  -57233323.9588076     
  -57254834.9571747     
  -57277140.3189745     
  -57296274.9755421     
  -57293629.3275730     
  -57265550.0841349     
  -57223186.1642935     
  -57166534.6922862     
  -57077263.8568979     
  -56981622.2318241     
  -56877946.2765043     
  -56780222.2420531     
  -55779459.9562452     
  -55803564.6868650     
  -55828560.9833267     
  -55854464.9085215     
  -55881254.6948348     
  -55908857.1179264     
  -55937154.2566707     
  -55966073.7972542     
  -55995508.4199978     
  -56025395.8911255     
  -56055665.8365840     
  -56086259.8128698     
  -56117114.1003301     
  -56148173.7243460     
  -56179374.4333007     
  -56210660.4830394     
  -56241973.4814231     
  -56273253.7869763     
  -56304443.0899257     
  -56335485.4510614     
  -56366324.3153372     
  -56396903.0697282     
  -56427165.3454856     
  -56457054.7149130     
  -56486514.2434464     
  -56515485.9309338     
  -56543910.0203321     
  -56571724.1567683     
  -56598862.3827668     
  -56625253.9527593     
  -56650821.9499189     
  -56675481.6998978     
  -56699138.9939877     
  -56721688.0689454     
  -56743008.6838049     
  -56762968.1555851     
  -56781409.4278264     
  -56798101.8432737     
  -56812967.7566056     
  -56825817.8448260     
  -56835567.4002439     
  -56842308.8311615     
  -56849259.8289991     
  -56856235.2961575     
  -56843548.1383023     
  -56817303.7332481     
  -56764731.1354074     
  -56707096.6938849     
  -56638577.0057792     
  -56540577.5329989     
  -55729848.9097254     
  -55742253.0834302     
  -55755940.7653863     
  -55770765.0293421     
  -55786616.7279693     
  -55803408.8164837     
  -55821068.3251817     
  -55839512.2554149     
  -55858668.9062503     
  -55878459.2036072     
  -55898811.9536957     
  -55919657.4591176     
  -55940930.9760001     
  -55962567.7450188     
  -55984507.3431805     
  -56006689.1482746     
  -56029054.7616654     
  -56051546.8741744     
  -56074108.6177959     
  -56096683.3910325     
  -56119215.3640781     
  -56141648.9618390     
  -56163928.5332253     
  -56185998.1507137     
  -56207801.3651765     
  -56229280.9087389     
  -56250378.3518935     
  -56271033.7179728     
  -56291185.0590475     
  -56310768.0017569     
  -56329715.2763873     
  -56347956.2437312     
  -56365416.4297890     
  -56382017.0959170     
  -56397675.1105322     
  -56412301.0750552     
  -56425800.9345802     
  -56438094.9761710     
  -56449055.7983340     
  -56458539.1637908     
  -56466630.0634948     
  -56473277.4398616     
  -56477637.4797603     
  -56479057.7765767     
  -56481664.0725409     
  -56482461.9548357     
  -56484576.2823782     
  -56474128.5313212     
  -56449669.0909422     
  -56412902.3338578     
  -55656122.0023675     
  -55659589.2726660     
  -55664308.9239542     
  -55670214.7191533     
  -55677228.1369608     
  -55685269.2576824     
  -55694259.5173328     
  -55704127.0035506     
  -55714800.3199730     
  -55726212.8323385     
  -55738298.4155630     
  -55750993.3178916     
  -55764235.1666974     
  -55777964.1867720     
  -55792121.7916728     
  -55806651.4128857     
  -55821497.6679369     
  -55836606.5403598     
  -55851925.2725982     
  -55867402.1762615     
  -55882986.3689845     
  -55898627.7843292     
  -55914277.0967526     
  -55929885.6232944     
  -55945405.2551025     
  -55960788.4168745     
  -55975988.0558280     
  -55990957.6684979     
  -56005651.3783661     
  -56020024.0814434     
  -56034031.6817111     
  -56047631.4454538     
  -56060782.5153744     
  -56073446.6354370     
  -56085589.0659058     
  -56097180.5041689     
  -56108198.8481599     
  -56118624.7187941     
  -56128460.8052929     
  -56137740.0811409     
  -56146459.6621559     
  -56154629.5512389     
  -56162479.3160238     
  -56170433.0184448     
  -56177849.6994788     
  -56185916.4006296     
  -56193799.9592794     
  -56205129.7120729     
  -56221502.3127352     
  -56242669.7315495     
  -55558454.5560921     
  -55555057.8469101     
  -55552901.1724887     
  -55551910.3438336     
  -55552018.3467276     
  -55553160.3702134     
  -55555273.1855329     
  -55558294.1314058     
  -55562162.7600466     
  -55566819.7102576     
  -55572207.7150813     
  -55578270.9451792     
  -55584955.2143011     
  -55592207.5887067     
  -55599976.7004723     
  -55608212.4833118     
  -55616866.3084961     
  -55625890.8450204     
  -55635240.0408052     
  -55644869.1216572     
  -55654734.6043648     
  -55664794.2632699     
  -55675007.1514393     
  -55685333.6502633     
  -55695735.5394788     
  -55706176.0974380     
  -55716620.2399055     
  -55727034.7051118     
  -55737388.2937420     
  -55747652.1740947     
  -55757800.2644282     
  -55767809.7060846     
  -55777661.4412832     
  -55787340.9098231     
  -55796838.9104159     
  -55806152.3863618     
  -55815285.3898910     
  -55824252.6847325     
  -55833077.2669894     
  -55841787.2540304     
  -55850436.6244243     
  -55859111.9282880     
  -55867882.8672074     
  -55876752.3271521     
  -55885998.3478337     
  -55895459.5314380     
  -55905639.8037786     
  -55915915.0087685     
  -55925831.7048936     
  -55934513.7299611     
  -55438653.4167356     
  -55430174.3833928     
  -55422853.7089310     
  -55416638.6487282     
  -55411475.4021601     
  -55407311.0742135     
  -55404093.7726358     
  -55401772.8008262     
  -55400298.2698960     
  -55399621.4369755     
  -55399694.4836891     
  -55400470.7245886     
  -55401904.5498378     
  -55403951.5311484     
  -55406568.3444846     
  -55409712.8436688     
  -55413344.0376164     
  -55417422.1454079     
  -55421908.6163756     
  -55426766.1582971     
  -55431958.7757819     
  -55437451.8313166     
  -55443212.1064098     
  -55449207.8766705     
  -55455409.0053621     
  -55461787.0555479     
  -55468315.4222820     
  -55474969.4865891     
  -55481726.7925051     
  -55488567.2475517     
  -55495473.3456273     
  -55502430.4092376     
  -55509426.8453003     
  -55516454.4047387     
  -55523508.4180393     
  -55530588.0672206     
  -55537696.6406340     
  -55544840.8225449     
  -55552031.3624748     
  -55559284.8509849     
  -55566618.2836476     
  -55574041.7050197     
  -55581565.7947688     
  -55589225.4519094     
  -55596983.4971655     
  -55604904.4578802     
  -55612828.0975606     
  -55620834.1435067     
  -55628996.8816163     
  -55637753.6252020     
  -55299614.9029049     
  -55287439.5924657     
  -55276327.5225079     
  -55266236.7315581     
  -55257125.9971667     
  -55248954.2877867     
  -55241680.8977965     
  -55235265.5180554     
  -55229668.4103806     
  -55224850.3863781     
  -55220772.9283375     
  -55217398.1932977     
  -55214689.0903606     
  -55212609.3070215     
  -55211123.3794758     
  -55210196.7227270     
  -55209795.6854969     
  -55209887.5861810     
  -55210440.7626443     
  -55211424.6223063     
  -55212809.6940891     
  -55214567.6813812     
  -55216671.5223232     
  -55219095.4538058     
  -55221815.0790473     
  -55224807.4391699     
  -55228051.0880813     
  -55231526.1692196     
  -55235214.4919722     
  -55239099.6046279     
  -55243166.8595417     
  -55247403.4647760     
  -55251798.5147623     
  -55256342.9906292     
  -55261029.7236451     
  -55265853.2815727     
  -55270809.7477625     
  -55275896.6854053     
  -55281112.6401879     
  -55286455.8114765     
  -55291924.3276312     
  -55297518.1912597     
  -55303237.7162546     
  -55309073.3708903     
  -55315030.7629327     
  -55321085.6214893     
  -55327279.0267335     
  -55333605.5650407     
  -55340062.7513330     
  -55346485.0801176     
  -55144636.3735209     
  -55129826.7920980     
  -55115978.9940116     
  -55103061.8998182     
  -55091044.1125347     
  -55079894.2191852     
  -55069580.8473040     
  -55060072.7448864     
  -55051338.8350704     
  -55043348.3122842     
  -55036070.6936522     
  -55029475.8953766     
  -55023534.2837101     
  -55018216.7370425     
  -55013494.6937381     
  -55009340.2077077     
  -55005725.9955039     
  -55002625.4869835     
  -55000012.8710841     
  -54997863.1414757     
  -54996152.1415585     
  -54994856.6089019     
  -54993954.2176312     
  -54993423.6195696     
  -54993244.4834434     
  -54993397.5311082     
  -54993864.5697150     
  -54994628.5184501     
  -54995673.4281387     
  -54996984.4916778     
  -54998548.0429772     
  -55000351.5418799     
  -55002383.5424954     
  -55004633.6425813     
  -55007092.4103330     
  -55009751.2962357     
  -55012602.5437192     
  -55015639.0042540     
  -55018854.0222223     
  -55022241.6299234     
  -55025796.4463754     
  -55029512.8938746     
  -55033385.1092202     
  -55037410.3526633     
  -55041582.6369956     
  -55045905.2400961     
  -55050363.8958935     
  -55054951.8253267     
  -55059656.9983738     
  -55064525.6901895     
  -54977012.3837408     
  -54960362.4647124     
  -54944577.7282762     
  -54929634.8524135     
  -54915510.2566632     
  -54902180.1199742     
  -54889620.4719227     
  -54877807.2664823     
  -54866716.4552833     
  -54856324.0464457     
  -54846606.1709332     
  -54837539.1380019     
  -54829099.4936094     
  -54821264.0717872     
  -54814010.0462940     
  -54807314.9772096     
  -54801156.8568503     
  -54795514.1519515     
  -54790365.8444887     
  -54785691.4697251     
  -54781471.1516853     
  -54777685.6358954     
  -54774316.3194325     
  -54771345.2776399     
  -54768755.2871983     
  -54766529.8451454     
  -54764653.1833121     
  -54763110.2776069     
  -54761886.8516002     
  -54760969.3739166     
  -54760345.0490769     
  -54760001.8016691     
  -54759928.2540898     
  -54760113.6986272     
  -54760548.0661042     
  -54761221.8911628     
  -54762126.2714872     
  -54763252.8557869     
  -54764593.8310867     
  -54766141.8171816     
  -54767889.8053492     
  -54769831.3403470     
  -54771960.6454260     
  -54774271.5437428     
  -54776759.0385984     
  -54779415.5796322     
  -54782238.1828029     
  -54785223.1100615     
  -54788370.1557831     
  -54791660.6582029     
  -54799792.2719080     
  -54781892.0632610     
  -54764768.8747841     
  -54748405.2549469     
  -54732783.3924328     
  -54717885.1962371     
  -54703692.3498513     
  -54690186.3689367     
  -54677348.6562915     
  -54665160.5570192     
  -54653603.4085720     
  -54642658.5906591     
  -54632307.5713070     
  -54622531.9518805     
  -54613313.5090672     
  -54604634.2352223     
  -54596476.3759537     
  -54588822.4657513     
  -54581655.3609778     
  -54574958.2705508     
  -54568714.7841147     
  -54562908.8975963     
  -54557525.0359715     
  -54552548.0732042     
  -54547963.3491953     
  -54543756.6836111     
  -54539914.3865035     
  -54536423.2656671     
  -54533270.6307402     
  -54530444.2941321     
  -54527932.5689650     
  -54525724.2643293     
  -54523808.6782613     
  -54522175.5889279     
  -54520815.2442024     
  -54519718.3504775     
  -54518876.0630744     
  -54518279.9682582     
  -54517922.0605283     
  -54517794.7462731     
  -54517890.8486936     
  -54518203.5392525     
  -54518726.2396131     
  -54519452.8996604     
  -54520377.5557976     
  -54521495.4373151     
  -54522801.1669192     
  -54524289.8602534     
  -54525955.5126014     
  -54527798.0961935     
  -54615673.6810109     
  -54596962.8034397     
  -54578950.4892408     
  -54561623.5010060     
  -54544968.2713960     
  -54528970.9429765     
  -54513617.4144467     
  -54498893.3838627     
  -54484784.3909485     
  -54471275.8577219     
  -54458353.1285744     
  -54446001.5083763     
  -54434206.2995395     
  -54422952.8371948     
  -54412226.5229720     
  -54402012.8569499     
  -54392297.4680004     
  -54383066.1422452     
  -54374304.8497436     
  -54365999.7692467     
  -54358137.3110113     
  -54350704.1376293     
  -54343687.1828453     
  -54337073.6683172     
  -54330851.1183173     
  -54325007.3723852     
  -54319530.5959584     
  -54314409.2890346     
  -54309632.2929488     
  -54305188.7953735     
  -54301068.3336711     
  -54297260.7967397     
  -54293756.4254895     
  -54290545.8120692     
  -54287619.8980480     
  -54284969.9715486     
  -54282587.6625770     
  -54280464.9395431     
  -54278594.1076994     
  -54276967.8004081     
  -54275578.9661264     
  -54274420.8753197     
  -54273487.1500011     
  -54272771.6857913     
  -54272268.7760310     
  -54271972.7831652     
  -54271878.5638815     
  -54271981.2292059     
  -54272276.7438071     
  -54272759.7499415     
  -54426977.9890644     
  -54407787.6050598     
  -54389226.5736114     
  -54371284.7057507     
  -54353951.5145997     
  -54337216.2487853     
  -54321067.9235743     
  -54305495.3523917     
  -54290487.1778068     
  -54276031.9020261     
  -54262117.9165047     
  -54248733.5309273     
  -54235867.0011872     
  -54223506.5564913     
  -54211640.4253645     
  -54200256.8605825     
  -54189344.1629044     
  -54178890.7036081     
  -54168884.9457387     
  -54159315.4640616     
  -54150170.9636761     
  -54141440.2972703     
  -54133112.4810017     
  -54125176.7090078     
  -54117622.3665493     
  -54110439.0418065     
  -54103616.5363577     
  -54097144.8743795     
  -54091014.3106181     
  -54085215.3371848     
  -54079738.6892388     
  -54074575.3496202     
  -54069716.5525082     
  -54065153.7861839     
  -54060878.7949594     
  -54056883.5803914     
  -54053160.4022242     
  -54049701.7784504     
  -54046500.4840196     
  -54043549.5508503     
  -54040842.2698395     
  -54038372.1882468     
  -54036133.0973168     
  -54034119.0494382     
  -54032324.3166145     
  -54030743.4800711     
  -54029371.3312849     
  -54028202.9280550     
  -54027233.3791101     
  -54026458.4830108     
  -54235669.5437702     
  -54216253.0396733     
  -54197404.8676411     
  -54179117.0474241     
  -54161381.3437908     
  -54144189.2885602     
  -54127532.2033122     
  -54111401.2218362     
  -54095787.3124832     
  -54080681.3002756     
  -54066073.8887444     
  -54051955.6813198     
  -54038317.2022733     
  -54025148.9170815     
  -54012441.2521886     
  -54000184.6140817     
  -53988369.4076432     
  -53976986.0537217     
  -53966025.0058904     
  -53955476.7663558     
  -53945331.9009912     
  -53935581.0534766     
  -53926214.9585325     
  -53917224.4542392     
  -53908600.4934438     
  -53900334.1542607     
  -53892416.6496764     
  -53884839.3362778     
  -53877593.7221237     
  -53870671.4737879     
  -53864064.4226041     
  -53857764.5701469     
  -53851764.0929898     
  -53846055.3467775     
  -53840630.8696667     
  -53835483.3851777     
  -53830605.8043777     
  -53825991.2275911     
  -53821632.9459346     
  -53817524.4420609     
  -53813659.3895813     
  -53810031.6527825     
  -53806635.2892663     
  -53803464.5441323     
  -53800513.8613174     
  -53797777.8575105     
  -53795251.3414259     
  -53792929.2947613     
  -53790806.9414357     
  -53788879.5613029     
  -54043393.0010746     
  -54023947.7228003     
  -54005016.7377265     
  -53986593.6898704     
  -53968672.0071592     
  -53951244.9172640     
  -53934305.4634485     
  -53917846.5205964     
  -53901860.8112558     
  -53886340.9216437     
  -53871279.3175319     
  -53856668.3599706     
  -53842500.3207700     
  -53828767.3976970     
  -53815461.7293255     
  -53802575.4094991     
  -53790100.5013582     
  -53778029.0508968     
  -53766353.1000114     
  -53755064.6990165     
  -53744155.9185973     
  -53733618.8611828     
  -53723445.6717222     
  -53713628.5478513     
  -53704159.7494442     
  -53695031.6075431     
  -53686236.5326690     
  -53677767.0225137     
  -53669615.6690216     
  -53661775.1648690     
  -53654238.3093527     
  -53646998.0137006     
  -53640047.3058202     
  -53633379.3344989     
  -53626987.3730697     
  -53620864.8225526     
  -53615005.2143254     
  -53609402.2123075     
  -53604049.6145725     
  -53598941.3545409     
  -53594071.5020093     
  -53589434.2637217     
  -53585023.9824997     
  -53580835.1382002     
  -53576862.3429649     
  -53573100.3462149     
  -53569544.0284136     
  -53566188.4044486     
  -53563028.5979754     
  -53560059.8895803     
  -53851514.8540586     
  -53832197.2283147     
  -53813345.7163517     
  -53794955.1780911     
  -53777020.2911972     
  -53759535.5621231     
  -53742495.3374036     
  -53725893.8150741     
  -53709725.0561908     
  -53693982.9963963     
  -53678661.4574848     
  -53663754.1589140     
  -53649254.7292249     
  -53635156.7173232     
  -53621453.6035847     
  -53608138.8107469     
  -53595205.7145528     
  -53582647.6541141     
  -53570457.9419675     
  -53558629.8737963     
  -53547156.7377955     
  -53536031.8236608     
  -53525248.4311838     
  -53514799.8784391     
  -53504679.5095520     
  -53494880.7020369     
  -53485396.8737001     
  -53476221.4891016     
  -53467348.0655734     
  -53458770.1787928     
  -53450481.4679116     
  -53442475.6402418     
  -53434746.4755014     
  -53427287.8296231     
  -53420093.6381306     
  -53413157.9190907     
  -53406474.7756334     
  -53400038.3980508     
  -53393843.0655108     
  -53387883.1473688     
  -53382153.1039988     
  -53376647.4871819     
  -53371360.9403848     
  -53366288.1979915     
  -53361424.0857213     
  -53356763.5179515     
  -53352301.4971650     
  -53348033.1101073     
  -53343953.5325764     
  -53340058.0126548     
  -53661162.6667064     
  -53642098.6737446     
  -53623457.5160188     
  -53605234.9839050     
  -53587426.7133034     
  -53570028.1934949     
  -53553034.7751727     
  -53536441.6786338     
  -53520244.0020834     
  -53504436.7300191     
  -53489014.7416609     
  -53473972.8193932     
  -53459305.6571846     
  -53445007.8689565     
  -53431073.9968688     
  -53417498.5194952     
  -53404275.8598613     
  -53391400.3933200     
  -53378866.4552421     
  -53366668.3484988     
  -53354800.3507182     
  -53343256.7212965     
  -53332031.7081484     
  -53321119.5541827     
  -53310514.5034885     
  -53300210.8072232     
  -53290202.7291907     
  -53280484.5511029     
  -53271050.5775158     
  -53261895.1404367     
  -53253012.6035958     
  -53244397.3663799     
  -53236043.8674243     
  -53227946.5878619     
  -53220100.0542269     
  -53212498.8410120     
  -53205137.5728807     
  -53198010.9265350     
  -53191113.6322287     
  -53184440.4749269     
  -53177986.2951342     
  -53171745.9893963     
  -53165714.5103735     
  -53159886.8667577     
  -53154258.1223742     
  -53148823.3956267     
  -53143577.8579967     
  -53138516.7330730     
  -53133635.2924375     
  -53128928.8571051     
  -53473259.6838767     
  -53454552.1272930     
  -53436228.2455755     
  -53418284.5585843     
  -53400717.4540168     
  -53383523.1930131     
  -53366697.9159282     
  -53350237.6482415     
  -53334138.3065791     
  -53318395.7048234     
  -53303005.5602864     
  -53287963.4999206     
  -53273265.0665443     
  -53258905.7250597     
  -53244880.8686383     
  -53231185.8248560     
  -53217815.8617537     
  -53204766.1938066     
  -53192031.9877825     
  -53179608.3684708     
  -53167490.4242683     
  -53155673.2126037     
  -53144151.7651887     
  -53132921.0930811     
  -53121976.1915496     
  -53111312.0447270     
  -53100923.6300446     
  -53090805.9224358     
  -53080953.8983036     
  -53071362.5392425     
  -53062026.8355105     
  -53052941.7892428     
  -53044102.4174054     
  -53035503.7544817     
  -53027140.8548896     
  -53019008.7951256     
  -53011102.6756329     
  -53003417.6223899     
  -52995948.7882197     
  -52988691.3538205     
  -52981640.5285094     
  -52974791.5506736     
  -52968139.6879582     
  -52961680.2371089     
  -52955408.5236608     
  -52949319.9011666     
  -52943409.7502804     
  -52937673.4772760     
  -52932106.5131167     
  -52926704.3106145     
  -53288554.4401485     
  -53270288.0255351     
  -53252369.6204753     
  -53234796.3316859     
  -53217565.1513068     
  -53200672.9609517     
  -53184116.5358927     
  -53167892.5493666     
  -53151997.5769796     
  -53136428.1011960     
  -53121180.5158907     
  -53106251.1309490     
  -53091636.1768957     
  -53077331.8095372     
  -53063334.1145981     
  -53049639.1123389     
  -53036242.7621365     
  -53023140.9670144     
  -53010329.5781062     
  -52997804.3990409     
  -52985561.1902344     
  -52973595.6730765     
  -52961903.5340006     
  -52950480.4284255     
  -52939321.9845584     
  -52928423.8070499     
  -52917781.4804913     
  -52907390.5727472     
  -52897246.6381132     
  -52887345.2202945     
  -52877681.8551970     
  -52868252.0735256     
  -52859051.4031841     
  -52850075.3714729     
  -52841319.5070790     
  -52832779.3418545     
  -52824450.4123819     
  -52816328.2613218     
  -52808408.4385408     
  -52800686.5020166     
  -52793158.0185208     
  -52785818.5640777     
  -52778663.7241931     
  -52771689.0938723     
  -52764890.2773766     
  -52758262.8877939     
  -52751802.5463476     
  -52745504.8815683     
  -52739365.5279941     
  -52733380.1250899     
  -53107645.7654840     
  -53089890.6797201     
  -53072450.9454183     
  -53055324.1537666     
  -53038507.7950613     
  -53021999.2616792     
  -53005795.8511589     
  -52989894.7693824     
  -52974293.1338404     
  -52958987.9769701     
  -52943976.2495524     
  -52929254.8241549     
  -52914820.4986081     
  -52900669.9995030     
  -52886799.9856964     
  -52873207.0518126     
  -52859887.7317295     
  -52846838.5020373     
  -52834055.7854593     
  -52821535.9542232     
  -52809275.3333728     
  -52797270.2040109     
  -52785516.8064624     
  -52774011.3433504     
  -52762749.9825752     
  -52751728.8601885     
  -52740944.0831560     
  -52730391.7320006     
  -52720067.8633185     
  -52709968.5121644     
  -52700089.6942976     
  -52690427.4082862     
  -52680977.6374616     
  -52671736.3517216     
  -52662699.5091771     
  -52653863.0576384     
  -52645222.9359390     
  -52636775.0750937     
  -52628515.3992882     
  -52620439.8266996     
  -52612544.2701463     
  -52604824.6375635     
  -52597276.8323086     
  -52589896.7532882     
  -52582680.2949209     
  -52575623.3469184     
  -52568721.7939043     
  -52561971.5148351     
  -52555368.3823243     
  -52548908.2616813     
  -52931003.8079824     
  -52913818.2723012     
  -52896918.0599360     
  -52880301.1718154     
  -52863965.5185195     
  -52847908.9225130     
  -52832129.1204673     
  -52816623.7656605     
  -52801390.4304469     
  -52786426.6087864     
  -52771729.7188243     
  -52757297.1055114     
  -52743126.0432570     
  -52729213.7386028     
  -52715557.3329109     
  -52702153.9050552     
  -52689000.4741084     
  -52676094.0020150     
  -52663431.3962431     
  -52651009.5124048     
  -52638825.1568393     
  -52626875.0891498     
  -52615156.0246868     
  -52603664.6369712     
  -52592397.5600502     
  -52581351.3907792     
  -52570522.6910240     
  -52559907.9897775     
  -52549503.7851854     
  -52539306.5464751     
  -52529312.7157849     
  -52519518.7098869     
  -52509920.9218014     
  -52500515.7222983     
  -52491299.4612820     
  -52482268.4690580     
  -52473419.0574772     
  -52464747.5209572     
  -52456250.1373774     
  -52447923.1688474     
  -52439762.8623477     
  -52431765.4502408     
  -52423927.1506538     
  -52416244.1677325     
  -52408712.6917648     
  -52401328.8991788     
  -52394088.9524108     
  -52386988.9996574     
  -52380025.1744840     
  -52373193.5953441     
  -52758987.6966066     
  -52742419.8198968     
  -52726109.5792473     
  -52710055.3294014     
  -52694255.3428247     
  -52678707.8114439     
  -52663410.8484519     
  -52648362.4901744     
  -52633560.6979909     
  -52619003.3603024     
  -52604688.2945413     
  -52590613.2492139     
  -52576775.9059711     
  -52563173.8816983     
  -52549804.7306204     
  -52536665.9464120     
  -52523754.9643099     
  -52511069.1632178     
  -52498605.8677992     
  -52486362.3505525     
  -52474335.8338597     
  -52462523.4920060     
  -52450922.4531630     
  -52439529.8013298     
  -52428342.5782275     
  -52417357.7851424     
  -52406572.3847116     
  -52395983.3026488     
  -52385587.4294039     
  -52375381.6217533     
  -52365362.7043184     
  -52355527.4710059     
  -52345872.6863705     
  -52336395.0868941     
  -52327091.3821801     
  -52317958.2560617     
  -52308992.3676195     
  -52300190.3521100     
  -52291548.8218012     
  -52283064.3667151     
  -52274733.5552773     
  -52266552.9348712     
  -52258519.0323000     
  -52250628.3541525     
  -52242877.3870775     
  -52235262.5979652     
  -52227780.4340379     
  -52220427.3228493     
  -52213199.6722018     
  -52206093.8699702     
  -52591860.3990358     
  -52575949.5588248     
  -52560270.7881657     
  -52544822.7522552     
  -52529604.0401910     
  -52514613.1663852     
  -52499848.5720258     
  -52485308.6265861     
  -52470991.6293737     
  -52456895.8111159     
  -52443019.3355768     
  -52429360.3012012     
  -52415916.7427790     
  -52402686.6331281     
  -52389667.8847879     
  -52376858.3517205     
  -52364255.8310140     
  -52351858.0645837     
  -52339662.7408659     
  -52327667.4965000     
  -52315869.9179949     
  -52304267.5433750     
  -52292857.8638007     
  -52281638.3251616     
  -52270606.3296358     
  -52259759.2372135     
  -52249094.3671811     
  -52238608.9995607     
  -52228300.3765049     
  -52218165.7036404     
  -52208202.1513608     
  -52198406.8560633     
  -52188776.9213299     
  -52179309.4190475     
  -52170001.3904682     
  -52160849.8472068     
  -52151851.7721731     
  -52143004.1204401     
  -52134303.8200456     
  -52125747.7727267     
  -52117332.8545875     
  -52109055.9166995     
  -52100913.7856345     
  -52092903.2639315     
  -52085021.1304966     
  -52077264.1409392     
  -52069629.0278429     
  -52062112.5009761     
  -52054711.2474399     
  -52047421.9317604     
  -52429801.2498351     
  -52414579.1600290     
  -52399565.5264565     
  -52384759.2896054     
  -52370159.3186361     
  -52355764.4125876     
  -52341573.3016173     
  -52327584.6482751     
  -52313797.0488063     
  -52300209.0344808     
  -52286819.0729454     
  -52273625.5695952     
  -52260626.8689617     
  -52247821.2561133     
  -52235206.9580649     
  -52222782.1451941     
  -52210544.9326586     
  -52198493.3818139     
  -52186625.5016258     
  -52174939.2500757     
  -52163432.5355553     
  -52152103.2182469     
  -52140949.1114868     
  -52129967.9831093     
  -52119157.5567671     
  -52108515.5132267     
  -52098039.4916360     
  -52087727.0907602     
  -52077575.8701861     
  -52067583.3514905     
  -52057747.0193721     
  -52048064.3227438     
  -52038532.6757852     
  -52029149.4589524     
  -52019912.0199448     
  -52010817.6746268     
  -52001863.7079052     
  -51993047.3745588     
  -51984365.9000228     
  -51975816.4811248     
  -51967396.2867747     
  -51959102.4586066     
  -51950932.1115746     
  -51942882.3345015     
  -51934950.1905828     
  -51927132.7178452     
  -51919426.9295623     
  -51911829.8146281     
  -51904338.3378894     
  -51896949.4404407     
  -52272916.5500106     
  -52258408.1260587     
  -52244086.3696640     
  -52229950.4666317     
  -52215999.5352066     
  -52202232.6271503     
  -52188648.7288422     
  -52175246.7624021     
  -52162025.5868337     
  -52148983.9991846     
  -52136120.7357232     
  -52123434.4731279     
  -52110923.8296877     
  -52098587.3665117     
  -52086423.5887442     
  -52074430.9467847     
  -52062607.8375087     
  -52050952.6054880     
  -52039463.5442079     
  -52028138.8972792     
  -52016976.8596421     
  -52005975.5787605     
  -51995133.1558044     
  -51984447.6468179     
  -51973917.0638711     
  -51963539.3761946     
  -51953312.5112930     
  -51943234.3560381     
  -51933302.7577375     
  -51923515.5251800     
  -51913870.4296533     
  -51904365.2059357     
  -51894997.5532580     
  -51885765.1362367     
  -51876665.5857765     
  -51867696.4999412     
  -51858855.4447939     
  -51850139.9552037     
  -51841547.5356206     
  -51833075.6608182     
  -51824721.7766033     
  -51816483.3004928     
  -51808357.6223600     
  -51800342.1050478     
  -51792434.0849526     
  -51784630.8725774     
  -51776929.7530567     
  -51769327.9866536     
  -51761822.8092305     
  -51754411.4326956     
  -52121248.5742245     
  -52107472.6714694     
  -52093863.3715820     
  -52080420.0788864     
  -52067142.1332332     
  -52054028.8109993     
  -52041079.3261031     
  -52028292.8310319     
  -52015668.4178822     
  -52003205.1194116     
  -51990901.9100981     
  -51978757.7072103     
  -51966771.3718813     
  -51954941.7101900     
  -51943267.4742439     
  -51931747.3632653     
  -51920380.0246771     
  -51909164.0551872     
  -51898098.0018705     
  -51887180.3632464     
  -51876409.5903502     
  -51865784.0877971     
  -51855302.2148378     
  -51844962.2864033     
  -51834762.5741381     
  -51824701.3074206     
  -51814776.6743695     
  -51804986.8228341     
  -51795329.8613693     
  -51785803.8601919     
  -51776406.8521193     
  -51767136.8334885     
  -51757991.7650558     
  -51748969.5728747     
  -51740068.1491538     
  -51731285.3530926     
  -51722619.0116953     
  -51714066.9205625     
  -51705626.8446610     
  -51697296.5190712     
  -51689073.6497123     
  -51680955.9140461     
  -51672940.9617594     
  -51665026.4154252     
  -51657209.8711444     
  -51649488.8991675     
  -51641861.0444982     
  -51634323.8274793     
  -51626874.7443626     
  -51619511.2678640     
  -51974783.2658025     
  -51961753.3413947     
  -51948871.5974639     
  -51936137.6319404     
  -51923550.9809441     
  -51911111.1197381     
  -51898817.4636898     
  -51886669.3692384     
  -51874666.1348692     
  -51862807.0020932     
  -51851091.1564308     
  -51839517.7284006     
  -51828085.7945092     
  -51816794.3782445     
  -51805642.4510692     
  -51794628.9334144     
  -51783752.6956723     
  -51773012.5591865     
  -51762407.2972398     
  -51751935.6360376     
  -51741596.2556863     
  -51731387.7911661     
  -51721308.8332962     
  -51711357.9296924     
  -51701533.5857165     
  -51691834.2654155     
  -51682258.3924505     
  -51672804.3510144     
  -51663470.4867386     
  -51654255.1075858     
  -51645156.4847311     
  -51636172.8534287     
  -51627302.4138648     
  -51618543.3319967     
  -51609893.7403762     
  -51601351.7389590     
  -51592915.3958987     
  -51584582.7483259     
  -51576351.8031124     
  -51568220.5376199     
  -51560186.9004349     
  -51552248.8120886     
  -51544404.1657632     
  -51536650.8279845     
  -51528986.6393019     
  -51521409.4149558     
  -51513916.9455339     
  -51506506.9976169     
  -51499177.3144143     
  -51491925.6163923     
  -51833456.8509558     
  -51821181.5813284     
  -51809037.6423556     
  -51797024.8017776     
  -51785142.7679599     
  -51773391.1908168     
  -51761769.6627368     
  -51750277.7195103     
  -51738914.8412587     
  -51727680.4533652     
  -51716573.9274061     
  -51705594.5820832     
  -51694741.6841554     
  -51684014.4493697     
  -51673412.0433927     
  -51662933.5827376     
  -51652578.1356917     
  -51642344.7232393     
  -51632232.3199825     
  -51622239.8550558     
  -51612366.2130390     
  -51602610.2348626     
  -51592970.7187078     
  -51583446.4209015     
  -51574036.0568025     
  -51564738.3016817     
  -51555551.7915941     
  -51546475.1242418     
  -51537506.8598297     
  -51528645.5219104     
  -51519889.5982214     
  -51511237.5415114     
  -51502687.7703568     
  -51494238.6699693     
  -51485888.5929915     
  -51477635.8602838     
  -51469478.7617001     
  -51461415.5568536     
  -51453444.4758727     
  -51445563.7201466     
  -51437771.4630613     
  -51430065.8507266     
  -51422445.0026938     
  -51414907.0126652     
  -51407449.9491945     
  -51400071.8563815     
  -51392770.7545589     
  -51385544.6409729     
  -51378391.4904588     
  -51371309.2561125     
  -51697161.5615021     
  -51685645.4342772     
  -51674245.2973222     
  -51662961.0651011     
  -51651792.5950562     
  -51640739.6885089     
  -51629802.0915577     
  -51618979.4959755     
  -51608271.5401044     
  -51597677.8097505     
  -51587197.8390747     
  -51576831.1114835     
  -51566577.0605167     
  -51556435.0707323     
  -51546404.4785896     
  -51536484.5733285     
  -51526674.5978464     
  -51516973.7495705     
  -51507381.1813272     
  -51497896.0022066     
  -51488517.2784229     
  -51479244.0341696     
  -51470075.2524701     
  -51461009.8760221     
  -51452046.8080373     
  -51443184.9130739     
  -51434423.0178641     
  -51425759.9121340     
  -51417194.3494180     
  -51408725.0478651     
  -51400350.6910393     
  -51392069.9287122     
  -51383881.3776489     
  -51375783.6223861     
  -51367775.2160038     
  -51359854.6808890     
  -51352020.5094928     
  -51344271.1650802     
  -51336605.0824732     
  -51329020.6687874     
  -51321516.3041621     
  -51314090.3424838     
  -51306741.1121053     
  -51299466.9165583     
  -51292266.0352608     
  -51285136.7242217     
  -51278077.2167401     
  -51271085.7241014     
  -51264160.4362714     
  -51257299.5225880     
  -51565750.6192535     
  -51554994.5093192     
  -51544340.4982132     
  -51533788.6245845     
  -51523338.8724355     
  -51512991.1719987     
  -51502745.4006103     
  -51492601.3835793     
  -51482558.8950529     
  -51472617.6588785     
  -51462777.3494621     
  -51453037.5926224     
  -51443397.9664419     
  -51433858.0021138     
  -51424417.1847855     
  -51415074.9543975     
  -51405830.7065191     
  -51396683.7931793     
  -51387633.5236938     
  -51378679.1654875     
  -51369819.9449125     
  -51361055.0480617     
  -51352383.6215771     
  -51343804.7734536     
  -51335317.5738382     
  -51326921.0558228     
  -51318614.2162335     
  -51310396.0164131     
  -51302265.3829991     
  -51294221.2086964     
  -51286262.3530438     
  -51278387.6431759     
  -51270595.8745791     
  -51262885.8118424     
  -51255256.1894030     
  -51247705.7122867     
  -51240233.0568424     
  -51232836.8714733     
  -51225515.7773619     
  -51218268.3691911     
  -51211093.2158608     
  -51203988.8612004     
  -51196953.8246784     
  -51189986.6021073     
  -51183085.6663463     
  -51176249.4680015     
  -51169476.4361234     
  -51162764.9789027     
  -51156113.4843659     
  -51149520.3210685     
  -51439042.6047617     
  -51429044.3381371     
  -51419135.6671683     
  -51409316.7326940     
  -51399587.6233711     
  -51389948.3765249     
  -51380398.9789954     
  -51370939.3679774     
  -51361569.4318560     
  -51352289.0110367     
  -51343097.8987707     
  -51333995.8419764     
  -51324982.5420545     
  -51316057.6557003     
  -51307220.7957104     
  -51298471.5317846     
  -51289809.3913246     
  -51281233.8602269     
  -51272744.3836715     
  -51264340.3669068     
  -51256021.1760292     
  -51247786.1387583     
  -51239634.5452079     
  -51231565.6486521     
  -51223578.6662872     
  -51215672.7799886     
  -51207847.1370635     
  -51200100.8509991     
  -51192433.0022059     
  -51184842.6387571     
  -51177328.7771227     
  -51169890.4029006     
  -51162526.4715416     
  -51155235.9090722     
  -51148017.6128114     
  -51140870.4520852     
  -51133793.2689360     
  -51126784.8788289     
  -51119844.0713549     
  -51112969.6109297     
  -51106160.2374910     
  -51099414.6671913     
  -51092731.5930897     
  -51086109.6858404     
  -51079547.5943799     
  -51073043.9466117     
  -51066597.3500911     
  -51060206.3927076     
  -51053869.6433680     
  -51047585.6526782     
  -51316825.3078533     
  -51307580.2130854     
  -51298413.5363276     
  -51289325.4992421     
  -51280316.2739058     
  -51271385.9836301     
  -51262534.7037750     
  -51253762.4625572     
  -51245069.2418516     
  -51236454.9779887     
  -51227919.5625447     
  -51219462.8431281     
  -51211084.6241595     
  -51202784.6676477     
  -51194562.6939597     
  -51186418.3825871     
  -51178351.3729062     
  -51170361.2649349     
  -51162447.6200840     
  -51154609.9619043     
  -51146847.7768291     
  -51139160.5149127     
  -51131547.5905636     
  -51124008.3832746     
  -51116542.2383475     
  -51109148.4676143     
  -51101826.3501542     
  -51094575.1330061     
  -51087394.0318782     
  -51080282.2318518     
  -51073238.8880836     
  -51066263.1265024     
  -51059354.0445030     
  -51052510.7116371     
  -51045732.1702996     
  -51039017.4364127     
  -51032365.5001065     
  -51025775.3263967     
  -51019245.8558601     
  -51012776.0053061     
  -51006364.6684481     
  -51000010.7165705     
  -50993712.9991951     
  -50987470.3447456     
  -50981281.5612105     
  -50975145.4368050     
  -50969060.7406317     
  -50963026.2233410     
  -50957040.6177912     
  -50951102.6397084     
  -51198859.1369165     
  -51190360.5815129     
  -51181930.5260234     
  -51173569.2523276     
  -51165276.9954712     
  -51157053.9444488     
  -51148900.2429815     
  -51140815.9902875     
  -51132801.2418472     
  -51124856.0101622     
  -51116980.2655088     
  -51109173.9366856     
  -51101436.9117561     
  -51093769.0387862     
  -51086170.1265764     
  -51078639.9453889     
  -51071178.2276705     
  -51063784.6687698     
  -51056458.9276507     
  -51049200.6276010     
  -51042009.3569367     
  -51034884.6697017     
  -51027826.0863637     
  -51020833.0945057     
  -51013905.1495136     
  -51007041.6752601     
  -51000242.0647835     
  -50993505.6809651     
  -50986831.8572009     
  -50980219.8980702     
  -50973669.0800017     
  -50967178.6519354     
  -50960747.8359812     
  -50954375.8280754     
  -50948061.7986332     
  -50941804.8931993     
  -50935604.2330946     
  -50929458.9160623     
  -50923368.0169097     
  -50917330.5881489     
  -50911345.6606356     
  -50905412.2442054     
  -50899529.3283089     
  -50893695.8826453     
  -50887910.8577950     
  -50882173.1858502     
  -50876481.7810462     
  -50870835.5403908     
  -50865233.3442941     
  -50859674.0571977     
  -51084880.1476707     
  -51077120.0559882     
  -51069419.7358409     
  -51061779.5096271     
  -51054199.6558237     
  -51046680.4097275     
  -51039221.9641908     
  -51031824.4703500     
  -51024488.0383495     
  -51017212.7380590     
  -51009998.5997853     
  -51002845.6149789     
  -50995753.7369356     
  -50988722.8814920     
  -50981752.9277173     
  -50974843.7185991     
  -50967995.0617252     
  -50961206.7299602     
  -50954478.4621185     
  -50947809.9636316     
  -50941200.9072127     
  -50934650.9335157     
  -50928159.6517911     
  -50921726.6405374     
  -50915351.4481493     
  -50909033.5935615     
  -50902772.5668891     
  -50896567.8300649     
  -50890418.8174725     
  -50884324.9365771     
  -50878285.5685523     
  -50872300.0689040     
  -50866367.7680918     
  -50860487.9721471     
  -50854659.9632890     
  -50848883.0005369     
  -50843156.3203211     
  -50837479.1370916     
  -50831850.6439239     
  -50826270.0131230     
  -50820736.3968260     
  -50815248.9276024     
  -50809806.7190532     
  -50804408.8664085     
  -50799054.4471238     
  -50793742.5214753     
  -50788472.1331543     
  -50783242.3098609     
  -50778052.0638969     
  -50772900.3927585     
  -50974602.7396211     
  -50967572.0883242     
  -50960593.5959902     
  -50953667.6068851     
  -50946794.4244248     
  -50939974.3118698     
  -50933207.4930145     
  -50926494.1528701     
  -50919834.4383419     
  -50913228.4589020     
  -50906676.2872554     
  -50900177.9600020     
  -50893733.4782934     
  -50887342.8084843     
  -50881005.8827796     
  -50874722.5998764     
  -50868492.8256022     
  -50862316.3935480     
  -50856193.1056974     
  -50850122.7330511     
  -50844105.0162486     
  -50838139.6661838     
  -50832226.3646190     
  -50826364.7647936     
  -50820554.4920298     
  -50814795.1443345     
  -50809086.2929981     
  -50803427.4831897     
  -50797818.2345492     
  -50792258.0417762     
  -50786746.3752160     
  -50781282.6814425     
  -50775866.3838389     
  -50770496.8831749     
  -50765173.5581820     
  -50759895.7661260     
  -50754662.8433774     
  -50749474.1059796     
  -50744328.8502146     
  -50739226.3531673     
  -50734165.8732880     
  -50729146.6509523     
  -50724167.9090203     
  -50719228.8533944     
  -50714328.6735750     
  -50709466.5432156     
  -50704641.6206767     
  -50699853.0495785     
  -50695099.9593533     
  -50690381.4657968     
  -50867722.0589796     
  -50861411.3463737     
  -50855146.2180281     
  -50848927.0225967     
  -50842754.0711042     
  -50836627.6375907     
  -50830547.9597501     
  -50824515.2395633     
  -50818529.6439269     
  -50812591.3052759     
  -50806700.3222026     
  -50800856.7600695     
  -50795060.6516185     
  -50789311.9975751     
  -50783610.7672482     
  -50777956.8991252     
  -50772350.3014638     
  -50766790.8528782     
  -50761278.4029231     
  -50755812.7726715     
  -50750393.7552909     
  -50745021.1166143     
  -50739694.5957077     
  -50734413.9054350     
  -50729178.7330182     
  -50723988.7405951     
  -50718843.5657733     
  -50713742.8221815     
  -50708686.1000172     
  -50703672.9665920     
  -50698702.9668732     
  -50693775.6240237     
  -50688890.4399387     
  -50684046.8957794     
  -50679244.4525051     
  -50674482.5514025     
  -50669760.6146125     
  -50665078.0456553     
  -50660434.2299533     
  -50655828.5353516     
  -50651260.3126375     
  -50646728.8960576     
  -50642233.6038332     
  -50637773.7386744     
  -50633348.5882932     
  -50628957.4259139     
  -50624599.5107839     
  -50620274.0886819     
  -50615980.3924262     
  -50611717.6423813     
  -50763916.1399886     
  -50758315.8260077     
  -50752755.4777158     
  -50747235.4319476     
  -50741755.9912670     
  -50736317.4245567     
  -50730919.9676047     
  -50725563.8236841     
  -50720249.1641293     
  -50714976.1289080     
  -50709744.8271875     
  -50704555.3378981     
  -50699407.7102906     
  -50694301.9644915     
  -50689238.0920518     
  -50684216.0564938     
  -50679235.7938532     
  -50674297.2132165     
  -50669400.1972564     
  -50664544.6027619     
  -50659730.2611653     
  -50654956.9790665     
  -50650224.5387523     
  -50645532.6987143     
  -50640881.1941613     
  -50636269.7375308     
  -50631698.0189958     
  -50627165.7069693     
  -50622672.4486055     
  -50618217.8702988     
  -50613801.5781797     
  -50609423.1586077     
  -50605082.1786621     
  -50600778.1866304     
  -50596510.7124939     
  -50592279.2684112     
  -50588083.3491997     
  -50583922.4328141     
  -50579795.9808245     
  -50575703.4388904     
  -50571644.2372347     
  -50567617.7911148     
  -50563623.5012924     
  -50559660.7545011     
  -50555728.9239136     
  -50551827.3696061     
  -50547955.4390223     
  -50544112.4674352     
  -50540297.7784084     
  -50536510.6842557     
  -50662847.8117973     
  -50657948.7260334     
  -50653084.8583003     
  -50648256.5187574     
  -50643463.9867732     
  -50638707.5114602     
  -50633987.3122048     
  -50629303.5791927     
  -50624656.4739313     
  -50620046.1297665     
  -50615472.6523969     
  -50610936.1203831     
  -50606436.5856531     
  -50601974.0740047     
  -50597548.5856029     
  -50593160.0954751     
  -50588808.5540012     
  -50584493.8874011     
  -50580215.9982181     
  -50575974.7657994     
  -50571770.0467734     
  -50567601.6755226     
  -50563469.4646548     
  -50559373.2054698     
  -50555312.6684243     
  -50551287.6035927     
  -50547297.7411261     
  -50543342.7917073     
  -50539422.4470035     
  -50535536.3801174     
  -50531684.2460335     
  -50527865.6820640     
  -50524080.3082906     
  -50520327.7280051     
  -50516607.5281469     
  -50512919.2797389     
  -50509262.5383199     
  -50505636.8443770     
  -50502041.7237741     
  -50498476.6881793     
  -50494941.2354899     
  -50491434.8502564     
  -50487957.0041036     
  -50484507.1561513     
  -50481084.7534317     
  -50477689.2313069     
  -50474320.0138838     
  -50470976.5144278     
  -50467658.1357754     
  -50464364.2707445     
  -50564166.3948840     
  -50559960.1106733     
  -50555785.0794120     
  -50551641.5711324     
  -50547529.8286656     
  -50543450.0681181     
  -50539402.4793452     
  -50535387.2264201     
  -50531404.4480999     
  -50527454.2582875     
  -50523536.7464902     
  -50519651.9782743     
  -50515799.9957165     
  -50511980.8178517     
  -50508194.4411177     
  -50504440.8397954     
  -50500719.9664478     
  -50497031.7523532     
  -50493376.1079370     
  -50489752.9231997     
  -50486162.0681417     
  -50482603.3931856     
  -50479076.7295948     
  -50475581.8898892     
  -50472118.6682594     
  -50468686.8409760     
  -50465286.1667978     
  -50461916.3873767     
  -50458577.2276596     
  -50455268.3962889     
  -50451989.5859994     
  -50448740.4740129     
  -50445520.7224312     
  -50442329.9786261     
  -50439167.8756271     
  -50436034.0325076     
  -50432928.0547679     
  -50429849.5347177     
  -50426798.0518545     
  -50423773.1732421     
  -50420774.4538855     
  -50417801.4371056     
  -50414853.6549105     
  -50411930.6283661     
  -50409031.8679645     
  -50406156.8739915     
  -50403305.1368911     
  -50400476.1376300     
  -50397669.3480597     
  -50394884.2312771     
  -50467509.2090760     
  -50463988.3822481     
  -50460495.5347651     
  -50457030.8845227     
  -50453594.6259001     
  -50450186.9301792     
  -50446807.9459595     
  -50443457.7995705     
  -50440136.5954801     
  -50436844.4167002     
  -50433581.3251887     
  -50430347.3622484     
  -50427142.5489228     
  -50423966.8863883     
  -50420820.3563442     
  -50417702.9213979     
  -50414614.5254495     
  -50411555.0940709     
  -50408524.5348840     
  -50405522.7379339     
  -50402549.5760619     
  -50399604.9052727     
  -50396688.5651010     
  -50393800.3789750     
  -50390940.1545762     
  -50388107.6841975     
  -50385302.7450987     
  -50382525.0998591     
  -50379774.4967278     
  -50377050.6699719     
  -50374353.3402215     
  -50371682.2148132     
  -50369036.9881314     
  -50366417.3419463     
  -50363822.9457511     
  -50361253.4570961     
  -50358708.5219215     
  -50356187.7748874     
  -50353690.8397027     
  -50351217.3294507     
  -50348766.8469152     
  -50346338.9849019     
  -50343933.3265605     
  -50341549.4457033     
  -50339186.9071231     
  -50336845.2669093     
  -50334524.0727620     
  -50332222.8643049     
  -50329941.1733963     
  -50327678.5244390     
  -50372502.9142148     
  -50369661.5856070     
  -50366845.5606782     
  -50364054.9946390     
  -50361290.0229544     
  -50358550.7617038     
  -50355837.3079382     
  -50353149.7400339     
  -50350488.1180436     
  -50347852.4840441     
  -50345242.8624819     
  -50342659.2605148     
  -50340101.6683512     
  -50337570.0595858     
  -50335064.3915339     
  -50332584.6055611     
  -50330130.6274110     
  -50327702.3675307     
  -50325299.7213924     
  -50322922.5698129     
  -50320570.7792706     
  -50318244.2022198     
  -50315942.6774016     
  -50313666.0301538     
  -50311414.0727168     
  -50309186.6045380     
  -50306983.4125733     
  -50304804.2715865     
  -50302648.9444463     
  -50300517.1824208     
  -50298408.7254703     
  -50296323.3025370     
  -50294260.6318339     
  -50292220.4211299     
  -50290202.3680347     
  -50288206.1602798     
  -50286231.4759994     
  -50284277.9840073     
  -50282345.3440743     
  -50280433.2072014     
  -50278541.2158930     
  -50276669.0044271     
  -50274816.1991247     
  -50272982.4186167     
  -50271167.2741097     
  -50269370.3696499     
  -50267591.3023854     
  -50265829.6628275     
  -50264085.0351091     
  -50262356.9972431     
  -50278764.7041515     
  -50276598.5653810     
  -50274455.5568564     
  -50272335.7620279     
  -50270239.2484483     
  -50268166.0680730     
  -50266116.2575593     
  -50264089.8385615     
  -50262086.8180240     
  -50260107.1884710     
  -50258150.9282940     
  -50256218.0020363     
  -50254308.3606749     
  -50252421.9418993     
  -50250558.6703885     
  -50248718.4580844     
  -50246901.2044630     
  -50245106.7968034     
  -50243335.1104534     
  -50241586.0090936     
  -50239859.3449976     
  -50238154.9592916     
  -50236472.6822099     
  -50234812.3333490     
  -50233173.7219191     
  -50231556.6469932     
  -50229960.8977538     
  -50228386.2537381     
  -50226832.4850800     
  -50225299.3527505     
  -50223786.6087966     
  -50222293.9965763     
  -50220821.2509940     
  -50219368.0987316     
  -50217934.2584795     
  -50216519.4411643     
  -50215123.3501759     
  -50213745.6815911     
  -50212386.1243976     
  -50211044.3607140     
  -50209720.0660095     
  -50208412.9093214     
  -50207122.5534716     
  -50205848.6552798     
  -50204590.8657773     
  -50203348.8304177     
  -50202122.1892862     
  -50200910.5773084     
  -50199713.6244564     
  -50198530.9559540     
  -50185903.3748486     
  -50184409.9971035     
  -50182937.9807469     
  -50181487.3298705     
  -50180058.0365869     
  -50178650.0812717     
  -50177263.4328025     
  -50175898.0487962     
  -50174553.8758434     
  -50173230.8497397     
  -50171928.8957150     
  -50170647.9286595     
  -50169387.8533487     
  -50168148.5646636     
  -50166929.9478104     
  -50165731.8785361     
  -50164554.2233435     
  -50163396.8397019     
  -50162259.5762565     
  -50161142.2730351     
  -50160044.7616527     
  -50158966.8655133     
  -50157908.4000102     
  -50156869.1727232     
  -50155848.9836144     
  -50154847.6252212     
  -50153864.8828474     
  -50152900.5347529     
  -50151954.3523396     
  -50151026.1003377     
  -50150115.5369876     
  -50149222.4142216     
  -50148346.4778430     
  -50147487.4677033     
  -50146645.1178775     
  -50145819.1568385     
  -50145009.3076279     
  -50144215.2880274     
  -50143436.8107266     
  -50142673.5834898     
  -50141925.3093216     
  -50141191.6866302     
  -50140472.4093899     
  -50139767.1673012     
  -50139075.6459501     
  -50138397.5269658     
  -50137732.4881765     
  -50137080.2037642     
  -50136440.3444185     
  -50135812.5774879     
  -50093520.2877482     
  -50092699.3135152     
  -50091898.2369338     
  -50091116.9766183     
  -50090355.4431899     
  -50089613.5394590     
  -50088891.1606058     
  -50088188.1943581     
  -50087504.5211669     
  -50086840.0143788     
  -50086194.5404067     
  -50085567.9588973     
  -50084960.1228969     
  -50084370.8790141     
  -50083800.0675806     
  -50083247.5228093     
  -50082713.0729504     
  -50082196.5404449     
  -50081697.7420761     
  -50081216.4891186     
  -50080752.5874855     
  -50080305.8378725     
  -50079876.0359016     
  -50079462.9722608     
  -50079066.4328427     
  -50078686.1988812     
  -50078322.0470859     
  -50077973.7497747     
  -50077641.0750038     
  -50077323.7866975     
  -50077021.6447739     
  -50076734.4052708     
  -50076461.8204685     
  -50076203.6390118     
  -50075959.6060291     
  -50075729.4632513     
  -50075512.9491282     
  -50075309.7989430     
  -50075119.7449261     
  -50074942.5163668     
  -50074777.8397236     
  -50074625.4387332     
  -50074485.0345176     
  -50074356.3456907     
  -50074239.0884622     
  -50074132.9767416     
  -50074037.7222399     
  -50073953.0345699     
  -50073878.6213464     
  -50073814.1882838     
  -50001210.2501199     
  -50001063.5478111     
  -50000935.4833819     
  -50000825.8853347     
  -50000734.5782291     
  -50000661.3828057     
  -50000606.1161061     
  -50000568.5915923     
  -50000548.6192619     
  -50000546.0057613     
  -50000560.5544977     
  -50000592.0657462     
  -50000640.3367574     
  -50000705.1618605     
  -50000786.3325649     
  -50000883.6376604     
  -50000996.8633129     
  -50001125.7931608     
  -50001270.2084066     
  -50001429.8879085     
  -50001604.6082682     
  -50001794.1439178     
  -50001998.2672044     
  -50002216.7484725     
  -50002449.3561447     
  -50002695.8568003     
  -50002956.0152523     
  -50003229.5946223     
  -50003516.3564140     
  -50003816.0605842     
  -50004128.4656132     
  -50004453.3285727     
  -50004790.4051920     
  -50005139.4499232     
  -50005500.2160044     
  -50005872.4555214     
  -50006255.9194683     
  -50006650.3578057     
  -50007055.5195188     
  -50007471.1526727     
  -50007897.0044678     
  -50008332.8212922     
  -50008778.3487747     
  -50009233.3318345     
  -50009697.5147317     
  -50010170.6411146     
  -50010652.4540679     
  -50011142.6961576     
  -50011641.1094766     
  -50012147.4356883     
  -49908562.3347327     
  -49909094.1161257     
  -49909643.3767866     
  -49910209.8519634     
  -49910793.2770772     
  -49911393.3877848     
  -49912009.9200391     
  -49912642.6101479     
  -49913291.1948287     
  -49913955.4112624     
  -49914634.9971442     
  -49915329.6907318     
  -49916039.2308917     
  -49916763.3571432     
  -49917501.8096999     
  -49918254.3295099     
  -49919020.6582922     
  -49919800.5385729     
  -49920593.7137179     
  -49921399.9279646     
  -49922218.9264507     
  -49923050.4552422     
  -49923894.2613580     
  -49924750.0927942     
  -49925617.6985461     
  -49926496.8286271     
  -49927387.2340885     
  -49928288.6670350     
  -49929200.8806402     
  -49930123.6291596     
  -49931056.6679431     
  -49931999.7534444     
  -49932952.6432304     
  -49933915.0959881     
  -49934886.8715308     
  -49935867.7308023     
  -49936857.4358805     
  -49937855.7499786     
  -49938862.4374460     
  -49939877.2637680     
  -49940899.9955631     
  -49941930.4005805     
  -49942968.2476957     
  -49944013.3069053     
  -49945065.3493205     
  -49946124.1471593     
  -49947189.4737389     
  -49948261.1034654     
  -49949338.8118239     
  -49950422.3753669     
  -49815160.6618411     
  -49816377.5621245     
  -49817610.7797830     
  -49818859.9551784     
  -49820124.7330249     
  -49821404.7623910     
  -49822699.6966994     
  -49824009.1937233     
  -49825332.9155809     
  -49826670.5287274     
  -49828021.7039450     
  -49829386.1163296     
  -49830763.4452766     
  -49832153.3744634     
  -49833555.5918305     
  -49834969.7895599     
  -49836395.6640519     
  -49837832.9158999     
  -49839281.2498630     
  -49840740.3748368     
  -49842210.0038224     
  -49843689.8538934     
  -49845179.6461617     
  -49846679.1057407     
  -49848187.9617077     
  -49849705.9470639     
  -49851232.7986934     
  -49852768.2573205     
  -49854312.0674652     
  -49855863.9773976     
  -49857423.7390907     
  -49858991.1081720     
  -49860565.8438733     
  -49862147.7089799     
  -49863736.4697777     
  -49865331.8959999     
  -49866933.7607721     
  -49868541.8405561     
  -49870155.9150926     
  -49871775.7673434     
  -49873401.1834320     
  -49875031.9525831     
  -49876667.8670615     
  -49878308.7221101     
  -49879954.3158865     
  -49881604.4493990     
  -49883258.9264420     
  -49884917.5535305     
  -49886580.1398334     
  -49888246.4971064     
  -49720585.1671020     
  -49722496.2871293     
  -49724422.4532743     
  -49726363.2109135     
  -49728318.1140206     
  -49730286.7251067     
  -49732268.6151563     
  -49734263.3635617     
  -49736270.5580552     
  -49738289.7946382     
  -49740320.6775086     
  -49742362.8189857     
  -49744415.8394330     
  -49746479.3671791     
  -49748553.0384359     
  -49750636.4972157     
  -49752729.3952457     
  -49754831.3918810     
  -49756942.1540153     
  -49759061.3559903     
  -49761188.6795036     
  -49763323.8135135     
  -49765466.4541444     
  -49767616.3045885     
  -49769773.0750076     
  -49771936.4824322     
  -49774106.2506599     
  -49776282.1101522     
  -49778463.7979299     
  -49780651.0574673     
  -49782843.6385851     
  -49785041.2973419     
  -49787243.7959249     
  -49789450.9025390     
  -49791662.3912954     
  -49793878.0420985     
  -49796097.6405323     
  -49798320.9777454     
  -49800547.8503353     
  -49802778.0602319     
  -49805011.4145800     
  -49807247.7256207     
  -49809486.8105725     
  -49811728.4915112     
  -49813972.5952495     
  -49816218.9532155     
  -49818467.4013309     
  -49820717.7798882     
  -49822969.9334278     
  -49825223.7106138     
  -49624412.3795907     
  -49627029.2897250     
  -49629659.7576115     
  -49632303.2351112     
  -49634959.1869925     
  -49637627.0908068     
  -49640306.4367608     
  -49642996.7275862     
  -49645697.4784079     
  -49648408.2166091     
  -49651128.4816948     
  -49653857.8251523     
  -49656595.8103108     
  -49659342.0121981     
  -49662096.0173959     
  -49664857.4238925     
  -49667625.8409348     
  -49670400.8888779     
  -49673182.1990325     
  -49675969.4135120     
  -49678762.1850769     
  -49681560.1769780     
  -49684363.0627983     
  -49687170.5262938     
  -49689982.2612318     
  -49692797.9712291     
  -49695617.3695885     
  -49698440.1791339     
  -49701266.1320443     
  -49704094.9696871     
  -49706926.4424497     
  -49709760.3095703     
  -49712596.3389681     
  -49715434.3070717     
  -49718273.9986477     
  -49721115.2066273     
  -49723957.7319328     
  -49726801.3833033     
  -49729645.9771189     
  -49732491.3372253     
  -49735337.2947567     
  -49738183.6879588     
  -49741030.3620110     
  -49743877.1688472     
  -49746723.9669779     
  -49749570.6213097     
  -49752417.0029656     
  -49755262.9891051     
  -49758108.4627428     
  -49760953.3125673     
  -49526216.2345741     
  -49529552.9392569     
  -49532901.3868103     
  -49536260.9386611     
  -49539630.9735185     
  -49543010.8871824     
  -49546400.0923499     
  -49549798.0184194     
  -49553204.1112915     
  -49556617.8331691     
  -49560038.6623549     
  -49563466.0930462     
  -49566899.6351290     
  -49570338.8139696     
  -49573783.1702043     
  -49577232.2595277     
  -49580685.6524796     
  -49584142.9342294     
  -49587603.7043604     
  -49591067.5766511     
  -49594534.1788569     
  -49598003.1524884     
  -49601474.1525903     
  -49604946.8475182     
  -49608420.9187140     
  -49611896.0604810     
  -49615371.9797573     
  -49618848.3958882     
  -49622325.0403982     
  -49625801.6567612     
  -49629278.0001711     
  -49632753.8373097     
  -49636228.9461161     
  -49639703.1155531     
  -49643176.1453745     
  -49646647.8458911     
  -49650118.0377362     
  -49653586.5516302     
  -49657053.2281451     
  -49660517.9174684     
  -49663980.4791661     
  -49667440.7819455     
  -49670898.7034181     
  -49674354.1298613     
  -49677806.9559803     
  -49681257.0846692     
  -49684704.4267727     
  -49688148.9008465     
  -49691590.4329185     
  -49695028.9562486     
  -49425568.9461035     
  -49429641.8080372     
  -49433724.1603875     
  -49437815.2788933     
  -49441914.4610123     
  -49446021.0256609     
  -49450134.3129518     
  -49454253.6839293     
  -49458378.5203034     
  -49462508.2241808     
  -49466642.2177948     
  -49470779.9432331     
  -49474920.8621642     
  -49479064.4555617     
  -49483210.2234278     
  -49487357.6845140     
  -49491506.3760425     
  -49495655.8534241     
  -49499805.6899761     
  -49503955.4766389     
  -49508104.8216908     
  -49512253.3504624     
  -49516400.7050499     
  -49520546.5440268     
  -49524690.5421557     
  -49528832.3900982     
  -49532971.7941244     
  -49537108.4758222     
  -49541242.1718047     
  -49545372.6334178     
  -49549499.6264472     
  -49553622.9308238     
  -49557742.3403300     
  -49561857.6623042     
  -49565968.7173451     
  -49570075.3390169     
  -49574177.3735514     
  -49578274.6795527     
  -49582367.1276993     
  -49586454.6004469     
  -49590536.9917312     
  -49594614.2066694     
  -49598686.1612624     
  -49602752.7820970     
  -49606814.0060466     
  -49610869.7799737     
  -49614920.0604305     
  -49618964.8133608     
  -49623004.0138013     
  -49627037.6455829     
  -49322041.9648140     
  -49326869.5874164     
  -49331703.8977631     
  -49336544.0923757     
  -49341389.3939882     
  -49346239.0512162     
  -49351092.3382227     
  -49355948.5543841     
  -49360807.0239523     
  -49365667.0957167     
  -49370528.1426637     
  -49375389.5616354     
  -49380250.7729864     
  -49385111.2202392     
  -49389970.3697390     
  -49394827.7103067     
  -49399682.7528910     
  -49404535.0302195     
  -49409384.0964489     
  -49414229.5268141     
  -49419070.9172763     
  -49423907.8841709     
  -49428740.0638544     
  -49433567.1123498     
  -49438388.7049929     
  -49443204.5360766     
  -49448014.3184954     
  -49452817.7833893     
  -49457614.6797871     
  -49462404.7742491     
  -49467187.8505102     
  -49471963.7091215     
  -49476732.1670926     
  -49481493.0575332     
  -49486246.2292943     
  -49490991.5466095     
  -49495728.8887363     
  -49500458.1495963     
  -49505179.2374168     
  -49509892.0743709     
  -49514596.5962183     
  -49519292.7519462     
  -49523980.5034093     
  -49528659.8249711     
  -49533330.7031443     
  -49537993.1362317     
  -49542647.1339671     
  -49547292.7171564     
  -49551929.9173189     
  -49556558.7763286     
  -49215207.0465799     
  -49220810.1131803     
  -49226416.4005100     
  -49232025.0341327     
  -49237635.1703688     
  -49243245.9958904     
  -49248856.7273145     
  -49254466.6107950     
  -49260074.9216124     
  -49265680.9637636     
  -49271284.0695492     
  -49276883.5991609     
  -49282478.9402668     
  -49288069.5075965     
  -49293654.7425248     
  -49299234.1126550     
  -49304807.1114013     
  -49310373.2575706     
  -49315932.0949433     
  -49321483.1918541     
  -49327026.1407718     
  -49332560.5578795     
  -49338086.0826528     
  -49343602.3774396     
  -49349109.1270379     
  -49354606.0382744     
  -49360092.8395826     
  -49365569.2805803     
  -49371035.1316477     
  -49376490.1835046     
  -49381934.2467882     
  -49387367.1516302     
  -49392788.7472346     
  -49398198.9014551     
  -49403597.5003721     
  -49408984.4478709     
  -49414359.6652187     
  -49419723.0906430     
  -49425074.6789089     
  -49430414.4008975     
  -49435742.2431839     
  -49441058.2076157     
  -49446362.3108918     
  -49451654.5841412     
  -49456935.0725020     
  -49462203.8347010     
  -49467460.9426336     
  -49472706.4809438     
  -49477940.5466043     
  -49483163.2484977     
  -49104637.4578879     
  -49111038.5260016     
  -49117438.5680586     
  -49123836.6487805     
  -49130231.8682307     
  -49136623.3613324     
  -49143010.2973866     
  -49149391.8795878     
  -49155767.3445393     
  -49162135.9617683     
  -49168497.0332395     
  -49174849.8928683     
  -49181193.9060339     
  -49187528.4690910     
  -49193853.0088819     
  -49200166.9822478     
  -49206469.8755403     
  -49212761.2041315     
  -49219040.5119256     
  -49225307.3708687     
  -49231561.3804596     
  -49237802.1672604     
  -49244029.3844067     
  -49250242.7111176     
  -49256441.8522073     
  -49262626.5375947     
  -49268796.5218146     
  -49274951.5835289     
  -49281091.5250372     
  -49287216.1717887     
  -49293325.3718937     
  -49299418.9956353     
  -49305496.9349821     
  -49311559.1031005     
  -49317605.4338674     
  -49323635.8813839     
  -49329650.4194889     
  -49335649.0412728     
  -49341631.7585924     
  -49347598.6015854     
  -49353549.6181860     
  -49359484.8736403     
  -49365404.4500231     
  -49371308.4457538     
  -49377196.9751140     
  -49383070.1677653     
  -49388928.1682670     
  -49394771.1355948     
  -49400599.2426601     
  -49406412.6758295     
  -48989909.3440213     
  -48997132.5929740     
  -49004349.6728287     
  -49011559.5995038     
  -49018761.4288717     
  -49025954.2561990     
  -49033137.2155851     
  -49040309.4794010     
  -49047470.2577274     
  -49054618.7977935     
  -49061754.3834141     
  -49068876.3344283     
  -49075984.0061369     
  -49083076.7887410     
  -49090154.1067792     
  -49097215.4185668     
  -49104260.2156336     
  -49111288.0221628     
  -49118298.3944301     
  -49125290.9202429     
  -49132265.2183803     
  -49139220.9380331     
  -49146157.7582445     
  -49153075.3873511     
  -49159973.5624249     
  -49166852.0487148     
  -49173710.6390901     
  -49180549.1534837     
  -49187367.4383355     
  -49194165.3660378     
  -49200942.8343800     
  -49207699.7659947     
  -49214436.1078043     
  -49221151.8304682     
  -49227846.9278308     
  -49234521.4163701     
  -49241175.3346472     
  -49247808.7427560     
  -49254421.7217745     
  -49261014.3732157     
  -49267586.8184802     
  -49274139.1983085     
  -49280671.6722355     
  -49287184.4180434     
  -49293677.6312181     
  -49300151.5244036     
  -49306606.3268590     
  -49313042.2839151     
  -49319459.6564320     
  -49325858.7202580     
  -48870603.2864116     
  -48878674.2166107     
  -48886732.8211985     
  -48894778.0813129     
  -48902809.0226705     
  -48910824.7149261     
  -48918824.2710310     
  -48926806.8465919     
  -48934771.6392310     
  -48942717.8879454     
  -48950644.8724679     
  -48958551.9126281     
  -48966438.3677139     
  -48974303.6358338     
  -48982147.1532802     
  -48989968.3938930     
  -48997766.8684243     
  -49005542.1239035     
  -49013293.7430043     
  -49021021.3434113     
  -49028724.5771881     
  -49036403.1301467     
  -49044056.7212174     
  -49051685.1018198     
  -49059288.0552351     
  -49066865.3959791     
  -49074416.9691762     
  -49081942.6499349     
  -49089442.3427241     
  -49096915.9807504     
  -49104363.5253367     
  -49111784.9653020     
  -49119180.3163416     
  -49126549.6204093     
  -49133892.9451001     
  -49141210.3830344     
  -49148502.0512427     
  -49155768.0905515     
  -49163008.6649712     
  -49170223.9610832     
  -49177414.1874299     
  -49184579.5739043     
  -49191720.3711412     
  -49198836.8499093     
  -49205929.3005039     
  -49212998.0321412     
  -49220043.3723522     
  -49227065.6663788     
  -49234065.2765701     
  -49241042.5817790     
  -48746306.0759211     
  -48755251.1581902     
  -48764176.6273078     
  -48773081.4456915     
  -48781964.6249568     
  -48790825.2251937     
  -48799662.3542431     
  -48808475.1669752     
  -48817262.8645683     
  -48826024.6937899     
  -48834759.9462775     
  -48843467.9578224     
  -48852148.1076534     
  -48860799.8177225     
  -48869422.5519915     
  -48878015.8157213     
  -48886579.1547603     
  -48895112.1548370     
  -48903614.4408517     
  -48912085.6761712     
  -48920525.5619247     
  -48928933.8363005     
  -48937310.2738455     
  -48945654.6847654     
  -48953966.9142269     
  -48962246.8416612     
  -48970494.3800693     
  -48978709.4753289     
  -48986892.1055032     
  -48995042.2801505     
  -49003160.0396364     
  -49011245.4544468     
  -49019298.6245027     
  -49027319.6784774     
  -49035308.7731134     
  -49043266.0925428     
  -49051191.8476080     
  -49059086.2751842     
  -49066949.6375032     
  -49074782.2214790     
  -49082584.3380342     
  -49090356.3214282     
  -49098098.5285863     
  -49105811.3384301     
  -49113495.1512094     
  -49121150.3878347     
  -49128777.4892111     
  -49136376.9155734     
  -49143949.1458215     
  -49151494.6768570     
  -48616612.7294690     
  -48626459.0030761     
  -48636277.1275265     
  -48646066.0646578     
  -48655824.8300987     
  -48665552.4924617     
  -48675248.1725372     
  -48684911.0424892     
  -48694540.3250536     
  -48704135.2927376     
  -48713695.2670223     
  -48723219.6175656     
  -48732707.7614089     
  -48742159.1621846     
  -48751573.3293261     
  -48760949.8172801     
  -48770288.2247203     
  -48779588.1937644     
  -48788849.4091921     
  -48798071.5976658     
  -48807254.5269537     
  -48816398.0051544     
  -48825501.8799248     
  -48834566.0377092     
  -48843590.4029712     
  -48852574.9374274     
  -48861519.6392843     
  -48870424.5424761     
  -48879289.7159058     
  -48888115.2626882     
  -48896901.3193946     
  -48905648.0553007     
  -48914355.6716358     
  -48923024.4008345     
  -48931654.5057904     
  -48940246.2791118     
  -48948800.0423799     
  -48957316.1454080     
  -48965794.9655036     
  -48974236.9067319     
  -48982642.3991811     
  -48991011.8982290     
  -48999345.8838124     
  -49007644.8596972     
  -49015909.3527495     
  -49024139.9122098     
  -49032337.1089664     
  -49040501.5348320     
  -49048633.8018202     
  -49056734.5414229     
  -48481128.7784276     
  -48491903.3967397     
  -48502639.9646006     
  -48513337.4635146     
  -48523994.9333248     
  -48534611.4713211     
  -48545186.2313512     
  -48555718.4229335     
  -48566207.3103732     
  -48576652.2118812     
  -48587052.4986951     
  -48597407.5942036     
  -48607716.9730732     
  -48617980.1603775     
  -48628196.7307300     
  -48638366.3074188     
  -48648488.5615447     
  -48658563.2111620     
  -48668590.0204221     
  -48678568.7987199     
  -48688499.3998433     
  -48698381.7211259     
  -48708215.7026019     
  -48718001.3261644     
  -48727738.6147270     
  -48737427.6313875     
  -48747068.4785956     
  -48756661.2973229     
  -48766206.2662358     
  -48775703.6008722     
  -48785153.5528199     
  -48794556.4088986     
  -48803912.4903454     
  -48813222.1520016     
  -48822485.7815036     
  -48831703.7984759     
  -48840876.6537271     
  -48850004.8284481     
  -48859088.8334131     
  -48868129.2081835     
  -48877126.5203128     
  -48886081.3645551     
  -48894994.3620754     
  -48903866.1596614     
  -48912697.4289379     
  -48921488.8655824     
  -48930241.1885429     
  -48938955.1392569     
  -48947631.4808717     
  -48956270.9974662     
  -48339472.8587856     
  -48351202.5818564     
  -48362882.8721807     
  -48374512.7532968     
  -48386091.3115647     
  -48397617.6951896     
  -48409091.1132492     
  -48420510.8347241     
  -48431876.1875309     
  -48443186.5575598     
  -48454441.3877150     
  -48465640.1769573     
  -48476782.4793525     
  -48487867.9031207     
  -48498896.1096909     
  -48509866.8127576     
  -48520779.7773427     
  -48531634.8188590     
  -48542431.8021784     
  -48553170.6407041     
  -48563851.2954454     
  -48574473.7740968     
  -48585038.1301212     
  -48595544.4618362     
  -48605992.9115046     
  -48616383.6644288     
  -48626716.9480485     
  -48636993.0310432     
  -48647212.2224374     
  -48657374.8707111     
  -48667481.3629121     
  -48677532.1237746     
  -48687527.6148390     
  -48697468.3335776     
  -48707354.8125227     
  -48717187.6183987     
  -48726967.3512574     
  -48736694.6436176     
  -48746370.1596068     
  -48755994.5941074     
  -48765568.6719050     
  -48775093.1468401     
  -48784568.8009628     
  -48793996.4436897     
  -48803376.9109642     
  -48812711.0644177     
  -48821999.7905346     
  -48831243.9998179     
  -48840444.6259574     
  -48849602.6249991     
  -48191279.6354215     
  -48203990.2692063     
  -48216638.4928110     
  -48229223.3962953     
  -48241744.1369439     
  -48254199.9382056     
  -48266590.0886370     
  -48278913.9408492     
  -48291170.9104591     
  -48303360.4750436     
  -48315482.1730983     
  -48327535.6029993     
  -48339520.4219700     
  -48351436.3450505     
  -48363283.1440722     
  -48375060.6466359     
  -48386768.7350943     
  -48398407.3455386     
  -48409976.4667901     
  -48421476.1393949     
  -48432906.4546245     
  -48444267.5534805     
  -48455559.6257036     
  -48466782.9087881     
  -48477937.6869999     
  -48489024.2904013     
  -48500043.0938786     
  -48510994.5161767     
  -48521879.0189363     
  -48532697.1057381     
  -48543449.3211513     
  -48554136.2497866     
  -48564758.5153547     
  -48575316.7797293     
  -48585811.7420157     
  -48596244.1376228     
  -48606614.7373409     
  -48616924.3464239     
  -48627173.8036758     
  -48637363.9805411     
  -48647495.7802005     
  -48657570.1366694     
  -48667588.0139007     
  -48677550.4048914     
  -48687458.3307928     
  -48697312.8400226     
  -48707115.0073819     
  -48716865.9331727     
  -48726566.7423197     
  -48736218.5834928     
  -48036203.0962009     
  -48049918.8784448     
  -48063557.5657244     
  -48077118.3412231     
  -48090600.4596641     
  -48104003.2461657     
  -48117326.0951007     
  -48130568.4689592     
  -48143729.8972157     
  -48156809.9751998     
  -48169808.3629711     
  -48182724.7841980     
  -48195559.0250407     
  -48208310.9330394     
  -48220980.4160060     
  -48233567.4409207     
  -48246072.0328341     
  -48258494.2737731     
  -48270834.3016532     
  -48283092.3091953     
  -48295268.5428479     
  -48307363.3017154     
  -48319376.9364919     
  -48331309.8484004     
  -48343162.4881388     
  -48354935.3548315     
  -48366628.9949871     
  -48378244.0014630     
  -48389781.0124353     
  -48401240.7103764     
  -48412623.8210381     
  -48423931.1124416     
  -48435163.3938737     
  -48446321.5148899     
  -48457406.3643235     
  -48468418.8693010     
  -48479359.9942643     
  -48490230.7399985     
  -48501032.1426658     
  -48511765.2728457     
  -48522431.2345804     
  -48533031.1644257     
  -48543566.2305076     
  -48554037.6315832     
  -48564446.5961070     
  -48574794.3813009     
  -48585082.2722293     
  -48595311.5808766     
  -48605483.6452288     
  -48615599.8283586     
  -47873920.2563343     
  -47888663.1893710     
  -47903312.5251857     
  -47917867.5688013     
  -47932327.7010098     
  -47946692.3771429     
  -47960961.1258446     
  -47975133.5478489     
  -47989209.3147597     
  -48003188.1678348     
  -48017069.9167734     
  -48030854.4385090     
  -48044541.6760048     
  -48058131.6370548     
  -48071624.3930901     
  -48085020.0779890     
  -48098318.8868938     
  -48111521.0750324     
  -48124626.9565463     
  -48137636.9033248     
  -48150551.3438453     
  -48163370.7620208     
  -48176095.6960542     
  -48188726.7372999     
  -48201264.5291328     
  -48213709.7658250     
  -48226063.1914303     
  -48238325.5986776     
  -48250497.8278702     
  -48262580.7657965     
  -48274575.3446471     
  -48286482.5409406     
  -48298303.3744589     
  -48310038.9071900     
  -48321690.2422800     
  -48333258.5229936     
  -48344744.9316831     
  -48356150.6887650     
  -48367477.0517062     
  -48378725.3140168     
  -48389896.8042519     
  -48400992.8850204     
  -48412014.9520008     
  -48422964.4329650     
  -48433842.7868077     
  -48444651.5025828     
  -48455392.0985451     
  -48466066.1211980     
  -48476675.1443454     
  -48487220.7681491     
  -47704135.3198356     
  -47719924.4504326     
  -47735601.5559111     
  -47751166.0939887     
  -47766617.6023141     
  -47781955.6971480     
  -47797180.0720470     
  -47812290.4965490     
  -47827286.8148621     
  -47842168.9445556     
  -47856936.8752541     
  -47871590.6673361     
  -47886130.4506366     
  -47900556.4231532     
  -47914868.8497586     
  -47929068.0609176     
  -47943154.4514102     
  -47957128.4790616     
  -47970990.6634780     
  -47984741.5847908     
  -47998381.8824082     
  -48011912.2537738     
  -48025333.4531361     
  -48038646.2903245     
  -48051851.6295372     
  -48064950.3881363     
  -48077943.5354546     
  -48090832.0916133     
  -48103617.1263477     
  -48116299.7578470     
  -48128881.1516036     
  -48141362.5192732     
  -48153745.1175474     
  -48166030.2470373     
  -48178219.2511691     
  -48190313.5150901     
  -48202314.4645878     
  -48214223.5650194     
  -48226042.3202527     
  -48237772.2716186     
  -48249414.9968741     
  -48260972.1091758     
  -48272445.2560645     
  -48283836.1184585     
  -48295146.4096578     
  -48306377.8743559     
  -48317532.2876611     
  -48328611.4541258     
  -48339617.2067821     
  -48350551.4061859     
  -47526584.3533923     
  -47543434.9991611     
  -47560153.1595199     
  -47576738.4779590     
  -47593190.6820312     
  -47609509.5819371     
  -47625695.0691105     
  -47641747.1148037     
  -47657665.7686738     
  -47673451.1573711     
  -47689103.4831282     
  -47704623.0223535     
  -47720010.1242270     
  -47735265.2093012     
  -47750388.7681059     
  -47765381.3597602     
  -47780243.6105891     
  -47794976.2127489     
  -47809579.9228592     
  -47824055.5606446     
  -47838404.0075846     
  -47852626.2055746     
  -47866723.1555966     
  -47880695.9164020     
  -47894545.6032059     
  -47908273.3863935     
  -47921880.4902401     
  -47935368.1916452     
  -47948737.8188788     
  -47961990.7503437     
  -47975128.4133524     
  -47988152.2829178     
  -48001063.8805607     
  -48013864.7731320     
  -48026556.5716509     
  -48039140.9301589     
  -48051619.5445889     
  -48063994.1516514     
  -48076266.5277353     
  -48088438.4878238     
  -48100511.8844270     
  -48112488.6065279     
  -48124370.5785447     
  -48136159.7593046     
  -48147858.1410347     
  -48159467.7483627     
  -48170990.6373325     
  -48182428.8944297     
  -48193784.6356189     
  -48205060.0053922     
  -47341040.5388364     
  -47358963.4593228     
  -47376731.2952569     
  -47394343.9113874     
  -47411801.2606913     
  -47429103.3828496     
  -47446250.4027186     
  -47463242.5287994     
  -47480080.0517047     
  -47496763.3426267     
  -47513292.8518022     
  -47529669.1069827     
  -47545892.7119042     
  -47561964.3447622     
  -47577884.7566905     
  -47593654.7702469     
  -47609275.2779048     
  -47624747.2405538     
  -47640071.6860087     
  -47655249.7075297     
  -47670282.4623538     
  -47685171.1702374     
  -47699917.1120145     
  -47714521.6281673     
  -47728986.1174135     
  -47743312.0353086     
  -47757500.8928663     
  -47771554.2551960     
  -47785473.7401591     
  -47799261.0170445     
  -47812917.8052634     
  -47826445.8730645     
  -47839847.0362707     
  -47853123.1570351     
  -47866276.1426205     
  -47879307.9441983     
  -47892220.5556705     
  -47905016.0125132     
  -47917696.3906415     
  -47930263.8052956     
  -47942720.4099487     
  -47955068.3952361     
  -47967309.9879046     
  -47979447.4497816     
  -47991483.0767644     
  -48003419.1978283     
  -48015258.1740523     
  -48027002.3976626     
  -48038654.2910914     
  -48050216.3060530     
  -47147320.0839946     
  -47166320.5920054     
  -47185141.1694914     
  -47203781.9407052     
  -47222243.1224239     
  -47240525.0222906     
  -47258628.0371480     
  -47276552.6513639     
  -47294299.4351530     
  -47311869.0428936     
  -47329262.2114432     
  -47346479.7584523     
  -47363522.5806810     
  -47380391.6523173     
  -47397088.0232998     
  -47413612.8176473     
  -47429967.2317959     
  -47446152.5329453     
  -47462170.0574167     
  -47478021.2090229     
  -47493707.4574531     
  -47509230.3366727     
  -47524591.4433417     
  -47539792.4352496     
  -47554835.0297725     
  -47569721.0023498     
  -47584452.1849842     
  -47599030.4647647     
  -47613457.7824150     
  -47627736.1308665     
  -47641867.5538585     
  -47655854.1445657     
  -47669698.0442532     
  -47683401.4409600     
  -47696966.5682125     
  -47710395.7037663     
  -47723691.1683783     
  -47736855.3246085     
  -47749890.5756517     
  -47762799.3641996     
  -47775584.1713317     
  -47788247.5154360     
  -47800791.9511592     
  -47813220.0683845     
  -47825534.4912376     
  -47837737.8771199     
  -47849832.9157672     
  -47861822.3283344     
  -47873708.8665030     
  -47885495.3116121     
  -46945288.8881695     
  -46965365.8927149     
  -46985235.7617292     
  -47004898.9205784     
  -47024355.8917124     
  -47043607.2928350     
  -47062653.8350583     
  -47081496.3210459     
  -47100135.6431451     
  -47118572.7815122     
  -47136808.8022328     
  -47154844.8554384     
  -47172682.1734229     
  -47190322.0687619     
  -47207765.9324354     
  -47225015.2319573     
  -47242071.5095151     
  -47258936.3801201     
  -47275611.5297715     
  -47292098.7136370     
  -47308399.7542515     
  -47324516.5397356     
  -47340451.0220374     
  -47356205.2151981     
  -47371781.1936439     
  -47387181.0905062     
  -47402407.0959717     
  -47417461.4556636     
  -47432346.4690559     
  -47447064.4879221     
  -47461617.9148194     
  -47476009.2016095     
  -47490240.8480178     
  -47504315.4002301     
  -47518235.4495306     
  -47532003.6309777     
  -47545622.6221225     
  -47559095.1417668     
  -47572423.9487634     
  -47585611.8408560     
  -47598661.6535622     
  -47611576.2590955     
  -47624358.5653291     
  -47637011.5147986     
  -47649538.0837450     
  -47661941.2811944     
  -47674224.1480769     
  -47686389.7563794     
  -47698441.2083353     
  -47710381.6356455     
  -46734870.0777548     
  -46756015.0436045     
  -46776923.1897318     
  -46797595.2885595     
  -46818032.2145915     
  -46838234.9423518     
  -46858204.5443017     
  -46877942.1887385     
  -46897449.1376777     
  -46916726.7447238     
  -46935776.4529323     
  -46954599.7926661     
  -46973198.3794503     
  -46991573.9118278     
  -47009728.1692205     
  -47027663.0097982     
  -47045380.3683591     
  -47062882.2542242     
  -47080170.7491511     
  -47097248.0052668     
  -47114116.2430259     
  -47130777.7491947     
  -47147234.8748654     
  -47163490.0335022     
  -47179545.6990232     
  -47195404.4039184     
  -47211068.7374087     
  -47226541.3436462     
  -47241824.9199590     
  -47256922.2151416     
  -47271836.0277931     
  -47286569.2047056     
  -47301124.6393023     
  -47315505.2701288     
  -47329714.0793977     
  -47343754.0915863     
  -47357628.3720912     
  -47371340.0259374     
  -47384892.1965437     
  -47398288.0645449     
  -47411530.8466697     
  -47424623.7946755     
  -47437570.1943392     
  -47450373.3645019     
  -47463036.6561705     
  -47475563.4516708     
  -47487957.1638545     
  -47500221.2353565     
  -47512359.1379019     
  -47524374.3716618     
  -46516052.5490161     
  -46538248.3485846     
  -46560175.0320985     
  -46581833.7707960     
  -46603225.8436455     
  -46624352.6349700     
  -46645215.6320402     
  -46665816.4226409     
  -46686156.6926156     
  -46706238.2233951     
  -46726062.8895120     
  -46745632.6561089     
  -46764949.5764437     
  -46784015.7893955     
  -46802833.5169775     
  -46821405.0618612     
  -46839732.8049139     
  -46857819.2027578     
  -46875666.7853518     
  -46893278.1536009     
  -46910655.9769984     
  -46927802.9913033     
  -46944721.9962576     
  -46961415.8533463     
  -46977887.4836045     
  -46994139.8654748     
  -47010176.0327167     
  -47025999.0723736     
  -47041612.1227969     
  -47057018.3717335     
  -47072221.0544760     
  -47087223.4520794     
  -47102028.8896458     
  -47116640.7346800     
  -47131062.3955153     
  -47145297.3198138     
  -47159348.9931397     
  -47173220.9376082     
  -47186916.7106109     
  -47200439.9036162     
  -47213794.1410478     
  -47226983.0792382     
  -47240010.4054602     
  -47252879.8370333     
  -47265595.1205047     
  -47278160.0309066     
  -47290578.3710833     
  -47302853.9710928     
  -47314990.6876760     
  -47326992.4037940     
  -46288900.6777129     
  -46312120.2979748     
  -46335035.7419212     
  -46357648.6393510     
  -46379960.7343487     
  -46401973.8824730     
  -46423690.0479040     
  -46445111.3005569     
  -46466239.8131665     
  -46487077.8583510     
  -46507627.8056593     
  -46527892.1186109     
  -46547873.3517322     
  -46567574.1475953     
  -46586997.2338683     
  -46606145.4203794     
  -46625021.5962028     
  -46643628.7267719     
  -46661969.8510247     
  -46680048.0785867     
  -46697866.5869980     
  -46715428.6189882     
  -46732737.4798037     
  -46749796.5345946     
  -46766609.2058620     
  -46783178.9709737     
  -46799509.3597500     
  -46815603.9521237     
  -46831466.3758797     
  -46847100.3044752     
  -46862509.4549455     
  -46877697.5858982     
  -46892668.4955965     
  -46907426.0201379     
  -46921974.0317265     
  -46936316.4370430     
  -46950457.1757142     
  -46964400.2188820     
  -46978149.5678743     
  -46991709.2529788     
  -47005083.3323184     
  -47018275.8908306     
  -47031291.0393498     
  -47044132.9137917     
  -47056805.6744410     
  -47069313.5053390     
  -47081660.6137712     
  -47093851.2298544     
  -47105889.6062182     
  -47117780.0177819     
  -46053565.3768802     
  -46077770.4263251     
  -46101633.2975396     
  -46125156.1497005     
  -46148341.2640102     
  -46171191.0402831     
  -46193707.9934822     
  -46215894.7502134     
  -46237754.0451863     
  -46259288.7176494     
  -46280501.7078096     
  -46301396.0532431     
  -46321974.8853058     
  -46342241.4255513     
  -46362198.9821656     
  -46381850.9464241     
  -46401200.7891800     
  -46420252.0573906     
  -46439008.3706893     
  -46457473.4180093     
  -46475650.9542659     
  -46493544.7971056     
  -46511158.8237248     
  -46528496.9677672     
  -46545563.2163048     
  -46562361.6069060     
  -46578896.2247999     
  -46595171.2001373     
  -46611190.7053571     
  -46626958.9526596     
  -46642480.1915925     
  -46657758.7067524     
  -46672798.8156056     
  -46687604.8664329     
  -46702181.2363983     
  -46716532.3297465     
  -46730662.5761322     
  -46744576.4290795     
  -46758278.3645772     
  -46771772.8798092     
  -46785064.4920208     
  -46798157.7375230     
  -46811057.1708320     
  -46823767.3639483     
  -46836292.9057717     
  -46848638.4016511     
  -46860808.4730700     
  -46872807.7574658     
  -46884640.9081785     
  -46896312.5945296     
  -45810296.7012104     
  -45835435.6384678     
  -45860191.2423739     
  -45884566.2876268     
  -45908563.6801559     
  -45932186.4528837     
  -45955437.7614309     
  -45978320.8797723     
  -46000839.1958565     
  -46022996.2072001     
  -46044795.5164679     
  -46066240.8270479     
  -46087335.9386335     
  -46108084.7428211     
  -46128491.2187355     
  -46148559.4286897     
  -46168293.5138914     
  -46187697.6902037     
  -46206776.2439687     
  -46225533.5279038     
  -46243973.9570784     
  -46262102.0049780     
  -46279922.1996654     
  -46297439.1200452     
  -46314657.3922380     
  -46331581.6860729     
  -46348216.7117033     
  -46364567.2163531     
  -46380637.9811977     
  -46396433.8183875     
  -46411959.5682167     
  -46427220.0964443     
  -46442220.2917699     
  -46456965.0634699     
  -46471459.3391970     
  -46485708.0629469     
  -46499716.1931951     
  -46513488.7012058     
  -46527030.5695169     
  -46540346.7906010     
  -46553442.3657052     
  -46566322.3038711     
  -46578991.6211340     
  -46591455.3399033     
  -46603718.4885243     
  -46615786.1010185     
  -46627663.2170039     
  -46639354.8817927     
  -46650866.1466649     
  -46662202.0693152     
  -45559458.2036441     
  -45585464.1793077     
  -45611042.2598380     
  -45636195.9426408     
  -45660928.8672688     
  -45685244.8100686     
  -45709147.6787656     
  -45732641.5069987     
  -45755730.4488213     
  -45778418.7731804     
  -45800710.8583904     
  -45822611.1866096     
  -45844124.3383392     
  -45865254.9869507     
  -45886007.8932584     
  -45906387.9001477     
  -45926399.9272686     
  -45946048.9658092     
  -45965340.0733566     
  -45984278.3688581     
  -46002869.0276907     
  -46021117.2768505     
  -46039028.3902692     
  -46056607.6842689     
  -46073860.5131615     
  -46090792.2650026     
  -46107408.3575067     
  -46123714.2341314     
  -46139715.3603379     
  -46155417.2200341     
  -46170825.3122065     
  -46185945.1477473     
  -46200782.2464820     
  -46215342.1344021     
  -46229630.3411085     
  -46243652.3974700     
  -46257413.8334989     
  -46270920.1764504     
  -46284176.9491469     
  -46297189.6685292     
  -46309963.8444396     
  -46322504.9786355     
  -46334818.5640383     
  -46346910.0842147     
  -46358785.0130952     
  -46370448.8149254     
  -46381906.9444526     
  -46393164.8473466     
  -46404227.9608511     
  -46415101.7146655     
  -45301543.2389513     
  -45328331.4043995     
  -45354643.4036794     
  -45380483.5926271     
  -45405856.4819968     
  -45430766.7306217     
  -45455219.1385125     
  -45479218.6399156     
  -45502770.2963450     
  -45525879.2896075     
  -45548550.9148358     
  -45570790.5735467     
  -45592603.7667401     
  -45613996.0880532     
  -45634973.2169840     
  -45655540.9122005     
  -45675705.0049468     
  -45695471.3925596     
  -45714846.0321097     
  -45733834.9341784     
  -45752444.1567812     
  -45770679.7994516     
  -45788547.9974929     
  -45806054.9164116     
  -45823206.7465395     
  -45840009.6978566     
  -45856469.9950210     
  -45872593.8726182     
  -45888387.5706335     
  -45903857.3301602     
  -45919009.3893468     
  -45933849.9795931     
  -45948385.3220000     
  -45962621.6240813     
  -45976565.0767405     
  -45990221.8515203     
  -46003598.0981295     
  -46016699.9422502     
  -46029533.4836316     
  -46042104.7944729     
  -46054419.9180984     
  -46066484.8679285     
  -46078305.6267482     
  -46089888.1462751     
  -46101238.3470289     
  -46112362.1185014     
  -46123265.3196303     
  -46133953.7795740     
  -46144433.2987868     
  -46154709.6503953     
  -45037193.3687802     
  -45064657.4598107     
  -45091593.0478956     
  -45118005.5211422     
  -45143900.4371575     
  -45169283.5142581     
  -45194160.6226342     
  -45218537.7754905     
  -45242421.1201858     
  -45265816.9293893     
  -45288731.5922752     
  -45311171.6057742     
  -45333143.5658988     
  -45354654.1591618     
  -45375710.1541038     
  -45396318.3929455     
  -45416485.7833814     
  -45436219.2905297     
  -45455525.9290519     
  -45474412.7554571     
  -45492886.8606029     
  -45510955.3624068     
  -45528625.3987796     
  -45545904.1207926     
  -45562798.6860894     
  -45579316.2525538     
  -45595463.9722431     
  -45611248.9855970     
  -45626678.4159318     
  -45641759.3642278     
  -45656498.9042196     
  -45670904.0777964     
  -45684981.8907210     
  -45698739.3086735     
  -45712183.2536278     
  -45725320.6005673     
  -45738158.1745453     
  -45750702.7480961     
  -45762961.0390022     
  -45774939.7084239     
  -45786645.3593920     
  -45798084.5356731     
  -45809263.7210059     
  -45820189.3387153     
  -45830867.7517052     
  -45841305.2628327     
  -45851508.1156658     
  -45861482.4956239     
  -45871234.5315044     
  -45880770.2973925     
  -44767218.9370538     
  -44795226.8859067     
  -44822649.5190562     
  -44849493.4807796     
  -44875765.6008770     
  -44901472.8833701     
  -44926622.4951908     
  -44951221.7548836     
  -44975278.1213470     
  -44998799.1826389     
  -45021792.6448648     
  -45044266.3211733     
  -45066228.1208785     
  -45087686.0387280     
  -45108648.1443366     
  -45129122.5718019     
  -45149117.5095207     
  -45168641.1902212     
  -45187701.8812261     
  -45206307.8749633     
  -45224467.4797361     
  -45242189.0107685     
  -45259480.7815369     
  -45276351.0954020     
  -45292808.2375507     
  -45308860.4672623     
  -45324516.0105073     
  -45339783.0528904     
  -45354669.7329483     
  -45369184.1358100     
  -45383334.2872319     
  -45397128.1480134     
  -45410573.6088044     
  -45423678.4853109     
  -45436450.5139086     
  -45448897.3476700     
  -45461026.5528147     
  -45472845.6055879     
  -45484361.8895756     
  -45495582.6934612     
  -45506515.2092319     
  -45517166.5308375     
  -45527543.6533104     
  -45537653.4723495     
  -45547502.7843731     
  -45557098.2870453     
  -45566446.5802797     
  -45575554.1677223     
  -45584427.4587182     
  -45593072.7707618     
  -44492621.7326188     
  -44521010.0004608     
  -44548751.2083928     
  -44575853.5452815     
  -44602325.4021114     
  -44628175.3575190     
  -44653412.1633759     
  -44678044.7304535     
  -44702082.1141923     
  -44725533.5006070     
  -44748408.1923458     
  -44770715.5949328     
  -44792465.2032094     
  -44813666.5880008     
  -44834329.3830242     
  -44854463.2720571     
  -44874077.9763848     
  -44893183.2425414     
  -44911788.8303633     
  -44929904.5013655     
  -44947540.0074593     
  -44964705.0800221     
  -44981409.4193326     
  -44997662.6843843     
  -45013474.4830884     
  -45028854.3628771     
  -45043811.8017188     
  -45058356.1995558     
  -45072496.8701727     
  -45086243.0335083     
  -45099603.8084182     
  -45112588.2058984     
  -45125205.1227788     
  -45137463.3358958     
  -45149371.4967537     
  -45160938.1266805     
  -45172171.6124917     
  -45183080.2026650     
  -45193672.0040393     
  -45203954.9790422     
  -45213936.9434574     
  -45223625.5647360     
  -45233028.3608648     
  -45242152.6997929     
  -45251005.7994300     
  -45259594.7282176     
  -45267926.4062848     
  -45276007.6071919     
  -45283844.9602680     
  -45291444.9535493     
  -44214619.4106624     
  -44243185.6664066     
  -44271037.7075110     
  -44298185.6373286     
  -44324639.7768969     
  -44350410.6465655     
  -44375508.9477783     
  -44399945.5450379     
  -44423731.4480790     
  -44446877.7942827     
  -44469395.8313515     
  -44491296.9002717     
  -44512592.4185811     
  -44533293.8639682     
  -44553412.7582144     
  -44572960.6515020     
  -44591949.1071026     
  -44610389.6864596     
  -44628293.9346818     
  -44645673.3664588     
  -44662539.4524121     
  -44678903.6058933     
  -44694777.1702395     
  -44710171.4064991     
  -44725097.4816341     
  -44739566.4572128     
  -44753589.2785989     
  -44767176.7646487     
  -44780339.5979232     
  -44793088.3154265     
  -44805433.2998766     
  -44817384.7715206     
  -44828952.7804996     
  -44840147.1997766     
  -44850977.7186328     
  -44861453.8367442     
  -44871584.8588471     
  -44881379.8900022     
  -44890847.8314682     
  -44899997.3771934     
  -44908837.0109390     
  -44917375.0040392     
  -44925619.4138169     
  -44933578.0826570     
  -44941258.6377549     
  -44948668.4915494     
  -44955814.8428489     
  -44962704.6786641     
  -44969344.7767598     
  -44975741.7089280     
  -43934670.9725595     
  -43963164.6778782     
  -43990871.1415397     
  -44017802.8518779     
  -44043972.5268083     
  -44069393.0907755     
  -44094077.6519888     
  -44118039.4800059     
  -44141291.9836731     
  -44163848.6894544     
  -44185723.2201735     
  -44206929.2741863     
  -44227480.6050043     
  -44247391.0013886     
  -44266674.2679233     
  -44285344.2060901     
  -44303414.5958510     
  -44320899.1777531     
  -44337811.6355640     
  -44354165.5794492     
  -44369974.5296972     
  -44385251.9010022     
  -44400010.9873102     
  -44414264.9472353     
  -44428026.7900533     
  -44441309.3622769     
  -44454125.3348210     
  -44466487.1907617     
  -44478407.2136960     
  -44489897.4767093     
  -44500969.8319562     
  -44511635.9008618     
  -44521907.0649520     
  -44531794.4573191     
  -44541308.9547334     
  -44550461.1704085     
  -44559261.4474311     
  -44567719.8528661     
  -44575846.1725491     
  -44583649.9065764     
  -44591140.2655099     
  -44598326.1673053     
  -44605216.2349843     
  -44611818.7950613     
  -44618141.8767433     
  -44624193.2119184     
  -44629980.2359500     
  -44635510.0893018     
  -44640789.6199869     
  -44645825.3869044     
  -43654502.0678970     
  -43682612.4703554     
  -43709856.3553338     
  -43736249.1876870     
  -43761806.6661123     
  -43786544.6945735     
  -43810479.3543279     
  -43833626.8764518     
  -43856003.6149607     
  -43877626.0205240     
  -43898510.6147897     
  -43918673.9653363     
  -43938132.6612646     
  -43956903.2894418     
  -43975002.4114047     
  -43992446.5409280     
  -44009252.1222657     
  -44025435.5090677     
  -44041012.9439745     
  -44056000.5388926     
  -44070414.2559509     
  -44084269.8891373     
  -44097583.0466179     
  -44110369.1337355     
  -44122643.3366875     
  -44134420.6068833     
  -44145715.6459800     
  -44156542.8915956     
  -44166916.5037006     
  -44176850.3516900     
  -44186358.0021353     
  -44195452.7072207     
  -44204147.3938676     
  -44212454.6535500     
  -44220386.7328124     
  -44227955.5244910     
  -44235172.5596529     
  -44242049.0002627     
  -44248595.6325879     
  -44254822.8613582     
  -44260740.7046965     
  -44266358.7898351     
  -44271686.3496414     
  -44276732.2199692     
  -44281504.8378626     
  -44286012.2406388     
  -44290262.0658685     
  -44294261.5522660     
  -44298017.5415984     
  -44301536.4814771     
  -43376128.1444874     
  -43403469.1425247     
  -43429857.9110245     
  -43455313.6244748     
  -43479855.6819151     
  -43503503.6724029     
  -43526277.3410196     
  -43548196.5559066     
  -43569281.2760937     
  -43589551.5201935     
  -43609027.3359819     
  -43627728.7708619     
  -43645675.8432068     
  -43662888.5145884     
  -43679386.6628855     
  -43695190.0562678     
  -43710318.3280518     
  -43724790.9524173     
  -43738627.2209791     
  -43751846.2201995     
  -43764466.8096345     
  -43776507.6009991     
  -43787986.9380403     
  -43798922.8772063     
  -43809333.1690973     
  -43819235.2406883     
  -43828646.1783095     
  -43837582.7113753     
  -43846061.1968519     
  -43854097.6044520     
  -43861707.5025539     
  -43868906.0448347     
  -43875707.9576180     
  -43882127.5279297     
  -43888178.5922695     
  -43893874.5260952     
  -43899228.2340269     
  -43904252.1407859     
  -43908958.1828716     
  -43913357.8009968     
  -43917461.9332998     
  -43921281.0093515     
  -43924824.9449865     
  -43928103.1379852     
  -43931124.4646338     
  -43933897.2771939     
  -43936429.4023316     
  -43938728.1406026     
  -43940800.2667549     
  -43942652.0314967     
  -43101872.5035045     
  -43127963.8432852     
  -43153010.9563782     
  -43177037.6195360     
  -43200067.8040230     
  -43222125.6336437     
  -43243235.3450760     
  -43263421.2487882     
  -43282707.6913532     
  -43301119.0190211     
  -43318679.5424775     
  -43335413.5027938     
  -43351345.0385714     
  -43366498.1542635     
  -43380896.6896549     
  -43394564.2904746     
  -43407524.3801226     
  -43419800.1324839     
  -43431414.4458049     
  -43442389.9176046     
  -43452748.8205917     
  -43462513.0795564     
  -43471704.2492080     
  -43480343.4929264     
  -43488451.5623968     
  -43496048.7780964     
  -43503155.0106047     
  -43509789.6627060     
  -43515971.6522596     
  -43521719.3958090     
  -43527050.7929085     
  -43531983.2111457     
  -43536533.4718427     
  -43540717.8364195     
  -43544551.9934125     
  -43548051.0461379     
  -43551229.5009993     
  -43554101.2564439     
  -43556679.5925718     
  -43558977.1614154     
  -43561005.9779054     
  -43562777.4115464     
  -43564302.1788296     
  -43565590.3364216     
  -43566651.2751822     
  -43567493.7150711     
  -43568125.7009163     
  -43568554.5990134     
  -43568787.0954903     
  -43568829.1943672     
  -42834375.1150727     
  -42858619.4270094     
  -42881721.9214718     
  -42903712.0448950     
  -42924619.3747169     
  -42944473.5736318     
  -42963304.3414731     
  -42981141.3709731     
  -42998014.3047575     
  -43013952.6938027     
  -43028985.9575870     
  -43043143.3458912     
  -43056453.9021707     
  -43068946.4284538     
  -43080649.4517344     
  -43091591.1918263     
  -43101799.5306369     
  -43111301.9828148     
  -43120125.6677165     
  -43128297.2826469     
  -43135843.0773134     
  -43142788.8294409     
  -43149159.8214907     
  -43154980.8184229     
  -43160276.0464437     
  -43165069.1726773     
  -43169383.2857028     
  -43173240.8768977     
  -43176663.8225307     
  -43179673.3665485     
  -43182290.1040057     
  -43184533.9650886     
  -43186424.1996901     
  -43187979.3624948     
  -43189217.2985456     
  -43190155.1292600     
  -43190809.2388817     
  -43191195.2613503     
  -43191328.0675893     
  -43191221.7532132     
  -43190889.6266721     
  -43190344.1978617     
  -43189597.1672360     
  -43188659.4154492     
  -43187540.9935399     
  -43186251.1137344     
  -43184798.1411963     
  -43183189.5869080     
  -43181432.0990594     
  -43179531.4606370     
  -42576586.6736898     
  -42598241.9614680     
  -42618653.7417098     
  -42637858.3734023     
  -42655892.2474166     
  -42672791.7223338     
  -42688593.0776508     
  -42703332.4620205     
  -42717045.8445961     
  -42729768.9693270     
  -42741537.3113252     
  -42752386.0351611     
  -42762349.9551746     
  -42771463.4978181     
  -42779760.6659774     
  -42787275.0051893     
  -42794039.5716823     
  -42800086.9021658     
  -42805448.9852941     
  -42810157.2347264     
  -42814242.4636942     
  -42817734.8609856     
  -42820663.9682451     
  -42823058.6584897     
  -42824947.1157337     
  -42826356.8156176     
  -42827314.5069300     
  -42827846.1939164     
  -42827977.1192658     
  -42827731.7476698     
  -42827133.7498543     
  -42826205.9869825     
  -42824970.4953417     
  -42823448.4712283     
  -42821660.2559555     
  -42819625.3209193     
  -42817362.2526709     
  -42814888.7379535     
  -42812221.5486789     
  -42809376.5268241     
  -42806368.5692389     
  -42803211.6123688     
  -42799918.6169319     
  -42796501.5526664     
  -42792971.3832977     
  -42789338.0516410     
  -42785610.4641634     
  -42781796.4754828     
  -42777902.8809481     
  -42773935.3910545     
  -42331740.9798879     
  -42349888.3360517     
  -42366688.9867518     
  -42382187.6477702     
  -42396428.8778164     
  -42409457.0528215     
  -42421316.2878889     
  -42432050.3850207     
  -42441702.7828425     
  -42450316.5064338     
  -42457934.1196625     
  -42464597.6807357     
  -42470348.7007073     
  -42475228.1046343     
  -42479276.1952547     
  -42482532.6191394     
  -42485036.3352808     
  -42486825.5860405     
  -42487937.8703498     
  -42488409.9190364     
  -42488277.6721316     
  -42487576.2580150     
  -42486339.9742279     
  -42484602.2697943     
  -42482395.7288665     
  -42479752.0555093     
  -42476702.0594323     
  -42473275.6424720     
  -42469501.7856256     
  -42465408.5364421     
  -42461022.9965780     
  -42456371.3093303     
  -42451478.6469756     
  -42446369.1977453     
  -42441066.1522883     
  -42435591.6894803     
  -42429966.9614590     
  -42424212.0777834     
  -42418346.0886460     
  -42412386.9671006     
  -42406351.5903057     
  -42400255.7197826     
  -42394113.9806243     
  -42387939.8394915     
  -42381745.5814007     
  -42375542.2862541     
  -42369339.8071894     
  -42363146.7477017     
  -42356970.4154904     
  -42350816.8430967     
  -42103297.7032515     
  -42116804.1018195     
  -42128863.1671343     
  -42139529.5178611     
  -42148857.4812549     
  -42156900.8916626     
  -42163713.0908871     
  -42169346.8629314     
  -42173854.3677980     
  -42177287.0869864     
  -42179695.7751214     
  -42181130.4144231     
  -42181640.1718795     
  -42181273.3597867     
  -42180077.4000450     
  -42178098.7922279     
  -42175383.0852681     
  -42171974.8525612     
  -42167917.6703063     
  -42163254.0989078     
  -42158025.6672393     
  -42152272.8595585     
  -42146035.1048106     
  -42139350.7680369     
  -42132257.1435716     
  -42124790.4496949     
  -42116985.8243882     
  -42108877.3218372     
  -42100497.9093127     
  -42091879.4640701     
  -42083052.7699054     
  -42074047.5130208     
  -42064892.2768658     
  -42055614.5356473     
  -42046240.6462243     
  -42036795.8381381     
  -42027304.2015491     
  -42017788.6728795     
  -42008271.0179588     
  -41998771.8124952     
  -41989310.4197624     
  -41979904.9655677     
  -41970572.3108702     
  -41961328.0225043     
  -41952186.3415806     
  -41943160.1465326     
  -41934260.9073772     
  -41925498.6468614     
  -41916881.9649647     
  -41908417.8286657     
  -41894847.3899647     
  -41902323.3937712     
  -41908259.6408809     
  -41912722.7458632     
  -41915778.3206909     
  -41917491.3918037     
  -41917926.1234211     
  -41917145.7387719     
  -41915212.4826951     
  -41912187.5697456     
  -41908131.1255597     
  -41903102.1327716     
  -41897158.3849209     
  -41890356.4476521     
  -41882751.6259273     
  -41874397.9365792     
  -41865348.0860662     
  -41855653.4534923     
  -41845364.0788920     
  -41834528.6566339     
  -41823194.5336447     
  -41811407.7120369     
  -41799212.8556504     
  -41786653.2999541     
  -41773771.0647186     
  -41760606.8688429     
  -41747200.1466853     
  -41733589.0652387     
  -41719810.5414706     
  -41705900.2591563     
  -41691892.6845293     
  -41677821.0800978     
  -41663717.5159923     
  -41649612.8782525     
  -41635536.8735068     
  -41621518.0295733     
  -41607583.6916064     
  -41593760.0135324     
  -41580071.9446112     
  -41566543.2109766     
  -41553196.2918301     
  -41540052.3895810     
  -41527131.3929813     
  -41514451.8332346     
  -41502030.8368076     
  -41489884.0840693     
  -41478025.7751218     
  -41466468.5440248     
  -41455223.1997818     
  -41444299.2557342     
  -41709972.6073579     
  -41709723.2256486     
  -41707858.2309419     
  -41704457.3340744     
  -41699600.3431931     
  -41693365.2664910     
  -41685828.8080519     
  -41677066.3863665     
  -41667151.9826475     
  -41656158.0219988     
  -41644155.3023616     
  -41631212.9450037     
  -41617398.3511297     
  -41602777.1620412     
  -41587413.2254686     
  -41571368.5709260     
  -41554703.3955742     
  -41537476.0608228     
  -41519743.0991843     
  -41501559.2306056     
  -41482977.3874285     
  -41464048.7471299     
  -41444822.7719520     
  -41425347.2544639     
  -41405668.3679951     
  -41385830.7207674     
  -41365877.4124691     
  -41345850.0919442     
  -41325789.0146473     
  -41305733.0985431     
  -41285719.9771665     
  -41265786.0486558     
  -41245966.5196510     
  -41226295.4430438     
  -41206805.7486308     
  -41187529.2657705     
  -41168496.7371897     
  -41149737.8232036     
  -41131281.0959008     
  -41113154.0234346     
  -41095382.9454428     
  -41077993.0413003     
  -41061008.2920144     
  -41044451.4317031     
  -41028343.8750123     
  -41012705.6034094     
  -40997555.0394456     
  -40982909.0989965     
  -40968783.6083003     
  -40955191.1022668     
  -41552062.5526694     
  -41542028.8385979     
  -41530327.3102636     
  -41517057.9916285     
  -41502314.7486980     
  -41486191.5144618     
  -41468780.6205926     
  -41450172.0975215     
  -41430453.6451873     
  -41409710.6723105     
  -41388026.2525231     
  -41365481.0296188     
  -41342153.1218377     
  -41318118.0505735     
  -41293448.6988242     
  -41268215.2960563     
  -41242485.4247932     
  -41216324.0456379     
  -41189793.5390914     
  -41162953.7634951     
  -41135862.1286598     
  -41108573.6844675     
  -41081141.2232136     
  -41053615.3938916     
  -41026044.8261454     
  -40998476.2612482     
  -40970954.6872588     
  -40943523.4754130     
  -40916224.5148421     
  -40889098.3428444     
  -40862184.2681489     
  -40835520.4849258     
  -40809144.1756636     
  -40783091.6014591     
  -40757398.1786810     
  -40732098.5412909     
  -40707226.5882041     
  -40682815.5147915     
  -40658897.8268767     
  -40635505.3345598     
  -40612669.1227541     
  -40590419.4973949     
  -40568785.9139156     
  -40547796.9093849     
  -40527480.0726221     
  -40507862.0561018     
  -40488968.4639870     
  -40470823.1126711     
  -40453446.7084245     
  -40436863.7855462     
  -41424090.8513353     
  -41401761.8360261     
  -41377759.0695699     
  -41352190.2338150     
  -41325177.5777677     
  -41296835.8332354     
  -41267275.0977554     
  -41236602.8337929     
  -41204923.8792408     
  -41172339.8824614     
  -41138948.8401831     
  -41104844.8524656     
  -41070118.0246838     
  -41034854.4384455     
  -40999136.1492849     
  -40963041.1995004     
  -40926643.6501869     
  -40890013.6408838     
  -40853217.4837041     
  -40816317.7951340     
  -40779373.6650248     
  -40742440.8594686     
  -40705572.0524508     
  -40668817.0802437     
  -40632223.2122139     
  -40595835.4318266     
  -40559696.7219369     
  -40523848.3488443     
  -40488330.1399566     
  -40453180.7502381     
  -40418437.9129001     
  -40384138.6700983     
  -40350319.5797811     
  -40317016.8954436     
  -40284266.7164749     
  -40252105.1082049     
  -40220568.1926371     
  -40189692.2130023     
  -40159513.5769337     
  -40130068.8826893     
  -40101394.9278121     
  -40073528.6867924     
  -40046507.2230672     
  -40020367.4820949     
  -39995145.9392077     
  -39970878.2504596     
  -39947599.5032633     
  -39925346.0706272     
  -39904157.2053489     
  -39884051.6867926     
  -41328360.0725834     
  -41290658.6695241     
  -41251291.0858319     
  -41210449.4182968     
  -41168262.2036159     
  -41124865.1444500     
  -41080397.7291192     
  -41034995.7634570     
  -40988788.4643350     
  -40941898.1850730     
  -40894440.8298532     
  -40846526.1470479     
  -40798257.7599167     
  -40749733.0349649     
  -40701042.9209375     
  -40652271.8532941     
  -40603497.7719304     
  -40554792.2643247     
  -40506220.8248686     
  -40457843.2108849     
  -40409713.8727828     
  -40361882.4368397     
  -40314394.2220227     
  -40267290.7758105     
  -40220610.4173698     
  -40174388.7793583     
  -40128659.3418884     
  -40083453.9537768     
  -40038803.3371206     
  -39994737.5715278     
  -39951286.5540313     
  -39908480.4298774     
  -39866349.9880981     
  -39824927.0142224     
  -39784244.5909315     
  -39744337.3364838     
  -39705241.5712110     
  -39666995.4057430     
  -39629638.7527896     
  -39593213.2794515     
  -39557762.3400424     
  -39523330.9560828     
  -39489965.9221537     
  -39457716.0644441     
  -39426632.4617738     
  -39396767.9191465     
  -39368174.2425293     
  -39340896.4923401     
  -39314973.7176716     
  -39290509.8717532     
  -41266278.5746539     
  -41209196.3853289     
  -41150684.8378782     
  -41090774.3130557     
  -41029697.6071424     
  -40967671.4758575     
  -40904879.7548238     
  -40841487.3864954     
  -40777650.0113573     
  -40713516.7682401     
  -40649229.4557039     
  -40584920.5985638     
  -40520711.7129435     
  -40456712.2291444     
  -40393019.1132469     
  -40329717.0632542     
  -40266879.1171260     
  -40204567.5250221     
  -40142834.7698739     
  -40081724.6529856     
  -40021273.3888194     
  -39961510.6742245     
  -39902460.7127040     
  -39844143.1850248     
  -39786574.1646876     
  -39729766.9814507     
  -39673733.0389434     
  -39618482.5939313     
  -39564025.5053115     
  -39510371.9605942     
  -39457533.1864845     
  -39405522.1481065     
  -39354354.2381718     
  -39304047.9525909     
  -39254625.5421527     
  -39206113.6203515     
  -39158543.6947118     
  -39111952.5730645     
  -39066382.5786325     
  -39021881.4935183     
  -38978502.1516997     
  -38936301.6469299     
  -38895340.2597470     
  -38855680.5254338     
  -38817387.4520199     
  -38780531.6688569     
  -38745197.2101671     
  -38711489.9500199     
  -38679513.5135343     
  -38649165.2648552     
  -41238019.6079902     
  -41156478.5557424     
  -41073170.3688050     
  -40988996.5274820     
  -40904191.2583556     
  -40818914.6275175     
  -40733366.7350962     
  -40647779.2994709     
  -40562388.6636036     
  -40477415.4743834     
  -40393053.7229071     
  -40309466.6795984     
  -40226786.9837201     
  -40145118.9092913     
  -40064541.5776314     
  -39985112.4167710     
  -39906870.5009339     
  -39829839.5992072     
  -39754030.8722767     
  -39679445.2145380     
  -39606075.2678186     
  -39533907.1454841     
  -39462921.9094670     
  -39393096.8421297     
  -39324406.5523099     
  -39256823.9517433     
  -39190321.1350283     
  -39124870.1937680     
  -39060443.9936397     
  -38997016.9419562     
  -38934565.7727362     
  -38873070.3762591     
  -38812514.7002472     
  -38752887.7496806     
  -38694184.7108596     
  -38636408.2209992     
  -38579569.7944191     
  -38523691.3951310     
  -38468807.1046071     
  -38414964.7583276     
  -38362227.2928712     
  -38310673.3254019     
  -38260396.1474027     
  -38211499.8644960     
  -38164091.0619269     
  -38118265.0320391     
  -38074090.4423688     
  -38031615.4956173     
  -37990983.2411503     
  -37952947.2360380     
  -41242326.8678195     
  -41126596.3783376     
  -41011808.7132403     
  -40896328.1084121     
  -40780344.8070069     
  -40664511.4787048     
  -40549486.9780393     
  -40435806.9135320     
  -40323867.0270831     
  -40213941.1969105     
  -40106206.3968530     
  -40000765.6339663     
  -39897666.6348890     
  -39796916.3334083     
  -39698491.8531222     
  -39602348.7480436     
  -39508427.1583434     
  -39416656.4007179     
  -39326958.3890991     
  -39239250.1823968     
  -39153445.8805551     
  -39069458.0341285     
  -38987198.6913580     
  -38906580.1766355     
  -38827515.6724324     
  -38749919.6611376     
  -38673708.2723246     
  -38598799.5737219     
  -38525113.8399646     
  -38452573.8316838     
  -38381105.1186012     
  -38310636.4841714     
  -38241100.4564509     
  -38172434.0210386     
  -38104579.5883386     
  -38037486.3107243     
  -37971111.8776614     
  -37905424.9610426     
  -37840408.5411339     
  -37776064.4150168     
  -37712419.2641526     
  -37649532.6981272     
  -37587507.5858528     
  -37526502.4253957     
  -37466743.6665746     
  -37408530.6113497     
  -37352211.0151890     
  -37298066.4285319     
  -37245941.2090566     
  -37194164.9082118     
  -41275294.6010014     
  -41117191.7058269     
  -40951546.2128825     
  -40785623.4867756     
  -40622794.9574443     
  -40464594.5373890     
  -40311655.1037810     
  -40164154.0912507     
  -40022034.7120279     
  -39885120.1207292     
  -39753174.2877394     
  -39625935.2568320     
  -39503133.5603418     
  -39384502.4008324     
  -39269783.1458391     
  -39158728.1024942     
  -39051101.6943811     
  -38946680.6965859     
  -38845253.9196108     
  -38746621.5779460     
  -38650594.4866178     
  -38556993.1727770     
  -38465646.9546373     
  -38376393.0183630     
  -38289075.5098596     
  -38203544.6498490     
  -38119655.8753151     
  -38037269.0072851     
  -37956247.4433436     
  -37876457.3729325     
  -37797767.0143265     
  -37720045.8743548     
  -37643164.0359869     
  -37566991.4857485     
  -37491397.5042676     
  -37416250.1620098     
  -37341415.9935825     
  -37266759.9770935     
  -37192146.0367733     
  -37117438.4490387     
  -37042504.8254479     
  -36967221.8922657     
  -36891486.3359401     
  -36815235.0692983     
  -36738483.5670155     
  -36661400.0894144     
  -36584453.9373907     
  -36508722.5869713     
  -36436553.6775091     
  -36373050.9455629     
  -41314180.4647862     
  -41024941.1345796     
  -40766700.2504052     
  -40532109.1393109     
  -40316404.5330458     
  -40116288.2672601     
  -39929352.0639471     
  -39753762.4175430     
  -39588076.9336630     
  -39431131.0547282     
  -39281964.6330543     
  -39139772.2569747     
  -39003868.4071359     
  -38873662.2554759     
  -38748638.9574685     
  -38628345.4498915     
  -38512379.4557260     
  -38400380.8219892     
  -38292024.5859268     
  -38187015.3413264     
  -38085082.5949542     
  -37985976.8840668     
  -37889466.4823814     
  -37795334.5617393     
  -37703376.7050676     
  -37613398.6864304     
  -37525214.4481611     
  -37438644.2146345     
  -37353512.6881037     
  -37269647.2746143     
  -37186876.2874823     
  -37105027.0719770     
  -37023923.9871069     
  -36943386.1676947     
  -36863224.9704597     
  -36783240.9786806     
  -36703220.3964825     
  -36622930.5981365     
  -36542114.4969556     
  -36460483.2399497     
  -36377706.4783328     
  -36293399.0364572     
  -36207102.0615919     
  -36118255.4034001     
  -36026155.4640086     
  -35929887.8255195     
  -35828213.7972769     
  -35719368.1052983     
  -35600675.5457714     
  -35467778.4019851     
SCALARS 2waySource double 
LOOKUP_TABLE default
  0.000000000000000E+000
  0.000000000000000E+000
  0.000000000000000E+000
  0.000000000000000E+000
  0.000000000000000E+000
  0.000000000000000E+000
  0.000000000000000E+000
  0.000000000000000E+000
  0.000000000000000E+000
  0.000000000000000E+000
  0.000000000000000E+000
  0.000000000000000E+000
  0.000000000000000E+000
  0.000000000000000E+000
  0.000000000000000E+000
  0.000000000000000E+000
  0.000000000000000E+000
  0.000000000000000E+000
  0.000000000000000E+000
  0.000000000000000E+000
  0.000000000000000E+000
  0.000000000000000E+000
  0.000000000000000E+000
  0.000000000000000E+000
  0.000000000000000E+000
  0.000000000000000E+000
  0.000000000000000E+000
  0.000000000000000E+000
  0.000000000000000E+000
  0.000000000000000E+000
  0.000000000000000E+000
  0.000000000000000E+000
  0.000000000000000E+000
  0.000000000000000E+000
  0.000000000000000E+000
  0.000000000000000E+000
  0.000000000000000E+000
  0.000000000000000E+000
  0.000000000000000E+000
  0.000000000000000E+000
  0.000000000000000E+000
  0.000000000000000E+000
  0.000000000000000E+000
  0.000000000000000E+000
  0.000000000000000E+000
  0.000000000000000E+000
  0.000000000000000E+000
  0.000000000000000E+000
  0.000000000000000E+000
  0.000000000000000E+000
  0.000000000000000E+000
  0.000000000000000E+000
  0.000000000000000E+000
  0.000000000000000E+000
  0.000000000000000E+000
  0.000000000000000E+000
  0.000000000000000E+000
  0.000000000000000E+000
  0.000000000000000E+000
  0.000000000000000E+000
  0.000000000000000E+000
  0.000000000000000E+000
  0.000000000000000E+000
  0.000000000000000E+000
  0.000000000000000E+000
  0.000000000000000E+000
  0.000000000000000E+000
  0.000000000000000E+000
  0.000000000000000E+000
  0.000000000000000E+000
  0.000000000000000E+000
  0.000000000000000E+000
  0.000000000000000E+000
  0.000000000000000E+000
  0.000000000000000E+000
  0.000000000000000E+000
  0.000000000000000E+000
  0.000000000000000E+000
  0.000000000000000E+000
  0.000000000000000E+000
  0.000000000000000E+000
  0.000000000000000E+000
  0.000000000000000E+000
  0.000000000000000E+000
  0.000000000000000E+000
  0.000000000000000E+000
  0.000000000000000E+000
  0.000000000000000E+000
  0.000000000000000E+000
  0.000000000000000E+000
  0.000000000000000E+000
  0.000000000000000E+000
  0.000000000000000E+000
  0.000000000000000E+000
  0.000000000000000E+000
  0.000000000000000E+000
  0.000000000000000E+000
  0.000000000000000E+000
  0.000000000000000E+000
  0.000000000000000E+000
  0.000000000000000E+000
  0.000000000000000E+000
  0.000000000000000E+000
  0.000000000000000E+000
  0.000000000000000E+000
  0.000000000000000E+000
  0.000000000000000E+000
  0.000000000000000E+000
  0.000000000000000E+000
  0.000000000000000E+000
  0.000000000000000E+000
  0.000000000000000E+000
  0.000000000000000E+000
  0.000000000000000E+000
  0.000000000000000E+000
  0.000000000000000E+000
  0.000000000000000E+000
  0.000000000000000E+000
  0.000000000000000E+000
  0.000000000000000E+000
  0.000000000000000E+000
  0.000000000000000E+000
  0.000000000000000E+000
  0.000000000000000E+000
  0.000000000000000E+000
  0.000000000000000E+000
  0.000000000000000E+000
  0.000000000000000E+000
  0.000000000000000E+000
  0.000000000000000E+000
  0.000000000000000E+000
  0.000000000000000E+000
  0.000000000000000E+000
  0.000000000000000E+000
  0.000000000000000E+000
  0.000000000000000E+000
  0.000000000000000E+000
  0.000000000000000E+000
  0.000000000000000E+000
  0.000000000000000E+000
  0.000000000000000E+000
  0.000000000000000E+000
  0.000000000000000E+000
  0.000000000000000E+000
  0.000000000000000E+000
  0.000000000000000E+000
  0.000000000000000E+000
  0.000000000000000E+000
  0.000000000000000E+000
  0.000000000000000E+000
  0.000000000000000E+000
  0.000000000000000E+000
  0.000000000000000E+000
  0.000000000000000E+000
  0.000000000000000E+000
  0.000000000000000E+000
  0.000000000000000E+000
  0.000000000000000E+000
  0.000000000000000E+000
  0.000000000000000E+000
  0.000000000000000E+000
  0.000000000000000E+000
  0.000000000000000E+000
  0.000000000000000E+000
  0.000000000000000E+000
  0.000000000000000E+000
  0.000000000000000E+000
  0.000000000000000E+000
  0.000000000000000E+000
  0.000000000000000E+000
  0.000000000000000E+000
  0.000000000000000E+000
  0.000000000000000E+000
  0.000000000000000E+000
  0.000000000000000E+000
  0.000000000000000E+000
  0.000000000000000E+000
  0.000000000000000E+000
  0.000000000000000E+000
  0.000000000000000E+000
  0.000000000000000E+000
  0.000000000000000E+000
  0.000000000000000E+000
  0.000000000000000E+000
  0.000000000000000E+000
  0.000000000000000E+000
  0.000000000000000E+000
  0.000000000000000E+000
  0.000000000000000E+000
  0.000000000000000E+000
  0.000000000000000E+000
  0.000000000000000E+000
  0.000000000000000E+000
  0.000000000000000E+000
  0.000000000000000E+000
  0.000000000000000E+000
  0.000000000000000E+000
  0.000000000000000E+000
  0.000000000000000E+000
  0.000000000000000E+000
  0.000000000000000E+000
  0.000000000000000E+000
  0.000000000000000E+000
  0.000000000000000E+000
  0.000000000000000E+000
  0.000000000000000E+000
  0.000000000000000E+000
  0.000000000000000E+000
  0.000000000000000E+000
  0.000000000000000E+000
  0.000000000000000E+000
  0.000000000000000E+000
  0.000000000000000E+000
  0.000000000000000E+000
  0.000000000000000E+000
  0.000000000000000E+000
  0.000000000000000E+000
  0.000000000000000E+000
  0.000000000000000E+000
  0.000000000000000E+000
  0.000000000000000E+000
  0.000000000000000E+000
  0.000000000000000E+000
  0.000000000000000E+000
  0.000000000000000E+000
  0.000000000000000E+000
  0.000000000000000E+000
  0.000000000000000E+000
  0.000000000000000E+000
  0.000000000000000E+000
  0.000000000000000E+000
  0.000000000000000E+000
  0.000000000000000E+000
  0.000000000000000E+000
  0.000000000000000E+000
  0.000000000000000E+000
  0.000000000000000E+000
  0.000000000000000E+000
  0.000000000000000E+000
  0.000000000000000E+000
  0.000000000000000E+000
  0.000000000000000E+000
  0.000000000000000E+000
  0.000000000000000E+000
  0.000000000000000E+000
  0.000000000000000E+000
  0.000000000000000E+000
  0.000000000000000E+000
  0.000000000000000E+000
  0.000000000000000E+000
  0.000000000000000E+000
  0.000000000000000E+000
  0.000000000000000E+000
  0.000000000000000E+000
  0.000000000000000E+000
  0.000000000000000E+000
  0.000000000000000E+000
  0.000000000000000E+000
  0.000000000000000E+000
  0.000000000000000E+000
  0.000000000000000E+000
  0.000000000000000E+000
  0.000000000000000E+000
  0.000000000000000E+000
  0.000000000000000E+000
  0.000000000000000E+000
  0.000000000000000E+000
  0.000000000000000E+000
  0.000000000000000E+000
  0.000000000000000E+000
  0.000000000000000E+000
  0.000000000000000E+000
  0.000000000000000E+000
  0.000000000000000E+000
  0.000000000000000E+000
  0.000000000000000E+000
  0.000000000000000E+000
  0.000000000000000E+000
  0.000000000000000E+000
  0.000000000000000E+000
  0.000000000000000E+000
  0.000000000000000E+000
  0.000000000000000E+000
  0.000000000000000E+000
  0.000000000000000E+000
  0.000000000000000E+000
  0.000000000000000E+000
  0.000000000000000E+000
  0.000000000000000E+000
  0.000000000000000E+000
  0.000000000000000E+000
  0.000000000000000E+000
  0.000000000000000E+000
  0.000000000000000E+000
  0.000000000000000E+000
  0.000000000000000E+000
  0.000000000000000E+000
  0.000000000000000E+000
  0.000000000000000E+000
  0.000000000000000E+000
  0.000000000000000E+000
  0.000000000000000E+000
  0.000000000000000E+000
  0.000000000000000E+000
  0.000000000000000E+000
  0.000000000000000E+000
  0.000000000000000E+000
  0.000000000000000E+000
  0.000000000000000E+000
  0.000000000000000E+000
  0.000000000000000E+000
  0.000000000000000E+000
  0.000000000000000E+000
  0.000000000000000E+000
  0.000000000000000E+000
  0.000000000000000E+000
  0.000000000000000E+000
  0.000000000000000E+000
  0.000000000000000E+000
  0.000000000000000E+000
  0.000000000000000E+000
  0.000000000000000E+000
  0.000000000000000E+000
  0.000000000000000E+000
  0.000000000000000E+000
  0.000000000000000E+000
  0.000000000000000E+000
  0.000000000000000E+000
  0.000000000000000E+000
  0.000000000000000E+000
  0.000000000000000E+000
  0.000000000000000E+000
  0.000000000000000E+000
  0.000000000000000E+000
  0.000000000000000E+000
  0.000000000000000E+000
  0.000000000000000E+000
  0.000000000000000E+000
  0.000000000000000E+000
  0.000000000000000E+000
  0.000000000000000E+000
  0.000000000000000E+000
  0.000000000000000E+000
  0.000000000000000E+000
  0.000000000000000E+000
  0.000000000000000E+000
  0.000000000000000E+000
  0.000000000000000E+000
  0.000000000000000E+000
  0.000000000000000E+000
  0.000000000000000E+000
  0.000000000000000E+000
  0.000000000000000E+000
  0.000000000000000E+000
  0.000000000000000E+000
  0.000000000000000E+000
  0.000000000000000E+000
  0.000000000000000E+000
  0.000000000000000E+000
  0.000000000000000E+000
  0.000000000000000E+000
  0.000000000000000E+000
  0.000000000000000E+000
  0.000000000000000E+000
  0.000000000000000E+000
  0.000000000000000E+000
  0.000000000000000E+000
  0.000000000000000E+000
  0.000000000000000E+000
  0.000000000000000E+000
  0.000000000000000E+000
  0.000000000000000E+000
  0.000000000000000E+000
  0.000000000000000E+000
  0.000000000000000E+000
  0.000000000000000E+000
  0.000000000000000E+000
  0.000000000000000E+000
  0.000000000000000E+000
  0.000000000000000E+000
  0.000000000000000E+000
  0.000000000000000E+000
  0.000000000000000E+000
  0.000000000000000E+000
  0.000000000000000E+000
  0.000000000000000E+000
  0.000000000000000E+000
  0.000000000000000E+000
  0.000000000000000E+000
  0.000000000000000E+000
  0.000000000000000E+000
  0.000000000000000E+000
  0.000000000000000E+000
  0.000000000000000E+000
  0.000000000000000E+000
  0.000000000000000E+000
  0.000000000000000E+000
  0.000000000000000E+000
  0.000000000000000E+000
  0.000000000000000E+000
  0.000000000000000E+000
  0.000000000000000E+000
  0.000000000000000E+000
  0.000000000000000E+000
  0.000000000000000E+000
  0.000000000000000E+000
  0.000000000000000E+000
  0.000000000000000E+000
  0.000000000000000E+000
  0.000000000000000E+000
  0.000000000000000E+000
  0.000000000000000E+000
  0.000000000000000E+000
  0.000000000000000E+000
  0.000000000000000E+000
  0.000000000000000E+000
  0.000000000000000E+000
  0.000000000000000E+000
  0.000000000000000E+000
  0.000000000000000E+000
  0.000000000000000E+000
  0.000000000000000E+000
  0.000000000000000E+000
  0.000000000000000E+000
  0.000000000000000E+000
  0.000000000000000E+000
  0.000000000000000E+000
  0.000000000000000E+000
  0.000000000000000E+000
  0.000000000000000E+000
  0.000000000000000E+000
  0.000000000000000E+000
  0.000000000000000E+000
  0.000000000000000E+000
  0.000000000000000E+000
  0.000000000000000E+000
  0.000000000000000E+000
  0.000000000000000E+000
  0.000000000000000E+000
  0.000000000000000E+000
  0.000000000000000E+000
  0.000000000000000E+000
  0.000000000000000E+000
  0.000000000000000E+000
  0.000000000000000E+000
  0.000000000000000E+000
  0.000000000000000E+000
  0.000000000000000E+000
  0.000000000000000E+000
  0.000000000000000E+000
  0.000000000000000E+000
  0.000000000000000E+000
  0.000000000000000E+000
  0.000000000000000E+000
  0.000000000000000E+000
  0.000000000000000E+000
  0.000000000000000E+000
  0.000000000000000E+000
  0.000000000000000E+000
  0.000000000000000E+000
  0.000000000000000E+000
  0.000000000000000E+000
  0.000000000000000E+000
  0.000000000000000E+000
  0.000000000000000E+000
  0.000000000000000E+000
  0.000000000000000E+000
  0.000000000000000E+000
  0.000000000000000E+000
  0.000000000000000E+000
  0.000000000000000E+000
  0.000000000000000E+000
  0.000000000000000E+000
  0.000000000000000E+000
  0.000000000000000E+000
  0.000000000000000E+000
  0.000000000000000E+000
  0.000000000000000E+000
  0.000000000000000E+000
  0.000000000000000E+000
  0.000000000000000E+000
  0.000000000000000E+000
  0.000000000000000E+000
  0.000000000000000E+000
  0.000000000000000E+000
  0.000000000000000E+000
  0.000000000000000E+000
  0.000000000000000E+000
  0.000000000000000E+000
  0.000000000000000E+000
  0.000000000000000E+000
  0.000000000000000E+000
  0.000000000000000E+000
  0.000000000000000E+000
  0.000000000000000E+000
  0.000000000000000E+000
  0.000000000000000E+000
  0.000000000000000E+000
  0.000000000000000E+000
  0.000000000000000E+000
  0.000000000000000E+000
  0.000000000000000E+000
  0.000000000000000E+000
  0.000000000000000E+000
  0.000000000000000E+000
  0.000000000000000E+000
  0.000000000000000E+000
  0.000000000000000E+000
  0.000000000000000E+000
  0.000000000000000E+000
  0.000000000000000E+000
  0.000000000000000E+000
  0.000000000000000E+000
  0.000000000000000E+000
  0.000000000000000E+000
  0.000000000000000E+000
  0.000000000000000E+000
  0.000000000000000E+000
  0.000000000000000E+000
  0.000000000000000E+000
  0.000000000000000E+000
  0.000000000000000E+000
  0.000000000000000E+000
  0.000000000000000E+000
  0.000000000000000E+000
  0.000000000000000E+000
  0.000000000000000E+000
  0.000000000000000E+000
  0.000000000000000E+000
  0.000000000000000E+000
  0.000000000000000E+000
  0.000000000000000E+000
  0.000000000000000E+000
  0.000000000000000E+000
  0.000000000000000E+000
  0.000000000000000E+000
  0.000000000000000E+000
  0.000000000000000E+000
  0.000000000000000E+000
  0.000000000000000E+000
  0.000000000000000E+000
  0.000000000000000E+000
  0.000000000000000E+000
  0.000000000000000E+000
  0.000000000000000E+000
  0.000000000000000E+000
  0.000000000000000E+000
  0.000000000000000E+000
  0.000000000000000E+000
  0.000000000000000E+000
  0.000000000000000E+000
  0.000000000000000E+000
  0.000000000000000E+000
  0.000000000000000E+000
  0.000000000000000E+000
  0.000000000000000E+000
  0.000000000000000E+000
  0.000000000000000E+000
  0.000000000000000E+000
  0.000000000000000E+000
  0.000000000000000E+000
  0.000000000000000E+000
  0.000000000000000E+000
  0.000000000000000E+000
  0.000000000000000E+000
  0.000000000000000E+000
  0.000000000000000E+000
  0.000000000000000E+000
  0.000000000000000E+000
  0.000000000000000E+000
  0.000000000000000E+000
  0.000000000000000E+000
  0.000000000000000E+000
  0.000000000000000E+000
  0.000000000000000E+000
  0.000000000000000E+000
  0.000000000000000E+000
  0.000000000000000E+000
  0.000000000000000E+000
  0.000000000000000E+000
  0.000000000000000E+000
  0.000000000000000E+000
  0.000000000000000E+000
  0.000000000000000E+000
  0.000000000000000E+000
  0.000000000000000E+000
  0.000000000000000E+000
  0.000000000000000E+000
  0.000000000000000E+000
  0.000000000000000E+000
  0.000000000000000E+000
  0.000000000000000E+000
  0.000000000000000E+000
  0.000000000000000E+000
  0.000000000000000E+000
  0.000000000000000E+000
  0.000000000000000E+000
  0.000000000000000E+000
  0.000000000000000E+000
  0.000000000000000E+000
  0.000000000000000E+000
  0.000000000000000E+000
  0.000000000000000E+000
  0.000000000000000E+000
  0.000000000000000E+000
  0.000000000000000E+000
  0.000000000000000E+000
  0.000000000000000E+000
  0.000000000000000E+000
  0.000000000000000E+000
  0.000000000000000E+000
  0.000000000000000E+000
  0.000000000000000E+000
  0.000000000000000E+000
  0.000000000000000E+000
  0.000000000000000E+000
  0.000000000000000E+000
  0.000000000000000E+000
  0.000000000000000E+000
  0.000000000000000E+000
  0.000000000000000E+000
  0.000000000000000E+000
  0.000000000000000E+000
  0.000000000000000E+000
  0.000000000000000E+000
  0.000000000000000E+000
  0.000000000000000E+000
  0.000000000000000E+000
  0.000000000000000E+000
  0.000000000000000E+000
  0.000000000000000E+000
  0.000000000000000E+000
  0.000000000000000E+000
  0.000000000000000E+000
  0.000000000000000E+000
  0.000000000000000E+000
  0.000000000000000E+000
  0.000000000000000E+000
  0.000000000000000E+000
  0.000000000000000E+000
  0.000000000000000E+000
  0.000000000000000E+000
  0.000000000000000E+000
  0.000000000000000E+000
  0.000000000000000E+000
  0.000000000000000E+000
  0.000000000000000E+000
  0.000000000000000E+000
  0.000000000000000E+000
  0.000000000000000E+000
  0.000000000000000E+000
  0.000000000000000E+000
  0.000000000000000E+000
  0.000000000000000E+000
  0.000000000000000E+000
  0.000000000000000E+000
  0.000000000000000E+000
  0.000000000000000E+000
  0.000000000000000E+000
  0.000000000000000E+000
  0.000000000000000E+000
  0.000000000000000E+000
  0.000000000000000E+000
  0.000000000000000E+000
  0.000000000000000E+000
  0.000000000000000E+000
  0.000000000000000E+000
  0.000000000000000E+000
  0.000000000000000E+000
  0.000000000000000E+000
  0.000000000000000E+000
  0.000000000000000E+000
  0.000000000000000E+000
  0.000000000000000E+000
  0.000000000000000E+000
  0.000000000000000E+000
  0.000000000000000E+000
  0.000000000000000E+000
  0.000000000000000E+000
  0.000000000000000E+000
  0.000000000000000E+000
  0.000000000000000E+000
  0.000000000000000E+000
  0.000000000000000E+000
  0.000000000000000E+000
  0.000000000000000E+000
  0.000000000000000E+000
  0.000000000000000E+000
  0.000000000000000E+000
  0.000000000000000E+000
  0.000000000000000E+000
  0.000000000000000E+000
  0.000000000000000E+000
  0.000000000000000E+000
  0.000000000000000E+000
  0.000000000000000E+000
  0.000000000000000E+000
  0.000000000000000E+000
  0.000000000000000E+000
  0.000000000000000E+000
  0.000000000000000E+000
  0.000000000000000E+000
  0.000000000000000E+000
  0.000000000000000E+000
  0.000000000000000E+000
  0.000000000000000E+000
  0.000000000000000E+000
  0.000000000000000E+000
  0.000000000000000E+000
  0.000000000000000E+000
  0.000000000000000E+000
  0.000000000000000E+000
  0.000000000000000E+000
  0.000000000000000E+000
  0.000000000000000E+000
  0.000000000000000E+000
  0.000000000000000E+000
  0.000000000000000E+000
  0.000000000000000E+000
  0.000000000000000E+000
  0.000000000000000E+000
  0.000000000000000E+000
  0.000000000000000E+000
  0.000000000000000E+000
  0.000000000000000E+000
  0.000000000000000E+000
  0.000000000000000E+000
  0.000000000000000E+000
  0.000000000000000E+000
  0.000000000000000E+000
  0.000000000000000E+000
  0.000000000000000E+000
  0.000000000000000E+000
  0.000000000000000E+000
  0.000000000000000E+000
  0.000000000000000E+000
  0.000000000000000E+000
  0.000000000000000E+000
  0.000000000000000E+000
  0.000000000000000E+000
  0.000000000000000E+000
  0.000000000000000E+000
  0.000000000000000E+000
  0.000000000000000E+000
  0.000000000000000E+000
  0.000000000000000E+000
  0.000000000000000E+000
  0.000000000000000E+000
  0.000000000000000E+000
  0.000000000000000E+000
  0.000000000000000E+000
  0.000000000000000E+000
  0.000000000000000E+000
  0.000000000000000E+000
  0.000000000000000E+000
  0.000000000000000E+000
  0.000000000000000E+000
  0.000000000000000E+000
  0.000000000000000E+000
  0.000000000000000E+000
  0.000000000000000E+000
  0.000000000000000E+000
  0.000000000000000E+000
  0.000000000000000E+000
  0.000000000000000E+000
  0.000000000000000E+000
  0.000000000000000E+000
  0.000000000000000E+000
  0.000000000000000E+000
  0.000000000000000E+000
  0.000000000000000E+000
  0.000000000000000E+000
  0.000000000000000E+000
  0.000000000000000E+000
  0.000000000000000E+000
  0.000000000000000E+000
  0.000000000000000E+000
  0.000000000000000E+000
  0.000000000000000E+000
  0.000000000000000E+000
  0.000000000000000E+000
  0.000000000000000E+000
  0.000000000000000E+000
  0.000000000000000E+000
  0.000000000000000E+000
  0.000000000000000E+000
  0.000000000000000E+000
  0.000000000000000E+000
  0.000000000000000E+000
  0.000000000000000E+000
  0.000000000000000E+000
  0.000000000000000E+000
  0.000000000000000E+000
  0.000000000000000E+000
  0.000000000000000E+000
  0.000000000000000E+000
  0.000000000000000E+000
  0.000000000000000E+000
  0.000000000000000E+000
  0.000000000000000E+000
  0.000000000000000E+000
  0.000000000000000E+000
  0.000000000000000E+000
  0.000000000000000E+000
  0.000000000000000E+000
  0.000000000000000E+000
  0.000000000000000E+000
  0.000000000000000E+000
  0.000000000000000E+000
  0.000000000000000E+000
  0.000000000000000E+000
  0.000000000000000E+000
  0.000000000000000E+000
  0.000000000000000E+000
  0.000000000000000E+000
  0.000000000000000E+000
  0.000000000000000E+000
  0.000000000000000E+000
  0.000000000000000E+000
  0.000000000000000E+000
  0.000000000000000E+000
  0.000000000000000E+000
  0.000000000000000E+000
  0.000000000000000E+000
  0.000000000000000E+000
  0.000000000000000E+000
  0.000000000000000E+000
  0.000000000000000E+000
  0.000000000000000E+000
  0.000000000000000E+000
  0.000000000000000E+000
  0.000000000000000E+000
  0.000000000000000E+000
  0.000000000000000E+000
  0.000000000000000E+000
  0.000000000000000E+000
  0.000000000000000E+000
  0.000000000000000E+000
  0.000000000000000E+000
  0.000000000000000E+000
  0.000000000000000E+000
  0.000000000000000E+000
  0.000000000000000E+000
  0.000000000000000E+000
  0.000000000000000E+000
  0.000000000000000E+000
  0.000000000000000E+000
  0.000000000000000E+000
  0.000000000000000E+000
  0.000000000000000E+000
  0.000000000000000E+000
  0.000000000000000E+000
  0.000000000000000E+000
  0.000000000000000E+000
  0.000000000000000E+000
  0.000000000000000E+000
  0.000000000000000E+000
  0.000000000000000E+000
  0.000000000000000E+000
  0.000000000000000E+000
  0.000000000000000E+000
  0.000000000000000E+000
  0.000000000000000E+000
  0.000000000000000E+000
  0.000000000000000E+000
  0.000000000000000E+000
  0.000000000000000E+000
  0.000000000000000E+000
  0.000000000000000E+000
  0.000000000000000E+000
  0.000000000000000E+000
  0.000000000000000E+000
  0.000000000000000E+000
  0.000000000000000E+000
  0.000000000000000E+000
  0.000000000000000E+000
  0.000000000000000E+000
  0.000000000000000E+000
  0.000000000000000E+000
  0.000000000000000E+000
  0.000000000000000E+000
  0.000000000000000E+000
  0.000000000000000E+000
  0.000000000000000E+000
  0.000000000000000E+000
  0.000000000000000E+000
  0.000000000000000E+000
  0.000000000000000E+000
  0.000000000000000E+000
  0.000000000000000E+000
  0.000000000000000E+000
  0.000000000000000E+000
  0.000000000000000E+000
  0.000000000000000E+000
  0.000000000000000E+000
  0.000000000000000E+000
  0.000000000000000E+000
  0.000000000000000E+000
  0.000000000000000E+000
  0.000000000000000E+000
  0.000000000000000E+000
  0.000000000000000E+000
  0.000000000000000E+000
  0.000000000000000E+000
  0.000000000000000E+000
  0.000000000000000E+000
  0.000000000000000E+000
  0.000000000000000E+000
  0.000000000000000E+000
  0.000000000000000E+000
  0.000000000000000E+000
  0.000000000000000E+000
  0.000000000000000E+000
  0.000000000000000E+000
  0.000000000000000E+000
  0.000000000000000E+000
  0.000000000000000E+000
  0.000000000000000E+000
  0.000000000000000E+000
  0.000000000000000E+000
  0.000000000000000E+000
  0.000000000000000E+000
  0.000000000000000E+000
  0.000000000000000E+000
  0.000000000000000E+000
  0.000000000000000E+000
  0.000000000000000E+000
  0.000000000000000E+000
  0.000000000000000E+000
  0.000000000000000E+000
  0.000000000000000E+000
  0.000000000000000E+000
  0.000000000000000E+000
  0.000000000000000E+000
  0.000000000000000E+000
  0.000000000000000E+000
  0.000000000000000E+000
  0.000000000000000E+000
  0.000000000000000E+000
  0.000000000000000E+000
  0.000000000000000E+000
  0.000000000000000E+000
  0.000000000000000E+000
  0.000000000000000E+000
  0.000000000000000E+000
  0.000000000000000E+000
  0.000000000000000E+000
  0.000000000000000E+000
  0.000000000000000E+000
  0.000000000000000E+000
  0.000000000000000E+000
  0.000000000000000E+000
  0.000000000000000E+000
  0.000000000000000E+000
  0.000000000000000E+000
  0.000000000000000E+000
  0.000000000000000E+000
  0.000000000000000E+000
  0.000000000000000E+000
  0.000000000000000E+000
  0.000000000000000E+000
  0.000000000000000E+000
  0.000000000000000E+000
  0.000000000000000E+000
  0.000000000000000E+000
  0.000000000000000E+000
  0.000000000000000E+000
  0.000000000000000E+000
  0.000000000000000E+000
  0.000000000000000E+000
  0.000000000000000E+000
  0.000000000000000E+000
  0.000000000000000E+000
  0.000000000000000E+000
  0.000000000000000E+000
  0.000000000000000E+000
  0.000000000000000E+000
  0.000000000000000E+000
  0.000000000000000E+000
  0.000000000000000E+000
  0.000000000000000E+000
  0.000000000000000E+000
  0.000000000000000E+000
  0.000000000000000E+000
  0.000000000000000E+000
  0.000000000000000E+000
  0.000000000000000E+000
  0.000000000000000E+000
  0.000000000000000E+000
  0.000000000000000E+000
  0.000000000000000E+000
  0.000000000000000E+000
  0.000000000000000E+000
  0.000000000000000E+000
  0.000000000000000E+000
  0.000000000000000E+000
  0.000000000000000E+000
  0.000000000000000E+000
  0.000000000000000E+000
  0.000000000000000E+000
  0.000000000000000E+000
  0.000000000000000E+000
  0.000000000000000E+000
  0.000000000000000E+000
  0.000000000000000E+000
  0.000000000000000E+000
  0.000000000000000E+000
  0.000000000000000E+000
  0.000000000000000E+000
  0.000000000000000E+000
  0.000000000000000E+000
  0.000000000000000E+000
  0.000000000000000E+000
  0.000000000000000E+000
  0.000000000000000E+000
  0.000000000000000E+000
  0.000000000000000E+000
  0.000000000000000E+000
  0.000000000000000E+000
  0.000000000000000E+000
  0.000000000000000E+000
  0.000000000000000E+000
  0.000000000000000E+000
  0.000000000000000E+000
  0.000000000000000E+000
  0.000000000000000E+000
  0.000000000000000E+000
  0.000000000000000E+000
  0.000000000000000E+000
  0.000000000000000E+000
  0.000000000000000E+000
  0.000000000000000E+000
  0.000000000000000E+000
  0.000000000000000E+000
  0.000000000000000E+000
  0.000000000000000E+000
  0.000000000000000E+000
  0.000000000000000E+000
  0.000000000000000E+000
  0.000000000000000E+000
  0.000000000000000E+000
  0.000000000000000E+000
  0.000000000000000E+000
  0.000000000000000E+000
  0.000000000000000E+000
  0.000000000000000E+000
  0.000000000000000E+000
  0.000000000000000E+000
  0.000000000000000E+000
  0.000000000000000E+000
  0.000000000000000E+000
  0.000000000000000E+000
  0.000000000000000E+000
  0.000000000000000E+000
  0.000000000000000E+000
  0.000000000000000E+000
  0.000000000000000E+000
  0.000000000000000E+000
  0.000000000000000E+000
  0.000000000000000E+000
  0.000000000000000E+000
  0.000000000000000E+000
  0.000000000000000E+000
  0.000000000000000E+000
  0.000000000000000E+000
  0.000000000000000E+000
  0.000000000000000E+000
  0.000000000000000E+000
  0.000000000000000E+000
  0.000000000000000E+000
  0.000000000000000E+000
  0.000000000000000E+000
  0.000000000000000E+000
  0.000000000000000E+000
  0.000000000000000E+000
  0.000000000000000E+000
  0.000000000000000E+000
  0.000000000000000E+000
  0.000000000000000E+000
  0.000000000000000E+000
  0.000000000000000E+000
  0.000000000000000E+000
  0.000000000000000E+000
  0.000000000000000E+000
  0.000000000000000E+000
  0.000000000000000E+000
  0.000000000000000E+000
  0.000000000000000E+000
  0.000000000000000E+000
  0.000000000000000E+000
  0.000000000000000E+000
  0.000000000000000E+000
  0.000000000000000E+000
  0.000000000000000E+000
  0.000000000000000E+000
  0.000000000000000E+000
  0.000000000000000E+000
  0.000000000000000E+000
  0.000000000000000E+000
  0.000000000000000E+000
  0.000000000000000E+000
  0.000000000000000E+000
  0.000000000000000E+000
  0.000000000000000E+000
  0.000000000000000E+000
  0.000000000000000E+000
  0.000000000000000E+000
  0.000000000000000E+000
  0.000000000000000E+000
  0.000000000000000E+000
  0.000000000000000E+000
  0.000000000000000E+000
  0.000000000000000E+000
  0.000000000000000E+000
  0.000000000000000E+000
  0.000000000000000E+000
  0.000000000000000E+000
  0.000000000000000E+000
  0.000000000000000E+000
  0.000000000000000E+000
  0.000000000000000E+000
  0.000000000000000E+000
  0.000000000000000E+000
  0.000000000000000E+000
  0.000000000000000E+000
  0.000000000000000E+000
  0.000000000000000E+000
  0.000000000000000E+000
  0.000000000000000E+000
  0.000000000000000E+000
  0.000000000000000E+000
  0.000000000000000E+000
  0.000000000000000E+000
  0.000000000000000E+000
  0.000000000000000E+000
  0.000000000000000E+000
  0.000000000000000E+000
  0.000000000000000E+000
  0.000000000000000E+000
  0.000000000000000E+000
  0.000000000000000E+000
  0.000000000000000E+000
  0.000000000000000E+000
  0.000000000000000E+000
  0.000000000000000E+000
  0.000000000000000E+000
  0.000000000000000E+000
  0.000000000000000E+000
  0.000000000000000E+000
  0.000000000000000E+000
  0.000000000000000E+000
  0.000000000000000E+000
  0.000000000000000E+000
  0.000000000000000E+000
  0.000000000000000E+000
  0.000000000000000E+000
  0.000000000000000E+000
  0.000000000000000E+000
  0.000000000000000E+000
  0.000000000000000E+000
  0.000000000000000E+000
  0.000000000000000E+000
  0.000000000000000E+000
  0.000000000000000E+000
  0.000000000000000E+000
  0.000000000000000E+000
  0.000000000000000E+000
  0.000000000000000E+000
  0.000000000000000E+000
  0.000000000000000E+000
  0.000000000000000E+000
  0.000000000000000E+000
  0.000000000000000E+000
  0.000000000000000E+000
  0.000000000000000E+000
  0.000000000000000E+000
  0.000000000000000E+000
  0.000000000000000E+000
  0.000000000000000E+000
  0.000000000000000E+000
  0.000000000000000E+000
  0.000000000000000E+000
  0.000000000000000E+000
  0.000000000000000E+000
  0.000000000000000E+000
  0.000000000000000E+000
  0.000000000000000E+000
  0.000000000000000E+000
  0.000000000000000E+000
  0.000000000000000E+000
  0.000000000000000E+000
  0.000000000000000E+000
  0.000000000000000E+000
  0.000000000000000E+000
  0.000000000000000E+000
  0.000000000000000E+000
  0.000000000000000E+000
  0.000000000000000E+000
  0.000000000000000E+000
  0.000000000000000E+000
  0.000000000000000E+000
  0.000000000000000E+000
  0.000000000000000E+000
  0.000000000000000E+000
  0.000000000000000E+000
  0.000000000000000E+000
  0.000000000000000E+000
  0.000000000000000E+000
  0.000000000000000E+000
  0.000000000000000E+000
  0.000000000000000E+000
  0.000000000000000E+000
  0.000000000000000E+000
  0.000000000000000E+000
  0.000000000000000E+000
  0.000000000000000E+000
  0.000000000000000E+000
  0.000000000000000E+000
  0.000000000000000E+000
  0.000000000000000E+000
  0.000000000000000E+000
  0.000000000000000E+000
  0.000000000000000E+000
  0.000000000000000E+000
  0.000000000000000E+000
  0.000000000000000E+000
  0.000000000000000E+000
  0.000000000000000E+000
  0.000000000000000E+000
  0.000000000000000E+000
  0.000000000000000E+000
  0.000000000000000E+000
  0.000000000000000E+000
  0.000000000000000E+000
  0.000000000000000E+000
  0.000000000000000E+000
  0.000000000000000E+000
  0.000000000000000E+000
  0.000000000000000E+000
  0.000000000000000E+000
  0.000000000000000E+000
  0.000000000000000E+000
  0.000000000000000E+000
  0.000000000000000E+000
  0.000000000000000E+000
  0.000000000000000E+000
  0.000000000000000E+000
  0.000000000000000E+000
  0.000000000000000E+000
  0.000000000000000E+000
  0.000000000000000E+000
  0.000000000000000E+000
  0.000000000000000E+000
  0.000000000000000E+000
  0.000000000000000E+000
  0.000000000000000E+000
  0.000000000000000E+000
  0.000000000000000E+000
  0.000000000000000E+000
  0.000000000000000E+000
  0.000000000000000E+000
  0.000000000000000E+000
  0.000000000000000E+000
  0.000000000000000E+000
  0.000000000000000E+000
  0.000000000000000E+000
  0.000000000000000E+000
  0.000000000000000E+000
  0.000000000000000E+000
  0.000000000000000E+000
  0.000000000000000E+000
  0.000000000000000E+000
  0.000000000000000E+000
  0.000000000000000E+000
  0.000000000000000E+000
  0.000000000000000E+000
  0.000000000000000E+000
  0.000000000000000E+000
  0.000000000000000E+000
  0.000000000000000E+000
  0.000000000000000E+000
  0.000000000000000E+000
  0.000000000000000E+000
  0.000000000000000E+000
  0.000000000000000E+000
  0.000000000000000E+000
  0.000000000000000E+000
  0.000000000000000E+000
  0.000000000000000E+000
  0.000000000000000E+000
  0.000000000000000E+000
  0.000000000000000E+000
  0.000000000000000E+000
  0.000000000000000E+000
  0.000000000000000E+000
  0.000000000000000E+000
  0.000000000000000E+000
  0.000000000000000E+000
  0.000000000000000E+000
  0.000000000000000E+000
  0.000000000000000E+000
  0.000000000000000E+000
  0.000000000000000E+000
  0.000000000000000E+000
  0.000000000000000E+000
  0.000000000000000E+000
  0.000000000000000E+000
  0.000000000000000E+000
  0.000000000000000E+000
  0.000000000000000E+000
  0.000000000000000E+000
  0.000000000000000E+000
  0.000000000000000E+000
  0.000000000000000E+000
  0.000000000000000E+000
  0.000000000000000E+000
  0.000000000000000E+000
  0.000000000000000E+000
  0.000000000000000E+000
  0.000000000000000E+000
  0.000000000000000E+000
  0.000000000000000E+000
  0.000000000000000E+000
  0.000000000000000E+000
  0.000000000000000E+000
  0.000000000000000E+000
  0.000000000000000E+000
  0.000000000000000E+000
  0.000000000000000E+000
  0.000000000000000E+000
  0.000000000000000E+000
  0.000000000000000E+000
  0.000000000000000E+000
  0.000000000000000E+000
  0.000000000000000E+000
  0.000000000000000E+000
  0.000000000000000E+000
  0.000000000000000E+000
  0.000000000000000E+000
  0.000000000000000E+000
  0.000000000000000E+000
  0.000000000000000E+000
  0.000000000000000E+000
  0.000000000000000E+000
  0.000000000000000E+000
  0.000000000000000E+000
  0.000000000000000E+000
  0.000000000000000E+000
  0.000000000000000E+000
  0.000000000000000E+000
  0.000000000000000E+000
  0.000000000000000E+000
  0.000000000000000E+000
  0.000000000000000E+000
  0.000000000000000E+000
  0.000000000000000E+000
  0.000000000000000E+000
  0.000000000000000E+000
  0.000000000000000E+000
  0.000000000000000E+000
  0.000000000000000E+000
  0.000000000000000E+000
  0.000000000000000E+000
  0.000000000000000E+000
  0.000000000000000E+000
  0.000000000000000E+000
  0.000000000000000E+000
  0.000000000000000E+000
  0.000000000000000E+000
  0.000000000000000E+000
  0.000000000000000E+000
  0.000000000000000E+000
  0.000000000000000E+000
  0.000000000000000E+000
  0.000000000000000E+000
  0.000000000000000E+000
  0.000000000000000E+000
  0.000000000000000E+000
  0.000000000000000E+000
  0.000000000000000E+000
  0.000000000000000E+000
  0.000000000000000E+000
  0.000000000000000E+000
  0.000000000000000E+000
  0.000000000000000E+000
  0.000000000000000E+000
  0.000000000000000E+000
  0.000000000000000E+000
  0.000000000000000E+000
  0.000000000000000E+000
  0.000000000000000E+000
  0.000000000000000E+000
  0.000000000000000E+000
  0.000000000000000E+000
  0.000000000000000E+000
  0.000000000000000E+000
  0.000000000000000E+000
  0.000000000000000E+000
  0.000000000000000E+000
  0.000000000000000E+000
  0.000000000000000E+000
  0.000000000000000E+000
  0.000000000000000E+000
  0.000000000000000E+000
  0.000000000000000E+000
  0.000000000000000E+000
  0.000000000000000E+000
  0.000000000000000E+000
  0.000000000000000E+000
  0.000000000000000E+000
  0.000000000000000E+000
  0.000000000000000E+000
  0.000000000000000E+000
  0.000000000000000E+000
  0.000000000000000E+000
  0.000000000000000E+000
  0.000000000000000E+000
  0.000000000000000E+000
  0.000000000000000E+000
  0.000000000000000E+000
  0.000000000000000E+000
  0.000000000000000E+000
  0.000000000000000E+000
  0.000000000000000E+000
  0.000000000000000E+000
  0.000000000000000E+000
  0.000000000000000E+000
  0.000000000000000E+000
  0.000000000000000E+000
  0.000000000000000E+000
  0.000000000000000E+000
  0.000000000000000E+000
  0.000000000000000E+000
  0.000000000000000E+000
  0.000000000000000E+000
  0.000000000000000E+000
  0.000000000000000E+000
  0.000000000000000E+000
  0.000000000000000E+000
  0.000000000000000E+000
  0.000000000000000E+000
  0.000000000000000E+000
  0.000000000000000E+000
  0.000000000000000E+000
  0.000000000000000E+000
  0.000000000000000E+000
  0.000000000000000E+000
  0.000000000000000E+000
  0.000000000000000E+000
  0.000000000000000E+000
  0.000000000000000E+000
  0.000000000000000E+000
  0.000000000000000E+000
  0.000000000000000E+000
  0.000000000000000E+000
  0.000000000000000E+000
  0.000000000000000E+000
  0.000000000000000E+000
  0.000000000000000E+000
  0.000000000000000E+000
  0.000000000000000E+000
  0.000000000000000E+000
  0.000000000000000E+000
  0.000000000000000E+000
  0.000000000000000E+000
  0.000000000000000E+000
  0.000000000000000E+000
  0.000000000000000E+000
  0.000000000000000E+000
  0.000000000000000E+000
  0.000000000000000E+000
  0.000000000000000E+000
  0.000000000000000E+000
  0.000000000000000E+000
  0.000000000000000E+000
  0.000000000000000E+000
  0.000000000000000E+000
  0.000000000000000E+000
  0.000000000000000E+000
  0.000000000000000E+000
  0.000000000000000E+000
  0.000000000000000E+000
  0.000000000000000E+000
  0.000000000000000E+000
  0.000000000000000E+000
  0.000000000000000E+000
  0.000000000000000E+000
  0.000000000000000E+000
  0.000000000000000E+000
  0.000000000000000E+000
  0.000000000000000E+000
  0.000000000000000E+000
  0.000000000000000E+000
  0.000000000000000E+000
  0.000000000000000E+000
  0.000000000000000E+000
  0.000000000000000E+000
  0.000000000000000E+000
  0.000000000000000E+000
  0.000000000000000E+000
  0.000000000000000E+000
  0.000000000000000E+000
  0.000000000000000E+000
  0.000000000000000E+000
  0.000000000000000E+000
  0.000000000000000E+000
  0.000000000000000E+000
  0.000000000000000E+000
  0.000000000000000E+000
  0.000000000000000E+000
  0.000000000000000E+000
  0.000000000000000E+000
  0.000000000000000E+000
  0.000000000000000E+000
  0.000000000000000E+000
  0.000000000000000E+000
  0.000000000000000E+000
  0.000000000000000E+000
  0.000000000000000E+000
  0.000000000000000E+000
  0.000000000000000E+000
  0.000000000000000E+000
  0.000000000000000E+000
  0.000000000000000E+000
  0.000000000000000E+000
  0.000000000000000E+000
  0.000000000000000E+000
  0.000000000000000E+000
  0.000000000000000E+000
  0.000000000000000E+000
  0.000000000000000E+000
  0.000000000000000E+000
  0.000000000000000E+000
  0.000000000000000E+000
  0.000000000000000E+000
  0.000000000000000E+000
  0.000000000000000E+000
  0.000000000000000E+000
  0.000000000000000E+000
  0.000000000000000E+000
  0.000000000000000E+000
  0.000000000000000E+000
  0.000000000000000E+000
  0.000000000000000E+000
  0.000000000000000E+000
  0.000000000000000E+000
  0.000000000000000E+000
  0.000000000000000E+000
  0.000000000000000E+000
  0.000000000000000E+000
  0.000000000000000E+000
  0.000000000000000E+000
  0.000000000000000E+000
  0.000000000000000E+000
  0.000000000000000E+000
  0.000000000000000E+000
  0.000000000000000E+000
  0.000000000000000E+000
  0.000000000000000E+000
  0.000000000000000E+000
  0.000000000000000E+000
  0.000000000000000E+000
  0.000000000000000E+000
  0.000000000000000E+000
  0.000000000000000E+000
  0.000000000000000E+000
  0.000000000000000E+000
  0.000000000000000E+000
  0.000000000000000E+000
  0.000000000000000E+000
  0.000000000000000E+000
  0.000000000000000E+000
  0.000000000000000E+000
  0.000000000000000E+000
  0.000000000000000E+000
  0.000000000000000E+000
  0.000000000000000E+000
  0.000000000000000E+000
  0.000000000000000E+000
  0.000000000000000E+000
  0.000000000000000E+000
  0.000000000000000E+000
  0.000000000000000E+000
  0.000000000000000E+000
  0.000000000000000E+000
  0.000000000000000E+000
  0.000000000000000E+000
  0.000000000000000E+000
  0.000000000000000E+000
  0.000000000000000E+000
  0.000000000000000E+000
  0.000000000000000E+000
  0.000000000000000E+000
  0.000000000000000E+000
  0.000000000000000E+000
  0.000000000000000E+000
  0.000000000000000E+000
  0.000000000000000E+000
  0.000000000000000E+000
  0.000000000000000E+000
  0.000000000000000E+000
  0.000000000000000E+000
  0.000000000000000E+000
  0.000000000000000E+000
  0.000000000000000E+000
  0.000000000000000E+000
  0.000000000000000E+000
  0.000000000000000E+000
  0.000000000000000E+000
  0.000000000000000E+000
  0.000000000000000E+000
  0.000000000000000E+000
  0.000000000000000E+000
  0.000000000000000E+000
  0.000000000000000E+000
  0.000000000000000E+000
  0.000000000000000E+000
  0.000000000000000E+000
  0.000000000000000E+000
  0.000000000000000E+000
  0.000000000000000E+000
  0.000000000000000E+000
  0.000000000000000E+000
  0.000000000000000E+000
  0.000000000000000E+000
  0.000000000000000E+000
  0.000000000000000E+000
  0.000000000000000E+000
  0.000000000000000E+000
  0.000000000000000E+000
  0.000000000000000E+000
  0.000000000000000E+000
  0.000000000000000E+000
  0.000000000000000E+000
  0.000000000000000E+000
  0.000000000000000E+000
  0.000000000000000E+000
  0.000000000000000E+000
  0.000000000000000E+000
  0.000000000000000E+000
  0.000000000000000E+000
  0.000000000000000E+000
  0.000000000000000E+000
  0.000000000000000E+000
  0.000000000000000E+000
  0.000000000000000E+000
  0.000000000000000E+000
  0.000000000000000E+000
  0.000000000000000E+000
  0.000000000000000E+000
  0.000000000000000E+000
  0.000000000000000E+000
  0.000000000000000E+000
  0.000000000000000E+000
  0.000000000000000E+000
  0.000000000000000E+000
  0.000000000000000E+000
  0.000000000000000E+000
  0.000000000000000E+000
  0.000000000000000E+000
  0.000000000000000E+000
  0.000000000000000E+000
  0.000000000000000E+000
  0.000000000000000E+000
  0.000000000000000E+000
  0.000000000000000E+000
  0.000000000000000E+000
  0.000000000000000E+000
  0.000000000000000E+000
  0.000000000000000E+000
  0.000000000000000E+000
  0.000000000000000E+000
  0.000000000000000E+000
  0.000000000000000E+000
  0.000000000000000E+000
  0.000000000000000E+000
  0.000000000000000E+000
  0.000000000000000E+000
  0.000000000000000E+000
  0.000000000000000E+000
  0.000000000000000E+000
  0.000000000000000E+000
  0.000000000000000E+000
  0.000000000000000E+000
  0.000000000000000E+000
  0.000000000000000E+000
  0.000000000000000E+000
  0.000000000000000E+000
  0.000000000000000E+000
  0.000000000000000E+000
  0.000000000000000E+000
  0.000000000000000E+000
  0.000000000000000E+000
  0.000000000000000E+000
  0.000000000000000E+000
  0.000000000000000E+000
  0.000000000000000E+000
  0.000000000000000E+000
  0.000000000000000E+000
  0.000000000000000E+000
  0.000000000000000E+000
  0.000000000000000E+000
  0.000000000000000E+000
  0.000000000000000E+000
  0.000000000000000E+000
  0.000000000000000E+000
  0.000000000000000E+000
  0.000000000000000E+000
  0.000000000000000E+000
  0.000000000000000E+000
  0.000000000000000E+000
  0.000000000000000E+000
  0.000000000000000E+000
  0.000000000000000E+000
  0.000000000000000E+000
  0.000000000000000E+000
  0.000000000000000E+000
  0.000000000000000E+000
  0.000000000000000E+000
  0.000000000000000E+000
  0.000000000000000E+000
  0.000000000000000E+000
  0.000000000000000E+000
  0.000000000000000E+000
  0.000000000000000E+000
  0.000000000000000E+000
  0.000000000000000E+000
  0.000000000000000E+000
  0.000000000000000E+000
  0.000000000000000E+000
  0.000000000000000E+000
  0.000000000000000E+000
  0.000000000000000E+000
  0.000000000000000E+000
  0.000000000000000E+000
  0.000000000000000E+000
  0.000000000000000E+000
  0.000000000000000E+000
  0.000000000000000E+000
  0.000000000000000E+000
  0.000000000000000E+000
  0.000000000000000E+000
  0.000000000000000E+000
  0.000000000000000E+000
  0.000000000000000E+000
  0.000000000000000E+000
  0.000000000000000E+000
  0.000000000000000E+000
  0.000000000000000E+000
  0.000000000000000E+000
  0.000000000000000E+000
  0.000000000000000E+000
  0.000000000000000E+000
  0.000000000000000E+000
  0.000000000000000E+000
  0.000000000000000E+000
  0.000000000000000E+000
  0.000000000000000E+000
  0.000000000000000E+000
  0.000000000000000E+000
  0.000000000000000E+000
  0.000000000000000E+000
  0.000000000000000E+000
  0.000000000000000E+000
  0.000000000000000E+000
  0.000000000000000E+000
  0.000000000000000E+000
  0.000000000000000E+000
  0.000000000000000E+000
  0.000000000000000E+000
  0.000000000000000E+000
  0.000000000000000E+000
  0.000000000000000E+000
  0.000000000000000E+000
  0.000000000000000E+000
  0.000000000000000E+000
  0.000000000000000E+000
  0.000000000000000E+000
  0.000000000000000E+000
  0.000000000000000E+000
  0.000000000000000E+000
  0.000000000000000E+000
  0.000000000000000E+000
  0.000000000000000E+000
  0.000000000000000E+000
  0.000000000000000E+000
  0.000000000000000E+000
  0.000000000000000E+000
  0.000000000000000E+000
  0.000000000000000E+000
  0.000000000000000E+000
  0.000000000000000E+000
  0.000000000000000E+000
  0.000000000000000E+000
  0.000000000000000E+000
  0.000000000000000E+000
  0.000000000000000E+000
  0.000000000000000E+000
  0.000000000000000E+000
  0.000000000000000E+000
  0.000000000000000E+000
  0.000000000000000E+000
  0.000000000000000E+000
  0.000000000000000E+000
  0.000000000000000E+000
  0.000000000000000E+000
  0.000000000000000E+000
  0.000000000000000E+000
  0.000000000000000E+000
  0.000000000000000E+000
  0.000000000000000E+000
  0.000000000000000E+000
  0.000000000000000E+000
  0.000000000000000E+000
  0.000000000000000E+000
  0.000000000000000E+000
  0.000000000000000E+000
  0.000000000000000E+000
  0.000000000000000E+000
  0.000000000000000E+000
  0.000000000000000E+000
  0.000000000000000E+000
  0.000000000000000E+000
  0.000000000000000E+000
  0.000000000000000E+000
  0.000000000000000E+000
  0.000000000000000E+000
  0.000000000000000E+000
  0.000000000000000E+000
  0.000000000000000E+000
  0.000000000000000E+000
  0.000000000000000E+000
  0.000000000000000E+000
  0.000000000000000E+000
  0.000000000000000E+000
  0.000000000000000E+000
  0.000000000000000E+000
  0.000000000000000E+000
  0.000000000000000E+000
  0.000000000000000E+000
  0.000000000000000E+000
  0.000000000000000E+000
  0.000000000000000E+000
  0.000000000000000E+000
  0.000000000000000E+000
  0.000000000000000E+000
  0.000000000000000E+000
  0.000000000000000E+000
  0.000000000000000E+000
  0.000000000000000E+000
  0.000000000000000E+000
  0.000000000000000E+000
  0.000000000000000E+000
  0.000000000000000E+000
  0.000000000000000E+000
  0.000000000000000E+000
  0.000000000000000E+000
  0.000000000000000E+000
  0.000000000000000E+000
  0.000000000000000E+000
  0.000000000000000E+000
  0.000000000000000E+000
  0.000000000000000E+000
  0.000000000000000E+000
  0.000000000000000E+000
  0.000000000000000E+000
  0.000000000000000E+000
  0.000000000000000E+000
  0.000000000000000E+000
  0.000000000000000E+000
  0.000000000000000E+000
  0.000000000000000E+000
  0.000000000000000E+000
  0.000000000000000E+000
  0.000000000000000E+000
  0.000000000000000E+000
  0.000000000000000E+000
  0.000000000000000E+000
  0.000000000000000E+000
  0.000000000000000E+000
  0.000000000000000E+000
  0.000000000000000E+000
  0.000000000000000E+000
  0.000000000000000E+000
  0.000000000000000E+000
  0.000000000000000E+000
  0.000000000000000E+000
  0.000000000000000E+000
  0.000000000000000E+000
  0.000000000000000E+000
  0.000000000000000E+000
  0.000000000000000E+000
  0.000000000000000E+000
  0.000000000000000E+000
  0.000000000000000E+000
  0.000000000000000E+000
  0.000000000000000E+000
  0.000000000000000E+000
  0.000000000000000E+000
  0.000000000000000E+000
  0.000000000000000E+000
  0.000000000000000E+000
  0.000000000000000E+000
  0.000000000000000E+000
  0.000000000000000E+000
  0.000000000000000E+000
  0.000000000000000E+000
  0.000000000000000E+000
  0.000000000000000E+000
  0.000000000000000E+000
  0.000000000000000E+000
  0.000000000000000E+000
  0.000000000000000E+000
  0.000000000000000E+000
  0.000000000000000E+000
  0.000000000000000E+000
  0.000000000000000E+000
  0.000000000000000E+000
  0.000000000000000E+000
  0.000000000000000E+000
  0.000000000000000E+000
  0.000000000000000E+000
  0.000000000000000E+000
  0.000000000000000E+000
  0.000000000000000E+000
  0.000000000000000E+000
  0.000000000000000E+000
  0.000000000000000E+000
  0.000000000000000E+000
  0.000000000000000E+000
  0.000000000000000E+000
  0.000000000000000E+000
  0.000000000000000E+000
  0.000000000000000E+000
  0.000000000000000E+000
  0.000000000000000E+000
  0.000000000000000E+000
  0.000000000000000E+000
  0.000000000000000E+000
  0.000000000000000E+000
  0.000000000000000E+000
  0.000000000000000E+000
  0.000000000000000E+000
  0.000000000000000E+000
  0.000000000000000E+000
  0.000000000000000E+000
  0.000000000000000E+000
  0.000000000000000E+000
  0.000000000000000E+000
  0.000000000000000E+000
  0.000000000000000E+000
  0.000000000000000E+000
  0.000000000000000E+000
  0.000000000000000E+000
  0.000000000000000E+000
  0.000000000000000E+000
  0.000000000000000E+000
  0.000000000000000E+000
  0.000000000000000E+000
  0.000000000000000E+000
  0.000000000000000E+000
  0.000000000000000E+000
  0.000000000000000E+000
  0.000000000000000E+000
  0.000000000000000E+000
  0.000000000000000E+000
  0.000000000000000E+000
  0.000000000000000E+000
  0.000000000000000E+000
  0.000000000000000E+000
  0.000000000000000E+000
  0.000000000000000E+000
  0.000000000000000E+000
  0.000000000000000E+000
  0.000000000000000E+000
  0.000000000000000E+000
  0.000000000000000E+000
  0.000000000000000E+000
  0.000000000000000E+000
  0.000000000000000E+000
  0.000000000000000E+000
  0.000000000000000E+000
  0.000000000000000E+000
  0.000000000000000E+000
  0.000000000000000E+000
  0.000000000000000E+000
  0.000000000000000E+000
  0.000000000000000E+000
  0.000000000000000E+000
  0.000000000000000E+000
  0.000000000000000E+000
  0.000000000000000E+000
  0.000000000000000E+000
  0.000000000000000E+000
  0.000000000000000E+000
  0.000000000000000E+000
  0.000000000000000E+000
  0.000000000000000E+000
  0.000000000000000E+000
  0.000000000000000E+000
  0.000000000000000E+000
  0.000000000000000E+000
  0.000000000000000E+000
  0.000000000000000E+000
  0.000000000000000E+000
  0.000000000000000E+000
  0.000000000000000E+000
  0.000000000000000E+000
  0.000000000000000E+000
  0.000000000000000E+000
  0.000000000000000E+000
  0.000000000000000E+000
  0.000000000000000E+000
  0.000000000000000E+000
  0.000000000000000E+000
  0.000000000000000E+000
  0.000000000000000E+000
  0.000000000000000E+000
  0.000000000000000E+000
  0.000000000000000E+000
  0.000000000000000E+000
  0.000000000000000E+000
  0.000000000000000E+000
  0.000000000000000E+000
  0.000000000000000E+000
  0.000000000000000E+000
  0.000000000000000E+000
  0.000000000000000E+000
  0.000000000000000E+000
  0.000000000000000E+000
  0.000000000000000E+000
  0.000000000000000E+000
  0.000000000000000E+000
  0.000000000000000E+000
  0.000000000000000E+000
  0.000000000000000E+000
  0.000000000000000E+000
  0.000000000000000E+000
  0.000000000000000E+000
  0.000000000000000E+000
  0.000000000000000E+000
  0.000000000000000E+000
  0.000000000000000E+000
  0.000000000000000E+000
  0.000000000000000E+000
  0.000000000000000E+000
  0.000000000000000E+000
  0.000000000000000E+000
  0.000000000000000E+000
  0.000000000000000E+000
  0.000000000000000E+000
  0.000000000000000E+000
  0.000000000000000E+000
  0.000000000000000E+000
  0.000000000000000E+000
  0.000000000000000E+000
  0.000000000000000E+000
  0.000000000000000E+000
  0.000000000000000E+000
  0.000000000000000E+000
  0.000000000000000E+000
  0.000000000000000E+000
  0.000000000000000E+000
  0.000000000000000E+000
  0.000000000000000E+000
  0.000000000000000E+000
  0.000000000000000E+000
  0.000000000000000E+000
  0.000000000000000E+000
  0.000000000000000E+000
  0.000000000000000E+000
  0.000000000000000E+000
  0.000000000000000E+000
  0.000000000000000E+000
  0.000000000000000E+000
  0.000000000000000E+000
  0.000000000000000E+000
  0.000000000000000E+000
  0.000000000000000E+000
  0.000000000000000E+000
  0.000000000000000E+000
  0.000000000000000E+000
  0.000000000000000E+000
  0.000000000000000E+000
  0.000000000000000E+000
  0.000000000000000E+000
  0.000000000000000E+000
  0.000000000000000E+000
  0.000000000000000E+000
  0.000000000000000E+000
  0.000000000000000E+000
  0.000000000000000E+000
  0.000000000000000E+000
  0.000000000000000E+000
  0.000000000000000E+000
  0.000000000000000E+000
  0.000000000000000E+000
  0.000000000000000E+000
  0.000000000000000E+000
  0.000000000000000E+000
  0.000000000000000E+000
  0.000000000000000E+000
  0.000000000000000E+000
  0.000000000000000E+000
  0.000000000000000E+000
  0.000000000000000E+000
  0.000000000000000E+000
  0.000000000000000E+000
  0.000000000000000E+000
  0.000000000000000E+000
  0.000000000000000E+000
  0.000000000000000E+000
  0.000000000000000E+000
  0.000000000000000E+000
  0.000000000000000E+000
  0.000000000000000E+000
  0.000000000000000E+000
  0.000000000000000E+000
  0.000000000000000E+000
  0.000000000000000E+000
  0.000000000000000E+000
  0.000000000000000E+000
  0.000000000000000E+000
  0.000000000000000E+000
  0.000000000000000E+000
  0.000000000000000E+000
  0.000000000000000E+000
  0.000000000000000E+000
  0.000000000000000E+000
  0.000000000000000E+000
  0.000000000000000E+000
  0.000000000000000E+000
  0.000000000000000E+000
  0.000000000000000E+000
  0.000000000000000E+000
  0.000000000000000E+000
  0.000000000000000E+000
  0.000000000000000E+000
  0.000000000000000E+000
  0.000000000000000E+000
  0.000000000000000E+000
  0.000000000000000E+000
  0.000000000000000E+000
  0.000000000000000E+000
  0.000000000000000E+000
  0.000000000000000E+000
  0.000000000000000E+000
  0.000000000000000E+000
  0.000000000000000E+000
  0.000000000000000E+000
  0.000000000000000E+000
  0.000000000000000E+000
  0.000000000000000E+000
  0.000000000000000E+000
  0.000000000000000E+000
  0.000000000000000E+000
  0.000000000000000E+000
  0.000000000000000E+000
  0.000000000000000E+000
  0.000000000000000E+000
  0.000000000000000E+000
  0.000000000000000E+000
  0.000000000000000E+000
  0.000000000000000E+000
  0.000000000000000E+000
  0.000000000000000E+000
  0.000000000000000E+000
  0.000000000000000E+000
  0.000000000000000E+000
  0.000000000000000E+000
  0.000000000000000E+000
  0.000000000000000E+000
  0.000000000000000E+000
  0.000000000000000E+000
  0.000000000000000E+000
  0.000000000000000E+000
  0.000000000000000E+000
  0.000000000000000E+000
  0.000000000000000E+000
  0.000000000000000E+000
  0.000000000000000E+000
  0.000000000000000E+000
  0.000000000000000E+000
  0.000000000000000E+000
  0.000000000000000E+000
  0.000000000000000E+000
  0.000000000000000E+000
  0.000000000000000E+000
  0.000000000000000E+000
  0.000000000000000E+000
  0.000000000000000E+000
  0.000000000000000E+000
  0.000000000000000E+000
  0.000000000000000E+000
  0.000000000000000E+000
  0.000000000000000E+000
  0.000000000000000E+000
  0.000000000000000E+000
  0.000000000000000E+000
  0.000000000000000E+000
  0.000000000000000E+000
  0.000000000000000E+000
  0.000000000000000E+000
  0.000000000000000E+000
  0.000000000000000E+000
  0.000000000000000E+000
  0.000000000000000E+000
  0.000000000000000E+000
  0.000000000000000E+000
  0.000000000000000E+000
  0.000000000000000E+000
  0.000000000000000E+000
  0.000000000000000E+000
  0.000000000000000E+000
  0.000000000000000E+000
  0.000000000000000E+000
  0.000000000000000E+000
  0.000000000000000E+000
  0.000000000000000E+000
  0.000000000000000E+000
  0.000000000000000E+000
  0.000000000000000E+000
  0.000000000000000E+000
  0.000000000000000E+000
  0.000000000000000E+000
  0.000000000000000E+000
  0.000000000000000E+000
  0.000000000000000E+000
  0.000000000000000E+000
  0.000000000000000E+000
  0.000000000000000E+000
  0.000000000000000E+000
  0.000000000000000E+000
  0.000000000000000E+000
  0.000000000000000E+000
  0.000000000000000E+000
  0.000000000000000E+000
  0.000000000000000E+000
  0.000000000000000E+000
  0.000000000000000E+000
  0.000000000000000E+000
  0.000000000000000E+000
  0.000000000000000E+000
  0.000000000000000E+000
  0.000000000000000E+000
  0.000000000000000E+000
  0.000000000000000E+000
  0.000000000000000E+000
  0.000000000000000E+000
  0.000000000000000E+000
  0.000000000000000E+000
  0.000000000000000E+000
  0.000000000000000E+000
  0.000000000000000E+000
  0.000000000000000E+000
  0.000000000000000E+000
  0.000000000000000E+000
  0.000000000000000E+000
  0.000000000000000E+000
  0.000000000000000E+000
  0.000000000000000E+000
  0.000000000000000E+000
  0.000000000000000E+000
  0.000000000000000E+000
  0.000000000000000E+000
  0.000000000000000E+000
  0.000000000000000E+000
  0.000000000000000E+000
  0.000000000000000E+000
  0.000000000000000E+000
  0.000000000000000E+000
  0.000000000000000E+000
  0.000000000000000E+000
  0.000000000000000E+000
  0.000000000000000E+000
  0.000000000000000E+000
  0.000000000000000E+000
  0.000000000000000E+000
  0.000000000000000E+000
  0.000000000000000E+000
  0.000000000000000E+000
  0.000000000000000E+000
  0.000000000000000E+000
  0.000000000000000E+000
  0.000000000000000E+000
  0.000000000000000E+000
  0.000000000000000E+000
  0.000000000000000E+000
  0.000000000000000E+000
  0.000000000000000E+000
  0.000000000000000E+000
  0.000000000000000E+000
  0.000000000000000E+000
  0.000000000000000E+000
  0.000000000000000E+000
  0.000000000000000E+000
  0.000000000000000E+000
  0.000000000000000E+000
  0.000000000000000E+000
  0.000000000000000E+000
  0.000000000000000E+000
  0.000000000000000E+000
  0.000000000000000E+000
  0.000000000000000E+000
  0.000000000000000E+000
  0.000000000000000E+000
  0.000000000000000E+000
  0.000000000000000E+000
  0.000000000000000E+000
  0.000000000000000E+000
  0.000000000000000E+000
  0.000000000000000E+000
  0.000000000000000E+000
  0.000000000000000E+000
  0.000000000000000E+000
  0.000000000000000E+000
  0.000000000000000E+000
  0.000000000000000E+000
  0.000000000000000E+000
  0.000000000000000E+000
  0.000000000000000E+000
  0.000000000000000E+000
  0.000000000000000E+000
  0.000000000000000E+000
  0.000000000000000E+000
  0.000000000000000E+000
  0.000000000000000E+000
  0.000000000000000E+000
  0.000000000000000E+000
  0.000000000000000E+000
  0.000000000000000E+000
  0.000000000000000E+000
  0.000000000000000E+000
  0.000000000000000E+000
  0.000000000000000E+000
  0.000000000000000E+000
  0.000000000000000E+000
  0.000000000000000E+000
  0.000000000000000E+000
  0.000000000000000E+000
  0.000000000000000E+000
  0.000000000000000E+000
  0.000000000000000E+000
  0.000000000000000E+000
  0.000000000000000E+000
  0.000000000000000E+000
  0.000000000000000E+000
  0.000000000000000E+000
  0.000000000000000E+000
  0.000000000000000E+000
  0.000000000000000E+000
  0.000000000000000E+000
  0.000000000000000E+000
  0.000000000000000E+000
  0.000000000000000E+000
  0.000000000000000E+000
  0.000000000000000E+000
  0.000000000000000E+000
  0.000000000000000E+000
  0.000000000000000E+000
  0.000000000000000E+000
  0.000000000000000E+000
  0.000000000000000E+000
  0.000000000000000E+000
  0.000000000000000E+000
  0.000000000000000E+000
  0.000000000000000E+000
  0.000000000000000E+000
  0.000000000000000E+000
  0.000000000000000E+000
  0.000000000000000E+000
  0.000000000000000E+000
  0.000000000000000E+000
  0.000000000000000E+000
  0.000000000000000E+000
  0.000000000000000E+000
  0.000000000000000E+000
  0.000000000000000E+000
  0.000000000000000E+000
  0.000000000000000E+000
  0.000000000000000E+000
  0.000000000000000E+000
  0.000000000000000E+000
  0.000000000000000E+000
  0.000000000000000E+000
  0.000000000000000E+000
  0.000000000000000E+000
  0.000000000000000E+000
  0.000000000000000E+000
  0.000000000000000E+000
  0.000000000000000E+000
  0.000000000000000E+000
  0.000000000000000E+000
  0.000000000000000E+000
  0.000000000000000E+000
  0.000000000000000E+000
  0.000000000000000E+000
  0.000000000000000E+000
  0.000000000000000E+000
  0.000000000000000E+000
  0.000000000000000E+000
  0.000000000000000E+000
  0.000000000000000E+000
  0.000000000000000E+000
  0.000000000000000E+000
  0.000000000000000E+000
  0.000000000000000E+000
  0.000000000000000E+000
  0.000000000000000E+000
  0.000000000000000E+000
  0.000000000000000E+000
  0.000000000000000E+000
  0.000000000000000E+000
  0.000000000000000E+000
  0.000000000000000E+000
  0.000000000000000E+000
  0.000000000000000E+000
  0.000000000000000E+000
  0.000000000000000E+000
  0.000000000000000E+000
  0.000000000000000E+000
  0.000000000000000E+000
  0.000000000000000E+000
  0.000000000000000E+000
  0.000000000000000E+000
  0.000000000000000E+000
  0.000000000000000E+000
  0.000000000000000E+000
  0.000000000000000E+000
  0.000000000000000E+000
  0.000000000000000E+000
  0.000000000000000E+000
  0.000000000000000E+000
  0.000000000000000E+000
  0.000000000000000E+000
  0.000000000000000E+000
  0.000000000000000E+000
  0.000000000000000E+000
  0.000000000000000E+000
  0.000000000000000E+000
  0.000000000000000E+000
  0.000000000000000E+000
  0.000000000000000E+000
  0.000000000000000E+000
  0.000000000000000E+000
  0.000000000000000E+000
  0.000000000000000E+000
  0.000000000000000E+000
  0.000000000000000E+000
  0.000000000000000E+000
  0.000000000000000E+000
  0.000000000000000E+000
  0.000000000000000E+000
  0.000000000000000E+000
  0.000000000000000E+000
  0.000000000000000E+000
  0.000000000000000E+000
  0.000000000000000E+000
  0.000000000000000E+000
  0.000000000000000E+000
  0.000000000000000E+000
  0.000000000000000E+000
  0.000000000000000E+000
  0.000000000000000E+000
  0.000000000000000E+000
  0.000000000000000E+000
  0.000000000000000E+000
  0.000000000000000E+000
  0.000000000000000E+000
  0.000000000000000E+000
  0.000000000000000E+000
  0.000000000000000E+000
  0.000000000000000E+000
  0.000000000000000E+000
  0.000000000000000E+000
  0.000000000000000E+000
  0.000000000000000E+000
  0.000000000000000E+000
  0.000000000000000E+000
  0.000000000000000E+000
  0.000000000000000E+000
  0.000000000000000E+000
  0.000000000000000E+000
  0.000000000000000E+000
  0.000000000000000E+000
  0.000000000000000E+000
  0.000000000000000E+000
  0.000000000000000E+000
  0.000000000000000E+000
  0.000000000000000E+000
  0.000000000000000E+000
  0.000000000000000E+000
  0.000000000000000E+000
  0.000000000000000E+000
  0.000000000000000E+000
  0.000000000000000E+000
  0.000000000000000E+000
  0.000000000000000E+000
  0.000000000000000E+000
  0.000000000000000E+000
  0.000000000000000E+000
  0.000000000000000E+000
  0.000000000000000E+000
  0.000000000000000E+000
  0.000000000000000E+000
  0.000000000000000E+000
  0.000000000000000E+000
  0.000000000000000E+000
  0.000000000000000E+000
  0.000000000000000E+000
  0.000000000000000E+000
  0.000000000000000E+000
  0.000000000000000E+000
  0.000000000000000E+000
  0.000000000000000E+000
  0.000000000000000E+000
  0.000000000000000E+000
  0.000000000000000E+000
  0.000000000000000E+000
  0.000000000000000E+000
  0.000000000000000E+000
  0.000000000000000E+000
  0.000000000000000E+000
  0.000000000000000E+000
  0.000000000000000E+000
  0.000000000000000E+000
  0.000000000000000E+000
  0.000000000000000E+000
  0.000000000000000E+000
  0.000000000000000E+000
  0.000000000000000E+000
  0.000000000000000E+000
  0.000000000000000E+000
  0.000000000000000E+000
  0.000000000000000E+000
  0.000000000000000E+000
  0.000000000000000E+000
  0.000000000000000E+000
  0.000000000000000E+000
  0.000000000000000E+000
  0.000000000000000E+000
  0.000000000000000E+000
  0.000000000000000E+000
  0.000000000000000E+000
  0.000000000000000E+000
  0.000000000000000E+000
  0.000000000000000E+000
  0.000000000000000E+000
  0.000000000000000E+000
  0.000000000000000E+000
  0.000000000000000E+000
  0.000000000000000E+000
  0.000000000000000E+000
  0.000000000000000E+000
  0.000000000000000E+000
  0.000000000000000E+000
  0.000000000000000E+000
  0.000000000000000E+000
  0.000000000000000E+000
  0.000000000000000E+000
  0.000000000000000E+000
  0.000000000000000E+000
  0.000000000000000E+000
  0.000000000000000E+000
  0.000000000000000E+000
  0.000000000000000E+000
  0.000000000000000E+000
  0.000000000000000E+000
  0.000000000000000E+000
  0.000000000000000E+000
  0.000000000000000E+000
  0.000000000000000E+000
  0.000000000000000E+000
  0.000000000000000E+000
  0.000000000000000E+000
  0.000000000000000E+000
  0.000000000000000E+000
  0.000000000000000E+000
  0.000000000000000E+000
  0.000000000000000E+000
  0.000000000000000E+000
  0.000000000000000E+000
  0.000000000000000E+000
  0.000000000000000E+000
  0.000000000000000E+000
  0.000000000000000E+000
  0.000000000000000E+000
  0.000000000000000E+000
  0.000000000000000E+000
  0.000000000000000E+000
  0.000000000000000E+000
  0.000000000000000E+000
  0.000000000000000E+000
  0.000000000000000E+000
  0.000000000000000E+000
  0.000000000000000E+000
  0.000000000000000E+000
  0.000000000000000E+000
  0.000000000000000E+000
  0.000000000000000E+000
  0.000000000000000E+000
  0.000000000000000E+000
  0.000000000000000E+000
  0.000000000000000E+000
  0.000000000000000E+000
  0.000000000000000E+000
  0.000000000000000E+000
  0.000000000000000E+000
  0.000000000000000E+000
  0.000000000000000E+000
  0.000000000000000E+000
  0.000000000000000E+000
  0.000000000000000E+000
  0.000000000000000E+000
  0.000000000000000E+000
  0.000000000000000E+000
  0.000000000000000E+000
  0.000000000000000E+000
  0.000000000000000E+000
  0.000000000000000E+000
  0.000000000000000E+000
  0.000000000000000E+000
  0.000000000000000E+000
  0.000000000000000E+000
  0.000000000000000E+000
  0.000000000000000E+000
  0.000000000000000E+000
  0.000000000000000E+000
  0.000000000000000E+000
  0.000000000000000E+000
  0.000000000000000E+000
  0.000000000000000E+000
  0.000000000000000E+000
  0.000000000000000E+000
  0.000000000000000E+000
  0.000000000000000E+000
  0.000000000000000E+000
  0.000000000000000E+000
  0.000000000000000E+000
  0.000000000000000E+000
  0.000000000000000E+000
  0.000000000000000E+000
  0.000000000000000E+000
  0.000000000000000E+000
  0.000000000000000E+000
  0.000000000000000E+000
  0.000000000000000E+000
  0.000000000000000E+000
  0.000000000000000E+000
  0.000000000000000E+000
  0.000000000000000E+000
  0.000000000000000E+000
  0.000000000000000E+000
  0.000000000000000E+000
  0.000000000000000E+000
  0.000000000000000E+000
  0.000000000000000E+000
  0.000000000000000E+000
  0.000000000000000E+000
  0.000000000000000E+000
  0.000000000000000E+000
  0.000000000000000E+000
  0.000000000000000E+000
  0.000000000000000E+000
  0.000000000000000E+000
  0.000000000000000E+000
  0.000000000000000E+000
  0.000000000000000E+000
  0.000000000000000E+000
  0.000000000000000E+000
  0.000000000000000E+000
  0.000000000000000E+000
  0.000000000000000E+000
  0.000000000000000E+000
  0.000000000000000E+000
  0.000000000000000E+000
  0.000000000000000E+000
  0.000000000000000E+000
  0.000000000000000E+000
  0.000000000000000E+000
  0.000000000000000E+000
  0.000000000000000E+000
  0.000000000000000E+000
  0.000000000000000E+000
  0.000000000000000E+000
  0.000000000000000E+000
  0.000000000000000E+000
  0.000000000000000E+000
  0.000000000000000E+000
  0.000000000000000E+000
  0.000000000000000E+000
  0.000000000000000E+000
  0.000000000000000E+000
  0.000000000000000E+000
  0.000000000000000E+000
  0.000000000000000E+000
  0.000000000000000E+000
  0.000000000000000E+000
  0.000000000000000E+000
  0.000000000000000E+000
  0.000000000000000E+000
  0.000000000000000E+000
  0.000000000000000E+000
  0.000000000000000E+000
  0.000000000000000E+000
  0.000000000000000E+000
  0.000000000000000E+000
  0.000000000000000E+000
  0.000000000000000E+000
  0.000000000000000E+000
  0.000000000000000E+000
  0.000000000000000E+000
  0.000000000000000E+000
  0.000000000000000E+000
  0.000000000000000E+000
  0.000000000000000E+000
  0.000000000000000E+000
  0.000000000000000E+000
  0.000000000000000E+000
  0.000000000000000E+000
  0.000000000000000E+000
  0.000000000000000E+000
  0.000000000000000E+000
  0.000000000000000E+000
  0.000000000000000E+000
  0.000000000000000E+000
  0.000000000000000E+000
  0.000000000000000E+000
  0.000000000000000E+000
  0.000000000000000E+000
  0.000000000000000E+000
  0.000000000000000E+000
  0.000000000000000E+000
  0.000000000000000E+000
  0.000000000000000E+000
  0.000000000000000E+000
  0.000000000000000E+000
  0.000000000000000E+000
  0.000000000000000E+000
  0.000000000000000E+000
  0.000000000000000E+000
  0.000000000000000E+000
  0.000000000000000E+000
  0.000000000000000E+000
  0.000000000000000E+000
  0.000000000000000E+000
  0.000000000000000E+000
  0.000000000000000E+000
  0.000000000000000E+000
  0.000000000000000E+000
  0.000000000000000E+000
  0.000000000000000E+000
  0.000000000000000E+000
  0.000000000000000E+000
  0.000000000000000E+000
  0.000000000000000E+000
  0.000000000000000E+000
  0.000000000000000E+000
  0.000000000000000E+000
  0.000000000000000E+000
  0.000000000000000E+000
  0.000000000000000E+000
  0.000000000000000E+000
  0.000000000000000E+000
  0.000000000000000E+000
  0.000000000000000E+000
  0.000000000000000E+000
  0.000000000000000E+000
  0.000000000000000E+000
  0.000000000000000E+000
  0.000000000000000E+000
  0.000000000000000E+000
  0.000000000000000E+000
  0.000000000000000E+000
  0.000000000000000E+000
  0.000000000000000E+000
  0.000000000000000E+000
  0.000000000000000E+000
  0.000000000000000E+000
  0.000000000000000E+000
  0.000000000000000E+000
  0.000000000000000E+000
  0.000000000000000E+000
  0.000000000000000E+000
  0.000000000000000E+000
  0.000000000000000E+000
  0.000000000000000E+000
  0.000000000000000E+000
  0.000000000000000E+000
  0.000000000000000E+000
  0.000000000000000E+000
  0.000000000000000E+000
  0.000000000000000E+000
  0.000000000000000E+000
  0.000000000000000E+000
  0.000000000000000E+000
  0.000000000000000E+000
  0.000000000000000E+000
  0.000000000000000E+000
  0.000000000000000E+000
  0.000000000000000E+000
  0.000000000000000E+000
  0.000000000000000E+000
  0.000000000000000E+000
  0.000000000000000E+000
  0.000000000000000E+000
  0.000000000000000E+000
  0.000000000000000E+000
  0.000000000000000E+000
  0.000000000000000E+000
  0.000000000000000E+000
  0.000000000000000E+000
  0.000000000000000E+000
  0.000000000000000E+000
  0.000000000000000E+000
  0.000000000000000E+000
  0.000000000000000E+000
  0.000000000000000E+000
  0.000000000000000E+000
  0.000000000000000E+000
  0.000000000000000E+000
  0.000000000000000E+000
  0.000000000000000E+000
  0.000000000000000E+000
  0.000000000000000E+000
  0.000000000000000E+000
  0.000000000000000E+000
  0.000000000000000E+000
  0.000000000000000E+000
  0.000000000000000E+000
  0.000000000000000E+000
  0.000000000000000E+000
  0.000000000000000E+000
  0.000000000000000E+000
  0.000000000000000E+000
  0.000000000000000E+000
  0.000000000000000E+000
  0.000000000000000E+000
  0.000000000000000E+000
  0.000000000000000E+000
  0.000000000000000E+000
  0.000000000000000E+000
  0.000000000000000E+000
  0.000000000000000E+000
  0.000000000000000E+000
  0.000000000000000E+000
  0.000000000000000E+000
  0.000000000000000E+000
  0.000000000000000E+000
  0.000000000000000E+000
  0.000000000000000E+000
  0.000000000000000E+000
  0.000000000000000E+000
  0.000000000000000E+000
  0.000000000000000E+000
  0.000000000000000E+000
  0.000000000000000E+000
  0.000000000000000E+000
  0.000000000000000E+000
  0.000000000000000E+000
  0.000000000000000E+000
  0.000000000000000E+000
  0.000000000000000E+000
  0.000000000000000E+000
  0.000000000000000E+000
  0.000000000000000E+000
  0.000000000000000E+000
  0.000000000000000E+000
  0.000000000000000E+000
  0.000000000000000E+000
  0.000000000000000E+000
  0.000000000000000E+000
  0.000000000000000E+000
  0.000000000000000E+000
  0.000000000000000E+000
  0.000000000000000E+000
  0.000000000000000E+000
  0.000000000000000E+000
  0.000000000000000E+000
  0.000000000000000E+000
  0.000000000000000E+000
  0.000000000000000E+000
  0.000000000000000E+000
  0.000000000000000E+000
  0.000000000000000E+000
  0.000000000000000E+000
  0.000000000000000E+000
  0.000000000000000E+000
  0.000000000000000E+000
  0.000000000000000E+000
  0.000000000000000E+000
  0.000000000000000E+000
  0.000000000000000E+000
  0.000000000000000E+000
  0.000000000000000E+000
  0.000000000000000E+000
  0.000000000000000E+000
  0.000000000000000E+000
  0.000000000000000E+000
  0.000000000000000E+000
  0.000000000000000E+000
  0.000000000000000E+000
  0.000000000000000E+000
  0.000000000000000E+000
  0.000000000000000E+000
  0.000000000000000E+000
  0.000000000000000E+000
  0.000000000000000E+000
  0.000000000000000E+000
  0.000000000000000E+000
  0.000000000000000E+000
  0.000000000000000E+000
  0.000000000000000E+000
  0.000000000000000E+000
  0.000000000000000E+000
  0.000000000000000E+000
  0.000000000000000E+000
  0.000000000000000E+000
  0.000000000000000E+000
  0.000000000000000E+000
  0.000000000000000E+000
  0.000000000000000E+000
  0.000000000000000E+000
  0.000000000000000E+000
  0.000000000000000E+000
  0.000000000000000E+000
  0.000000000000000E+000
  0.000000000000000E+000
  0.000000000000000E+000
  0.000000000000000E+000
  0.000000000000000E+000
  0.000000000000000E+000
  0.000000000000000E+000
  0.000000000000000E+000
  0.000000000000000E+000
  0.000000000000000E+000
  0.000000000000000E+000
  0.000000000000000E+000
  0.000000000000000E+000
  0.000000000000000E+000
  0.000000000000000E+000
  0.000000000000000E+000
  0.000000000000000E+000
  0.000000000000000E+000
  0.000000000000000E+000
  0.000000000000000E+000
  0.000000000000000E+000
  0.000000000000000E+000
  0.000000000000000E+000
  0.000000000000000E+000
  0.000000000000000E+000
  0.000000000000000E+000
  0.000000000000000E+000
  0.000000000000000E+000
  0.000000000000000E+000
  0.000000000000000E+000
  0.000000000000000E+000
  0.000000000000000E+000
  0.000000000000000E+000
  0.000000000000000E+000
  0.000000000000000E+000
  0.000000000000000E+000
  0.000000000000000E+000
  0.000000000000000E+000
  0.000000000000000E+000
  0.000000000000000E+000
  0.000000000000000E+000
  0.000000000000000E+000
  0.000000000000000E+000
  0.000000000000000E+000
  0.000000000000000E+000
  0.000000000000000E+000
  0.000000000000000E+000
  0.000000000000000E+000
  0.000000000000000E+000
  0.000000000000000E+000
  0.000000000000000E+000
  0.000000000000000E+000
  0.000000000000000E+000
  0.000000000000000E+000
  0.000000000000000E+000
  0.000000000000000E+000
  0.000000000000000E+000
  0.000000000000000E+000
  0.000000000000000E+000
  0.000000000000000E+000
  0.000000000000000E+000
  0.000000000000000E+000
  0.000000000000000E+000
  0.000000000000000E+000
  0.000000000000000E+000
  0.000000000000000E+000
  0.000000000000000E+000
  0.000000000000000E+000
  0.000000000000000E+000
  0.000000000000000E+000
  0.000000000000000E+000
  0.000000000000000E+000
  0.000000000000000E+000
  0.000000000000000E+000
  0.000000000000000E+000
  0.000000000000000E+000
  0.000000000000000E+000
  0.000000000000000E+000
  0.000000000000000E+000
  0.000000000000000E+000
  0.000000000000000E+000
  0.000000000000000E+000
  0.000000000000000E+000
  0.000000000000000E+000
  0.000000000000000E+000
  0.000000000000000E+000
  0.000000000000000E+000
  0.000000000000000E+000
  0.000000000000000E+000
  0.000000000000000E+000
  0.000000000000000E+000
  0.000000000000000E+000
  0.000000000000000E+000
  0.000000000000000E+000
  0.000000000000000E+000
  0.000000000000000E+000
  0.000000000000000E+000
  0.000000000000000E+000
  0.000000000000000E+000
  0.000000000000000E+000
  0.000000000000000E+000
  0.000000000000000E+000
  0.000000000000000E+000
  0.000000000000000E+000
  0.000000000000000E+000
  0.000000000000000E+000
  0.000000000000000E+000
  0.000000000000000E+000
  0.000000000000000E+000
  0.000000000000000E+000
  0.000000000000000E+000
  0.000000000000000E+000
  0.000000000000000E+000
  0.000000000000000E+000
  0.000000000000000E+000
  0.000000000000000E+000
  0.000000000000000E+000
  0.000000000000000E+000
  0.000000000000000E+000
  0.000000000000000E+000
  0.000000000000000E+000
  0.000000000000000E+000
  0.000000000000000E+000
  0.000000000000000E+000
  0.000000000000000E+000
  0.000000000000000E+000
  0.000000000000000E+000
  0.000000000000000E+000
  0.000000000000000E+000
  0.000000000000000E+000
  0.000000000000000E+000
  0.000000000000000E+000
  0.000000000000000E+000
  0.000000000000000E+000
  0.000000000000000E+000
  0.000000000000000E+000
  0.000000000000000E+000
  0.000000000000000E+000
  0.000000000000000E+000
  0.000000000000000E+000
  0.000000000000000E+000
  0.000000000000000E+000
  0.000000000000000E+000
  0.000000000000000E+000
  0.000000000000000E+000
  0.000000000000000E+000
  0.000000000000000E+000
  0.000000000000000E+000
  0.000000000000000E+000
  0.000000000000000E+000
  0.000000000000000E+000
  0.000000000000000E+000
  0.000000000000000E+000
  0.000000000000000E+000
  0.000000000000000E+000
  0.000000000000000E+000
  0.000000000000000E+000
  0.000000000000000E+000
  0.000000000000000E+000
  0.000000000000000E+000
  0.000000000000000E+000
  0.000000000000000E+000
  0.000000000000000E+000
  0.000000000000000E+000
  0.000000000000000E+000
  0.000000000000000E+000
  0.000000000000000E+000
  0.000000000000000E+000
  0.000000000000000E+000
  0.000000000000000E+000
  0.000000000000000E+000
  0.000000000000000E+000
  0.000000000000000E+000
  0.000000000000000E+000
  0.000000000000000E+000
  0.000000000000000E+000
  0.000000000000000E+000
  0.000000000000000E+000
  0.000000000000000E+000
  0.000000000000000E+000
  0.000000000000000E+000
  0.000000000000000E+000
  0.000000000000000E+000
  0.000000000000000E+000
  0.000000000000000E+000
  0.000000000000000E+000
  0.000000000000000E+000
  0.000000000000000E+000
  0.000000000000000E+000
  0.000000000000000E+000
  0.000000000000000E+000
  0.000000000000000E+000
  0.000000000000000E+000
  0.000000000000000E+000
  0.000000000000000E+000
  0.000000000000000E+000
  0.000000000000000E+000
  0.000000000000000E+000
  0.000000000000000E+000
  0.000000000000000E+000
  0.000000000000000E+000
  0.000000000000000E+000
  0.000000000000000E+000
  0.000000000000000E+000
  0.000000000000000E+000
  0.000000000000000E+000
  0.000000000000000E+000
  0.000000000000000E+000
  0.000000000000000E+000
  0.000000000000000E+000
  0.000000000000000E+000
  0.000000000000000E+000
  0.000000000000000E+000
  0.000000000000000E+000
  0.000000000000000E+000
  0.000000000000000E+000
  0.000000000000000E+000
  0.000000000000000E+000
  0.000000000000000E+000
  0.000000000000000E+000
  0.000000000000000E+000
  0.000000000000000E+000
  0.000000000000000E+000
  0.000000000000000E+000
  0.000000000000000E+000
  0.000000000000000E+000
  0.000000000000000E+000
  0.000000000000000E+000
  0.000000000000000E+000
  0.000000000000000E+000
  0.000000000000000E+000
  0.000000000000000E+000
  0.000000000000000E+000
  0.000000000000000E+000
  0.000000000000000E+000
  0.000000000000000E+000
  0.000000000000000E+000
  0.000000000000000E+000
  0.000000000000000E+000
  0.000000000000000E+000
  0.000000000000000E+000
  0.000000000000000E+000
  0.000000000000000E+000
  0.000000000000000E+000
  0.000000000000000E+000
  0.000000000000000E+000
  0.000000000000000E+000
  0.000000000000000E+000
  0.000000000000000E+000
  0.000000000000000E+000
  0.000000000000000E+000
  0.000000000000000E+000
  0.000000000000000E+000
  0.000000000000000E+000
  0.000000000000000E+000
  0.000000000000000E+000
  0.000000000000000E+000
  0.000000000000000E+000
  0.000000000000000E+000
  0.000000000000000E+000
  0.000000000000000E+000
  0.000000000000000E+000
  0.000000000000000E+000
  0.000000000000000E+000
  0.000000000000000E+000
  0.000000000000000E+000
  0.000000000000000E+000
  0.000000000000000E+000
  0.000000000000000E+000
  0.000000000000000E+000
  0.000000000000000E+000
  0.000000000000000E+000
  0.000000000000000E+000
  0.000000000000000E+000
  0.000000000000000E+000
  0.000000000000000E+000
  0.000000000000000E+000
  0.000000000000000E+000
  0.000000000000000E+000
  0.000000000000000E+000
  0.000000000000000E+000
  0.000000000000000E+000
  0.000000000000000E+000
  0.000000000000000E+000
  0.000000000000000E+000
  0.000000000000000E+000
  0.000000000000000E+000
  0.000000000000000E+000
  0.000000000000000E+000
  0.000000000000000E+000
  0.000000000000000E+000
  0.000000000000000E+000
  0.000000000000000E+000
  0.000000000000000E+000
  0.000000000000000E+000
  0.000000000000000E+000
  0.000000000000000E+000
  0.000000000000000E+000
  0.000000000000000E+000
  0.000000000000000E+000
  0.000000000000000E+000
  0.000000000000000E+000
  0.000000000000000E+000
  0.000000000000000E+000
  0.000000000000000E+000
  0.000000000000000E+000
  0.000000000000000E+000
  0.000000000000000E+000
  0.000000000000000E+000
  0.000000000000000E+000
  0.000000000000000E+000
  0.000000000000000E+000
  0.000000000000000E+000
  0.000000000000000E+000
  0.000000000000000E+000
  0.000000000000000E+000
  0.000000000000000E+000
  0.000000000000000E+000
  0.000000000000000E+000
  0.000000000000000E+000
  0.000000000000000E+000
  0.000000000000000E+000
  0.000000000000000E+000
  0.000000000000000E+000
  0.000000000000000E+000
  0.000000000000000E+000
  0.000000000000000E+000
  0.000000000000000E+000
  0.000000000000000E+000
  0.000000000000000E+000
  0.000000000000000E+000
  0.000000000000000E+000
  0.000000000000000E+000
  0.000000000000000E+000
  0.000000000000000E+000
  0.000000000000000E+000
  0.000000000000000E+000
  0.000000000000000E+000
  0.000000000000000E+000
  0.000000000000000E+000
  0.000000000000000E+000
  0.000000000000000E+000
  0.000000000000000E+000
  0.000000000000000E+000
  0.000000000000000E+000
  0.000000000000000E+000
  0.000000000000000E+000
  0.000000000000000E+000
  0.000000000000000E+000
  0.000000000000000E+000
  0.000000000000000E+000
  0.000000000000000E+000
  0.000000000000000E+000
  0.000000000000000E+000
  0.000000000000000E+000
  0.000000000000000E+000
  0.000000000000000E+000
  0.000000000000000E+000
  0.000000000000000E+000
  0.000000000000000E+000
  0.000000000000000E+000
  0.000000000000000E+000
  0.000000000000000E+000
  0.000000000000000E+000
  0.000000000000000E+000
  0.000000000000000E+000
  0.000000000000000E+000
  0.000000000000000E+000
  0.000000000000000E+000
  0.000000000000000E+000
  0.000000000000000E+000
  0.000000000000000E+000
  0.000000000000000E+000
  0.000000000000000E+000
  0.000000000000000E+000
  0.000000000000000E+000
  0.000000000000000E+000
  0.000000000000000E+000
  0.000000000000000E+000
  0.000000000000000E+000
  0.000000000000000E+000
  0.000000000000000E+000
  0.000000000000000E+000
  0.000000000000000E+000
  0.000000000000000E+000
  0.000000000000000E+000
  0.000000000000000E+000
  0.000000000000000E+000
  0.000000000000000E+000
  0.000000000000000E+000
  0.000000000000000E+000
  0.000000000000000E+000
  0.000000000000000E+000
  0.000000000000000E+000
  0.000000000000000E+000
  0.000000000000000E+000
  0.000000000000000E+000
  0.000000000000000E+000
  0.000000000000000E+000
  0.000000000000000E+000
  0.000000000000000E+000
  0.000000000000000E+000
  0.000000000000000E+000
  0.000000000000000E+000
  0.000000000000000E+000
  0.000000000000000E+000
  0.000000000000000E+000
  0.000000000000000E+000
  0.000000000000000E+000
  0.000000000000000E+000
  0.000000000000000E+000
  0.000000000000000E+000
  0.000000000000000E+000
  0.000000000000000E+000
  0.000000000000000E+000
  0.000000000000000E+000
  0.000000000000000E+000
  0.000000000000000E+000
  0.000000000000000E+000
  0.000000000000000E+000
  0.000000000000000E+000
  0.000000000000000E+000
  0.000000000000000E+000
  0.000000000000000E+000
  0.000000000000000E+000
  0.000000000000000E+000
  0.000000000000000E+000
  0.000000000000000E+000
  0.000000000000000E+000
  0.000000000000000E+000
  0.000000000000000E+000
  0.000000000000000E+000
  0.000000000000000E+000
  0.000000000000000E+000
  0.000000000000000E+000
  0.000000000000000E+000
  0.000000000000000E+000
  0.000000000000000E+000
  0.000000000000000E+000
  0.000000000000000E+000
  0.000000000000000E+000
  0.000000000000000E+000
  0.000000000000000E+000
  0.000000000000000E+000
  0.000000000000000E+000
  0.000000000000000E+000
  0.000000000000000E+000
  0.000000000000000E+000
  0.000000000000000E+000
  0.000000000000000E+000
  0.000000000000000E+000
  0.000000000000000E+000
  0.000000000000000E+000
  0.000000000000000E+000
  0.000000000000000E+000
  0.000000000000000E+000
  0.000000000000000E+000
  0.000000000000000E+000
  0.000000000000000E+000
  0.000000000000000E+000
  0.000000000000000E+000
  0.000000000000000E+000
  0.000000000000000E+000
  0.000000000000000E+000
  0.000000000000000E+000
  0.000000000000000E+000
  0.000000000000000E+000
  0.000000000000000E+000
  0.000000000000000E+000
  0.000000000000000E+000
  0.000000000000000E+000
  0.000000000000000E+000
  0.000000000000000E+000
  0.000000000000000E+000
  0.000000000000000E+000
  0.000000000000000E+000
  0.000000000000000E+000
  0.000000000000000E+000
  0.000000000000000E+000
  0.000000000000000E+000
  0.000000000000000E+000
  0.000000000000000E+000
  0.000000000000000E+000
  0.000000000000000E+000
  0.000000000000000E+000
  0.000000000000000E+000
  0.000000000000000E+000
  0.000000000000000E+000
  0.000000000000000E+000
  0.000000000000000E+000
  0.000000000000000E+000
  0.000000000000000E+000
  0.000000000000000E+000
  0.000000000000000E+000
  0.000000000000000E+000
  0.000000000000000E+000
  0.000000000000000E+000
  0.000000000000000E+000
  0.000000000000000E+000
  0.000000000000000E+000
  0.000000000000000E+000
  0.000000000000000E+000
  0.000000000000000E+000
  0.000000000000000E+000
  0.000000000000000E+000
  0.000000000000000E+000
  0.000000000000000E+000
  0.000000000000000E+000
  0.000000000000000E+000
  0.000000000000000E+000
  0.000000000000000E+000
  0.000000000000000E+000
  0.000000000000000E+000
  0.000000000000000E+000
  0.000000000000000E+000
  0.000000000000000E+000
  0.000000000000000E+000
  0.000000000000000E+000
  0.000000000000000E+000
  0.000000000000000E+000
  0.000000000000000E+000
  0.000000000000000E+000
  0.000000000000000E+000
  0.000000000000000E+000
  0.000000000000000E+000
  0.000000000000000E+000
  0.000000000000000E+000
  0.000000000000000E+000
  0.000000000000000E+000
  0.000000000000000E+000
  0.000000000000000E+000
  0.000000000000000E+000
  0.000000000000000E+000
  0.000000000000000E+000
  0.000000000000000E+000
  0.000000000000000E+000
  0.000000000000000E+000
  0.000000000000000E+000
  0.000000000000000E+000
  0.000000000000000E+000
  0.000000000000000E+000
  0.000000000000000E+000
  0.000000000000000E+000
  0.000000000000000E+000
  0.000000000000000E+000
  0.000000000000000E+000
  0.000000000000000E+000
  0.000000000000000E+000
  0.000000000000000E+000
  0.000000000000000E+000
  0.000000000000000E+000
  0.000000000000000E+000
  0.000000000000000E+000
  0.000000000000000E+000
  0.000000000000000E+000
  0.000000000000000E+000
  0.000000000000000E+000
  0.000000000000000E+000
  0.000000000000000E+000
  0.000000000000000E+000
  0.000000000000000E+000
  0.000000000000000E+000
  0.000000000000000E+000
  0.000000000000000E+000
  0.000000000000000E+000
  0.000000000000000E+000
  0.000000000000000E+000
  0.000000000000000E+000
  0.000000000000000E+000
  0.000000000000000E+000
  0.000000000000000E+000
  0.000000000000000E+000
  0.000000000000000E+000
  0.000000000000000E+000
  0.000000000000000E+000
  0.000000000000000E+000
  0.000000000000000E+000
  0.000000000000000E+000
  0.000000000000000E+000
  0.000000000000000E+000
  0.000000000000000E+000
  0.000000000000000E+000
  0.000000000000000E+000
  0.000000000000000E+000
  0.000000000000000E+000
  0.000000000000000E+000
  0.000000000000000E+000
  0.000000000000000E+000
  0.000000000000000E+000
  0.000000000000000E+000
  0.000000000000000E+000
  0.000000000000000E+000
  0.000000000000000E+000
  0.000000000000000E+000
  0.000000000000000E+000
  0.000000000000000E+000
  0.000000000000000E+000
  0.000000000000000E+000
  0.000000000000000E+000
  0.000000000000000E+000
  0.000000000000000E+000
  0.000000000000000E+000
  0.000000000000000E+000
  0.000000000000000E+000
  0.000000000000000E+000
  0.000000000000000E+000
  0.000000000000000E+000
  0.000000000000000E+000
  0.000000000000000E+000
  0.000000000000000E+000
  0.000000000000000E+000
  0.000000000000000E+000
  0.000000000000000E+000
  0.000000000000000E+000
  0.000000000000000E+000
  0.000000000000000E+000
  0.000000000000000E+000
  0.000000000000000E+000
  0.000000000000000E+000
  0.000000000000000E+000
  0.000000000000000E+000
  0.000000000000000E+000
  0.000000000000000E+000
  0.000000000000000E+000
  0.000000000000000E+000
  0.000000000000000E+000
  0.000000000000000E+000
  0.000000000000000E+000
  0.000000000000000E+000
  0.000000000000000E+000
  0.000000000000000E+000
  0.000000000000000E+000
  0.000000000000000E+000
  0.000000000000000E+000
  0.000000000000000E+000
  0.000000000000000E+000
  0.000000000000000E+000
  0.000000000000000E+000
  0.000000000000000E+000
  0.000000000000000E+000
  0.000000000000000E+000
  0.000000000000000E+000
  0.000000000000000E+000
  0.000000000000000E+000
  0.000000000000000E+000
  0.000000000000000E+000
  0.000000000000000E+000
  0.000000000000000E+000
  0.000000000000000E+000
  0.000000000000000E+000
  0.000000000000000E+000
  0.000000000000000E+000
  0.000000000000000E+000
  0.000000000000000E+000
  0.000000000000000E+000
  0.000000000000000E+000
  0.000000000000000E+000
  0.000000000000000E+000
  0.000000000000000E+000
  0.000000000000000E+000
  0.000000000000000E+000
  0.000000000000000E+000
  0.000000000000000E+000
  0.000000000000000E+000
  0.000000000000000E+000
  0.000000000000000E+000
  0.000000000000000E+000
  0.000000000000000E+000
  0.000000000000000E+000
  0.000000000000000E+000
  0.000000000000000E+000
  0.000000000000000E+000
  0.000000000000000E+000
  0.000000000000000E+000
  0.000000000000000E+000
  0.000000000000000E+000
  0.000000000000000E+000
  0.000000000000000E+000
  0.000000000000000E+000
  0.000000000000000E+000
  0.000000000000000E+000
  0.000000000000000E+000
  0.000000000000000E+000
  0.000000000000000E+000
  0.000000000000000E+000
  0.000000000000000E+000
  0.000000000000000E+000
  0.000000000000000E+000
  0.000000000000000E+000
  0.000000000000000E+000
  0.000000000000000E+000
  0.000000000000000E+000
  0.000000000000000E+000
  0.000000000000000E+000
  0.000000000000000E+000
  0.000000000000000E+000
  0.000000000000000E+000
  0.000000000000000E+000
  0.000000000000000E+000
  0.000000000000000E+000
  0.000000000000000E+000
  0.000000000000000E+000
  0.000000000000000E+000
  0.000000000000000E+000
  0.000000000000000E+000
  0.000000000000000E+000
  0.000000000000000E+000
  0.000000000000000E+000
  0.000000000000000E+000
  0.000000000000000E+000
  0.000000000000000E+000
  0.000000000000000E+000
  0.000000000000000E+000
  0.000000000000000E+000
  0.000000000000000E+000
  0.000000000000000E+000
  0.000000000000000E+000
  0.000000000000000E+000
  0.000000000000000E+000
  0.000000000000000E+000
  0.000000000000000E+000
  0.000000000000000E+000
  0.000000000000000E+000
  0.000000000000000E+000
  0.000000000000000E+000
  0.000000000000000E+000
  0.000000000000000E+000
  0.000000000000000E+000
  0.000000000000000E+000
  0.000000000000000E+000
  0.000000000000000E+000
  0.000000000000000E+000
  0.000000000000000E+000
  0.000000000000000E+000
  0.000000000000000E+000
  0.000000000000000E+000
  0.000000000000000E+000
  0.000000000000000E+000
  0.000000000000000E+000
  0.000000000000000E+000
  0.000000000000000E+000
  0.000000000000000E+000
  0.000000000000000E+000
  0.000000000000000E+000
  0.000000000000000E+000
  0.000000000000000E+000
  0.000000000000000E+000
  0.000000000000000E+000
  0.000000000000000E+000
  0.000000000000000E+000
  0.000000000000000E+000
  0.000000000000000E+000
  0.000000000000000E+000
  0.000000000000000E+000
  0.000000000000000E+000
  0.000000000000000E+000
  0.000000000000000E+000
  0.000000000000000E+000
  0.000000000000000E+000
  0.000000000000000E+000
  0.000000000000000E+000
  0.000000000000000E+000
  0.000000000000000E+000
  0.000000000000000E+000
  0.000000000000000E+000
  0.000000000000000E+000
  0.000000000000000E+000
  0.000000000000000E+000
  0.000000000000000E+000
  0.000000000000000E+000
  0.000000000000000E+000
  0.000000000000000E+000
  0.000000000000000E+000
  0.000000000000000E+000
  0.000000000000000E+000
  0.000000000000000E+000
  0.000000000000000E+000
  0.000000000000000E+000
  0.000000000000000E+000
  0.000000000000000E+000
  0.000000000000000E+000
  0.000000000000000E+000
  0.000000000000000E+000
  0.000000000000000E+000
  0.000000000000000E+000
  0.000000000000000E+000
  0.000000000000000E+000
  0.000000000000000E+000
  0.000000000000000E+000
  0.000000000000000E+000
  0.000000000000000E+000
  0.000000000000000E+000
  0.000000000000000E+000
  0.000000000000000E+000
  0.000000000000000E+000
  0.000000000000000E+000
  0.000000000000000E+000
  0.000000000000000E+000
  0.000000000000000E+000
  0.000000000000000E+000
  0.000000000000000E+000
  0.000000000000000E+000
  0.000000000000000E+000
  0.000000000000000E+000
  0.000000000000000E+000
  0.000000000000000E+000
  0.000000000000000E+000
  0.000000000000000E+000
  0.000000000000000E+000
  0.000000000000000E+000
  0.000000000000000E+000
  0.000000000000000E+000
  0.000000000000000E+000
  0.000000000000000E+000
  0.000000000000000E+000
  0.000000000000000E+000
  0.000000000000000E+000
  0.000000000000000E+000
  0.000000000000000E+000
  0.000000000000000E+000
  0.000000000000000E+000
  0.000000000000000E+000
  0.000000000000000E+000
  0.000000000000000E+000
  0.000000000000000E+000
  0.000000000000000E+000
  0.000000000000000E+000
  0.000000000000000E+000
  0.000000000000000E+000
  0.000000000000000E+000
  0.000000000000000E+000
  0.000000000000000E+000
  0.000000000000000E+000
  0.000000000000000E+000
  0.000000000000000E+000
  0.000000000000000E+000
  0.000000000000000E+000
  0.000000000000000E+000
  0.000000000000000E+000
  0.000000000000000E+000
  0.000000000000000E+000
  0.000000000000000E+000
  0.000000000000000E+000
  0.000000000000000E+000
  0.000000000000000E+000
  0.000000000000000E+000
  0.000000000000000E+000
  0.000000000000000E+000
  0.000000000000000E+000
  0.000000000000000E+000
  0.000000000000000E+000
  0.000000000000000E+000
  0.000000000000000E+000
  0.000000000000000E+000
  0.000000000000000E+000
  0.000000000000000E+000
  0.000000000000000E+000
  0.000000000000000E+000
  0.000000000000000E+000
  0.000000000000000E+000
  0.000000000000000E+000
  0.000000000000000E+000
  0.000000000000000E+000
  0.000000000000000E+000
  0.000000000000000E+000
  0.000000000000000E+000
  0.000000000000000E+000
  0.000000000000000E+000
  0.000000000000000E+000
  0.000000000000000E+000
  0.000000000000000E+000
  0.000000000000000E+000
  0.000000000000000E+000
  0.000000000000000E+000
  0.000000000000000E+000
  0.000000000000000E+000
  0.000000000000000E+000
  0.000000000000000E+000
  0.000000000000000E+000
  0.000000000000000E+000
  0.000000000000000E+000
  0.000000000000000E+000
  0.000000000000000E+000
  0.000000000000000E+000
  0.000000000000000E+000
  0.000000000000000E+000
  0.000000000000000E+000
  0.000000000000000E+000
  0.000000000000000E+000
  0.000000000000000E+000
  0.000000000000000E+000
  0.000000000000000E+000
  0.000000000000000E+000
  0.000000000000000E+000
  0.000000000000000E+000
  0.000000000000000E+000
  0.000000000000000E+000
  0.000000000000000E+000
  0.000000000000000E+000
  0.000000000000000E+000
  0.000000000000000E+000
  0.000000000000000E+000
  0.000000000000000E+000
  0.000000000000000E+000
  0.000000000000000E+000
  0.000000000000000E+000
  0.000000000000000E+000
  0.000000000000000E+000
  0.000000000000000E+000
  0.000000000000000E+000
  0.000000000000000E+000
  0.000000000000000E+000
  0.000000000000000E+000
  0.000000000000000E+000
  0.000000000000000E+000
  0.000000000000000E+000
  0.000000000000000E+000
  0.000000000000000E+000
  0.000000000000000E+000
  0.000000000000000E+000
  0.000000000000000E+000
  0.000000000000000E+000
  0.000000000000000E+000
  0.000000000000000E+000
  0.000000000000000E+000
  0.000000000000000E+000
  0.000000000000000E+000
  0.000000000000000E+000
  0.000000000000000E+000
  0.000000000000000E+000
  0.000000000000000E+000
  0.000000000000000E+000
  0.000000000000000E+000
  0.000000000000000E+000
  0.000000000000000E+000
  0.000000000000000E+000
  0.000000000000000E+000
  0.000000000000000E+000
  0.000000000000000E+000
  0.000000000000000E+000
  0.000000000000000E+000
  0.000000000000000E+000
  0.000000000000000E+000
  0.000000000000000E+000
  0.000000000000000E+000
  0.000000000000000E+000
  0.000000000000000E+000
  0.000000000000000E+000
  0.000000000000000E+000
  0.000000000000000E+000
  0.000000000000000E+000
  0.000000000000000E+000
  0.000000000000000E+000
  0.000000000000000E+000
  0.000000000000000E+000
  0.000000000000000E+000
  0.000000000000000E+000
  0.000000000000000E+000
  0.000000000000000E+000
  0.000000000000000E+000
  0.000000000000000E+000
  0.000000000000000E+000
  0.000000000000000E+000
  0.000000000000000E+000
  0.000000000000000E+000
  0.000000000000000E+000
  0.000000000000000E+000
  0.000000000000000E+000
  0.000000000000000E+000
  0.000000000000000E+000
  0.000000000000000E+000
  0.000000000000000E+000
  0.000000000000000E+000
  0.000000000000000E+000
  0.000000000000000E+000
  0.000000000000000E+000
  0.000000000000000E+000
  0.000000000000000E+000
  0.000000000000000E+000
  0.000000000000000E+000
  0.000000000000000E+000
  0.000000000000000E+000
  0.000000000000000E+000
  0.000000000000000E+000
  0.000000000000000E+000
  0.000000000000000E+000
  0.000000000000000E+000
  0.000000000000000E+000
  0.000000000000000E+000
  0.000000000000000E+000
  0.000000000000000E+000
  0.000000000000000E+000
  0.000000000000000E+000
  0.000000000000000E+000
  0.000000000000000E+000
  0.000000000000000E+000
  0.000000000000000E+000
  0.000000000000000E+000
  0.000000000000000E+000
  0.000000000000000E+000
  0.000000000000000E+000
  0.000000000000000E+000
  0.000000000000000E+000
  0.000000000000000E+000
  0.000000000000000E+000
  0.000000000000000E+000
  0.000000000000000E+000
  0.000000000000000E+000
  0.000000000000000E+000
  0.000000000000000E+000
  0.000000000000000E+000
  0.000000000000000E+000
  0.000000000000000E+000
  0.000000000000000E+000
  0.000000000000000E+000
  0.000000000000000E+000
  0.000000000000000E+000
  0.000000000000000E+000
  0.000000000000000E+000
  0.000000000000000E+000
  0.000000000000000E+000
  0.000000000000000E+000
  0.000000000000000E+000
  0.000000000000000E+000
  0.000000000000000E+000
  0.000000000000000E+000
  0.000000000000000E+000
  0.000000000000000E+000
  0.000000000000000E+000
  0.000000000000000E+000
  0.000000000000000E+000
  0.000000000000000E+000
  0.000000000000000E+000
  0.000000000000000E+000
  0.000000000000000E+000
  0.000000000000000E+000
  0.000000000000000E+000
  0.000000000000000E+000
  0.000000000000000E+000
  0.000000000000000E+000
  0.000000000000000E+000
  0.000000000000000E+000
  0.000000000000000E+000
  0.000000000000000E+000
  0.000000000000000E+000
  0.000000000000000E+000
  0.000000000000000E+000
  0.000000000000000E+000
  0.000000000000000E+000
  0.000000000000000E+000
  0.000000000000000E+000
  0.000000000000000E+000
  0.000000000000000E+000
  0.000000000000000E+000
  0.000000000000000E+000
  0.000000000000000E+000
  0.000000000000000E+000
  0.000000000000000E+000
  0.000000000000000E+000
  0.000000000000000E+000
  0.000000000000000E+000
  0.000000000000000E+000
  0.000000000000000E+000
  0.000000000000000E+000
  0.000000000000000E+000
  0.000000000000000E+000
  0.000000000000000E+000
  0.000000000000000E+000
  0.000000000000000E+000
  0.000000000000000E+000
  0.000000000000000E+000
  0.000000000000000E+000
  0.000000000000000E+000
  0.000000000000000E+000
  0.000000000000000E+000
  0.000000000000000E+000
  0.000000000000000E+000
  0.000000000000000E+000
  0.000000000000000E+000
  0.000000000000000E+000
  0.000000000000000E+000
  0.000000000000000E+000
  0.000000000000000E+000
  0.000000000000000E+000
  0.000000000000000E+000
  0.000000000000000E+000
  0.000000000000000E+000
  0.000000000000000E+000
  0.000000000000000E+000
  0.000000000000000E+000
  0.000000000000000E+000
  0.000000000000000E+000
  0.000000000000000E+000
  0.000000000000000E+000
  0.000000000000000E+000
  0.000000000000000E+000
  0.000000000000000E+000
  0.000000000000000E+000
  0.000000000000000E+000
  0.000000000000000E+000
  0.000000000000000E+000
  0.000000000000000E+000
  0.000000000000000E+000
  0.000000000000000E+000
  0.000000000000000E+000
  0.000000000000000E+000
  0.000000000000000E+000
  0.000000000000000E+000
  0.000000000000000E+000
  0.000000000000000E+000
  0.000000000000000E+000
  0.000000000000000E+000
  0.000000000000000E+000
  0.000000000000000E+000
  0.000000000000000E+000
  0.000000000000000E+000
  0.000000000000000E+000
  0.000000000000000E+000
  0.000000000000000E+000
  0.000000000000000E+000
  0.000000000000000E+000
  0.000000000000000E+000
  0.000000000000000E+000
  0.000000000000000E+000
  0.000000000000000E+000
  0.000000000000000E+000
  0.000000000000000E+000
  0.000000000000000E+000
  0.000000000000000E+000
  0.000000000000000E+000
  0.000000000000000E+000
  0.000000000000000E+000
  0.000000000000000E+000
  0.000000000000000E+000
  0.000000000000000E+000
  0.000000000000000E+000
  0.000000000000000E+000
  0.000000000000000E+000
  0.000000000000000E+000
  0.000000000000000E+000
  0.000000000000000E+000
  0.000000000000000E+000
  0.000000000000000E+000
  0.000000000000000E+000
  0.000000000000000E+000
  0.000000000000000E+000
  0.000000000000000E+000
  0.000000000000000E+000
  0.000000000000000E+000
  0.000000000000000E+000
  0.000000000000000E+000
  0.000000000000000E+000
  0.000000000000000E+000
  0.000000000000000E+000
  0.000000000000000E+000
  0.000000000000000E+000
  0.000000000000000E+000
  0.000000000000000E+000
  0.000000000000000E+000
  0.000000000000000E+000
  0.000000000000000E+000
  0.000000000000000E+000
  0.000000000000000E+000
  0.000000000000000E+000
  0.000000000000000E+000
  0.000000000000000E+000
  0.000000000000000E+000
  0.000000000000000E+000
  0.000000000000000E+000
  0.000000000000000E+000
  0.000000000000000E+000
  0.000000000000000E+000
  0.000000000000000E+000
  0.000000000000000E+000
  0.000000000000000E+000
  0.000000000000000E+000
  0.000000000000000E+000
  0.000000000000000E+000
  0.000000000000000E+000
  0.000000000000000E+000
  0.000000000000000E+000
  0.000000000000000E+000
  0.000000000000000E+000
  0.000000000000000E+000
  0.000000000000000E+000
  0.000000000000000E+000
  0.000000000000000E+000
  0.000000000000000E+000
  0.000000000000000E+000
  0.000000000000000E+000
  0.000000000000000E+000
  0.000000000000000E+000
  0.000000000000000E+000
  0.000000000000000E+000
  0.000000000000000E+000
  0.000000000000000E+000
  0.000000000000000E+000
  0.000000000000000E+000
  0.000000000000000E+000
  0.000000000000000E+000
  0.000000000000000E+000
  0.000000000000000E+000
  0.000000000000000E+000
  0.000000000000000E+000
  0.000000000000000E+000
  0.000000000000000E+000
  0.000000000000000E+000
  0.000000000000000E+000
  0.000000000000000E+000
  0.000000000000000E+000
  0.000000000000000E+000
  0.000000000000000E+000
  0.000000000000000E+000
  0.000000000000000E+000
  0.000000000000000E+000
  0.000000000000000E+000
  0.000000000000000E+000
  0.000000000000000E+000
  0.000000000000000E+000
  0.000000000000000E+000
  0.000000000000000E+000
  0.000000000000000E+000
  0.000000000000000E+000
  0.000000000000000E+000
  0.000000000000000E+000
  0.000000000000000E+000
  0.000000000000000E+000
  0.000000000000000E+000
  0.000000000000000E+000
  0.000000000000000E+000
  0.000000000000000E+000
  0.000000000000000E+000
  0.000000000000000E+000
  0.000000000000000E+000
  0.000000000000000E+000
  0.000000000000000E+000
  0.000000000000000E+000
  0.000000000000000E+000
  0.000000000000000E+000
  0.000000000000000E+000
  0.000000000000000E+000
  0.000000000000000E+000
  0.000000000000000E+000
  0.000000000000000E+000
  0.000000000000000E+000
  0.000000000000000E+000
  0.000000000000000E+000
  0.000000000000000E+000
  0.000000000000000E+000
  0.000000000000000E+000
  0.000000000000000E+000
  0.000000000000000E+000
  0.000000000000000E+000
  0.000000000000000E+000
  0.000000000000000E+000
  0.000000000000000E+000
  0.000000000000000E+000
  0.000000000000000E+000
  0.000000000000000E+000
  0.000000000000000E+000
  0.000000000000000E+000
  0.000000000000000E+000
  0.000000000000000E+000
  0.000000000000000E+000
  0.000000000000000E+000
  0.000000000000000E+000
  0.000000000000000E+000
  0.000000000000000E+000
  0.000000000000000E+000
  0.000000000000000E+000
  0.000000000000000E+000
  0.000000000000000E+000
  0.000000000000000E+000
  0.000000000000000E+000
  0.000000000000000E+000
  0.000000000000000E+000
  0.000000000000000E+000
  0.000000000000000E+000
  0.000000000000000E+000
  0.000000000000000E+000
  0.000000000000000E+000
  0.000000000000000E+000
  0.000000000000000E+000
  0.000000000000000E+000
  0.000000000000000E+000
  0.000000000000000E+000
  0.000000000000000E+000
  0.000000000000000E+000
  0.000000000000000E+000
  0.000000000000000E+000
  0.000000000000000E+000
  0.000000000000000E+000
  0.000000000000000E+000
  0.000000000000000E+000
  0.000000000000000E+000
  0.000000000000000E+000
  0.000000000000000E+000
  0.000000000000000E+000
  0.000000000000000E+000
  0.000000000000000E+000
  0.000000000000000E+000
  0.000000000000000E+000
  0.000000000000000E+000
  0.000000000000000E+000
  0.000000000000000E+000
  0.000000000000000E+000
  0.000000000000000E+000
  0.000000000000000E+000
  0.000000000000000E+000
  0.000000000000000E+000
  0.000000000000000E+000
  0.000000000000000E+000
  0.000000000000000E+000
  0.000000000000000E+000
  0.000000000000000E+000
  0.000000000000000E+000
  0.000000000000000E+000
  0.000000000000000E+000
  0.000000000000000E+000
  0.000000000000000E+000
  0.000000000000000E+000
  0.000000000000000E+000
  0.000000000000000E+000
  0.000000000000000E+000
  0.000000000000000E+000
  0.000000000000000E+000
  0.000000000000000E+000
  0.000000000000000E+000
  0.000000000000000E+000
  0.000000000000000E+000
  0.000000000000000E+000
  0.000000000000000E+000
  0.000000000000000E+000
  0.000000000000000E+000
  0.000000000000000E+000
  0.000000000000000E+000
  0.000000000000000E+000
  0.000000000000000E+000
  0.000000000000000E+000
  0.000000000000000E+000
  0.000000000000000E+000
  0.000000000000000E+000
  0.000000000000000E+000
  0.000000000000000E+000
  0.000000000000000E+000
  0.000000000000000E+000
  0.000000000000000E+000
  0.000000000000000E+000
  0.000000000000000E+000
  0.000000000000000E+000
  0.000000000000000E+000
  0.000000000000000E+000
  0.000000000000000E+000
  0.000000000000000E+000
  0.000000000000000E+000
  0.000000000000000E+000
  0.000000000000000E+000
  0.000000000000000E+000
  0.000000000000000E+000
  0.000000000000000E+000
  0.000000000000000E+000
  0.000000000000000E+000
  0.000000000000000E+000
  0.000000000000000E+000
  0.000000000000000E+000
  0.000000000000000E+000
  0.000000000000000E+000
  0.000000000000000E+000
  0.000000000000000E+000
  0.000000000000000E+000
  0.000000000000000E+000
  0.000000000000000E+000
  0.000000000000000E+000
  0.000000000000000E+000
  0.000000000000000E+000
  0.000000000000000E+000
  0.000000000000000E+000
  0.000000000000000E+000
  0.000000000000000E+000
  0.000000000000000E+000
  0.000000000000000E+000
  0.000000000000000E+000
  0.000000000000000E+000
  0.000000000000000E+000
  0.000000000000000E+000
  0.000000000000000E+000
  0.000000000000000E+000
  0.000000000000000E+000
  0.000000000000000E+000
  0.000000000000000E+000
  0.000000000000000E+000
  0.000000000000000E+000
  0.000000000000000E+000
  0.000000000000000E+000
  0.000000000000000E+000
  0.000000000000000E+000
  0.000000000000000E+000
  0.000000000000000E+000
  0.000000000000000E+000
  0.000000000000000E+000
  0.000000000000000E+000
  0.000000000000000E+000
  0.000000000000000E+000
  0.000000000000000E+000
  0.000000000000000E+000
  0.000000000000000E+000
  0.000000000000000E+000
  0.000000000000000E+000
  0.000000000000000E+000
  0.000000000000000E+000
  0.000000000000000E+000
  0.000000000000000E+000
  0.000000000000000E+000
  0.000000000000000E+000
  0.000000000000000E+000
  0.000000000000000E+000
  0.000000000000000E+000
  0.000000000000000E+000
  0.000000000000000E+000
  0.000000000000000E+000
  0.000000000000000E+000
  0.000000000000000E+000
  0.000000000000000E+000
  0.000000000000000E+000
  0.000000000000000E+000
  0.000000000000000E+000
  0.000000000000000E+000
  0.000000000000000E+000
  0.000000000000000E+000
  0.000000000000000E+000
  0.000000000000000E+000
  0.000000000000000E+000
  0.000000000000000E+000
  0.000000000000000E+000
  0.000000000000000E+000
  0.000000000000000E+000
  0.000000000000000E+000
  0.000000000000000E+000
  0.000000000000000E+000
  0.000000000000000E+000
  0.000000000000000E+000
  0.000000000000000E+000
  0.000000000000000E+000
  0.000000000000000E+000
  0.000000000000000E+000
  0.000000000000000E+000
  0.000000000000000E+000
  0.000000000000000E+000
  0.000000000000000E+000
  0.000000000000000E+000
  0.000000000000000E+000
  0.000000000000000E+000
  0.000000000000000E+000
  0.000000000000000E+000
  0.000000000000000E+000
  0.000000000000000E+000
  0.000000000000000E+000
  0.000000000000000E+000
  0.000000000000000E+000
  0.000000000000000E+000
  0.000000000000000E+000
  0.000000000000000E+000
  0.000000000000000E+000
  0.000000000000000E+000
  0.000000000000000E+000
  0.000000000000000E+000
  0.000000000000000E+000
  0.000000000000000E+000
  0.000000000000000E+000
  0.000000000000000E+000
  0.000000000000000E+000
  0.000000000000000E+000
  0.000000000000000E+000
  0.000000000000000E+000
  0.000000000000000E+000
  0.000000000000000E+000
  0.000000000000000E+000
  0.000000000000000E+000
  0.000000000000000E+000
  0.000000000000000E+000
  0.000000000000000E+000
  0.000000000000000E+000
  0.000000000000000E+000
  0.000000000000000E+000
  0.000000000000000E+000
  0.000000000000000E+000
  0.000000000000000E+000
  0.000000000000000E+000
  0.000000000000000E+000
  0.000000000000000E+000
  0.000000000000000E+000
  0.000000000000000E+000
  0.000000000000000E+000
  0.000000000000000E+000
  0.000000000000000E+000
  0.000000000000000E+000
  0.000000000000000E+000
  0.000000000000000E+000
  0.000000000000000E+000
  0.000000000000000E+000
  0.000000000000000E+000
  0.000000000000000E+000
  0.000000000000000E+000
  0.000000000000000E+000
  0.000000000000000E+000
  0.000000000000000E+000
  0.000000000000000E+000
  0.000000000000000E+000
  0.000000000000000E+000
  0.000000000000000E+000
  0.000000000000000E+000
  0.000000000000000E+000
  0.000000000000000E+000
  0.000000000000000E+000
  0.000000000000000E+000
  0.000000000000000E+000
  0.000000000000000E+000
  0.000000000000000E+000
  0.000000000000000E+000
  0.000000000000000E+000
  0.000000000000000E+000
  0.000000000000000E+000
  0.000000000000000E+000
  0.000000000000000E+000
  0.000000000000000E+000
  0.000000000000000E+000
  0.000000000000000E+000
  0.000000000000000E+000
  0.000000000000000E+000
  0.000000000000000E+000
  0.000000000000000E+000
  0.000000000000000E+000
  0.000000000000000E+000
  0.000000000000000E+000
  0.000000000000000E+000
  0.000000000000000E+000
  0.000000000000000E+000
  0.000000000000000E+000
  0.000000000000000E+000
  0.000000000000000E+000
  0.000000000000000E+000
  0.000000000000000E+000
  0.000000000000000E+000
  0.000000000000000E+000
  0.000000000000000E+000
  0.000000000000000E+000
  0.000000000000000E+000
  0.000000000000000E+000
  0.000000000000000E+000
  0.000000000000000E+000
  0.000000000000000E+000
  0.000000000000000E+000
  0.000000000000000E+000
  0.000000000000000E+000
  0.000000000000000E+000
  0.000000000000000E+000
  0.000000000000000E+000
  0.000000000000000E+000
  0.000000000000000E+000
  0.000000000000000E+000
  0.000000000000000E+000
  0.000000000000000E+000
  0.000000000000000E+000
  0.000000000000000E+000
  0.000000000000000E+000
  0.000000000000000E+000
  0.000000000000000E+000
  0.000000000000000E+000
  0.000000000000000E+000
  0.000000000000000E+000
  0.000000000000000E+000
  0.000000000000000E+000
  0.000000000000000E+000
  0.000000000000000E+000
  0.000000000000000E+000
  0.000000000000000E+000
  0.000000000000000E+000
  0.000000000000000E+000
  0.000000000000000E+000
  0.000000000000000E+000
  0.000000000000000E+000
  0.000000000000000E+000
  0.000000000000000E+000
  0.000000000000000E+000
  0.000000000000000E+000
  0.000000000000000E+000
  0.000000000000000E+000
  0.000000000000000E+000
  0.000000000000000E+000
  0.000000000000000E+000
  0.000000000000000E+000
  0.000000000000000E+000
  0.000000000000000E+000
  0.000000000000000E+000
  0.000000000000000E+000
  0.000000000000000E+000
  0.000000000000000E+000
  0.000000000000000E+000
  0.000000000000000E+000
  0.000000000000000E+000
  0.000000000000000E+000
  0.000000000000000E+000
  0.000000000000000E+000
  0.000000000000000E+000
  0.000000000000000E+000
  0.000000000000000E+000
  0.000000000000000E+000
  0.000000000000000E+000
  0.000000000000000E+000
  0.000000000000000E+000
  0.000000000000000E+000
  0.000000000000000E+000
  0.000000000000000E+000
  0.000000000000000E+000
  0.000000000000000E+000
  0.000000000000000E+000
  0.000000000000000E+000
  0.000000000000000E+000
  0.000000000000000E+000
  0.000000000000000E+000
  0.000000000000000E+000
  0.000000000000000E+000
  0.000000000000000E+000
  0.000000000000000E+000
  0.000000000000000E+000
  0.000000000000000E+000
  0.000000000000000E+000
  0.000000000000000E+000
  0.000000000000000E+000
  0.000000000000000E+000
  0.000000000000000E+000
  0.000000000000000E+000
  0.000000000000000E+000
  0.000000000000000E+000
  0.000000000000000E+000
  0.000000000000000E+000
  0.000000000000000E+000
  0.000000000000000E+000
  0.000000000000000E+000
  0.000000000000000E+000
  0.000000000000000E+000
  0.000000000000000E+000
  0.000000000000000E+000
  0.000000000000000E+000
  0.000000000000000E+000
  0.000000000000000E+000
  0.000000000000000E+000
  0.000000000000000E+000
  0.000000000000000E+000
  0.000000000000000E+000
  0.000000000000000E+000
  0.000000000000000E+000
  0.000000000000000E+000
  0.000000000000000E+000
  0.000000000000000E+000
  0.000000000000000E+000
  0.000000000000000E+000
  0.000000000000000E+000
  0.000000000000000E+000
  0.000000000000000E+000
  0.000000000000000E+000
  0.000000000000000E+000
  0.000000000000000E+000
  0.000000000000000E+000
  0.000000000000000E+000
  0.000000000000000E+000
  0.000000000000000E+000
  0.000000000000000E+000
  0.000000000000000E+000
  0.000000000000000E+000
  0.000000000000000E+000
  0.000000000000000E+000
  0.000000000000000E+000
  0.000000000000000E+000
  0.000000000000000E+000
  0.000000000000000E+000
  0.000000000000000E+000
  0.000000000000000E+000
  0.000000000000000E+000
  0.000000000000000E+000
  0.000000000000000E+000
  0.000000000000000E+000
  0.000000000000000E+000
  0.000000000000000E+000
  0.000000000000000E+000
  0.000000000000000E+000
  0.000000000000000E+000
  0.000000000000000E+000
  0.000000000000000E+000
  0.000000000000000E+000
  0.000000000000000E+000
  0.000000000000000E+000
  0.000000000000000E+000
  0.000000000000000E+000
  0.000000000000000E+000
  0.000000000000000E+000
  0.000000000000000E+000
  0.000000000000000E+000
  0.000000000000000E+000
  0.000000000000000E+000
  0.000000000000000E+000
  0.000000000000000E+000
  0.000000000000000E+000
  0.000000000000000E+000
  0.000000000000000E+000
  0.000000000000000E+000
  0.000000000000000E+000
  0.000000000000000E+000
  0.000000000000000E+000
  0.000000000000000E+000
  0.000000000000000E+000
  0.000000000000000E+000
  0.000000000000000E+000
  0.000000000000000E+000
  0.000000000000000E+000
  0.000000000000000E+000
  0.000000000000000E+000
  0.000000000000000E+000
  0.000000000000000E+000
  0.000000000000000E+000
  0.000000000000000E+000
  0.000000000000000E+000
  0.000000000000000E+000
  0.000000000000000E+000
  0.000000000000000E+000
  0.000000000000000E+000
  0.000000000000000E+000
  0.000000000000000E+000
  0.000000000000000E+000
  0.000000000000000E+000
  0.000000000000000E+000
  0.000000000000000E+000
  0.000000000000000E+000
  0.000000000000000E+000
  0.000000000000000E+000
  0.000000000000000E+000
  0.000000000000000E+000
  0.000000000000000E+000
  0.000000000000000E+000
  0.000000000000000E+000
  0.000000000000000E+000
  0.000000000000000E+000
  0.000000000000000E+000
  0.000000000000000E+000
  0.000000000000000E+000
  0.000000000000000E+000
  0.000000000000000E+000
  0.000000000000000E+000
  0.000000000000000E+000
  0.000000000000000E+000
  0.000000000000000E+000
  0.000000000000000E+000
  0.000000000000000E+000
  0.000000000000000E+000
  0.000000000000000E+000
  0.000000000000000E+000
  0.000000000000000E+000
  0.000000000000000E+000
  0.000000000000000E+000
  0.000000000000000E+000
  0.000000000000000E+000
  0.000000000000000E+000
  0.000000000000000E+000
  0.000000000000000E+000
  0.000000000000000E+000
  0.000000000000000E+000
  0.000000000000000E+000
  0.000000000000000E+000
  0.000000000000000E+000
  0.000000000000000E+000
  0.000000000000000E+000
  0.000000000000000E+000
  0.000000000000000E+000
  0.000000000000000E+000
  0.000000000000000E+000
  0.000000000000000E+000
  0.000000000000000E+000
  0.000000000000000E+000
  0.000000000000000E+000
  0.000000000000000E+000
  0.000000000000000E+000
  0.000000000000000E+000
  0.000000000000000E+000
  0.000000000000000E+000
  0.000000000000000E+000
  0.000000000000000E+000
  0.000000000000000E+000
  0.000000000000000E+000
  0.000000000000000E+000
  0.000000000000000E+000
  0.000000000000000E+000
  0.000000000000000E+000
  0.000000000000000E+000
  0.000000000000000E+000
  0.000000000000000E+000
  0.000000000000000E+000
  0.000000000000000E+000
  0.000000000000000E+000
  0.000000000000000E+000
  0.000000000000000E+000
  0.000000000000000E+000
  0.000000000000000E+000
  0.000000000000000E+000
  0.000000000000000E+000
  0.000000000000000E+000
  0.000000000000000E+000
  0.000000000000000E+000
  0.000000000000000E+000
  0.000000000000000E+000
  0.000000000000000E+000
  0.000000000000000E+000
  0.000000000000000E+000
  0.000000000000000E+000
  0.000000000000000E+000
  0.000000000000000E+000
  0.000000000000000E+000
  0.000000000000000E+000
  0.000000000000000E+000
  0.000000000000000E+000
  0.000000000000000E+000
  0.000000000000000E+000
  0.000000000000000E+000
  0.000000000000000E+000
  0.000000000000000E+000
  0.000000000000000E+000
  0.000000000000000E+000
  0.000000000000000E+000
  0.000000000000000E+000
  0.000000000000000E+000
  0.000000000000000E+000
  0.000000000000000E+000
  0.000000000000000E+000
  0.000000000000000E+000
  0.000000000000000E+000
  0.000000000000000E+000
  0.000000000000000E+000
  0.000000000000000E+000
  0.000000000000000E+000
  0.000000000000000E+000
  0.000000000000000E+000
  0.000000000000000E+000
  0.000000000000000E+000
  0.000000000000000E+000
  0.000000000000000E+000
  0.000000000000000E+000
  0.000000000000000E+000
  0.000000000000000E+000
  0.000000000000000E+000
  0.000000000000000E+000
  0.000000000000000E+000
  0.000000000000000E+000
  0.000000000000000E+000
  0.000000000000000E+000
  0.000000000000000E+000
  0.000000000000000E+000
  0.000000000000000E+000
  0.000000000000000E+000
  0.000000000000000E+000
  0.000000000000000E+000
  0.000000000000000E+000
  0.000000000000000E+000
  0.000000000000000E+000
  0.000000000000000E+000
  0.000000000000000E+000
  0.000000000000000E+000
  0.000000000000000E+000
  0.000000000000000E+000
  0.000000000000000E+000
  0.000000000000000E+000
  0.000000000000000E+000
  0.000000000000000E+000
  0.000000000000000E+000
  0.000000000000000E+000
  0.000000000000000E+000
  0.000000000000000E+000
  0.000000000000000E+000
  0.000000000000000E+000
  0.000000000000000E+000
  0.000000000000000E+000
  0.000000000000000E+000
  0.000000000000000E+000
  0.000000000000000E+000
  0.000000000000000E+000
  0.000000000000000E+000
  0.000000000000000E+000
  0.000000000000000E+000
  0.000000000000000E+000
  0.000000000000000E+000
  0.000000000000000E+000
  0.000000000000000E+000
  0.000000000000000E+000
  0.000000000000000E+000
  0.000000000000000E+000
  0.000000000000000E+000
  0.000000000000000E+000
  0.000000000000000E+000
  0.000000000000000E+000
  0.000000000000000E+000
  0.000000000000000E+000
  0.000000000000000E+000
  0.000000000000000E+000
  0.000000000000000E+000
  0.000000000000000E+000
  0.000000000000000E+000
  0.000000000000000E+000
  0.000000000000000E+000
  0.000000000000000E+000
  0.000000000000000E+000
  0.000000000000000E+000
  0.000000000000000E+000
  0.000000000000000E+000
  0.000000000000000E+000
  0.000000000000000E+000
  0.000000000000000E+000
  0.000000000000000E+000
  0.000000000000000E+000
  0.000000000000000E+000
  0.000000000000000E+000
  0.000000000000000E+000
  0.000000000000000E+000
  0.000000000000000E+000
  0.000000000000000E+000
  0.000000000000000E+000
  0.000000000000000E+000
  0.000000000000000E+000
  0.000000000000000E+000
  0.000000000000000E+000
  0.000000000000000E+000
  0.000000000000000E+000
  0.000000000000000E+000
  0.000000000000000E+000
  0.000000000000000E+000
  0.000000000000000E+000
  0.000000000000000E+000
  0.000000000000000E+000
  0.000000000000000E+000
  0.000000000000000E+000
  0.000000000000000E+000
  0.000000000000000E+000
  0.000000000000000E+000
  0.000000000000000E+000
  0.000000000000000E+000
  0.000000000000000E+000
  0.000000000000000E+000
  0.000000000000000E+000
  0.000000000000000E+000
  0.000000000000000E+000
  0.000000000000000E+000
  0.000000000000000E+000
  0.000000000000000E+000
  0.000000000000000E+000
  0.000000000000000E+000
  0.000000000000000E+000
  0.000000000000000E+000
  0.000000000000000E+000
  0.000000000000000E+000
  0.000000000000000E+000
  0.000000000000000E+000
  0.000000000000000E+000
  0.000000000000000E+000
  0.000000000000000E+000
  0.000000000000000E+000
  0.000000000000000E+000
  0.000000000000000E+000
  0.000000000000000E+000
  0.000000000000000E+000
  0.000000000000000E+000
  0.000000000000000E+000
  0.000000000000000E+000
  0.000000000000000E+000
  0.000000000000000E+000
  0.000000000000000E+000
  0.000000000000000E+000
  0.000000000000000E+000
  0.000000000000000E+000
  0.000000000000000E+000
  0.000000000000000E+000
  0.000000000000000E+000
  0.000000000000000E+000
  0.000000000000000E+000
  0.000000000000000E+000
  0.000000000000000E+000
  0.000000000000000E+000
  0.000000000000000E+000
  0.000000000000000E+000
  0.000000000000000E+000
  0.000000000000000E+000
  0.000000000000000E+000
  0.000000000000000E+000
  0.000000000000000E+000
  0.000000000000000E+000
  0.000000000000000E+000
  0.000000000000000E+000
  0.000000000000000E+000
  0.000000000000000E+000
  0.000000000000000E+000
  0.000000000000000E+000
  0.000000000000000E+000
  0.000000000000000E+000
  0.000000000000000E+000
  0.000000000000000E+000
  0.000000000000000E+000
  0.000000000000000E+000
  0.000000000000000E+000
  0.000000000000000E+000
  0.000000000000000E+000
  0.000000000000000E+000
  0.000000000000000E+000
  0.000000000000000E+000
  0.000000000000000E+000
  0.000000000000000E+000
  0.000000000000000E+000
  0.000000000000000E+000
  0.000000000000000E+000
  0.000000000000000E+000
  0.000000000000000E+000
  0.000000000000000E+000
  0.000000000000000E+000
  0.000000000000000E+000
  0.000000000000000E+000
  0.000000000000000E+000
  0.000000000000000E+000
  0.000000000000000E+000
  0.000000000000000E+000
  0.000000000000000E+000
  0.000000000000000E+000
  0.000000000000000E+000
  0.000000000000000E+000
  0.000000000000000E+000
  0.000000000000000E+000
  0.000000000000000E+000
  0.000000000000000E+000
  0.000000000000000E+000
  0.000000000000000E+000
  0.000000000000000E+000
  0.000000000000000E+000
  0.000000000000000E+000
  0.000000000000000E+000
  0.000000000000000E+000
  0.000000000000000E+000
  0.000000000000000E+000
  0.000000000000000E+000
  0.000000000000000E+000
  0.000000000000000E+000
  0.000000000000000E+000
  0.000000000000000E+000
  0.000000000000000E+000
  0.000000000000000E+000
  0.000000000000000E+000
  0.000000000000000E+000
  0.000000000000000E+000
  0.000000000000000E+000
  0.000000000000000E+000
  0.000000000000000E+000
  0.000000000000000E+000
  0.000000000000000E+000
  0.000000000000000E+000
  0.000000000000000E+000
  0.000000000000000E+000
  0.000000000000000E+000
  0.000000000000000E+000
  0.000000000000000E+000
  0.000000000000000E+000
  0.000000000000000E+000
  0.000000000000000E+000
  0.000000000000000E+000
  0.000000000000000E+000
  0.000000000000000E+000
  0.000000000000000E+000
  0.000000000000000E+000
  0.000000000000000E+000
  0.000000000000000E+000
  0.000000000000000E+000
  0.000000000000000E+000
SCALARS elementIsPlast double 
LOOKUP_TABLE default
  0.000000000000000E+000
  0.000000000000000E+000
  0.000000000000000E+000
  0.000000000000000E+000
  0.000000000000000E+000
   1.00000000000000     
   1.00000000000000     
   1.00000000000000     
   1.00000000000000     
   1.00000000000000     
   1.00000000000000     
   1.00000000000000     
   1.00000000000000     
   1.00000000000000     
   1.00000000000000     
   1.00000000000000     
   1.00000000000000     
  0.000000000000000E+000
  0.000000000000000E+000
  0.000000000000000E+000
  0.000000000000000E+000
  0.000000000000000E+000
  0.000000000000000E+000
  0.000000000000000E+000
  0.000000000000000E+000
  0.000000000000000E+000
  0.000000000000000E+000
  0.000000000000000E+000
  0.000000000000000E+000
  0.000000000000000E+000
  0.000000000000000E+000
  0.000000000000000E+000
  0.000000000000000E+000
  0.000000000000000E+000
  0.000000000000000E+000
   1.00000000000000     
   1.00000000000000     
   1.00000000000000     
   1.00000000000000     
   1.00000000000000     
   1.00000000000000     
   1.00000000000000     
   1.00000000000000     
   1.00000000000000     
   1.00000000000000     
   1.00000000000000     
   1.00000000000000     
   1.00000000000000     
   1.00000000000000     
   1.00000000000000     
   1.00000000000000     
   1.00000000000000     
   1.00000000000000     
   1.00000000000000     
   1.00000000000000     
   1.00000000000000     
   1.00000000000000     
   1.00000000000000     
   1.00000000000000     
   1.00000000000000     
  0.000000000000000E+000
  0.000000000000000E+000
  0.000000000000000E+000
  0.000000000000000E+000
  0.000000000000000E+000
  0.000000000000000E+000
  0.000000000000000E+000
  0.000000000000000E+000
  0.000000000000000E+000
  0.000000000000000E+000
  0.000000000000000E+000
  0.000000000000000E+000
  0.000000000000000E+000
  0.000000000000000E+000
  0.000000000000000E+000
  0.000000000000000E+000
  0.000000000000000E+000
  0.000000000000000E+000
  0.000000000000000E+000
  0.000000000000000E+000
  0.000000000000000E+000
  0.000000000000000E+000
  0.000000000000000E+000
  0.000000000000000E+000
  0.000000000000000E+000
  0.000000000000000E+000
   1.00000000000000     
   1.00000000000000     
   1.00000000000000     
   1.00000000000000     
   1.00000000000000     
   1.00000000000000     
   1.00000000000000     
   1.00000000000000     
   1.00000000000000     
   1.00000000000000     
   1.00000000000000     
   1.00000000000000     
   1.00000000000000     
   1.00000000000000     
  0.000000000000000E+000
  0.000000000000000E+000
  0.000000000000000E+000
  0.000000000000000E+000
  0.000000000000000E+000
  0.000000000000000E+000
  0.000000000000000E+000
  0.000000000000000E+000
  0.000000000000000E+000
  0.000000000000000E+000
  0.000000000000000E+000
  0.000000000000000E+000
  0.000000000000000E+000
  0.000000000000000E+000
  0.000000000000000E+000
  0.000000000000000E+000
  0.000000000000000E+000
  0.000000000000000E+000
  0.000000000000000E+000
  0.000000000000000E+000
  0.000000000000000E+000
  0.000000000000000E+000
  0.000000000000000E+000
  0.000000000000000E+000
  0.000000000000000E+000
  0.000000000000000E+000
  0.000000000000000E+000
  0.000000000000000E+000
  0.000000000000000E+000
  0.000000000000000E+000
  0.000000000000000E+000
  0.000000000000000E+000
  0.000000000000000E+000
  0.000000000000000E+000
  0.000000000000000E+000
  0.000000000000000E+000
  0.000000000000000E+000
  0.000000000000000E+000
   1.00000000000000     
   1.00000000000000     
   1.00000000000000     
   1.00000000000000     
   1.00000000000000     
   1.00000000000000     
   1.00000000000000     
   1.00000000000000     
   1.00000000000000     
   1.00000000000000     
   1.00000000000000     
   1.00000000000000     
  0.000000000000000E+000
  0.000000000000000E+000
  0.000000000000000E+000
  0.000000000000000E+000
  0.000000000000000E+000
  0.000000000000000E+000
  0.000000000000000E+000
  0.000000000000000E+000
  0.000000000000000E+000
  0.000000000000000E+000
  0.000000000000000E+000
  0.000000000000000E+000
  0.000000000000000E+000
  0.000000000000000E+000
  0.000000000000000E+000
  0.000000000000000E+000
  0.000000000000000E+000
  0.000000000000000E+000
  0.000000000000000E+000
  0.000000000000000E+000
  0.000000000000000E+000
  0.000000000000000E+000
  0.000000000000000E+000
  0.000000000000000E+000
  0.000000000000000E+000
  0.000000000000000E+000
  0.000000000000000E+000
  0.000000000000000E+000
  0.000000000000000E+000
  0.000000000000000E+000
  0.000000000000000E+000
  0.000000000000000E+000
  0.000000000000000E+000
  0.000000000000000E+000
  0.000000000000000E+000
  0.000000000000000E+000
  0.000000000000000E+000
  0.000000000000000E+000
  0.000000000000000E+000
   1.00000000000000     
   1.00000000000000     
   1.00000000000000     
   1.00000000000000     
   1.00000000000000     
   1.00000000000000     
   1.00000000000000     
   1.00000000000000     
   1.00000000000000     
   1.00000000000000     
   1.00000000000000     
  0.000000000000000E+000
  0.000000000000000E+000
  0.000000000000000E+000
  0.000000000000000E+000
  0.000000000000000E+000
  0.000000000000000E+000
  0.000000000000000E+000
  0.000000000000000E+000
  0.000000000000000E+000
  0.000000000000000E+000
  0.000000000000000E+000
  0.000000000000000E+000
  0.000000000000000E+000
  0.000000000000000E+000
  0.000000000000000E+000
  0.000000000000000E+000
  0.000000000000000E+000
  0.000000000000000E+000
  0.000000000000000E+000
  0.000000000000000E+000
  0.000000000000000E+000
  0.000000000000000E+000
  0.000000000000000E+000
  0.000000000000000E+000
  0.000000000000000E+000
  0.000000000000000E+000
  0.000000000000000E+000
  0.000000000000000E+000
  0.000000000000000E+000
  0.000000000000000E+000
  0.000000000000000E+000
  0.000000000000000E+000
  0.000000000000000E+000
  0.000000000000000E+000
  0.000000000000000E+000
  0.000000000000000E+000
  0.000000000000000E+000
  0.000000000000000E+000
  0.000000000000000E+000
  0.000000000000000E+000
  0.000000000000000E+000
  0.000000000000000E+000
   1.00000000000000     
   1.00000000000000     
   1.00000000000000     
   1.00000000000000     
   1.00000000000000     
   1.00000000000000     
   1.00000000000000     
   1.00000000000000     
  0.000000000000000E+000
  0.000000000000000E+000
  0.000000000000000E+000
  0.000000000000000E+000
  0.000000000000000E+000
  0.000000000000000E+000
  0.000000000000000E+000
  0.000000000000000E+000
  0.000000000000000E+000
  0.000000000000000E+000
  0.000000000000000E+000
  0.000000000000000E+000
  0.000000000000000E+000
  0.000000000000000E+000
  0.000000000000000E+000
  0.000000000000000E+000
  0.000000000000000E+000
  0.000000000000000E+000
  0.000000000000000E+000
  0.000000000000000E+000
  0.000000000000000E+000
  0.000000000000000E+000
  0.000000000000000E+000
  0.000000000000000E+000
  0.000000000000000E+000
  0.000000000000000E+000
  0.000000000000000E+000
  0.000000000000000E+000
  0.000000000000000E+000
  0.000000000000000E+000
  0.000000000000000E+000
  0.000000000000000E+000
  0.000000000000000E+000
  0.000000000000000E+000
  0.000000000000000E+000
  0.000000000000000E+000
  0.000000000000000E+000
  0.000000000000000E+000
  0.000000000000000E+000
  0.000000000000000E+000
  0.000000000000000E+000
  0.000000000000000E+000
  0.000000000000000E+000
  0.000000000000000E+000
  0.000000000000000E+000
   1.00000000000000     
   1.00000000000000     
   1.00000000000000     
   1.00000000000000     
   1.00000000000000     
  0.000000000000000E+000
  0.000000000000000E+000
  0.000000000000000E+000
  0.000000000000000E+000
  0.000000000000000E+000
  0.000000000000000E+000
  0.000000000000000E+000
  0.000000000000000E+000
  0.000000000000000E+000
  0.000000000000000E+000
  0.000000000000000E+000
  0.000000000000000E+000
  0.000000000000000E+000
  0.000000000000000E+000
  0.000000000000000E+000
  0.000000000000000E+000
  0.000000000000000E+000
  0.000000000000000E+000
  0.000000000000000E+000
  0.000000000000000E+000
  0.000000000000000E+000
  0.000000000000000E+000
  0.000000000000000E+000
  0.000000000000000E+000
  0.000000000000000E+000
  0.000000000000000E+000
  0.000000000000000E+000
  0.000000000000000E+000
  0.000000000000000E+000
  0.000000000000000E+000
  0.000000000000000E+000
  0.000000000000000E+000
  0.000000000000000E+000
  0.000000000000000E+000
  0.000000000000000E+000
  0.000000000000000E+000
  0.000000000000000E+000
  0.000000000000000E+000
  0.000000000000000E+000
  0.000000000000000E+000
  0.000000000000000E+000
  0.000000000000000E+000
  0.000000000000000E+000
  0.000000000000000E+000
  0.000000000000000E+000
  0.000000000000000E+000
  0.000000000000000E+000
  0.000000000000000E+000
  0.000000000000000E+000
   1.00000000000000     
  0.000000000000000E+000
  0.000000000000000E+000
  0.000000000000000E+000
  0.000000000000000E+000
  0.000000000000000E+000
  0.000000000000000E+000
  0.000000000000000E+000
  0.000000000000000E+000
  0.000000000000000E+000
  0.000000000000000E+000
  0.000000000000000E+000
  0.000000000000000E+000
  0.000000000000000E+000
  0.000000000000000E+000
  0.000000000000000E+000
  0.000000000000000E+000
  0.000000000000000E+000
  0.000000000000000E+000
  0.000000000000000E+000
  0.000000000000000E+000
  0.000000000000000E+000
  0.000000000000000E+000
  0.000000000000000E+000
  0.000000000000000E+000
  0.000000000000000E+000
  0.000000000000000E+000
  0.000000000000000E+000
  0.000000000000000E+000
  0.000000000000000E+000
  0.000000000000000E+000
  0.000000000000000E+000
  0.000000000000000E+000
  0.000000000000000E+000
  0.000000000000000E+000
  0.000000000000000E+000
  0.000000000000000E+000
  0.000000000000000E+000
  0.000000000000000E+000
  0.000000000000000E+000
  0.000000000000000E+000
  0.000000000000000E+000
  0.000000000000000E+000
  0.000000000000000E+000
  0.000000000000000E+000
  0.000000000000000E+000
  0.000000000000000E+000
  0.000000000000000E+000
  0.000000000000000E+000
  0.000000000000000E+000
  0.000000000000000E+000
  0.000000000000000E+000
  0.000000000000000E+000
  0.000000000000000E+000
  0.000000000000000E+000
  0.000000000000000E+000
  0.000000000000000E+000
  0.000000000000000E+000
  0.000000000000000E+000
  0.000000000000000E+000
  0.000000000000000E+000
  0.000000000000000E+000
  0.000000000000000E+000
  0.000000000000000E+000
  0.000000000000000E+000
  0.000000000000000E+000
  0.000000000000000E+000
  0.000000000000000E+000
  0.000000000000000E+000
  0.000000000000000E+000
  0.000000000000000E+000
  0.000000000000000E+000
  0.000000000000000E+000
  0.000000000000000E+000
  0.000000000000000E+000
  0.000000000000000E+000
  0.000000000000000E+000
  0.000000000000000E+000
  0.000000000000000E+000
  0.000000000000000E+000
  0.000000000000000E+000
  0.000000000000000E+000
  0.000000000000000E+000
  0.000000000000000E+000
  0.000000000000000E+000
  0.000000000000000E+000
  0.000000000000000E+000
  0.000000000000000E+000
  0.000000000000000E+000
  0.000000000000000E+000
  0.000000000000000E+000
  0.000000000000000E+000
  0.000000000000000E+000
  0.000000000000000E+000
  0.000000000000000E+000
  0.000000000000000E+000
  0.000000000000000E+000
  0.000000000000000E+000
  0.000000000000000E+000
  0.000000000000000E+000
  0.000000000000000E+000
  0.000000000000000E+000
  0.000000000000000E+000
  0.000000000000000E+000
  0.000000000000000E+000
  0.000000000000000E+000
  0.000000000000000E+000
  0.000000000000000E+000
  0.000000000000000E+000
  0.000000000000000E+000
  0.000000000000000E+000
  0.000000000000000E+000
  0.000000000000000E+000
  0.000000000000000E+000
  0.000000000000000E+000
  0.000000000000000E+000
  0.000000000000000E+000
  0.000000000000000E+000
  0.000000000000000E+000
  0.000000000000000E+000
  0.000000000000000E+000
  0.000000000000000E+000
  0.000000000000000E+000
  0.000000000000000E+000
  0.000000000000000E+000
  0.000000000000000E+000
  0.000000000000000E+000
  0.000000000000000E+000
  0.000000000000000E+000
  0.000000000000000E+000
  0.000000000000000E+000
  0.000000000000000E+000
  0.000000000000000E+000
  0.000000000000000E+000
  0.000000000000000E+000
  0.000000000000000E+000
  0.000000000000000E+000
  0.000000000000000E+000
  0.000000000000000E+000
  0.000000000000000E+000
  0.000000000000000E+000
  0.000000000000000E+000
  0.000000000000000E+000
  0.000000000000000E+000
  0.000000000000000E+000
  0.000000000000000E+000
  0.000000000000000E+000
  0.000000000000000E+000
  0.000000000000000E+000
  0.000000000000000E+000
  0.000000000000000E+000
  0.000000000000000E+000
  0.000000000000000E+000
  0.000000000000000E+000
  0.000000000000000E+000
  0.000000000000000E+000
  0.000000000000000E+000
  0.000000000000000E+000
  0.000000000000000E+000
  0.000000000000000E+000
  0.000000000000000E+000
  0.000000000000000E+000
  0.000000000000000E+000
  0.000000000000000E+000
  0.000000000000000E+000
  0.000000000000000E+000
  0.000000000000000E+000
  0.000000000000000E+000
  0.000000000000000E+000
  0.000000000000000E+000
  0.000000000000000E+000
  0.000000000000000E+000
  0.000000000000000E+000
  0.000000000000000E+000
  0.000000000000000E+000
  0.000000000000000E+000
  0.000000000000000E+000
  0.000000000000000E+000
  0.000000000000000E+000
  0.000000000000000E+000
  0.000000000000000E+000
  0.000000000000000E+000
  0.000000000000000E+000
  0.000000000000000E+000
  0.000000000000000E+000
  0.000000000000000E+000
  0.000000000000000E+000
  0.000000000000000E+000
  0.000000000000000E+000
  0.000000000000000E+000
  0.000000000000000E+000
  0.000000000000000E+000
  0.000000000000000E+000
  0.000000000000000E+000
  0.000000000000000E+000
  0.000000000000000E+000
  0.000000000000000E+000
  0.000000000000000E+000
  0.000000000000000E+000
  0.000000000000000E+000
  0.000000000000000E+000
  0.000000000000000E+000
  0.000000000000000E+000
  0.000000000000000E+000
  0.000000000000000E+000
  0.000000000000000E+000
  0.000000000000000E+000
  0.000000000000000E+000
  0.000000000000000E+000
  0.000000000000000E+000
  0.000000000000000E+000
  0.000000000000000E+000
  0.000000000000000E+000
  0.000000000000000E+000
  0.000000000000000E+000
  0.000000000000000E+000
  0.000000000000000E+000
  0.000000000000000E+000
  0.000000000000000E+000
  0.000000000000000E+000
  0.000000000000000E+000
  0.000000000000000E+000
  0.000000000000000E+000
  0.000000000000000E+000
  0.000000000000000E+000
  0.000000000000000E+000
  0.000000000000000E+000
  0.000000000000000E+000
  0.000000000000000E+000
  0.000000000000000E+000
  0.000000000000000E+000
  0.000000000000000E+000
  0.000000000000000E+000
  0.000000000000000E+000
  0.000000000000000E+000
  0.000000000000000E+000
  0.000000000000000E+000
  0.000000000000000E+000
  0.000000000000000E+000
  0.000000000000000E+000
  0.000000000000000E+000
  0.000000000000000E+000
  0.000000000000000E+000
  0.000000000000000E+000
  0.000000000000000E+000
  0.000000000000000E+000
  0.000000000000000E+000
  0.000000000000000E+000
  0.000000000000000E+000
  0.000000000000000E+000
  0.000000000000000E+000
  0.000000000000000E+000
  0.000000000000000E+000
  0.000000000000000E+000
  0.000000000000000E+000
  0.000000000000000E+000
  0.000000000000000E+000
  0.000000000000000E+000
  0.000000000000000E+000
  0.000000000000000E+000
  0.000000000000000E+000
  0.000000000000000E+000
  0.000000000000000E+000
  0.000000000000000E+000
  0.000000000000000E+000
  0.000000000000000E+000
  0.000000000000000E+000
  0.000000000000000E+000
  0.000000000000000E+000
  0.000000000000000E+000
  0.000000000000000E+000
  0.000000000000000E+000
  0.000000000000000E+000
  0.000000000000000E+000
  0.000000000000000E+000
  0.000000000000000E+000
  0.000000000000000E+000
  0.000000000000000E+000
  0.000000000000000E+000
  0.000000000000000E+000
  0.000000000000000E+000
  0.000000000000000E+000
  0.000000000000000E+000
  0.000000000000000E+000
  0.000000000000000E+000
  0.000000000000000E+000
  0.000000000000000E+000
  0.000000000000000E+000
  0.000000000000000E+000
  0.000000000000000E+000
  0.000000000000000E+000
  0.000000000000000E+000
  0.000000000000000E+000
  0.000000000000000E+000
  0.000000000000000E+000
  0.000000000000000E+000
  0.000000000000000E+000
  0.000000000000000E+000
  0.000000000000000E+000
  0.000000000000000E+000
  0.000000000000000E+000
  0.000000000000000E+000
  0.000000000000000E+000
  0.000000000000000E+000
  0.000000000000000E+000
  0.000000000000000E+000
  0.000000000000000E+000
  0.000000000000000E+000
  0.000000000000000E+000
  0.000000000000000E+000
  0.000000000000000E+000
  0.000000000000000E+000
  0.000000000000000E+000
  0.000000000000000E+000
  0.000000000000000E+000
  0.000000000000000E+000
  0.000000000000000E+000
  0.000000000000000E+000
  0.000000000000000E+000
  0.000000000000000E+000
  0.000000000000000E+000
  0.000000000000000E+000
  0.000000000000000E+000
  0.000000000000000E+000
  0.000000000000000E+000
  0.000000000000000E+000
  0.000000000000000E+000
  0.000000000000000E+000
  0.000000000000000E+000
  0.000000000000000E+000
  0.000000000000000E+000
  0.000000000000000E+000
  0.000000000000000E+000
  0.000000000000000E+000
  0.000000000000000E+000
  0.000000000000000E+000
  0.000000000000000E+000
  0.000000000000000E+000
  0.000000000000000E+000
  0.000000000000000E+000
  0.000000000000000E+000
  0.000000000000000E+000
  0.000000000000000E+000
  0.000000000000000E+000
  0.000000000000000E+000
  0.000000000000000E+000
  0.000000000000000E+000
  0.000000000000000E+000
  0.000000000000000E+000
  0.000000000000000E+000
  0.000000000000000E+000
  0.000000000000000E+000
  0.000000000000000E+000
  0.000000000000000E+000
  0.000000000000000E+000
  0.000000000000000E+000
  0.000000000000000E+000
  0.000000000000000E+000
  0.000000000000000E+000
  0.000000000000000E+000
  0.000000000000000E+000
  0.000000000000000E+000
  0.000000000000000E+000
  0.000000000000000E+000
  0.000000000000000E+000
  0.000000000000000E+000
  0.000000000000000E+000
  0.000000000000000E+000
  0.000000000000000E+000
  0.000000000000000E+000
  0.000000000000000E+000
  0.000000000000000E+000
  0.000000000000000E+000
  0.000000000000000E+000
  0.000000000000000E+000
  0.000000000000000E+000
  0.000000000000000E+000
  0.000000000000000E+000
  0.000000000000000E+000
  0.000000000000000E+000
  0.000000000000000E+000
  0.000000000000000E+000
  0.000000000000000E+000
  0.000000000000000E+000
  0.000000000000000E+000
  0.000000000000000E+000
  0.000000000000000E+000
  0.000000000000000E+000
  0.000000000000000E+000
  0.000000000000000E+000
  0.000000000000000E+000
  0.000000000000000E+000
  0.000000000000000E+000
  0.000000000000000E+000
  0.000000000000000E+000
  0.000000000000000E+000
  0.000000000000000E+000
  0.000000000000000E+000
  0.000000000000000E+000
  0.000000000000000E+000
  0.000000000000000E+000
  0.000000000000000E+000
  0.000000000000000E+000
  0.000000000000000E+000
  0.000000000000000E+000
  0.000000000000000E+000
  0.000000000000000E+000
  0.000000000000000E+000
  0.000000000000000E+000
  0.000000000000000E+000
  0.000000000000000E+000
  0.000000000000000E+000
  0.000000000000000E+000
  0.000000000000000E+000
  0.000000000000000E+000
  0.000000000000000E+000
  0.000000000000000E+000
  0.000000000000000E+000
  0.000000000000000E+000
  0.000000000000000E+000
  0.000000000000000E+000
  0.000000000000000E+000
  0.000000000000000E+000
  0.000000000000000E+000
  0.000000000000000E+000
  0.000000000000000E+000
  0.000000000000000E+000
  0.000000000000000E+000
  0.000000000000000E+000
  0.000000000000000E+000
  0.000000000000000E+000
  0.000000000000000E+000
  0.000000000000000E+000
  0.000000000000000E+000
  0.000000000000000E+000
  0.000000000000000E+000
  0.000000000000000E+000
  0.000000000000000E+000
  0.000000000000000E+000
  0.000000000000000E+000
  0.000000000000000E+000
  0.000000000000000E+000
  0.000000000000000E+000
  0.000000000000000E+000
  0.000000000000000E+000
  0.000000000000000E+000
  0.000000000000000E+000
  0.000000000000000E+000
  0.000000000000000E+000
  0.000000000000000E+000
  0.000000000000000E+000
  0.000000000000000E+000
  0.000000000000000E+000
  0.000000000000000E+000
  0.000000000000000E+000
  0.000000000000000E+000
  0.000000000000000E+000
  0.000000000000000E+000
  0.000000000000000E+000
  0.000000000000000E+000
  0.000000000000000E+000
  0.000000000000000E+000
  0.000000000000000E+000
  0.000000000000000E+000
  0.000000000000000E+000
  0.000000000000000E+000
  0.000000000000000E+000
  0.000000000000000E+000
  0.000000000000000E+000
  0.000000000000000E+000
  0.000000000000000E+000
  0.000000000000000E+000
  0.000000000000000E+000
  0.000000000000000E+000
  0.000000000000000E+000
  0.000000000000000E+000
  0.000000000000000E+000
  0.000000000000000E+000
  0.000000000000000E+000
  0.000000000000000E+000
  0.000000000000000E+000
  0.000000000000000E+000
  0.000000000000000E+000
  0.000000000000000E+000
  0.000000000000000E+000
  0.000000000000000E+000
  0.000000000000000E+000
  0.000000000000000E+000
  0.000000000000000E+000
  0.000000000000000E+000
  0.000000000000000E+000
  0.000000000000000E+000
  0.000000000000000E+000
  0.000000000000000E+000
  0.000000000000000E+000
  0.000000000000000E+000
  0.000000000000000E+000
  0.000000000000000E+000
  0.000000000000000E+000
  0.000000000000000E+000
  0.000000000000000E+000
  0.000000000000000E+000
  0.000000000000000E+000
  0.000000000000000E+000
  0.000000000000000E+000
  0.000000000000000E+000
  0.000000000000000E+000
  0.000000000000000E+000
  0.000000000000000E+000
  0.000000000000000E+000
  0.000000000000000E+000
  0.000000000000000E+000
  0.000000000000000E+000
  0.000000000000000E+000
  0.000000000000000E+000
  0.000000000000000E+000
  0.000000000000000E+000
  0.000000000000000E+000
  0.000000000000000E+000
  0.000000000000000E+000
  0.000000000000000E+000
  0.000000000000000E+000
  0.000000000000000E+000
  0.000000000000000E+000
  0.000000000000000E+000
  0.000000000000000E+000
  0.000000000000000E+000
  0.000000000000000E+000
  0.000000000000000E+000
  0.000000000000000E+000
  0.000000000000000E+000
  0.000000000000000E+000
  0.000000000000000E+000
  0.000000000000000E+000
  0.000000000000000E+000
  0.000000000000000E+000
  0.000000000000000E+000
  0.000000000000000E+000
  0.000000000000000E+000
  0.000000000000000E+000
  0.000000000000000E+000
  0.000000000000000E+000
  0.000000000000000E+000
  0.000000000000000E+000
  0.000000000000000E+000
  0.000000000000000E+000
  0.000000000000000E+000
  0.000000000000000E+000
  0.000000000000000E+000
  0.000000000000000E+000
  0.000000000000000E+000
  0.000000000000000E+000
  0.000000000000000E+000
  0.000000000000000E+000
  0.000000000000000E+000
  0.000000000000000E+000
  0.000000000000000E+000
  0.000000000000000E+000
  0.000000000000000E+000
  0.000000000000000E+000
  0.000000000000000E+000
  0.000000000000000E+000
  0.000000000000000E+000
  0.000000000000000E+000
  0.000000000000000E+000
  0.000000000000000E+000
  0.000000000000000E+000
  0.000000000000000E+000
  0.000000000000000E+000
  0.000000000000000E+000
  0.000000000000000E+000
  0.000000000000000E+000
  0.000000000000000E+000
  0.000000000000000E+000
  0.000000000000000E+000
  0.000000000000000E+000
  0.000000000000000E+000
  0.000000000000000E+000
  0.000000000000000E+000
  0.000000000000000E+000
  0.000000000000000E+000
  0.000000000000000E+000
  0.000000000000000E+000
  0.000000000000000E+000
  0.000000000000000E+000
  0.000000000000000E+000
  0.000000000000000E+000
  0.000000000000000E+000
  0.000000000000000E+000
  0.000000000000000E+000
  0.000000000000000E+000
  0.000000000000000E+000
  0.000000000000000E+000
  0.000000000000000E+000
  0.000000000000000E+000
  0.000000000000000E+000
  0.000000000000000E+000
  0.000000000000000E+000
  0.000000000000000E+000
  0.000000000000000E+000
  0.000000000000000E+000
  0.000000000000000E+000
  0.000000000000000E+000
  0.000000000000000E+000
  0.000000000000000E+000
  0.000000000000000E+000
  0.000000000000000E+000
  0.000000000000000E+000
  0.000000000000000E+000
  0.000000000000000E+000
  0.000000000000000E+000
  0.000000000000000E+000
  0.000000000000000E+000
  0.000000000000000E+000
  0.000000000000000E+000
  0.000000000000000E+000
  0.000000000000000E+000
  0.000000000000000E+000
  0.000000000000000E+000
  0.000000000000000E+000
  0.000000000000000E+000
  0.000000000000000E+000
  0.000000000000000E+000
  0.000000000000000E+000
  0.000000000000000E+000
  0.000000000000000E+000
  0.000000000000000E+000
  0.000000000000000E+000
  0.000000000000000E+000
  0.000000000000000E+000
  0.000000000000000E+000
  0.000000000000000E+000
  0.000000000000000E+000
  0.000000000000000E+000
  0.000000000000000E+000
  0.000000000000000E+000
  0.000000000000000E+000
  0.000000000000000E+000
  0.000000000000000E+000
  0.000000000000000E+000
  0.000000000000000E+000
  0.000000000000000E+000
  0.000000000000000E+000
  0.000000000000000E+000
  0.000000000000000E+000
  0.000000000000000E+000
  0.000000000000000E+000
  0.000000000000000E+000
  0.000000000000000E+000
  0.000000000000000E+000
  0.000000000000000E+000
  0.000000000000000E+000
  0.000000000000000E+000
  0.000000000000000E+000
  0.000000000000000E+000
  0.000000000000000E+000
  0.000000000000000E+000
  0.000000000000000E+000
  0.000000000000000E+000
  0.000000000000000E+000
  0.000000000000000E+000
  0.000000000000000E+000
  0.000000000000000E+000
  0.000000000000000E+000
  0.000000000000000E+000
  0.000000000000000E+000
  0.000000000000000E+000
  0.000000000000000E+000
  0.000000000000000E+000
  0.000000000000000E+000
  0.000000000000000E+000
  0.000000000000000E+000
  0.000000000000000E+000
  0.000000000000000E+000
  0.000000000000000E+000
  0.000000000000000E+000
  0.000000000000000E+000
  0.000000000000000E+000
  0.000000000000000E+000
  0.000000000000000E+000
  0.000000000000000E+000
  0.000000000000000E+000
  0.000000000000000E+000
  0.000000000000000E+000
  0.000000000000000E+000
  0.000000000000000E+000
  0.000000000000000E+000
  0.000000000000000E+000
  0.000000000000000E+000
  0.000000000000000E+000
  0.000000000000000E+000
  0.000000000000000E+000
  0.000000000000000E+000
  0.000000000000000E+000
  0.000000000000000E+000
  0.000000000000000E+000
  0.000000000000000E+000
  0.000000000000000E+000
  0.000000000000000E+000
  0.000000000000000E+000
  0.000000000000000E+000
  0.000000000000000E+000
  0.000000000000000E+000
  0.000000000000000E+000
  0.000000000000000E+000
  0.000000000000000E+000
  0.000000000000000E+000
  0.000000000000000E+000
  0.000000000000000E+000
  0.000000000000000E+000
  0.000000000000000E+000
  0.000000000000000E+000
  0.000000000000000E+000
  0.000000000000000E+000
  0.000000000000000E+000
  0.000000000000000E+000
  0.000000000000000E+000
  0.000000000000000E+000
  0.000000000000000E+000
  0.000000000000000E+000
  0.000000000000000E+000
  0.000000000000000E+000
  0.000000000000000E+000
  0.000000000000000E+000
  0.000000000000000E+000
  0.000000000000000E+000
  0.000000000000000E+000
  0.000000000000000E+000
  0.000000000000000E+000
  0.000000000000000E+000
  0.000000000000000E+000
  0.000000000000000E+000
  0.000000000000000E+000
  0.000000000000000E+000
  0.000000000000000E+000
  0.000000000000000E+000
  0.000000000000000E+000
  0.000000000000000E+000
  0.000000000000000E+000
  0.000000000000000E+000
  0.000000000000000E+000
  0.000000000000000E+000
  0.000000000000000E+000
  0.000000000000000E+000
  0.000000000000000E+000
  0.000000000000000E+000
  0.000000000000000E+000
  0.000000000000000E+000
  0.000000000000000E+000
  0.000000000000000E+000
  0.000000000000000E+000
  0.000000000000000E+000
  0.000000000000000E+000
  0.000000000000000E+000
  0.000000000000000E+000
  0.000000000000000E+000
  0.000000000000000E+000
  0.000000000000000E+000
  0.000000000000000E+000
  0.000000000000000E+000
  0.000000000000000E+000
  0.000000000000000E+000
  0.000000000000000E+000
  0.000000000000000E+000
  0.000000000000000E+000
  0.000000000000000E+000
  0.000000000000000E+000
  0.000000000000000E+000
  0.000000000000000E+000
  0.000000000000000E+000
  0.000000000000000E+000
  0.000000000000000E+000
  0.000000000000000E+000
  0.000000000000000E+000
  0.000000000000000E+000
  0.000000000000000E+000
  0.000000000000000E+000
  0.000000000000000E+000
  0.000000000000000E+000
  0.000000000000000E+000
  0.000000000000000E+000
  0.000000000000000E+000
  0.000000000000000E+000
  0.000000000000000E+000
  0.000000000000000E+000
  0.000000000000000E+000
  0.000000000000000E+000
  0.000000000000000E+000
  0.000000000000000E+000
  0.000000000000000E+000
  0.000000000000000E+000
  0.000000000000000E+000
  0.000000000000000E+000
  0.000000000000000E+000
  0.000000000000000E+000
  0.000000000000000E+000
  0.000000000000000E+000
  0.000000000000000E+000
  0.000000000000000E+000
  0.000000000000000E+000
  0.000000000000000E+000
  0.000000000000000E+000
  0.000000000000000E+000
  0.000000000000000E+000
  0.000000000000000E+000
  0.000000000000000E+000
  0.000000000000000E+000
  0.000000000000000E+000
  0.000000000000000E+000
  0.000000000000000E+000
  0.000000000000000E+000
  0.000000000000000E+000
  0.000000000000000E+000
  0.000000000000000E+000
  0.000000000000000E+000
  0.000000000000000E+000
  0.000000000000000E+000
  0.000000000000000E+000
  0.000000000000000E+000
  0.000000000000000E+000
  0.000000000000000E+000
  0.000000000000000E+000
  0.000000000000000E+000
  0.000000000000000E+000
  0.000000000000000E+000
  0.000000000000000E+000
  0.000000000000000E+000
  0.000000000000000E+000
  0.000000000000000E+000
  0.000000000000000E+000
  0.000000000000000E+000
  0.000000000000000E+000
  0.000000000000000E+000
  0.000000000000000E+000
  0.000000000000000E+000
  0.000000000000000E+000
  0.000000000000000E+000
  0.000000000000000E+000
  0.000000000000000E+000
  0.000000000000000E+000
  0.000000000000000E+000
  0.000000000000000E+000
  0.000000000000000E+000
  0.000000000000000E+000
  0.000000000000000E+000
  0.000000000000000E+000
  0.000000000000000E+000
  0.000000000000000E+000
  0.000000000000000E+000
  0.000000000000000E+000
  0.000000000000000E+000
  0.000000000000000E+000
  0.000000000000000E+000
  0.000000000000000E+000
  0.000000000000000E+000
  0.000000000000000E+000
  0.000000000000000E+000
  0.000000000000000E+000
  0.000000000000000E+000
  0.000000000000000E+000
  0.000000000000000E+000
  0.000000000000000E+000
  0.000000000000000E+000
  0.000000000000000E+000
  0.000000000000000E+000
  0.000000000000000E+000
  0.000000000000000E+000
  0.000000000000000E+000
  0.000000000000000E+000
  0.000000000000000E+000
  0.000000000000000E+000
  0.000000000000000E+000
  0.000000000000000E+000
  0.000000000000000E+000
  0.000000000000000E+000
  0.000000000000000E+000
  0.000000000000000E+000
  0.000000000000000E+000
  0.000000000000000E+000
  0.000000000000000E+000
  0.000000000000000E+000
  0.000000000000000E+000
  0.000000000000000E+000
  0.000000000000000E+000
  0.000000000000000E+000
  0.000000000000000E+000
  0.000000000000000E+000
  0.000000000000000E+000
  0.000000000000000E+000
  0.000000000000000E+000
  0.000000000000000E+000
  0.000000000000000E+000
  0.000000000000000E+000
  0.000000000000000E+000
  0.000000000000000E+000
  0.000000000000000E+000
  0.000000000000000E+000
  0.000000000000000E+000
  0.000000000000000E+000
  0.000000000000000E+000
  0.000000000000000E+000
  0.000000000000000E+000
  0.000000000000000E+000
  0.000000000000000E+000
  0.000000000000000E+000
  0.000000000000000E+000
  0.000000000000000E+000
  0.000000000000000E+000
  0.000000000000000E+000
  0.000000000000000E+000
  0.000000000000000E+000
  0.000000000000000E+000
  0.000000000000000E+000
  0.000000000000000E+000
  0.000000000000000E+000
  0.000000000000000E+000
  0.000000000000000E+000
  0.000000000000000E+000
  0.000000000000000E+000
  0.000000000000000E+000
  0.000000000000000E+000
  0.000000000000000E+000
  0.000000000000000E+000
  0.000000000000000E+000
  0.000000000000000E+000
  0.000000000000000E+000
  0.000000000000000E+000
  0.000000000000000E+000
  0.000000000000000E+000
  0.000000000000000E+000
  0.000000000000000E+000
  0.000000000000000E+000
  0.000000000000000E+000
  0.000000000000000E+000
  0.000000000000000E+000
  0.000000000000000E+000
  0.000000000000000E+000
  0.000000000000000E+000
  0.000000000000000E+000
  0.000000000000000E+000
  0.000000000000000E+000
  0.000000000000000E+000
  0.000000000000000E+000
  0.000000000000000E+000
  0.000000000000000E+000
  0.000000000000000E+000
  0.000000000000000E+000
  0.000000000000000E+000
  0.000000000000000E+000
  0.000000000000000E+000
  0.000000000000000E+000
  0.000000000000000E+000
  0.000000000000000E+000
  0.000000000000000E+000
  0.000000000000000E+000
  0.000000000000000E+000
  0.000000000000000E+000
  0.000000000000000E+000
  0.000000000000000E+000
  0.000000000000000E+000
  0.000000000000000E+000
  0.000000000000000E+000
  0.000000000000000E+000
  0.000000000000000E+000
  0.000000000000000E+000
  0.000000000000000E+000
  0.000000000000000E+000
  0.000000000000000E+000
  0.000000000000000E+000
  0.000000000000000E+000
  0.000000000000000E+000
  0.000000000000000E+000
  0.000000000000000E+000
  0.000000000000000E+000
  0.000000000000000E+000
  0.000000000000000E+000
  0.000000000000000E+000
  0.000000000000000E+000
  0.000000000000000E+000
  0.000000000000000E+000
  0.000000000000000E+000
  0.000000000000000E+000
  0.000000000000000E+000
  0.000000000000000E+000
  0.000000000000000E+000
  0.000000000000000E+000
  0.000000000000000E+000
  0.000000000000000E+000
  0.000000000000000E+000
  0.000000000000000E+000
  0.000000000000000E+000
  0.000000000000000E+000
  0.000000000000000E+000
  0.000000000000000E+000
  0.000000000000000E+000
  0.000000000000000E+000
  0.000000000000000E+000
  0.000000000000000E+000
  0.000000000000000E+000
  0.000000000000000E+000
  0.000000000000000E+000
  0.000000000000000E+000
  0.000000000000000E+000
  0.000000000000000E+000
  0.000000000000000E+000
  0.000000000000000E+000
  0.000000000000000E+000
  0.000000000000000E+000
  0.000000000000000E+000
  0.000000000000000E+000
  0.000000000000000E+000
  0.000000000000000E+000
  0.000000000000000E+000
  0.000000000000000E+000
  0.000000000000000E+000
  0.000000000000000E+000
  0.000000000000000E+000
  0.000000000000000E+000
  0.000000000000000E+000
  0.000000000000000E+000
  0.000000000000000E+000
  0.000000000000000E+000
  0.000000000000000E+000
  0.000000000000000E+000
  0.000000000000000E+000
  0.000000000000000E+000
  0.000000000000000E+000
  0.000000000000000E+000
  0.000000000000000E+000
  0.000000000000000E+000
  0.000000000000000E+000
  0.000000000000000E+000
  0.000000000000000E+000
  0.000000000000000E+000
  0.000000000000000E+000
  0.000000000000000E+000
  0.000000000000000E+000
  0.000000000000000E+000
  0.000000000000000E+000
  0.000000000000000E+000
  0.000000000000000E+000
  0.000000000000000E+000
  0.000000000000000E+000
  0.000000000000000E+000
  0.000000000000000E+000
  0.000000000000000E+000
  0.000000000000000E+000
  0.000000000000000E+000
  0.000000000000000E+000
  0.000000000000000E+000
  0.000000000000000E+000
  0.000000000000000E+000
  0.000000000000000E+000
  0.000000000000000E+000
  0.000000000000000E+000
  0.000000000000000E+000
  0.000000000000000E+000
  0.000000000000000E+000
  0.000000000000000E+000
  0.000000000000000E+000
  0.000000000000000E+000
  0.000000000000000E+000
  0.000000000000000E+000
  0.000000000000000E+000
  0.000000000000000E+000
  0.000000000000000E+000
  0.000000000000000E+000
  0.000000000000000E+000
  0.000000000000000E+000
  0.000000000000000E+000
  0.000000000000000E+000
  0.000000000000000E+000
  0.000000000000000E+000
  0.000000000000000E+000
  0.000000000000000E+000
  0.000000000000000E+000
  0.000000000000000E+000
  0.000000000000000E+000
  0.000000000000000E+000
  0.000000000000000E+000
  0.000000000000000E+000
  0.000000000000000E+000
  0.000000000000000E+000
  0.000000000000000E+000
  0.000000000000000E+000
  0.000000000000000E+000
  0.000000000000000E+000
  0.000000000000000E+000
  0.000000000000000E+000
  0.000000000000000E+000
  0.000000000000000E+000
  0.000000000000000E+000
  0.000000000000000E+000
  0.000000000000000E+000
  0.000000000000000E+000
  0.000000000000000E+000
  0.000000000000000E+000
  0.000000000000000E+000
  0.000000000000000E+000
  0.000000000000000E+000
  0.000000000000000E+000
  0.000000000000000E+000
  0.000000000000000E+000
  0.000000000000000E+000
  0.000000000000000E+000
  0.000000000000000E+000
  0.000000000000000E+000
  0.000000000000000E+000
  0.000000000000000E+000
  0.000000000000000E+000
  0.000000000000000E+000
  0.000000000000000E+000
  0.000000000000000E+000
  0.000000000000000E+000
  0.000000000000000E+000
  0.000000000000000E+000
  0.000000000000000E+000
  0.000000000000000E+000
  0.000000000000000E+000
  0.000000000000000E+000
  0.000000000000000E+000
  0.000000000000000E+000
  0.000000000000000E+000
  0.000000000000000E+000
  0.000000000000000E+000
  0.000000000000000E+000
  0.000000000000000E+000
  0.000000000000000E+000
  0.000000000000000E+000
  0.000000000000000E+000
  0.000000000000000E+000
  0.000000000000000E+000
  0.000000000000000E+000
  0.000000000000000E+000
  0.000000000000000E+000
  0.000000000000000E+000
  0.000000000000000E+000
  0.000000000000000E+000
  0.000000000000000E+000
  0.000000000000000E+000
  0.000000000000000E+000
  0.000000000000000E+000
  0.000000000000000E+000
  0.000000000000000E+000
  0.000000000000000E+000
  0.000000000000000E+000
  0.000000000000000E+000
  0.000000000000000E+000
  0.000000000000000E+000
  0.000000000000000E+000
  0.000000000000000E+000
  0.000000000000000E+000
  0.000000000000000E+000
  0.000000000000000E+000
  0.000000000000000E+000
  0.000000000000000E+000
  0.000000000000000E+000
  0.000000000000000E+000
  0.000000000000000E+000
  0.000000000000000E+000
  0.000000000000000E+000
  0.000000000000000E+000
  0.000000000000000E+000
  0.000000000000000E+000
  0.000000000000000E+000
  0.000000000000000E+000
  0.000000000000000E+000
  0.000000000000000E+000
  0.000000000000000E+000
  0.000000000000000E+000
  0.000000000000000E+000
  0.000000000000000E+000
  0.000000000000000E+000
  0.000000000000000E+000
  0.000000000000000E+000
  0.000000000000000E+000
  0.000000000000000E+000
  0.000000000000000E+000
  0.000000000000000E+000
  0.000000000000000E+000
  0.000000000000000E+000
  0.000000000000000E+000
  0.000000000000000E+000
  0.000000000000000E+000
  0.000000000000000E+000
  0.000000000000000E+000
  0.000000000000000E+000
  0.000000000000000E+000
  0.000000000000000E+000
  0.000000000000000E+000
  0.000000000000000E+000
  0.000000000000000E+000
  0.000000000000000E+000
  0.000000000000000E+000
  0.000000000000000E+000
  0.000000000000000E+000
  0.000000000000000E+000
  0.000000000000000E+000
  0.000000000000000E+000
  0.000000000000000E+000
  0.000000000000000E+000
  0.000000000000000E+000
  0.000000000000000E+000
  0.000000000000000E+000
  0.000000000000000E+000
  0.000000000000000E+000
  0.000000000000000E+000
  0.000000000000000E+000
  0.000000000000000E+000
  0.000000000000000E+000
  0.000000000000000E+000
  0.000000000000000E+000
  0.000000000000000E+000
  0.000000000000000E+000
  0.000000000000000E+000
  0.000000000000000E+000
  0.000000000000000E+000
  0.000000000000000E+000
  0.000000000000000E+000
  0.000000000000000E+000
  0.000000000000000E+000
  0.000000000000000E+000
  0.000000000000000E+000
  0.000000000000000E+000
  0.000000000000000E+000
  0.000000000000000E+000
  0.000000000000000E+000
  0.000000000000000E+000
  0.000000000000000E+000
  0.000000000000000E+000
  0.000000000000000E+000
  0.000000000000000E+000
  0.000000000000000E+000
  0.000000000000000E+000
  0.000000000000000E+000
  0.000000000000000E+000
  0.000000000000000E+000
  0.000000000000000E+000
  0.000000000000000E+000
  0.000000000000000E+000
  0.000000000000000E+000
  0.000000000000000E+000
  0.000000000000000E+000
  0.000000000000000E+000
  0.000000000000000E+000
  0.000000000000000E+000
  0.000000000000000E+000
  0.000000000000000E+000
  0.000000000000000E+000
  0.000000000000000E+000
  0.000000000000000E+000
  0.000000000000000E+000
  0.000000000000000E+000
  0.000000000000000E+000
  0.000000000000000E+000
  0.000000000000000E+000
  0.000000000000000E+000
  0.000000000000000E+000
  0.000000000000000E+000
  0.000000000000000E+000
  0.000000000000000E+000
  0.000000000000000E+000
  0.000000000000000E+000
  0.000000000000000E+000
  0.000000000000000E+000
  0.000000000000000E+000
  0.000000000000000E+000
  0.000000000000000E+000
  0.000000000000000E+000
  0.000000000000000E+000
  0.000000000000000E+000
  0.000000000000000E+000
  0.000000000000000E+000
  0.000000000000000E+000
  0.000000000000000E+000
  0.000000000000000E+000
  0.000000000000000E+000
  0.000000000000000E+000
  0.000000000000000E+000
  0.000000000000000E+000
  0.000000000000000E+000
  0.000000000000000E+000
  0.000000000000000E+000
  0.000000000000000E+000
  0.000000000000000E+000
  0.000000000000000E+000
  0.000000000000000E+000
  0.000000000000000E+000
  0.000000000000000E+000
  0.000000000000000E+000
  0.000000000000000E+000
  0.000000000000000E+000
  0.000000000000000E+000
  0.000000000000000E+000
  0.000000000000000E+000
  0.000000000000000E+000
  0.000000000000000E+000
  0.000000000000000E+000
  0.000000000000000E+000
  0.000000000000000E+000
  0.000000000000000E+000
  0.000000000000000E+000
  0.000000000000000E+000
  0.000000000000000E+000
  0.000000000000000E+000
  0.000000000000000E+000
  0.000000000000000E+000
  0.000000000000000E+000
  0.000000000000000E+000
  0.000000000000000E+000
  0.000000000000000E+000
  0.000000000000000E+000
  0.000000000000000E+000
  0.000000000000000E+000
  0.000000000000000E+000
  0.000000000000000E+000
  0.000000000000000E+000
  0.000000000000000E+000
  0.000000000000000E+000
  0.000000000000000E+000
  0.000000000000000E+000
  0.000000000000000E+000
  0.000000000000000E+000
  0.000000000000000E+000
  0.000000000000000E+000
  0.000000000000000E+000
  0.000000000000000E+000
  0.000000000000000E+000
  0.000000000000000E+000
  0.000000000000000E+000
  0.000000000000000E+000
  0.000000000000000E+000
  0.000000000000000E+000
  0.000000000000000E+000
  0.000000000000000E+000
  0.000000000000000E+000
  0.000000000000000E+000
  0.000000000000000E+000
  0.000000000000000E+000
  0.000000000000000E+000
  0.000000000000000E+000
  0.000000000000000E+000
  0.000000000000000E+000
  0.000000000000000E+000
  0.000000000000000E+000
  0.000000000000000E+000
  0.000000000000000E+000
  0.000000000000000E+000
  0.000000000000000E+000
  0.000000000000000E+000
  0.000000000000000E+000
  0.000000000000000E+000
  0.000000000000000E+000
  0.000000000000000E+000
  0.000000000000000E+000
  0.000000000000000E+000
  0.000000000000000E+000
  0.000000000000000E+000
  0.000000000000000E+000
  0.000000000000000E+000
  0.000000000000000E+000
  0.000000000000000E+000
  0.000000000000000E+000
  0.000000000000000E+000
  0.000000000000000E+000
  0.000000000000000E+000
  0.000000000000000E+000
  0.000000000000000E+000
  0.000000000000000E+000
  0.000000000000000E+000
  0.000000000000000E+000
  0.000000000000000E+000
  0.000000000000000E+000
  0.000000000000000E+000
  0.000000000000000E+000
  0.000000000000000E+000
  0.000000000000000E+000
  0.000000000000000E+000
  0.000000000000000E+000
  0.000000000000000E+000
  0.000000000000000E+000
  0.000000000000000E+000
  0.000000000000000E+000
  0.000000000000000E+000
  0.000000000000000E+000
  0.000000000000000E+000
  0.000000000000000E+000
  0.000000000000000E+000
  0.000000000000000E+000
  0.000000000000000E+000
  0.000000000000000E+000
  0.000000000000000E+000
  0.000000000000000E+000
  0.000000000000000E+000
  0.000000000000000E+000
  0.000000000000000E+000
  0.000000000000000E+000
  0.000000000000000E+000
  0.000000000000000E+000
  0.000000000000000E+000
  0.000000000000000E+000
  0.000000000000000E+000
  0.000000000000000E+000
  0.000000000000000E+000
  0.000000000000000E+000
  0.000000000000000E+000
  0.000000000000000E+000
  0.000000000000000E+000
  0.000000000000000E+000
  0.000000000000000E+000
  0.000000000000000E+000
  0.000000000000000E+000
  0.000000000000000E+000
  0.000000000000000E+000
  0.000000000000000E+000
  0.000000000000000E+000
  0.000000000000000E+000
  0.000000000000000E+000
  0.000000000000000E+000
  0.000000000000000E+000
  0.000000000000000E+000
  0.000000000000000E+000
  0.000000000000000E+000
  0.000000000000000E+000
  0.000000000000000E+000
  0.000000000000000E+000
  0.000000000000000E+000
  0.000000000000000E+000
  0.000000000000000E+000
  0.000000000000000E+000
  0.000000000000000E+000
  0.000000000000000E+000
  0.000000000000000E+000
  0.000000000000000E+000
  0.000000000000000E+000
  0.000000000000000E+000
  0.000000000000000E+000
  0.000000000000000E+000
  0.000000000000000E+000
  0.000000000000000E+000
  0.000000000000000E+000
  0.000000000000000E+000
  0.000000000000000E+000
  0.000000000000000E+000
  0.000000000000000E+000
  0.000000000000000E+000
  0.000000000000000E+000
  0.000000000000000E+000
  0.000000000000000E+000
  0.000000000000000E+000
  0.000000000000000E+000
  0.000000000000000E+000
  0.000000000000000E+000
  0.000000000000000E+000
  0.000000000000000E+000
  0.000000000000000E+000
  0.000000000000000E+000
  0.000000000000000E+000
  0.000000000000000E+000
  0.000000000000000E+000
  0.000000000000000E+000
  0.000000000000000E+000
  0.000000000000000E+000
  0.000000000000000E+000
  0.000000000000000E+000
  0.000000000000000E+000
  0.000000000000000E+000
  0.000000000000000E+000
  0.000000000000000E+000
  0.000000000000000E+000
  0.000000000000000E+000
  0.000000000000000E+000
  0.000000000000000E+000
  0.000000000000000E+000
  0.000000000000000E+000
  0.000000000000000E+000
  0.000000000000000E+000
  0.000000000000000E+000
  0.000000000000000E+000
  0.000000000000000E+000
  0.000000000000000E+000
  0.000000000000000E+000
  0.000000000000000E+000
  0.000000000000000E+000
  0.000000000000000E+000
  0.000000000000000E+000
  0.000000000000000E+000
  0.000000000000000E+000
  0.000000000000000E+000
  0.000000000000000E+000
  0.000000000000000E+000
  0.000000000000000E+000
  0.000000000000000E+000
  0.000000000000000E+000
  0.000000000000000E+000
  0.000000000000000E+000
  0.000000000000000E+000
  0.000000000000000E+000
  0.000000000000000E+000
  0.000000000000000E+000
  0.000000000000000E+000
  0.000000000000000E+000
  0.000000000000000E+000
  0.000000000000000E+000
  0.000000000000000E+000
  0.000000000000000E+000
  0.000000000000000E+000
  0.000000000000000E+000
  0.000000000000000E+000
  0.000000000000000E+000
  0.000000000000000E+000
  0.000000000000000E+000
  0.000000000000000E+000
  0.000000000000000E+000
  0.000000000000000E+000
  0.000000000000000E+000
  0.000000000000000E+000
  0.000000000000000E+000
  0.000000000000000E+000
  0.000000000000000E+000
  0.000000000000000E+000
  0.000000000000000E+000
  0.000000000000000E+000
  0.000000000000000E+000
  0.000000000000000E+000
  0.000000000000000E+000
  0.000000000000000E+000
  0.000000000000000E+000
  0.000000000000000E+000
  0.000000000000000E+000
  0.000000000000000E+000
  0.000000000000000E+000
  0.000000000000000E+000
  0.000000000000000E+000
  0.000000000000000E+000
  0.000000000000000E+000
  0.000000000000000E+000
  0.000000000000000E+000
  0.000000000000000E+000
  0.000000000000000E+000
  0.000000000000000E+000
  0.000000000000000E+000
  0.000000000000000E+000
  0.000000000000000E+000
  0.000000000000000E+000
  0.000000000000000E+000
  0.000000000000000E+000
  0.000000000000000E+000
  0.000000000000000E+000
  0.000000000000000E+000
  0.000000000000000E+000
  0.000000000000000E+000
  0.000000000000000E+000
  0.000000000000000E+000
  0.000000000000000E+000
  0.000000000000000E+000
  0.000000000000000E+000
  0.000000000000000E+000
  0.000000000000000E+000
  0.000000000000000E+000
  0.000000000000000E+000
  0.000000000000000E+000
  0.000000000000000E+000
  0.000000000000000E+000
  0.000000000000000E+000
  0.000000000000000E+000
  0.000000000000000E+000
  0.000000000000000E+000
  0.000000000000000E+000
  0.000000000000000E+000
  0.000000000000000E+000
  0.000000000000000E+000
  0.000000000000000E+000
  0.000000000000000E+000
  0.000000000000000E+000
  0.000000000000000E+000
  0.000000000000000E+000
  0.000000000000000E+000
  0.000000000000000E+000
  0.000000000000000E+000
  0.000000000000000E+000
  0.000000000000000E+000
  0.000000000000000E+000
  0.000000000000000E+000
  0.000000000000000E+000
  0.000000000000000E+000
  0.000000000000000E+000
  0.000000000000000E+000
  0.000000000000000E+000
  0.000000000000000E+000
  0.000000000000000E+000
  0.000000000000000E+000
  0.000000000000000E+000
  0.000000000000000E+000
  0.000000000000000E+000
  0.000000000000000E+000
  0.000000000000000E+000
  0.000000000000000E+000
  0.000000000000000E+000
  0.000000000000000E+000
  0.000000000000000E+000
  0.000000000000000E+000
  0.000000000000000E+000
  0.000000000000000E+000
  0.000000000000000E+000
  0.000000000000000E+000
  0.000000000000000E+000
  0.000000000000000E+000
  0.000000000000000E+000
  0.000000000000000E+000
  0.000000000000000E+000
  0.000000000000000E+000
  0.000000000000000E+000
  0.000000000000000E+000
  0.000000000000000E+000
  0.000000000000000E+000
  0.000000000000000E+000
  0.000000000000000E+000
  0.000000000000000E+000
  0.000000000000000E+000
  0.000000000000000E+000
  0.000000000000000E+000
  0.000000000000000E+000
  0.000000000000000E+000
  0.000000000000000E+000
  0.000000000000000E+000
  0.000000000000000E+000
  0.000000000000000E+000
  0.000000000000000E+000
  0.000000000000000E+000
  0.000000000000000E+000
  0.000000000000000E+000
  0.000000000000000E+000
  0.000000000000000E+000
  0.000000000000000E+000
  0.000000000000000E+000
  0.000000000000000E+000
  0.000000000000000E+000
  0.000000000000000E+000
  0.000000000000000E+000
  0.000000000000000E+000
  0.000000000000000E+000
  0.000000000000000E+000
  0.000000000000000E+000
  0.000000000000000E+000
  0.000000000000000E+000
  0.000000000000000E+000
  0.000000000000000E+000
  0.000000000000000E+000
  0.000000000000000E+000
  0.000000000000000E+000
  0.000000000000000E+000
  0.000000000000000E+000
  0.000000000000000E+000
  0.000000000000000E+000
  0.000000000000000E+000
  0.000000000000000E+000
  0.000000000000000E+000
  0.000000000000000E+000
  0.000000000000000E+000
  0.000000000000000E+000
  0.000000000000000E+000
  0.000000000000000E+000
  0.000000000000000E+000
  0.000000000000000E+000
  0.000000000000000E+000
  0.000000000000000E+000
  0.000000000000000E+000
  0.000000000000000E+000
  0.000000000000000E+000
  0.000000000000000E+000
  0.000000000000000E+000
  0.000000000000000E+000
  0.000000000000000E+000
  0.000000000000000E+000
  0.000000000000000E+000
  0.000000000000000E+000
  0.000000000000000E+000
  0.000000000000000E+000
  0.000000000000000E+000
  0.000000000000000E+000
  0.000000000000000E+000
  0.000000000000000E+000
  0.000000000000000E+000
  0.000000000000000E+000
  0.000000000000000E+000
  0.000000000000000E+000
  0.000000000000000E+000
  0.000000000000000E+000
  0.000000000000000E+000
  0.000000000000000E+000
  0.000000000000000E+000
  0.000000000000000E+000
  0.000000000000000E+000
  0.000000000000000E+000
  0.000000000000000E+000
  0.000000000000000E+000
  0.000000000000000E+000
  0.000000000000000E+000
  0.000000000000000E+000
  0.000000000000000E+000
  0.000000000000000E+000
  0.000000000000000E+000
  0.000000000000000E+000
  0.000000000000000E+000
  0.000000000000000E+000
  0.000000000000000E+000
  0.000000000000000E+000
  0.000000000000000E+000
  0.000000000000000E+000
  0.000000000000000E+000
  0.000000000000000E+000
  0.000000000000000E+000
  0.000000000000000E+000
  0.000000000000000E+000
  0.000000000000000E+000
  0.000000000000000E+000
  0.000000000000000E+000
  0.000000000000000E+000
  0.000000000000000E+000
  0.000000000000000E+000
  0.000000000000000E+000
  0.000000000000000E+000
  0.000000000000000E+000
  0.000000000000000E+000
  0.000000000000000E+000
  0.000000000000000E+000
  0.000000000000000E+000
  0.000000000000000E+000
  0.000000000000000E+000
  0.000000000000000E+000
  0.000000000000000E+000
  0.000000000000000E+000
  0.000000000000000E+000
  0.000000000000000E+000
  0.000000000000000E+000
  0.000000000000000E+000
  0.000000000000000E+000
  0.000000000000000E+000
  0.000000000000000E+000
  0.000000000000000E+000
  0.000000000000000E+000
  0.000000000000000E+000
  0.000000000000000E+000
  0.000000000000000E+000
  0.000000000000000E+000
  0.000000000000000E+000
  0.000000000000000E+000
  0.000000000000000E+000
  0.000000000000000E+000
  0.000000000000000E+000
  0.000000000000000E+000
  0.000000000000000E+000
  0.000000000000000E+000
  0.000000000000000E+000
  0.000000000000000E+000
  0.000000000000000E+000
  0.000000000000000E+000
  0.000000000000000E+000
  0.000000000000000E+000
  0.000000000000000E+000
  0.000000000000000E+000
  0.000000000000000E+000
  0.000000000000000E+000
  0.000000000000000E+000
  0.000000000000000E+000
  0.000000000000000E+000
  0.000000000000000E+000
  0.000000000000000E+000
  0.000000000000000E+000
  0.000000000000000E+000
  0.000000000000000E+000
  0.000000000000000E+000
  0.000000000000000E+000
  0.000000000000000E+000
  0.000000000000000E+000
  0.000000000000000E+000
  0.000000000000000E+000
  0.000000000000000E+000
  0.000000000000000E+000
  0.000000000000000E+000
  0.000000000000000E+000
  0.000000000000000E+000
  0.000000000000000E+000
  0.000000000000000E+000
  0.000000000000000E+000
  0.000000000000000E+000
  0.000000000000000E+000
  0.000000000000000E+000
  0.000000000000000E+000
  0.000000000000000E+000
  0.000000000000000E+000
  0.000000000000000E+000
  0.000000000000000E+000
  0.000000000000000E+000
  0.000000000000000E+000
  0.000000000000000E+000
  0.000000000000000E+000
  0.000000000000000E+000
  0.000000000000000E+000
  0.000000000000000E+000
  0.000000000000000E+000
  0.000000000000000E+000
  0.000000000000000E+000
  0.000000000000000E+000
  0.000000000000000E+000
  0.000000000000000E+000
  0.000000000000000E+000
  0.000000000000000E+000
  0.000000000000000E+000
  0.000000000000000E+000
  0.000000000000000E+000
  0.000000000000000E+000
  0.000000000000000E+000
  0.000000000000000E+000
  0.000000000000000E+000
  0.000000000000000E+000
  0.000000000000000E+000
  0.000000000000000E+000
  0.000000000000000E+000
  0.000000000000000E+000
  0.000000000000000E+000
  0.000000000000000E+000
  0.000000000000000E+000
  0.000000000000000E+000
  0.000000000000000E+000
  0.000000000000000E+000
  0.000000000000000E+000
  0.000000000000000E+000
  0.000000000000000E+000
  0.000000000000000E+000
  0.000000000000000E+000
  0.000000000000000E+000
  0.000000000000000E+000
  0.000000000000000E+000
  0.000000000000000E+000
  0.000000000000000E+000
  0.000000000000000E+000
  0.000000000000000E+000
  0.000000000000000E+000
  0.000000000000000E+000
  0.000000000000000E+000
  0.000000000000000E+000
  0.000000000000000E+000
  0.000000000000000E+000
  0.000000000000000E+000
  0.000000000000000E+000
  0.000000000000000E+000
  0.000000000000000E+000
  0.000000000000000E+000
  0.000000000000000E+000
  0.000000000000000E+000
  0.000000000000000E+000
  0.000000000000000E+000
  0.000000000000000E+000
  0.000000000000000E+000
  0.000000000000000E+000
  0.000000000000000E+000
  0.000000000000000E+000
  0.000000000000000E+000
  0.000000000000000E+000
  0.000000000000000E+000
  0.000000000000000E+000
  0.000000000000000E+000
  0.000000000000000E+000
  0.000000000000000E+000
  0.000000000000000E+000
  0.000000000000000E+000
  0.000000000000000E+000
  0.000000000000000E+000
  0.000000000000000E+000
  0.000000000000000E+000
  0.000000000000000E+000
  0.000000000000000E+000
  0.000000000000000E+000
  0.000000000000000E+000
  0.000000000000000E+000
  0.000000000000000E+000
  0.000000000000000E+000
  0.000000000000000E+000
  0.000000000000000E+000
  0.000000000000000E+000
  0.000000000000000E+000
  0.000000000000000E+000
  0.000000000000000E+000
  0.000000000000000E+000
  0.000000000000000E+000
  0.000000000000000E+000
  0.000000000000000E+000
  0.000000000000000E+000
  0.000000000000000E+000
  0.000000000000000E+000
  0.000000000000000E+000
  0.000000000000000E+000
  0.000000000000000E+000
  0.000000000000000E+000
  0.000000000000000E+000
  0.000000000000000E+000
  0.000000000000000E+000
  0.000000000000000E+000
  0.000000000000000E+000
  0.000000000000000E+000
  0.000000000000000E+000
  0.000000000000000E+000
  0.000000000000000E+000
  0.000000000000000E+000
  0.000000000000000E+000
  0.000000000000000E+000
  0.000000000000000E+000
  0.000000000000000E+000
  0.000000000000000E+000
  0.000000000000000E+000
  0.000000000000000E+000
  0.000000000000000E+000
  0.000000000000000E+000
  0.000000000000000E+000
  0.000000000000000E+000
  0.000000000000000E+000
  0.000000000000000E+000
  0.000000000000000E+000
  0.000000000000000E+000
  0.000000000000000E+000
  0.000000000000000E+000
  0.000000000000000E+000
  0.000000000000000E+000
  0.000000000000000E+000
  0.000000000000000E+000
  0.000000000000000E+000
  0.000000000000000E+000
  0.000000000000000E+000
  0.000000000000000E+000
  0.000000000000000E+000
  0.000000000000000E+000
  0.000000000000000E+000
  0.000000000000000E+000
  0.000000000000000E+000
  0.000000000000000E+000
  0.000000000000000E+000
  0.000000000000000E+000
  0.000000000000000E+000
  0.000000000000000E+000
  0.000000000000000E+000
  0.000000000000000E+000
  0.000000000000000E+000
  0.000000000000000E+000
  0.000000000000000E+000
  0.000000000000000E+000
  0.000000000000000E+000
  0.000000000000000E+000
  0.000000000000000E+000
  0.000000000000000E+000
  0.000000000000000E+000
  0.000000000000000E+000
  0.000000000000000E+000
  0.000000000000000E+000
  0.000000000000000E+000
  0.000000000000000E+000
  0.000000000000000E+000
  0.000000000000000E+000
  0.000000000000000E+000
  0.000000000000000E+000
  0.000000000000000E+000
  0.000000000000000E+000
  0.000000000000000E+000
  0.000000000000000E+000
  0.000000000000000E+000
  0.000000000000000E+000
  0.000000000000000E+000
  0.000000000000000E+000
  0.000000000000000E+000
  0.000000000000000E+000
  0.000000000000000E+000
  0.000000000000000E+000
  0.000000000000000E+000
  0.000000000000000E+000
  0.000000000000000E+000
  0.000000000000000E+000
  0.000000000000000E+000
  0.000000000000000E+000
  0.000000000000000E+000
  0.000000000000000E+000
  0.000000000000000E+000
  0.000000000000000E+000
  0.000000000000000E+000
  0.000000000000000E+000
  0.000000000000000E+000
  0.000000000000000E+000
  0.000000000000000E+000
  0.000000000000000E+000
  0.000000000000000E+000
  0.000000000000000E+000
  0.000000000000000E+000
  0.000000000000000E+000
  0.000000000000000E+000
  0.000000000000000E+000
  0.000000000000000E+000
  0.000000000000000E+000
  0.000000000000000E+000
  0.000000000000000E+000
  0.000000000000000E+000
  0.000000000000000E+000
  0.000000000000000E+000
  0.000000000000000E+000
  0.000000000000000E+000
  0.000000000000000E+000
  0.000000000000000E+000
  0.000000000000000E+000
  0.000000000000000E+000
  0.000000000000000E+000
  0.000000000000000E+000
  0.000000000000000E+000
  0.000000000000000E+000
  0.000000000000000E+000
  0.000000000000000E+000
  0.000000000000000E+000
  0.000000000000000E+000
  0.000000000000000E+000
  0.000000000000000E+000
  0.000000000000000E+000
  0.000000000000000E+000
  0.000000000000000E+000
  0.000000000000000E+000
  0.000000000000000E+000
  0.000000000000000E+000
  0.000000000000000E+000
  0.000000000000000E+000
  0.000000000000000E+000
  0.000000000000000E+000
  0.000000000000000E+000
  0.000000000000000E+000
  0.000000000000000E+000
  0.000000000000000E+000
  0.000000000000000E+000
  0.000000000000000E+000
  0.000000000000000E+000
  0.000000000000000E+000
  0.000000000000000E+000
  0.000000000000000E+000
  0.000000000000000E+000
  0.000000000000000E+000
  0.000000000000000E+000
  0.000000000000000E+000
  0.000000000000000E+000
  0.000000000000000E+000
  0.000000000000000E+000
  0.000000000000000E+000
  0.000000000000000E+000
  0.000000000000000E+000
  0.000000000000000E+000
  0.000000000000000E+000
  0.000000000000000E+000
  0.000000000000000E+000
  0.000000000000000E+000
  0.000000000000000E+000
  0.000000000000000E+000
  0.000000000000000E+000
  0.000000000000000E+000
  0.000000000000000E+000
  0.000000000000000E+000
  0.000000000000000E+000
  0.000000000000000E+000
  0.000000000000000E+000
  0.000000000000000E+000
  0.000000000000000E+000
  0.000000000000000E+000
  0.000000000000000E+000
  0.000000000000000E+000
  0.000000000000000E+000
  0.000000000000000E+000
  0.000000000000000E+000
  0.000000000000000E+000
  0.000000000000000E+000
  0.000000000000000E+000
  0.000000000000000E+000
  0.000000000000000E+000
  0.000000000000000E+000
  0.000000000000000E+000
  0.000000000000000E+000
  0.000000000000000E+000
  0.000000000000000E+000
  0.000000000000000E+000
  0.000000000000000E+000
  0.000000000000000E+000
  0.000000000000000E+000
  0.000000000000000E+000
  0.000000000000000E+000
  0.000000000000000E+000
  0.000000000000000E+000
  0.000000000000000E+000
  0.000000000000000E+000
  0.000000000000000E+000
  0.000000000000000E+000
  0.000000000000000E+000
  0.000000000000000E+000
  0.000000000000000E+000
  0.000000000000000E+000
  0.000000000000000E+000
  0.000000000000000E+000
  0.000000000000000E+000
  0.000000000000000E+000
  0.000000000000000E+000
  0.000000000000000E+000
  0.000000000000000E+000
  0.000000000000000E+000
  0.000000000000000E+000
  0.000000000000000E+000
  0.000000000000000E+000
  0.000000000000000E+000
  0.000000000000000E+000
  0.000000000000000E+000
  0.000000000000000E+000
  0.000000000000000E+000
  0.000000000000000E+000
  0.000000000000000E+000
  0.000000000000000E+000
  0.000000000000000E+000
  0.000000000000000E+000
  0.000000000000000E+000
  0.000000000000000E+000
  0.000000000000000E+000
  0.000000000000000E+000
  0.000000000000000E+000
  0.000000000000000E+000
  0.000000000000000E+000
  0.000000000000000E+000
  0.000000000000000E+000
  0.000000000000000E+000
  0.000000000000000E+000
  0.000000000000000E+000
  0.000000000000000E+000
  0.000000000000000E+000
  0.000000000000000E+000
  0.000000000000000E+000
  0.000000000000000E+000
  0.000000000000000E+000
  0.000000000000000E+000
  0.000000000000000E+000
  0.000000000000000E+000
  0.000000000000000E+000
  0.000000000000000E+000
  0.000000000000000E+000
  0.000000000000000E+000
  0.000000000000000E+000
  0.000000000000000E+000
  0.000000000000000E+000
  0.000000000000000E+000
  0.000000000000000E+000
  0.000000000000000E+000
  0.000000000000000E+000
  0.000000000000000E+000
  0.000000000000000E+000
  0.000000000000000E+000
  0.000000000000000E+000
  0.000000000000000E+000
  0.000000000000000E+000
  0.000000000000000E+000
  0.000000000000000E+000
  0.000000000000000E+000
  0.000000000000000E+000
  0.000000000000000E+000
  0.000000000000000E+000
  0.000000000000000E+000
  0.000000000000000E+000
  0.000000000000000E+000
  0.000000000000000E+000
  0.000000000000000E+000
  0.000000000000000E+000
  0.000000000000000E+000
  0.000000000000000E+000
  0.000000000000000E+000
  0.000000000000000E+000
  0.000000000000000E+000
  0.000000000000000E+000
  0.000000000000000E+000
  0.000000000000000E+000
  0.000000000000000E+000
  0.000000000000000E+000
  0.000000000000000E+000
  0.000000000000000E+000
  0.000000000000000E+000
  0.000000000000000E+000
  0.000000000000000E+000
  0.000000000000000E+000
  0.000000000000000E+000
  0.000000000000000E+000
  0.000000000000000E+000
  0.000000000000000E+000
  0.000000000000000E+000
  0.000000000000000E+000
  0.000000000000000E+000
  0.000000000000000E+000
  0.000000000000000E+000
  0.000000000000000E+000
  0.000000000000000E+000
  0.000000000000000E+000
  0.000000000000000E+000
  0.000000000000000E+000
  0.000000000000000E+000
  0.000000000000000E+000
  0.000000000000000E+000
  0.000000000000000E+000
  0.000000000000000E+000
  0.000000000000000E+000
  0.000000000000000E+000
  0.000000000000000E+000
  0.000000000000000E+000
  0.000000000000000E+000
  0.000000000000000E+000
  0.000000000000000E+000
  0.000000000000000E+000
  0.000000000000000E+000
  0.000000000000000E+000
  0.000000000000000E+000
  0.000000000000000E+000
  0.000000000000000E+000
  0.000000000000000E+000
  0.000000000000000E+000
  0.000000000000000E+000
  0.000000000000000E+000
  0.000000000000000E+000
  0.000000000000000E+000
  0.000000000000000E+000
  0.000000000000000E+000
  0.000000000000000E+000
  0.000000000000000E+000
  0.000000000000000E+000
  0.000000000000000E+000
  0.000000000000000E+000
  0.000000000000000E+000
  0.000000000000000E+000
  0.000000000000000E+000
  0.000000000000000E+000
  0.000000000000000E+000
  0.000000000000000E+000
  0.000000000000000E+000
  0.000000000000000E+000
  0.000000000000000E+000
  0.000000000000000E+000
  0.000000000000000E+000
  0.000000000000000E+000
  0.000000000000000E+000
  0.000000000000000E+000
  0.000000000000000E+000
  0.000000000000000E+000
  0.000000000000000E+000
  0.000000000000000E+000
  0.000000000000000E+000
  0.000000000000000E+000
  0.000000000000000E+000
  0.000000000000000E+000
  0.000000000000000E+000
  0.000000000000000E+000
  0.000000000000000E+000
  0.000000000000000E+000
  0.000000000000000E+000
  0.000000000000000E+000
  0.000000000000000E+000
  0.000000000000000E+000
  0.000000000000000E+000
  0.000000000000000E+000
  0.000000000000000E+000
  0.000000000000000E+000
  0.000000000000000E+000
  0.000000000000000E+000
  0.000000000000000E+000
  0.000000000000000E+000
  0.000000000000000E+000
  0.000000000000000E+000
  0.000000000000000E+000
  0.000000000000000E+000
  0.000000000000000E+000
  0.000000000000000E+000
  0.000000000000000E+000
  0.000000000000000E+000
  0.000000000000000E+000
  0.000000000000000E+000
  0.000000000000000E+000
  0.000000000000000E+000
  0.000000000000000E+000
  0.000000000000000E+000
  0.000000000000000E+000
  0.000000000000000E+000
  0.000000000000000E+000
  0.000000000000000E+000
  0.000000000000000E+000
  0.000000000000000E+000
  0.000000000000000E+000
  0.000000000000000E+000
  0.000000000000000E+000
  0.000000000000000E+000
  0.000000000000000E+000
  0.000000000000000E+000
  0.000000000000000E+000
  0.000000000000000E+000
  0.000000000000000E+000
  0.000000000000000E+000
  0.000000000000000E+000
  0.000000000000000E+000
  0.000000000000000E+000
  0.000000000000000E+000
  0.000000000000000E+000
  0.000000000000000E+000
  0.000000000000000E+000
  0.000000000000000E+000
  0.000000000000000E+000
  0.000000000000000E+000
  0.000000000000000E+000
  0.000000000000000E+000
  0.000000000000000E+000
  0.000000000000000E+000
  0.000000000000000E+000
  0.000000000000000E+000
  0.000000000000000E+000
  0.000000000000000E+000
  0.000000000000000E+000
  0.000000000000000E+000
  0.000000000000000E+000
  0.000000000000000E+000
  0.000000000000000E+000
  0.000000000000000E+000
  0.000000000000000E+000
  0.000000000000000E+000
  0.000000000000000E+000
  0.000000000000000E+000
  0.000000000000000E+000
  0.000000000000000E+000
  0.000000000000000E+000
  0.000000000000000E+000
  0.000000000000000E+000
  0.000000000000000E+000
  0.000000000000000E+000
  0.000000000000000E+000
  0.000000000000000E+000
  0.000000000000000E+000
  0.000000000000000E+000
  0.000000000000000E+000
  0.000000000000000E+000
  0.000000000000000E+000
  0.000000000000000E+000
  0.000000000000000E+000
  0.000000000000000E+000
  0.000000000000000E+000
  0.000000000000000E+000
  0.000000000000000E+000
  0.000000000000000E+000
  0.000000000000000E+000
  0.000000000000000E+000
  0.000000000000000E+000
  0.000000000000000E+000
  0.000000000000000E+000
  0.000000000000000E+000
  0.000000000000000E+000
  0.000000000000000E+000
  0.000000000000000E+000
  0.000000000000000E+000
  0.000000000000000E+000
  0.000000000000000E+000
  0.000000000000000E+000
  0.000000000000000E+000
  0.000000000000000E+000
  0.000000000000000E+000
  0.000000000000000E+000
  0.000000000000000E+000
  0.000000000000000E+000
  0.000000000000000E+000
  0.000000000000000E+000
  0.000000000000000E+000
  0.000000000000000E+000
  0.000000000000000E+000
  0.000000000000000E+000
  0.000000000000000E+000
  0.000000000000000E+000
  0.000000000000000E+000
  0.000000000000000E+000
  0.000000000000000E+000
  0.000000000000000E+000
  0.000000000000000E+000
  0.000000000000000E+000
  0.000000000000000E+000
  0.000000000000000E+000
  0.000000000000000E+000
  0.000000000000000E+000
  0.000000000000000E+000
  0.000000000000000E+000
  0.000000000000000E+000
  0.000000000000000E+000
  0.000000000000000E+000
  0.000000000000000E+000
  0.000000000000000E+000
  0.000000000000000E+000
  0.000000000000000E+000
  0.000000000000000E+000
  0.000000000000000E+000
  0.000000000000000E+000
  0.000000000000000E+000
  0.000000000000000E+000
  0.000000000000000E+000
  0.000000000000000E+000
  0.000000000000000E+000
  0.000000000000000E+000
  0.000000000000000E+000
  0.000000000000000E+000
  0.000000000000000E+000
  0.000000000000000E+000
  0.000000000000000E+000
  0.000000000000000E+000
  0.000000000000000E+000
  0.000000000000000E+000
  0.000000000000000E+000
  0.000000000000000E+000
  0.000000000000000E+000
  0.000000000000000E+000
  0.000000000000000E+000
  0.000000000000000E+000
  0.000000000000000E+000
  0.000000000000000E+000
  0.000000000000000E+000
  0.000000000000000E+000
  0.000000000000000E+000
  0.000000000000000E+000
  0.000000000000000E+000
  0.000000000000000E+000
  0.000000000000000E+000
  0.000000000000000E+000
  0.000000000000000E+000
  0.000000000000000E+000
  0.000000000000000E+000
  0.000000000000000E+000
  0.000000000000000E+000
  0.000000000000000E+000
  0.000000000000000E+000
  0.000000000000000E+000
  0.000000000000000E+000
  0.000000000000000E+000
  0.000000000000000E+000
  0.000000000000000E+000
  0.000000000000000E+000
  0.000000000000000E+000
  0.000000000000000E+000
  0.000000000000000E+000
  0.000000000000000E+000
  0.000000000000000E+000
  0.000000000000000E+000
  0.000000000000000E+000
  0.000000000000000E+000
  0.000000000000000E+000
  0.000000000000000E+000
  0.000000000000000E+000
  0.000000000000000E+000
  0.000000000000000E+000
  0.000000000000000E+000
  0.000000000000000E+000
  0.000000000000000E+000
  0.000000000000000E+000
  0.000000000000000E+000
  0.000000000000000E+000
  0.000000000000000E+000
  0.000000000000000E+000
  0.000000000000000E+000
  0.000000000000000E+000
  0.000000000000000E+000
  0.000000000000000E+000
  0.000000000000000E+000
  0.000000000000000E+000
  0.000000000000000E+000
  0.000000000000000E+000
  0.000000000000000E+000
  0.000000000000000E+000
  0.000000000000000E+000
  0.000000000000000E+000
  0.000000000000000E+000
  0.000000000000000E+000
  0.000000000000000E+000
  0.000000000000000E+000
  0.000000000000000E+000
  0.000000000000000E+000
  0.000000000000000E+000
  0.000000000000000E+000
  0.000000000000000E+000
  0.000000000000000E+000
  0.000000000000000E+000
  0.000000000000000E+000
  0.000000000000000E+000
  0.000000000000000E+000
  0.000000000000000E+000
  0.000000000000000E+000
  0.000000000000000E+000
  0.000000000000000E+000
  0.000000000000000E+000
  0.000000000000000E+000
  0.000000000000000E+000
  0.000000000000000E+000
  0.000000000000000E+000
  0.000000000000000E+000
  0.000000000000000E+000
  0.000000000000000E+000
  0.000000000000000E+000
  0.000000000000000E+000
  0.000000000000000E+000
  0.000000000000000E+000
  0.000000000000000E+000
  0.000000000000000E+000
  0.000000000000000E+000
  0.000000000000000E+000
  0.000000000000000E+000
  0.000000000000000E+000
  0.000000000000000E+000
  0.000000000000000E+000
  0.000000000000000E+000
  0.000000000000000E+000
  0.000000000000000E+000
  0.000000000000000E+000
  0.000000000000000E+000
  0.000000000000000E+000
  0.000000000000000E+000
  0.000000000000000E+000
  0.000000000000000E+000
  0.000000000000000E+000
  0.000000000000000E+000
  0.000000000000000E+000
  0.000000000000000E+000
  0.000000000000000E+000
  0.000000000000000E+000
  0.000000000000000E+000
  0.000000000000000E+000
  0.000000000000000E+000
  0.000000000000000E+000
  0.000000000000000E+000
  0.000000000000000E+000
  0.000000000000000E+000
  0.000000000000000E+000
  0.000000000000000E+000
  0.000000000000000E+000
  0.000000000000000E+000
  0.000000000000000E+000
  0.000000000000000E+000
  0.000000000000000E+000
  0.000000000000000E+000
  0.000000000000000E+000
  0.000000000000000E+000
  0.000000000000000E+000
  0.000000000000000E+000
  0.000000000000000E+000
  0.000000000000000E+000
  0.000000000000000E+000
  0.000000000000000E+000
  0.000000000000000E+000
  0.000000000000000E+000
  0.000000000000000E+000
  0.000000000000000E+000
  0.000000000000000E+000
  0.000000000000000E+000
  0.000000000000000E+000
  0.000000000000000E+000
  0.000000000000000E+000
  0.000000000000000E+000
  0.000000000000000E+000
  0.000000000000000E+000
  0.000000000000000E+000
  0.000000000000000E+000
  0.000000000000000E+000
  0.000000000000000E+000
  0.000000000000000E+000
  0.000000000000000E+000
  0.000000000000000E+000
  0.000000000000000E+000
  0.000000000000000E+000
  0.000000000000000E+000
  0.000000000000000E+000
  0.000000000000000E+000
  0.000000000000000E+000
  0.000000000000000E+000
  0.000000000000000E+000
  0.000000000000000E+000
  0.000000000000000E+000
  0.000000000000000E+000
  0.000000000000000E+000
  0.000000000000000E+000
  0.000000000000000E+000
  0.000000000000000E+000
  0.000000000000000E+000
  0.000000000000000E+000
  0.000000000000000E+000
  0.000000000000000E+000
  0.000000000000000E+000
  0.000000000000000E+000
  0.000000000000000E+000
  0.000000000000000E+000
  0.000000000000000E+000
  0.000000000000000E+000
  0.000000000000000E+000
  0.000000000000000E+000
  0.000000000000000E+000
  0.000000000000000E+000
  0.000000000000000E+000
  0.000000000000000E+000
  0.000000000000000E+000
  0.000000000000000E+000
  0.000000000000000E+000
  0.000000000000000E+000
  0.000000000000000E+000
  0.000000000000000E+000
  0.000000000000000E+000
  0.000000000000000E+000
  0.000000000000000E+000
  0.000000000000000E+000
  0.000000000000000E+000
  0.000000000000000E+000
  0.000000000000000E+000
  0.000000000000000E+000
  0.000000000000000E+000
  0.000000000000000E+000
  0.000000000000000E+000
  0.000000000000000E+000
  0.000000000000000E+000
  0.000000000000000E+000
  0.000000000000000E+000
  0.000000000000000E+000
  0.000000000000000E+000
  0.000000000000000E+000
  0.000000000000000E+000
  0.000000000000000E+000
  0.000000000000000E+000
  0.000000000000000E+000
  0.000000000000000E+000
  0.000000000000000E+000
  0.000000000000000E+000
  0.000000000000000E+000
  0.000000000000000E+000
  0.000000000000000E+000
  0.000000000000000E+000
  0.000000000000000E+000
  0.000000000000000E+000
  0.000000000000000E+000
  0.000000000000000E+000
  0.000000000000000E+000
  0.000000000000000E+000
  0.000000000000000E+000
  0.000000000000000E+000
  0.000000000000000E+000
  0.000000000000000E+000
  0.000000000000000E+000
  0.000000000000000E+000
  0.000000000000000E+000
  0.000000000000000E+000
  0.000000000000000E+000
  0.000000000000000E+000
  0.000000000000000E+000
  0.000000000000000E+000
  0.000000000000000E+000
  0.000000000000000E+000
  0.000000000000000E+000
  0.000000000000000E+000
  0.000000000000000E+000
  0.000000000000000E+000
  0.000000000000000E+000
  0.000000000000000E+000
  0.000000000000000E+000
  0.000000000000000E+000
  0.000000000000000E+000
  0.000000000000000E+000
  0.000000000000000E+000
  0.000000000000000E+000
  0.000000000000000E+000
  0.000000000000000E+000
  0.000000000000000E+000
  0.000000000000000E+000
  0.000000000000000E+000
  0.000000000000000E+000
  0.000000000000000E+000
  0.000000000000000E+000
  0.000000000000000E+000
  0.000000000000000E+000
  0.000000000000000E+000
  0.000000000000000E+000
  0.000000000000000E+000
  0.000000000000000E+000
  0.000000000000000E+000
  0.000000000000000E+000
  0.000000000000000E+000
  0.000000000000000E+000
  0.000000000000000E+000
  0.000000000000000E+000
  0.000000000000000E+000
  0.000000000000000E+000
  0.000000000000000E+000
  0.000000000000000E+000
  0.000000000000000E+000
  0.000000000000000E+000
  0.000000000000000E+000
  0.000000000000000E+000
  0.000000000000000E+000
  0.000000000000000E+000
  0.000000000000000E+000
  0.000000000000000E+000
  0.000000000000000E+000
  0.000000000000000E+000
  0.000000000000000E+000
  0.000000000000000E+000
  0.000000000000000E+000
  0.000000000000000E+000
  0.000000000000000E+000
  0.000000000000000E+000
  0.000000000000000E+000
  0.000000000000000E+000
  0.000000000000000E+000
  0.000000000000000E+000
  0.000000000000000E+000
  0.000000000000000E+000
  0.000000000000000E+000
  0.000000000000000E+000
  0.000000000000000E+000
  0.000000000000000E+000
  0.000000000000000E+000
  0.000000000000000E+000
  0.000000000000000E+000
  0.000000000000000E+000
  0.000000000000000E+000
  0.000000000000000E+000
  0.000000000000000E+000
  0.000000000000000E+000
  0.000000000000000E+000
  0.000000000000000E+000
  0.000000000000000E+000
  0.000000000000000E+000
  0.000000000000000E+000
  0.000000000000000E+000
  0.000000000000000E+000
  0.000000000000000E+000
  0.000000000000000E+000
  0.000000000000000E+000
  0.000000000000000E+000
  0.000000000000000E+000
  0.000000000000000E+000
  0.000000000000000E+000
  0.000000000000000E+000
  0.000000000000000E+000
  0.000000000000000E+000
  0.000000000000000E+000
  0.000000000000000E+000
  0.000000000000000E+000
  0.000000000000000E+000
  0.000000000000000E+000
  0.000000000000000E+000
  0.000000000000000E+000
  0.000000000000000E+000
  0.000000000000000E+000
  0.000000000000000E+000
  0.000000000000000E+000
  0.000000000000000E+000
  0.000000000000000E+000
  0.000000000000000E+000
  0.000000000000000E+000
  0.000000000000000E+000
  0.000000000000000E+000
  0.000000000000000E+000
  0.000000000000000E+000
  0.000000000000000E+000
  0.000000000000000E+000
  0.000000000000000E+000
  0.000000000000000E+000
  0.000000000000000E+000
  0.000000000000000E+000
  0.000000000000000E+000
  0.000000000000000E+000
  0.000000000000000E+000
  0.000000000000000E+000
  0.000000000000000E+000
  0.000000000000000E+000
  0.000000000000000E+000
  0.000000000000000E+000
  0.000000000000000E+000
  0.000000000000000E+000
  0.000000000000000E+000
  0.000000000000000E+000
  0.000000000000000E+000
  0.000000000000000E+000
  0.000000000000000E+000
  0.000000000000000E+000
  0.000000000000000E+000
  0.000000000000000E+000
  0.000000000000000E+000
  0.000000000000000E+000
  0.000000000000000E+000
  0.000000000000000E+000
  0.000000000000000E+000
  0.000000000000000E+000
  0.000000000000000E+000
  0.000000000000000E+000
  0.000000000000000E+000
  0.000000000000000E+000
  0.000000000000000E+000
  0.000000000000000E+000
  0.000000000000000E+000
  0.000000000000000E+000
  0.000000000000000E+000
  0.000000000000000E+000
  0.000000000000000E+000
  0.000000000000000E+000
  0.000000000000000E+000
  0.000000000000000E+000
  0.000000000000000E+000
  0.000000000000000E+000
  0.000000000000000E+000
  0.000000000000000E+000
  0.000000000000000E+000
  0.000000000000000E+000
  0.000000000000000E+000
  0.000000000000000E+000
  0.000000000000000E+000
  0.000000000000000E+000
  0.000000000000000E+000
  0.000000000000000E+000
  0.000000000000000E+000
  0.000000000000000E+000
  0.000000000000000E+000
  0.000000000000000E+000
  0.000000000000000E+000
  0.000000000000000E+000
  0.000000000000000E+000
  0.000000000000000E+000
  0.000000000000000E+000
  0.000000000000000E+000
  0.000000000000000E+000
  0.000000000000000E+000
  0.000000000000000E+000
  0.000000000000000E+000
  0.000000000000000E+000
  0.000000000000000E+000
  0.000000000000000E+000
  0.000000000000000E+000
  0.000000000000000E+000
  0.000000000000000E+000
  0.000000000000000E+000
  0.000000000000000E+000
  0.000000000000000E+000
  0.000000000000000E+000
  0.000000000000000E+000
  0.000000000000000E+000
  0.000000000000000E+000
  0.000000000000000E+000
  0.000000000000000E+000
  0.000000000000000E+000
  0.000000000000000E+000
  0.000000000000000E+000
  0.000000000000000E+000
  0.000000000000000E+000
  0.000000000000000E+000
  0.000000000000000E+000
  0.000000000000000E+000
  0.000000000000000E+000
  0.000000000000000E+000
  0.000000000000000E+000
  0.000000000000000E+000
  0.000000000000000E+000
  0.000000000000000E+000
  0.000000000000000E+000
  0.000000000000000E+000
  0.000000000000000E+000
  0.000000000000000E+000
  0.000000000000000E+000
  0.000000000000000E+000
  0.000000000000000E+000
  0.000000000000000E+000
  0.000000000000000E+000
  0.000000000000000E+000
  0.000000000000000E+000
  0.000000000000000E+000
  0.000000000000000E+000
  0.000000000000000E+000
  0.000000000000000E+000
  0.000000000000000E+000
  0.000000000000000E+000
  0.000000000000000E+000
  0.000000000000000E+000
  0.000000000000000E+000
  0.000000000000000E+000
  0.000000000000000E+000
  0.000000000000000E+000
  0.000000000000000E+000
  0.000000000000000E+000
  0.000000000000000E+000
  0.000000000000000E+000
  0.000000000000000E+000
  0.000000000000000E+000
  0.000000000000000E+000
  0.000000000000000E+000
  0.000000000000000E+000
  0.000000000000000E+000
  0.000000000000000E+000
  0.000000000000000E+000
  0.000000000000000E+000
  0.000000000000000E+000
  0.000000000000000E+000
  0.000000000000000E+000
  0.000000000000000E+000
  0.000000000000000E+000
  0.000000000000000E+000
  0.000000000000000E+000
  0.000000000000000E+000
  0.000000000000000E+000
  0.000000000000000E+000
  0.000000000000000E+000
  0.000000000000000E+000
  0.000000000000000E+000
  0.000000000000000E+000
  0.000000000000000E+000
  0.000000000000000E+000
  0.000000000000000E+000
  0.000000000000000E+000
  0.000000000000000E+000
  0.000000000000000E+000
  0.000000000000000E+000
  0.000000000000000E+000
  0.000000000000000E+000
  0.000000000000000E+000
  0.000000000000000E+000
  0.000000000000000E+000
  0.000000000000000E+000
  0.000000000000000E+000
  0.000000000000000E+000
  0.000000000000000E+000
  0.000000000000000E+000
  0.000000000000000E+000
  0.000000000000000E+000
  0.000000000000000E+000
  0.000000000000000E+000
  0.000000000000000E+000
  0.000000000000000E+000
  0.000000000000000E+000
  0.000000000000000E+000
  0.000000000000000E+000
  0.000000000000000E+000
  0.000000000000000E+000
  0.000000000000000E+000
  0.000000000000000E+000
  0.000000000000000E+000
  0.000000000000000E+000
  0.000000000000000E+000
  0.000000000000000E+000
  0.000000000000000E+000
  0.000000000000000E+000
  0.000000000000000E+000
  0.000000000000000E+000
  0.000000000000000E+000
  0.000000000000000E+000
  0.000000000000000E+000
  0.000000000000000E+000
  0.000000000000000E+000
  0.000000000000000E+000
  0.000000000000000E+000
  0.000000000000000E+000
  0.000000000000000E+000
  0.000000000000000E+000
  0.000000000000000E+000
  0.000000000000000E+000
  0.000000000000000E+000
  0.000000000000000E+000
  0.000000000000000E+000
  0.000000000000000E+000
  0.000000000000000E+000
  0.000000000000000E+000
  0.000000000000000E+000
  0.000000000000000E+000
  0.000000000000000E+000
  0.000000000000000E+000
  0.000000000000000E+000
  0.000000000000000E+000
  0.000000000000000E+000
  0.000000000000000E+000
  0.000000000000000E+000
  0.000000000000000E+000
  0.000000000000000E+000
  0.000000000000000E+000
  0.000000000000000E+000
  0.000000000000000E+000
  0.000000000000000E+000
  0.000000000000000E+000
  0.000000000000000E+000
  0.000000000000000E+000
  0.000000000000000E+000
  0.000000000000000E+000
  0.000000000000000E+000
  0.000000000000000E+000
  0.000000000000000E+000
  0.000000000000000E+000
  0.000000000000000E+000
  0.000000000000000E+000
  0.000000000000000E+000
  0.000000000000000E+000
  0.000000000000000E+000
  0.000000000000000E+000
  0.000000000000000E+000
  0.000000000000000E+000
  0.000000000000000E+000
  0.000000000000000E+000
  0.000000000000000E+000
  0.000000000000000E+000
  0.000000000000000E+000
  0.000000000000000E+000
  0.000000000000000E+000
  0.000000000000000E+000
  0.000000000000000E+000
  0.000000000000000E+000
  0.000000000000000E+000
  0.000000000000000E+000
  0.000000000000000E+000
  0.000000000000000E+000
  0.000000000000000E+000
  0.000000000000000E+000
  0.000000000000000E+000
  0.000000000000000E+000
  0.000000000000000E+000
  0.000000000000000E+000
  0.000000000000000E+000
  0.000000000000000E+000
  0.000000000000000E+000
  0.000000000000000E+000
  0.000000000000000E+000
  0.000000000000000E+000
  0.000000000000000E+000
  0.000000000000000E+000
  0.000000000000000E+000
  0.000000000000000E+000
  0.000000000000000E+000
  0.000000000000000E+000
  0.000000000000000E+000
  0.000000000000000E+000
  0.000000000000000E+000
  0.000000000000000E+000
  0.000000000000000E+000
  0.000000000000000E+000
  0.000000000000000E+000
  0.000000000000000E+000
  0.000000000000000E+000
  0.000000000000000E+000
  0.000000000000000E+000
  0.000000000000000E+000
  0.000000000000000E+000
  0.000000000000000E+000
  0.000000000000000E+000
  0.000000000000000E+000
  0.000000000000000E+000
  0.000000000000000E+000
  0.000000000000000E+000
  0.000000000000000E+000
  0.000000000000000E+000
  0.000000000000000E+000
  0.000000000000000E+000
  0.000000000000000E+000
  0.000000000000000E+000
  0.000000000000000E+000
  0.000000000000000E+000
  0.000000000000000E+000
  0.000000000000000E+000
  0.000000000000000E+000
  0.000000000000000E+000
  0.000000000000000E+000
  0.000000000000000E+000
  0.000000000000000E+000
  0.000000000000000E+000
  0.000000000000000E+000
  0.000000000000000E+000
  0.000000000000000E+000
  0.000000000000000E+000
  0.000000000000000E+000
  0.000000000000000E+000
  0.000000000000000E+000
  0.000000000000000E+000
  0.000000000000000E+000
  0.000000000000000E+000
  0.000000000000000E+000
  0.000000000000000E+000
  0.000000000000000E+000
  0.000000000000000E+000
  0.000000000000000E+000
  0.000000000000000E+000
  0.000000000000000E+000
  0.000000000000000E+000
  0.000000000000000E+000
  0.000000000000000E+000
  0.000000000000000E+000
  0.000000000000000E+000
  0.000000000000000E+000
  0.000000000000000E+000
  0.000000000000000E+000
  0.000000000000000E+000
  0.000000000000000E+000
  0.000000000000000E+000
  0.000000000000000E+000
  0.000000000000000E+000
  0.000000000000000E+000
  0.000000000000000E+000
  0.000000000000000E+000
  0.000000000000000E+000
  0.000000000000000E+000
  0.000000000000000E+000
  0.000000000000000E+000
  0.000000000000000E+000
  0.000000000000000E+000
  0.000000000000000E+000
  0.000000000000000E+000
  0.000000000000000E+000
  0.000000000000000E+000
  0.000000000000000E+000
  0.000000000000000E+000
  0.000000000000000E+000
  0.000000000000000E+000
  0.000000000000000E+000
  0.000000000000000E+000
  0.000000000000000E+000
  0.000000000000000E+000
  0.000000000000000E+000
  0.000000000000000E+000
  0.000000000000000E+000
  0.000000000000000E+000
  0.000000000000000E+000
  0.000000000000000E+000
  0.000000000000000E+000
  0.000000000000000E+000
  0.000000000000000E+000
  0.000000000000000E+000
  0.000000000000000E+000
  0.000000000000000E+000
  0.000000000000000E+000
  0.000000000000000E+000
  0.000000000000000E+000
  0.000000000000000E+000
  0.000000000000000E+000
  0.000000000000000E+000
  0.000000000000000E+000
  0.000000000000000E+000
  0.000000000000000E+000
  0.000000000000000E+000
  0.000000000000000E+000
  0.000000000000000E+000
  0.000000000000000E+000
  0.000000000000000E+000
  0.000000000000000E+000
  0.000000000000000E+000
  0.000000000000000E+000
  0.000000000000000E+000
  0.000000000000000E+000
  0.000000000000000E+000
  0.000000000000000E+000
  0.000000000000000E+000
  0.000000000000000E+000
  0.000000000000000E+000
  0.000000000000000E+000
  0.000000000000000E+000
  0.000000000000000E+000
  0.000000000000000E+000
  0.000000000000000E+000
  0.000000000000000E+000
  0.000000000000000E+000
  0.000000000000000E+000
  0.000000000000000E+000
  0.000000000000000E+000
  0.000000000000000E+000
  0.000000000000000E+000
  0.000000000000000E+000
  0.000000000000000E+000
  0.000000000000000E+000
  0.000000000000000E+000
  0.000000000000000E+000
  0.000000000000000E+000
  0.000000000000000E+000
  0.000000000000000E+000
  0.000000000000000E+000
  0.000000000000000E+000
  0.000000000000000E+000
  0.000000000000000E+000
  0.000000000000000E+000
  0.000000000000000E+000
  0.000000000000000E+000
  0.000000000000000E+000
  0.000000000000000E+000
  0.000000000000000E+000
  0.000000000000000E+000
  0.000000000000000E+000
  0.000000000000000E+000
  0.000000000000000E+000
  0.000000000000000E+000
  0.000000000000000E+000
  0.000000000000000E+000
  0.000000000000000E+000
  0.000000000000000E+000
  0.000000000000000E+000
  0.000000000000000E+000
  0.000000000000000E+000
  0.000000000000000E+000
  0.000000000000000E+000
  0.000000000000000E+000
  0.000000000000000E+000
  0.000000000000000E+000
  0.000000000000000E+000
  0.000000000000000E+000
  0.000000000000000E+000
  0.000000000000000E+000
  0.000000000000000E+000
  0.000000000000000E+000
  0.000000000000000E+000
  0.000000000000000E+000
  0.000000000000000E+000
  0.000000000000000E+000
  0.000000000000000E+000
  0.000000000000000E+000
  0.000000000000000E+000
  0.000000000000000E+000
  0.000000000000000E+000
  0.000000000000000E+000
  0.000000000000000E+000
  0.000000000000000E+000
  0.000000000000000E+000
  0.000000000000000E+000
  0.000000000000000E+000
  0.000000000000000E+000
  0.000000000000000E+000
  0.000000000000000E+000
  0.000000000000000E+000
  0.000000000000000E+000
  0.000000000000000E+000
  0.000000000000000E+000
  0.000000000000000E+000
  0.000000000000000E+000
  0.000000000000000E+000
  0.000000000000000E+000
  0.000000000000000E+000
  0.000000000000000E+000
  0.000000000000000E+000
  0.000000000000000E+000
  0.000000000000000E+000
  0.000000000000000E+000
  0.000000000000000E+000
  0.000000000000000E+000
  0.000000000000000E+000
  0.000000000000000E+000
  0.000000000000000E+000
  0.000000000000000E+000
  0.000000000000000E+000
  0.000000000000000E+000
  0.000000000000000E+000
  0.000000000000000E+000
  0.000000000000000E+000
  0.000000000000000E+000
  0.000000000000000E+000
  0.000000000000000E+000
  0.000000000000000E+000
  0.000000000000000E+000
  0.000000000000000E+000
  0.000000000000000E+000
  0.000000000000000E+000
  0.000000000000000E+000
  0.000000000000000E+000
  0.000000000000000E+000
  0.000000000000000E+000
  0.000000000000000E+000
  0.000000000000000E+000
  0.000000000000000E+000
  0.000000000000000E+000
  0.000000000000000E+000
  0.000000000000000E+000
  0.000000000000000E+000
  0.000000000000000E+000
  0.000000000000000E+000
  0.000000000000000E+000
  0.000000000000000E+000
  0.000000000000000E+000
  0.000000000000000E+000
  0.000000000000000E+000
  0.000000000000000E+000
  0.000000000000000E+000
  0.000000000000000E+000
  0.000000000000000E+000
  0.000000000000000E+000
  0.000000000000000E+000
  0.000000000000000E+000
  0.000000000000000E+000
  0.000000000000000E+000
  0.000000000000000E+000
  0.000000000000000E+000
  0.000000000000000E+000
  0.000000000000000E+000
  0.000000000000000E+000
  0.000000000000000E+000
  0.000000000000000E+000
  0.000000000000000E+000
  0.000000000000000E+000
  0.000000000000000E+000
  0.000000000000000E+000
  0.000000000000000E+000
  0.000000000000000E+000
  0.000000000000000E+000
  0.000000000000000E+000
  0.000000000000000E+000
  0.000000000000000E+000
  0.000000000000000E+000
  0.000000000000000E+000
  0.000000000000000E+000
  0.000000000000000E+000
  0.000000000000000E+000
  0.000000000000000E+000
  0.000000000000000E+000
  0.000000000000000E+000
  0.000000000000000E+000
  0.000000000000000E+000
  0.000000000000000E+000
  0.000000000000000E+000
  0.000000000000000E+000
  0.000000000000000E+000
  0.000000000000000E+000
  0.000000000000000E+000
  0.000000000000000E+000
  0.000000000000000E+000
  0.000000000000000E+000
  0.000000000000000E+000
  0.000000000000000E+000
  0.000000000000000E+000
  0.000000000000000E+000
  0.000000000000000E+000
  0.000000000000000E+000
  0.000000000000000E+000
  0.000000000000000E+000
  0.000000000000000E+000
  0.000000000000000E+000
  0.000000000000000E+000
  0.000000000000000E+000
  0.000000000000000E+000
  0.000000000000000E+000
  0.000000000000000E+000
  0.000000000000000E+000
  0.000000000000000E+000
  0.000000000000000E+000
  0.000000000000000E+000
  0.000000000000000E+000
  0.000000000000000E+000
  0.000000000000000E+000
  0.000000000000000E+000
  0.000000000000000E+000
  0.000000000000000E+000
  0.000000000000000E+000
  0.000000000000000E+000
  0.000000000000000E+000
  0.000000000000000E+000
  0.000000000000000E+000
  0.000000000000000E+000
  0.000000000000000E+000
  0.000000000000000E+000
  0.000000000000000E+000
  0.000000000000000E+000
  0.000000000000000E+000
  0.000000000000000E+000
  0.000000000000000E+000
  0.000000000000000E+000
  0.000000000000000E+000
  0.000000000000000E+000
  0.000000000000000E+000
  0.000000000000000E+000
  0.000000000000000E+000
  0.000000000000000E+000
  0.000000000000000E+000
  0.000000000000000E+000
  0.000000000000000E+000
  0.000000000000000E+000
  0.000000000000000E+000
  0.000000000000000E+000
  0.000000000000000E+000
  0.000000000000000E+000
  0.000000000000000E+000
  0.000000000000000E+000
  0.000000000000000E+000
  0.000000000000000E+000
  0.000000000000000E+000
  0.000000000000000E+000
  0.000000000000000E+000
  0.000000000000000E+000
  0.000000000000000E+000
  0.000000000000000E+000
  0.000000000000000E+000
  0.000000000000000E+000
  0.000000000000000E+000
  0.000000000000000E+000
  0.000000000000000E+000
  0.000000000000000E+000
  0.000000000000000E+000
  0.000000000000000E+000
  0.000000000000000E+000
  0.000000000000000E+000
  0.000000000000000E+000
  0.000000000000000E+000
  0.000000000000000E+000
  0.000000000000000E+000
  0.000000000000000E+000
  0.000000000000000E+000
  0.000000000000000E+000
  0.000000000000000E+000
  0.000000000000000E+000
  0.000000000000000E+000
  0.000000000000000E+000
  0.000000000000000E+000
  0.000000000000000E+000
  0.000000000000000E+000
  0.000000000000000E+000
  0.000000000000000E+000
  0.000000000000000E+000
  0.000000000000000E+000
  0.000000000000000E+000
  0.000000000000000E+000
  0.000000000000000E+000
  0.000000000000000E+000
  0.000000000000000E+000
  0.000000000000000E+000
  0.000000000000000E+000
  0.000000000000000E+000
  0.000000000000000E+000
  0.000000000000000E+000
  0.000000000000000E+000
  0.000000000000000E+000
  0.000000000000000E+000
  0.000000000000000E+000
  0.000000000000000E+000
  0.000000000000000E+000
  0.000000000000000E+000
  0.000000000000000E+000
  0.000000000000000E+000
  0.000000000000000E+000
  0.000000000000000E+000
  0.000000000000000E+000
  0.000000000000000E+000
  0.000000000000000E+000
  0.000000000000000E+000
  0.000000000000000E+000
  0.000000000000000E+000
  0.000000000000000E+000
  0.000000000000000E+000
  0.000000000000000E+000
  0.000000000000000E+000
  0.000000000000000E+000
  0.000000000000000E+000
  0.000000000000000E+000
  0.000000000000000E+000
  0.000000000000000E+000
  0.000000000000000E+000
  0.000000000000000E+000
  0.000000000000000E+000
  0.000000000000000E+000
  0.000000000000000E+000
  0.000000000000000E+000
  0.000000000000000E+000
  0.000000000000000E+000
  0.000000000000000E+000
  0.000000000000000E+000
  0.000000000000000E+000
  0.000000000000000E+000
  0.000000000000000E+000
  0.000000000000000E+000
  0.000000000000000E+000
  0.000000000000000E+000
  0.000000000000000E+000
  0.000000000000000E+000
  0.000000000000000E+000
  0.000000000000000E+000
  0.000000000000000E+000
  0.000000000000000E+000
  0.000000000000000E+000
  0.000000000000000E+000
  0.000000000000000E+000
  0.000000000000000E+000
  0.000000000000000E+000
  0.000000000000000E+000
  0.000000000000000E+000
  0.000000000000000E+000
  0.000000000000000E+000
  0.000000000000000E+000
  0.000000000000000E+000
  0.000000000000000E+000
  0.000000000000000E+000
  0.000000000000000E+000
  0.000000000000000E+000
  0.000000000000000E+000
  0.000000000000000E+000
  0.000000000000000E+000
  0.000000000000000E+000
  0.000000000000000E+000
  0.000000000000000E+000
  0.000000000000000E+000
  0.000000000000000E+000
  0.000000000000000E+000
  0.000000000000000E+000
  0.000000000000000E+000
  0.000000000000000E+000
  0.000000000000000E+000
  0.000000000000000E+000
  0.000000000000000E+000
  0.000000000000000E+000
  0.000000000000000E+000
  0.000000000000000E+000
  0.000000000000000E+000
  0.000000000000000E+000
  0.000000000000000E+000
  0.000000000000000E+000
  0.000000000000000E+000
  0.000000000000000E+000
  0.000000000000000E+000
  0.000000000000000E+000
  0.000000000000000E+000
  0.000000000000000E+000
  0.000000000000000E+000
  0.000000000000000E+000
  0.000000000000000E+000
  0.000000000000000E+000
  0.000000000000000E+000
  0.000000000000000E+000
  0.000000000000000E+000
  0.000000000000000E+000
  0.000000000000000E+000
  0.000000000000000E+000
  0.000000000000000E+000
  0.000000000000000E+000
  0.000000000000000E+000
  0.000000000000000E+000
  0.000000000000000E+000
  0.000000000000000E+000
  0.000000000000000E+000
  0.000000000000000E+000
  0.000000000000000E+000
  0.000000000000000E+000
  0.000000000000000E+000
  0.000000000000000E+000
  0.000000000000000E+000
  0.000000000000000E+000
  0.000000000000000E+000
  0.000000000000000E+000
  0.000000000000000E+000
  0.000000000000000E+000
  0.000000000000000E+000
  0.000000000000000E+000
  0.000000000000000E+000
  0.000000000000000E+000
  0.000000000000000E+000
  0.000000000000000E+000
  0.000000000000000E+000
  0.000000000000000E+000
  0.000000000000000E+000
  0.000000000000000E+000
  0.000000000000000E+000
  0.000000000000000E+000
  0.000000000000000E+000
  0.000000000000000E+000
  0.000000000000000E+000
  0.000000000000000E+000
  0.000000000000000E+000
  0.000000000000000E+000
  0.000000000000000E+000
  0.000000000000000E+000
  0.000000000000000E+000
  0.000000000000000E+000
  0.000000000000000E+000
  0.000000000000000E+000
  0.000000000000000E+000
  0.000000000000000E+000
  0.000000000000000E+000
  0.000000000000000E+000
  0.000000000000000E+000
  0.000000000000000E+000
  0.000000000000000E+000
  0.000000000000000E+000
  0.000000000000000E+000
  0.000000000000000E+000
  0.000000000000000E+000
  0.000000000000000E+000
  0.000000000000000E+000
  0.000000000000000E+000
  0.000000000000000E+000
  0.000000000000000E+000
  0.000000000000000E+000
  0.000000000000000E+000
  0.000000000000000E+000
  0.000000000000000E+000
  0.000000000000000E+000
  0.000000000000000E+000
  0.000000000000000E+000
  0.000000000000000E+000
  0.000000000000000E+000
  0.000000000000000E+000
  0.000000000000000E+000
  0.000000000000000E+000
  0.000000000000000E+000
  0.000000000000000E+000
  0.000000000000000E+000
  0.000000000000000E+000
  0.000000000000000E+000
  0.000000000000000E+000
  0.000000000000000E+000
  0.000000000000000E+000
  0.000000000000000E+000
  0.000000000000000E+000
  0.000000000000000E+000
  0.000000000000000E+000
  0.000000000000000E+000
  0.000000000000000E+000
  0.000000000000000E+000
  0.000000000000000E+000
  0.000000000000000E+000
  0.000000000000000E+000
  0.000000000000000E+000
  0.000000000000000E+000
  0.000000000000000E+000
  0.000000000000000E+000
  0.000000000000000E+000
  0.000000000000000E+000
  0.000000000000000E+000
  0.000000000000000E+000
  0.000000000000000E+000
  0.000000000000000E+000
  0.000000000000000E+000
  0.000000000000000E+000
  0.000000000000000E+000
  0.000000000000000E+000
  0.000000000000000E+000
  0.000000000000000E+000
  0.000000000000000E+000
  0.000000000000000E+000
  0.000000000000000E+000
  0.000000000000000E+000
  0.000000000000000E+000
  0.000000000000000E+000
  0.000000000000000E+000
  0.000000000000000E+000
  0.000000000000000E+000
  0.000000000000000E+000
  0.000000000000000E+000
  0.000000000000000E+000
  0.000000000000000E+000
  0.000000000000000E+000
  0.000000000000000E+000
  0.000000000000000E+000
  0.000000000000000E+000
  0.000000000000000E+000
  0.000000000000000E+000
  0.000000000000000E+000
  0.000000000000000E+000
  0.000000000000000E+000
  0.000000000000000E+000
  0.000000000000000E+000
  0.000000000000000E+000
  0.000000000000000E+000
  0.000000000000000E+000
  0.000000000000000E+000
  0.000000000000000E+000
  0.000000000000000E+000
  0.000000000000000E+000
  0.000000000000000E+000
  0.000000000000000E+000
  0.000000000000000E+000
  0.000000000000000E+000
  0.000000000000000E+000
  0.000000000000000E+000
  0.000000000000000E+000
  0.000000000000000E+000
  0.000000000000000E+000
  0.000000000000000E+000
  0.000000000000000E+000
  0.000000000000000E+000
  0.000000000000000E+000
  0.000000000000000E+000
  0.000000000000000E+000
  0.000000000000000E+000
  0.000000000000000E+000
  0.000000000000000E+000
  0.000000000000000E+000
  0.000000000000000E+000
  0.000000000000000E+000
  0.000000000000000E+000
  0.000000000000000E+000
  0.000000000000000E+000
  0.000000000000000E+000
  0.000000000000000E+000
  0.000000000000000E+000
  0.000000000000000E+000
  0.000000000000000E+000
  0.000000000000000E+000
  0.000000000000000E+000
  0.000000000000000E+000
  0.000000000000000E+000
  0.000000000000000E+000
  0.000000000000000E+000
  0.000000000000000E+000
  0.000000000000000E+000
  0.000000000000000E+000
  0.000000000000000E+000
  0.000000000000000E+000
  0.000000000000000E+000
  0.000000000000000E+000
  0.000000000000000E+000
  0.000000000000000E+000
  0.000000000000000E+000
  0.000000000000000E+000
  0.000000000000000E+000
  0.000000000000000E+000
  0.000000000000000E+000
  0.000000000000000E+000
  0.000000000000000E+000
  0.000000000000000E+000
  0.000000000000000E+000
  0.000000000000000E+000
  0.000000000000000E+000
  0.000000000000000E+000
  0.000000000000000E+000
  0.000000000000000E+000
  0.000000000000000E+000
  0.000000000000000E+000
  0.000000000000000E+000
  0.000000000000000E+000
  0.000000000000000E+000
  0.000000000000000E+000
  0.000000000000000E+000
  0.000000000000000E+000
  0.000000000000000E+000
  0.000000000000000E+000
  0.000000000000000E+000
  0.000000000000000E+000
  0.000000000000000E+000
  0.000000000000000E+000
  0.000000000000000E+000
  0.000000000000000E+000
  0.000000000000000E+000
  0.000000000000000E+000
  0.000000000000000E+000
  0.000000000000000E+000
  0.000000000000000E+000
  0.000000000000000E+000
  0.000000000000000E+000
  0.000000000000000E+000
  0.000000000000000E+000
  0.000000000000000E+000
  0.000000000000000E+000
  0.000000000000000E+000
  0.000000000000000E+000
  0.000000000000000E+000
  0.000000000000000E+000
  0.000000000000000E+000
  0.000000000000000E+000
  0.000000000000000E+000
  0.000000000000000E+000
  0.000000000000000E+000
  0.000000000000000E+000
  0.000000000000000E+000
  0.000000000000000E+000
  0.000000000000000E+000
  0.000000000000000E+000
  0.000000000000000E+000
  0.000000000000000E+000
  0.000000000000000E+000
  0.000000000000000E+000
  0.000000000000000E+000
  0.000000000000000E+000
  0.000000000000000E+000
  0.000000000000000E+000
  0.000000000000000E+000
  0.000000000000000E+000
  0.000000000000000E+000
  0.000000000000000E+000
  0.000000000000000E+000
  0.000000000000000E+000
  0.000000000000000E+000
  0.000000000000000E+000
  0.000000000000000E+000
  0.000000000000000E+000
  0.000000000000000E+000
  0.000000000000000E+000
  0.000000000000000E+000
  0.000000000000000E+000
  0.000000000000000E+000
  0.000000000000000E+000
  0.000000000000000E+000
  0.000000000000000E+000
  0.000000000000000E+000
  0.000000000000000E+000
  0.000000000000000E+000
  0.000000000000000E+000
  0.000000000000000E+000
  0.000000000000000E+000
  0.000000000000000E+000
  0.000000000000000E+000
  0.000000000000000E+000
  0.000000000000000E+000
  0.000000000000000E+000
  0.000000000000000E+000
  0.000000000000000E+000
  0.000000000000000E+000
  0.000000000000000E+000
  0.000000000000000E+000
  0.000000000000000E+000
  0.000000000000000E+000
  0.000000000000000E+000
  0.000000000000000E+000
  0.000000000000000E+000
  0.000000000000000E+000
  0.000000000000000E+000
  0.000000000000000E+000
  0.000000000000000E+000
  0.000000000000000E+000
  0.000000000000000E+000
  0.000000000000000E+000
  0.000000000000000E+000
  0.000000000000000E+000
  0.000000000000000E+000
  0.000000000000000E+000
  0.000000000000000E+000
  0.000000000000000E+000
  0.000000000000000E+000
  0.000000000000000E+000
  0.000000000000000E+000
  0.000000000000000E+000
  0.000000000000000E+000
  0.000000000000000E+000
  0.000000000000000E+000
  0.000000000000000E+000
  0.000000000000000E+000
  0.000000000000000E+000
  0.000000000000000E+000
  0.000000000000000E+000
  0.000000000000000E+000
  0.000000000000000E+000
  0.000000000000000E+000
  0.000000000000000E+000
  0.000000000000000E+000
  0.000000000000000E+000
  0.000000000000000E+000
  0.000000000000000E+000
  0.000000000000000E+000
  0.000000000000000E+000
  0.000000000000000E+000
  0.000000000000000E+000
  0.000000000000000E+000
  0.000000000000000E+000
  0.000000000000000E+000
  0.000000000000000E+000
  0.000000000000000E+000
  0.000000000000000E+000
  0.000000000000000E+000
  0.000000000000000E+000
  0.000000000000000E+000
  0.000000000000000E+000
  0.000000000000000E+000
  0.000000000000000E+000
  0.000000000000000E+000
  0.000000000000000E+000
  0.000000000000000E+000
  0.000000000000000E+000
  0.000000000000000E+000
  0.000000000000000E+000
  0.000000000000000E+000
  0.000000000000000E+000
  0.000000000000000E+000
  0.000000000000000E+000
  0.000000000000000E+000
  0.000000000000000E+000
  0.000000000000000E+000
  0.000000000000000E+000
  0.000000000000000E+000
  0.000000000000000E+000
  0.000000000000000E+000
  0.000000000000000E+000
  0.000000000000000E+000
  0.000000000000000E+000
  0.000000000000000E+000
  0.000000000000000E+000
  0.000000000000000E+000
  0.000000000000000E+000
  0.000000000000000E+000
  0.000000000000000E+000
  0.000000000000000E+000
  0.000000000000000E+000
  0.000000000000000E+000
  0.000000000000000E+000
  0.000000000000000E+000
  0.000000000000000E+000
  0.000000000000000E+000
  0.000000000000000E+000
  0.000000000000000E+000
  0.000000000000000E+000
  0.000000000000000E+000
  0.000000000000000E+000
  0.000000000000000E+000
  0.000000000000000E+000
  0.000000000000000E+000
  0.000000000000000E+000
  0.000000000000000E+000
  0.000000000000000E+000
  0.000000000000000E+000
  0.000000000000000E+000
  0.000000000000000E+000
  0.000000000000000E+000
  0.000000000000000E+000
  0.000000000000000E+000
  0.000000000000000E+000
  0.000000000000000E+000
  0.000000000000000E+000
  0.000000000000000E+000
  0.000000000000000E+000
  0.000000000000000E+000
  0.000000000000000E+000
  0.000000000000000E+000
  0.000000000000000E+000
  0.000000000000000E+000
  0.000000000000000E+000
  0.000000000000000E+000
  0.000000000000000E+000
  0.000000000000000E+000
  0.000000000000000E+000
  0.000000000000000E+000
  0.000000000000000E+000
  0.000000000000000E+000
  0.000000000000000E+000
  0.000000000000000E+000
  0.000000000000000E+000
  0.000000000000000E+000
  0.000000000000000E+000
  0.000000000000000E+000
  0.000000000000000E+000
  0.000000000000000E+000
  0.000000000000000E+000
  0.000000000000000E+000
  0.000000000000000E+000
  0.000000000000000E+000
  0.000000000000000E+000
  0.000000000000000E+000
  0.000000000000000E+000
  0.000000000000000E+000
  0.000000000000000E+000
  0.000000000000000E+000
  0.000000000000000E+000
  0.000000000000000E+000
  0.000000000000000E+000
  0.000000000000000E+000
  0.000000000000000E+000
  0.000000000000000E+000
  0.000000000000000E+000
  0.000000000000000E+000
  0.000000000000000E+000
  0.000000000000000E+000
  0.000000000000000E+000
  0.000000000000000E+000
  0.000000000000000E+000
  0.000000000000000E+000
  0.000000000000000E+000
  0.000000000000000E+000
  0.000000000000000E+000
  0.000000000000000E+000
  0.000000000000000E+000
  0.000000000000000E+000
  0.000000000000000E+000
  0.000000000000000E+000
  0.000000000000000E+000
  0.000000000000000E+000
  0.000000000000000E+000
  0.000000000000000E+000
  0.000000000000000E+000
  0.000000000000000E+000
  0.000000000000000E+000
  0.000000000000000E+000
  0.000000000000000E+000
  0.000000000000000E+000
  0.000000000000000E+000
  0.000000000000000E+000
  0.000000000000000E+000
  0.000000000000000E+000
  0.000000000000000E+000
  0.000000000000000E+000
  0.000000000000000E+000
  0.000000000000000E+000
  0.000000000000000E+000
  0.000000000000000E+000
  0.000000000000000E+000
  0.000000000000000E+000
  0.000000000000000E+000
  0.000000000000000E+000
  0.000000000000000E+000
  0.000000000000000E+000
  0.000000000000000E+000
  0.000000000000000E+000
  0.000000000000000E+000
  0.000000000000000E+000
  0.000000000000000E+000
  0.000000000000000E+000
  0.000000000000000E+000
  0.000000000000000E+000
  0.000000000000000E+000
  0.000000000000000E+000
  0.000000000000000E+000
  0.000000000000000E+000
  0.000000000000000E+000
  0.000000000000000E+000
  0.000000000000000E+000
  0.000000000000000E+000
  0.000000000000000E+000
  0.000000000000000E+000
  0.000000000000000E+000
  0.000000000000000E+000
  0.000000000000000E+000
  0.000000000000000E+000
  0.000000000000000E+000
  0.000000000000000E+000
  0.000000000000000E+000
  0.000000000000000E+000
  0.000000000000000E+000
  0.000000000000000E+000
  0.000000000000000E+000
  0.000000000000000E+000
  0.000000000000000E+000
  0.000000000000000E+000
  0.000000000000000E+000
  0.000000000000000E+000
  0.000000000000000E+000
  0.000000000000000E+000
  0.000000000000000E+000
  0.000000000000000E+000
  0.000000000000000E+000
  0.000000000000000E+000
  0.000000000000000E+000
  0.000000000000000E+000
  0.000000000000000E+000
  0.000000000000000E+000
  0.000000000000000E+000
  0.000000000000000E+000
  0.000000000000000E+000
  0.000000000000000E+000
  0.000000000000000E+000
  0.000000000000000E+000
  0.000000000000000E+000
  0.000000000000000E+000
  0.000000000000000E+000
  0.000000000000000E+000
  0.000000000000000E+000
  0.000000000000000E+000
  0.000000000000000E+000
  0.000000000000000E+000
  0.000000000000000E+000
  0.000000000000000E+000
  0.000000000000000E+000
  0.000000000000000E+000
  0.000000000000000E+000
  0.000000000000000E+000
  0.000000000000000E+000
  0.000000000000000E+000
  0.000000000000000E+000
  0.000000000000000E+000
  0.000000000000000E+000
  0.000000000000000E+000
  0.000000000000000E+000
  0.000000000000000E+000
  0.000000000000000E+000
  0.000000000000000E+000
  0.000000000000000E+000
  0.000000000000000E+000
  0.000000000000000E+000
  0.000000000000000E+000
  0.000000000000000E+000
  0.000000000000000E+000
  0.000000000000000E+000
  0.000000000000000E+000
  0.000000000000000E+000
  0.000000000000000E+000
  0.000000000000000E+000
  0.000000000000000E+000
  0.000000000000000E+000
  0.000000000000000E+000
  0.000000000000000E+000
  0.000000000000000E+000
  0.000000000000000E+000
  0.000000000000000E+000
  0.000000000000000E+000
  0.000000000000000E+000
  0.000000000000000E+000
  0.000000000000000E+000
  0.000000000000000E+000
  0.000000000000000E+000
  0.000000000000000E+000
  0.000000000000000E+000
  0.000000000000000E+000
  0.000000000000000E+000
  0.000000000000000E+000
  0.000000000000000E+000
  0.000000000000000E+000
  0.000000000000000E+000
  0.000000000000000E+000
  0.000000000000000E+000
  0.000000000000000E+000
  0.000000000000000E+000
  0.000000000000000E+000
  0.000000000000000E+000
  0.000000000000000E+000
  0.000000000000000E+000
  0.000000000000000E+000
  0.000000000000000E+000
  0.000000000000000E+000
  0.000000000000000E+000
  0.000000000000000E+000
  0.000000000000000E+000
  0.000000000000000E+000
  0.000000000000000E+000
  0.000000000000000E+000
  0.000000000000000E+000
  0.000000000000000E+000
  0.000000000000000E+000
  0.000000000000000E+000
  0.000000000000000E+000
  0.000000000000000E+000
  0.000000000000000E+000
  0.000000000000000E+000
  0.000000000000000E+000
  0.000000000000000E+000
  0.000000000000000E+000
  0.000000000000000E+000
  0.000000000000000E+000
  0.000000000000000E+000
  0.000000000000000E+000
  0.000000000000000E+000
  0.000000000000000E+000
  0.000000000000000E+000
  0.000000000000000E+000
  0.000000000000000E+000
  0.000000000000000E+000
  0.000000000000000E+000
  0.000000000000000E+000
  0.000000000000000E+000
  0.000000000000000E+000
  0.000000000000000E+000
  0.000000000000000E+000
  0.000000000000000E+000
  0.000000000000000E+000
  0.000000000000000E+000
  0.000000000000000E+000
  0.000000000000000E+000
  0.000000000000000E+000
  0.000000000000000E+000
  0.000000000000000E+000
  0.000000000000000E+000
  0.000000000000000E+000
  0.000000000000000E+000
  0.000000000000000E+000
  0.000000000000000E+000
  0.000000000000000E+000
  0.000000000000000E+000
  0.000000000000000E+000
  0.000000000000000E+000
  0.000000000000000E+000
  0.000000000000000E+000
  0.000000000000000E+000
  0.000000000000000E+000
  0.000000000000000E+000
  0.000000000000000E+000
  0.000000000000000E+000
  0.000000000000000E+000
  0.000000000000000E+000
  0.000000000000000E+000
  0.000000000000000E+000
  0.000000000000000E+000
  0.000000000000000E+000
  0.000000000000000E+000
  0.000000000000000E+000
  0.000000000000000E+000
  0.000000000000000E+000
  0.000000000000000E+000
  0.000000000000000E+000
  0.000000000000000E+000
  0.000000000000000E+000
  0.000000000000000E+000
  0.000000000000000E+000
  0.000000000000000E+000
  0.000000000000000E+000
  0.000000000000000E+000
  0.000000000000000E+000
  0.000000000000000E+000
  0.000000000000000E+000
  0.000000000000000E+000
  0.000000000000000E+000
  0.000000000000000E+000
  0.000000000000000E+000
  0.000000000000000E+000
  0.000000000000000E+000
  0.000000000000000E+000
  0.000000000000000E+000
  0.000000000000000E+000
  0.000000000000000E+000
  0.000000000000000E+000
  0.000000000000000E+000
  0.000000000000000E+000
  0.000000000000000E+000
  0.000000000000000E+000
  0.000000000000000E+000
  0.000000000000000E+000
  0.000000000000000E+000
  0.000000000000000E+000
  0.000000000000000E+000
  0.000000000000000E+000
  0.000000000000000E+000
  0.000000000000000E+000
  0.000000000000000E+000
  0.000000000000000E+000
  0.000000000000000E+000
  0.000000000000000E+000
  0.000000000000000E+000
  0.000000000000000E+000
  0.000000000000000E+000
  0.000000000000000E+000
  0.000000000000000E+000
  0.000000000000000E+000
  0.000000000000000E+000
  0.000000000000000E+000
  0.000000000000000E+000
  0.000000000000000E+000
  0.000000000000000E+000
  0.000000000000000E+000
  0.000000000000000E+000
  0.000000000000000E+000
  0.000000000000000E+000
  0.000000000000000E+000
  0.000000000000000E+000
  0.000000000000000E+000
  0.000000000000000E+000
  0.000000000000000E+000
  0.000000000000000E+000
  0.000000000000000E+000
  0.000000000000000E+000
  0.000000000000000E+000
  0.000000000000000E+000
  0.000000000000000E+000
  0.000000000000000E+000
  0.000000000000000E+000
  0.000000000000000E+000
  0.000000000000000E+000
  0.000000000000000E+000
  0.000000000000000E+000
  0.000000000000000E+000
  0.000000000000000E+000
  0.000000000000000E+000
  0.000000000000000E+000
  0.000000000000000E+000
  0.000000000000000E+000
  0.000000000000000E+000
  0.000000000000000E+000
  0.000000000000000E+000
  0.000000000000000E+000
  0.000000000000000E+000
  0.000000000000000E+000
  0.000000000000000E+000
  0.000000000000000E+000
  0.000000000000000E+000
  0.000000000000000E+000
  0.000000000000000E+000
  0.000000000000000E+000
  0.000000000000000E+000
  0.000000000000000E+000
  0.000000000000000E+000
  0.000000000000000E+000
  0.000000000000000E+000
  0.000000000000000E+000
  0.000000000000000E+000
  0.000000000000000E+000
  0.000000000000000E+000
  0.000000000000000E+000
  0.000000000000000E+000
  0.000000000000000E+000
  0.000000000000000E+000
  0.000000000000000E+000
  0.000000000000000E+000
  0.000000000000000E+000
  0.000000000000000E+000
  0.000000000000000E+000
  0.000000000000000E+000
  0.000000000000000E+000
  0.000000000000000E+000
  0.000000000000000E+000
  0.000000000000000E+000
  0.000000000000000E+000
  0.000000000000000E+000
  0.000000000000000E+000
  0.000000000000000E+000
  0.000000000000000E+000
  0.000000000000000E+000
  0.000000000000000E+000
  0.000000000000000E+000
  0.000000000000000E+000
  0.000000000000000E+000
  0.000000000000000E+000
  0.000000000000000E+000
  0.000000000000000E+000
  0.000000000000000E+000
  0.000000000000000E+000
  0.000000000000000E+000
  0.000000000000000E+000
  0.000000000000000E+000
  0.000000000000000E+000
  0.000000000000000E+000
  0.000000000000000E+000
  0.000000000000000E+000
  0.000000000000000E+000
  0.000000000000000E+000
  0.000000000000000E+000
  0.000000000000000E+000
  0.000000000000000E+000
  0.000000000000000E+000
  0.000000000000000E+000
  0.000000000000000E+000
  0.000000000000000E+000
  0.000000000000000E+000
  0.000000000000000E+000
  0.000000000000000E+000
  0.000000000000000E+000
  0.000000000000000E+000
  0.000000000000000E+000
  0.000000000000000E+000
  0.000000000000000E+000
  0.000000000000000E+000
  0.000000000000000E+000
  0.000000000000000E+000
  0.000000000000000E+000
  0.000000000000000E+000
  0.000000000000000E+000
  0.000000000000000E+000
  0.000000000000000E+000
  0.000000000000000E+000
  0.000000000000000E+000
  0.000000000000000E+000
  0.000000000000000E+000
  0.000000000000000E+000
  0.000000000000000E+000
  0.000000000000000E+000
  0.000000000000000E+000
  0.000000000000000E+000
  0.000000000000000E+000
  0.000000000000000E+000
  0.000000000000000E+000
  0.000000000000000E+000
  0.000000000000000E+000
  0.000000000000000E+000
  0.000000000000000E+000
  0.000000000000000E+000
  0.000000000000000E+000
  0.000000000000000E+000
  0.000000000000000E+000
  0.000000000000000E+000
  0.000000000000000E+000
  0.000000000000000E+000
  0.000000000000000E+000
  0.000000000000000E+000
  0.000000000000000E+000
  0.000000000000000E+000
  0.000000000000000E+000
  0.000000000000000E+000
  0.000000000000000E+000
  0.000000000000000E+000
  0.000000000000000E+000
  0.000000000000000E+000
  0.000000000000000E+000
  0.000000000000000E+000
  0.000000000000000E+000
  0.000000000000000E+000
  0.000000000000000E+000
  0.000000000000000E+000
  0.000000000000000E+000
  0.000000000000000E+000
  0.000000000000000E+000
  0.000000000000000E+000
  0.000000000000000E+000
  0.000000000000000E+000
  0.000000000000000E+000
  0.000000000000000E+000
  0.000000000000000E+000
  0.000000000000000E+000
  0.000000000000000E+000
  0.000000000000000E+000
  0.000000000000000E+000
  0.000000000000000E+000
  0.000000000000000E+000
  0.000000000000000E+000
  0.000000000000000E+000
  0.000000000000000E+000
  0.000000000000000E+000
  0.000000000000000E+000
  0.000000000000000E+000
  0.000000000000000E+000
  0.000000000000000E+000
  0.000000000000000E+000
  0.000000000000000E+000
  0.000000000000000E+000
  0.000000000000000E+000
  0.000000000000000E+000
  0.000000000000000E+000
  0.000000000000000E+000
  0.000000000000000E+000
  0.000000000000000E+000
  0.000000000000000E+000
  0.000000000000000E+000
  0.000000000000000E+000
  0.000000000000000E+000
  0.000000000000000E+000
  0.000000000000000E+000
  0.000000000000000E+000
  0.000000000000000E+000
  0.000000000000000E+000
  0.000000000000000E+000
  0.000000000000000E+000
  0.000000000000000E+000
  0.000000000000000E+000
  0.000000000000000E+000
  0.000000000000000E+000
  0.000000000000000E+000
  0.000000000000000E+000
  0.000000000000000E+000
  0.000000000000000E+000
  0.000000000000000E+000
  0.000000000000000E+000
  0.000000000000000E+000
  0.000000000000000E+000
  0.000000000000000E+000
  0.000000000000000E+000
  0.000000000000000E+000
  0.000000000000000E+000
  0.000000000000000E+000
  0.000000000000000E+000
  0.000000000000000E+000
  0.000000000000000E+000
  0.000000000000000E+000
  0.000000000000000E+000
  0.000000000000000E+000
  0.000000000000000E+000
  0.000000000000000E+000
  0.000000000000000E+000
  0.000000000000000E+000
  0.000000000000000E+000
  0.000000000000000E+000
  0.000000000000000E+000
  0.000000000000000E+000
  0.000000000000000E+000
  0.000000000000000E+000
  0.000000000000000E+000
  0.000000000000000E+000
  0.000000000000000E+000
  0.000000000000000E+000
  0.000000000000000E+000
  0.000000000000000E+000
  0.000000000000000E+000
  0.000000000000000E+000
  0.000000000000000E+000
  0.000000000000000E+000
  0.000000000000000E+000
  0.000000000000000E+000
  0.000000000000000E+000
  0.000000000000000E+000
  0.000000000000000E+000
  0.000000000000000E+000
  0.000000000000000E+000
  0.000000000000000E+000
  0.000000000000000E+000
  0.000000000000000E+000
  0.000000000000000E+000
  0.000000000000000E+000
  0.000000000000000E+000
  0.000000000000000E+000
  0.000000000000000E+000
  0.000000000000000E+000
  0.000000000000000E+000
  0.000000000000000E+000
  0.000000000000000E+000
  0.000000000000000E+000
  0.000000000000000E+000
  0.000000000000000E+000
  0.000000000000000E+000
  0.000000000000000E+000
  0.000000000000000E+000
  0.000000000000000E+000
  0.000000000000000E+000
  0.000000000000000E+000
  0.000000000000000E+000
  0.000000000000000E+000
  0.000000000000000E+000
  0.000000000000000E+000
  0.000000000000000E+000
  0.000000000000000E+000
  0.000000000000000E+000
  0.000000000000000E+000
  0.000000000000000E+000
  0.000000000000000E+000
  0.000000000000000E+000
  0.000000000000000E+000
  0.000000000000000E+000
  0.000000000000000E+000
  0.000000000000000E+000
  0.000000000000000E+000
  0.000000000000000E+000
  0.000000000000000E+000
  0.000000000000000E+000
  0.000000000000000E+000
  0.000000000000000E+000
  0.000000000000000E+000
  0.000000000000000E+000
  0.000000000000000E+000
  0.000000000000000E+000
  0.000000000000000E+000
  0.000000000000000E+000
  0.000000000000000E+000
  0.000000000000000E+000
  0.000000000000000E+000
  0.000000000000000E+000
  0.000000000000000E+000
  0.000000000000000E+000
  0.000000000000000E+000
  0.000000000000000E+000
  0.000000000000000E+000
  0.000000000000000E+000
  0.000000000000000E+000
  0.000000000000000E+000
  0.000000000000000E+000
  0.000000000000000E+000
  0.000000000000000E+000
  0.000000000000000E+000
  0.000000000000000E+000
  0.000000000000000E+000
  0.000000000000000E+000
  0.000000000000000E+000
  0.000000000000000E+000
  0.000000000000000E+000
  0.000000000000000E+000
  0.000000000000000E+000
  0.000000000000000E+000
  0.000000000000000E+000
  0.000000000000000E+000
  0.000000000000000E+000
  0.000000000000000E+000
  0.000000000000000E+000
  0.000000000000000E+000
  0.000000000000000E+000
  0.000000000000000E+000
  0.000000000000000E+000
  0.000000000000000E+000
  0.000000000000000E+000
  0.000000000000000E+000
  0.000000000000000E+000
  0.000000000000000E+000
  0.000000000000000E+000
  0.000000000000000E+000
  0.000000000000000E+000
  0.000000000000000E+000
  0.000000000000000E+000
  0.000000000000000E+000
  0.000000000000000E+000
  0.000000000000000E+000
  0.000000000000000E+000
  0.000000000000000E+000
  0.000000000000000E+000
  0.000000000000000E+000
  0.000000000000000E+000
  0.000000000000000E+000
  0.000000000000000E+000
  0.000000000000000E+000
  0.000000000000000E+000
  0.000000000000000E+000
  0.000000000000000E+000
  0.000000000000000E+000
  0.000000000000000E+000
  0.000000000000000E+000
  0.000000000000000E+000
  0.000000000000000E+000
  0.000000000000000E+000
  0.000000000000000E+000
  0.000000000000000E+000
  0.000000000000000E+000
  0.000000000000000E+000
  0.000000000000000E+000
  0.000000000000000E+000
  0.000000000000000E+000
  0.000000000000000E+000
  0.000000000000000E+000
  0.000000000000000E+000
  0.000000000000000E+000
  0.000000000000000E+000
  0.000000000000000E+000
  0.000000000000000E+000
  0.000000000000000E+000
  0.000000000000000E+000
  0.000000000000000E+000
  0.000000000000000E+000
  0.000000000000000E+000
  0.000000000000000E+000
  0.000000000000000E+000
  0.000000000000000E+000
  0.000000000000000E+000
  0.000000000000000E+000
  0.000000000000000E+000
  0.000000000000000E+000
  0.000000000000000E+000
  0.000000000000000E+000
  0.000000000000000E+000
  0.000000000000000E+000
  0.000000000000000E+000
  0.000000000000000E+000
  0.000000000000000E+000
  0.000000000000000E+000
  0.000000000000000E+000
  0.000000000000000E+000
  0.000000000000000E+000
  0.000000000000000E+000
  0.000000000000000E+000
  0.000000000000000E+000
  0.000000000000000E+000
  0.000000000000000E+000
  0.000000000000000E+000
  0.000000000000000E+000
  0.000000000000000E+000
  0.000000000000000E+000
  0.000000000000000E+000
  0.000000000000000E+000
  0.000000000000000E+000
  0.000000000000000E+000
  0.000000000000000E+000
  0.000000000000000E+000
  0.000000000000000E+000
  0.000000000000000E+000
  0.000000000000000E+000
  0.000000000000000E+000
  0.000000000000000E+000
  0.000000000000000E+000
  0.000000000000000E+000
  0.000000000000000E+000
  0.000000000000000E+000
  0.000000000000000E+000
  0.000000000000000E+000
  0.000000000000000E+000
  0.000000000000000E+000
  0.000000000000000E+000
  0.000000000000000E+000
  0.000000000000000E+000
  0.000000000000000E+000
  0.000000000000000E+000
  0.000000000000000E+000
  0.000000000000000E+000
  0.000000000000000E+000
  0.000000000000000E+000
  0.000000000000000E+000
  0.000000000000000E+000
  0.000000000000000E+000
  0.000000000000000E+000
  0.000000000000000E+000
  0.000000000000000E+000
  0.000000000000000E+000
  0.000000000000000E+000
  0.000000000000000E+000
